     Program PWSCF v.7.2 starts on 11Aug2025 at 10:29: 2

     Reading input from /home/jvc/QEspresso7.2/ZnO_database/scripts/cell233.in/ZnO-3.40-1.49-233.in
Warning: card &CELL ignored
Warning: card / ignored
Warning: card &FCP ignored
Warning: card / ignored
Warning: card &RISM ignored
Warning: card / ignored

     Current dimensions of program PWSCF are:
     Max number of different atomic species (ntypx) = 10
     Max number of k-points (npk) =  40000
     Max angular momentum in pseudopotentials (lmaxx) =  4
     file Zn.upf: wavefunction(s)  3D renormalized
     Found identity + (  0.0000  0.0000  0.3333) symmetry
     This is a supercell, fractional translations are disabled

     K-points division:     npool     =       8
     R & G space division:  proc/nbgrp/npool/nimage =       4
     Subspace diagonalization in iterative solution of the eigenvalue problem:
     one sub-group per band group will be used

     Using Slab Decomposition

     bravais-lattice index     =            0
     lattice parameter (alat)  =      12.3576  a.u.
     unit-cell volume          =    5936.3583 (a.u.)^3
     number of atoms/cell      =           72
     number of atomic types    =            2
     number of electrons       =       648.00
     number of Kohn-Sham states=          324
     kinetic-energy cutoff     =      50.0000  Ry
     charge density cutoff     =     400.0000  Ry
     scf convergence threshold =      1.0E-08
     mixing beta               =       0.3000
     number of iterations used =            8  plain     mixing
     Exchange-correlation= PBE
                           (   1   4   3   4   0   0   0)

     celldm(1)=  12.357644  celldm(2)=   0.000000  celldm(3)=   0.000000
     celldm(4)=   0.000000  celldm(5)=   0.000000  celldm(6)=   0.000000

     crystal axes: (cart. coord. in units of alat)
               a(1) = (   1.000000   0.000000   0.000000 )
               a(2) = (  -0.750000   1.299038   0.000000 )
               a(3) = (   0.000000   0.000000   2.421538 )

     reciprocal axes: (cart. coord. in units 2 pi/alat)
               b(1) = (  1.000000  0.577350 -0.000000 )
               b(2) = (  0.000000  0.769800  0.000000 )
               b(3) = (  0.000000 -0.000000  0.412961 )

     PseudoPot. # 1 for Zn read from file:
     /home/jvc/QEspresso7.2/ZnO_database/pseudos/Zn.upf
     MD5 check sum: 7f56cabf9682ed8c977c2f7d0c5985c5
     Pseudo is Ultrasoft + core correction, Zval = 12.0
     Generated using &quot;atomic&quot; code by A. Dal Corso  v.6.2.2
     Using radial grid of 1201 points,  6 beta functions with:
                l(1) =   0
                l(2) =   0
                l(3) =   1
                l(4) =   1
                l(5) =   2
                l(6) =   2
     Q(r) pseudized with 0 coefficients

     PseudoPot. # 2 for O  read from file:
     /home/jvc/QEspresso7.2/ZnO_database/pseudos/O.upf
     MD5 check sum: 91400c9766925bcf19f520983a725ff0
     Pseudo is Ultrasoft + core correction, Zval =  6.0
     Generated using &quot;atomic&quot; code by A. Dal Corso  v.6.3MaX
     Using radial grid of 1095 points,  4 beta functions with:
                l(1) =   0
                l(2) =   0
                l(3) =   1
                l(4) =   1
     Q(r) pseudized with 0 coefficients

     atomic species   valence    mass     pseudopotential
        Zn            12.00    65.38000     Zn( 1.00)
        O              6.00    15.99900     O ( 1.00)

     No symmetry found

                                    s                        frac. trans.

      isym =  1     identity

 cryst.   s( 1) = (     1          0          0      )
                  (     0          1          0      )
                  (     0          0          1      )

 cart.    s( 1) = (  1.0000000  0.0000000  0.0000000 )
                  (  0.0000000  1.0000000  0.0000000 )
                  (  0.0000000  0.0000000  1.0000000 )

   Cartesian axes

     site n.     atom                  positions (alat units)
         1           Zn  tau(   1) = (   0.2500000   0.1443376   0.4041010  )
         2           Zn  tau(   2) = (   0.0000000   0.2886751   0.0005114  )
         3           O   tau(   3) = (   0.2500000   0.1443376   0.7100565  )
         4           O   tau(   4) = (   0.0000000   0.2886751   0.3064669  )
         5           Zn  tau(   5) = (   0.2500000   0.1443376   1.2112802  )
         6           Zn  tau(   6) = (   0.0000000   0.2886751   0.8076906  )
         7           O   tau(   7) = (   0.2500000   0.1443376   1.5172357  )
         8           O   tau(   8) = (   0.0000000   0.2886751   1.1136461  )
         9           Zn  tau(   9) = (   0.2500000   0.1443376   2.0184594  )
        10           Zn  tau(  10) = (   0.0000000   0.2886751   1.6148698  )
        11           O   tau(  11) = (   0.2500000   0.1443376   2.3244148  )
        12           O   tau(  12) = (   0.0000000   0.2886751   1.9208253  )
        13           Zn  tau(  13) = (   0.0000000   0.5773503   0.4041010  )
        14           Zn  tau(  14) = (  -0.2500000   0.7216878   0.0005114  )
        15           O   tau(  15) = (   0.0000000   0.5773503   0.7100565  )
        16           O   tau(  16) = (  -0.2500000   0.7216878   0.3064669  )
        17           Zn  tau(  17) = (   0.0000000   0.5773503   1.2112802  )
        18           Zn  tau(  18) = (  -0.2500000   0.7216878   0.8076906  )
        19           O   tau(  19) = (   0.0000000   0.5773503   1.5172357  )
        20           O   tau(  20) = (  -0.2500000   0.7216878   1.1136461  )
        21           Zn  tau(  21) = (   0.0000000   0.5773503   2.0184594  )
        22           Zn  tau(  22) = (  -0.2500000   0.7216878   1.6148698  )
        23           O   tau(  23) = (   0.0000000   0.5773503   2.3244148  )
        24           O   tau(  24) = (  -0.2500000   0.7216878   1.9208253  )
        25           Zn  tau(  25) = (  -0.2500000   1.0103630   0.4041010  )
        26           Zn  tau(  26) = (  -0.5000000   1.1547005   0.0005114  )
        27           O   tau(  27) = (  -0.2500000   1.0103630   0.7100565  )
        28           O   tau(  28) = (  -0.5000000   1.1547005   0.3064669  )
        29           Zn  tau(  29) = (  -0.2500000   1.0103630   1.2112802  )
        30           Zn  tau(  30) = (  -0.5000000   1.1547005   0.8076906  )
        31           O   tau(  31) = (  -0.2500000   1.0103630   1.5172357  )
        32           O   tau(  32) = (  -0.5000000   1.1547005   1.1136461  )
        33           Zn  tau(  33) = (  -0.2500000   1.0103630   2.0184594  )
        34           Zn  tau(  34) = (  -0.5000000   1.1547005   1.6148698  )
        35           O   tau(  35) = (  -0.2500000   1.0103630   2.3244148  )
        36           O   tau(  36) = (  -0.5000000   1.1547005   1.9208253  )
        37           Zn  tau(  37) = (   0.7500000   0.1443376   0.4041010  )
        38           Zn  tau(  38) = (   0.5000000   0.2886751   0.0005114  )
        39           O   tau(  39) = (   0.7500000   0.1443376   0.7100565  )
        40           O   tau(  40) = (   0.5000000   0.2886751   0.3064669  )
        41           Zn  tau(  41) = (   0.7500000   0.1443376   1.2112802  )
        42           Zn  tau(  42) = (   0.5000000   0.2886751   0.8076906  )
        43           O   tau(  43) = (   0.7500000   0.1443376   1.5172357  )
        44           O   tau(  44) = (   0.5000000   0.2886751   1.1136461  )
        45           Zn  tau(  45) = (   0.7500000   0.1443376   2.0184594  )
        46           Zn  tau(  46) = (   0.5000000   0.2886751   1.6148698  )
        47           O   tau(  47) = (   0.7500000   0.1443376   2.3244148  )
        48           O   tau(  48) = (   0.5000000   0.2886751   1.9208253  )
        49           Zn  tau(  49) = (   0.5000000   0.5773503   0.4041010  )
        50           Zn  tau(  50) = (   0.2500000   0.7216878   0.0005114  )
        51           O   tau(  51) = (   0.5000000   0.5773503   0.7100565  )
        52           O   tau(  52) = (   0.2500000   0.7216878   0.3064669  )
        53           Zn  tau(  53) = (   0.5000000   0.5773503   1.2112802  )
        54           Zn  tau(  54) = (   0.2500000   0.7216878   0.8076906  )
        55           O   tau(  55) = (   0.5000000   0.5773503   1.5172357  )
        56           O   tau(  56) = (   0.2500000   0.7216878   1.1136461  )
        57           Zn  tau(  57) = (   0.5000000   0.5773503   2.0184594  )
        58           Zn  tau(  58) = (   0.2500000   0.7216878   1.6148698  )
        59           O   tau(  59) = (   0.5000000   0.5773503   2.3244148  )
        60           O   tau(  60) = (   0.2500000   0.7216878   1.9208253  )
        61           Zn  tau(  61) = (   0.2500000   1.0103630   0.4041010  )
        62           Zn  tau(  62) = (   0.0000000   1.1547005   0.0005114  )
        63           O   tau(  63) = (   0.2500000   1.0103630   0.7100565  )
        64           O   tau(  64) = (   0.0000000   1.1547005   0.3064669  )
        65           Zn  tau(  65) = (   0.2500000   1.0103630   1.2112802  )
        66           Zn  tau(  66) = (   0.0000000   1.1547005   0.8076906  )
        67           O   tau(  67) = (   0.2500000   1.0103630   1.5172357  )
        68           O   tau(  68) = (   0.0000000   1.1547005   1.1136461  )
        69           Zn  tau(  69) = (   0.2500000   1.0103630   2.0184594  )
        70           Zn  tau(  70) = (   0.0000000   1.1547005   1.6148698  )
        71           O   tau(  71) = (   0.2500000   1.0103630   2.3244148  )
        72           O   tau(  72) = (   0.0000000   1.1547005   1.9208253  )

   Crystallographic axes

     site n.     atom                  positions (cryst. coord.)
         1           Zn  tau(   1) = (  0.3333333  0.1111111  0.1668779  )
         2           Zn  tau(   2) = (  0.1666667  0.2222222  0.0002112  )
         3           O   tau(   3) = (  0.3333333  0.1111111  0.2932255  )
         4           O   tau(   4) = (  0.1666667  0.2222222  0.1265588  )
         5           Zn  tau(   5) = (  0.3333333  0.1111111  0.5002112  )
         6           Zn  tau(   6) = (  0.1666667  0.2222222  0.3335445  )
         7           O   tau(   7) = (  0.3333333  0.1111111  0.6265588  )
         8           O   tau(   8) = (  0.1666667  0.2222222  0.4598921  )
         9           Zn  tau(   9) = (  0.3333333  0.1111111  0.8335445  )
        10           Zn  tau(  10) = (  0.1666667  0.2222222  0.6668779  )
        11           O   tau(  11) = (  0.3333333  0.1111111  0.9598921  )
        12           O   tau(  12) = (  0.1666667  0.2222222  0.7932255  )
        13           Zn  tau(  13) = (  0.3333333  0.4444444  0.1668779  )
        14           Zn  tau(  14) = (  0.1666667  0.5555556  0.0002112  )
        15           O   tau(  15) = (  0.3333333  0.4444444  0.2932255  )
        16           O   tau(  16) = (  0.1666667  0.5555556  0.1265588  )
        17           Zn  tau(  17) = (  0.3333333  0.4444444  0.5002112  )
        18           Zn  tau(  18) = (  0.1666667  0.5555556  0.3335445  )
        19           O   tau(  19) = (  0.3333333  0.4444444  0.6265588  )
        20           O   tau(  20) = (  0.1666667  0.5555556  0.4598921  )
[...]
     atom   16 type  2   force =     0.00000000   -0.00000000   -0.00006503
     atom   17 type  1   force =     0.00000000   -0.00000000    0.00046402
     atom   18 type  1   force =    -0.00000001   -0.00000000    0.00046401
     atom   19 type  2   force =    -0.00000000   -0.00000000   -0.00006503
     atom   20 type  2   force =     0.00000000   -0.00000000   -0.00006502
     atom   21 type  1   force =     0.00000001   -0.00000001    0.00046401
     atom   22 type  1   force =    -0.00000000   -0.00000001    0.00046401
     atom   23 type  2   force =    -0.00000000   -0.00000000   -0.00006503
     atom   24 type  2   force =    -0.00000000   -0.00000000   -0.00006503
     atom   25 type  1   force =     0.00000001    0.00000001    0.00046400
     atom   26 type  1   force =     0.00000001    0.00000001    0.00046401
     atom   27 type  2   force =     0.00000000    0.00000000   -0.00006503
     atom   28 type  2   force =    -0.00000000    0.00000000   -0.00006503
     atom   29 type  1   force =     0.00000001    0.00000000    0.00046402
     atom   30 type  1   force =     0.00000000   -0.00000001    0.00046401
     atom   31 type  2   force =     0.00000000   -0.00000000   -0.00006502
     atom   32 type  2   force =     0.00000000    0.00000001   -0.00006502
     atom   33 type  1   force =     0.00000001    0.00000001    0.00046401
     atom   34 type  1   force =     0.00000000    0.00000000    0.00046401
     atom   35 type  2   force =     0.00000000    0.00000000   -0.00006503
     atom   36 type  2   force =     0.00000000    0.00000000   -0.00006503
     atom   37 type  1   force =    -0.00000000   -0.00000001    0.00046400
     atom   38 type  1   force =    -0.00000001    0.00000000    0.00046401
     atom   39 type  2   force =     0.00000000    0.00000000   -0.00006503
     atom   40 type  2   force =    -0.00000000   -0.00000000   -0.00006503
     atom   41 type  1   force =     0.00000000    0.00000000    0.00046401
     atom   42 type  1   force =    -0.00000000    0.00000001    0.00046400
     atom   43 type  2   force =     0.00000000    0.00000000   -0.00006503
     atom   44 type  2   force =    -0.00000000   -0.00000000   -0.00006502
     atom   45 type  1   force =     0.00000001    0.00000000    0.00046400
     atom   46 type  1   force =     0.00000000    0.00000000    0.00046402
     atom   47 type  2   force =     0.00000000    0.00000001   -0.00006503
     atom   48 type  2   force =    -0.00000000   -0.00000000   -0.00006503
     atom   49 type  1   force =    -0.00000000   -0.00000000    0.00046400
     atom   50 type  1   force =     0.00000000   -0.00000001    0.00046400
     atom   51 type  2   force =    -0.00000000    0.00000000   -0.00006503
     atom   52 type  2   force =    -0.00000000   -0.00000000   -0.00006503
     atom   53 type  1   force =     0.00000001   -0.00000000    0.00046401
     atom   54 type  1   force =     0.00000000   -0.00000001    0.00046401
     atom   55 type  2   force =    -0.00000000   -0.00000000   -0.00006503
     atom   56 type  2   force =    -0.00000000    0.00000000   -0.00006502
     atom   57 type  1   force =    -0.00000001   -0.00000001    0.00046401
     atom   58 type  1   force =    -0.00000000   -0.00000000    0.00046402
     atom   59 type  2   force =    -0.00000000   -0.00000000   -0.00006503
     atom   60 type  2   force =    -0.00000000    0.00000000   -0.00006503
     atom   61 type  1   force =    -0.00000001   -0.00000000    0.00046399
     atom   62 type  1   force =    -0.00000000   -0.00000000    0.00046402
     atom   63 type  2   force =     0.00000000   -0.00000000   -0.00006503
     atom   64 type  2   force =     0.00000000    0.00000000   -0.00006503
     atom   65 type  1   force =     0.00000000   -0.00000000    0.00046402
     atom   66 type  1   force =    -0.00000001    0.00000000    0.00046401
     atom   67 type  2   force =    -0.00000000   -0.00000000   -0.00006503
     atom   68 type  2   force =     0.00000000    0.00000000   -0.00006502
     atom   69 type  1   force =    -0.00000001    0.00000000    0.00046401
     atom   70 type  1   force =    -0.00000000    0.00000000    0.00046402
     atom   71 type  2   force =    -0.00000000    0.00000000   -0.00006503
     atom   72 type  2   force =    -0.00000000    0.00000001   -0.00006503
     The Hubbard contrib.    to forces
     atom    1 type  1   force =     0.00000000    0.00000000    0.00000000
     atom    2 type  1   force =     0.00000000    0.00000000    0.00000000
     atom    3 type  2   force =     0.00000000    0.00000000    0.00000000
     atom    4 type  2   force =     0.00000000    0.00000000    0.00000000
     atom    5 type  1   force =     0.00000000    0.00000000    0.00000000
     atom    6 type  1   force =     0.00000000    0.00000000    0.00000000
     atom    7 type  2   force =     0.00000000    0.00000000    0.00000000
     atom    8 type  2   force =     0.00000000    0.00000000    0.00000000
     atom    9 type  1   force =     0.00000000    0.00000000    0.00000000
     atom   10 type  1   force =     0.00000000    0.00000000    0.00000000
     atom   11 type  2   force =     0.00000000    0.00000000    0.00000000
     atom   12 type  2   force =     0.00000000    0.00000000    0.00000000
     atom   13 type  1   force =     0.00000000    0.00000000    0.00000000
     atom   14 type  1   force =     0.00000000    0.00000000    0.00000000
     atom   15 type  2   force =     0.00000000    0.00000000    0.00000000
     atom   16 type  2   force =     0.00000000    0.00000000    0.00000000
     atom   17 type  1   force =     0.00000000    0.00000000    0.00000000
     atom   18 type  1   force =     0.00000000    0.00000000    0.00000000
     atom   19 type  2   force =     0.00000000    0.00000000    0.00000000
     atom   20 type  2   force =     0.00000000    0.00000000    0.00000000
     atom   21 type  1   force =     0.00000000    0.00000000    0.00000000
     atom   22 type  1   force =     0.00000000    0.00000000    0.00000000
     atom   23 type  2   force =     0.00000000    0.00000000    0.00000000
     atom   24 type  2   force =     0.00000000    0.00000000    0.00000000
     atom   25 type  1   force =     0.00000000    0.00000000    0.00000000
     atom   26 type  1   force =     0.00000000    0.00000000    0.00000000
     atom   27 type  2   force =     0.00000000    0.00000000    0.00000000
     atom   28 type  2   force =     0.00000000    0.00000000    0.00000000
     atom   29 type  1   force =     0.00000000    0.00000000    0.00000000
     atom   30 type  1   force =     0.00000000    0.00000000    0.00000000
     atom   31 type  2   force =     0.00000000    0.00000000    0.00000000
     atom   32 type  2   force =     0.00000000    0.00000000    0.00000000
     atom   33 type  1   force =     0.00000000    0.00000000    0.00000000
     atom   34 type  1   force =     0.00000000    0.00000000    0.00000000
     atom   35 type  2   force =     0.00000000    0.00000000    0.00000000
     atom   36 type  2   force =     0.00000000    0.00000000    0.00000000
     atom   37 type  1   force =     0.00000000    0.00000000    0.00000000
     atom   38 type  1   force =     0.00000000    0.00000000    0.00000000
     atom   39 type  2   force =     0.00000000    0.00000000    0.00000000
     atom   40 type  2   force =     0.00000000    0.00000000    0.00000000
     atom   41 type  1   force =     0.00000000    0.00000000    0.00000000
     atom   42 type  1   force =     0.00000000    0.00000000    0.00000000
     atom   43 type  2   force =     0.00000000    0.00000000    0.00000000
     atom   44 type  2   force =     0.00000000    0.00000000    0.00000000
     atom   45 type  1   force =     0.00000000    0.00000000    0.00000000
     atom   46 type  1   force =     0.00000000    0.00000000    0.00000000
     atom   47 type  2   force =     0.00000000    0.00000000    0.00000000
     atom   48 type  2   force =     0.00000000    0.00000000    0.00000000
     atom   49 type  1   force =     0.00000000    0.00000000    0.00000000
     atom   50 type  1   force =     0.00000000    0.00000000    0.00000000
     atom   51 type  2   force =     0.00000000    0.00000000    0.00000000
     atom   52 type  2   force =     0.00000000    0.00000000    0.00000000
     atom   53 type  1   force =     0.00000000    0.00000000    0.00000000
     atom   54 type  1   force =     0.00000000    0.00000000    0.00000000
     atom   55 type  2   force =     0.00000000    0.00000000    0.00000000
     atom   56 type  2   force =     0.00000000    0.00000000    0.00000000
     atom   57 type  1   force =     0.00000000    0.00000000    0.00000000
     atom   58 type  1   force =     0.00000000    0.00000000    0.00000000
     atom   59 type  2   force =     0.00000000    0.00000000    0.00000000
     atom   60 type  2   force =     0.00000000    0.00000000    0.00000000
     atom   61 type  1   force =     0.00000000    0.00000000    0.00000000
     atom   62 type  1   force =     0.00000000    0.00000000    0.00000000
     atom   63 type  2   force =     0.00000000    0.00000000    0.00000000
     atom   64 type  2   force =     0.00000000    0.00000000    0.00000000
     atom   65 type  1   force =     0.00000000    0.00000000    0.00000000
     atom   66 type  1   force =     0.00000000    0.00000000    0.00000000
     atom   67 type  2   force =     0.00000000    0.00000000    0.00000000
     atom   68 type  2   force =     0.00000000    0.00000000    0.00000000
     atom   69 type  1   force =     0.00000000    0.00000000    0.00000000
     atom   70 type  1   force =     0.00000000    0.00000000    0.00000000
     atom   71 type  2   force =     0.00000000    0.00000000    0.00000000
     atom   72 type  2   force =     0.00000000    0.00000000    0.00000000
     The SCF correction term to forces
     atom    1 type  1   force =    -0.00000046   -0.00000012   -0.00000005
     atom    2 type  1   force =     0.00000024    0.00000034    0.00000025
     atom    3 type  2   force =    -0.00000016   -0.00000028    0.00000010
     atom    4 type  2   force =     0.00000014   -0.00000009    0.00000069
     atom    5 type  1   force =    -0.00000041   -0.00000002   -0.00000107
     atom    6 type  1   force =    -0.00000057    0.00000008   -0.00000039
     atom    7 type  2   force =    -0.00000021    0.00000030    0.00000049
     atom    8 type  2   force =    -0.00000002    0.00000018   -0.00000085
     atom    9 type  1   force =    -0.00000051    0.00000022    0.00000075
     atom   10 type  1   force =    -0.00000031    0.00000048    0.00000028
     atom   11 type  2   force =    -0.00000024    0.00000008    0.00000048
     atom   12 type  2   force =    -0.00000005   -0.00000011    0.00000092
     atom   13 type  1   force =    -0.00000019   -0.00000015    0.00000078
     atom   14 type  1   force =     0.00000034    0.00000031   -0.00000044
     atom   15 type  2   force =    -0.00000042   -0.00000009   -0.00000030
     atom   16 type  2   force =     0.00000009   -0.00000016    0.00000045
     atom   17 type  1   force =    -0.00000022    0.00000003   -0.00000071
     atom   18 type  1   force =    -0.00000062   -0.00000019   -0.00000109
     atom   19 type  2   force =    -0.00000033    0.00000030    0.00000027
     atom   20 type  2   force =    -0.00000015   -0.00000035   -0.00000038
     atom   21 type  1   force =     0.00000058   -0.00000046    0.00000084
     atom   22 type  1   force =     0.00000020   -0.00000001   -0.00000058
     atom   23 type  2   force =    -0.00000014   -0.00000008    0.00000046
     atom   24 type  2   force =    -0.00000008    0.00000006    0.00000064
     atom   25 type  1   force =     0.00000084    0.00000025    0.00000088
     atom   26 type  1   force =     0.00000013    0.00000043    0.00000024
     atom   27 type  2   force =    -0.00000011   -0.00000004   -0.00000027
     atom   28 type  2   force =    -0.00000007    0.00000023    0.00000074
     atom   29 type  1   force =    -0.00000023   -0.00000082   -0.00000070
     atom   30 type  1   force =     0.00000029    0.00000034   -0.00000075
     atom   31 type  2   force =    -0.00000036   -0.00000030    0.00000040
     atom   32 type  2   force =    -0.00000013   -0.00000013   -0.00000073
     atom   33 type  1   force =     0.00000040    0.00000030    0.00000075
     atom   34 type  1   force =    -0.00000023   -0.00000039   -0.00000005
     atom   35 type  2   force =     0.00000008   -0.00000041    0.00000075
     atom   36 type  2   force =    -0.00000001    0.00000008    0.00000065
     atom   37 type  1   force =     0.00000037   -0.00000046    0.00000030
     atom   38 type  1   force =    -0.00000019    0.00000032   -0.00000028
     atom   39 type  2   force =     0.00000016    0.00000030   -0.00000014
     atom   40 type  2   force =     0.00000039   -0.00000016    0.00000064
     atom   41 type  1   force =     0.00000058    0.00000028   -0.00000143
     atom   42 type  1   force =     0.00000075    0.00000054   -0.00000042
     atom   43 type  2   force =     0.00000036    0.00000042    0.00000051
     atom   44 type  2   force =     0.00000009    0.00000034   -0.00000078
     atom   45 type  1   force =     0.00000006   -0.00000036    0.00000027
     atom   46 type  1   force =    -0.00000027    0.00000046    0.00000018
     atom   47 type  2   force =     0.00000002   -0.00000024    0.00000023
     atom   48 type  2   force =     0.00000015   -0.00000001    0.00000093
     atom   49 type  1   force =     0.00000010    0.00000013    0.00000133
     atom   50 type  1   force =    -0.00000014   -0.00000000    0.00000047
     atom   51 type  2   force =     0.00000014    0.00000015    0.00000010
     atom   52 type  2   force =    -0.00000010    0.00000015    0.00000069
     atom   53 type  1   force =    -0.00000018    0.00000045   -0.00000044
     atom   54 type  1   force =     0.00000092    0.00000043   -0.00000040
     atom   55 type  2   force =     0.00000018    0.00000044    0.00000023
     atom   56 type  2   force =     0.00000027   -0.00000004   -0.00000056
     atom   57 type  1   force =    -0.00000037   -0.00000011    0.00000073
     atom   58 type  1   force =     0.00000005    0.00000070   -0.00000013
     atom   59 type  2   force =     0.00000018   -0.00000015    0.00000031
     atom   60 type  2   force =     0.00000012   -0.00000012    0.00000075
     atom   61 type  1   force =    -0.00000132    0.00000058    0.00000040
     atom   62 type  1   force =     0.00000012   -0.00000027    0.00000037
     atom   63 type  2   force =    -0.00000035   -0.00000014   -0.00000022
     atom   64 type  2   force =     0.00000023   -0.00000037    0.00000103
     atom   65 type  1   force =    -0.00000014   -0.00000056   -0.00000068
     atom   66 type  1   force =     0.00000033    0.00000004   -0.00000079
     atom   67 type  2   force =     0.00000027   -0.00000023    0.00000028
     atom   68 type  2   force =     0.00000034   -0.00000019   -0.00000087
     atom   69 type  1   force =    -0.00000088   -0.00000022    0.00000029
     atom   70 type  1   force =     0.00000061   -0.00000055    0.00000089
     atom   71 type  2   force =    -0.00000025    0.00000020    0.00000039
     atom   72 type  2   force =     0.00000019   -0.00000009    0.00000080

     Total force =     0.000522     Total SCF correction =     0.000007

     General routines

     Parallel routines

   This run was terminated on:  11: 5:47  11Aug2025

   JOB DONE.
Note: The following floating-point exceptions are signalling: IEEE_DENORMAL
Note: The following floating-point exceptions are signalling: IEEE_DENORMAL
Note: The following floating-point exceptions are signalling: IEEE_DENORMAL
Note: The following floating-point exceptions are signalling: IEEE_INVALID_FLAG
Note: The following floating-point exceptions are signalling: IEEE_DENORMAL
Note: The following floating-point exceptions are signalling: IEEE_DENORMAL
Note: The following floating-point exceptions are signalling: IEEE_INVALID_FLAG
Note: The following floating-point exceptions are signalling: IEEE_INVALID_FLAG
Note: The following floating-point exceptions are signalling: IEEE_INVALID_FLAG
Note: The following floating-point exceptions are signalling: IEEE_DENORMAL
Note: The following floating-point exceptions are signalling: IEEE_INVALID_FLAG
Note: The following floating-point exceptions are signalling: IEEE_DENORMAL
Note: The following floating-point exceptions are signalling: IEEE_INVALID_FLAG
Note: The following floating-point exceptions are signalling: IEEE_DENORMAL
Note: The following floating-point exceptions are signalling: IEEE_INVALID_FLAG
Note: The following floating-point exceptions are signalling: IEEE_INVALID_FLAG