     Program PWSCF v.7.2 starts on 15Jul2025 at 14:34: 8

     Reading input from cell211.in/ZnO-3.01-1.49-211.in
Warning: card &CELL ignored
Warning: card / ignored
Warning: card &FCP ignored
Warning: card / ignored
Warning: card &RISM ignored
Warning: card / ignored

     Current dimensions of program PWSCF are:
     Max number of different atomic species (ntypx) = 10
     Max number of k-points (npk) =  40000
     Max angular momentum in pseudopotentials (lmaxx) =  4
     file Zn.upf: wavefunction(s)  3D renormalized
     Found identity + (  0.5000  0.0000  0.0000) symmetry
     This is a supercell, fractional translations are disabled
     Message from routine setup:
     using ibrav=0 with symmetry is DISCOURAGED, use correct ibrav instead

     R & G space division:  proc/nbgrp/npool/nimage =      16
     Subspace diagonalization in iterative solution of the eigenvalue problem:
     a serial algorithm will be used

     Using Slab Decomposition

     bravais-lattice index     =            0
     lattice parameter (alat)  =      12.3576  a.u.
     unit-cell volume          =     659.5954 (a.u.)^3
     number of atoms/cell      =            8
     number of atomic types    =            2
     number of electrons       =        72.00
     number of Kohn-Sham states=           36
     kinetic-energy cutoff     =      50.0000  Ry
     charge density cutoff     =     400.0000  Ry
     scf convergence threshold =      1.0E-08
     mixing beta               =       0.3000
     number of iterations used =            8  plain     mixing
     Exchange-correlation= PBE
                           (   1   4   3   4   0   0   0)

     celldm(1)=  12.357644  celldm(2)=   0.000000  celldm(3)=   0.000000
     celldm(4)=   0.000000  celldm(5)=   0.000000  celldm(6)=   0.000000

     crystal axes: (cart. coord. in units of alat)
               a(1) = (   1.000000   0.000000   0.000000 )
               a(2) = (  -0.250000   0.433013   0.000000 )
               a(3) = (   0.000000   0.000000   0.807179 )

     reciprocal axes: (cart. coord. in units 2 pi/alat)
               b(1) = (  1.000000  0.577350 -0.000000 )
               b(2) = (  0.000000  2.309401  0.000000 )
               b(3) = (  0.000000 -0.000000  1.238882 )

     PseudoPot. # 1 for Zn read from file:
     /home/jvc/QEspresso7.2/ZnO_database/pseudos/Zn.upf
     MD5 check sum: 7f56cabf9682ed8c977c2f7d0c5985c5
     Pseudo is Ultrasoft + core correction, Zval = 12.0
     Generated using &quot;atomic&quot; code by A. Dal Corso  v.6.2.2
     Using radial grid of 1201 points,  6 beta functions with:
                l(1) =   0
                l(2) =   0
                l(3) =   1
                l(4) =   1
                l(5) =   2
                l(6) =   2
     Q(r) pseudized with 0 coefficients

     PseudoPot. # 2 for O  read from file:
     /home/jvc/QEspresso7.2/ZnO_database/pseudos/O.upf
     MD5 check sum: 91400c9766925bcf19f520983a725ff0
     Pseudo is Ultrasoft + core correction, Zval =  6.0
     Generated using &quot;atomic&quot; code by A. Dal Corso  v.6.3MaX
     Using radial grid of 1095 points,  4 beta functions with:
                l(1) =   0
                l(2) =   0
                l(3) =   1
                l(4) =   1
     Q(r) pseudized with 0 coefficients

     atomic species   valence    mass     pseudopotential
        Zn            12.00    65.38000     Zn( 1.00)
        O              6.00    15.99900     O ( 1.00)

      2 Sym. Ops. (no inversion) found

                                    s                        frac. trans.

      isym =  1     identity

 cryst.   s( 1) = (     1          0          0      )
                  (     0          1          0      )
                  (     0          0          1      )

 cart.    s( 1) = (  1.0000000 -0.0000000  0.0000000 )
                  (  0.0000000  1.0000000  0.0000000 )
                  (  0.0000000  0.0000000  1.0000000 )

      isym =  2     inv. 180 deg rotation - cryst. axis [0,1,0]

 cryst.   s( 2) = (     1          2          0      )
                  (     0         -1          0      )
                  (     0          0          1      )

 cart.    s( 2) = (  0.5000000  0.8660254  0.0000000 )
                  (  0.8660254 -0.5000000  0.0000000 )
                  (  0.0000000  0.0000000  1.0000000 )

   Cartesian axes

     site n.     atom                  positions (alat units)
         1           Zn  tau(   1) = (   0.2500000   0.1443376   0.4041010  )
         2           Zn  tau(   2) = (  -0.0000000   0.2886751   0.0005114  )
         3           O   tau(   3) = (   0.2500000   0.1443376   0.7100565  )
         4           O   tau(   4) = (  -0.0000000   0.2886751   0.3064669  )
         5           Zn  tau(   5) = (   0.7500000   0.1443376   0.4041010  )
         6           Zn  tau(   6) = (   0.5000000   0.2886751   0.0005114  )
         7           O   tau(   7) = (   0.7500000   0.1443376   0.7100565  )
         8           O   tau(   8) = (   0.5000000   0.2886751   0.3064669  )

   Crystallographic axes

     site n.     atom                  positions (cryst. coord.)
         1           Zn  tau(   1) = (  0.3333333  0.3333333  0.5006336  )
         2           Zn  tau(   2) = (  0.1666667  0.6666667  0.0006336  )
         3           O   tau(   3) = (  0.3333333  0.3333333  0.8796764  )
         4           O   tau(   4) = (  0.1666667  0.6666667  0.3796764  )
         5           Zn  tau(   5) = (  0.8333333  0.3333333  0.5006336  )
         6           Zn  tau(   6) = (  0.6666667  0.6666667  0.0006336  )
         7           O   tau(   7) = (  0.8333333  0.3333333  0.8796764  )
         8           O   tau(   8) = (  0.6666667  0.6666667  0.3796764  )

     number of k points=    40
                       cart. coord. in units 2pi/alat
        k(    1) = (   0.0000000   0.0000000   0.0000000), wk =   0.0185185
        k(    2) = (   0.0000000   0.0000000   0.2064804), wk =   0.0370370
        k(    3) = (   0.0000000   0.0000000   0.4129608), wk =   0.0370370
        k(    4) = (   0.0000000   0.0000000  -0.6194412), wk =   0.0185185
        k(    5) = (   0.0000000   0.3849002   0.0000000), wk =   0.0740741
        k(    6) = (   0.0000000   0.3849002   0.2064804), wk =   0.0740741
        k(    7) = (   0.0000000   0.3849002   0.4129608), wk =   0.0740741
        k(    8) = (   0.0000000   0.3849002  -0.6194412), wk =   0.0740741
        k(    9) = (   0.0000000   0.7698004   0.0000000), wk =   0.0740741
        k(   10) = (   0.0000000   0.7698004   0.2064804), wk =   0.0740741
        k(   11) = (   0.0000000   0.7698004   0.4129608), wk =   0.0740741
        k(   12) = (   0.0000000   0.7698004  -0.6194412), wk =   0.0740741
        k(   13) = (   0.0000000  -1.1547005   0.0000000), wk =   0.0185185
        k(   14) = (   0.0000000  -1.1547005   0.2064804), wk =   0.0370370
        k(   15) = (   0.0000000  -1.1547005   0.4129608), wk =   0.0370370
        k(   16) = (   0.0000000  -1.1547005  -0.6194412), wk =   0.0185185
        k(   17) = (   0.3333333   0.1924501   0.0000000), wk =   0.0370370
        k(   18) = (   0.3333333   0.1924501   0.2064804), wk =   0.0370370
        k(   19) = (   0.3333333   0.1924501   0.4129608), wk =   0.0370370
        k(   20) = (   0.3333333   0.1924501  -0.6194412), wk =   0.0370370
        k(   21) = (   0.3333333   0.5773503   0.0000000), wk =   0.0370370
        k(   22) = (   0.3333333   0.5773503   0.2064804), wk =   0.0740741
        k(   23) = (   0.3333333   0.5773503   0.4129608), wk =   0.0740741
        k(   24) = (   0.3333333   0.5773503  -0.6194412), wk =   0.0370370
        k(   25) = (   0.3333333  -0.9622504   0.0000000), wk =   0.0370370
        k(   26) = (   0.3333333  -0.9622504   0.2064804), wk =   0.0370370
        k(   27) = (   0.3333333  -0.9622504   0.4129608), wk =   0.0370370
        k(   28) = (   0.3333333  -0.9622504  -0.6194412), wk =   0.0370370
        k(   29) = (   0.3333333  -0.5773503   0.0000000), wk =   0.0370370
        k(   30) = (   0.3333333  -0.5773503   0.2064804), wk =   0.0740741
        k(   31) = (   0.3333333  -0.5773503   0.4129608), wk =   0.0740741
        k(   32) = (   0.3333333  -0.5773503  -0.6194412), wk =   0.0370370
        k(   33) = (   0.3333333  -0.1924501  -0.2064804), wk =   0.0740741
        k(   34) = (   0.3333333  -0.1924501  -0.4129608), wk =   0.0740741
        k(   35) = (   0.6666667  -0.3849002  -0.2064804), wk =   0.0740741
        k(   36) = (   0.6666667  -0.3849002  -0.4129608), wk =   0.0740741
        k(   37) = (   0.3333333   0.1924501  -0.2064804), wk =   0.0370370
        k(   38) = (   0.3333333   0.1924501  -0.4129608), wk =   0.0370370
        k(   39) = (  -0.6666667   0.7698004  -0.2064804), wk =   0.0370370
        k(   40) = (  -0.6666667   0.7698004  -0.4129608), wk =   0.0370370

                       cryst. coord.
        k(    1) = (   0.0000000   0.0000000   0.0000000), wk =   0.0185185
        k(    2) = (   0.0000000   0.0000000   0.1666667), wk =   0.0370370
        k(    3) = (   0.0000000   0.0000000   0.3333333), wk =   0.0370370
        k(    4) = (   0.0000000   0.0000000  -0.5000000), wk =   0.0185185
        k(    5) = (   0.0000000   0.1666667   0.0000000), wk =   0.0740741
        k(    6) = (   0.0000000   0.1666667   0.1666667), wk =   0.0740741
        k(    7) = (   0.0000000   0.1666667   0.3333333), wk =   0.0740741
        k(    8) = (   0.0000000   0.1666667  -0.5000000), wk =   0.0740741
        k(    9) = (   0.0000000   0.3333333   0.0000000), wk =   0.0740741
        k(   10) = (   0.0000000   0.3333333   0.1666667), wk =   0.0740741
        k(   11) = (   0.0000000   0.3333333   0.3333333), wk =   0.0740741
        k(   12) = (   0.0000000   0.3333333  -0.5000000), wk =   0.0740741
        k(   13) = (   0.0000000  -0.5000000   0.0000000), wk =   0.0185185
        k(   14) = (   0.0000000  -0.5000000   0.1666667), wk =   0.0370370
        k(   15) = (   0.0000000  -0.5000000   0.3333333), wk =   0.0370370
        k(   16) = (   0.0000000  -0.5000000  -0.5000000), wk =   0.0185185
        k(   17) = (   0.3333333  -0.0000000   0.0000000), wk =   0.0370370
        k(   18) = (   0.3333333  -0.0000000   0.1666667), wk =   0.0370370
        k(   19) = (   0.3333333  -0.0000000   0.3333333), wk =   0.0370370
        k(   20) = (   0.3333333  -0.0000000  -0.5000000), wk =   0.0370370
        k(   21) = (   0.3333333   0.1666667   0.0000000), wk =   0.0370370
        k(   22) = (   0.3333333   0.1666667   0.1666667), wk =   0.0740741
        k(   23) = (   0.3333333   0.1666667   0.3333333), wk =   0.0740741
        k(   24) = (   0.3333333   0.1666667  -0.5000000), wk =   0.0370370
        k(   25) = (   0.3333333  -0.5000000   0.0000000), wk =   0.0370370
        k(   26) = (   0.3333333  -0.5000000   0.1666667), wk =   0.0370370
        k(   27) = (   0.3333333  -0.5000000   0.3333333), wk =   0.0370370
        k(   28) = (   0.3333333  -0.5000000  -0.5000000), wk =   0.0370370
        k(   29) = (   0.3333333  -0.3333333   0.0000000), wk =   0.0370370
        k(   30) = (   0.3333333  -0.3333333   0.1666667), wk =   0.0740741
        k(   31) = (   0.3333333  -0.3333333   0.3333333), wk =   0.0740741
        k(   32) = (   0.3333333  -0.3333333  -0.5000000), wk =   0.0370370
        k(   33) = (   0.3333333  -0.1666667  -0.1666667), wk =   0.0740741
        k(   34) = (   0.3333333  -0.1666667  -0.3333333), wk =   0.0740741
        k(   35) = (   0.6666667  -0.3333333  -0.1666667), wk =   0.0740741
        k(   36) = (   0.6666667  -0.3333333  -0.3333333), wk =   0.0740741
        k(   37) = (   0.3333333   0.0000000  -0.1666667), wk =   0.0370370
        k(   38) = (   0.3333333   0.0000000  -0.3333333), wk =   0.0370370
        k(   39) = (  -0.6666667   0.5000000  -0.1666667), wk =   0.0370370
        k(   40) = (  -0.6666667   0.5000000  -0.3333333), wk =   0.0370370

     Check: negative core charge=   -0.000002

     Initial potential from superposition of free atoms

     starting charge      71.9851, renormalised to      72.0000
     Starting wfcs are   52 randomized atomic wfcs

     Self-consistent Calculation

     iteration #  1     ecut=    50.00 Ry     beta= 0.30
     Davidson diagonalization with overlap

     ethr =  1.00E-02,  avg # of iterations =  2.0

     total energy              =    -722.95856112 Ry
     estimated scf accuracy    <       1.38606301 Ry

[...]

     total energy              =    -723.27377573 Ry
     estimated scf accuracy    <       0.00000023 Ry

     iteration # 31     ecut=    50.00 Ry     beta= 0.30
     Davidson diagonalization with overlap

     ethr =  2.60E-10,  avg # of iterations =  4.9

     End of self-consistent calculation

          k = 0.0000 0.0000 0.0000 (  3907 PWs)   bands (ev):

   -10.9983 -10.3491 -10.3180 -10.1405   1.1141   1.3160   1.3160   1.3230
     1.3565   1.4393   1.5014   1.5014   1.5609   1.9413   1.9539   2.0753
     2.4282   2.4282   2.4641   2.5909   2.6248   2.6248   2.6705   2.7417
     2.8918   3.2047   3.4269   4.1407   4.7140   5.6403   6.0831   6.1252
     6.1252   6.8051   6.8875   6.8875

     occupation numbers
     1.0000   1.0000   1.0000   1.0000   1.0000   1.0000   1.0000   1.0000
     1.0000   1.0000   1.0000   1.0000   1.0000   1.0000   1.0000   1.0000
     1.0000   1.0000   1.0000   1.0000   1.0000   1.0000   1.0000   1.0000
     1.0000   1.0000   1.0000   1.0000   1.0000   1.0000   1.0000   1.0000
     1.0000   1.0000   1.0000   1.0000

[...]

          k = 0.3333 0.1925-0.4130 (  3933 PWs)   bands (ev):

[...]

          k =-0.6667 0.7698-0.2065 (  3962 PWs)   bands (ev):

[...]

          k =-0.6667 0.7698-0.4130 (  3952 PWs)   bands (ev):

   -10.2960 -10.2960 -10.1857 -10.1857   1.1038   1.1038   1.1968   1.1968
     1.5839   1.5839   1.7339   1.7339   1.8904   1.8904   1.9134   1.9134
     2.4958   2.4958   2.5677   2.5677   2.6913   2.6913   2.8116   2.8116
     3.2568   3.2568   3.5916   3.5916   4.5351   4.5351   5.0818   5.0818
     5.3814   5.3814   5.8449   5.8449

     occupation numbers
     1.0000   1.0000   1.0000   1.0000   1.0000   1.0000   1.0000   1.0000
     1.0000   1.0000   1.0000   1.0000   1.0000   1.0000   1.0000   1.0000
     1.0000   1.0000   1.0000   1.0000   1.0000   1.0000   1.0000   1.0000
     1.0000   1.0000   1.0000   1.0000   1.0000   1.0000   1.0000   1.0000
     1.0000   1.0000   1.0000   1.0000

     highest occupied level (ev):     6.8875

!    total energy              =    -723.27377579 Ry
     estimated scf accuracy    <          1.5E-09 Ry

     The total energy is the sum of the following terms:
     one-electron contribution =    -309.05068843 Ry
     hartree contribution      =     236.57872303 Ry
     xc contribution           =    -219.09234642 Ry
     ewald contribution        =    -431.70946397 Ry

     convergence has been achieved in  31 iterations

     Forces acting on atoms (cartesian axes, Ry/au):

     atom    1 type  1   force =     0.00000559    0.00000323    0.00005914
     atom    2 type  1   force =     0.00000456    0.00000263    0.00006482
     atom    3 type  2   force =    -0.00000178   -0.00000103   -0.00006186
     atom    4 type  2   force =    -0.00000235   -0.00000135   -0.00006123
     atom    5 type  1   force =    -0.00000339   -0.00000196    0.00005897
     atom    6 type  1   force =    -0.00000559   -0.00000323    0.00006122
     atom    7 type  2   force =     0.00000129    0.00000074   -0.00005878
     atom    8 type  2   force =     0.00000167    0.00000097   -0.00006227
     The non-local contrib.  to forces
     atom    1 type  1   force =     0.00000544    0.00000314   -0.00483143
     atom    2 type  1   force =     0.00000484    0.00000279   -0.00483393
     atom    3 type  2   force =    -0.00000304   -0.00000176    0.00575249
     atom    4 type  2   force =    -0.00000032   -0.00000018    0.00575489
     atom    5 type  1   force =    -0.00000605   -0.00000349   -0.00483175
     atom    6 type  1   force =    -0.00000565   -0.00000326   -0.00483411
     atom    7 type  2   force =     0.00000374    0.00000216    0.00575415
     atom    8 type  2   force =     0.00000426    0.00000246    0.00575204
     The ionic contribution  to forces
     atom    1 type  1   force =    -0.00000000    0.00000000    0.06271747
     atom    2 type  1   force =     0.00000000   -0.00000000    0.06271747
     atom    3 type  2   force =    -0.00000000    0.00000000   -0.06271747
     atom    4 type  2   force =     0.00000000   -0.00000000   -0.06271747
     atom    5 type  1   force =    -0.00000000    0.00000000    0.06271747
     atom    6 type  1   force =     0.00000000   -0.00000000    0.06271747
     atom    7 type  2   force =    -0.00000000    0.00000000   -0.06271747
     atom    8 type  2   force =     0.00000000   -0.00000000   -0.06271747
     The local contribution  to forces
     atom    1 type  1   force =    -0.00001149   -0.00000663   -0.05828966
     atom    2 type  1   force =    -0.00001112   -0.00000652   -0.05828678
     atom    3 type  2   force =    -0.00000136   -0.00000078    0.05696240
     atom    4 type  2   force =    -0.00000785   -0.00000456    0.05696490
     atom    5 type  1   force =     0.00001053    0.00000608   -0.05828689
     atom    6 type  1   force =     0.00001147    0.00000652   -0.05828759
     atom    7 type  2   force =     0.00000163    0.00000095    0.05696642
     atom    8 type  2   force =     0.00000198    0.00000111    0.05696720
     The core correction contribution to forces
     atom    1 type  1   force =     0.00000006    0.00000004    0.00046413
     atom    2 type  1   force =     0.00000012    0.00000006    0.00046389
     atom    3 type  2   force =     0.00000003    0.00000002   -0.00006502
     atom    4 type  2   force =    -0.00000003   -0.00000002   -0.00006504
     atom    5 type  1   force =    -0.00000007   -0.00000004    0.00046397
     atom    6 type  1   force =    -0.00000006   -0.00000005    0.00046417
     atom    7 type  2   force =    -0.00000004   -0.00000002   -0.00006503
     atom    8 type  2   force =    -0.00000005   -0.00000003   -0.00006500
     The Hubbard contrib.    to forces
     atom    1 type  1   force =     0.00000000    0.00000000    0.00000000
     atom    2 type  1   force =     0.00000000    0.00000000    0.00000000
     atom    3 type  2   force =     0.00000000    0.00000000    0.00000000
     atom    4 type  2   force =     0.00000000    0.00000000    0.00000000
     atom    5 type  1   force =     0.00000000    0.00000000    0.00000000
     atom    6 type  1   force =     0.00000000    0.00000000    0.00000000
     atom    7 type  2   force =     0.00000000    0.00000000    0.00000000
     atom    8 type  2   force =     0.00000000    0.00000000    0.00000000
     The SCF correction term to forces
     atom    1 type  1   force =     0.00001214    0.00000701   -0.00000441
     atom    2 type  1   force =     0.00001133    0.00000654    0.00000114
     atom    3 type  2   force =     0.00000315    0.00000182    0.00000270
     atom    4 type  2   force =     0.00000642    0.00000371   -0.00000153
     atom    5 type  1   force =    -0.00000723   -0.00000417   -0.00000687
     atom    6 type  1   force =    -0.00001074   -0.00000620   -0.00000176
     atom    7 type  2   force =    -0.00000348   -0.00000201    0.00000012
     atom    8 type  2   force =    -0.00000394   -0.00000228   -0.00000208

     Total force =     0.000173     Total SCF correction =     0.000028
     SCF correction compared to forces is large: reduce conv_thr to get better values

     General routines

     Parallel routines

   This run was terminated on:  15:13:50  15Jul2025

   JOB DONE.
Note: The following floating-point exceptions are signalling: IEEE_INVALID_FLAG