     Program PWSCF v.7.2 starts on 15Jul2025 at 11:27:57

     Reading input from /home/jvc/QEspresso7.2/ZnO_database/scripts/cell211.in/ZnO-3.40-1.71-211.in
Warning: card &CELL ignored
Warning: card / ignored
Warning: card &FCP ignored
Warning: card / ignored
Warning: card &RISM ignored
Warning: card / ignored

     Current dimensions of program PWSCF are:
     Max number of different atomic species (ntypx) = 10
     Max number of k-points (npk) =  40000
     Max angular momentum in pseudopotentials (lmaxx) =  4
     file Zn.upf: wavefunction(s)  3D renormalized
     Found identity + (  0.5000  0.0000  0.0000) symmetry
     This is a supercell, fractional translations are disabled
     Message from routine setup:
     using ibrav=0 with symmetry is DISCOURAGED, use correct ibrav instead

     K-points division:     npool     =       2
     R & G space division:  proc/nbgrp/npool/nimage =       8
     Subspace diagonalization in iterative solution of the eigenvalue problem:
     a serial algorithm will be used

     Using Slab Decomposition

     bravais-lattice index     =            0
     lattice parameter (alat)  =      12.3576  a.u.
     unit-cell volume          =     659.5954 (a.u.)^3
     number of atoms/cell      =            8
     number of atomic types    =            2
     number of electrons       =        72.00
     number of Kohn-Sham states=           36
     kinetic-energy cutoff     =      50.0000  Ry
     charge density cutoff     =     400.0000  Ry
     scf convergence threshold =      1.0E-08
     mixing beta               =       0.3000
     number of iterations used =            8  plain     mixing
     Exchange-correlation= PBE
                           (   1   4   3   4   0   0   0)

     celldm(1)=  12.357644  celldm(2)=   0.000000  celldm(3)=   0.000000
     celldm(4)=   0.000000  celldm(5)=   0.000000  celldm(6)=   0.000000

     crystal axes: (cart. coord. in units of alat)
               a(1) = (   1.000000   0.000000   0.000000 )
               a(2) = (  -0.250000   0.433013   0.000000 )
               a(3) = (   0.000000   0.000000   0.807179 )

     reciprocal axes: (cart. coord. in units 2 pi/alat)
               b(1) = (  1.000000  0.577350 -0.000000 )
               b(2) = (  0.000000  2.309401  0.000000 )
               b(3) = (  0.000000 -0.000000  1.238882 )

     PseudoPot. # 1 for Zn read from file:
     /home/jvc/QEspresso7.2/ZnO_database/pseudos/Zn.upf
     MD5 check sum: 7f56cabf9682ed8c977c2f7d0c5985c5
     Pseudo is Ultrasoft + core correction, Zval = 12.0
     Generated using &quot;atomic&quot; code by A. Dal Corso  v.6.2.2
     Using radial grid of 1201 points,  6 beta functions with:
                l(1) =   0
                l(2) =   0
                l(3) =   1
                l(4) =   1
                l(5) =   2
                l(6) =   2
     Q(r) pseudized with 0 coefficients

     PseudoPot. # 2 for O  read from file:
     /home/jvc/QEspresso7.2/ZnO_database/pseudos/O.upf
     MD5 check sum: 91400c9766925bcf19f520983a725ff0
     Pseudo is Ultrasoft + core correction, Zval =  6.0
     Generated using &quot;atomic&quot; code by A. Dal Corso  v.6.3MaX
     Using radial grid of 1095 points,  4 beta functions with:
                l(1) =   0
                l(2) =   0
                l(3) =   1
                l(4) =   1
     Q(r) pseudized with 0 coefficients

     atomic species   valence    mass     pseudopotential
        Zn            12.00    65.38000     Zn( 1.00)
        O              6.00    15.99900     O ( 1.00)

      2 Sym. Ops. (no inversion) found

                                    s                        frac. trans.

      isym =  1     identity

 cryst.   s( 1) = (     1          0          0      )
                  (     0          1          0      )
                  (     0          0          1      )

 cart.    s( 1) = (  1.0000000 -0.0000000  0.0000000 )
                  (  0.0000000  1.0000000  0.0000000 )
                  (  0.0000000  0.0000000  1.0000000 )

      isym =  2     inv. 180 deg rotation - cryst. axis [0,1,0]

 cryst.   s( 2) = (     1          2          0      )
                  (     0         -1          0      )
                  (     0          0          1      )

 cart.    s( 2) = (  0.5000000  0.8660254  0.0000000 )
                  (  0.8660254 -0.5000000  0.0000000 )
                  (  0.0000000  0.0000000  1.0000000 )

   Cartesian axes

     site n.     atom                  positions (alat units)
         1           Zn  tau(   1) = (   0.2500000   0.1443376   0.4041010  )
         2           Zn  tau(   2) = (  -0.0000000   0.2886751   0.0005114  )
         3           O   tau(   3) = (   0.2500000   0.1443376   0.7100565  )
         4           O   tau(   4) = (  -0.0000000   0.2886751   0.3064669  )
         5           Zn  tau(   5) = (   0.7500000   0.1443376   0.4041010  )
         6           Zn  tau(   6) = (   0.5000000   0.2886751   0.0005114  )
         7           O   tau(   7) = (   0.7500000   0.1443376   0.7100565  )
         8           O   tau(   8) = (   0.5000000   0.2886751   0.3064669  )

   Crystallographic axes

     site n.     atom                  positions (cryst. coord.)
         1           Zn  tau(   1) = (  0.3333333  0.3333333  0.5006336  )
         2           Zn  tau(   2) = (  0.1666667  0.6666667  0.0006336  )
         3           O   tau(   3) = (  0.3333333  0.3333333  0.8796764  )
         4           O   tau(   4) = (  0.1666667  0.6666667  0.3796764  )
         5           Zn  tau(   5) = (  0.8333333  0.3333333  0.5006336  )
         6           Zn  tau(   6) = (  0.6666667  0.6666667  0.0006336  )
         7           O   tau(   7) = (  0.8333333  0.3333333  0.8796764  )
         8           O   tau(   8) = (  0.6666667  0.6666667  0.3796764  )

     number of k points=    40
                       cart. coord. in units 2pi/alat
        k(    1) = (   0.0000000   0.0000000   0.0000000), wk =   0.0185185
        k(    2) = (   0.0000000   0.0000000   0.2064804), wk =   0.0370370
        k(    3) = (   0.0000000   0.0000000   0.4129608), wk =   0.0370370
        k(    4) = (   0.0000000   0.0000000  -0.6194412), wk =   0.0185185
        k(    5) = (   0.0000000   0.3849002   0.0000000), wk =   0.0740741
        k(    6) = (   0.0000000   0.3849002   0.2064804), wk =   0.0740741
        k(    7) = (   0.0000000   0.3849002   0.4129608), wk =   0.0740741
        k(    8) = (   0.0000000   0.3849002  -0.6194412), wk =   0.0740741
        k(    9) = (   0.0000000   0.7698004   0.0000000), wk =   0.0740741
        k(   10) = (   0.0000000   0.7698004   0.2064804), wk =   0.0740741
        k(   11) = (   0.0000000   0.7698004   0.4129608), wk =   0.0740741
        k(   12) = (   0.0000000   0.7698004  -0.6194412), wk =   0.0740741
        k(   13) = (   0.0000000  -1.1547005   0.0000000), wk =   0.0185185
        k(   14) = (   0.0000000  -1.1547005   0.2064804), wk =   0.0370370
        k(   15) = (   0.0000000  -1.1547005   0.4129608), wk =   0.0370370
        k(   16) = (   0.0000000  -1.1547005  -0.6194412), wk =   0.0185185
        k(   17) = (   0.3333333   0.1924501   0.0000000), wk =   0.0370370
        k(   18) = (   0.3333333   0.1924501   0.2064804), wk =   0.0370370
        k(   19) = (   0.3333333   0.1924501   0.4129608), wk =   0.0370370
        k(   20) = (   0.3333333   0.1924501  -0.6194412), wk =   0.0370370
        k(   21) = (   0.3333333   0.5773503   0.0000000), wk =   0.0370370
        k(   22) = (   0.3333333   0.5773503   0.2064804), wk =   0.0740741
        k(   23) = (   0.3333333   0.5773503   0.4129608), wk =   0.0740741
        k(   24) = (   0.3333333   0.5773503  -0.6194412), wk =   0.0370370
        k(   25) = (   0.3333333  -0.9622504   0.0000000), wk =   0.0370370
        k(   26) = (   0.3333333  -0.9622504   0.2064804), wk =   0.0370370
        k(   27) = (   0.3333333  -0.9622504   0.4129608), wk =   0.0370370
        k(   28) = (   0.3333333  -0.9622504  -0.6194412), wk =   0.0370370
        k(   29) = (   0.3333333  -0.5773503   0.0000000), wk =   0.0370370
        k(   30) = (   0.3333333  -0.5773503   0.2064804), wk =   0.0740741
        k(   31) = (   0.3333333  -0.5773503   0.4129608), wk =   0.0740741
        k(   32) = (   0.3333333  -0.5773503  -0.6194412), wk =   0.0370370
        k(   33) = (   0.3333333  -0.1924501  -0.2064804), wk =   0.0740741
        k(   34) = (   0.3333333  -0.1924501  -0.4129608), wk =   0.0740741
        k(   35) = (   0.6666667  -0.3849002  -0.2064804), wk =   0.0740741
        k(   36) = (   0.6666667  -0.3849002  -0.4129608), wk =   0.0740741
        k(   37) = (   0.3333333   0.1924501  -0.2064804), wk =   0.0370370
        k(   38) = (   0.3333333   0.1924501  -0.4129608), wk =   0.0370370
        k(   39) = (  -0.6666667   0.7698004  -0.2064804), wk =   0.0370370
        k(   40) = (  -0.6666667   0.7698004  -0.4129608), wk =   0.0370370

                       cryst. coord.
        k(    1) = (   0.0000000   0.0000000   0.0000000), wk =   0.0185185
        k(    2) = (   0.0000000   0.0000000   0.1666667), wk =   0.0370370
        k(    3) = (   0.0000000   0.0000000   0.3333333), wk =   0.0370370
        k(    4) = (   0.0000000   0.0000000  -0.5000000), wk =   0.0185185
        k(    5) = (   0.0000000   0.1666667   0.0000000), wk =   0.0740741
        k(    6) = (   0.0000000   0.1666667   0.1666667), wk =   0.0740741
        k(    7) = (   0.0000000   0.1666667   0.3333333), wk =   0.0740741
        k(    8) = (   0.0000000   0.1666667  -0.5000000), wk =   0.0740741
        k(    9) = (   0.0000000   0.3333333   0.0000000), wk =   0.0740741
        k(   10) = (   0.0000000   0.3333333   0.1666667), wk =   0.0740741
        k(   11) = (   0.0000000   0.3333333   0.3333333), wk =   0.0740741
        k(   12) = (   0.0000000   0.3333333  -0.5000000), wk =   0.0740741
        k(   13) = (   0.0000000  -0.5000000   0.0000000), wk =   0.0185185
        k(   14) = (   0.0000000  -0.5000000   0.1666667), wk =   0.0370370
        k(   15) = (   0.0000000  -0.5000000   0.3333333), wk =   0.0370370
        k(   16) = (   0.0000000  -0.5000000  -0.5000000), wk =   0.0185185
        k(   17) = (   0.3333333  -0.0000000   0.0000000), wk =   0.0370370
        k(   18) = (   0.3333333  -0.0000000   0.1666667), wk =   0.0370370
        k(   19) = (   0.3333333  -0.0000000   0.3333333), wk =   0.0370370
        k(   20) = (   0.3333333  -0.0000000  -0.5000000), wk =   0.0370370
        k(   21) = (   0.3333333   0.1666667   0.0000000), wk =   0.0370370
        k(   22) = (   0.3333333   0.1666667   0.1666667), wk =   0.0740741
        k(   23) = (   0.3333333   0.1666667   0.3333333), wk =   0.0740741
        k(   24) = (   0.3333333   0.1666667  -0.5000000), wk =   0.0370370
        k(   25) = (   0.3333333  -0.5000000   0.0000000), wk =   0.0370370
        k(   26) = (   0.3333333  -0.5000000   0.1666667), wk =   0.0370370
        k(   27) = (   0.3333333  -0.5000000   0.3333333), wk =   0.0370370
        k(   28) = (   0.3333333  -0.5000000  -0.5000000), wk =   0.0370370
        k(   29) = (   0.3333333  -0.3333333   0.0000000), wk =   0.0370370
        k(   30) = (   0.3333333  -0.3333333   0.1666667), wk =   0.0740741
        k(   31) = (   0.3333333  -0.3333333   0.3333333), wk =   0.0740741
        k(   32) = (   0.3333333  -0.3333333  -0.5000000), wk =   0.0370370
        k(   33) = (   0.3333333  -0.1666667  -0.1666667), wk =   0.0740741
        k(   34) = (   0.3333333  -0.1666667  -0.3333333), wk =   0.0740741
        k(   35) = (   0.6666667  -0.3333333  -0.1666667), wk =   0.0740741
        k(   36) = (   0.6666667  -0.3333333  -0.3333333), wk =   0.0740741
        k(   37) = (   0.3333333   0.0000000  -0.1666667), wk =   0.0370370
        k(   38) = (   0.3333333   0.0000000  -0.3333333), wk =   0.0370370
        k(   39) = (  -0.6666667   0.5000000  -0.1666667), wk =   0.0370370
        k(   40) = (  -0.6666667   0.5000000  -0.3333333), wk =   0.0370370

     Check: negative core charge=   -0.000002

     Initial potential from superposition of free atoms

     starting charge      71.9851, renormalised to      72.0000
     Starting wfcs are   52 randomized atomic wfcs

     Self-consistent Calculation

     iteration #  1     ecut=    50.00 Ry     beta= 0.30
     Davidson diagonalization with overlap

     ethr =  1.00E-02,  avg # of iterations =  1.9

     total energy              =    -722.95951212 Ry
     estimated scf accuracy    <       1.38372270 Ry

[...]

     total energy              =    -723.27377577 Ry
     estimated scf accuracy    <       0.00000012 Ry

     iteration # 31     ecut=    50.00 Ry     beta= 0.30
     Davidson diagonalization with overlap

     ethr =  1.61E-10,  avg # of iterations =  4.1

     End of self-consistent calculation

          k = 0.0000 0.0000 0.0000 (  3907 PWs)   bands (ev):

   -10.9986 -10.3494 -10.3183 -10.1408   1.1141   1.3159   1.3159   1.3230
     1.3565   1.4392   1.5014   1.5014   1.5609   1.9413   1.9538   2.0753
     2.4282   2.4282   2.4642   2.5909   2.6249   2.6249   2.6706   2.7418
     2.8918   3.2047   3.4268   4.1405   4.7139   5.6402   6.0829   6.1250
     6.1250   6.8049   6.8872   6.8872

     occupation numbers
     1.0000   1.0000   1.0000   1.0000   1.0000   1.0000   1.0000   1.0000
     1.0000   1.0000   1.0000   1.0000   1.0000   1.0000   1.0000   1.0000
     1.0000   1.0000   1.0000   1.0000   1.0000   1.0000   1.0000   1.0000
     1.0000   1.0000   1.0000   1.0000   1.0000   1.0000   1.0000   1.0000
     1.0000   1.0000   1.0000   1.0000

[...]

          k = 0.3333 0.1925-0.4130 (  3933 PWs)   bands (ev):

[...]

          k =-0.6667 0.7698-0.2065 (  3962 PWs)   bands (ev):

[...]

          k =-0.6667 0.7698-0.4130 (  3952 PWs)   bands (ev):

   -10.2963 -10.2963 -10.1860 -10.1860   1.1038   1.1038   1.1967   1.1967
     1.5839   1.5839   1.7338   1.7338   1.8904   1.8904   1.9133   1.9133
     2.4958   2.4958   2.5677   2.5677   2.6913   2.6913   2.8116   2.8116
     3.2568   3.2568   3.5916   3.5916   4.5349   4.5349   5.0816   5.0816
     5.3813   5.3813   5.8447   5.8447

     occupation numbers
     1.0000   1.0000   1.0000   1.0000   1.0000   1.0000   1.0000   1.0000
     1.0000   1.0000   1.0000   1.0000   1.0000   1.0000   1.0000   1.0000
     1.0000   1.0000   1.0000   1.0000   1.0000   1.0000   1.0000   1.0000
     1.0000   1.0000   1.0000   1.0000   1.0000   1.0000   1.0000   1.0000
     1.0000   1.0000   1.0000   1.0000

     highest occupied level (ev):     6.8872

!    total energy              =    -723.27377579 Ry
     estimated scf accuracy    <          2.7E-09 Ry

     The total energy is the sum of the following terms:
     one-electron contribution =    -309.05000191 Ry
     hartree contribution      =     236.57771599 Ry
     xc contribution           =    -219.09202590 Ry
     ewald contribution        =    -431.70946397 Ry

     convergence has been achieved in  31 iterations

     Forces acting on atoms (cartesian axes, Ry/au):

     atom    1 type  1   force =    -0.00000062   -0.00000036    0.00006071
     atom    2 type  1   force =     0.00000092    0.00000053    0.00006186
     atom    3 type  2   force =     0.00000167    0.00000096   -0.00006121
     atom    4 type  2   force =    -0.00000020   -0.00000012   -0.00005933
     atom    5 type  1   force =    -0.00000186   -0.00000107    0.00006205
     atom    6 type  1   force =     0.00000134    0.00000077    0.00005740
     atom    7 type  2   force =     0.00000053    0.00000031   -0.00006222
     atom    8 type  2   force =    -0.00000177   -0.00000102   -0.00005925
     The non-local contrib.  to forces
     atom    1 type  1   force =    -0.00000286   -0.00000165   -0.00483188
     atom    2 type  1   force =     0.00000112    0.00000065   -0.00483195
     atom    3 type  2   force =     0.00000050    0.00000029    0.00575560
     atom    4 type  2   force =     0.00000092    0.00000053    0.00575562
     atom    5 type  1   force =    -0.00000144   -0.00000083   -0.00483183
     atom    6 type  1   force =     0.00000371    0.00000214   -0.00483266
     atom    7 type  2   force =     0.00000021    0.00000012    0.00575500
     atom    8 type  2   force =    -0.00000122   -0.00000070    0.00575520
     The ionic contribution  to forces
     atom    1 type  1   force =    -0.00000000    0.00000000    0.06271747
     atom    2 type  1   force =     0.00000000   -0.00000000    0.06271747
     atom    3 type  2   force =    -0.00000000    0.00000000   -0.06271747
     atom    4 type  2   force =     0.00000000   -0.00000000   -0.06271747
     atom    5 type  1   force =    -0.00000000    0.00000000    0.06271747
     atom    6 type  1   force =     0.00000000   -0.00000000    0.06271747
     atom    7 type  2   force =    -0.00000000    0.00000000   -0.06271747
     atom    8 type  2   force =     0.00000000   -0.00000000   -0.06271747
     The local contribution  to forces
     atom    1 type  1   force =     0.00000392    0.00000227   -0.05829020
     atom    2 type  1   force =    -0.00000184   -0.00000116   -0.05829041
     atom    3 type  2   force =     0.00000222    0.00000128    0.05696779
     atom    4 type  2   force =    -0.00000032   -0.00000021    0.05697220
     atom    5 type  1   force =     0.00000194    0.00000112   -0.05829027
     atom    6 type  1   force =    -0.00000464   -0.00000278   -0.05828624
     atom    7 type  2   force =     0.00000314    0.00000181    0.05697111
     atom    8 type  2   force =    -0.00000307   -0.00000180    0.05696859
     The core correction contribution to forces
     atom    1 type  1   force =     0.00000004    0.00000003    0.00046394
     atom    2 type  1   force =    -0.00000006   -0.00000005    0.00046391
     atom    3 type  2   force =    -0.00000000   -0.00000000   -0.00006503
     atom    4 type  2   force =    -0.00000001   -0.00000001   -0.00006502
     atom    5 type  1   force =     0.00000011    0.00000006    0.00046393
     atom    6 type  1   force =    -0.00000010   -0.00000007    0.00046393
     atom    7 type  2   force =     0.00000001    0.00000000   -0.00006501
     atom    8 type  2   force =     0.00000001    0.00000000   -0.00006502
     The Hubbard contrib.    to forces
     atom    1 type  1   force =     0.00000000    0.00000000    0.00000000
     atom    2 type  1   force =     0.00000000    0.00000000    0.00000000
     atom    3 type  2   force =     0.00000000    0.00000000    0.00000000
     atom    4 type  2   force =     0.00000000    0.00000000    0.00000000
     atom    5 type  1   force =     0.00000000    0.00000000    0.00000000
     atom    6 type  1   force =     0.00000000    0.00000000    0.00000000
     atom    7 type  2   force =     0.00000000    0.00000000    0.00000000
     atom    8 type  2   force =     0.00000000    0.00000000    0.00000000
     The SCF correction term to forces
     atom    1 type  1   force =    -0.00000161   -0.00000093    0.00000076
     atom    2 type  1   force =     0.00000186    0.00000108    0.00000223
     atom    3 type  2   force =    -0.00000093   -0.00000054   -0.00000272
     atom    4 type  2   force =    -0.00000065   -0.00000038   -0.00000527
     atom    5 type  1   force =    -0.00000235   -0.00000136    0.00000212
     atom    6 type  1   force =     0.00000254    0.00000147   -0.00000570
     atom    7 type  2   force =    -0.00000270   -0.00000156   -0.00000647
     atom    8 type  2   force =     0.00000264    0.00000153   -0.00000116

     Total force =     0.000171     Total SCF correction =     0.000013

     General routines

     Parallel routines

   This run was terminated on:  11:30: 4  15Jul2025

   JOB DONE.
Note: The following floating-point exceptions are signalling: IEEE_INVALID_FLAG
Note: The following floating-point exceptions are signalling: IEEE_INVALID_FLAG