     Program PWSCF v.7.2 starts on  8Jul2025 at 13:24: 2

     Reading input from /home/jvc/QEspresso7.2/ZnO_database/scripts/cell111_strain10%.in/ZnO-3.47-1.71-111.in
Warning: card &CELL ignored
Warning: card / ignored
Warning: card &FCP ignored
Warning: card / ignored
Warning: card &RISM ignored
Warning: card / ignored

     Current dimensions of program PWSCF are:
     Max number of different atomic species (ntypx) = 10
     Max number of k-points (npk) =  40000
     Max angular momentum in pseudopotentials (lmaxx) =  4
     file Zn.upf: wavefunction(s)  3D renormalized
     Message from routine setup:
     using ibrav=0 with symmetry is DISCOURAGED, use correct ibrav instead

     R & G space division:  proc/nbgrp/npool/nimage =       8
     Subspace diagonalization in iterative solution of the eigenvalue problem:
     a serial algorithm will be used

     Using Slab Decomposition

     bravais-lattice index     =            0
     lattice parameter (alat)  =       6.5496  a.u.
     unit-cell volume          =     416.3685 (a.u.)^3
     number of atoms/cell      =            4
     number of atomic types    =            2
     number of electrons       =        36.00
     number of Kohn-Sham states=           18
     kinetic-energy cutoff     =      50.0000  Ry
     charge density cutoff     =     400.0000  Ry
     scf convergence threshold =      1.0E-08
     mixing beta               =       0.3000
     number of iterations used =            8  plain     mixing
     Exchange-correlation= PBE
                           (   1   4   3   4   0   0   0)

     celldm(1)=   6.549585  celldm(2)=   0.000000  celldm(3)=   0.000000
     celldm(4)=   0.000000  celldm(5)=   0.000000  celldm(6)=   0.000000

     crystal axes: (cart. coord. in units of alat)
               a(1) = (   1.000000   0.000000   0.000000 )
               a(2) = (  -0.500000   0.866025   0.000000 )
               a(3) = (   0.000000   0.000000   1.711220 )

     reciprocal axes: (cart. coord. in units 2 pi/alat)
               b(1) = (  1.000000  0.577350 -0.000000 )
               b(2) = (  0.000000  1.154701  0.000000 )
               b(3) = (  0.000000 -0.000000  0.584378 )

     PseudoPot. # 1 for Zn read from file:
     /home/jvc/QEspresso7.2/ZnO_database/pseudos/Zn.upf
     MD5 check sum: 7f56cabf9682ed8c977c2f7d0c5985c5
     Pseudo is Ultrasoft + core correction, Zval = 12.0
     Generated using &quot;atomic&quot; code by A. Dal Corso  v.6.2.2
     Using radial grid of 1201 points,  6 beta functions with:
                l(1) =   0
                l(2) =   0
                l(3) =   1
                l(4) =   1
                l(5) =   2
                l(6) =   2
     Q(r) pseudized with 0 coefficients

     PseudoPot. # 2 for O  read from file:
     /home/jvc/QEspresso7.2/ZnO_database/pseudos/O.upf
     MD5 check sum: 91400c9766925bcf19f520983a725ff0
     Pseudo is Ultrasoft + core correction, Zval =  6.0
     Generated using &quot;atomic&quot; code by A. Dal Corso  v.6.3MaX
     Using radial grid of 1095 points,  4 beta functions with:
                l(1) =   0
                l(2) =   0
                l(3) =   1
                l(4) =   1
     Q(r) pseudized with 0 coefficients

     atomic species   valence    mass     pseudopotential
        Zn            12.00    65.38000     Zn( 1.00)
        O              6.00    15.99900     O ( 1.00)

     12 Sym. Ops. (no inversion) found ( 6 have fractional translation)

   Cartesian axes

     site n.     atom                  positions (alat units)
         1           Zn  tau(   1) = (   0.0000000   0.0000000   0.0000000  )
         2           O   tau(   2) = (  -0.0000000   0.5773503   0.2330121  )
         3           Zn  tau(   3) = (  -0.0000000   0.5773503   0.8556099  )
         4           O   tau(   4) = (   0.0000000   0.0000000   1.0886221  )

     number of k points=    28
                       cart. coord. in units 2pi/alat
        k(    1) = (   0.0000000   0.0000000   0.0000000), wk =   0.0092593
        k(    2) = (   0.0000000   0.0000000   0.0973964), wk =   0.0185185
        k(    3) = (   0.0000000   0.0000000   0.1947928), wk =   0.0185185
        k(    4) = (   0.0000000   0.0000000  -0.2921892), wk =   0.0092593
        k(    5) = (   0.0000000   0.1924501   0.0000000), wk =   0.0555556
        k(    6) = (   0.0000000   0.1924501   0.0973964), wk =   0.1111111
        k(    7) = (   0.0000000   0.1924501   0.1947928), wk =   0.1111111
        k(    8) = (   0.0000000   0.1924501  -0.2921892), wk =   0.0555556
        k(    9) = (   0.0000000   0.3849002   0.0000000), wk =   0.0555556
        k(   10) = (   0.0000000   0.3849002   0.0973964), wk =   0.1111111
        k(   11) = (   0.0000000   0.3849002   0.1947928), wk =   0.1111111
        k(   12) = (   0.0000000   0.3849002  -0.2921892), wk =   0.0555556
        k(   13) = (   0.0000000  -0.5773503   0.0000000), wk =   0.0277778
        k(   14) = (   0.0000000  -0.5773503   0.0973964), wk =   0.0555556
        k(   15) = (   0.0000000  -0.5773503   0.1947928), wk =   0.0555556
        k(   16) = (   0.0000000  -0.5773503  -0.2921892), wk =   0.0277778
        k(   17) = (   0.1666667   0.2886751   0.0000000), wk =   0.0555556
        k(   18) = (   0.1666667   0.2886751   0.0973964), wk =   0.1111111
        k(   19) = (   0.1666667   0.2886751   0.1947928), wk =   0.1111111
        k(   20) = (   0.1666667   0.2886751  -0.2921892), wk =   0.0555556
        k(   21) = (   0.1666667   0.4811252   0.0000000), wk =   0.1111111
        k(   22) = (   0.1666667   0.4811252   0.0973964), wk =   0.2222222
        k(   23) = (   0.1666667   0.4811252   0.1947928), wk =   0.2222222
        k(   24) = (   0.1666667   0.4811252  -0.2921892), wk =   0.1111111
        k(   25) = (   0.3333333   0.5773503   0.0000000), wk =   0.0185185
        k(   26) = (   0.3333333   0.5773503   0.0973964), wk =   0.0370370
        k(   27) = (   0.3333333   0.5773503   0.1947928), wk =   0.0370370
        k(   28) = (   0.3333333   0.5773503  -0.2921892), wk =   0.0185185

     Check: negative core charge=   -0.000002

     Initial potential from superposition of free atoms

     starting charge      35.9925, renormalised to      36.0000
     Starting wfcs are   26 randomized atomic wfcs

     Self-consistent Calculation

     iteration #  1     ecut=    50.00 Ry     beta= 0.30
     Davidson diagonalization with overlap
     ethr =  1.00E-02,  avg # of iterations =  1.2

     total energy              =    -361.37590138 Ry
     estimated scf accuracy    <       0.81433613 Ry

[...]

     iteration # 18     ecut=    50.00 Ry     beta= 0.30
     Davidson diagonalization with overlap
     c_bands:  2 eigenvalues not converged
     ethr =  1.97E-07,  avg # of iterations =  8.6

[...]

     total energy              =    -361.57165346 Ry
     estimated scf accuracy    <       0.00000040 Ry

     iteration # 42     ecut=    50.00 Ry     beta= 0.30
     Davidson diagonalization with overlap
     ethr =  3.88E-10,  avg # of iterations =  5.7

     End of self-consistent calculation

          k = 0.0000 0.0000 0.0000 (  2515 PWs)   bands (ev):

   -12.4616 -12.1067  -1.0290  -0.9395  -0.9395  -0.8203  -0.8203  -0.4760
    -0.4101  -0.4101  -0.3095  -0.3095   0.1013   3.4730   3.4730   3.7954
     3.9723   3.9723

[...]

          k = 0.3333 0.5774-0.2922 (  2490 PWs)   bands (ev):

   -11.9776 -11.9776  -0.8186  -0.8186  -0.7900  -0.7900  -0.4491  -0.4491
    -0.4105  -0.4105  -0.1380  -0.1380   0.8879   0.8879   2.0965   2.0965
     2.9630   2.9630

     highest occupied level (ev):     3.9723

!    total energy              =    -361.57165355 Ry
     estimated scf accuracy    <          5.9E-10 Ry

     The total energy is the sum of the following terms:
     one-electron contribution =    -180.04214653 Ry
     hartree contribution      =     127.50215279 Ry
     xc contribution           =    -109.11973646 Ry
     ewald contribution        =    -199.91192335 Ry

     convergence has been achieved in  42 iterations

     Forces acting on atoms (cartesian axes, Ry/au):

     atom    1 type  1   force =     0.00000000    0.00000000    0.00894044
     atom    2 type  2   force =     0.00000000    0.00000000   -0.00894044
     atom    3 type  1   force =     0.00000000    0.00000000    0.00894044
     atom    4 type  2   force =     0.00000000    0.00000000   -0.00894044
     The non-local contrib.  to forces
     atom    1 type  1   force =     0.00000000    0.00000000   -0.07028634
     atom    2 type  2   force =     0.00000000   -0.00000000   -0.07085713
     atom    3 type  1   force =     0.00000000   -0.00000000   -0.07028634
     atom    4 type  2   force =     0.00000000    0.00000000   -0.07085713
     The ionic contribution  to forces
     atom    1 type  1   force =    -0.00000000    0.00000000   -0.59826302
     atom    2 type  2   force =     0.00000000   -0.00000000    0.59826302
     atom    3 type  1   force =     0.00000000   -0.00000000   -0.59826302
     atom    4 type  2   force =    -0.00000000    0.00000000    0.59826302
     The local contribution  to forces
     atom    1 type  1   force =     0.00000000    0.00000000    0.67417252
     atom    2 type  2   force =     0.00000001   -0.00000001   -0.53698587
     atom    3 type  1   force =     0.00000005   -0.00000003    0.67417252
     atom    4 type  2   force =     0.00000000   -0.00000000   -0.53698586
     The core correction contribution to forces
     atom    1 type  1   force =     0.00000000    0.00000000    0.00330971
     atom    2 type  2   force =    -0.00000000    0.00000000    0.00064046
     atom    3 type  1   force =     0.00000001   -0.00000000    0.00330971
     atom    4 type  2   force =    -0.00000000    0.00000000    0.00064046
     The Hubbard contrib.    to forces
     atom    1 type  1   force =     0.00000000    0.00000000    0.00000000
     atom    2 type  2   force =     0.00000000    0.00000000    0.00000000
     atom    3 type  1   force =     0.00000000    0.00000000    0.00000000
     atom    4 type  2   force =     0.00000000    0.00000000    0.00000000
     The SCF correction term to forces
     atom    1 type  1   force =     0.00000000   -0.00000000    0.00000977
     atom    2 type  2   force =    -0.00000000    0.00000000    0.00000127
     atom    3 type  1   force =    -0.00000000    0.00000000    0.00000977
     atom    4 type  2   force =     0.00000000   -0.00000000    0.00000127

     Total force =     0.017881     Total SCF correction =     0.000014

     Writing all to output data dir ./ZnO-3.47-1.71-111.in.save/

     General routines

     Parallel routines

   This run was terminated on:  13:25: 0   8Jul2025

   JOB DONE.
Note: The following floating-point exceptions are signalling: IEEE_INVALID_FLAG