     Program PWSCF v.7.2 starts on  8Jul2025 at 13: 5: 0

     Reading input from /home/jvc/QEspresso7.2/ZnO_database/scripts/cell111_strain10%.in/ZnO-3.34-1.74-111.in
Warning: card &CELL ignored
Warning: card / ignored
Warning: card &FCP ignored
Warning: card / ignored
Warning: card &RISM ignored
Warning: card / ignored

     Current dimensions of program PWSCF are:
     Max number of different atomic species (ntypx) = 10
     Max number of k-points (npk) =  40000
     Max angular momentum in pseudopotentials (lmaxx) =  4
     file Zn.upf: wavefunction(s)  3D renormalized
     Message from routine setup:
     using ibrav=0 with symmetry is DISCOURAGED, use correct ibrav instead

     R & G space division:  proc/nbgrp/npool/nimage =       8
     Subspace diagonalization in iterative solution of the eigenvalue problem:
     a serial algorithm will be used

     Using Slab Decomposition

     bravais-lattice index     =            0
     lattice parameter (alat)  =       6.3024  a.u.
     unit-cell volume          =     377.9885 (a.u.)^3
     number of atoms/cell      =            4
     number of atomic types    =            2
     number of electrons       =        36.00
     number of Kohn-Sham states=           18
     kinetic-energy cutoff     =      50.0000  Ry
     charge density cutoff     =     400.0000  Ry
     scf convergence threshold =      1.0E-08
     mixing beta               =       0.3000
     number of iterations used =            8  plain     mixing
     Exchange-correlation= PBE
                           (   1   4   3   4   0   0   0)

     celldm(1)=   6.302431  celldm(2)=   0.000000  celldm(3)=   0.000000
     celldm(4)=   0.000000  celldm(5)=   0.000000  celldm(6)=   0.000000

     crystal axes: (cart. coord. in units of alat)
               a(1) = (   1.000000   0.000000   0.000000 )
               a(2) = (  -0.500000   0.866025   0.000000 )
               a(3) = (   0.000000   0.000000   1.743507 )

     reciprocal axes: (cart. coord. in units 2 pi/alat)
               b(1) = (  1.000000  0.577350 -0.000000 )
               b(2) = (  0.000000  1.154701  0.000000 )
               b(3) = (  0.000000 -0.000000  0.573557 )

     PseudoPot. # 1 for Zn read from file:
     /home/jvc/QEspresso7.2/ZnO_database/pseudos/Zn.upf
     MD5 check sum: 7f56cabf9682ed8c977c2f7d0c5985c5
     Pseudo is Ultrasoft + core correction, Zval = 12.0
     Generated using &quot;atomic&quot; code by A. Dal Corso  v.6.2.2
     Using radial grid of 1201 points,  6 beta functions with:
                l(1) =   0
                l(2) =   0
                l(3) =   1
                l(4) =   1
                l(5) =   2
                l(6) =   2
     Q(r) pseudized with 0 coefficients

     PseudoPot. # 2 for O  read from file:
     /home/jvc/QEspresso7.2/ZnO_database/pseudos/O.upf
     MD5 check sum: 91400c9766925bcf19f520983a725ff0
     Pseudo is Ultrasoft + core correction, Zval =  6.0
     Generated using &quot;atomic&quot; code by A. Dal Corso  v.6.3MaX
     Using radial grid of 1095 points,  4 beta functions with:
                l(1) =   0
                l(2) =   0
                l(3) =   1
                l(4) =   1
     Q(r) pseudized with 0 coefficients

     atomic species   valence    mass     pseudopotential
        Zn            12.00    65.38000     Zn( 1.00)
        O              6.00    15.99900     O ( 1.00)

     12 Sym. Ops. (no inversion) found ( 6 have fractional translation)

   Cartesian axes

     site n.     atom                  positions (alat units)
         1           Zn  tau(   1) = (   0.0000000   0.0000000   0.0000000  )
         2           O   tau(   2) = (  -0.0000000   0.5773503   0.2446912  )
         3           Zn  tau(   3) = (  -0.0000000   0.5773503   0.8717535  )
         4           O   tau(   4) = (   0.0000000   0.0000000   1.1164447  )

     number of k points=    28
                       cart. coord. in units 2pi/alat
        k(    1) = (   0.0000000   0.0000000   0.0000000), wk =   0.0092593
        k(    2) = (   0.0000000   0.0000000   0.0955928), wk =   0.0185185
        k(    3) = (   0.0000000   0.0000000   0.1911855), wk =   0.0185185
        k(    4) = (   0.0000000   0.0000000  -0.2867783), wk =   0.0092593
        k(    5) = (   0.0000000   0.1924501   0.0000000), wk =   0.0555556
        k(    6) = (   0.0000000   0.1924501   0.0955928), wk =   0.1111111
        k(    7) = (   0.0000000   0.1924501   0.1911855), wk =   0.1111111
        k(    8) = (   0.0000000   0.1924501  -0.2867783), wk =   0.0555556
        k(    9) = (   0.0000000   0.3849002   0.0000000), wk =   0.0555556
        k(   10) = (   0.0000000   0.3849002   0.0955928), wk =   0.1111111
        k(   11) = (   0.0000000   0.3849002   0.1911855), wk =   0.1111111
        k(   12) = (   0.0000000   0.3849002  -0.2867783), wk =   0.0555556
        k(   13) = (   0.0000000  -0.5773503   0.0000000), wk =   0.0277778
        k(   14) = (   0.0000000  -0.5773503   0.0955928), wk =   0.0555556
        k(   15) = (   0.0000000  -0.5773503   0.1911855), wk =   0.0555556
        k(   16) = (   0.0000000  -0.5773503  -0.2867783), wk =   0.0277778
        k(   17) = (   0.1666667   0.2886751   0.0000000), wk =   0.0555556
        k(   18) = (   0.1666667   0.2886751   0.0955928), wk =   0.1111111
        k(   19) = (   0.1666667   0.2886751   0.1911855), wk =   0.1111111
        k(   20) = (   0.1666667   0.2886751  -0.2867783), wk =   0.0555556
        k(   21) = (   0.1666667   0.4811252   0.0000000), wk =   0.1111111
        k(   22) = (   0.1666667   0.4811252   0.0955928), wk =   0.2222222
        k(   23) = (   0.1666667   0.4811252   0.1911855), wk =   0.2222222
        k(   24) = (   0.1666667   0.4811252  -0.2867783), wk =   0.1111111
        k(   25) = (   0.3333333   0.5773503   0.0000000), wk =   0.0185185
        k(   26) = (   0.3333333   0.5773503   0.0955928), wk =   0.0370370
        k(   27) = (   0.3333333   0.5773503   0.1911855), wk =   0.0370370
        k(   28) = (   0.3333333   0.5773503  -0.2867783), wk =   0.0185185

     Check: negative core charge=   -0.000002

     Initial potential from superposition of free atoms

     starting charge      35.9925, renormalised to      36.0000
     Starting wfcs are   26 randomized atomic wfcs

     Self-consistent Calculation

     iteration #  1     ecut=    50.00 Ry     beta= 0.30
     Davidson diagonalization with overlap
     ethr =  1.00E-02,  avg # of iterations =  1.4

     total energy              =    -361.43026318 Ry
     estimated scf accuracy    <       0.75581587 Ry

[...]

     iteration # 24     ecut=    50.00 Ry     beta= 0.30
     Davidson diagonalization with overlap
     c_bands:  1 eigenvalues not converged
     ethr =  1.29E-08,  avg # of iterations =  8.5

[...]

     total energy              =    -361.60882325 Ry
     estimated scf accuracy    <       0.00000675 Ry

     iteration # 27     ecut=    50.00 Ry     beta= 0.30
     Davidson diagonalization with overlap
     ethr =  3.66E-09,  avg # of iterations =  5.8

     End of self-consistent calculation

          k = 0.0000 0.0000 0.0000 (  2275 PWs)   bands (ev):

   -11.8680 -11.4339  -0.1569   0.0017   0.0017   0.1558   0.1558   0.1992
     0.6992   0.6992   0.8218   0.8218   1.0507   4.5227   4.5227   4.8700
     5.1029   5.1029

[...]

          k = 0.3333 0.5774-0.2868 (  2250 PWs)   bands (ev):

   -11.2504 -11.2504   0.0821   0.0821   0.1220   0.1220   0.6125   0.6125
     0.6875   0.6875   1.0435   1.0435   1.7465   1.7465   2.9860   2.9860
     3.8717   3.8717

     highest occupied level (ev):     5.1029

!    total energy              =    -361.60882442 Ry
     estimated scf accuracy    <          5.2E-09 Ry

     The total energy is the sum of the following terms:
     one-electron contribution =    -169.25338841 Ry
     hartree contribution      =     123.47963825 Ry
     xc contribution           =    -109.27394621 Ry
     ewald contribution        =    -206.56112805 Ry

     convergence has been achieved in  27 iterations

     Forces acting on atoms (cartesian axes, Ry/au):

     atom    1 type  1   force =     0.00000000    0.00000000    0.00880946
     atom    2 type  2   force =     0.00000000   -0.00000000   -0.00880946
     atom    3 type  1   force =     0.00000000    0.00000000    0.00880946
     atom    4 type  2   force =     0.00000000    0.00000000   -0.00880946
     The non-local contrib.  to forces
     atom    1 type  1   force =     0.00000000    0.00000000   -0.09954776
     atom    2 type  2   force =     0.00000000    0.00000000   -0.09158924
     atom    3 type  1   force =     0.00000000    0.00000000   -0.09954776
     atom    4 type  2   force =     0.00000000   -0.00000000   -0.09158924
     The ionic contribution  to forces
     atom    1 type  1   force =    -0.00000000    0.00000000   -0.84202705
     atom    2 type  2   force =     0.00000000   -0.00000000    0.84202705
     atom    3 type  1   force =     0.00000000   -0.00000000   -0.84202705
     atom    4 type  2   force =    -0.00000000    0.00000000    0.84202705
     The local contribution  to forces
     atom    1 type  1   force =    -0.00000000   -0.00000000    0.94533782
     atom    2 type  2   force =     0.00000001   -0.00000001   -0.76004119
     atom    3 type  1   force =     0.00000004   -0.00000003    0.94533782
     atom    4 type  2   force =     0.00000000    0.00000000   -0.76004118
     The core correction contribution to forces
     atom    1 type  1   force =     0.00000000   -0.00000000    0.00507145
     atom    2 type  2   force =    -0.00000000    0.00000000    0.00078893
     atom    3 type  1   force =     0.00000001   -0.00000000    0.00507145
     atom    4 type  2   force =     0.00000000   -0.00000000    0.00078893
     The Hubbard contrib.    to forces
     atom    1 type  1   force =     0.00000000    0.00000000    0.00000000
     atom    2 type  2   force =     0.00000000    0.00000000    0.00000000
     atom    3 type  1   force =     0.00000000    0.00000000    0.00000000
     atom    4 type  2   force =     0.00000000    0.00000000    0.00000000
     The SCF correction term to forces
     atom    1 type  1   force =    -0.00000000    0.00000000   -0.00002900
     atom    2 type  2   force =     0.00000000   -0.00000000    0.00000097
     atom    3 type  1   force =     0.00000000   -0.00000000   -0.00002900
     atom    4 type  2   force =    -0.00000000    0.00000000    0.00000097

     Total force =     0.017619     Total SCF correction =     0.000041

     Writing all to output data dir ./ZnO-3.34-1.74-111.in.save/

     General routines

     Parallel routines

   This run was terminated on:  13: 5:39   8Jul2025

   JOB DONE.
Note: The following floating-point exceptions are signalling: IEEE_INVALID_FLAG