     Program PWSCF v.7.2 starts on  8Jul2025 at 13: 5:39

     Reading input from /home/jvc/QEspresso7.2/ZnO_database/scripts/cell111_strain10%.in/ZnO-3.34-1.78-111.in
Warning: card &CELL ignored
Warning: card / ignored
Warning: card &FCP ignored
Warning: card / ignored
Warning: card &RISM ignored
Warning: card / ignored

     Current dimensions of program PWSCF are:
     Max number of different atomic species (ntypx) = 10
     Max number of k-points (npk) =  40000
     Max angular momentum in pseudopotentials (lmaxx) =  4
     file Zn.upf: wavefunction(s)  3D renormalized
     Message from routine setup:
     using ibrav=0 with symmetry is DISCOURAGED, use correct ibrav instead

     R & G space division:  proc/nbgrp/npool/nimage =       8
     Subspace diagonalization in iterative solution of the eigenvalue problem:
     a serial algorithm will be used

     Using Slab Decomposition

     bravais-lattice index     =            0
     lattice parameter (alat)  =       6.3024  a.u.
     unit-cell volume          =     384.9883 (a.u.)^3
     number of atoms/cell      =            4
     number of atomic types    =            2
     number of electrons       =        36.00
     number of Kohn-Sham states=           18
     kinetic-energy cutoff     =      50.0000  Ry
     charge density cutoff     =     400.0000  Ry
     scf convergence threshold =      1.0E-08
     mixing beta               =       0.3000
     number of iterations used =            8  plain     mixing
     Exchange-correlation= PBE
                           (   1   4   3   4   0   0   0)

     celldm(1)=   6.302431  celldm(2)=   0.000000  celldm(3)=   0.000000
     celldm(4)=   0.000000  celldm(5)=   0.000000  celldm(6)=   0.000000

     crystal axes: (cart. coord. in units of alat)
               a(1) = (   1.000000   0.000000   0.000000 )
               a(2) = (  -0.500000   0.866025   0.000000 )
               a(3) = (   0.000000   0.000000   1.775794 )

     reciprocal axes: (cart. coord. in units 2 pi/alat)
               b(1) = (  1.000000  0.577350 -0.000000 )
               b(2) = (  0.000000  1.154701  0.000000 )
               b(3) = (  0.000000 -0.000000  0.563128 )

     PseudoPot. # 1 for Zn read from file:
     /home/jvc/QEspresso7.2/ZnO_database/pseudos/Zn.upf
     MD5 check sum: 7f56cabf9682ed8c977c2f7d0c5985c5
     Pseudo is Ultrasoft + core correction, Zval = 12.0
     Generated using &quot;atomic&quot; code by A. Dal Corso  v.6.2.2
     Using radial grid of 1201 points,  6 beta functions with:
                l(1) =   0
                l(2) =   0
                l(3) =   1
                l(4) =   1
                l(5) =   2
                l(6) =   2
     Q(r) pseudized with 0 coefficients

     PseudoPot. # 2 for O  read from file:
     /home/jvc/QEspresso7.2/ZnO_database/pseudos/O.upf
     MD5 check sum: 91400c9766925bcf19f520983a725ff0
     Pseudo is Ultrasoft + core correction, Zval =  6.0
     Generated using &quot;atomic&quot; code by A. Dal Corso  v.6.3MaX
     Using radial grid of 1095 points,  4 beta functions with:
                l(1) =   0
                l(2) =   0
                l(3) =   1
                l(4) =   1
     Q(r) pseudized with 0 coefficients

     atomic species   valence    mass     pseudopotential
        Zn            12.00    65.38000     Zn( 1.00)
        O              6.00    15.99900     O ( 1.00)

     12 Sym. Ops. (no inversion) found ( 6 have fractional translation)

   Cartesian axes

     site n.     atom                  positions (alat units)
         1           Zn  tau(   1) = (   0.0000000   0.0000000   0.0000000  )
         2           O   tau(   2) = (  -0.0000000   0.5773503   0.2562391  )
         3           Zn  tau(   3) = (  -0.0000000   0.5773503   0.8878971  )
         4           O   tau(   4) = (   0.0000000   0.0000000   1.1441362  )

     number of k points=    28
                       cart. coord. in units 2pi/alat
        k(    1) = (   0.0000000   0.0000000   0.0000000), wk =   0.0092593
        k(    2) = (   0.0000000   0.0000000   0.0938547), wk =   0.0185185
        k(    3) = (   0.0000000   0.0000000   0.1877094), wk =   0.0185185
        k(    4) = (   0.0000000   0.0000000  -0.2815642), wk =   0.0092593
        k(    5) = (   0.0000000   0.1924501   0.0000000), wk =   0.0555556
        k(    6) = (   0.0000000   0.1924501   0.0938547), wk =   0.1111111
        k(    7) = (   0.0000000   0.1924501   0.1877094), wk =   0.1111111
        k(    8) = (   0.0000000   0.1924501  -0.2815642), wk =   0.0555556
        k(    9) = (   0.0000000   0.3849002   0.0000000), wk =   0.0555556
        k(   10) = (   0.0000000   0.3849002   0.0938547), wk =   0.1111111
        k(   11) = (   0.0000000   0.3849002   0.1877094), wk =   0.1111111
        k(   12) = (   0.0000000   0.3849002  -0.2815642), wk =   0.0555556
        k(   13) = (   0.0000000  -0.5773503   0.0000000), wk =   0.0277778
        k(   14) = (   0.0000000  -0.5773503   0.0938547), wk =   0.0555556
        k(   15) = (   0.0000000  -0.5773503   0.1877094), wk =   0.0555556
        k(   16) = (   0.0000000  -0.5773503  -0.2815642), wk =   0.0277778
        k(   17) = (   0.1666667   0.2886751   0.0000000), wk =   0.0555556
        k(   18) = (   0.1666667   0.2886751   0.0938547), wk =   0.1111111
        k(   19) = (   0.1666667   0.2886751   0.1877094), wk =   0.1111111
        k(   20) = (   0.1666667   0.2886751  -0.2815642), wk =   0.0555556
        k(   21) = (   0.1666667   0.4811252   0.0000000), wk =   0.1111111
        k(   22) = (   0.1666667   0.4811252   0.0938547), wk =   0.2222222
        k(   23) = (   0.1666667   0.4811252   0.1877094), wk =   0.2222222
        k(   24) = (   0.1666667   0.4811252  -0.2815642), wk =   0.1111111
        k(   25) = (   0.3333333   0.5773503   0.0000000), wk =   0.0185185
        k(   26) = (   0.3333333   0.5773503   0.0938547), wk =   0.0370370
        k(   27) = (   0.3333333   0.5773503   0.1877094), wk =   0.0370370
        k(   28) = (   0.3333333   0.5773503  -0.2815642), wk =   0.0185185

     Check: negative core charge=   -0.000002

     Initial potential from superposition of free atoms

     starting charge      35.9925, renormalised to      36.0000
     Starting wfcs are   26 randomized atomic wfcs

     Self-consistent Calculation

     iteration #  1     ecut=    50.00 Ry     beta= 0.30
     Davidson diagonalization with overlap
     ethr =  1.00E-02,  avg # of iterations =  1.4

     total energy              =    -361.41623353 Ry
     estimated scf accuracy    <       0.76806934 Ry

[...]

     iteration # 23     ecut=    50.00 Ry     beta= 0.30
     Davidson diagonalization with overlap
     c_bands:  2 eigenvalues not converged
     c_bands:  1 eigenvalues not converged
     ethr =  2.59E-09,  avg # of iterations = 13.9

[...]

     total energy              =    -361.59850899 Ry
     estimated scf accuracy    <       0.00000007 Ry

     iteration # 32     ecut=    50.00 Ry     beta= 0.30
     Davidson diagonalization with overlap
     ethr =  1.97E-10,  avg # of iterations =  5.2

     End of self-consistent calculation

          k = 0.0000 0.0000 0.0000 (  2287 PWs)   bands (ev):

   -11.9704 -11.5688  -0.3599  -0.1740  -0.1740  -0.0299  -0.0299   0.0077
     0.4655   0.4655   0.5797   0.5797   0.8089   4.3489   4.3489   4.5948
     4.8960   4.8960

[...]

          k = 0.3333 0.5774-0.2816 (  2310 PWs)   bands (ev):

   -11.3720 -11.3720  -0.0981  -0.0981  -0.0733  -0.0733   0.4045   0.4045
     0.4479   0.4479   0.7883   0.7883   1.6000   1.6000   2.8427   2.8427
     3.6417   3.6417

     highest occupied level (ev):     4.8960

!    total energy              =    -361.59850901 Ry
     estimated scf accuracy    <          7.9E-09 Ry

     The total energy is the sum of the following terms:
     one-electron contribution =    -171.03560061 Ry
     hartree contribution      =     124.08850299 Ry
     xc contribution           =    -109.23561156 Ry
     ewald contribution        =    -205.41579983 Ry

     convergence has been achieved in  32 iterations

     Forces acting on atoms (cartesian axes, Ry/au):

     atom    1 type  1   force =     0.00000000    0.00000000    0.01173353
     atom    2 type  2   force =    -0.00000000   -0.00000000   -0.01173353
     atom    3 type  1   force =     0.00000000   -0.00000000    0.01173353
     atom    4 type  2   force =     0.00000000   -0.00000000   -0.01173353
     The non-local contrib.  to forces
     atom    1 type  1   force =     0.00000000   -0.00000000   -0.12452607
     atom    2 type  2   force =    -0.00000000   -0.00000000   -0.11164894
     atom    3 type  1   force =     0.00000000    0.00000000   -0.12452607
     atom    4 type  2   force =    -0.00000000   -0.00000000   -0.11164894
     The ionic contribution  to forces
     atom    1 type  1   force =    -0.00000000    0.00000000   -1.02969394
     atom    2 type  2   force =     0.00000000   -0.00000000    1.02969394
     atom    3 type  1   force =     0.00000000   -0.00000000   -1.02969394
     atom    4 type  2   force =    -0.00000000    0.00000000    1.02969394
     The local contribution  to forces
     atom    1 type  1   force =    -0.00000000   -0.00000000    1.15974738
     atom    2 type  2   force =     0.00000001   -0.00000001   -0.93074445
     atom    3 type  1   force =     0.00000004   -0.00000003    1.15974738
     atom    4 type  2   force =    -0.00000000    0.00000000   -0.93074444
     The core correction contribution to forces
     atom    1 type  1   force =     0.00000000   -0.00000000    0.00622370
     atom    2 type  2   force =    -0.00000000    0.00000000    0.00096328
     atom    3 type  1   force =     0.00000001   -0.00000000    0.00622370
     atom    4 type  2   force =     0.00000000   -0.00000000    0.00096328
     The Hubbard contrib.    to forces
     atom    1 type  1   force =     0.00000000    0.00000000    0.00000000
     atom    2 type  2   force =     0.00000000    0.00000000    0.00000000
     atom    3 type  1   force =     0.00000000    0.00000000    0.00000000
     atom    4 type  2   force =     0.00000000    0.00000000    0.00000000
     The SCF correction term to forces
     atom    1 type  1   force =     0.00000000   -0.00000000   -0.00002557
     atom    2 type  2   force =    -0.00000000    0.00000000   -0.00000541
     atom    3 type  1   force =    -0.00000000    0.00000000   -0.00002557
     atom    4 type  2   force =     0.00000000   -0.00000000   -0.00000541

     Total force =     0.023467     Total SCF correction =     0.000037

     Writing all to output data dir ./ZnO-3.34-1.78-111.in.save/

     General routines

     Parallel routines

   This run was terminated on:  13: 6:32   8Jul2025

   JOB DONE.
Note: The following floating-point exceptions are signalling: IEEE_INVALID_FLAG