     Program PWSCF v.7.2 starts on  8Jul2025 at 12:18:36

     Reading input from /home/jvc/QEspresso7.2/ZnO_database/scripts/cell111_strain10%.in/ZnO-2.94-1.52-111.in
Warning: card &CELL ignored
Warning: card / ignored
Warning: card &FCP ignored
Warning: card / ignored
Warning: card &RISM ignored
Warning: card / ignored

     Current dimensions of program PWSCF are:
     Max number of different atomic species (ntypx) = 10
     Max number of k-points (npk) =  40000
     Max angular momentum in pseudopotentials (lmaxx) =  4
     file Zn.upf: wavefunction(s)  3D renormalized
     Message from routine setup:
     using ibrav=0 with symmetry is DISCOURAGED, use correct ibrav instead

     R & G space division:  proc/nbgrp/npool/nimage =       8
     Subspace diagonalization in iterative solution of the eigenvalue problem:
     a serial algorithm will be used

     Using Slab Decomposition

     bravais-lattice index     =            0
     lattice parameter (alat)  =       5.5610  a.u.
     unit-cell volume          =     226.0007 (a.u.)^3
     number of atoms/cell      =            4
     number of atomic types    =            2
     number of electrons       =        36.00
     number of Kohn-Sham states=           18
     kinetic-energy cutoff     =      50.0000  Ry
     charge density cutoff     =     400.0000  Ry
     scf convergence threshold =      1.0E-08
     mixing beta               =       0.3000
     number of iterations used =            8  plain     mixing
     Exchange-correlation= PBE
                           (   1   4   3   4   0   0   0)

     celldm(1)=   5.560969  celldm(2)=   0.000000  celldm(3)=   0.000000
     celldm(4)=   0.000000  celldm(5)=   0.000000  celldm(6)=   0.000000

     crystal axes: (cart. coord. in units of alat)
               a(1) = (   1.000000   0.000000   0.000000 )
               a(2) = (  -0.500000   0.866025   0.000000 )
               a(3) = (   0.000000   0.000000   1.517497 )

     reciprocal axes: (cart. coord. in units 2 pi/alat)
               b(1) = (  1.000000  0.577350 -0.000000 )
               b(2) = (  0.000000  1.154701  0.000000 )
               b(3) = (  0.000000 -0.000000  0.658980 )

     PseudoPot. # 1 for Zn read from file:
     /home/jvc/QEspresso7.2/ZnO_database/pseudos/Zn.upf
     MD5 check sum: 7f56cabf9682ed8c977c2f7d0c5985c5
     Pseudo is Ultrasoft + core correction, Zval = 12.0
     Generated using &quot;atomic&quot; code by A. Dal Corso  v.6.2.2
     Using radial grid of 1201 points,  6 beta functions with:
                l(1) =   0
                l(2) =   0
                l(3) =   1
                l(4) =   1
                l(5) =   2
                l(6) =   2
     Q(r) pseudized with 0 coefficients

     PseudoPot. # 2 for O  read from file:
     /home/jvc/QEspresso7.2/ZnO_database/pseudos/O.upf
     MD5 check sum: 91400c9766925bcf19f520983a725ff0
     Pseudo is Ultrasoft + core correction, Zval =  6.0
     Generated using &quot;atomic&quot; code by A. Dal Corso  v.6.3MaX
     Using radial grid of 1095 points,  4 beta functions with:
                l(1) =   0
                l(2) =   0
                l(3) =   1
                l(4) =   1
     Q(r) pseudized with 0 coefficients

     atomic species   valence    mass     pseudopotential
        Zn            12.00    65.38000     Zn( 1.00)
        O              6.00    15.99900     O ( 1.00)

     12 Sym. Ops. (no inversion) found ( 6 have fractional translation)

   Cartesian axes

     site n.     atom                  positions (alat units)
         1           Zn  tau(   1) = (   0.0000000   0.0000000   0.0000000  )
         2           O   tau(   2) = (  -0.0000000   0.5773503   0.1597142  )
         3           Zn  tau(   3) = (  -0.0000000   0.5773503   0.7587484  )
         4           O   tau(   4) = (   0.0000000   0.0000000   0.9184627  )

     number of k points=    28
                       cart. coord. in units 2pi/alat
        k(    1) = (   0.0000000   0.0000000   0.0000000), wk =   0.0092593
        k(    2) = (   0.0000000   0.0000000   0.1098300), wk =   0.0185185
        k(    3) = (   0.0000000   0.0000000   0.2196600), wk =   0.0185185
        k(    4) = (   0.0000000   0.0000000  -0.3294900), wk =   0.0092593
        k(    5) = (   0.0000000   0.1924501   0.0000000), wk =   0.0555556
        k(    6) = (   0.0000000   0.1924501   0.1098300), wk =   0.1111111
        k(    7) = (   0.0000000   0.1924501   0.2196600), wk =   0.1111111
        k(    8) = (   0.0000000   0.1924501  -0.3294900), wk =   0.0555556
        k(    9) = (   0.0000000   0.3849002   0.0000000), wk =   0.0555556
        k(   10) = (   0.0000000   0.3849002   0.1098300), wk =   0.1111111
        k(   11) = (   0.0000000   0.3849002   0.2196600), wk =   0.1111111
        k(   12) = (   0.0000000   0.3849002  -0.3294900), wk =   0.0555556
        k(   13) = (   0.0000000  -0.5773503   0.0000000), wk =   0.0277778
        k(   14) = (   0.0000000  -0.5773503   0.1098300), wk =   0.0555556
        k(   15) = (   0.0000000  -0.5773503   0.2196600), wk =   0.0555556
        k(   16) = (   0.0000000  -0.5773503  -0.3294900), wk =   0.0277778
        k(   17) = (   0.1666667   0.2886751   0.0000000), wk =   0.0555556
        k(   18) = (   0.1666667   0.2886751   0.1098300), wk =   0.1111111
        k(   19) = (   0.1666667   0.2886751   0.2196600), wk =   0.1111111
        k(   20) = (   0.1666667   0.2886751  -0.3294900), wk =   0.0555556
        k(   21) = (   0.1666667   0.4811252   0.0000000), wk =   0.1111111
        k(   22) = (   0.1666667   0.4811252   0.1098300), wk =   0.2222222
        k(   23) = (   0.1666667   0.4811252   0.2196600), wk =   0.2222222
        k(   24) = (   0.1666667   0.4811252  -0.3294900), wk =   0.1111111
        k(   25) = (   0.3333333   0.5773503   0.0000000), wk =   0.0185185
        k(   26) = (   0.3333333   0.5773503   0.1098300), wk =   0.0370370
        k(   27) = (   0.3333333   0.5773503   0.2196600), wk =   0.0370370
        k(   28) = (   0.3333333   0.5773503  -0.3294900), wk =   0.0185185

     Initial potential from superposition of free atoms

     starting charge      35.9925, renormalised to      36.0000
     Starting wfcs are   26 randomized atomic wfcs

     Self-consistent Calculation

     iteration #  1     ecut=    50.00 Ry     beta= 0.30
     Davidson diagonalization with overlap
     ethr =  1.00E-02,  avg # of iterations =  2.1

     total energy              =    -361.20947508 Ry
     estimated scf accuracy    <       0.69695253 Ry

[...]

     total energy              =    -361.33410864 Ry
     estimated scf accuracy    <       0.00000003 Ry

     iteration # 22     ecut=    50.00 Ry     beta= 0.30
     Davidson diagonalization with overlap
     ethr =  6.50E-11,  avg # of iterations =  2.0

     End of self-consistent calculation

          k = 0.0000 0.0000 0.0000 (  1375 PWs)   bands (ev):

    -7.9379  -6.3739   4.9582   5.4820   5.4820   5.7177   5.7177   5.9862
     7.9694   7.9694   8.5002   8.5002   9.1220  12.4915  12.4915  13.3099
    13.7567  13.7567

[...]

          k = 0.3333 0.5774-0.3295 (  1344 PWs)   bands (ev):

    -6.2461  -6.2461   4.9612   4.9612   5.6206   5.6206   6.6415   6.6415
     7.9627   7.9627   9.0756   9.0756   9.2301   9.2301   9.6991   9.6991
    12.0662  12.0662

     highest occupied level (ev):    13.7567

!    total energy              =    -361.33410864 Ry
     estimated scf accuracy    <          5.9E-09 Ry

     The total energy is the sum of the following terms:
     one-electron contribution =    -108.96147861 Ry
     hartree contribution      =     102.94131917 Ry
     xc contribution           =    -110.52105087 Ry
     ewald contribution        =    -244.79289833 Ry

     convergence has been achieved in  22 iterations

     Forces acting on atoms (cartesian axes, Ry/au):

     atom    1 type  1   force =     0.00000000    0.00000000    0.02928806
     atom    2 type  2   force =    -0.00000000   -0.00000000   -0.02928806
     atom    3 type  1   force =     0.00000000    0.00000000    0.02928806
     atom    4 type  2   force =     0.00000000   -0.00000000   -0.02928806
     The non-local contrib.  to forces
     atom    1 type  1   force =     0.00000000    0.00000000    0.11666470
     atom    2 type  2   force =     0.00000000   -0.00000000    0.07482797
     atom    3 type  1   force =     0.00000000    0.00000000    0.11666470
     atom    4 type  2   force =    -0.00000000    0.00000000    0.07482797
     The ionic contribution  to forces
     atom    1 type  1   force =    -0.00000000    0.00000000    0.79930868
     atom    2 type  2   force =     0.00000000   -0.00000000   -0.79930868
     atom    3 type  1   force =     0.00000000   -0.00000000    0.79930868
     atom    4 type  2   force =    -0.00000000    0.00000000   -0.79930868
     The local contribution  to forces
     atom    1 type  1   force =    -0.00000000   -0.00000000   -0.87504032
     atom    2 type  2   force =     0.00000001   -0.00000001    0.69562329
     atom    3 type  1   force =     0.00000004   -0.00000002   -0.87504031
     atom    4 type  2   force =     0.00000000   -0.00000000    0.69562330
     The core correction contribution to forces
     atom    1 type  1   force =     0.00000000    0.00000000   -0.01165007
     atom    2 type  2   force =    -0.00000000    0.00000000   -0.00042490
     atom    3 type  1   force =     0.00000001   -0.00000000   -0.01165007
     atom    4 type  2   force =     0.00000000   -0.00000000   -0.00042490
     The Hubbard contrib.    to forces
     atom    1 type  1   force =     0.00000000    0.00000000    0.00000000
     atom    2 type  2   force =     0.00000000    0.00000000    0.00000000
     atom    3 type  1   force =     0.00000000    0.00000000    0.00000000
     atom    4 type  2   force =     0.00000000    0.00000000    0.00000000
     The SCF correction term to forces
     atom    1 type  1   force =     0.00000000   -0.00000000    0.00001169
     atom    2 type  2   force =    -0.00000000    0.00000000    0.00000088
     atom    3 type  1   force =    -0.00000000    0.00000000    0.00001169
     atom    4 type  2   force =     0.00000000   -0.00000000    0.00000088

     Total force =     0.058576     Total SCF correction =     0.000017

     Writing all to output data dir ./ZnO-2.94-1.52-111.in.save/

     General routines

     Parallel routines

   This run was terminated on:  12:19: 3   8Jul2025

   JOB DONE.
Note: The following floating-point exceptions are signalling: IEEE_INVALID_FLAG