     Program PWSCF v.7.0 starts on  1Sep2025 at  6: 3:14

     K-points division:     npool     =       8
     R & G space division:  proc/nbgrp/npool/nimage =       4

     Reading input from /home/jvc/QEspresso7.2/ZnO_database/scripts/cell123.in/ZnO-3.53-1.45-123.in
Warning: card &CELL ignored
Warning: card / ignored
Warning: card &FCP ignored
Warning: card / ignored
Warning: card &RISM ignored
Warning: card / ignored

     Current dimensions of program PWSCF are:
     Max number of different atomic species (ntypx) = 10
     Max number of k-points (npk) =  40000
     Max angular momentum in pseudopotentials (lmaxx) =  4
     file Zn.upf: wavefunction(s)  3D renormalized
     Found identity + (  0.0000  0.0000  0.3333) symmetry
     This is a supercell, fractional translations are disabled
     Message from routine setup:
     using ibrav=0 with symmetry is DISCOURAGED, use correct ibrav instead

     Using Slab Decomposition

     bravais-lattice index     =            0
     lattice parameter (alat)  =       6.6732  a.u.
     unit-cell volume          =    2243.4655 (a.u.)^3
     number of atoms/cell      =           24
     number of atomic types    =            2
     number of electrons       =       216.00
     number of Kohn-Sham states=          108
     kinetic-energy cutoff     =      50.0000  Ry
     charge density cutoff     =     400.0000  Ry
     scf convergence threshold =      1.0E-08
     mixing beta               =       0.3000
     number of iterations used =            8  plain     mixing
     Exchange-correlation= PBE
                           (   1   4   3   4   0   0   0)

     celldm(1)=   6.673162  celldm(2)=   0.000000  celldm(3)=   0.000000
     celldm(4)=   0.000000  celldm(5)=   0.000000  celldm(6)=   0.000000

     crystal axes: (cart. coord. in units of alat)
               a(1) = (   1.000000   0.000000   0.000000 )
               a(2) = (  -1.000000   1.732051   0.000000 )
               a(3) = (   0.000000   0.000000   4.358768 )

     reciprocal axes: (cart. coord. in units 2 pi/alat)
               b(1) = (  1.000000  0.577350 -0.000000 )
               b(2) = (  0.000000  0.577350  0.000000 )
               b(3) = (  0.000000 -0.000000  0.229423 )

     PseudoPot. # 1 for Zn read from file:
     /home/jvc/QEspresso7.2/ZnO_database/pseudos/Zn.upf
     MD5 check sum: 7f56cabf9682ed8c977c2f7d0c5985c5
     Pseudo is Ultrasoft + core correction, Zval = 12.0
     Generated using &quot;atomic&quot; code by A. Dal Corso  v.6.2.2
     Using radial grid of 1201 points,  6 beta functions with:
                l(1) =   0
                l(2) =   0
                l(3) =   1
                l(4) =   1
                l(5) =   2
                l(6) =   2
     Q(r) pseudized with 0 coefficients

     PseudoPot. # 2 for O  read from file:
     /home/jvc/QEspresso7.2/ZnO_database/pseudos/O.upf
     MD5 check sum: 91400c9766925bcf19f520983a725ff0
     Pseudo is Ultrasoft + core correction, Zval =  6.0
     Generated using &quot;atomic&quot; code by A. Dal Corso  v.6.3MaX
     Using radial grid of 1095 points,  4 beta functions with:
                l(1) =   0
                l(2) =   0
                l(3) =   1
                l(4) =   1
     Q(r) pseudized with 0 coefficients

     atomic species   valence    mass     pseudopotential
        Zn            12.00    65.38000     Zn( 1.00)
        O              6.00    15.99900     O ( 1.00)

      2 Sym. Ops. (no inversion) found

                                    s                        frac. trans.

      isym =  1     identity

 cryst.   s( 1) = (     1          0          0      )
                  (     0          1          0      )
                  (     0          0          1      )

 cart.    s( 1) = (  1.0000000  0.0000000  0.0000000 )
                  (  0.0000000  1.0000000  0.0000000 )
                  (  0.0000000  0.0000000  1.0000000 )

      isym =  2     inv. 180 deg rotation - cart. axis [1,0,0]

 cryst.   s( 2) = (    -1          0          0      )
                  (     2          1          0      )
                  (     0          0          1      )

 cart.    s( 2) = ( -1.0000000  0.0000000  0.0000000 )
                  (  0.0000000  1.0000000  0.0000000 )
                  (  0.0000000  0.0000000  1.0000000 )

   Cartesian axes

     site n.     atom                  positions (alat units)
         1           Zn  tau(   1) = (   0.5000000   0.2886751   0.7273818  )
         2           Zn  tau(   2) = (   0.0000000   0.5773503   0.0009206  )
         3           O   tau(   3) = (   0.5000000   0.2886751   1.2781017  )
         4           O   tau(   4) = (   0.0000000   0.5773503   0.5516404  )
         5           Zn  tau(   5) = (   0.5000000   0.2886751   2.1803043  )
         6           Zn  tau(   6) = (   0.0000000   0.5773503   1.4538431  )
         7           O   tau(   7) = (   0.5000000   0.2886751   2.7310242  )
         8           O   tau(   8) = (   0.0000000   0.5773503   2.0045629  )
         9           Zn  tau(   9) = (   0.5000000   0.2886751   3.6332269  )
        10           Zn  tau(  10) = (   0.0000000   0.5773503   2.9067656  )
        11           O   tau(  11) = (   0.5000000   0.2886751   4.1839467  )
        12           O   tau(  12) = (   0.0000000   0.5773503   3.4574855  )
        13           Zn  tau(  13) = (   0.0000000   1.1547005   0.7273818  )
        14           Zn  tau(  14) = (  -0.5000000   1.4433757   0.0009206  )
        15           O   tau(  15) = (   0.0000000   1.1547005   1.2781017  )
        16           O   tau(  16) = (  -0.5000000   1.4433757   0.5516404  )
        17           Zn  tau(  17) = (   0.0000000   1.1547005   2.1803043  )
        18           Zn  tau(  18) = (  -0.5000000   1.4433757   1.4538431  )
        19           O   tau(  19) = (   0.0000000   1.1547005   2.7310242  )
        20           O   tau(  20) = (  -0.5000000   1.4433757   2.0045629  )
        21           Zn  tau(  21) = (   0.0000000   1.1547005   3.6332269  )
        22           Zn  tau(  22) = (  -0.5000000   1.4433757   2.9067656  )
        23           O   tau(  23) = (   0.0000000   1.1547005   4.1839467  )
        24           O   tau(  24) = (  -0.5000000   1.4433757   3.4574855  )

   Crystallographic axes

     site n.     atom                  positions (cryst. coord.)
         1           Zn  tau(   1) = (  0.6666667  0.1666667  0.1668779  )
         2           Zn  tau(   2) = (  0.3333333  0.3333333  0.0002112  )
         3           O   tau(   3) = (  0.6666667  0.1666667  0.2932255  )
         4           O   tau(   4) = (  0.3333333  0.3333333  0.1265588  )
         5           Zn  tau(   5) = (  0.6666667  0.1666667  0.5002112  )
         6           Zn  tau(   6) = (  0.3333333  0.3333333  0.3335445  )
         7           O   tau(   7) = (  0.6666667  0.1666667  0.6265588  )
         8           O   tau(   8) = (  0.3333333  0.3333333  0.4598921  )
         9           Zn  tau(   9) = (  0.6666667  0.1666667  0.8335445  )
        10           Zn  tau(  10) = (  0.3333333  0.3333333  0.6668779  )
        11           O   tau(  11) = (  0.6666667  0.1666667  0.9598921  )
        12           O   tau(  12) = (  0.3333333  0.3333333  0.7932255  )
        13           Zn  tau(  13) = (  0.6666667  0.6666667  0.1668779  )
        14           Zn  tau(  14) = (  0.3333333  0.8333333  0.0002112  )
        15           O   tau(  15) = (  0.6666667  0.6666667  0.2932255  )
        16           O   tau(  16) = (  0.3333333  0.8333333  0.1265588  )
        17           Zn  tau(  17) = (  0.6666667  0.6666667  0.5002112  )
        18           Zn  tau(  18) = (  0.3333333  0.8333333  0.3335445  )
        19           O   tau(  19) = (  0.6666667  0.6666667  0.6265588  )
        20           O   tau(  20) = (  0.3333333  0.8333333  0.4598921  )
        21           Zn  tau(  21) = (  0.6666667  0.6666667  0.8335445  )
        22           Zn  tau(  22) = (  0.3333333  0.8333333  0.6668779  )
        23           O   tau(  23) = (  0.6666667  0.6666667  0.9598921  )
        24           O   tau(  24) = (  0.3333333  0.8333333  0.7932255  )

     number of k points=    80
                       cart. coord. in units 2pi/alat
        k(    1) = (   0.0000000   0.0000000   0.0000000), wk =   0.0092593
        k(    2) = (   0.0000000   0.0000000   0.0382371), wk =   0.0185185
        k(    3) = (   0.0000000   0.0000000   0.0764742), wk =   0.0185185
        k(    4) = (   0.0000000   0.0000000  -0.1147113), wk =   0.0092593
        k(    5) = (   0.0000000   0.0962250   0.0000000), wk =   0.0185185
        k(    6) = (   0.0000000   0.0962250   0.0382371), wk =   0.0185185
        k(    7) = (   0.0000000   0.0962250   0.0764742), wk =   0.0185185
        k(    8) = (   0.0000000   0.0962250  -0.1147113), wk =   0.0185185
        k(    9) = (   0.0000000   0.1924501   0.0000000), wk =   0.0185185
        k(   10) = (   0.0000000   0.1924501   0.0382371), wk =   0.0185185
        k(   11) = (   0.0000000   0.1924501   0.0764742), wk =   0.0185185
        k(   12) = (   0.0000000   0.1924501  -0.1147113), wk =   0.0185185
        k(   13) = (   0.0000000  -0.2886751   0.0000000), wk =   0.0092593
        k(   14) = (   0.0000000  -0.2886751   0.0382371), wk =   0.0185185
        k(   15) = (   0.0000000  -0.2886751   0.0764742), wk =   0.0185185
        k(   16) = (   0.0000000  -0.2886751  -0.1147113), wk =   0.0092593
        k(   17) = (   0.1666667   0.0962250   0.0000000), wk =   0.0370370
        k(   18) = (   0.1666667   0.0962250   0.0382371), wk =   0.0370370
        k(   19) = (   0.1666667   0.0962250   0.0764742), wk =   0.0370370
        k(   20) = (   0.1666667   0.0962250  -0.1147113), wk =   0.0370370
        k(   21) = (   0.1666667   0.1924501   0.0000000), wk =   0.0370370
        k(   22) = (   0.1666667   0.1924501   0.0382371), wk =   0.0370370
        k(   23) = (   0.1666667   0.1924501   0.0764742), wk =   0.0370370
        k(   24) = (   0.1666667   0.1924501  -0.1147113), wk =   0.0370370
        k(   25) = (   0.1666667   0.2886751   0.0000000), wk =   0.0185185
        k(   26) = (   0.1666667   0.2886751   0.0382371), wk =   0.0370370
        k(   27) = (   0.1666667   0.2886751   0.0764742), wk =   0.0370370
        k(   28) = (   0.1666667   0.2886751  -0.1147113), wk =   0.0185185
        k(   29) = (   0.1666667   0.0000000   0.0000000), wk =   0.0185185
        k(   30) = (   0.1666667   0.0000000   0.0382371), wk =   0.0370370
        k(   31) = (   0.1666667   0.0000000   0.0764742), wk =   0.0370370
        k(   32) = (   0.1666667   0.0000000  -0.1147113), wk =   0.0185185
        k(   33) = (   0.3333333   0.1924501   0.0000000), wk =   0.0370370
        k(   34) = (   0.3333333   0.1924501   0.0382371), wk =   0.0370370
        k(   35) = (   0.3333333   0.1924501   0.0764742), wk =   0.0370370
        k(   36) = (   0.3333333   0.1924501  -0.1147113), wk =   0.0370370
        k(   37) = (   0.3333333   0.2886751   0.0000000), wk =   0.0185185
        k(   38) = (   0.3333333   0.2886751   0.0382371), wk =   0.0370370
        k(   39) = (   0.3333333   0.2886751   0.0764742), wk =   0.0370370
[...]

!    total energy              =   -2169.63678796 Ry
     estimated scf accuracy    <          8.2E-09 Ry

     The total energy is the sum of the following terms:
     one-electron contribution =   -1020.82995137 Ry
     hartree contribution      =     744.67124989 Ry
     xc contribution           =    -655.92997303 Ry
     ewald contribution        =   -1237.54811345 Ry

     convergence has been achieved in  48 iterations

     Forces acting on atoms (cartesian axes, Ry/au):

     atom    1 type  1   force =     0.00000000   -0.00000229   -0.02242517
     atom    2 type  1   force =     0.00000000    0.00000275   -0.02242788
     atom    3 type  2   force =     0.00000000   -0.00000023    0.02242637
     atom    4 type  2   force =     0.00000000   -0.00000124    0.02242761
     atom    5 type  1   force =     0.00000000   -0.00000617   -0.02242744
     atom    6 type  1   force =     0.00000000    0.00000610   -0.02242786
     atom    7 type  2   force =     0.00000000    0.00000075    0.02243028
     atom    8 type  2   force =     0.00000000   -0.00000037    0.02242738
     atom    9 type  1   force =     0.00000000   -0.00000950   -0.02243257
     atom   10 type  1   force =     0.00000000    0.00000310   -0.02243358
     atom   11 type  2   force =     0.00000000    0.00000253    0.02243015
     atom   12 type  2   force =     0.00000000   -0.00000073    0.02243086
     atom   13 type  1   force =     0.00000000   -0.00000835   -0.02242058
     atom   14 type  1   force =     0.00000000    0.00000841   -0.02243372
     atom   15 type  2   force =     0.00000000    0.00000116    0.02242740
     atom   16 type  2   force =     0.00000000   -0.00000026    0.02242717
     atom   17 type  1   force =     0.00000000   -0.00000490   -0.02243057
     atom   18 type  1   force =     0.00000000    0.00000466   -0.02242454
     atom   19 type  2   force =     0.00000000    0.00000006    0.02243003
     atom   20 type  2   force =     0.00000000   -0.00000092    0.02242806
     atom   21 type  1   force =     0.00000000   -0.00000183   -0.02243283
     atom   22 type  1   force =     0.00000000    0.00000795   -0.02242959
     atom   23 type  2   force =     0.00000000    0.00000009    0.02243006
     atom   24 type  2   force =     0.00000000   -0.00000075    0.02243096
     The non-local contrib.  to forces
     atom    1 type  1   force =     0.00000000   -0.00000435   -0.29399133
     atom    2 type  1   force =     0.00000000    0.00000320   -0.29399633
     atom    3 type  2   force =     0.00000000    0.00018864   -0.24582704
     atom    4 type  2   force =     0.00000000   -0.00018903   -0.24582637
     atom    5 type  1   force =     0.00000000   -0.00000813   -0.29399492
     atom    6 type  1   force =     0.00000000    0.00000791   -0.29399402
     atom    7 type  2   force =     0.00000000    0.00018978   -0.24582275
     atom    8 type  2   force =     0.00000000   -0.00018908   -0.24582594
     atom    9 type  1   force =     0.00000000   -0.00001086   -0.29400145
     atom   10 type  1   force =     0.00000000    0.00000377   -0.29400153
     atom   11 type  2   force =     0.00000000    0.00019079   -0.24582352
     atom   12 type  2   force =     0.00000000   -0.00018809   -0.24582101
     atom   13 type  1   force =     0.00000000   -0.00000977   -0.29398870
     atom   14 type  1   force =     0.00000000    0.00001095   -0.29400181
     atom   15 type  2   force =     0.00000000    0.00019039   -0.24582639
     atom   16 type  2   force =     0.00000000   -0.00019023   -0.24582963
     atom   17 type  1   force =     0.00000000   -0.00000615   -0.29399922
     atom   18 type  1   force =     0.00000000    0.00000629   -0.29399124
     atom   19 type  2   force =     0.00000000    0.00018867   -0.24582341
     atom   20 type  2   force =     0.00000000   -0.00018952   -0.24582477
     atom   21 type  1   force =     0.00000000   -0.00000371   -0.29400471
     atom   22 type  1   force =     0.00000000    0.00001054   -0.29399814
     atom   23 type  2   force =     0.00000000    0.00018998   -0.24582150
     atom   24 type  2   force =     0.00000000   -0.00019011   -0.24582081
     The ionic contribution  to forces
     atom    1 type  1   force =    -0.00000000    0.00000001   -1.93774861
     atom    2 type  1   force =     0.00000000    0.00000001   -1.93774858
     atom    3 type  2   force =    -0.00000000    0.00000001    1.93774860
     atom    4 type  2   force =     0.00000000    0.00000000    1.93774859
     atom    5 type  1   force =    -0.00000000    0.00000001   -1.93774858
     atom    6 type  1   force =     0.00000000    0.00000001   -1.93774862
     atom    7 type  2   force =    -0.00000000    0.00000001    1.93774859
     atom    8 type  2   force =     0.00000000    0.00000000    1.93774861
     atom    9 type  1   force =    -0.00000000    0.00000001   -1.93774861
     atom   10 type  1   force =     0.00000000    0.00000001   -1.93774861
     atom   11 type  2   force =    -0.00000000    0.00000001    1.93774861
     atom   12 type  2   force =     0.00000000    0.00000000    1.93774860
     atom   13 type  1   force =     0.00000000   -0.00000001   -1.93774861
     atom   14 type  1   force =    -0.00000000   -0.00000000   -1.93774858
     atom   15 type  2   force =     0.00000000   -0.00000001    1.93774860
     atom   16 type  2   force =    -0.00000000   -0.00000000    1.93774859
     atom   17 type  1   force =     0.00000000   -0.00000001   -1.93774858
     atom   18 type  1   force =    -0.00000000   -0.00000000   -1.93774861
     atom   19 type  2   force =     0.00000000   -0.00000001    1.93774859
     atom   20 type  2   force =    -0.00000000   -0.00000000    1.93774861
     atom   21 type  1   force =     0.00000000   -0.00000001   -1.93774861
     atom   22 type  1   force =    -0.00000000   -0.00000000   -1.93774861
     atom   23 type  2   force =     0.00000000   -0.00000001    1.93774861
     atom   24 type  2   force =    -0.00000000   -0.00000000    1.93774860
     The local contribution  to forces
     atom    1 type  1   force =    -0.00000009   -0.00000801    2.18941362
     atom    2 type  1   force =    -0.00000000    0.00001040    2.18942454
     atom    3 type  2   force =    -0.00000002   -0.00018794   -1.67148515
     atom    4 type  2   force =     0.00000000    0.00018487   -1.67148746
     atom    5 type  1   force =    -0.00000009    0.00000203    2.18942150
     atom    6 type  1   force =     0.00000000   -0.00000109    2.18942175
     atom    7 type  2   force =    -0.00000002   -0.00018535   -1.67147874
     atom    8 type  2   force =    -0.00000000    0.00018644   -1.67148133
     atom    9 type  1   force =    -0.00000009    0.00000968    2.18943482
     atom   10 type  1   force =     0.00000000    0.00000891    2.18943888
     atom   11 type  2   force =    -0.00000002   -0.00018223   -1.67148037
     atom   12 type  2   force =    -0.00000000    0.00018697   -1.67147456
     atom   13 type  1   force =    -0.00000000    0.00000673    2.18940692
     atom   14 type  1   force =    -0.00000000   -0.00000987    2.18943748
     atom   15 type  2   force =     0.00000000   -0.00018444   -1.67148454
     atom   16 type  2   force =     0.00000000    0.00018627   -1.67148468
     atom   17 type  1   force =    -0.00000000   -0.00000276    2.18943288
     atom   18 type  1   force =     0.00000000    0.00000205    2.18941540
     atom   19 type  2   force =     0.00000000   -0.00018721   -1.67147724
     atom   20 type  2   force =    -0.00000000    0.00018605   -1.67148130
     atom   21 type  1   force =    -0.00000000   -0.00000967    2.18944445
     atom   22 type  1   force =     0.00000000   -0.00000830    2.18942791
     atom   23 type  2   force =     0.00000000   -0.00018832   -1.67147950
     atom   24 type  2   force =    -0.00000000    0.00018469   -1.67147688
     The core correction contribution to forces
     atom    1 type  1   force =    -0.00000001    0.00000374    0.01988468
     atom    2 type  1   force =    -0.00000000   -0.00000387    0.01988457
     atom    3 type  2   force =     0.00000000   -0.00000215    0.00198387
     atom    4 type  2   force =    -0.00000000    0.00000214    0.00198386
     atom    5 type  1   force =    -0.00000001    0.00000355    0.01988454
     atom    6 type  1   force =    -0.00000000   -0.00000357    0.01988439
     atom    7 type  2   force =     0.00000000   -0.00000216    0.00198383
     atom    8 type  2   force =    -0.00000000    0.00000215    0.00198386
     atom    9 type  1   force =    -0.00000001    0.00000337    0.01988454
     atom   10 type  1   force =    -0.00000000   -0.00000377    0.01988421
     atom   11 type  2   force =     0.00000000   -0.00000215    0.00198384
     atom   12 type  2   force =    -0.00000000    0.00000213    0.00198382
     atom   13 type  1   force =    -0.00000000    0.00000338    0.01988474
     atom   14 type  1   force =     0.00000000   -0.00000325    0.01988448
     atom   15 type  2   force =    -0.00000000   -0.00000216    0.00198387
     atom   16 type  2   force =     0.00000000    0.00000216    0.00198391
     atom   17 type  1   force =    -0.00000000    0.00000361    0.01988431
     atom   18 type  1   force =     0.00000000   -0.00000358    0.01988442
     atom   19 type  2   force =    -0.00000000   -0.00000214    0.00198384
     atom   20 type  2   force =     0.00000000    0.00000215    0.00198385
     atom   21 type  1   force =    -0.00000000    0.00000378    0.01988408
     atom   22 type  1   force =     0.00000000   -0.00000339    0.01988454
     atom   23 type  2   force =    -0.00000000   -0.00000216    0.00198381
     atom   24 type  2   force =     0.00000000    0.00000216    0.00198380
     The Hubbard contrib.    to forces
     atom    1 type  1   force =     0.00000000    0.00000000    0.00000000
     atom    2 type  1   force =     0.00000000    0.00000000    0.00000000
     atom    3 type  2   force =     0.00000000    0.00000000    0.00000000
     atom    4 type  2   force =     0.00000000    0.00000000    0.00000000
     atom    5 type  1   force =     0.00000000    0.00000000    0.00000000
     atom    6 type  1   force =     0.00000000    0.00000000    0.00000000
     atom    7 type  2   force =     0.00000000    0.00000000    0.00000000
     atom    8 type  2   force =     0.00000000    0.00000000    0.00000000
     atom    9 type  1   force =     0.00000000    0.00000000    0.00000000
     atom   10 type  1   force =     0.00000000    0.00000000    0.00000000
     atom   11 type  2   force =     0.00000000    0.00000000    0.00000000
     atom   12 type  2   force =     0.00000000    0.00000000    0.00000000
     atom   13 type  1   force =     0.00000000    0.00000000    0.00000000
     atom   14 type  1   force =     0.00000000    0.00000000    0.00000000
     atom   15 type  2   force =     0.00000000    0.00000000    0.00000000
     atom   16 type  2   force =     0.00000000    0.00000000    0.00000000
     atom   17 type  1   force =     0.00000000    0.00000000    0.00000000
     atom   18 type  1   force =     0.00000000    0.00000000    0.00000000
     atom   19 type  2   force =     0.00000000    0.00000000    0.00000000
     atom   20 type  2   force =     0.00000000    0.00000000    0.00000000
     atom   21 type  1   force =     0.00000000    0.00000000    0.00000000
     atom   22 type  1   force =     0.00000000    0.00000000    0.00000000
     atom   23 type  2   force =     0.00000000    0.00000000    0.00000000
     atom   24 type  2   force =     0.00000000    0.00000000    0.00000000
     The SCF correction term to forces
     atom    1 type  1   force =     0.00000000    0.00000638    0.00001638
     atom    2 type  1   force =    -0.00000000   -0.00000693    0.00000784
     atom    3 type  2   force =     0.00000000    0.00000127    0.00000600
     atom    4 type  2   force =    -0.00000000    0.00000084    0.00000890
     atom    5 type  1   force =     0.00000000   -0.00000357    0.00000992
     atom    6 type  1   force =    -0.00000000    0.00000290    0.00000856
     atom    7 type  2   force =     0.00000000   -0.00000147   -0.00000073
     atom    8 type  2   force =    -0.00000000    0.00000017    0.00000209
     atom    9 type  1   force =     0.00000000   -0.00001164   -0.00000195
     atom   10 type  1   force =    -0.00000000   -0.00000575   -0.00000660
     atom   11 type  2   force =     0.00000000   -0.00000381    0.00000150
     atom   12 type  2   force =    -0.00000000   -0.00000169   -0.00000608
     atom   13 type  1   force =    -0.00000000   -0.00000862    0.00002498
     atom   14 type  1   force =     0.00000000    0.00001065   -0.00000539
     atom   15 type  2   force =    -0.00000000   -0.00000256    0.00000577
     atom   16 type  2   force =     0.00000000    0.00000160    0.00000890
     atom   17 type  1   force =    -0.00000000    0.00000047   -0.00000005
     atom   18 type  1   force =     0.00000000   -0.00000004    0.00001540
     atom   19 type  2   force =    -0.00000000    0.00000080   -0.00000184
     atom   20 type  2   force =     0.00000000    0.00000046    0.00000159
     atom   21 type  1   force =    -0.00000000    0.00000783   -0.00000812
     atom   22 type  1   force =     0.00000000    0.00000916    0.00000462
     atom   23 type  2   force =    -0.00000000    0.00000065   -0.00000145
     atom   24 type  2   force =     0.00000000    0.00000257   -0.00000384

     Total force =     0.109879     Total SCF correction =     0.000050

     General routines

     Parallel routines

   This run was terminated on:   6:55: 7   1Sep2025

   JOB DONE.
Note: The following floating-point exceptions are signalling: IEEE_UNDERFLOW_FLAG IEEE_DENORMAL
Note: The following floating-point exceptions are signalling: IEEE_UNDERFLOW_FLAG IEEE_DENORMAL
Note: The following floating-point exceptions are signalling: IEEE_UNDERFLOW_FLAG IEEE_DENORMAL
Note: The following floating-point exceptions are signalling: IEEE_UNDERFLOW_FLAG IEEE_DENORMAL
Note: The following floating-point exceptions are signalling: IEEE_UNDERFLOW_FLAG IEEE_DENORMAL
Note: The following floating-point exceptions are signalling: IEEE_UNDERFLOW_FLAG IEEE_DENORMAL
Note: The following floating-point exceptions are signalling: IEEE_UNDERFLOW_FLAG IEEE_DENORMAL
Note: The following floating-point exceptions are signalling: IEEE_UNDERFLOW_FLAG IEEE_DENORMAL
Note: The following floating-point exceptions are signalling: IEEE_UNDERFLOW_FLAG IEEE_DENORMAL
Note: The following floating-point exceptions are signalling: IEEE_UNDERFLOW_FLAG IEEE_DENORMAL
Note: The following floating-point exceptions are signalling: IEEE_UNDERFLOW_FLAG IEEE_DENORMAL
Note: The following floating-point exceptions are signalling: IEEE_UNDERFLOW_FLAG IEEE_DENORMAL
Note: The following floating-point exceptions are signalling: IEEE_UNDERFLOW_FLAG IEEE_DENORMAL
Note: The following floating-point exceptions are signalling: IEEE_UNDERFLOW_FLAG IEEE_DENORMAL
Note: The following floating-point exceptions are signalling: IEEE_UNDERFLOW_FLAG IEEE_DENORMAL
Note: The following floating-point exceptions are signalling: IEEE_UNDERFLOW_FLAG IEEE_DENORMAL
Note: The following floating-point exceptions are signalling: IEEE_UNDERFLOW_FLAG IEEE_DENORMAL
Note: The following floating-point exceptions are signalling: IEEE_UNDERFLOW_FLAG IEEE_DENORMAL
Note: The following floating-point exceptions are signalling: IEEE_UNDERFLOW_FLAG IEEE_DENORMAL
Note: The following floating-point exceptions are signalling: IEEE_UNDERFLOW_FLAG IEEE_DENORMAL
Note: The following floating-point exceptions are signalling: IEEE_UNDERFLOW_FLAG IEEE_DENORMAL
Note: The following floating-point exceptions are signalling: IEEE_UNDERFLOW_FLAG IEEE_DENORMAL
Note: The following floating-point exceptions are signalling: IEEE_UNDERFLOW_FLAG IEEE_DENORMAL
Note: The following floating-point exceptions are signalling: IEEE_UNDERFLOW_FLAG IEEE_DENORMAL
Note: The following floating-point exceptions are signalling: IEEE_UNDERFLOW_FLAG IEEE_DENORMAL
Note: The following floating-point exceptions are signalling: IEEE_UNDERFLOW_FLAG IEEE_DENORMAL
Note: The following floating-point exceptions are signalling: IEEE_UNDERFLOW_FLAG IEEE_DENORMAL
Note: The following floating-point exceptions are signalling: IEEE_UNDERFLOW_FLAG IEEE_DENORMAL
Note: The following floating-point exceptions are signalling: IEEE_UNDERFLOW_FLAG IEEE_DENORMAL
Note: The following floating-point exceptions are signalling: IEEE_UNDERFLOW_FLAG IEEE_DENORMAL
Note: The following floating-point exceptions are signalling: IEEE_UNDERFLOW_FLAG IEEE_DENORMAL
Note: The following floating-point exceptions are signalling: IEEE_UNDERFLOW_FLAG IEEE_DENORMAL