     Program PWSCF v.7.0 starts on  1Sep2025 at  5: 2:45

     K-points division:     npool     =       8
     R & G space division:  proc/nbgrp/npool/nimage =       4

     Reading input from /home/jvc/QEspresso7.2/ZnO_database/scripts/cell123.in/ZnO-3.47-1.78-123.in
Warning: card &CELL ignored
Warning: card / ignored
Warning: card &FCP ignored
Warning: card / ignored
Warning: card &RISM ignored
Warning: card / ignored

     Current dimensions of program PWSCF are:
     Max number of different atomic species (ntypx) = 10
     Max number of k-points (npk) =  40000
     Max angular momentum in pseudopotentials (lmaxx) =  4
     file Zn.upf: wavefunction(s)  3D renormalized
     Found identity + (  0.0000  0.0000  0.3333) symmetry
     This is a supercell, fractional translations are disabled
     Message from routine setup:
     using ibrav=0 with symmetry is DISCOURAGED, use correct ibrav instead

     Using Slab Decomposition

     bravais-lattice index     =            0
     lattice parameter (alat)  =       6.5496  a.u.
     unit-cell volume          =    2592.4829 (a.u.)^3
     number of atoms/cell      =           24
     number of atomic types    =            2
     number of electrons       =       216.00
     number of Kohn-Sham states=          108
     kinetic-energy cutoff     =      50.0000  Ry
     charge density cutoff     =     400.0000  Ry
     scf convergence threshold =      1.0E-08
     mixing beta               =       0.3000
     number of iterations used =            8  plain     mixing
     Exchange-correlation= PBE
                           (   1   4   3   4   0   0   0)

     celldm(1)=   6.549585  celldm(2)=   0.000000  celldm(3)=   0.000000
     celldm(4)=   0.000000  celldm(5)=   0.000000  celldm(6)=   0.000000

     crystal axes: (cart. coord. in units of alat)
               a(1) = (   1.000000   0.000000   0.000000 )
               a(2) = (  -1.000000   1.732051   0.000000 )
               a(3) = (   0.000000   0.000000   5.327383 )

     reciprocal axes: (cart. coord. in units 2 pi/alat)
               b(1) = (  1.000000  0.577350 -0.000000 )
               b(2) = (  0.000000  0.577350  0.000000 )
               b(3) = (  0.000000 -0.000000  0.187709 )

     PseudoPot. # 1 for Zn read from file:
     /home/jvc/QEspresso7.2/ZnO_database/pseudos/Zn.upf
     MD5 check sum: 7f56cabf9682ed8c977c2f7d0c5985c5
     Pseudo is Ultrasoft + core correction, Zval = 12.0
     Generated using &quot;atomic&quot; code by A. Dal Corso  v.6.2.2
     Using radial grid of 1201 points,  6 beta functions with:
                l(1) =   0
                l(2) =   0
                l(3) =   1
                l(4) =   1
                l(5) =   2
                l(6) =   2
     Q(r) pseudized with 0 coefficients

     PseudoPot. # 2 for O  read from file:
     /home/jvc/QEspresso7.2/ZnO_database/pseudos/O.upf
     MD5 check sum: 91400c9766925bcf19f520983a725ff0
     Pseudo is Ultrasoft + core correction, Zval =  6.0
     Generated using &quot;atomic&quot; code by A. Dal Corso  v.6.3MaX
     Using radial grid of 1095 points,  4 beta functions with:
                l(1) =   0
                l(2) =   0
                l(3) =   1
                l(4) =   1
     Q(r) pseudized with 0 coefficients

     atomic species   valence    mass     pseudopotential
        Zn            12.00    65.38000     Zn( 1.00)
        O              6.00    15.99900     O ( 1.00)

      2 Sym. Ops. (no inversion) found

                                    s                        frac. trans.

      isym =  1     identity

 cryst.   s( 1) = (     1          0          0      )
                  (     0          1          0      )
                  (     0          0          1      )

 cart.    s( 1) = (  1.0000000  0.0000000  0.0000000 )
                  (  0.0000000  1.0000000  0.0000000 )
                  (  0.0000000  0.0000000  1.0000000 )

      isym =  2     inv. 180 deg rotation - cart. axis [1,0,0]

 cryst.   s( 2) = (    -1          0          0      )
                  (     2          1          0      )
                  (     0          0          1      )

 cart.    s( 2) = ( -1.0000000  0.0000000  0.0000000 )
                  (  0.0000000  1.0000000  0.0000000 )
                  (  0.0000000  0.0000000  1.0000000 )

   Cartesian axes

     site n.     atom                  positions (alat units)
         1           Zn  tau(   1) = (   0.5000000   0.2886751   0.8890222  )
         2           Zn  tau(   2) = (   0.0000000   0.5773503   0.0011251  )
         3           O   tau(   3) = (   0.5000000   0.2886751   1.5621243  )
         4           O   tau(   4) = (   0.0000000   0.5773503   0.6742272  )
         5           Zn  tau(   5) = (   0.5000000   0.2886751   2.6648164  )
         6           Zn  tau(   6) = (   0.0000000   0.5773503   1.7769193  )
         7           O   tau(   7) = (   0.5000000   0.2886751   3.3379185  )
         8           O   tau(   8) = (   0.0000000   0.5773503   2.4500214  )
         9           Zn  tau(   9) = (   0.5000000   0.2886751   4.4406106  )
        10           Zn  tau(  10) = (   0.0000000   0.5773503   3.5527135  )
        11           O   tau(  11) = (   0.5000000   0.2886751   5.1137127  )
        12           O   tau(  12) = (   0.0000000   0.5773503   4.2258156  )
        13           Zn  tau(  13) = (   0.0000000   1.1547005   0.8890222  )
        14           Zn  tau(  14) = (  -0.5000000   1.4433757   0.0011251  )
        15           O   tau(  15) = (   0.0000000   1.1547005   1.5621243  )
        16           O   tau(  16) = (  -0.5000000   1.4433757   0.6742272  )
        17           Zn  tau(  17) = (   0.0000000   1.1547005   2.6648164  )
        18           Zn  tau(  18) = (  -0.5000000   1.4433757   1.7769193  )
        19           O   tau(  19) = (   0.0000000   1.1547005   3.3379185  )
        20           O   tau(  20) = (  -0.5000000   1.4433757   2.4500214  )
        21           Zn  tau(  21) = (   0.0000000   1.1547005   4.4406106  )
        22           Zn  tau(  22) = (  -0.5000000   1.4433757   3.5527135  )
        23           O   tau(  23) = (   0.0000000   1.1547005   5.1137127  )
        24           O   tau(  24) = (  -0.5000000   1.4433757   4.2258156  )

   Crystallographic axes

     site n.     atom                  positions (cryst. coord.)
         1           Zn  tau(   1) = (  0.6666667  0.1666667  0.1668779  )
         2           Zn  tau(   2) = (  0.3333333  0.3333333  0.0002112  )
         3           O   tau(   3) = (  0.6666667  0.1666667  0.2932255  )
         4           O   tau(   4) = (  0.3333333  0.3333333  0.1265588  )
         5           Zn  tau(   5) = (  0.6666667  0.1666667  0.5002112  )
         6           Zn  tau(   6) = (  0.3333333  0.3333333  0.3335445  )
         7           O   tau(   7) = (  0.6666667  0.1666667  0.6265588  )
         8           O   tau(   8) = (  0.3333333  0.3333333  0.4598921  )
         9           Zn  tau(   9) = (  0.6666667  0.1666667  0.8335445  )
        10           Zn  tau(  10) = (  0.3333333  0.3333333  0.6668779  )
        11           O   tau(  11) = (  0.6666667  0.1666667  0.9598921  )
        12           O   tau(  12) = (  0.3333333  0.3333333  0.7932255  )
        13           Zn  tau(  13) = (  0.6666667  0.6666667  0.1668779  )
        14           Zn  tau(  14) = (  0.3333333  0.8333333  0.0002112  )
        15           O   tau(  15) = (  0.6666667  0.6666667  0.2932255  )
        16           O   tau(  16) = (  0.3333333  0.8333333  0.1265588  )
        17           Zn  tau(  17) = (  0.6666667  0.6666667  0.5002112  )
        18           Zn  tau(  18) = (  0.3333333  0.8333333  0.3335445  )
        19           O   tau(  19) = (  0.6666667  0.6666667  0.6265588  )
        20           O   tau(  20) = (  0.3333333  0.8333333  0.4598921  )
        21           Zn  tau(  21) = (  0.6666667  0.6666667  0.8335445  )
        22           Zn  tau(  22) = (  0.3333333  0.8333333  0.6668779  )
        23           O   tau(  23) = (  0.6666667  0.6666667  0.9598921  )
        24           O   tau(  24) = (  0.3333333  0.8333333  0.7932255  )

     number of k points=    80
                       cart. coord. in units 2pi/alat
        k(    1) = (   0.0000000   0.0000000   0.0000000), wk =   0.0092593
        k(    2) = (   0.0000000   0.0000000   0.0312849), wk =   0.0185185
        k(    3) = (   0.0000000   0.0000000   0.0625698), wk =   0.0185185
        k(    4) = (   0.0000000   0.0000000  -0.0938547), wk =   0.0092593
        k(    5) = (   0.0000000   0.0962250   0.0000000), wk =   0.0185185
        k(    6) = (   0.0000000   0.0962250   0.0312849), wk =   0.0185185
        k(    7) = (   0.0000000   0.0962250   0.0625698), wk =   0.0185185
        k(    8) = (   0.0000000   0.0962250  -0.0938547), wk =   0.0185185
        k(    9) = (   0.0000000   0.1924501   0.0000000), wk =   0.0185185
        k(   10) = (   0.0000000   0.1924501   0.0312849), wk =   0.0185185
        k(   11) = (   0.0000000   0.1924501   0.0625698), wk =   0.0185185
        k(   12) = (   0.0000000   0.1924501  -0.0938547), wk =   0.0185185
        k(   13) = (   0.0000000  -0.2886751   0.0000000), wk =   0.0092593
        k(   14) = (   0.0000000  -0.2886751   0.0312849), wk =   0.0185185
        k(   15) = (   0.0000000  -0.2886751   0.0625698), wk =   0.0185185
        k(   16) = (   0.0000000  -0.2886751  -0.0938547), wk =   0.0092593
        k(   17) = (   0.1666667   0.0962250   0.0000000), wk =   0.0370370
        k(   18) = (   0.1666667   0.0962250   0.0312849), wk =   0.0370370
        k(   19) = (   0.1666667   0.0962250   0.0625698), wk =   0.0370370
        k(   20) = (   0.1666667   0.0962250  -0.0938547), wk =   0.0370370
        k(   21) = (   0.1666667   0.1924501   0.0000000), wk =   0.0370370
        k(   22) = (   0.1666667   0.1924501   0.0312849), wk =   0.0370370
        k(   23) = (   0.1666667   0.1924501   0.0625698), wk =   0.0370370
        k(   24) = (   0.1666667   0.1924501  -0.0938547), wk =   0.0370370
        k(   25) = (   0.1666667   0.2886751   0.0000000), wk =   0.0185185
        k(   26) = (   0.1666667   0.2886751   0.0312849), wk =   0.0370370
        k(   27) = (   0.1666667   0.2886751   0.0625698), wk =   0.0370370
        k(   28) = (   0.1666667   0.2886751  -0.0938547), wk =   0.0185185
        k(   29) = (   0.1666667   0.0000000   0.0000000), wk =   0.0185185
        k(   30) = (   0.1666667   0.0000000   0.0312849), wk =   0.0370370
        k(   31) = (   0.1666667   0.0000000   0.0625698), wk =   0.0370370
        k(   32) = (   0.1666667   0.0000000  -0.0938547), wk =   0.0185185
        k(   33) = (   0.3333333   0.1924501   0.0000000), wk =   0.0370370
        k(   34) = (   0.3333333   0.1924501   0.0312849), wk =   0.0370370
        k(   35) = (   0.3333333   0.1924501   0.0625698), wk =   0.0370370
        k(   36) = (   0.3333333   0.1924501  -0.0938547), wk =   0.0370370
        k(   37) = (   0.3333333   0.2886751   0.0000000), wk =   0.0185185
        k(   38) = (   0.3333333   0.2886751   0.0312849), wk =   0.0370370
        k(   39) = (   0.3333333   0.2886751   0.0625698), wk =   0.0370370
[...]

!    total energy              =   -2169.31099450 Ry
     estimated scf accuracy    <          2.8E-09 Ry

     The total energy is the sum of the following terms:
     one-electron contribution =   -1110.41650449 Ry
     hartree contribution      =     777.10073141 Ry
     xc contribution           =    -654.45830013 Ry
     ewald contribution        =   -1181.53692129 Ry

     convergence has been achieved in  51 iterations

     Forces acting on atoms (cartesian axes, Ry/au):

     atom    1 type  1   force =     0.00000000    0.00000962   -0.01218906
     atom    2 type  1   force =     0.00000000   -0.00001076   -0.01219505
     atom    3 type  2   force =     0.00000000    0.00001124    0.01219188
     atom    4 type  2   force =     0.00000000   -0.00001117    0.01219135
     atom    5 type  1   force =     0.00000000    0.00001092   -0.01219960
     atom    6 type  1   force =     0.00000000   -0.00001078   -0.01219153
     atom    7 type  2   force =     0.00000000    0.00001161    0.01219663
     atom    8 type  2   force =     0.00000000   -0.00001066    0.01219978
     atom    9 type  1   force =     0.00000000    0.00001052   -0.01219509
     atom   10 type  1   force =     0.00000000   -0.00001078   -0.01220024
     atom   11 type  2   force =     0.00000000    0.00001152    0.01219421
     atom   12 type  2   force =     0.00000000   -0.00001007    0.01219693
     atom   13 type  1   force =     0.00000000    0.00001156   -0.01219024
     atom   14 type  1   force =     0.00000000   -0.00001091   -0.01219385
     atom   15 type  2   force =     0.00000000    0.00001049    0.01219131
     atom   16 type  2   force =     0.00000000   -0.00001120    0.01219200
     atom   17 type  1   force =     0.00000000    0.00001047   -0.01220003
     atom   18 type  1   force =     0.00000000   -0.00001068   -0.01219151
     atom   19 type  2   force =     0.00000000    0.00001111    0.01219642
     atom   20 type  2   force =     0.00000000   -0.00001145    0.01219786
     atom   21 type  1   force =     0.00000000    0.00001091   -0.01219510
     atom   22 type  1   force =     0.00000000   -0.00001058   -0.01219893
     atom   23 type  2   force =     0.00000000    0.00001080    0.01219446
     atom   24 type  2   force =     0.00000000   -0.00001172    0.01219741
     The non-local contrib.  to forces
     atom    1 type  1   force =     0.00000000   -0.00001448    0.22010117
     atom    2 type  1   force =     0.00000000    0.00001337    0.22009497
     atom    3 type  2   force =     0.00000000    0.00023358    0.25611297
     atom    4 type  2   force =     0.00000000   -0.00023338    0.25611362
     atom    5 type  1   force =     0.00000000   -0.00001447    0.22008797
     atom    6 type  1   force =     0.00000000    0.00001431    0.22009835
     atom    7 type  2   force =     0.00000000    0.00023442    0.25612365
     atom    8 type  2   force =     0.00000000   -0.00023443    0.25612218
     atom    9 type  1   force =     0.00000000   -0.00001513    0.22009189
     atom   10 type  1   force =     0.00000000    0.00001385    0.22008766
     atom   11 type  2   force =     0.00000000    0.00023339    0.25611778
     atom   12 type  2   force =     0.00000000   -0.00023502    0.25611821
     atom   13 type  1   force =     0.00000000   -0.00001274    0.22010064
     atom   14 type  1   force =     0.00000000    0.00001364    0.22009559
     atom   15 type  2   force =     0.00000000    0.00023219    0.25611412
     atom   16 type  2   force =     0.00000000   -0.00023243    0.25611555
     atom   17 type  1   force =     0.00000000   -0.00001221    0.22008737
     atom   18 type  1   force =     0.00000000    0.00001307    0.22009855
     atom   19 type  2   force =     0.00000000    0.00023147    0.25612420
     atom   20 type  2   force =     0.00000000   -0.00023188    0.25611947
     atom   21 type  1   force =     0.00000000   -0.00001190    0.22009173
     atom   22 type  1   force =     0.00000000    0.00001345    0.22009078
     atom   23 type  2   force =     0.00000000    0.00023202    0.25611903
     atom   24 type  2   force =     0.00000000   -0.00023241    0.25612056
     The ionic contribution  to forces
     atom    1 type  1   force =    -0.00000000    0.00000000    1.70271903
     atom    2 type  1   force =     0.00000000   -0.00000000    1.70271906
     atom    3 type  2   force =    -0.00000000    0.00000000   -1.70271904
     atom    4 type  2   force =     0.00000000   -0.00000000   -1.70271905
     atom    5 type  1   force =    -0.00000000    0.00000000    1.70271906
     atom    6 type  1   force =     0.00000000   -0.00000000    1.70271903
     atom    7 type  2   force =    -0.00000000    0.00000000   -1.70271905
     atom    8 type  2   force =     0.00000000   -0.00000000   -1.70271903
     atom    9 type  1   force =    -0.00000000    0.00000000    1.70271903
     atom   10 type  1   force =     0.00000000   -0.00000000    1.70271903
     atom   11 type  2   force =    -0.00000000    0.00000000   -1.70271903
     atom   12 type  2   force =     0.00000000   -0.00000000   -1.70271904
     atom   13 type  1   force =    -0.00000000    0.00000000    1.70271903
     atom   14 type  1   force =     0.00000000   -0.00000000    1.70271906
     atom   15 type  2   force =    -0.00000000    0.00000000   -1.70271904
     atom   16 type  2   force =     0.00000000   -0.00000000   -1.70271905
     atom   17 type  1   force =    -0.00000000    0.00000000    1.70271906
     atom   18 type  1   force =     0.00000000   -0.00000000    1.70271903
     atom   19 type  2   force =    -0.00000000    0.00000000   -1.70271905
     atom   20 type  2   force =     0.00000000   -0.00000000   -1.70271903
     atom   21 type  1   force =    -0.00000000    0.00000000    1.70271903
     atom   22 type  1   force =     0.00000000   -0.00000000    1.70271903
     atom   23 type  2   force =    -0.00000000    0.00000000   -1.70271903
     atom   24 type  2   force =     0.00000000   -0.00000000   -1.70271904
     The local contribution  to forces
     atom    1 type  1   force =    -0.00000009    0.00001706   -1.92244938
     atom    2 type  1   force =    -0.00000000   -0.00001413   -1.92243708
     atom    3 type  2   force =    -0.00000002   -0.00021980    1.46116891
     atom    4 type  2   force =    -0.00000000    0.00021959    1.46116515
     atom    5 type  1   force =    -0.00000009    0.00001801   -1.92242351
     atom    6 type  1   force =     0.00000000   -0.00001468   -1.92244410
     atom    7 type  2   force =    -0.00000002   -0.00022063    1.46116792
     atom    8 type  2   force =    -0.00000000    0.00022181    1.46117674
     atom    9 type  1   force =    -0.00000009    0.00001988   -1.92243279
     atom   10 type  1   force =    -0.00000000   -0.00001393   -1.92242444
     atom   11 type  2   force =    -0.00000002   -0.00021939    1.46116541
     atom   12 type  2   force =    -0.00000000    0.00022355    1.46117114
     atom   13 type  1   force =    -0.00000009    0.00001165   -1.92244735
     atom   14 type  1   force =    -0.00000000   -0.00001439   -1.92243913
     atom   15 type  2   force =    -0.00000002   -0.00021882    1.46116640
     atom   16 type  2   force =    -0.00000000    0.00021927    1.46116333
     atom   17 type  1   force =    -0.00000009    0.00000998   -1.92242123
     atom   18 type  1   force =    -0.00000000   -0.00001434   -1.92244606
     atom   19 type  2   force =    -0.00000002   -0.00021696    1.46116707
     atom   20 type  2   force =    -0.00000000    0.00021790    1.46117675
     atom   21 type  1   force =    -0.00000009    0.00000841   -1.92243114
     atom   22 type  1   force =    -0.00000000   -0.00001516   -1.92243136
     atom   23 type  2   force =    -0.00000002   -0.00021803    1.46116459
     atom   24 type  2   force =    -0.00000000    0.00021810    1.46117027
     The core correction contribution to forces
     atom    1 type  1   force =    -0.00000001    0.00000938   -0.01257778
     atom    2 type  1   force =    -0.00000000   -0.00000945   -0.01257695
     atom    3 type  2   force =     0.00000000   -0.00000263   -0.00237324
     atom    4 type  2   force =    -0.00000000    0.00000263   -0.00237383
     atom    5 type  1   force =    -0.00000001    0.00000921   -0.01257805
     atom    6 type  1   force =    -0.00000000   -0.00000952   -0.01257692
     atom    7 type  2   force =     0.00000000   -0.00000264   -0.00237340
     atom    8 type  2   force =    -0.00000000    0.00000264   -0.00237393
     atom    9 type  1   force =    -0.00000001    0.00000915   -0.01257792
     atom   10 type  1   force =    -0.00000000   -0.00000953   -0.01257696
     atom   11 type  2   force =     0.00000000   -0.00000263   -0.00237332
     atom   12 type  2   force =    -0.00000000    0.00000266   -0.00237389
     atom   13 type  1   force =    -0.00000001    0.00000955   -0.01257783
     atom   14 type  1   force =    -0.00000000   -0.00000948   -0.01257690
     atom   15 type  2   force =     0.00000000   -0.00000261   -0.00237327
     atom   16 type  2   force =    -0.00000000    0.00000262   -0.00237386
     atom   17 type  1   force =    -0.00000001    0.00000969   -0.01257813
     atom   18 type  1   force =    -0.00000000   -0.00000941   -0.01257670
     atom   19 type  2   force =     0.00000000   -0.00000260   -0.00237341
     atom   20 type  2   force =    -0.00000000    0.00000261   -0.00237390
     atom   21 type  1   force =    -0.00000001    0.00000977   -0.01257804
     atom   22 type  1   force =    -0.00000000   -0.00000944   -0.01257672
     atom   23 type  2   force =     0.00000000   -0.00000261   -0.00237334
     atom   24 type  2   force =    -0.00000000    0.00000261   -0.00237393
     The Hubbard contrib.    to forces
     atom    1 type  1   force =     0.00000000    0.00000000    0.00000000
     atom    2 type  1   force =     0.00000000    0.00000000    0.00000000
     atom    3 type  2   force =     0.00000000    0.00000000    0.00000000
     atom    4 type  2   force =     0.00000000    0.00000000    0.00000000
     atom    5 type  1   force =     0.00000000    0.00000000    0.00000000
     atom    6 type  1   force =     0.00000000    0.00000000    0.00000000
     atom    7 type  2   force =     0.00000000    0.00000000    0.00000000
     atom    8 type  2   force =     0.00000000    0.00000000    0.00000000
     atom    9 type  1   force =     0.00000000    0.00000000    0.00000000
     atom   10 type  1   force =     0.00000000    0.00000000    0.00000000
     atom   11 type  2   force =     0.00000000    0.00000000    0.00000000
     atom   12 type  2   force =     0.00000000    0.00000000    0.00000000
     atom   13 type  1   force =     0.00000000    0.00000000    0.00000000
     atom   14 type  1   force =     0.00000000    0.00000000    0.00000000
     atom   15 type  2   force =     0.00000000    0.00000000    0.00000000
     atom   16 type  2   force =     0.00000000    0.00000000    0.00000000
     atom   17 type  1   force =     0.00000000    0.00000000    0.00000000
     atom   18 type  1   force =     0.00000000    0.00000000    0.00000000
     atom   19 type  2   force =     0.00000000    0.00000000    0.00000000
     atom   20 type  2   force =     0.00000000    0.00000000    0.00000000
     atom   21 type  1   force =     0.00000000    0.00000000    0.00000000
     atom   22 type  1   force =     0.00000000    0.00000000    0.00000000
     atom   23 type  2   force =     0.00000000    0.00000000    0.00000000
     atom   24 type  2   force =     0.00000000    0.00000000    0.00000000
     The SCF correction term to forces
     atom    1 type  1   force =    -0.00000000   -0.00000218    0.00001854
     atom    2 type  1   force =     0.00000000   -0.00000038    0.00000559
     atom    3 type  2   force =     0.00000000    0.00000025    0.00000292
     atom    4 type  2   force =     0.00000000    0.00000016    0.00000610
     atom    5 type  1   force =    -0.00000000   -0.00000168   -0.00000444
     atom    6 type  1   force =     0.00000000   -0.00000073    0.00001275
     atom    7 type  2   force =     0.00000000    0.00000063   -0.00000186
     atom    8 type  2   force =     0.00000000   -0.00000051   -0.00000555
     atom    9 type  1   force =    -0.00000000   -0.00000322    0.00000533
     atom   10 type  1   force =     0.00000000   -0.00000100   -0.00000489
     atom   11 type  2   force =     0.00000000    0.00000032    0.00000401
     atom   12 type  2   force =     0.00000000   -0.00000108    0.00000114
     atom   13 type  1   force =    -0.00000000    0.00000328    0.00001591
     atom   14 type  1   force =     0.00000000   -0.00000051    0.00000818
     atom   15 type  2   force =     0.00000000   -0.00000010    0.00000373
     atom   16 type  2   force =     0.00000000   -0.00000049    0.00000667
     atom   17 type  1   force =    -0.00000000    0.00000317   -0.00000646
     atom   18 type  1   force =     0.00000000    0.00000017    0.00001432
     atom   19 type  2   force =     0.00000000   -0.00000063   -0.00000176
     atom   20 type  2   force =     0.00000000    0.00000009   -0.00000480
     atom   21 type  1   force =    -0.00000000    0.00000480    0.00000395
     atom   22 type  1   force =     0.00000000    0.00000074   -0.00000001
     atom   23 type  2   force =     0.00000000   -0.00000041    0.00000385
     atom   24 type  2   force =     0.00000000    0.00000014    0.00000018

     Total force =     0.059743     Total SCF correction =     0.000038

     General routines

     Parallel routines

   This run was terminated on:   6: 3:13   1Sep2025

   JOB DONE.
Note: The following floating-point exceptions are signalling: IEEE_UNDERFLOW_FLAG IEEE_DENORMAL
Note: The following floating-point exceptions are signalling: IEEE_UNDERFLOW_FLAG IEEE_DENORMAL
Note: The following floating-point exceptions are signalling: IEEE_UNDERFLOW_FLAG IEEE_DENORMAL
Note: The following floating-point exceptions are signalling: IEEE_UNDERFLOW_FLAG IEEE_DENORMAL
Note: The following floating-point exceptions are signalling: IEEE_UNDERFLOW_FLAG IEEE_DENORMAL
Note: The following floating-point exceptions are signalling: IEEE_UNDERFLOW_FLAG IEEE_DENORMAL
Note: The following floating-point exceptions are signalling: IEEE_UNDERFLOW_FLAG IEEE_DENORMAL
Note: The following floating-point exceptions are signalling: IEEE_UNDERFLOW_FLAG IEEE_DENORMAL
Note: The following floating-point exceptions are signalling: IEEE_UNDERFLOW_FLAG IEEE_DENORMAL
Note: The following floating-point exceptions are signalling: IEEE_UNDERFLOW_FLAG IEEE_DENORMAL
Note: The following floating-point exceptions are signalling: IEEE_UNDERFLOW_FLAG IEEE_DENORMAL
Note: The following floating-point exceptions are signalling: IEEE_UNDERFLOW_FLAG IEEE_DENORMAL
Note: The following floating-point exceptions are signalling: IEEE_UNDERFLOW_FLAG IEEE_DENORMAL
Note: The following floating-point exceptions are signalling: IEEE_UNDERFLOW_FLAG IEEE_DENORMAL
Note: The following floating-point exceptions are signalling: IEEE_UNDERFLOW_FLAG IEEE_DENORMAL
Note: The following floating-point exceptions are signalling: IEEE_UNDERFLOW_FLAG IEEE_DENORMAL
Note: The following floating-point exceptions are signalling: IEEE_UNDERFLOW_FLAG IEEE_DENORMAL
Note: The following floating-point exceptions are signalling: IEEE_UNDERFLOW_FLAG IEEE_DENORMAL
Note: The following floating-point exceptions are signalling: IEEE_UNDERFLOW_FLAG IEEE_DENORMAL
Note: The following floating-point exceptions are signalling: IEEE_UNDERFLOW_FLAG IEEE_DENORMAL
Note: The following floating-point exceptions are signalling: IEEE_UNDERFLOW_FLAG IEEE_DENORMAL
Note: The following floating-point exceptions are signalling: IEEE_UNDERFLOW_FLAG IEEE_DENORMAL
Note: The following floating-point exceptions are signalling: IEEE_UNDERFLOW_FLAG IEEE_DENORMAL
Note: The following floating-point exceptions are signalling: IEEE_UNDERFLOW_FLAG IEEE_DENORMAL
Note: The following floating-point exceptions are signalling: IEEE_UNDERFLOW_FLAG IEEE_DENORMAL
Note: The following floating-point exceptions are signalling: IEEE_UNDERFLOW_FLAG IEEE_DENORMAL
Note: The following floating-point exceptions are signalling: IEEE_UNDERFLOW_FLAG IEEE_DENORMAL
Note: The following floating-point exceptions are signalling: IEEE_UNDERFLOW_FLAG IEEE_DENORMAL
Note: The following floating-point exceptions are signalling: IEEE_UNDERFLOW_FLAG IEEE_DENORMAL
Note: The following floating-point exceptions are signalling: IEEE_UNDERFLOW_FLAG IEEE_DENORMAL
Note: The following floating-point exceptions are signalling: IEEE_UNDERFLOW_FLAG IEEE_DENORMAL
Note: The following floating-point exceptions are signalling: IEEE_UNDERFLOW_FLAG IEEE_DENORMAL