     Program PWSCF v.7.0 starts on  1Sep2025 at  1:17:34

     K-points division:     npool     =       8
     R & G space division:  proc/nbgrp/npool/nimage =       4

     Reading input from /home/jvc/QEspresso7.2/ZnO_database/scripts/cell123.in/ZnO-3.47-1.61-123.in
Warning: card &CELL ignored
Warning: card / ignored
Warning: card &FCP ignored
Warning: card / ignored
Warning: card &RISM ignored
Warning: card / ignored

     Current dimensions of program PWSCF are:
     Max number of different atomic species (ntypx) = 10
     Max number of k-points (npk) =  40000
     Max angular momentum in pseudopotentials (lmaxx) =  4
     file Zn.upf: wavefunction(s)  3D renormalized
     Found identity + (  0.0000  0.0000  0.3333) symmetry
     This is a supercell, fractional translations are disabled
     Message from routine setup:
     using ibrav=0 with symmetry is DISCOURAGED, use correct ibrav instead

     Using Slab Decomposition

     bravais-lattice index     =            0
     lattice parameter (alat)  =       6.5496  a.u.
     unit-cell volume          =    2356.8027 (a.u.)^3
     number of atoms/cell      =           24
     number of atomic types    =            2
     number of electrons       =       216.00
     number of Kohn-Sham states=          108
     kinetic-energy cutoff     =      50.0000  Ry
     charge density cutoff     =     400.0000  Ry
     scf convergence threshold =      1.0E-08
     mixing beta               =       0.3000
     number of iterations used =            8  plain     mixing
     Exchange-correlation= PBE
                           (   1   4   3   4   0   0   0)

     celldm(1)=   6.549585  celldm(2)=   0.000000  celldm(3)=   0.000000
     celldm(4)=   0.000000  celldm(5)=   0.000000  celldm(6)=   0.000000

     crystal axes: (cart. coord. in units of alat)
               a(1) = (   1.000000   0.000000   0.000000 )
               a(2) = (  -1.000000   1.732051   0.000000 )
               a(3) = (   0.000000   0.000000   4.843075 )

     reciprocal axes: (cart. coord. in units 2 pi/alat)
               b(1) = (  1.000000  0.577350 -0.000000 )
               b(2) = (  0.000000  0.577350  0.000000 )
               b(3) = (  0.000000 -0.000000  0.206480 )

     PseudoPot. # 1 for Zn read from file:
     /home/jvc/QEspresso7.2/ZnO_database/pseudos/Zn.upf
     MD5 check sum: 7f56cabf9682ed8c977c2f7d0c5985c5
     Pseudo is Ultrasoft + core correction, Zval = 12.0
     Generated using &quot;atomic&quot; code by A. Dal Corso  v.6.2.2
     Using radial grid of 1201 points,  6 beta functions with:
                l(1) =   0
                l(2) =   0
                l(3) =   1
                l(4) =   1
                l(5) =   2
                l(6) =   2
     Q(r) pseudized with 0 coefficients

     PseudoPot. # 2 for O  read from file:
     /home/jvc/QEspresso7.2/ZnO_database/pseudos/O.upf
     MD5 check sum: 91400c9766925bcf19f520983a725ff0
     Pseudo is Ultrasoft + core correction, Zval =  6.0
     Generated using &quot;atomic&quot; code by A. Dal Corso  v.6.3MaX
     Using radial grid of 1095 points,  4 beta functions with:
                l(1) =   0
                l(2) =   0
                l(3) =   1
                l(4) =   1
     Q(r) pseudized with 0 coefficients

     atomic species   valence    mass     pseudopotential
        Zn            12.00    65.38000     Zn( 1.00)
        O              6.00    15.99900     O ( 1.00)

      2 Sym. Ops. (no inversion) found

                                    s                        frac. trans.

      isym =  1     identity

 cryst.   s( 1) = (     1          0          0      )
                  (     0          1          0      )
                  (     0          0          1      )

 cart.    s( 1) = (  1.0000000  0.0000000  0.0000000 )
                  (  0.0000000  1.0000000  0.0000000 )
                  (  0.0000000  0.0000000  1.0000000 )

      isym =  2     inv. 180 deg rotation - cart. axis [1,0,0]

 cryst.   s( 2) = (    -1          0          0      )
                  (     2          1          0      )
                  (     0          0          1      )

 cart.    s( 2) = ( -1.0000000  0.0000000  0.0000000 )
                  (  0.0000000  1.0000000  0.0000000 )
                  (  0.0000000  0.0000000  1.0000000 )

   Cartesian axes

     site n.     atom                  positions (alat units)
         1           Zn  tau(   1) = (   0.5000000   0.2886751   0.8082020  )
         2           Zn  tau(   2) = (   0.0000000   0.5773503   0.0010228  )
         3           O   tau(   3) = (   0.5000000   0.2886751   1.4201130  )
         4           O   tau(   4) = (   0.0000000   0.5773503   0.6129338  )
         5           Zn  tau(   5) = (   0.5000000   0.2886751   2.4225604  )
         6           Zn  tau(   6) = (   0.0000000   0.5773503   1.6153812  )
         7           O   tau(   7) = (   0.5000000   0.2886751   3.0344713  )
         8           O   tau(   8) = (   0.0000000   0.5773503   2.2272921  )
         9           Zn  tau(   9) = (   0.5000000   0.2886751   4.0369187  )
        10           Zn  tau(  10) = (   0.0000000   0.5773503   3.2297395  )
        11           O   tau(  11) = (   0.5000000   0.2886751   4.6488297  )
        12           O   tau(  12) = (   0.0000000   0.5773503   3.8416505  )
        13           Zn  tau(  13) = (   0.0000000   1.1547005   0.8082020  )
        14           Zn  tau(  14) = (  -0.5000000   1.4433757   0.0010228  )
        15           O   tau(  15) = (   0.0000000   1.1547005   1.4201130  )
        16           O   tau(  16) = (  -0.5000000   1.4433757   0.6129338  )
        17           Zn  tau(  17) = (   0.0000000   1.1547005   2.4225604  )
        18           Zn  tau(  18) = (  -0.5000000   1.4433757   1.6153812  )
        19           O   tau(  19) = (   0.0000000   1.1547005   3.0344713  )
        20           O   tau(  20) = (  -0.5000000   1.4433757   2.2272921  )
        21           Zn  tau(  21) = (   0.0000000   1.1547005   4.0369187  )
        22           Zn  tau(  22) = (  -0.5000000   1.4433757   3.2297395  )
        23           O   tau(  23) = (   0.0000000   1.1547005   4.6488297  )
        24           O   tau(  24) = (  -0.5000000   1.4433757   3.8416505  )

   Crystallographic axes

     site n.     atom                  positions (cryst. coord.)
         1           Zn  tau(   1) = (  0.6666667  0.1666667  0.1668779  )
         2           Zn  tau(   2) = (  0.3333333  0.3333333  0.0002112  )
         3           O   tau(   3) = (  0.6666667  0.1666667  0.2932255  )
         4           O   tau(   4) = (  0.3333333  0.3333333  0.1265588  )
         5           Zn  tau(   5) = (  0.6666667  0.1666667  0.5002112  )
         6           Zn  tau(   6) = (  0.3333333  0.3333333  0.3335445  )
         7           O   tau(   7) = (  0.6666667  0.1666667  0.6265588  )
         8           O   tau(   8) = (  0.3333333  0.3333333  0.4598921  )
         9           Zn  tau(   9) = (  0.6666667  0.1666667  0.8335445  )
        10           Zn  tau(  10) = (  0.3333333  0.3333333  0.6668779  )
        11           O   tau(  11) = (  0.6666667  0.1666667  0.9598921  )
        12           O   tau(  12) = (  0.3333333  0.3333333  0.7932255  )
        13           Zn  tau(  13) = (  0.6666667  0.6666667  0.1668779  )
        14           Zn  tau(  14) = (  0.3333333  0.8333333  0.0002112  )
        15           O   tau(  15) = (  0.6666667  0.6666667  0.2932255  )
        16           O   tau(  16) = (  0.3333333  0.8333333  0.1265588  )
        17           Zn  tau(  17) = (  0.6666667  0.6666667  0.5002112  )
        18           Zn  tau(  18) = (  0.3333333  0.8333333  0.3335445  )
        19           O   tau(  19) = (  0.6666667  0.6666667  0.6265588  )
        20           O   tau(  20) = (  0.3333333  0.8333333  0.4598921  )
        21           Zn  tau(  21) = (  0.6666667  0.6666667  0.8335445  )
        22           Zn  tau(  22) = (  0.3333333  0.8333333  0.6668779  )
        23           O   tau(  23) = (  0.6666667  0.6666667  0.9598921  )
        24           O   tau(  24) = (  0.3333333  0.8333333  0.7932255  )

     number of k points=    80
                       cart. coord. in units 2pi/alat
        k(    1) = (   0.0000000   0.0000000   0.0000000), wk =   0.0092593
        k(    2) = (   0.0000000   0.0000000   0.0344134), wk =   0.0185185
        k(    3) = (   0.0000000   0.0000000   0.0688268), wk =   0.0185185
        k(    4) = (   0.0000000   0.0000000  -0.1032402), wk =   0.0092593
        k(    5) = (   0.0000000   0.0962250   0.0000000), wk =   0.0185185
        k(    6) = (   0.0000000   0.0962250   0.0344134), wk =   0.0185185
        k(    7) = (   0.0000000   0.0962250   0.0688268), wk =   0.0185185
        k(    8) = (   0.0000000   0.0962250  -0.1032402), wk =   0.0185185
        k(    9) = (   0.0000000   0.1924501   0.0000000), wk =   0.0185185
        k(   10) = (   0.0000000   0.1924501   0.0344134), wk =   0.0185185
        k(   11) = (   0.0000000   0.1924501   0.0688268), wk =   0.0185185
        k(   12) = (   0.0000000   0.1924501  -0.1032402), wk =   0.0185185
        k(   13) = (   0.0000000  -0.2886751   0.0000000), wk =   0.0092593
        k(   14) = (   0.0000000  -0.2886751   0.0344134), wk =   0.0185185
        k(   15) = (   0.0000000  -0.2886751   0.0688268), wk =   0.0185185
        k(   16) = (   0.0000000  -0.2886751  -0.1032402), wk =   0.0092593
        k(   17) = (   0.1666667   0.0962250   0.0000000), wk =   0.0370370
        k(   18) = (   0.1666667   0.0962250   0.0344134), wk =   0.0370370
        k(   19) = (   0.1666667   0.0962250   0.0688268), wk =   0.0370370
        k(   20) = (   0.1666667   0.0962250  -0.1032402), wk =   0.0370370
        k(   21) = (   0.1666667   0.1924501   0.0000000), wk =   0.0370370
        k(   22) = (   0.1666667   0.1924501   0.0344134), wk =   0.0370370
        k(   23) = (   0.1666667   0.1924501   0.0688268), wk =   0.0370370
        k(   24) = (   0.1666667   0.1924501  -0.1032402), wk =   0.0370370
        k(   25) = (   0.1666667   0.2886751   0.0000000), wk =   0.0185185
        k(   26) = (   0.1666667   0.2886751   0.0344134), wk =   0.0370370
        k(   27) = (   0.1666667   0.2886751   0.0688268), wk =   0.0370370
        k(   28) = (   0.1666667   0.2886751  -0.1032402), wk =   0.0185185
        k(   29) = (   0.1666667   0.0000000   0.0000000), wk =   0.0185185
        k(   30) = (   0.1666667   0.0000000   0.0344134), wk =   0.0370370
        k(   31) = (   0.1666667   0.0000000   0.0688268), wk =   0.0370370
        k(   32) = (   0.1666667   0.0000000  -0.1032402), wk =   0.0185185
        k(   33) = (   0.3333333   0.1924501   0.0000000), wk =   0.0370370
        k(   34) = (   0.3333333   0.1924501   0.0344134), wk =   0.0370370
        k(   35) = (   0.3333333   0.1924501   0.0688268), wk =   0.0370370
        k(   36) = (   0.3333333   0.1924501  -0.1032402), wk =   0.0370370
        k(   37) = (   0.3333333   0.2886751   0.0000000), wk =   0.0185185
        k(   38) = (   0.3333333   0.2886751   0.0344134), wk =   0.0370370
        k(   39) = (   0.3333333   0.2886751   0.0688268), wk =   0.0370370
[...]
     estimated scf accuracy    <          5.3E-09 Ry

     The total energy is the sum of the following terms:
     one-electron contribution =   -1044.73110348 Ry
     hartree contribution      =     752.25991561 Ry
     xc contribution           =    -655.32899077 Ry
     ewald contribution        =   -1221.81288600 Ry

     convergence has been achieved in  42 iterations

     Forces acting on atoms (cartesian axes, Ry/au):

     atom    1 type  1   force =     0.00000000   -0.00001247   -0.00009727
     atom    2 type  1   force =     0.00000000   -0.00001318   -0.00010259
     atom    3 type  2   force =     0.00000000    0.00000513    0.00010976
     atom    4 type  2   force =     0.00000000   -0.00000432    0.00010925
     atom    5 type  1   force =     0.00000000   -0.00002783   -0.00009086
     atom    6 type  1   force =     0.00000000   -0.00001357   -0.00013816
     atom    7 type  2   force =     0.00000000    0.00000533    0.00010913
     atom    8 type  2   force =     0.00000000   -0.00000517    0.00010686
     atom    9 type  1   force =     0.00000000   -0.00001833   -0.00008880
     atom   10 type  1   force =     0.00000000   -0.00001116   -0.00013000
     atom   11 type  2   force =     0.00000000    0.00000490    0.00010888
     atom   12 type  2   force =     0.00000000   -0.00000543    0.00010973
     atom   13 type  1   force =     0.00000000    0.00000953   -0.00011046
     atom   14 type  1   force =     0.00000000    0.00001434   -0.00009663
     atom   15 type  2   force =     0.00000000    0.00000516    0.00010919
     atom   16 type  2   force =     0.00000000   -0.00000511    0.00010880
     atom   17 type  1   force =     0.00000000    0.00002330   -0.00009930
     atom   18 type  1   force =     0.00000000    0.00001863   -0.00012203
     atom   19 type  2   force =     0.00000000    0.00000470    0.00010990
     atom   20 type  2   force =     0.00000000   -0.00000476    0.00010659
     atom   21 type  1   force =     0.00000000    0.00001476   -0.00010426
     atom   22 type  1   force =     0.00000000    0.00001432   -0.00012644
     atom   23 type  2   force =     0.00000000    0.00000522    0.00010933
     atom   24 type  2   force =     0.00000000   -0.00000398    0.00010939
     The non-local contrib.  to forces
     atom    1 type  1   force =     0.00000000   -0.00000757   -0.00449692
     atom    2 type  1   force =     0.00000000   -0.00000826   -0.00450000
     atom    3 type  2   force =     0.00000000    0.00022202    0.00636196
     atom    4 type  2   force =     0.00000000   -0.00021646    0.00635346
     atom    5 type  1   force =     0.00000000   -0.00001259   -0.00449774
     atom    6 type  1   force =     0.00000000   -0.00001095   -0.00452319
     atom    7 type  2   force =     0.00000000    0.00022422    0.00635645
     atom    8 type  2   force =     0.00000000   -0.00021790    0.00635633
     atom    9 type  1   force =     0.00000000   -0.00000747   -0.00449991
     atom   10 type  1   force =     0.00000000   -0.00000930   -0.00451797
     atom   11 type  2   force =     0.00000000    0.00022171    0.00634763
     atom   12 type  2   force =     0.00000000   -0.00021910    0.00635922
     atom   13 type  1   force =     0.00000000    0.00000723   -0.00450545
     atom   14 type  1   force =     0.00000000    0.00000903   -0.00449692
     atom   15 type  2   force =     0.00000000    0.00021931    0.00635984
     atom   16 type  2   force =     0.00000000   -0.00022467    0.00635259
     atom   17 type  1   force =     0.00000000    0.00001210   -0.00450166
     atom   18 type  1   force =     0.00000000    0.00001247   -0.00451692
     atom   19 type  2   force =     0.00000000    0.00021629    0.00635983
     atom   20 type  2   force =     0.00000000   -0.00022333    0.00635234
     atom   21 type  1   force =     0.00000000    0.00000720   -0.00450542
     atom   22 type  1   force =     0.00000000    0.00001034   -0.00451858
     atom   23 type  2   force =     0.00000000    0.00021904    0.00634866
     atom   24 type  2   force =     0.00000000   -0.00022157    0.00635783
     The ionic contribution  to forces
     atom    1 type  1   force =    -0.00000000    0.00000000    0.05581774
     atom    2 type  1   force =     0.00000000   -0.00000000    0.05581777
     atom    3 type  2   force =    -0.00000000    0.00000000   -0.05581775
     atom    4 type  2   force =     0.00000000   -0.00000000   -0.05581776
     atom    5 type  1   force =    -0.00000000    0.00000000    0.05581777
     atom    6 type  1   force =     0.00000000   -0.00000000    0.05581773
     atom    7 type  2   force =    -0.00000000    0.00000000   -0.05581776
     atom    8 type  2   force =     0.00000000   -0.00000000   -0.05581774
     atom    9 type  1   force =    -0.00000000    0.00000000    0.05581773
     atom   10 type  1   force =     0.00000000   -0.00000000    0.05581774
     atom   11 type  2   force =    -0.00000000    0.00000000   -0.05581774
     atom   12 type  2   force =     0.00000000   -0.00000000   -0.05581775
     atom   13 type  1   force =    -0.00000000    0.00000000    0.05581774
     atom   14 type  1   force =     0.00000000   -0.00000000    0.05581777
     atom   15 type  2   force =    -0.00000000    0.00000000   -0.05581775
     atom   16 type  2   force =     0.00000000   -0.00000000   -0.05581776
     atom   17 type  1   force =    -0.00000000    0.00000000    0.05581777
     atom   18 type  1   force =     0.00000000   -0.00000000    0.05581773
     atom   19 type  2   force =    -0.00000000    0.00000000   -0.05581776
     atom   20 type  2   force =     0.00000000   -0.00000000   -0.05581774
     atom   21 type  1   force =    -0.00000000    0.00000000    0.05581773
     atom   22 type  1   force =     0.00000000   -0.00000000    0.05581774
     atom   23 type  2   force =    -0.00000000    0.00000000   -0.05581774
     atom   24 type  2   force =     0.00000000   -0.00000000   -0.05581775
     The local contribution  to forces
     atom    1 type  1   force =    -0.00000009    0.00001544   -0.05175854
     atom    2 type  1   force =    -0.00000000    0.00003123   -0.05174035
     atom    3 type  2   force =    -0.00000002   -0.00021005    0.04965123
     atom    4 type  2   force =     0.00000000    0.00021228    0.04964493
     atom    5 type  1   force =    -0.00000009    0.00003374   -0.05176235
     atom    6 type  1   force =    -0.00000000    0.00003834   -0.05168027
     atom    7 type  2   force =    -0.00000002   -0.00020568    0.04964890
     atom    8 type  2   force =     0.00000000    0.00021399    0.04963982
     atom    9 type  1   force =    -0.00000009    0.00001911   -0.05176064
     atom   10 type  1   force =    -0.00000000    0.00003063   -0.05169179
     atom   11 type  2   force =    -0.00000002   -0.00020932    0.04963738
     atom   12 type  2   force =     0.00000000    0.00021344    0.04963977
     atom   13 type  1   force =    -0.00000009   -0.00002570   -0.05172930
     atom   14 type  1   force =     0.00000000   -0.00002050   -0.05175453
     atom   15 type  2   force =    -0.00000002   -0.00021549    0.04965497
     atom   16 type  2   force =     0.00000000    0.00021214    0.04964314
     atom   17 type  1   force =    -0.00000009   -0.00004332   -0.05174525
     atom   18 type  1   force =     0.00000000   -0.00003039   -0.05170971
     atom   19 type  2   force =    -0.00000002   -0.00021815    0.04965058
     atom   20 type  2   force =    -0.00000000    0.00020876    0.04963466
     atom   21 type  1   force =    -0.00000009   -0.00002918   -0.05173702
     atom   22 type  1   force =     0.00000000   -0.00002089   -0.05170049
     atom   23 type  2   force =    -0.00000002   -0.00021503    0.04963977
     atom   24 type  2   force =     0.00000000    0.00021143    0.04963746
     The core correction contribution to forces
     atom    1 type  1   force =    -0.00000001    0.00000614    0.00030778
     atom    2 type  1   force =    -0.00000000   -0.00000688    0.00030694
     atom    3 type  2   force =     0.00000000   -0.00000251   -0.00007027
     atom    4 type  2   force =    -0.00000000    0.00000243   -0.00007014
     atom    5 type  1   force =    -0.00000001    0.00000589    0.00030795
     atom    6 type  1   force =    -0.00000000   -0.00000716    0.00030634
     atom    7 type  2   force =     0.00000000   -0.00000253   -0.00007020
     atom    8 type  2   force =    -0.00000000    0.00000245   -0.00007020
     atom    9 type  1   force =    -0.00000001    0.00000607    0.00030800
     atom   10 type  1   force =    -0.00000000   -0.00000684    0.00030628
     atom   11 type  2   force =     0.00000000   -0.00000251   -0.00007008
     atom   12 type  2   force =    -0.00000000    0.00000247   -0.00007023
     atom   13 type  1   force =    -0.00000001    0.00000675    0.00030699
     atom   14 type  1   force =    -0.00000000   -0.00000599    0.00030745
     atom   15 type  2   force =     0.00000000   -0.00000248   -0.00007023
     atom   16 type  2   force =    -0.00000000    0.00000255   -0.00007014
     atom   17 type  1   force =    -0.00000001    0.00000699    0.00030731
     atom   18 type  1   force =    -0.00000000   -0.00000577    0.00030729
     atom   19 type  2   force =     0.00000000   -0.00000244   -0.00007024
     atom   20 type  2   force =    -0.00000000    0.00000253   -0.00007016
     atom   21 type  1   force =    -0.00000001    0.00000681    0.00030741
     atom   22 type  1   force =    -0.00000000   -0.00000607    0.00030691
     atom   23 type  2   force =     0.00000000   -0.00000247   -0.00007009
     atom   24 type  2   force =    -0.00000000    0.00000251   -0.00007023
     The Hubbard contrib.    to forces
     atom    1 type  1   force =     0.00000000    0.00000000    0.00000000
     atom    2 type  1   force =     0.00000000    0.00000000    0.00000000
     atom    3 type  2   force =     0.00000000    0.00000000    0.00000000
     atom    4 type  2   force =     0.00000000    0.00000000    0.00000000
     atom    5 type  1   force =     0.00000000    0.00000000    0.00000000
     atom    6 type  1   force =     0.00000000    0.00000000    0.00000000
     atom    7 type  2   force =     0.00000000    0.00000000    0.00000000
     atom    8 type  2   force =     0.00000000    0.00000000    0.00000000
     atom    9 type  1   force =     0.00000000    0.00000000    0.00000000
     atom   10 type  1   force =     0.00000000    0.00000000    0.00000000
     atom   11 type  2   force =     0.00000000    0.00000000    0.00000000
     atom   12 type  2   force =     0.00000000    0.00000000    0.00000000
     atom   13 type  1   force =     0.00000000    0.00000000    0.00000000
     atom   14 type  1   force =     0.00000000    0.00000000    0.00000000
     atom   15 type  2   force =     0.00000000    0.00000000    0.00000000
     atom   16 type  2   force =     0.00000000    0.00000000    0.00000000
     atom   17 type  1   force =     0.00000000    0.00000000    0.00000000
     atom   18 type  1   force =     0.00000000    0.00000000    0.00000000
     atom   19 type  2   force =     0.00000000    0.00000000    0.00000000
     atom   20 type  2   force =     0.00000000    0.00000000    0.00000000
     atom   21 type  1   force =     0.00000000    0.00000000    0.00000000
     atom   22 type  1   force =     0.00000000    0.00000000    0.00000000
     atom   23 type  2   force =     0.00000000    0.00000000    0.00000000
     atom   24 type  2   force =     0.00000000    0.00000000    0.00000000
     The SCF correction term to forces
     atom    1 type  1   force =    -0.00000000   -0.00002666    0.00003550
     atom    2 type  1   force =     0.00000000   -0.00002943    0.00001588
     atom    3 type  2   force =    -0.00000000   -0.00000450   -0.00001260
     atom    4 type  2   force =     0.00000000   -0.00000274    0.00000158
     atom    5 type  1   force =    -0.00000000   -0.00005504    0.00004633
     atom    6 type  1   force =     0.00000000   -0.00003396   -0.00005595
     atom    7 type  2   force =    -0.00000000   -0.00001086   -0.00000545
     atom    8 type  2   force =     0.00000000   -0.00000388    0.00000146
     atom    9 type  1   force =    -0.00000000   -0.00003620    0.00004884
     atom   10 type  1   force =     0.00000000   -0.00002582   -0.00004143
     atom   11 type  2   force =    -0.00000000   -0.00000515    0.00001450
     atom   12 type  2   force =     0.00000000   -0.00000241    0.00000155
     atom   13 type  1   force =    -0.00000000    0.00002108    0.00000239
     atom   14 type  1   force =     0.00000000    0.00003163    0.00003242
     atom   15 type  2   force =    -0.00000000    0.00000365   -0.00001482
     atom   16 type  2   force =     0.00000000    0.00000469    0.00000379
     atom   17 type  1   force =    -0.00000000    0.00004736    0.00002535
     atom   18 type  1   force =     0.00000000    0.00004216   -0.00001760
     atom   19 type  2   force =    -0.00000000    0.00000883   -0.00000969
     atom   20 type  2   force =     0.00000000    0.00000711    0.00001031
     atom   21 type  1   force =    -0.00000000    0.00002975    0.00001586
     atom   22 type  1   force =     0.00000000    0.00003078   -0.00002919
     atom   23 type  2   force =    -0.00000000    0.00000350    0.00001153
     atom   24 type  2   force =     0.00000000    0.00000348    0.00000489

     Total force =     0.000540     Total SCF correction =     0.000174
     SCF correction compared to forces is large: reduce conv_thr to get better values

     General routines

     Parallel routines

   This run was terminated on:   2: 3:24   1Sep2025

   JOB DONE.
Note: The following floating-point exceptions are signalling: IEEE_UNDERFLOW_FLAG IEEE_DENORMAL
Note: The following floating-point exceptions are signalling: IEEE_UNDERFLOW_FLAG IEEE_DENORMAL
Note: The following floating-point exceptions are signalling: IEEE_UNDERFLOW_FLAG IEEE_DENORMAL
Note: The following floating-point exceptions are signalling: IEEE_UNDERFLOW_FLAG IEEE_DENORMAL
Note: The following floating-point exceptions are signalling: IEEE_UNDERFLOW_FLAG IEEE_DENORMAL
Note: The following floating-point exceptions are signalling: IEEE_UNDERFLOW_FLAG IEEE_DENORMAL
Note: The following floating-point exceptions are signalling: IEEE_UNDERFLOW_FLAG IEEE_DENORMAL
Note: The following floating-point exceptions are signalling: IEEE_UNDERFLOW_FLAG IEEE_DENORMAL
Note: The following floating-point exceptions are signalling: IEEE_UNDERFLOW_FLAG IEEE_DENORMAL
Note: The following floating-point exceptions are signalling: IEEE_UNDERFLOW_FLAG IEEE_DENORMAL
Note: The following floating-point exceptions are signalling: IEEE_UNDERFLOW_FLAG IEEE_DENORMAL
Note: The following floating-point exceptions are signalling: IEEE_UNDERFLOW_FLAG IEEE_DENORMAL
Note: The following floating-point exceptions are signalling: IEEE_UNDERFLOW_FLAG IEEE_DENORMAL
Note: The following floating-point exceptions are signalling: IEEE_UNDERFLOW_FLAG IEEE_DENORMAL
Note: The following floating-point exceptions are signalling: IEEE_UNDERFLOW_FLAG IEEE_DENORMAL
Note: The following floating-point exceptions are signalling: IEEE_UNDERFLOW_FLAG IEEE_DENORMAL
Note: The following floating-point exceptions are signalling: IEEE_UNDERFLOW_FLAG IEEE_DENORMAL
Note: The following floating-point exceptions are signalling: IEEE_UNDERFLOW_FLAG IEEE_DENORMAL
Note: The following floating-point exceptions are signalling: IEEE_UNDERFLOW_FLAG IEEE_DENORMAL
Note: The following floating-point exceptions are signalling: IEEE_UNDERFLOW_FLAG IEEE_DENORMAL
Note: The following floating-point exceptions are signalling: IEEE_UNDERFLOW_FLAG IEEE_DENORMAL
Note: The following floating-point exceptions are signalling: IEEE_UNDERFLOW_FLAG IEEE_DENORMAL
Note: The following floating-point exceptions are signalling: IEEE_UNDERFLOW_FLAG IEEE_DENORMAL
Note: The following floating-point exceptions are signalling: IEEE_UNDERFLOW_FLAG IEEE_DENORMAL
Note: The following floating-point exceptions are signalling: IEEE_UNDERFLOW_FLAG IEEE_DENORMAL
Note: The following floating-point exceptions are signalling: IEEE_UNDERFLOW_FLAG IEEE_DENORMAL
Note: The following floating-point exceptions are signalling: IEEE_UNDERFLOW_FLAG IEEE_DENORMAL
Note: The following floating-point exceptions are signalling: IEEE_UNDERFLOW_FLAG IEEE_DENORMAL
Note: The following floating-point exceptions are signalling: IEEE_UNDERFLOW_FLAG IEEE_DENORMAL
Note: The following floating-point exceptions are signalling: IEEE_UNDERFLOW_FLAG IEEE_DENORMAL
Note: The following floating-point exceptions are signalling: IEEE_UNDERFLOW_FLAG IEEE_DENORMAL
Note: The following floating-point exceptions are signalling: IEEE_UNDERFLOW_FLAG IEEE_DENORMAL