     Program PWSCF v.7.0 starts on 31Aug2025 at 18:10:47

     K-points division:     npool     =       8
     R & G space division:  proc/nbgrp/npool/nimage =       4

     Reading input from /home/jvc/QEspresso7.2/ZnO_database/scripts/cell123.in/ZnO-3.40-1.65-123.in
Warning: card &CELL ignored
Warning: card / ignored
Warning: card &FCP ignored
Warning: card / ignored
Warning: card &RISM ignored
Warning: card / ignored

     Current dimensions of program PWSCF are:
     Max number of different atomic species (ntypx) = 10
     Max number of k-points (npk) =  40000
     Max angular momentum in pseudopotentials (lmaxx) =  4
     file Zn.upf: wavefunction(s)  3D renormalized
     Found identity + (  0.0000  0.0000  0.3333) symmetry
     This is a supercell, fractional translations are disabled
     Message from routine setup:
     using ibrav=0 with symmetry is DISCOURAGED, use correct ibrav instead

     Using Slab Decomposition

     bravais-lattice index     =            0
     lattice parameter (alat)  =       6.4260  a.u.
     unit-cell volume          =    2270.4180 (a.u.)^3
     number of atoms/cell      =           24
     number of atomic types    =            2
     number of electrons       =       216.00
     number of Kohn-Sham states=          108
     kinetic-energy cutoff     =      50.0000  Ry
     charge density cutoff     =     400.0000  Ry
     scf convergence threshold =      1.0E-08
     mixing beta               =       0.3000
     number of iterations used =            8  plain     mixing
     Exchange-correlation= PBE
                           (   1   4   3   4   0   0   0)

     celldm(1)=   6.426008  celldm(2)=   0.000000  celldm(3)=   0.000000
     celldm(4)=   0.000000  celldm(5)=   0.000000  celldm(6)=   0.000000

     crystal axes: (cart. coord. in units of alat)
               a(1) = (   1.000000   0.000000   0.000000 )
               a(2) = (  -1.000000   1.732051   0.000000 )
               a(3) = (   0.000000   0.000000   4.939937 )

     reciprocal axes: (cart. coord. in units 2 pi/alat)
               b(1) = (  1.000000  0.577350 -0.000000 )
               b(2) = (  0.000000  0.577350  0.000000 )
               b(3) = (  0.000000 -0.000000  0.202432 )

     PseudoPot. # 1 for Zn read from file:
     /home/jvc/QEspresso7.2/ZnO_database/pseudos/Zn.upf
     MD5 check sum: 7f56cabf9682ed8c977c2f7d0c5985c5
     Pseudo is Ultrasoft + core correction, Zval = 12.0
     Generated using &quot;atomic&quot; code by A. Dal Corso  v.6.2.2
     Using radial grid of 1201 points,  6 beta functions with:
                l(1) =   0
                l(2) =   0
                l(3) =   1
                l(4) =   1
                l(5) =   2
                l(6) =   2
     Q(r) pseudized with 0 coefficients

     PseudoPot. # 2 for O  read from file:
     /home/jvc/QEspresso7.2/ZnO_database/pseudos/O.upf
     MD5 check sum: 91400c9766925bcf19f520983a725ff0
     Pseudo is Ultrasoft + core correction, Zval =  6.0
     Generated using &quot;atomic&quot; code by A. Dal Corso  v.6.3MaX
     Using radial grid of 1095 points,  4 beta functions with:
                l(1) =   0
                l(2) =   0
                l(3) =   1
                l(4) =   1
     Q(r) pseudized with 0 coefficients

     atomic species   valence    mass     pseudopotential
        Zn            12.00    65.38000     Zn( 1.00)
        O              6.00    15.99900     O ( 1.00)

      2 Sym. Ops. (no inversion) found

                                    s                        frac. trans.

      isym =  1     identity

 cryst.   s( 1) = (     1          0          0      )
                  (     0          1          0      )
                  (     0          0          1      )

 cart.    s( 1) = (  1.0000000  0.0000000  0.0000000 )
                  (  0.0000000  1.0000000  0.0000000 )
                  (  0.0000000  0.0000000  1.0000000 )

      isym =  2     inv. 180 deg rotation - cart. axis [1,0,0]

 cryst.   s( 2) = (    -1          0          0      )
                  (     2          1          0      )
                  (     0          0          1      )

 cart.    s( 2) = ( -1.0000000  0.0000000  0.0000000 )
                  (  0.0000000  1.0000000  0.0000000 )
                  (  0.0000000  0.0000000  1.0000000 )

   Cartesian axes

     site n.     atom                  positions (alat units)
         1           Zn  tau(   1) = (   0.5000000   0.2886751   0.8243661  )
         2           Zn  tau(   2) = (   0.0000000   0.5773503   0.0010433  )
         3           O   tau(   3) = (   0.5000000   0.2886751   1.4485152  )
         4           O   tau(   4) = (   0.0000000   0.5773503   0.6251925  )
         5           Zn  tau(   5) = (   0.5000000   0.2886751   2.4710116  )
         6           Zn  tau(   6) = (   0.0000000   0.5773503   1.6476888  )
         7           O   tau(   7) = (   0.5000000   0.2886751   3.0951608  )
         8           O   tau(   8) = (   0.0000000   0.5773503   2.2718380  )
         9           Zn  tau(   9) = (   0.5000000   0.2886751   4.1176571  )
        10           Zn  tau(  10) = (   0.0000000   0.5773503   3.2943343  )
        11           O   tau(  11) = (   0.5000000   0.2886751   4.7418063  )
        12           O   tau(  12) = (   0.0000000   0.5773503   3.9184835  )
        13           Zn  tau(  13) = (   0.0000000   1.1547005   0.8243661  )
        14           Zn  tau(  14) = (  -0.5000000   1.4433757   0.0010433  )
        15           O   tau(  15) = (   0.0000000   1.1547005   1.4485152  )
        16           O   tau(  16) = (  -0.5000000   1.4433757   0.6251925  )
        17           Zn  tau(  17) = (   0.0000000   1.1547005   2.4710116  )
        18           Zn  tau(  18) = (  -0.5000000   1.4433757   1.6476888  )
        19           O   tau(  19) = (   0.0000000   1.1547005   3.0951608  )
        20           O   tau(  20) = (  -0.5000000   1.4433757   2.2718380  )
        21           Zn  tau(  21) = (   0.0000000   1.1547005   4.1176571  )
        22           Zn  tau(  22) = (  -0.5000000   1.4433757   3.2943343  )
        23           O   tau(  23) = (   0.0000000   1.1547005   4.7418063  )
        24           O   tau(  24) = (  -0.5000000   1.4433757   3.9184835  )

   Crystallographic axes

     site n.     atom                  positions (cryst. coord.)
         1           Zn  tau(   1) = (  0.6666667  0.1666667  0.1668779  )
         2           Zn  tau(   2) = (  0.3333333  0.3333333  0.0002112  )
         3           O   tau(   3) = (  0.6666667  0.1666667  0.2932255  )
         4           O   tau(   4) = (  0.3333333  0.3333333  0.1265588  )
         5           Zn  tau(   5) = (  0.6666667  0.1666667  0.5002112  )
         6           Zn  tau(   6) = (  0.3333333  0.3333333  0.3335445  )
         7           O   tau(   7) = (  0.6666667  0.1666667  0.6265588  )
         8           O   tau(   8) = (  0.3333333  0.3333333  0.4598921  )
         9           Zn  tau(   9) = (  0.6666667  0.1666667  0.8335445  )
        10           Zn  tau(  10) = (  0.3333333  0.3333333  0.6668779  )
        11           O   tau(  11) = (  0.6666667  0.1666667  0.9598921  )
        12           O   tau(  12) = (  0.3333333  0.3333333  0.7932255  )
        13           Zn  tau(  13) = (  0.6666667  0.6666667  0.1668779  )
        14           Zn  tau(  14) = (  0.3333333  0.8333333  0.0002112  )
        15           O   tau(  15) = (  0.6666667  0.6666667  0.2932255  )
        16           O   tau(  16) = (  0.3333333  0.8333333  0.1265588  )
        17           Zn  tau(  17) = (  0.6666667  0.6666667  0.5002112  )
        18           Zn  tau(  18) = (  0.3333333  0.8333333  0.3335445  )
        19           O   tau(  19) = (  0.6666667  0.6666667  0.6265588  )
        20           O   tau(  20) = (  0.3333333  0.8333333  0.4598921  )
        21           Zn  tau(  21) = (  0.6666667  0.6666667  0.8335445  )
        22           Zn  tau(  22) = (  0.3333333  0.8333333  0.6668779  )
        23           O   tau(  23) = (  0.6666667  0.6666667  0.9598921  )
        24           O   tau(  24) = (  0.3333333  0.8333333  0.7932255  )

     number of k points=    80
                       cart. coord. in units 2pi/alat
        k(    1) = (   0.0000000   0.0000000   0.0000000), wk =   0.0092593
        k(    2) = (   0.0000000   0.0000000   0.0337386), wk =   0.0185185
        k(    3) = (   0.0000000   0.0000000   0.0674772), wk =   0.0185185
        k(    4) = (   0.0000000   0.0000000  -0.1012159), wk =   0.0092593
        k(    5) = (   0.0000000   0.0962250   0.0000000), wk =   0.0185185
        k(    6) = (   0.0000000   0.0962250   0.0337386), wk =   0.0185185
        k(    7) = (   0.0000000   0.0962250   0.0674772), wk =   0.0185185
        k(    8) = (   0.0000000   0.0962250  -0.1012159), wk =   0.0185185
        k(    9) = (   0.0000000   0.1924501   0.0000000), wk =   0.0185185
        k(   10) = (   0.0000000   0.1924501   0.0337386), wk =   0.0185185
        k(   11) = (   0.0000000   0.1924501   0.0674772), wk =   0.0185185
        k(   12) = (   0.0000000   0.1924501  -0.1012159), wk =   0.0185185
        k(   13) = (   0.0000000  -0.2886751   0.0000000), wk =   0.0092593
        k(   14) = (   0.0000000  -0.2886751   0.0337386), wk =   0.0185185
        k(   15) = (   0.0000000  -0.2886751   0.0674772), wk =   0.0185185
        k(   16) = (   0.0000000  -0.2886751  -0.1012159), wk =   0.0092593
        k(   17) = (   0.1666667   0.0962250   0.0000000), wk =   0.0370370
        k(   18) = (   0.1666667   0.0962250   0.0337386), wk =   0.0370370
        k(   19) = (   0.1666667   0.0962250   0.0674772), wk =   0.0370370
        k(   20) = (   0.1666667   0.0962250  -0.1012159), wk =   0.0370370
        k(   21) = (   0.1666667   0.1924501   0.0000000), wk =   0.0370370
        k(   22) = (   0.1666667   0.1924501   0.0337386), wk =   0.0370370
        k(   23) = (   0.1666667   0.1924501   0.0674772), wk =   0.0370370
        k(   24) = (   0.1666667   0.1924501  -0.1012159), wk =   0.0370370
        k(   25) = (   0.1666667   0.2886751   0.0000000), wk =   0.0185185
        k(   26) = (   0.1666667   0.2886751   0.0337386), wk =   0.0370370
        k(   27) = (   0.1666667   0.2886751   0.0674772), wk =   0.0370370
        k(   28) = (   0.1666667   0.2886751  -0.1012159), wk =   0.0185185
        k(   29) = (   0.1666667   0.0000000   0.0000000), wk =   0.0185185
        k(   30) = (   0.1666667   0.0000000   0.0337386), wk =   0.0370370
        k(   31) = (   0.1666667   0.0000000   0.0674772), wk =   0.0370370
        k(   32) = (   0.1666667   0.0000000  -0.1012159), wk =   0.0185185
        k(   33) = (   0.3333333   0.1924501   0.0000000), wk =   0.0370370
        k(   34) = (   0.3333333   0.1924501   0.0337386), wk =   0.0370370
        k(   35) = (   0.3333333   0.1924501   0.0674772), wk =   0.0370370
        k(   36) = (   0.3333333   0.1924501  -0.1012159), wk =   0.0370370
        k(   37) = (   0.3333333   0.2886751   0.0000000), wk =   0.0185185
        k(   38) = (   0.3333333   0.2886751   0.0337386), wk =   0.0370370
        k(   39) = (   0.3333333   0.2886751   0.0674772), wk =   0.0370370
[...]

!    total energy              =   -2169.69117563 Ry
     estimated scf accuracy    <          6.9E-10 Ry

     The total energy is the sum of the following terms:
     one-electron contribution =   -1019.96093371 Ry
     hartree contribution      =     743.14047422 Ry
     xc contribution           =    -655.71329288 Ry
     ewald contribution        =   -1237.15742326 Ry

     convergence has been achieved in  39 iterations

     Forces acting on atoms (cartesian axes, Ry/au):

     atom    1 type  1   force =     0.00000000   -0.00000115    0.00106440
     atom    2 type  1   force =     0.00000000    0.00000072    0.00106291
     atom    3 type  2   force =     0.00000000    0.00000443   -0.00106508
     atom    4 type  2   force =     0.00000000   -0.00000456   -0.00106497
     atom    5 type  1   force =     0.00000000   -0.00000072    0.00106401
     atom    6 type  1   force =     0.00000000    0.00000080    0.00106529
     atom    7 type  2   force =     0.00000000    0.00000439   -0.00106481
     atom    8 type  2   force =     0.00000000   -0.00000458   -0.00106499
     atom    9 type  1   force =     0.00000000   -0.00000002    0.00106763
     atom   10 type  1   force =     0.00000000    0.00000022    0.00106562
     atom   11 type  2   force =     0.00000000    0.00000451   -0.00106524
     atom   12 type  2   force =     0.00000000   -0.00000443   -0.00106456
     atom   13 type  1   force =     0.00000000   -0.00000014    0.00106405
     atom   14 type  1   force =     0.00000000    0.00000051    0.00106361
     atom   15 type  2   force =     0.00000000    0.00000449   -0.00106499
     atom   16 type  2   force =     0.00000000   -0.00000455   -0.00106526
     atom   17 type  1   force =     0.00000000   -0.00000046    0.00106391
     atom   18 type  1   force =     0.00000000    0.00000062    0.00106507
     atom   19 type  2   force =     0.00000000    0.00000431   -0.00106499
     atom   20 type  2   force =     0.00000000   -0.00000449   -0.00106507
     atom   21 type  1   force =     0.00000000   -0.00000071    0.00106787
     atom   22 type  1   force =     0.00000000    0.00000092    0.00106528
     atom   23 type  2   force =     0.00000000    0.00000428   -0.00106516
     atom   24 type  2   force =     0.00000000   -0.00000439   -0.00106453
     The non-local contrib.  to forces
     atom    1 type  1   force =     0.00000000    0.00000790    0.04750521
     atom    2 type  1   force =     0.00000000   -0.00000789    0.04750606
     atom    3 type  2   force =     0.00000000    0.00022015    0.05654740
     atom    4 type  2   force =     0.00000000   -0.00021995    0.05654773
     atom    5 type  1   force =     0.00000000    0.00000747    0.04750588
     atom    6 type  1   force =     0.00000000   -0.00000776    0.04750586
     atom    7 type  2   force =     0.00000000    0.00021982    0.05654810
     atom    8 type  2   force =     0.00000000   -0.00022042    0.05654764
     atom    9 type  1   force =     0.00000000    0.00000723    0.04750686
     atom   10 type  1   force =     0.00000000   -0.00000772    0.04750561
     atom   11 type  2   force =     0.00000000    0.00022019    0.05654771
     atom   12 type  2   force =     0.00000000   -0.00021987    0.05654760
     atom   13 type  1   force =     0.00000000    0.00000729    0.04750507
     atom   14 type  1   force =     0.00000000   -0.00000708    0.04750575
     atom   15 type  2   force =     0.00000000    0.00022018    0.05654749
     atom   16 type  2   force =     0.00000000   -0.00021975    0.05654714
     atom   17 type  1   force =     0.00000000    0.00000760    0.04750575
     atom   18 type  1   force =     0.00000000   -0.00000711    0.04750601
     atom   19 type  2   force =     0.00000000    0.00021961    0.05654771
     atom   20 type  2   force =     0.00000000   -0.00022006    0.05654755
     atom   21 type  1   force =     0.00000000    0.00000810    0.04750656
     atom   22 type  1   force =     0.00000000   -0.00000749    0.04750583
     atom   23 type  2   force =     0.00000000    0.00022016    0.05654747
     atom   24 type  2   force =     0.00000000   -0.00021967    0.05654807
     The ionic contribution  to forces
     atom    1 type  1   force =    -0.00000000    0.00000000    0.42995590
     atom    2 type  1   force =     0.00000000   -0.00000000    0.42995593
     atom    3 type  2   force =    -0.00000000    0.00000000   -0.42995591
     atom    4 type  2   force =     0.00000000   -0.00000000   -0.42995592
     atom    5 type  1   force =    -0.00000000    0.00000000    0.42995593
     atom    6 type  1   force =     0.00000000   -0.00000000    0.42995589
     atom    7 type  2   force =    -0.00000000    0.00000000   -0.42995592
     atom    8 type  2   force =     0.00000000   -0.00000000   -0.42995590
     atom    9 type  1   force =    -0.00000000    0.00000000    0.42995589
     atom   10 type  1   force =     0.00000000   -0.00000000    0.42995590
     atom   11 type  2   force =    -0.00000000    0.00000000   -0.42995590
     atom   12 type  2   force =     0.00000000   -0.00000000   -0.42995591
     atom   13 type  1   force =    -0.00000000    0.00000000    0.42995590
     atom   14 type  1   force =     0.00000000   -0.00000000    0.42995593
     atom   15 type  2   force =    -0.00000000    0.00000000   -0.42995591
     atom   16 type  2   force =     0.00000000   -0.00000000   -0.42995592
     atom   17 type  1   force =    -0.00000000    0.00000000    0.42995593
     atom   18 type  1   force =     0.00000000   -0.00000000    0.42995589
     atom   19 type  2   force =    -0.00000000    0.00000000   -0.42995592
     atom   20 type  2   force =     0.00000000   -0.00000000   -0.42995590
     atom   21 type  1   force =    -0.00000000    0.00000000    0.42995589
     atom   22 type  1   force =     0.00000000   -0.00000000    0.42995590
     atom   23 type  2   force =    -0.00000000    0.00000000   -0.42995590
     atom   24 type  2   force =     0.00000000   -0.00000000   -0.42995591
     The local contribution  to forces
     atom    1 type  1   force =    -0.00000009   -0.00001463   -0.47337516
     atom    2 type  1   force =     0.00000000    0.00001496   -0.47337379
     atom    3 type  2   force =    -0.00000002   -0.00021281    0.37284630
     atom    4 type  2   force =    -0.00000000    0.00021306    0.37284722
     atom    5 type  1   force =    -0.00000009   -0.00001508   -0.47337518
     atom    6 type  1   force =    -0.00000000    0.00001474   -0.47337644
     atom    7 type  2   force =    -0.00000002   -0.00021292    0.37284542
     atom    8 type  2   force =     0.00000000    0.00021368    0.37284696
     atom    9 type  1   force =    -0.00000009   -0.00001582   -0.47337937
     atom   10 type  1   force =     0.00000000    0.00001569   -0.47337644
     atom   11 type  2   force =    -0.00000002   -0.00021322    0.37284674
     atom   12 type  2   force =    -0.00000000    0.00021329    0.37284386
     atom   13 type  1   force =    -0.00000009   -0.00001582   -0.47337498
     atom   14 type  1   force =    -0.00000000    0.00001523   -0.47337445
     atom   15 type  2   force =    -0.00000002   -0.00021344    0.37284602
     atom   16 type  2   force =    -0.00000000    0.00021260    0.37284784
     atom   17 type  1   force =    -0.00000009   -0.00001523   -0.47337471
     atom   18 type  1   force =    -0.00000000    0.00001523   -0.47337625
     atom   19 type  2   force =    -0.00000002   -0.00021285    0.37284595
     atom   20 type  2   force =    -0.00000000    0.00021305    0.37284714
     atom   21 type  1   force =    -0.00000009   -0.00001495   -0.47337984
     atom   22 type  1   force =    -0.00000000    0.00001476   -0.47337603
     atom   23 type  2   force =    -0.00000002   -0.00021329    0.37284658
     atom   24 type  2   force =     0.00000000    0.00021233    0.37284339
     The core correction contribution to forces
     atom    1 type  1   force =    -0.00000006    0.00000678   -0.00302182
     atom    2 type  1   force =     0.00000001   -0.00000667   -0.00302192
     atom    3 type  2   force =     0.00000000   -0.00000247   -0.00050145
     atom    4 type  2   force =    -0.00000000    0.00000250   -0.00050144
     atom    5 type  1   force =    -0.00000006    0.00000685   -0.00302188
     atom    6 type  1   force =     0.00000001   -0.00000668   -0.00302180
     atom    7 type  2   force =     0.00000000   -0.00000247   -0.00050146
     atom    8 type  2   force =    -0.00000000    0.00000251   -0.00050144
     atom    9 type  1   force =    -0.00000006    0.00000690   -0.00302180
     atom   10 type  1   force =     0.00000001   -0.00000673   -0.00302178
     atom   11 type  2   force =     0.00000000   -0.00000248   -0.00050145
     atom   12 type  2   force =    -0.00000000    0.00000250   -0.00050144
     atom   13 type  1   force =    -0.00000002    0.00000677   -0.00302177
     atom   14 type  1   force =     0.00000005   -0.00000690   -0.00302190
     atom   15 type  2   force =     0.00000000   -0.00000251   -0.00050144
     atom   16 type  2   force =    -0.00000000    0.00000247   -0.00050144
     atom   17 type  1   force =    -0.00000002    0.00000671   -0.00302187
     atom   18 type  1   force =     0.00000005   -0.00000689   -0.00302185
     atom   19 type  2   force =     0.00000000   -0.00000250   -0.00050144
     atom   20 type  2   force =    -0.00000000    0.00000247   -0.00050145
     atom   21 type  1   force =    -0.00000002    0.00000665   -0.00302172
     atom   22 type  1   force =     0.00000005   -0.00000683   -0.00302186
     atom   23 type  2   force =     0.00000000   -0.00000250   -0.00050144
     atom   24 type  2   force =    -0.00000000    0.00000247   -0.00050146
     The Hubbard contrib.    to forces
     atom    1 type  1   force =     0.00000000    0.00000000    0.00000000
     atom    2 type  1   force =     0.00000000    0.00000000    0.00000000
     atom    3 type  2   force =     0.00000000    0.00000000    0.00000000
     atom    4 type  2   force =     0.00000000    0.00000000    0.00000000
     atom    5 type  1   force =     0.00000000    0.00000000    0.00000000
     atom    6 type  1   force =     0.00000000    0.00000000    0.00000000
     atom    7 type  2   force =     0.00000000    0.00000000    0.00000000
     atom    8 type  2   force =     0.00000000    0.00000000    0.00000000
     atom    9 type  1   force =     0.00000000    0.00000000    0.00000000
     atom   10 type  1   force =     0.00000000    0.00000000    0.00000000
     atom   11 type  2   force =     0.00000000    0.00000000    0.00000000
     atom   12 type  2   force =     0.00000000    0.00000000    0.00000000
     atom   13 type  1   force =     0.00000000    0.00000000    0.00000000
     atom   14 type  1   force =     0.00000000    0.00000000    0.00000000
     atom   15 type  2   force =     0.00000000    0.00000000    0.00000000
     atom   16 type  2   force =     0.00000000    0.00000000    0.00000000
     atom   17 type  1   force =     0.00000000    0.00000000    0.00000000
     atom   18 type  1   force =     0.00000000    0.00000000    0.00000000
     atom   19 type  2   force =     0.00000000    0.00000000    0.00000000
     atom   20 type  2   force =     0.00000000    0.00000000    0.00000000
     atom   21 type  1   force =     0.00000000    0.00000000    0.00000000
     atom   22 type  1   force =     0.00000000    0.00000000    0.00000000
     atom   23 type  2   force =     0.00000000    0.00000000    0.00000000
     atom   24 type  2   force =     0.00000000    0.00000000    0.00000000
     The SCF correction term to forces
     atom    1 type  1   force =    -0.00000000   -0.00000117    0.00000168
     atom    2 type  1   force =    -0.00000000    0.00000038   -0.00000195
     atom    3 type  2   force =    -0.00000000   -0.00000039   -0.00000001
     atom    4 type  2   force =    -0.00000000   -0.00000013   -0.00000116
     atom    5 type  1   force =    -0.00000000    0.00000008    0.00000067
     atom    6 type  1   force =    -0.00000000    0.00000053    0.00000319
     atom    7 type  2   force =    -0.00000000    0.00000000    0.00000046
     atom    8 type  2   force =    -0.00000000   -0.00000030   -0.00000084
     atom    9 type  1   force =    -0.00000000    0.00000172    0.00000746
     atom   10 type  1   force =    -0.00000000   -0.00000099    0.00000375
     atom   11 type  2   force =    -0.00000000    0.00000005   -0.00000094
     atom   12 type  2   force =    -0.00000000   -0.00000030    0.00000274
     atom   13 type  1   force =     0.00000000    0.00000167    0.00000125
     atom   14 type  1   force =     0.00000000   -0.00000070   -0.00000032
     atom   15 type  2   force =     0.00000000    0.00000030    0.00000025
     atom   16 type  2   force =     0.00000000    0.00000018   -0.00000147
     atom   17 type  1   force =     0.00000000    0.00000049    0.00000021
     atom   18 type  1   force =     0.00000000   -0.00000056    0.00000267
     atom   19 type  2   force =     0.00000000    0.00000009    0.00000011
     atom   20 type  2   force =     0.00000000    0.00000009   -0.00000100
     atom   21 type  1   force =     0.00000000   -0.00000047    0.00000838
     atom   22 type  1   force =     0.00000000    0.00000052    0.00000286
     atom   23 type  2   force =     0.00000000   -0.00000004   -0.00000048
     atom   24 type  2   force =     0.00000000    0.00000053    0.00000280

     Total force =     0.005217     Total SCF correction =     0.000014

     General routines

     Parallel routines

   This run was terminated on:  19: 0:12  31Aug2025

   JOB DONE.
Note: The following floating-point exceptions are signalling: IEEE_UNDERFLOW_FLAG IEEE_DENORMAL
Note: The following floating-point exceptions are signalling: IEEE_UNDERFLOW_FLAG IEEE_DENORMAL
Note: The following floating-point exceptions are signalling: IEEE_UNDERFLOW_FLAG IEEE_DENORMAL
Note: The following floating-point exceptions are signalling: IEEE_UNDERFLOW_FLAG IEEE_DENORMAL
Note: The following floating-point exceptions are signalling: IEEE_UNDERFLOW_FLAG IEEE_DENORMAL
Note: The following floating-point exceptions are signalling: IEEE_UNDERFLOW_FLAG IEEE_DENORMAL
Note: The following floating-point exceptions are signalling: IEEE_UNDERFLOW_FLAG IEEE_DENORMAL
Note: The following floating-point exceptions are signalling: IEEE_UNDERFLOW_FLAG IEEE_DENORMAL
Note: The following floating-point exceptions are signalling: IEEE_UNDERFLOW_FLAG IEEE_DENORMAL
Note: The following floating-point exceptions are signalling: IEEE_UNDERFLOW_FLAG IEEE_DENORMAL
Note: The following floating-point exceptions are signalling: IEEE_UNDERFLOW_FLAG IEEE_DENORMAL
Note: The following floating-point exceptions are signalling: IEEE_UNDERFLOW_FLAG IEEE_DENORMAL
Note: The following floating-point exceptions are signalling: IEEE_UNDERFLOW_FLAG IEEE_DENORMAL
Note: The following floating-point exceptions are signalling: IEEE_UNDERFLOW_FLAG IEEE_DENORMAL
Note: The following floating-point exceptions are signalling: IEEE_UNDERFLOW_FLAG IEEE_DENORMAL
Note: The following floating-point exceptions are signalling: IEEE_UNDERFLOW_FLAG IEEE_DENORMAL
Note: The following floating-point exceptions are signalling: IEEE_UNDERFLOW_FLAG IEEE_DENORMAL
Note: The following floating-point exceptions are signalling: IEEE_UNDERFLOW_FLAG IEEE_DENORMAL
Note: The following floating-point exceptions are signalling: IEEE_UNDERFLOW_FLAG IEEE_DENORMAL
Note: The following floating-point exceptions are signalling: IEEE_UNDERFLOW_FLAG IEEE_DENORMAL
Note: The following floating-point exceptions are signalling: IEEE_UNDERFLOW_FLAG IEEE_DENORMAL
Note: The following floating-point exceptions are signalling: IEEE_UNDERFLOW_FLAG IEEE_DENORMAL
Note: The following floating-point exceptions are signalling: IEEE_UNDERFLOW_FLAG IEEE_DENORMAL
Note: The following floating-point exceptions are signalling: IEEE_UNDERFLOW_FLAG IEEE_DENORMAL
Note: The following floating-point exceptions are signalling: IEEE_UNDERFLOW_FLAG IEEE_DENORMAL
Note: The following floating-point exceptions are signalling: IEEE_UNDERFLOW_FLAG IEEE_DENORMAL
Note: The following floating-point exceptions are signalling: IEEE_UNDERFLOW_FLAG IEEE_DENORMAL
Note: The following floating-point exceptions are signalling: IEEE_UNDERFLOW_FLAG IEEE_DENORMAL
Note: The following floating-point exceptions are signalling: IEEE_UNDERFLOW_FLAG IEEE_DENORMAL
Note: The following floating-point exceptions are signalling: IEEE_UNDERFLOW_FLAG IEEE_DENORMAL
Note: The following floating-point exceptions are signalling: IEEE_UNDERFLOW_FLAG IEEE_DENORMAL
Note: The following floating-point exceptions are signalling: IEEE_UNDERFLOW_FLAG IEEE_DENORMAL