     Program PWSCF v.7.0 starts on 31Aug2025 at 21:49: 1

     K-points division:     npool     =       8
     R & G space division:  proc/nbgrp/npool/nimage =       4

     Reading input from /home/jvc/QEspresso7.2/ZnO_database/scripts/cell123.in/ZnO-3.47-1.45-123.in
Warning: card &CELL ignored
Warning: card / ignored
Warning: card &FCP ignored
Warning: card / ignored
Warning: card &RISM ignored
Warning: card / ignored

     Current dimensions of program PWSCF are:
     Max number of different atomic species (ntypx) = 10
     Max number of k-points (npk) =  40000
     Max angular momentum in pseudopotentials (lmaxx) =  4
     file Zn.upf: wavefunction(s)  3D renormalized
     Found identity + (  0.0000  0.0000  0.3333) symmetry
     This is a supercell, fractional translations are disabled
     Message from routine setup:
     using ibrav=0 with symmetry is DISCOURAGED, use correct ibrav instead

     Using Slab Decomposition

     bravais-lattice index     =            0
     lattice parameter (alat)  =       6.5496  a.u.
     unit-cell volume          =    2121.1224 (a.u.)^3
     number of atoms/cell      =           24
     number of atomic types    =            2
     number of electrons       =       216.00
     number of Kohn-Sham states=          108
     kinetic-energy cutoff     =      50.0000  Ry
     charge density cutoff     =     400.0000  Ry
     scf convergence threshold =      1.0E-08
     mixing beta               =       0.3000
     number of iterations used =            8  plain     mixing
     Exchange-correlation= PBE
                           (   1   4   3   4   0   0   0)

     celldm(1)=   6.549585  celldm(2)=   0.000000  celldm(3)=   0.000000
     celldm(4)=   0.000000  celldm(5)=   0.000000  celldm(6)=   0.000000

     crystal axes: (cart. coord. in units of alat)
               a(1) = (   1.000000   0.000000   0.000000 )
               a(2) = (  -1.000000   1.732051   0.000000 )
               a(3) = (   0.000000   0.000000   4.358768 )

     reciprocal axes: (cart. coord. in units 2 pi/alat)
               b(1) = (  1.000000  0.577350 -0.000000 )
               b(2) = (  0.000000  0.577350  0.000000 )
               b(3) = (  0.000000 -0.000000  0.229423 )

     PseudoPot. # 1 for Zn read from file:
     /home/jvc/QEspresso7.2/ZnO_database/pseudos/Zn.upf
     MD5 check sum: 7f56cabf9682ed8c977c2f7d0c5985c5
     Pseudo is Ultrasoft + core correction, Zval = 12.0
     Generated using &quot;atomic&quot; code by A. Dal Corso  v.6.2.2
     Using radial grid of 1201 points,  6 beta functions with:
                l(1) =   0
                l(2) =   0
                l(3) =   1
                l(4) =   1
                l(5) =   2
                l(6) =   2
     Q(r) pseudized with 0 coefficients

     PseudoPot. # 2 for O  read from file:
     /home/jvc/QEspresso7.2/ZnO_database/pseudos/O.upf
     MD5 check sum: 91400c9766925bcf19f520983a725ff0
     Pseudo is Ultrasoft + core correction, Zval =  6.0
     Generated using &quot;atomic&quot; code by A. Dal Corso  v.6.3MaX
     Using radial grid of 1095 points,  4 beta functions with:
                l(1) =   0
                l(2) =   0
                l(3) =   1
                l(4) =   1
     Q(r) pseudized with 0 coefficients

     atomic species   valence    mass     pseudopotential
        Zn            12.00    65.38000     Zn( 1.00)
        O              6.00    15.99900     O ( 1.00)

      2 Sym. Ops. (no inversion) found

                                    s                        frac. trans.

      isym =  1     identity

 cryst.   s( 1) = (     1          0          0      )
                  (     0          1          0      )
                  (     0          0          1      )

 cart.    s( 1) = (  1.0000000  0.0000000  0.0000000 )
                  (  0.0000000  1.0000000  0.0000000 )
                  (  0.0000000  0.0000000  1.0000000 )

      isym =  2     inv. 180 deg rotation - cart. axis [1,0,0]

 cryst.   s( 2) = (    -1          0          0      )
                  (     2          1          0      )
                  (     0          0          1      )

 cart.    s( 2) = ( -1.0000000  0.0000000  0.0000000 )
                  (  0.0000000  1.0000000  0.0000000 )
                  (  0.0000000  0.0000000  1.0000000 )

   Cartesian axes

     site n.     atom                  positions (alat units)
         1           Zn  tau(   1) = (   0.5000000   0.2886751   0.7273818  )
         2           Zn  tau(   2) = (   0.0000000   0.5773503   0.0009206  )
         3           O   tau(   3) = (   0.5000000   0.2886751   1.2781017  )
         4           O   tau(   4) = (   0.0000000   0.5773503   0.5516404  )
         5           Zn  tau(   5) = (   0.5000000   0.2886751   2.1803043  )
         6           Zn  tau(   6) = (   0.0000000   0.5773503   1.4538431  )
         7           O   tau(   7) = (   0.5000000   0.2886751   2.7310242  )
         8           O   tau(   8) = (   0.0000000   0.5773503   2.0045629  )
         9           Zn  tau(   9) = (   0.5000000   0.2886751   3.6332269  )
        10           Zn  tau(  10) = (   0.0000000   0.5773503   2.9067656  )
        11           O   tau(  11) = (   0.5000000   0.2886751   4.1839467  )
        12           O   tau(  12) = (   0.0000000   0.5773503   3.4574855  )
        13           Zn  tau(  13) = (   0.0000000   1.1547005   0.7273818  )
        14           Zn  tau(  14) = (  -0.5000000   1.4433757   0.0009206  )
        15           O   tau(  15) = (   0.0000000   1.1547005   1.2781017  )
        16           O   tau(  16) = (  -0.5000000   1.4433757   0.5516404  )
        17           Zn  tau(  17) = (   0.0000000   1.1547005   2.1803043  )
        18           Zn  tau(  18) = (  -0.5000000   1.4433757   1.4538431  )
        19           O   tau(  19) = (   0.0000000   1.1547005   2.7310242  )
        20           O   tau(  20) = (  -0.5000000   1.4433757   2.0045629  )
        21           Zn  tau(  21) = (   0.0000000   1.1547005   3.6332269  )
        22           Zn  tau(  22) = (  -0.5000000   1.4433757   2.9067656  )
        23           O   tau(  23) = (   0.0000000   1.1547005   4.1839467  )
        24           O   tau(  24) = (  -0.5000000   1.4433757   3.4574855  )

   Crystallographic axes

     site n.     atom                  positions (cryst. coord.)
         1           Zn  tau(   1) = (  0.6666667  0.1666667  0.1668779  )
         2           Zn  tau(   2) = (  0.3333333  0.3333333  0.0002112  )
         3           O   tau(   3) = (  0.6666667  0.1666667  0.2932255  )
         4           O   tau(   4) = (  0.3333333  0.3333333  0.1265588  )
         5           Zn  tau(   5) = (  0.6666667  0.1666667  0.5002112  )
         6           Zn  tau(   6) = (  0.3333333  0.3333333  0.3335445  )
         7           O   tau(   7) = (  0.6666667  0.1666667  0.6265588  )
         8           O   tau(   8) = (  0.3333333  0.3333333  0.4598921  )
         9           Zn  tau(   9) = (  0.6666667  0.1666667  0.8335445  )
        10           Zn  tau(  10) = (  0.3333333  0.3333333  0.6668779  )
        11           O   tau(  11) = (  0.6666667  0.1666667  0.9598921  )
        12           O   tau(  12) = (  0.3333333  0.3333333  0.7932255  )
        13           Zn  tau(  13) = (  0.6666667  0.6666667  0.1668779  )
        14           Zn  tau(  14) = (  0.3333333  0.8333333  0.0002112  )
        15           O   tau(  15) = (  0.6666667  0.6666667  0.2932255  )
        16           O   tau(  16) = (  0.3333333  0.8333333  0.1265588  )
        17           Zn  tau(  17) = (  0.6666667  0.6666667  0.5002112  )
        18           Zn  tau(  18) = (  0.3333333  0.8333333  0.3335445  )
        19           O   tau(  19) = (  0.6666667  0.6666667  0.6265588  )
        20           O   tau(  20) = (  0.3333333  0.8333333  0.4598921  )
        21           Zn  tau(  21) = (  0.6666667  0.6666667  0.8335445  )
        22           Zn  tau(  22) = (  0.3333333  0.8333333  0.6668779  )
        23           O   tau(  23) = (  0.6666667  0.6666667  0.9598921  )
        24           O   tau(  24) = (  0.3333333  0.8333333  0.7932255  )

     number of k points=    80
                       cart. coord. in units 2pi/alat
        k(    1) = (   0.0000000   0.0000000   0.0000000), wk =   0.0092593
        k(    2) = (   0.0000000   0.0000000   0.0382371), wk =   0.0185185
        k(    3) = (   0.0000000   0.0000000   0.0764742), wk =   0.0185185
        k(    4) = (   0.0000000   0.0000000  -0.1147113), wk =   0.0092593
        k(    5) = (   0.0000000   0.0962250   0.0000000), wk =   0.0185185
        k(    6) = (   0.0000000   0.0962250   0.0382371), wk =   0.0185185
        k(    7) = (   0.0000000   0.0962250   0.0764742), wk =   0.0185185
        k(    8) = (   0.0000000   0.0962250  -0.1147113), wk =   0.0185185
        k(    9) = (   0.0000000   0.1924501   0.0000000), wk =   0.0185185
        k(   10) = (   0.0000000   0.1924501   0.0382371), wk =   0.0185185
        k(   11) = (   0.0000000   0.1924501   0.0764742), wk =   0.0185185
        k(   12) = (   0.0000000   0.1924501  -0.1147113), wk =   0.0185185
        k(   13) = (   0.0000000  -0.2886751   0.0000000), wk =   0.0092593
        k(   14) = (   0.0000000  -0.2886751   0.0382371), wk =   0.0185185
        k(   15) = (   0.0000000  -0.2886751   0.0764742), wk =   0.0185185
        k(   16) = (   0.0000000  -0.2886751  -0.1147113), wk =   0.0092593
        k(   17) = (   0.1666667   0.0962250   0.0000000), wk =   0.0370370
        k(   18) = (   0.1666667   0.0962250   0.0382371), wk =   0.0370370
        k(   19) = (   0.1666667   0.0962250   0.0764742), wk =   0.0370370
        k(   20) = (   0.1666667   0.0962250  -0.1147113), wk =   0.0370370
        k(   21) = (   0.1666667   0.1924501   0.0000000), wk =   0.0370370
        k(   22) = (   0.1666667   0.1924501   0.0382371), wk =   0.0370370
        k(   23) = (   0.1666667   0.1924501   0.0764742), wk =   0.0370370
        k(   24) = (   0.1666667   0.1924501  -0.1147113), wk =   0.0370370
        k(   25) = (   0.1666667   0.2886751   0.0000000), wk =   0.0185185
        k(   26) = (   0.1666667   0.2886751   0.0382371), wk =   0.0370370
        k(   27) = (   0.1666667   0.2886751   0.0764742), wk =   0.0370370
        k(   28) = (   0.1666667   0.2886751  -0.1147113), wk =   0.0185185
        k(   29) = (   0.1666667   0.0000000   0.0000000), wk =   0.0185185
        k(   30) = (   0.1666667   0.0000000   0.0382371), wk =   0.0370370
        k(   31) = (   0.1666667   0.0000000   0.0764742), wk =   0.0370370
        k(   32) = (   0.1666667   0.0000000  -0.1147113), wk =   0.0185185
        k(   33) = (   0.3333333   0.1924501   0.0000000), wk =   0.0370370
        k(   34) = (   0.3333333   0.1924501   0.0382371), wk =   0.0370370
        k(   35) = (   0.3333333   0.1924501   0.0764742), wk =   0.0370370
        k(   36) = (   0.3333333   0.1924501  -0.1147113), wk =   0.0370370
        k(   37) = (   0.3333333   0.2886751   0.0000000), wk =   0.0185185
        k(   38) = (   0.3333333   0.2886751   0.0382371), wk =   0.0370370
        k(   39) = (   0.3333333   0.2886751   0.0764742), wk =   0.0370370
[...]

!    total energy              =   -2169.69992032 Ry
     estimated scf accuracy    <          8.5E-09 Ry

     The total energy is the sum of the following terms:
     one-electron contribution =    -983.35028800 Ry
     hartree contribution      =     731.10176055 Ry
     xc contribution           =    -656.55331502 Ry
     ewald contribution        =   -1260.89807785 Ry

     convergence has been achieved in  35 iterations

     Forces acting on atoms (cartesian axes, Ry/au):

     atom    1 type  1   force =     0.00000000   -0.00001315   -0.03299652
     atom    2 type  1   force =     0.00000000    0.00002277   -0.03303881
     atom    3 type  2   force =     0.00000000    0.00000178    0.03302528
     atom    4 type  2   force =     0.00000000   -0.00000175    0.03302466
     atom    5 type  1   force =     0.00000000   -0.00001719   -0.03303471
     atom    6 type  1   force =     0.00000000    0.00000371   -0.03302597
     atom    7 type  2   force =     0.00000000    0.00000071    0.03303159
     atom    8 type  2   force =     0.00000000    0.00000426    0.03303761
     atom    9 type  1   force =     0.00000000    0.00000574   -0.03305938
     atom   10 type  1   force =     0.00000000    0.00000760   -0.03303647
     atom   11 type  2   force =     0.00000000   -0.00000766    0.03303742
     atom   12 type  2   force =     0.00000000   -0.00000191    0.03303383
     atom   13 type  1   force =     0.00000000    0.00000131   -0.03300699
     atom   14 type  1   force =     0.00000000   -0.00001363   -0.03302577
     atom   15 type  2   force =     0.00000000   -0.00000162    0.03302599
     atom   16 type  2   force =     0.00000000    0.00000199    0.03302690
     atom   17 type  1   force =     0.00000000    0.00000526   -0.03303633
     atom   18 type  1   force =     0.00000000    0.00000902   -0.03301935
     atom   19 type  2   force =     0.00000000   -0.00000041    0.03303202
     atom   20 type  2   force =     0.00000000   -0.00000027    0.03303261
     atom   21 type  1   force =     0.00000000   -0.00001685   -0.03304233
     atom   22 type  1   force =     0.00000000    0.00000547   -0.03305079
     atom   23 type  2   force =     0.00000000    0.00000039    0.03303143
     atom   24 type  2   force =     0.00000000    0.00000444    0.03303407
     The non-local contrib.  to forces
     atom    1 type  1   force =     0.00000000   -0.00000589   -0.30240934
     atom    2 type  1   force =     0.00000000    0.00001577   -0.30245245
     atom    3 type  2   force =     0.00000000    0.00019211   -0.24085649
     atom    4 type  2   force =     0.00000000   -0.00018978   -0.24085908
     atom    5 type  1   force =     0.00000000   -0.00001123   -0.30244656
     atom    6 type  1   force =     0.00000000   -0.00000227   -0.30243350
     atom    7 type  2   force =     0.00000000    0.00018448   -0.24084432
     atom    8 type  2   force =     0.00000000   -0.00018213   -0.24084182
     atom    9 type  1   force =     0.00000000    0.00001084   -0.30246162
     atom   10 type  1   force =     0.00000000    0.00000281   -0.30244269
     atom   11 type  2   force =     0.00000000    0.00017908   -0.24083997
     atom   12 type  2   force =     0.00000000   -0.00019081   -0.24083081
     atom   13 type  1   force =     0.00000000    0.00000294   -0.30241998
     atom   14 type  1   force =     0.00000000   -0.00001529   -0.30243613
     atom   15 type  2   force =     0.00000000    0.00017795   -0.24085459
     atom   16 type  2   force =     0.00000000   -0.00017959   -0.24085356
     atom   17 type  1   force =     0.00000000    0.00000886   -0.30244598
     atom   18 type  1   force =     0.00000000    0.00000456   -0.30242918
     atom   19 type  2   force =     0.00000000    0.00018506   -0.24084044
     atom   20 type  2   force =     0.00000000   -0.00018461   -0.24084283
     atom   21 type  1   force =     0.00000000   -0.00001283   -0.30245174
     atom   22 type  1   force =     0.00000000   -0.00000012   -0.30245609
     atom   23 type  2   force =     0.00000000    0.00018375   -0.24084439
     atom   24 type  2   force =     0.00000000   -0.00017820   -0.24083950
     The ionic contribution  to forces
     atom    1 type  1   force =    -0.00000000    0.00000000   -2.01156104
     atom    2 type  1   force =     0.00000000   -0.00000000   -2.01156100
     atom    3 type  2   force =    -0.00000000    0.00000000    2.01156103
     atom    4 type  2   force =     0.00000000   -0.00000000    2.01156101
     atom    5 type  1   force =    -0.00000000    0.00000000   -2.01156100
     atom    6 type  1   force =     0.00000000   -0.00000000   -2.01156104
     atom    7 type  2   force =    -0.00000000    0.00000000    2.01156101
     atom    8 type  2   force =     0.00000000   -0.00000000    2.01156104
     atom    9 type  1   force =    -0.00000000    0.00000000   -2.01156104
     atom   10 type  1   force =     0.00000000   -0.00000000   -2.01156104
     atom   11 type  2   force =    -0.00000000    0.00000000    2.01156104
     atom   12 type  2   force =     0.00000000   -0.00000000    2.01156103
     atom   13 type  1   force =    -0.00000000    0.00000000   -2.01156104
     atom   14 type  1   force =     0.00000000   -0.00000000   -2.01156100
     atom   15 type  2   force =    -0.00000000    0.00000000    2.01156103
     atom   16 type  2   force =     0.00000000   -0.00000000    2.01156101
     atom   17 type  1   force =    -0.00000000    0.00000000   -2.01156100
     atom   18 type  1   force =     0.00000000   -0.00000000   -2.01156104
     atom   19 type  2   force =    -0.00000000    0.00000000    2.01156101
     atom   20 type  2   force =     0.00000000   -0.00000000    2.01156104
     atom   21 type  1   force =    -0.00000000    0.00000000   -2.01156104
     atom   22 type  1   force =     0.00000000   -0.00000000   -2.01156104
     atom   23 type  2   force =    -0.00000000    0.00000000    2.01156104
     atom   24 type  2   force =     0.00000000   -0.00000000    2.01156103
     The local contribution  to forces
     atom    1 type  1   force =    -0.00000009    0.00000787    2.25936420
     atom    2 type  1   force =    -0.00000000   -0.00003259    2.25945973
     atom    3 type  2   force =    -0.00000002   -0.00018266   -1.73956413
     atom    4 type  2   force =     0.00000000    0.00017923   -1.73956968
     atom    5 type  1   force =    -0.00000009    0.00001774    2.25944171
     atom    6 type  1   force =    -0.00000000    0.00001527    2.25943247
     atom    7 type  2   force =    -0.00000002   -0.00018088   -1.73953871
     atom    8 type  2   force =     0.00000000    0.00018917   -1.73953927
     atom    9 type  1   force =    -0.00000009   -0.00003769    2.25949502
     atom   10 type  1   force =    -0.00000000    0.00000701    2.25944300
     atom   11 type  2   force =    -0.00000002   -0.00019291   -1.73954261
     atom   12 type  2   force =     0.00000000    0.00017749   -1.73954256
     atom   13 type  1   force =    -0.00000009   -0.00002578    2.25938647
     atom   14 type  1   force =     0.00000000    0.00005370    2.25942504
     atom   15 type  2   force =    -0.00000002   -0.00018472   -1.73956275
     atom   16 type  2   force =     0.00000000    0.00018689   -1.73957619
     atom   17 type  1   force =    -0.00000009   -0.00003572    2.25944543
     atom   18 type  1   force =     0.00000000    0.00000322    2.25941322
     atom   19 type  2   force =    -0.00000002   -0.00018513   -1.73954335
     atom   20 type  2   force =     0.00000000    0.00017868   -1.73954414
     atom   21 type  1   force =    -0.00000009    0.00001896    2.25945161
     atom   22 type  1   force =     0.00000000    0.00001088    2.25947753
     atom   23 type  2   force =    -0.00000002   -0.00017672   -1.73954899
     atom   24 type  2   force =    -0.00000000    0.00018974   -1.73953500
     The core correction contribution to forces
     atom    1 type  1   force =    -0.00000001    0.00000276    0.02154254
     atom    2 type  1   force =    -0.00000000   -0.00000228    0.02154176
     atom    3 type  2   force =     0.00000000   -0.00000219    0.00186549
     atom    4 type  2   force =    -0.00000000    0.00000216    0.00186552
     atom    5 type  1   force =    -0.00000001    0.00000283    0.02154202
     atom    6 type  1   force =    -0.00000000   -0.00000337    0.02154083
     atom    7 type  2   force =     0.00000000   -0.00000209    0.00186536
     atom    8 type  2   force =    -0.00000000    0.00000208    0.00186534
     atom    9 type  1   force =    -0.00000001    0.00000389    0.02154066
     atom   10 type  1   force =    -0.00000000   -0.00000353    0.02154150
     atom   11 type  2   force =     0.00000000   -0.00000205    0.00186533
     atom   12 type  2   force =    -0.00000000    0.00000217    0.00186518
     atom   13 type  1   force =    -0.00000001    0.00000414    0.02154237
     atom   14 type  1   force =    -0.00000000   -0.00000451    0.02154197
     atom   15 type  2   force =     0.00000000   -0.00000202    0.00186546
     atom   16 type  2   force =    -0.00000000    0.00000204    0.00186544
     atom   17 type  1   force =    -0.00000001    0.00000403    0.02154164
     atom   18 type  1   force =    -0.00000000   -0.00000348    0.02154155
     atom   19 type  2   force =     0.00000000   -0.00000211    0.00186531
     atom   20 type  2   force =    -0.00000000    0.00000210    0.00186533
     atom   21 type  1   force =    -0.00000001    0.00000294    0.02154229
     atom   22 type  1   force =    -0.00000000   -0.00000334    0.02154088
     atom   23 type  2   force =     0.00000000   -0.00000209    0.00186536
     atom   24 type  2   force =    -0.00000000    0.00000203    0.00186530
     The Hubbard contrib.    to forces
     atom    1 type  1   force =     0.00000000    0.00000000    0.00000000
     atom    2 type  1   force =     0.00000000    0.00000000    0.00000000
     atom    3 type  2   force =     0.00000000    0.00000000    0.00000000
     atom    4 type  2   force =     0.00000000    0.00000000    0.00000000
     atom    5 type  1   force =     0.00000000    0.00000000    0.00000000
     atom    6 type  1   force =     0.00000000    0.00000000    0.00000000
     atom    7 type  2   force =     0.00000000    0.00000000    0.00000000
     atom    8 type  2   force =     0.00000000    0.00000000    0.00000000
     atom    9 type  1   force =     0.00000000    0.00000000    0.00000000
     atom   10 type  1   force =     0.00000000    0.00000000    0.00000000
     atom   11 type  2   force =     0.00000000    0.00000000    0.00000000
     atom   12 type  2   force =     0.00000000    0.00000000    0.00000000
     atom   13 type  1   force =     0.00000000    0.00000000    0.00000000
     atom   14 type  1   force =     0.00000000    0.00000000    0.00000000
     atom   15 type  2   force =     0.00000000    0.00000000    0.00000000
     atom   16 type  2   force =     0.00000000    0.00000000    0.00000000
     atom   17 type  1   force =     0.00000000    0.00000000    0.00000000
     atom   18 type  1   force =     0.00000000    0.00000000    0.00000000
     atom   19 type  2   force =     0.00000000    0.00000000    0.00000000
     atom   20 type  2   force =     0.00000000    0.00000000    0.00000000
     atom   21 type  1   force =     0.00000000    0.00000000    0.00000000
     atom   22 type  1   force =     0.00000000    0.00000000    0.00000000
     atom   23 type  2   force =     0.00000000    0.00000000    0.00000000
     atom   24 type  2   force =     0.00000000    0.00000000    0.00000000
     The SCF correction term to forces
     atom    1 type  1   force =    -0.00000000   -0.00001810    0.00006477
     atom    2 type  1   force =     0.00000000    0.00004167   -0.00002919
     atom    3 type  2   force =    -0.00000000   -0.00000568    0.00001705
     atom    4 type  2   force =     0.00000000    0.00000643    0.00002455
     atom    5 type  1   force =    -0.00000000   -0.00002674   -0.00001322
     atom    6 type  1   force =     0.00000000   -0.00000612   -0.00000707
     atom    7 type  2   force =     0.00000000   -0.00000100   -0.00001410
     atom    8 type  2   force =     0.00000000   -0.00000506   -0.00001002
     atom    9 type  1   force =    -0.00000000    0.00002849   -0.00007473
     atom   10 type  1   force =     0.00000000    0.00000110   -0.00001960
     atom   11 type  2   force =     0.00000000    0.00000802   -0.00000871
     atom   12 type  2   force =     0.00000000    0.00000905   -0.00002135
     atom   13 type  1   force =    -0.00000000    0.00001979    0.00004285
     atom   14 type  1   force =     0.00000000   -0.00004773    0.00000202
     atom   15 type  2   force =    -0.00000000    0.00000696    0.00001450
     atom   16 type  2   force =     0.00000000   -0.00000755    0.00002784
     atom   17 type  1   force =    -0.00000000    0.00002789   -0.00001875
     atom   18 type  1   force =     0.00000000    0.00000453    0.00001376
     atom   19 type  2   force =     0.00000000    0.00000156   -0.00001285
     atom   20 type  2   force =     0.00000000    0.00000335   -0.00000913
     atom   21 type  1   force =    -0.00000000   -0.00002613   -0.00002578
     atom   22 type  1   force =     0.00000000   -0.00000215   -0.00005442
     atom   23 type  2   force =    -0.00000000   -0.00000476   -0.00000392
     atom   24 type  2   force =     0.00000000   -0.00000934   -0.00002010

     Total force =     0.161819     Total SCF correction =     0.000170

     General routines

     Parallel routines

   This run was terminated on:  22:26:49  31Aug2025

   JOB DONE.
Note: The following floating-point exceptions are signalling: IEEE_UNDERFLOW_FLAG IEEE_DENORMAL
Note: The following floating-point exceptions are signalling: IEEE_UNDERFLOW_FLAG IEEE_DENORMAL
Note: The following floating-point exceptions are signalling: IEEE_UNDERFLOW_FLAG IEEE_DENORMAL
Note: The following floating-point exceptions are signalling: IEEE_UNDERFLOW_FLAG IEEE_DENORMAL
Note: The following floating-point exceptions are signalling: IEEE_UNDERFLOW_FLAG IEEE_DENORMAL
Note: The following floating-point exceptions are signalling: IEEE_UNDERFLOW_FLAG IEEE_DENORMAL
Note: The following floating-point exceptions are signalling: IEEE_UNDERFLOW_FLAG IEEE_DENORMAL
Note: The following floating-point exceptions are signalling: IEEE_UNDERFLOW_FLAG IEEE_DENORMAL
Note: The following floating-point exceptions are signalling: IEEE_UNDERFLOW_FLAG IEEE_DENORMAL
Note: The following floating-point exceptions are signalling: IEEE_UNDERFLOW_FLAG IEEE_DENORMAL
Note: The following floating-point exceptions are signalling: IEEE_UNDERFLOW_FLAG IEEE_DENORMAL
Note: The following floating-point exceptions are signalling: IEEE_UNDERFLOW_FLAG IEEE_DENORMAL
Note: The following floating-point exceptions are signalling: IEEE_UNDERFLOW_FLAG IEEE_DENORMAL
Note: The following floating-point exceptions are signalling: IEEE_UNDERFLOW_FLAG IEEE_DENORMAL
Note: The following floating-point exceptions are signalling: IEEE_UNDERFLOW_FLAG IEEE_DENORMAL
Note: The following floating-point exceptions are signalling: IEEE_UNDERFLOW_FLAG IEEE_DENORMAL
Note: The following floating-point exceptions are signalling: IEEE_UNDERFLOW_FLAG IEEE_DENORMAL
Note: The following floating-point exceptions are signalling: IEEE_UNDERFLOW_FLAG IEEE_DENORMAL
Note: The following floating-point exceptions are signalling: IEEE_UNDERFLOW_FLAG IEEE_DENORMAL
Note: The following floating-point exceptions are signalling: IEEE_UNDERFLOW_FLAG IEEE_DENORMAL
Note: The following floating-point exceptions are signalling: IEEE_UNDERFLOW_FLAG IEEE_DENORMAL
Note: The following floating-point exceptions are signalling: IEEE_UNDERFLOW_FLAG IEEE_DENORMAL
Note: The following floating-point exceptions are signalling: IEEE_UNDERFLOW_FLAG IEEE_DENORMAL
Note: The following floating-point exceptions are signalling: IEEE_UNDERFLOW_FLAG IEEE_DENORMAL
Note: The following floating-point exceptions are signalling: IEEE_UNDERFLOW_FLAG IEEE_DENORMAL
Note: The following floating-point exceptions are signalling: IEEE_UNDERFLOW_FLAG IEEE_DENORMAL
Note: The following floating-point exceptions are signalling: IEEE_UNDERFLOW_FLAG IEEE_DENORMAL
Note: The following floating-point exceptions are signalling: IEEE_UNDERFLOW_FLAG IEEE_DENORMAL
Note: The following floating-point exceptions are signalling: IEEE_UNDERFLOW_FLAG IEEE_DENORMAL
Note: The following floating-point exceptions are signalling: IEEE_UNDERFLOW_FLAG IEEE_DENORMAL
Note: The following floating-point exceptions are signalling: IEEE_UNDERFLOW_FLAG IEEE_DENORMAL
Note: The following floating-point exceptions are signalling: IEEE_UNDERFLOW_FLAG IEEE_DENORMAL