     Program PWSCF v.7.0 starts on 31Aug2025 at 23: 3:51

     K-points division:     npool     =       8
     R & G space division:  proc/nbgrp/npool/nimage =       4

     Reading input from /home/jvc/QEspresso7.2/ZnO_database/scripts/cell123.in/ZnO-3.47-1.52-123.in
Warning: card &CELL ignored
Warning: card / ignored
Warning: card &FCP ignored
Warning: card / ignored
Warning: card &RISM ignored
Warning: card / ignored

     Current dimensions of program PWSCF are:
     Max number of different atomic species (ntypx) = 10
     Max number of k-points (npk) =  40000
     Max angular momentum in pseudopotentials (lmaxx) =  4
     file Zn.upf: wavefunction(s)  3D renormalized
     Found identity + (  0.0000  0.0000  0.3333) symmetry
     This is a supercell, fractional translations are disabled
     Message from routine setup:
     using ibrav=0 with symmetry is DISCOURAGED, use correct ibrav instead

     Using Slab Decomposition

     bravais-lattice index     =            0
     lattice parameter (alat)  =       6.5496  a.u.
     unit-cell volume          =    2215.3945 (a.u.)^3
     number of atoms/cell      =           24
     number of atomic types    =            2
     number of electrons       =       216.00
     number of Kohn-Sham states=          108
     kinetic-energy cutoff     =      50.0000  Ry
     charge density cutoff     =     400.0000  Ry
     scf convergence threshold =      1.0E-08
     mixing beta               =       0.3000
     number of iterations used =            8  plain     mixing
     Exchange-correlation= PBE
                           (   1   4   3   4   0   0   0)

     celldm(1)=   6.549585  celldm(2)=   0.000000  celldm(3)=   0.000000
     celldm(4)=   0.000000  celldm(5)=   0.000000  celldm(6)=   0.000000

     crystal axes: (cart. coord. in units of alat)
               a(1) = (   1.000000   0.000000   0.000000 )
               a(2) = (  -1.000000   1.732051   0.000000 )
               a(3) = (   0.000000   0.000000   4.552491 )

     reciprocal axes: (cart. coord. in units 2 pi/alat)
               b(1) = (  1.000000  0.577350 -0.000000 )
               b(2) = (  0.000000  0.577350  0.000000 )
               b(3) = (  0.000000 -0.000000  0.219660 )

     PseudoPot. # 1 for Zn read from file:
     /home/jvc/QEspresso7.2/ZnO_database/pseudos/Zn.upf
     MD5 check sum: 7f56cabf9682ed8c977c2f7d0c5985c5
     Pseudo is Ultrasoft + core correction, Zval = 12.0
     Generated using &quot;atomic&quot; code by A. Dal Corso  v.6.2.2
     Using radial grid of 1201 points,  6 beta functions with:
                l(1) =   0
                l(2) =   0
                l(3) =   1
                l(4) =   1
                l(5) =   2
                l(6) =   2
     Q(r) pseudized with 0 coefficients

     PseudoPot. # 2 for O  read from file:
     /home/jvc/QEspresso7.2/ZnO_database/pseudos/O.upf
     MD5 check sum: 91400c9766925bcf19f520983a725ff0
     Pseudo is Ultrasoft + core correction, Zval =  6.0
     Generated using &quot;atomic&quot; code by A. Dal Corso  v.6.3MaX
     Using radial grid of 1095 points,  4 beta functions with:
                l(1) =   0
                l(2) =   0
                l(3) =   1
                l(4) =   1
     Q(r) pseudized with 0 coefficients

     atomic species   valence    mass     pseudopotential
        Zn            12.00    65.38000     Zn( 1.00)
        O              6.00    15.99900     O ( 1.00)

      2 Sym. Ops. (no inversion) found

                                    s                        frac. trans.

      isym =  1     identity

 cryst.   s( 1) = (     1          0          0      )
                  (     0          1          0      )
                  (     0          0          1      )

 cart.    s( 1) = (  1.0000000  0.0000000  0.0000000 )
                  (  0.0000000  1.0000000  0.0000000 )
                  (  0.0000000  0.0000000  1.0000000 )

      isym =  2     inv. 180 deg rotation - cart. axis [1,0,0]

 cryst.   s( 2) = (    -1          0          0      )
                  (     2          1          0      )
                  (     0          0          1      )

 cart.    s( 2) = ( -1.0000000  0.0000000  0.0000000 )
                  (  0.0000000  1.0000000  0.0000000 )
                  (  0.0000000  0.0000000  1.0000000 )

   Cartesian axes

     site n.     atom                  positions (alat units)
         1           Zn  tau(   1) = (   0.5000000   0.2886751   0.7597099  )
         2           Zn  tau(   2) = (   0.0000000   0.5773503   0.0009615  )
         3           O   tau(   3) = (   0.5000000   0.2886751   1.3349062  )
         4           O   tau(   4) = (   0.0000000   0.5773503   0.5761578  )
         5           Zn  tau(   5) = (   0.5000000   0.2886751   2.2772067  )
         6           Zn  tau(   6) = (   0.0000000   0.5773503   1.5184583  )
         7           O   tau(   7) = (   0.5000000   0.2886751   2.8524030  )
         8           O   tau(   8) = (   0.0000000   0.5773503   2.0936546  )
         9           Zn  tau(   9) = (   0.5000000   0.2886751   3.7947036  )
        10           Zn  tau(  10) = (   0.0000000   0.5773503   3.0359552  )
        11           O   tau(  11) = (   0.5000000   0.2886751   4.3698999  )
        12           O   tau(  12) = (   0.0000000   0.5773503   3.6111515  )
        13           Zn  tau(  13) = (   0.0000000   1.1547005   0.7597099  )
        14           Zn  tau(  14) = (  -0.5000000   1.4433757   0.0009615  )
        15           O   tau(  15) = (   0.0000000   1.1547005   1.3349062  )
        16           O   tau(  16) = (  -0.5000000   1.4433757   0.5761578  )
        17           Zn  tau(  17) = (   0.0000000   1.1547005   2.2772067  )
        18           Zn  tau(  18) = (  -0.5000000   1.4433757   1.5184583  )
        19           O   tau(  19) = (   0.0000000   1.1547005   2.8524030  )
        20           O   tau(  20) = (  -0.5000000   1.4433757   2.0936546  )
        21           Zn  tau(  21) = (   0.0000000   1.1547005   3.7947036  )
        22           Zn  tau(  22) = (  -0.5000000   1.4433757   3.0359552  )
        23           O   tau(  23) = (   0.0000000   1.1547005   4.3698999  )
        24           O   tau(  24) = (  -0.5000000   1.4433757   3.6111515  )

   Crystallographic axes

     site n.     atom                  positions (cryst. coord.)
         1           Zn  tau(   1) = (  0.6666667  0.1666667  0.1668779  )
         2           Zn  tau(   2) = (  0.3333333  0.3333333  0.0002112  )
         3           O   tau(   3) = (  0.6666667  0.1666667  0.2932255  )
         4           O   tau(   4) = (  0.3333333  0.3333333  0.1265588  )
         5           Zn  tau(   5) = (  0.6666667  0.1666667  0.5002112  )
         6           Zn  tau(   6) = (  0.3333333  0.3333333  0.3335445  )
         7           O   tau(   7) = (  0.6666667  0.1666667  0.6265588  )
         8           O   tau(   8) = (  0.3333333  0.3333333  0.4598921  )
         9           Zn  tau(   9) = (  0.6666667  0.1666667  0.8335445  )
        10           Zn  tau(  10) = (  0.3333333  0.3333333  0.6668779  )
        11           O   tau(  11) = (  0.6666667  0.1666667  0.9598921  )
        12           O   tau(  12) = (  0.3333333  0.3333333  0.7932255  )
        13           Zn  tau(  13) = (  0.6666667  0.6666667  0.1668779  )
        14           Zn  tau(  14) = (  0.3333333  0.8333333  0.0002112  )
        15           O   tau(  15) = (  0.6666667  0.6666667  0.2932255  )
        16           O   tau(  16) = (  0.3333333  0.8333333  0.1265588  )
        17           Zn  tau(  17) = (  0.6666667  0.6666667  0.5002112  )
        18           Zn  tau(  18) = (  0.3333333  0.8333333  0.3335445  )
        19           O   tau(  19) = (  0.6666667  0.6666667  0.6265588  )
        20           O   tau(  20) = (  0.3333333  0.8333333  0.4598921  )
        21           Zn  tau(  21) = (  0.6666667  0.6666667  0.8335445  )
        22           Zn  tau(  22) = (  0.3333333  0.8333333  0.6668779  )
        23           O   tau(  23) = (  0.6666667  0.6666667  0.9598921  )
        24           O   tau(  24) = (  0.3333333  0.8333333  0.7932255  )

     number of k points=    80
                       cart. coord. in units 2pi/alat
        k(    1) = (   0.0000000   0.0000000   0.0000000), wk =   0.0092593
        k(    2) = (   0.0000000   0.0000000   0.0366100), wk =   0.0185185
        k(    3) = (   0.0000000   0.0000000   0.0732200), wk =   0.0185185
        k(    4) = (   0.0000000   0.0000000  -0.1098300), wk =   0.0092593
        k(    5) = (   0.0000000   0.0962250   0.0000000), wk =   0.0185185
        k(    6) = (   0.0000000   0.0962250   0.0366100), wk =   0.0185185
        k(    7) = (   0.0000000   0.0962250   0.0732200), wk =   0.0185185
        k(    8) = (   0.0000000   0.0962250  -0.1098300), wk =   0.0185185
        k(    9) = (   0.0000000   0.1924501   0.0000000), wk =   0.0185185
        k(   10) = (   0.0000000   0.1924501   0.0366100), wk =   0.0185185
        k(   11) = (   0.0000000   0.1924501   0.0732200), wk =   0.0185185
        k(   12) = (   0.0000000   0.1924501  -0.1098300), wk =   0.0185185
        k(   13) = (   0.0000000  -0.2886751   0.0000000), wk =   0.0092593
        k(   14) = (   0.0000000  -0.2886751   0.0366100), wk =   0.0185185
        k(   15) = (   0.0000000  -0.2886751   0.0732200), wk =   0.0185185
        k(   16) = (   0.0000000  -0.2886751  -0.1098300), wk =   0.0092593
        k(   17) = (   0.1666667   0.0962250   0.0000000), wk =   0.0370370
        k(   18) = (   0.1666667   0.0962250   0.0366100), wk =   0.0370370
        k(   19) = (   0.1666667   0.0962250   0.0732200), wk =   0.0370370
        k(   20) = (   0.1666667   0.0962250  -0.1098300), wk =   0.0370370
        k(   21) = (   0.1666667   0.1924501   0.0000000), wk =   0.0370370
        k(   22) = (   0.1666667   0.1924501   0.0366100), wk =   0.0370370
        k(   23) = (   0.1666667   0.1924501   0.0732200), wk =   0.0370370
        k(   24) = (   0.1666667   0.1924501  -0.1098300), wk =   0.0370370
        k(   25) = (   0.1666667   0.2886751   0.0000000), wk =   0.0185185
        k(   26) = (   0.1666667   0.2886751   0.0366100), wk =   0.0370370
        k(   27) = (   0.1666667   0.2886751   0.0732200), wk =   0.0370370
        k(   28) = (   0.1666667   0.2886751  -0.1098300), wk =   0.0185185
        k(   29) = (   0.1666667   0.0000000   0.0000000), wk =   0.0185185
        k(   30) = (   0.1666667   0.0000000   0.0366100), wk =   0.0370370
        k(   31) = (   0.1666667   0.0000000   0.0732200), wk =   0.0370370
        k(   32) = (   0.1666667   0.0000000  -0.1098300), wk =   0.0185185
        k(   33) = (   0.3333333   0.1924501   0.0000000), wk =   0.0370370
        k(   34) = (   0.3333333   0.1924501   0.0366100), wk =   0.0370370
        k(   35) = (   0.3333333   0.1924501   0.0732200), wk =   0.0370370
        k(   36) = (   0.3333333   0.1924501  -0.1098300), wk =   0.0370370
        k(   37) = (   0.3333333   0.2886751   0.0000000), wk =   0.0185185
        k(   38) = (   0.3333333   0.2886751   0.0366100), wk =   0.0370370
        k(   39) = (   0.3333333   0.2886751   0.0732200), wk =   0.0370370
[...]

!    total energy              =   -2169.70900087 Ry
     estimated scf accuracy    <          9.0E-09 Ry

     The total energy is the sum of the following terms:
     one-electron contribution =   -1007.23002827 Ry
     hartree contribution      =     739.02203614 Ry
     xc contribution           =    -656.00791350 Ry
     ewald contribution        =   -1245.49309525 Ry

     convergence has been achieved in  41 iterations

     Forces acting on atoms (cartesian axes, Ry/au):

     atom    1 type  1   force =     0.00000000   -0.00000229   -0.01103883
     atom    2 type  1   force =     0.00000000   -0.00000108   -0.01103484
     atom    3 type  2   force =     0.00000000    0.00000129    0.01104074
     atom    4 type  2   force =     0.00000000   -0.00000151    0.01104030
     atom    5 type  1   force =     0.00000000   -0.00000287   -0.01104061
     atom    6 type  1   force =     0.00000000    0.00000290   -0.01104567
     atom    7 type  2   force =     0.00000000    0.00000124    0.01104015
     atom    8 type  2   force =     0.00000000   -0.00000155    0.01104013
     atom    9 type  1   force =     0.00000000    0.00000191   -0.01104468
     atom   10 type  1   force =     0.00000000   -0.00000565   -0.01103106
     atom   11 type  2   force =     0.00000000    0.00000102    0.01104011
     atom   12 type  2   force =     0.00000000   -0.00000150    0.01104031
     atom   13 type  1   force =     0.00000000   -0.00000969   -0.01103818
     atom   14 type  1   force =     0.00000000    0.00001285   -0.01103290
     atom   15 type  2   force =     0.00000000    0.00000158    0.01104101
     atom   16 type  2   force =     0.00000000   -0.00000176    0.01104011
     atom   17 type  1   force =     0.00000000   -0.00000962   -0.01104951
     atom   18 type  1   force =     0.00000000    0.00000838   -0.01104728
     atom   19 type  2   force =     0.00000000    0.00000164    0.01104085
     atom   20 type  2   force =     0.00000000   -0.00000208    0.01104069
     atom   21 type  1   force =     0.00000000   -0.00001091   -0.01104842
     atom   22 type  1   force =     0.00000000    0.00001777   -0.01103344
     atom   23 type  2   force =     0.00000000    0.00000195    0.01104048
     atom   24 type  2   force =     0.00000000   -0.00000203    0.01104057
     The non-local contrib.  to forces
     atom    1 type  1   force =     0.00000000    0.00000276   -0.17377745
     atom    2 type  1   force =     0.00000000   -0.00000354   -0.17377638
     atom    3 type  2   force =     0.00000000    0.00019842   -0.14487036
     atom    4 type  2   force =     0.00000000   -0.00019911   -0.14487566
     atom    5 type  1   force =     0.00000000    0.00000221   -0.17377936
     atom    6 type  1   force =     0.00000000   -0.00000226   -0.17378121
     atom    7 type  2   force =     0.00000000    0.00019946   -0.14487613
     atom    8 type  2   force =     0.00000000   -0.00019802   -0.14487263
     atom    9 type  1   force =     0.00000000    0.00000284   -0.17378093
     atom   10 type  1   force =     0.00000000   -0.00000651   -0.17377449
     atom   11 type  2   force =     0.00000000    0.00019730   -0.14487492
     atom   12 type  2   force =     0.00000000   -0.00019776   -0.14487336
     atom   13 type  1   force =     0.00000000   -0.00000090   -0.17377654
     atom   14 type  1   force =     0.00000000    0.00000217   -0.17377578
     atom   15 type  2   force =     0.00000000    0.00020327   -0.14487113
     atom   16 type  2   force =     0.00000000   -0.00020309   -0.14487762
     atom   17 type  1   force =     0.00000000   -0.00000092   -0.17378443
     atom   18 type  1   force =     0.00000000    0.00000110   -0.17378250
     atom   19 type  2   force =     0.00000000    0.00020307   -0.14487666
     atom   20 type  2   force =     0.00000000   -0.00020425   -0.14487162
     atom   21 type  1   force =     0.00000000   -0.00000148   -0.17378229
     atom   22 type  1   force =     0.00000000    0.00000531   -0.17377479
     atom   23 type  2   force =     0.00000000    0.00020471   -0.14487429
     atom   24 type  2   force =     0.00000000   -0.00020403   -0.14487400
     The ionic contribution  to forces
     atom    1 type  1   force =    -0.00000000    0.00000000   -1.12322817
     atom    2 type  1   force =     0.00000000   -0.00000000   -1.12322814
     atom    3 type  2   force =    -0.00000000    0.00000000    1.12322816
     atom    4 type  2   force =     0.00000000   -0.00000000    1.12322815
     atom    5 type  1   force =    -0.00000000    0.00000000   -1.12322814
     atom    6 type  1   force =     0.00000000   -0.00000000   -1.12322817
     atom    7 type  2   force =    -0.00000000    0.00000000    1.12322815
     atom    8 type  2   force =     0.00000000   -0.00000000    1.12322817
     atom    9 type  1   force =    -0.00000000    0.00000000   -1.12322817
     atom   10 type  1   force =     0.00000000   -0.00000000   -1.12322817
     atom   11 type  2   force =    -0.00000000    0.00000000    1.12322817
     atom   12 type  2   force =     0.00000000   -0.00000000    1.12322816
     atom   13 type  1   force =    -0.00000000    0.00000000   -1.12322817
     atom   14 type  1   force =     0.00000000   -0.00000000   -1.12322814
     atom   15 type  2   force =    -0.00000000    0.00000000    1.12322816
     atom   16 type  2   force =     0.00000000   -0.00000000    1.12322815
     atom   17 type  1   force =    -0.00000000    0.00000000   -1.12322814
     atom   18 type  1   force =     0.00000000   -0.00000000   -1.12322817
     atom   19 type  2   force =    -0.00000000    0.00000000    1.12322815
     atom   20 type  2   force =     0.00000000   -0.00000000    1.12322817
     atom   21 type  1   force =    -0.00000000    0.00000000   -1.12322817
     atom   22 type  1   force =     0.00000000   -0.00000000   -1.12322817
     atom   23 type  2   force =    -0.00000000    0.00000000    1.12322817
     atom   24 type  2   force =     0.00000000   -0.00000000    1.12322816
     The local contribution  to forces
     atom    1 type  1   force =    -0.00000009   -0.00001639    1.27422106
     atom    2 type  1   force =    -0.00000000    0.00002216    1.27421290
     atom    3 type  2   force =    -0.00000002   -0.00019450   -0.96849585
     atom    4 type  2   force =     0.00000000    0.00019581   -0.96849998
     atom    5 type  1   force =    -0.00000009   -0.00001653    1.27422256
     atom    6 type  1   force =     0.00000000    0.00001496    1.27422757
     atom    7 type  2   force =    -0.00000002   -0.00019387   -0.96850202
     atom    8 type  2   force =     0.00000000    0.00019567   -0.96849649
     atom    9 type  1   force =    -0.00000009   -0.00001817    1.27422947
     atom   10 type  1   force =     0.00000000    0.00003114    1.27420980
     atom   11 type  2   force =    -0.00000002   -0.00019677   -0.96849960
     atom   12 type  2   force =     0.00000000    0.00019533   -0.96849865
     atom   13 type  1   force =    -0.00000009   -0.00000251    1.27422081
     atom   14 type  1   force =     0.00000000   -0.00000359    1.27421224
     atom   15 type  2   force =    -0.00000002   -0.00019857   -0.96849263
     atom   16 type  2   force =    -0.00000000    0.00019809   -0.96849822
     atom   17 type  1   force =    -0.00000009   -0.00000158    1.27424237
     atom   18 type  1   force =     0.00000000    0.00000331    1.27423406
     atom   19 type  2   force =    -0.00000002   -0.00020034   -0.96849900
     atom   20 type  2   force =     0.00000000    0.00019775   -0.96849508
     atom   21 type  1   force =    -0.00000009   -0.00000122    1.27423892
     atom   22 type  1   force =     0.00000000   -0.00001285    1.27421149
     atom   23 type  2   force =    -0.00000002   -0.00019642   -0.96849843
     atom   24 type  2   force =    -0.00000000    0.00019877   -0.96849482
     The core correction contribution to forces
     atom    1 type  1   force =    -0.00000001    0.00000476    0.01174238
     atom    2 type  1   force =    -0.00000000   -0.00000499    0.01174274
     atom    3 type  2   force =     0.00000000   -0.00000224    0.00117471
     atom    4 type  2   force =    -0.00000000    0.00000225    0.00117477
     atom    5 type  1   force =    -0.00000001    0.00000488    0.01174258
     atom    6 type  1   force =    -0.00000000   -0.00000475    0.01174258
     atom    7 type  2   force =     0.00000000   -0.00000226    0.00117478
     atom    8 type  2   force =    -0.00000000    0.00000224    0.00117474
     atom    9 type  1   force =    -0.00000001    0.00000474    0.01174236
     atom   10 type  1   force =    -0.00000000   -0.00000516    0.01174262
     atom   11 type  2   force =     0.00000000   -0.00000223    0.00117477
     atom   12 type  2   force =    -0.00000000    0.00000223    0.00117474
     atom   13 type  1   force =    -0.00000001    0.00000436    0.01174228
     atom   14 type  1   force =    -0.00000000   -0.00000415    0.01174267
     atom   15 type  2   force =     0.00000000   -0.00000231    0.00117473
     atom   16 type  2   force =    -0.00000000    0.00000231    0.00117480
     atom   17 type  1   force =    -0.00000001    0.00000428    0.01174205
     atom   18 type  1   force =    -0.00000000   -0.00000440    0.01174231
     atom   19 type  2   force =     0.00000000   -0.00000231    0.00117480
     atom   20 type  2   force =    -0.00000000    0.00000232    0.00117473
     atom   21 type  1   force =    -0.00000001    0.00000438    0.01174199
     atom   22 type  1   force =    -0.00000000   -0.00000401    0.01174265
     atom   23 type  2   force =     0.00000000   -0.00000233    0.00117477
     atom   24 type  2   force =    -0.00000000    0.00000233    0.00117476
     The Hubbard contrib.    to forces
     atom    1 type  1   force =     0.00000000    0.00000000    0.00000000
     atom    2 type  1   force =     0.00000000    0.00000000    0.00000000
     atom    3 type  2   force =     0.00000000    0.00000000    0.00000000
     atom    4 type  2   force =     0.00000000    0.00000000    0.00000000
     atom    5 type  1   force =     0.00000000    0.00000000    0.00000000
     atom    6 type  1   force =     0.00000000    0.00000000    0.00000000
     atom    7 type  2   force =     0.00000000    0.00000000    0.00000000
     atom    8 type  2   force =     0.00000000    0.00000000    0.00000000
     atom    9 type  1   force =     0.00000000    0.00000000    0.00000000
     atom   10 type  1   force =     0.00000000    0.00000000    0.00000000
     atom   11 type  2   force =     0.00000000    0.00000000    0.00000000
     atom   12 type  2   force =     0.00000000    0.00000000    0.00000000
     atom   13 type  1   force =     0.00000000    0.00000000    0.00000000
     atom   14 type  1   force =     0.00000000    0.00000000    0.00000000
     atom   15 type  2   force =     0.00000000    0.00000000    0.00000000
     atom   16 type  2   force =     0.00000000    0.00000000    0.00000000
     atom   17 type  1   force =     0.00000000    0.00000000    0.00000000
     atom   18 type  1   force =     0.00000000    0.00000000    0.00000000
     atom   19 type  2   force =     0.00000000    0.00000000    0.00000000
     atom   20 type  2   force =     0.00000000    0.00000000    0.00000000
     atom   21 type  1   force =     0.00000000    0.00000000    0.00000000
     atom   22 type  1   force =     0.00000000    0.00000000    0.00000000
     atom   23 type  2   force =     0.00000000    0.00000000    0.00000000
     atom   24 type  2   force =     0.00000000    0.00000000    0.00000000
     The SCF correction term to forces
     atom    1 type  1   force =    -0.00000000    0.00000672    0.00000025
     atom    2 type  1   force =     0.00000000   -0.00001456    0.00001093
     atom    3 type  2   force =    -0.00000000   -0.00000024    0.00000098
     atom    4 type  2   force =     0.00000000   -0.00000032    0.00000992
     atom    5 type  1   force =    -0.00000000    0.00000672   -0.00000137
     atom    6 type  1   force =     0.00000000   -0.00000490   -0.00000954
     atom    7 type  2   force =    -0.00000000   -0.00000195    0.00001227
     atom    8 type  2   force =     0.00000000   -0.00000129    0.00000324
     atom    9 type  1   force =    -0.00000000    0.00001265   -0.00001051
     atom   10 type  1   force =     0.00000000   -0.00002498    0.00001608
     atom   11 type  2   force =    -0.00000000    0.00000287    0.00000858
     atom   12 type  2   force =     0.00000000   -0.00000115    0.00000631
     atom   13 type  1   force =    -0.00000000   -0.00001048    0.00000033
     atom   14 type  1   force =     0.00000000    0.00001857    0.00001300
     atom   15 type  2   force =    -0.00000000   -0.00000066   -0.00000122
     atom   16 type  2   force =     0.00000000    0.00000108    0.00000989
     atom   17 type  1   force =    -0.00000000   -0.00001126   -0.00002447
     atom   18 type  1   force =     0.00000000    0.00000853   -0.00001608
     atom   19 type  2   force =    -0.00000000    0.00000138    0.00001046
     atom   20 type  2   force =     0.00000000    0.00000225    0.00000139
     atom   21 type  1   force =    -0.00000000   -0.00001244   -0.00002196
     atom   22 type  1   force =     0.00000000    0.00002947    0.00001228
     atom   23 type  2   force =    -0.00000000   -0.00000387    0.00000715
     atom   24 type  2   force =     0.00000000    0.00000106    0.00000337

     Total force =     0.054087     Total SCF correction =     0.000076

     General routines

     Parallel routines

   This run was terminated on:  23:52: 8  31Aug2025

   JOB DONE.
Note: The following floating-point exceptions are signalling: IEEE_UNDERFLOW_FLAG IEEE_DENORMAL
Note: The following floating-point exceptions are signalling: IEEE_UNDERFLOW_FLAG IEEE_DENORMAL
Note: The following floating-point exceptions are signalling: IEEE_UNDERFLOW_FLAG IEEE_DENORMAL
Note: The following floating-point exceptions are signalling: IEEE_UNDERFLOW_FLAG IEEE_DENORMAL
Note: The following floating-point exceptions are signalling: IEEE_UNDERFLOW_FLAG IEEE_DENORMAL
Note: The following floating-point exceptions are signalling: IEEE_UNDERFLOW_FLAG IEEE_DENORMAL
Note: The following floating-point exceptions are signalling: IEEE_UNDERFLOW_FLAG IEEE_DENORMAL
Note: The following floating-point exceptions are signalling: IEEE_UNDERFLOW_FLAG IEEE_DENORMAL
Note: The following floating-point exceptions are signalling: IEEE_UNDERFLOW_FLAG IEEE_DENORMAL
Note: The following floating-point exceptions are signalling: IEEE_UNDERFLOW_FLAG IEEE_DENORMAL
Note: The following floating-point exceptions are signalling: IEEE_UNDERFLOW_FLAG IEEE_DENORMAL
Note: The following floating-point exceptions are signalling: IEEE_UNDERFLOW_FLAG IEEE_DENORMAL
Note: The following floating-point exceptions are signalling: IEEE_UNDERFLOW_FLAG IEEE_DENORMAL
Note: The following floating-point exceptions are signalling: IEEE_UNDERFLOW_FLAG IEEE_DENORMAL
Note: The following floating-point exceptions are signalling: IEEE_UNDERFLOW_FLAG IEEE_DENORMAL
Note: The following floating-point exceptions are signalling: IEEE_UNDERFLOW_FLAG IEEE_DENORMAL
Note: The following floating-point exceptions are signalling: IEEE_UNDERFLOW_FLAG IEEE_DENORMAL
Note: The following floating-point exceptions are signalling: IEEE_UNDERFLOW_FLAG IEEE_DENORMAL
Note: The following floating-point exceptions are signalling: IEEE_UNDERFLOW_FLAG IEEE_DENORMAL
Note: The following floating-point exceptions are signalling: IEEE_UNDERFLOW_FLAG IEEE_DENORMAL
Note: The following floating-point exceptions are signalling: IEEE_UNDERFLOW_FLAG IEEE_DENORMAL
Note: The following floating-point exceptions are signalling: IEEE_UNDERFLOW_FLAG IEEE_DENORMAL
Note: The following floating-point exceptions are signalling: IEEE_UNDERFLOW_FLAG IEEE_DENORMAL
Note: The following floating-point exceptions are signalling: IEEE_UNDERFLOW_FLAG IEEE_DENORMAL
Note: The following floating-point exceptions are signalling: IEEE_UNDERFLOW_FLAG IEEE_DENORMAL
Note: The following floating-point exceptions are signalling: IEEE_UNDERFLOW_FLAG IEEE_DENORMAL
Note: The following floating-point exceptions are signalling: IEEE_UNDERFLOW_FLAG IEEE_DENORMAL
Note: The following floating-point exceptions are signalling: IEEE_UNDERFLOW_FLAG IEEE_DENORMAL
Note: The following floating-point exceptions are signalling: IEEE_UNDERFLOW_FLAG IEEE_DENORMAL
Note: The following floating-point exceptions are signalling: IEEE_UNDERFLOW_FLAG IEEE_DENORMAL
Note: The following floating-point exceptions are signalling: IEEE_UNDERFLOW_FLAG IEEE_DENORMAL
Note: The following floating-point exceptions are signalling: IEEE_UNDERFLOW_FLAG IEEE_DENORMAL