     Program PWSCF v.7.0 starts on  1Sep2025 at 11: 8:11

     K-points division:     npool     =       8
     R & G space division:  proc/nbgrp/npool/nimage =       4

     Reading input from /home/jvc/QEspresso7.2/ZnO_database/scripts/cell123.in/ZnO-3.53-1.65-123.in
Warning: card &CELL ignored
Warning: card / ignored
Warning: card &FCP ignored
Warning: card / ignored
Warning: card &RISM ignored
Warning: card / ignored

     Current dimensions of program PWSCF are:
     Max number of different atomic species (ntypx) = 10
     Max number of k-points (npk) =  40000
     Max angular momentum in pseudopotentials (lmaxx) =  4
     file Zn.upf: wavefunction(s)  3D renormalized
     Found identity + (  0.0000  0.0000  0.3333) symmetry
     This is a supercell, fractional translations are disabled
     Message from routine setup:
     using ibrav=0 with symmetry is DISCOURAGED, use correct ibrav instead

     Using Slab Decomposition

     bravais-lattice index     =            0
     lattice parameter (alat)  =       6.6732  a.u.
     unit-cell volume          =    2542.5943 (a.u.)^3
     number of atoms/cell      =           24
     number of atomic types    =            2
     number of electrons       =       216.00
     number of Kohn-Sham states=          108
     kinetic-energy cutoff     =      50.0000  Ry
     charge density cutoff     =     400.0000  Ry
     scf convergence threshold =      1.0E-08
     mixing beta               =       0.3000
     number of iterations used =            8  plain     mixing
     Exchange-correlation= PBE
                           (   1   4   3   4   0   0   0)

     celldm(1)=   6.673162  celldm(2)=   0.000000  celldm(3)=   0.000000
     celldm(4)=   0.000000  celldm(5)=   0.000000  celldm(6)=   0.000000

     crystal axes: (cart. coord. in units of alat)
               a(1) = (   1.000000   0.000000   0.000000 )
               a(2) = (  -1.000000   1.732051   0.000000 )
               a(3) = (   0.000000   0.000000   4.939937 )

     reciprocal axes: (cart. coord. in units 2 pi/alat)
               b(1) = (  1.000000  0.577350 -0.000000 )
               b(2) = (  0.000000  0.577350  0.000000 )
               b(3) = (  0.000000 -0.000000  0.202432 )

     PseudoPot. # 1 for Zn read from file:
     /home/jvc/QEspresso7.2/ZnO_database/pseudos/Zn.upf
     MD5 check sum: 7f56cabf9682ed8c977c2f7d0c5985c5
     Pseudo is Ultrasoft + core correction, Zval = 12.0
     Generated using &quot;atomic&quot; code by A. Dal Corso  v.6.2.2
     Using radial grid of 1201 points,  6 beta functions with:
                l(1) =   0
                l(2) =   0
                l(3) =   1
                l(4) =   1
                l(5) =   2
                l(6) =   2
     Q(r) pseudized with 0 coefficients

     PseudoPot. # 2 for O  read from file:
     /home/jvc/QEspresso7.2/ZnO_database/pseudos/O.upf
     MD5 check sum: 91400c9766925bcf19f520983a725ff0
     Pseudo is Ultrasoft + core correction, Zval =  6.0
     Generated using &quot;atomic&quot; code by A. Dal Corso  v.6.3MaX
     Using radial grid of 1095 points,  4 beta functions with:
                l(1) =   0
                l(2) =   0
                l(3) =   1
                l(4) =   1
     Q(r) pseudized with 0 coefficients

     atomic species   valence    mass     pseudopotential
        Zn            12.00    65.38000     Zn( 1.00)
        O              6.00    15.99900     O ( 1.00)

      2 Sym. Ops. (no inversion) found

                                    s                        frac. trans.

      isym =  1     identity

 cryst.   s( 1) = (     1          0          0      )
                  (     0          1          0      )
                  (     0          0          1      )

 cart.    s( 1) = (  1.0000000  0.0000000  0.0000000 )
                  (  0.0000000  1.0000000  0.0000000 )
                  (  0.0000000  0.0000000  1.0000000 )

      isym =  2     inv. 180 deg rotation - cart. axis [1,0,0]

 cryst.   s( 2) = (    -1          0          0      )
                  (     2          1          0      )
                  (     0          0          1      )

 cart.    s( 2) = ( -1.0000000  0.0000000  0.0000000 )
                  (  0.0000000  1.0000000  0.0000000 )
                  (  0.0000000  0.0000000  1.0000000 )

   Cartesian axes

     site n.     atom                  positions (alat units)
         1           Zn  tau(   1) = (   0.5000000   0.2886751   0.8243661  )
         2           Zn  tau(   2) = (   0.0000000   0.5773503   0.0010433  )
         3           O   tau(   3) = (   0.5000000   0.2886751   1.4485152  )
         4           O   tau(   4) = (   0.0000000   0.5773503   0.6251925  )
         5           Zn  tau(   5) = (   0.5000000   0.2886751   2.4710116  )
         6           Zn  tau(   6) = (   0.0000000   0.5773503   1.6476888  )
         7           O   tau(   7) = (   0.5000000   0.2886751   3.0951608  )
         8           O   tau(   8) = (   0.0000000   0.5773503   2.2718380  )
         9           Zn  tau(   9) = (   0.5000000   0.2886751   4.1176571  )
        10           Zn  tau(  10) = (   0.0000000   0.5773503   3.2943343  )
        11           O   tau(  11) = (   0.5000000   0.2886751   4.7418063  )
        12           O   tau(  12) = (   0.0000000   0.5773503   3.9184835  )
        13           Zn  tau(  13) = (   0.0000000   1.1547005   0.8243661  )
        14           Zn  tau(  14) = (  -0.5000000   1.4433757   0.0010433  )
        15           O   tau(  15) = (   0.0000000   1.1547005   1.4485152  )
        16           O   tau(  16) = (  -0.5000000   1.4433757   0.6251925  )
        17           Zn  tau(  17) = (   0.0000000   1.1547005   2.4710116  )
        18           Zn  tau(  18) = (  -0.5000000   1.4433757   1.6476888  )
        19           O   tau(  19) = (   0.0000000   1.1547005   3.0951608  )
        20           O   tau(  20) = (  -0.5000000   1.4433757   2.2718380  )
        21           Zn  tau(  21) = (   0.0000000   1.1547005   4.1176571  )
        22           Zn  tau(  22) = (  -0.5000000   1.4433757   3.2943343  )
        23           O   tau(  23) = (   0.0000000   1.1547005   4.7418063  )
        24           O   tau(  24) = (  -0.5000000   1.4433757   3.9184835  )

   Crystallographic axes

     site n.     atom                  positions (cryst. coord.)
         1           Zn  tau(   1) = (  0.6666667  0.1666667  0.1668779  )
         2           Zn  tau(   2) = (  0.3333333  0.3333333  0.0002112  )
         3           O   tau(   3) = (  0.6666667  0.1666667  0.2932255  )
         4           O   tau(   4) = (  0.3333333  0.3333333  0.1265588  )
         5           Zn  tau(   5) = (  0.6666667  0.1666667  0.5002112  )
         6           Zn  tau(   6) = (  0.3333333  0.3333333  0.3335445  )
         7           O   tau(   7) = (  0.6666667  0.1666667  0.6265588  )
         8           O   tau(   8) = (  0.3333333  0.3333333  0.4598921  )
         9           Zn  tau(   9) = (  0.6666667  0.1666667  0.8335445  )
        10           Zn  tau(  10) = (  0.3333333  0.3333333  0.6668779  )
        11           O   tau(  11) = (  0.6666667  0.1666667  0.9598921  )
        12           O   tau(  12) = (  0.3333333  0.3333333  0.7932255  )
        13           Zn  tau(  13) = (  0.6666667  0.6666667  0.1668779  )
        14           Zn  tau(  14) = (  0.3333333  0.8333333  0.0002112  )
        15           O   tau(  15) = (  0.6666667  0.6666667  0.2932255  )
        16           O   tau(  16) = (  0.3333333  0.8333333  0.1265588  )
        17           Zn  tau(  17) = (  0.6666667  0.6666667  0.5002112  )
        18           Zn  tau(  18) = (  0.3333333  0.8333333  0.3335445  )
        19           O   tau(  19) = (  0.6666667  0.6666667  0.6265588  )
        20           O   tau(  20) = (  0.3333333  0.8333333  0.4598921  )
        21           Zn  tau(  21) = (  0.6666667  0.6666667  0.8335445  )
        22           Zn  tau(  22) = (  0.3333333  0.8333333  0.6668779  )
        23           O   tau(  23) = (  0.6666667  0.6666667  0.9598921  )
        24           O   tau(  24) = (  0.3333333  0.8333333  0.7932255  )

     number of k points=    80
                       cart. coord. in units 2pi/alat
        k(    1) = (   0.0000000   0.0000000   0.0000000), wk =   0.0092593
        k(    2) = (   0.0000000   0.0000000   0.0337386), wk =   0.0185185
        k(    3) = (   0.0000000   0.0000000   0.0674772), wk =   0.0185185
        k(    4) = (   0.0000000   0.0000000  -0.1012159), wk =   0.0092593
        k(    5) = (   0.0000000   0.0962250   0.0000000), wk =   0.0185185
        k(    6) = (   0.0000000   0.0962250   0.0337386), wk =   0.0185185
        k(    7) = (   0.0000000   0.0962250   0.0674772), wk =   0.0185185
        k(    8) = (   0.0000000   0.0962250  -0.1012159), wk =   0.0185185
        k(    9) = (   0.0000000   0.1924501   0.0000000), wk =   0.0185185
        k(   10) = (   0.0000000   0.1924501   0.0337386), wk =   0.0185185
        k(   11) = (   0.0000000   0.1924501   0.0674772), wk =   0.0185185
        k(   12) = (   0.0000000   0.1924501  -0.1012159), wk =   0.0185185
        k(   13) = (   0.0000000  -0.2886751   0.0000000), wk =   0.0092593
        k(   14) = (   0.0000000  -0.2886751   0.0337386), wk =   0.0185185
        k(   15) = (   0.0000000  -0.2886751   0.0674772), wk =   0.0185185
        k(   16) = (   0.0000000  -0.2886751  -0.1012159), wk =   0.0092593
        k(   17) = (   0.1666667   0.0962250   0.0000000), wk =   0.0370370
        k(   18) = (   0.1666667   0.0962250   0.0337386), wk =   0.0370370
        k(   19) = (   0.1666667   0.0962250   0.0674772), wk =   0.0370370
        k(   20) = (   0.1666667   0.0962250  -0.1012159), wk =   0.0370370
        k(   21) = (   0.1666667   0.1924501   0.0000000), wk =   0.0370370
        k(   22) = (   0.1666667   0.1924501   0.0337386), wk =   0.0370370
        k(   23) = (   0.1666667   0.1924501   0.0674772), wk =   0.0370370
        k(   24) = (   0.1666667   0.1924501  -0.1012159), wk =   0.0370370
        k(   25) = (   0.1666667   0.2886751   0.0000000), wk =   0.0185185
        k(   26) = (   0.1666667   0.2886751   0.0337386), wk =   0.0370370
        k(   27) = (   0.1666667   0.2886751   0.0674772), wk =   0.0370370
        k(   28) = (   0.1666667   0.2886751  -0.1012159), wk =   0.0185185
        k(   29) = (   0.1666667   0.0000000   0.0000000), wk =   0.0185185
        k(   30) = (   0.1666667   0.0000000   0.0337386), wk =   0.0370370
        k(   31) = (   0.1666667   0.0000000   0.0674772), wk =   0.0370370
        k(   32) = (   0.1666667   0.0000000  -0.1012159), wk =   0.0185185
        k(   33) = (   0.3333333   0.1924501   0.0000000), wk =   0.0370370
        k(   34) = (   0.3333333   0.1924501   0.0337386), wk =   0.0370370
        k(   35) = (   0.3333333   0.1924501   0.0674772), wk =   0.0370370
        k(   36) = (   0.3333333   0.1924501  -0.1012159), wk =   0.0370370
        k(   37) = (   0.3333333   0.2886751   0.0000000), wk =   0.0185185
        k(   38) = (   0.3333333   0.2886751   0.0337386), wk =   0.0370370
        k(   39) = (   0.3333333   0.2886751   0.0674772), wk =   0.0370370
[...]

!    total energy              =   -2169.40175438 Ry
     estimated scf accuracy    <          9.3E-09 Ry

     The total energy is the sum of the following terms:
     one-electron contribution =   -1093.96879853 Ry
     hartree contribution      =     770.49991677 Ry
     xc contribution           =    -654.59609467 Ry
     ewald contribution        =   -1191.33677795 Ry

     convergence has been achieved in  36 iterations

     Forces acting on atoms (cartesian axes, Ry/au):

     atom    1 type  1   force =     0.00000000    0.00000344   -0.00151043
     atom    2 type  1   force =     0.00000000   -0.00000684   -0.00150389
     atom    3 type  2   force =     0.00000000    0.00000829    0.00151370
     atom    4 type  2   force =     0.00000000   -0.00000862    0.00151593
     atom    5 type  1   force =     0.00000000    0.00000432   -0.00150550
     atom    6 type  1   force =     0.00000000   -0.00000512   -0.00151039
     atom    7 type  2   force =     0.00000000    0.00000921    0.00149883
     atom    8 type  2   force =     0.00000000   -0.00000759    0.00150673
     atom    9 type  1   force =     0.00000000    0.00000470   -0.00150457
     atom   10 type  1   force =     0.00000000   -0.00000679   -0.00150332
     atom   11 type  2   force =     0.00000000    0.00000896    0.00150343
     atom   12 type  2   force =     0.00000000   -0.00000639    0.00149915
     atom   13 type  1   force =     0.00000000    0.00000753   -0.00151046
     atom   14 type  1   force =     0.00000000   -0.00000487   -0.00150415
     atom   15 type  2   force =     0.00000000    0.00000731    0.00151425
     atom   16 type  2   force =     0.00000000   -0.00000753    0.00151540
     atom   17 type  1   force =     0.00000000    0.00000705   -0.00150749
     atom   18 type  1   force =     0.00000000   -0.00000601   -0.00150970
     atom   19 type  2   force =     0.00000000    0.00000643    0.00150006
     atom   20 type  2   force =     0.00000000   -0.00000740    0.00150764
     atom   21 type  1   force =     0.00000000    0.00000685   -0.00150532
     atom   22 type  1   force =     0.00000000   -0.00000384   -0.00150215
     atom   23 type  2   force =     0.00000000    0.00000617    0.00150287
     atom   24 type  2   force =     0.00000000   -0.00000924    0.00149939
     The non-local contrib.  to forces
     atom    1 type  1   force =     0.00000000   -0.00001408    0.04427445
     atom    2 type  1   force =     0.00000000    0.00000947    0.04429205
     atom    3 type  2   force =     0.00000000    0.00023039    0.05789159
     atom    4 type  2   force =     0.00000000   -0.00022996    0.05789073
     atom    5 type  1   force =     0.00000000   -0.00001343    0.04428369
     atom    6 type  1   force =     0.00000000    0.00001158    0.04427467
     atom    7 type  2   force =     0.00000000    0.00022913    0.05788713
     atom    8 type  2   force =     0.00000000   -0.00022921    0.05788782
     atom    9 type  1   force =     0.00000000   -0.00001385    0.04429518
     atom   10 type  1   force =     0.00000000    0.00000621    0.04429460
     atom   11 type  2   force =     0.00000000    0.00023029    0.05788774
     atom   12 type  2   force =     0.00000000   -0.00022908    0.05788498
     atom   13 type  1   force =     0.00000000   -0.00000804    0.04427378
     atom   14 type  1   force =     0.00000000    0.00001332    0.04429198
     atom   15 type  2   force =     0.00000000    0.00022900    0.05789225
     atom   16 type  2   force =     0.00000000   -0.00022812    0.05789254
     atom   17 type  1   force =     0.00000000   -0.00000897    0.04427778
     atom   18 type  1   force =     0.00000000    0.00001095    0.04427548
     atom   19 type  2   force =     0.00000000    0.00022944    0.05788624
     atom   20 type  2   force =     0.00000000   -0.00022935    0.05788940
     atom   21 type  1   force =     0.00000000   -0.00000823    0.04429524
     atom   22 type  1   force =     0.00000000    0.00001624    0.04429554
     atom   23 type  2   force =     0.00000000    0.00022836    0.05788756
     atom   24 type  2   force =     0.00000000   -0.00022971    0.05788510
     The ionic contribution  to forces
     atom    1 type  1   force =    -0.00000000    0.00000001    0.39869710
     atom    2 type  1   force =     0.00000000    0.00000001    0.39869713
     atom    3 type  2   force =    -0.00000000    0.00000000   -0.39869711
     atom    4 type  2   force =     0.00000000    0.00000000   -0.39869712
     atom    5 type  1   force =    -0.00000000    0.00000001    0.39869713
     atom    6 type  1   force =     0.00000000    0.00000001    0.39869710
     atom    7 type  2   force =    -0.00000000    0.00000000   -0.39869712
     atom    8 type  2   force =     0.00000000    0.00000000   -0.39869710
     atom    9 type  1   force =    -0.00000000    0.00000001    0.39869710
     atom   10 type  1   force =     0.00000000    0.00000001    0.39869710
     atom   11 type  2   force =    -0.00000000    0.00000000   -0.39869710
     atom   12 type  2   force =     0.00000000    0.00000000   -0.39869711
     atom   13 type  1   force =     0.00000000   -0.00000001    0.39869710
     atom   14 type  1   force =    -0.00000000   -0.00000000    0.39869713
     atom   15 type  2   force =     0.00000000   -0.00000001   -0.39869711
     atom   16 type  2   force =    -0.00000000   -0.00000000   -0.39869712
     atom   17 type  1   force =     0.00000000   -0.00000001    0.39869713
     atom   18 type  1   force =    -0.00000000   -0.00000000    0.39869710
     atom   19 type  2   force =     0.00000000   -0.00000001   -0.39869712
     atom   20 type  2   force =    -0.00000000   -0.00000000   -0.39869710
     atom   21 type  1   force =     0.00000000   -0.00000001    0.39869710
     atom   22 type  1   force =    -0.00000000   -0.00000000    0.39869710
     atom   23 type  2   force =     0.00000000   -0.00000001   -0.39869710
     atom   24 type  2   force =    -0.00000000   -0.00000000   -0.39869711
     The local contribution  to forces
     atom    1 type  1   force =    -0.00000009    0.00001858   -0.44187246
     atom    2 type  1   force =    -0.00000000   -0.00000533   -0.44190053
     atom    3 type  2   force =    -0.00000002   -0.00021948    0.34286415
     atom    4 type  2   force =     0.00000000    0.00021967    0.34286619
     atom    5 type  1   force =    -0.00000009    0.00001539   -0.44188965
     atom    6 type  1   force =     0.00000000   -0.00001104   -0.44187432
     atom    7 type  2   force =    -0.00000002   -0.00021539    0.34283845
     atom    8 type  2   force =    -0.00000000    0.00021920    0.34285385
     atom    9 type  1   force =    -0.00000009    0.00001518   -0.44190690
     atom   10 type  1   force =     0.00000000    0.00000160   -0.44190595
     atom   11 type  2   force =    -0.00000002   -0.00021721    0.34284584
     atom   12 type  2   force =    -0.00000000    0.00022201    0.34284223
     atom   13 type  1   force =     0.00000000    0.00000015   -0.44187035
     atom   14 type  1   force =    -0.00000000   -0.00001405   -0.44190548
     atom   15 type  2   force =     0.00000000   -0.00021957    0.34286384
     atom   16 type  2   force =     0.00000000    0.00021727    0.34286228
     atom   17 type  1   force =     0.00000000    0.00000386   -0.44187683
     atom   18 type  1   force =     0.00000000   -0.00000816   -0.44187639
     atom   19 type  2   force =     0.00000000   -0.00022225    0.34284086
     atom   20 type  2   force =     0.00000000    0.00022002    0.34285358
     atom   21 type  1   force =     0.00000000    0.00000325   -0.44190578
     atom   22 type  1   force =    -0.00000000   -0.00002066   -0.44190999
     atom   23 type  2   force =     0.00000000   -0.00022113    0.34284492
     atom   24 type  2   force =    -0.00000000    0.00021644    0.34284323
     The core correction contribution to forces
     atom    1 type  1   force =    -0.00000001    0.00000674   -0.00259469
     atom    2 type  1   force =     0.00000000   -0.00000723   -0.00259459
     atom    3 type  2   force =     0.00000000   -0.00000260   -0.00053799
     atom    4 type  2   force =    -0.00000000    0.00000260   -0.00053797
     atom    5 type  1   force =    -0.00000001    0.00000695   -0.00259430
     atom    6 type  1   force =     0.00000000   -0.00000706   -0.00259444
     atom    7 type  2   force =     0.00000000   -0.00000258   -0.00053796
     atom    8 type  2   force =    -0.00000000    0.00000258   -0.00053795
     atom    9 type  1   force =    -0.00000001    0.00000701   -0.00259413
     atom   10 type  1   force =     0.00000000   -0.00000754   -0.00259417
     atom   11 type  2   force =     0.00000000   -0.00000260   -0.00053795
     atom   12 type  2   force =    -0.00000000    0.00000259   -0.00053791
     atom   13 type  1   force =     0.00000000    0.00000755   -0.00259469
     atom   14 type  1   force =    -0.00000000   -0.00000709   -0.00259409
     atom   15 type  2   force =     0.00000000   -0.00000258   -0.00053800
     atom   16 type  2   force =    -0.00000000    0.00000257   -0.00053800
     atom   17 type  1   force =     0.00000000    0.00000735   -0.00259474
     atom   18 type  1   force =    -0.00000000   -0.00000726   -0.00259431
     atom   19 type  2   force =     0.00000000   -0.00000259   -0.00053794
     atom   20 type  2   force =    -0.00000000    0.00000259   -0.00053797
     atom   21 type  1   force =     0.00000000    0.00000727   -0.00259425
     atom   22 type  1   force =    -0.00000000   -0.00000678   -0.00259389
     atom   23 type  2   force =     0.00000000   -0.00000258   -0.00053794
     atom   24 type  2   force =    -0.00000000    0.00000259   -0.00053791
     The Hubbard contrib.    to forces
     atom    1 type  1   force =     0.00000000    0.00000000    0.00000000
     atom    2 type  1   force =     0.00000000    0.00000000    0.00000000
     atom    3 type  2   force =     0.00000000    0.00000000    0.00000000
     atom    4 type  2   force =     0.00000000    0.00000000    0.00000000
     atom    5 type  1   force =     0.00000000    0.00000000    0.00000000
     atom    6 type  1   force =     0.00000000    0.00000000    0.00000000
     atom    7 type  2   force =     0.00000000    0.00000000    0.00000000
     atom    8 type  2   force =     0.00000000    0.00000000    0.00000000
     atom    9 type  1   force =     0.00000000    0.00000000    0.00000000
     atom   10 type  1   force =     0.00000000    0.00000000    0.00000000
     atom   11 type  2   force =     0.00000000    0.00000000    0.00000000
     atom   12 type  2   force =     0.00000000    0.00000000    0.00000000
     atom   13 type  1   force =     0.00000000    0.00000000    0.00000000
     atom   14 type  1   force =     0.00000000    0.00000000    0.00000000
     atom   15 type  2   force =     0.00000000    0.00000000    0.00000000
     atom   16 type  2   force =     0.00000000    0.00000000    0.00000000
     atom   17 type  1   force =     0.00000000    0.00000000    0.00000000
     atom   18 type  1   force =     0.00000000    0.00000000    0.00000000
     atom   19 type  2   force =     0.00000000    0.00000000    0.00000000
     atom   20 type  2   force =     0.00000000    0.00000000    0.00000000
     atom   21 type  1   force =     0.00000000    0.00000000    0.00000000
     atom   22 type  1   force =     0.00000000    0.00000000    0.00000000
     atom   23 type  2   force =     0.00000000    0.00000000    0.00000000
     atom   24 type  2   force =     0.00000000    0.00000000    0.00000000
     The SCF correction term to forces
     atom    1 type  1   force =    -0.00000000   -0.00000771   -0.00001639
     atom    2 type  1   force =     0.00000000   -0.00000366    0.00000048
     atom    3 type  2   force =    -0.00000000    0.00000007   -0.00000849
     atom    4 type  2   force =     0.00000000   -0.00000084   -0.00000747
     atom    5 type  1   force =    -0.00000000   -0.00000450   -0.00000393
     atom    6 type  1   force =     0.00000000    0.00000149   -0.00001496
     atom    7 type  2   force =    -0.00000000   -0.00000186    0.00000676
     atom    8 type  2   force =     0.00000000   -0.00000008   -0.00000145
     atom    9 type  1   force =    -0.00000000   -0.00000356    0.00000262
     atom   10 type  1   force =     0.00000000   -0.00000697    0.00000353
     atom   11 type  2   force =    -0.00000000   -0.00000143    0.00000333
     atom   12 type  2   force =     0.00000000   -0.00000183    0.00000539
     atom   13 type  1   force =     0.00000000    0.00000798   -0.00001787
     atom   14 type  1   force =    -0.00000000    0.00000304    0.00000474
     atom   15 type  2   force =     0.00000000    0.00000055   -0.00000830
     atom   16 type  2   force =    -0.00000000    0.00000085   -0.00000586
     atom   17 type  1   force =     0.00000000    0.00000490   -0.00001240
     atom   18 type  1   force =    -0.00000000   -0.00000145   -0.00001314
     atom   19 type  2   force =     0.00000000    0.00000193    0.00000646
     atom   20 type  2   force =    -0.00000000   -0.00000056   -0.00000183
     atom   21 type  1   force =     0.00000000    0.00000466    0.00000080
     atom   22 type  1   force =    -0.00000000    0.00000746    0.00000753
     atom   23 type  2   force =     0.00000000    0.00000161    0.00000387
     atom   24 type  2   force =    -0.00000000    0.00000153    0.00000452

     Total force =     0.007380     Total SCF correction =     0.000045

     General routines

     Parallel routines

   This run was terminated on:  11:51:42   1Sep2025

   JOB DONE.
Note: The following floating-point exceptions are signalling: IEEE_UNDERFLOW_FLAG IEEE_DENORMAL
Note: The following floating-point exceptions are signalling: IEEE_UNDERFLOW_FLAG IEEE_DENORMAL
Note: The following floating-point exceptions are signalling: IEEE_UNDERFLOW_FLAG IEEE_DENORMAL
Note: The following floating-point exceptions are signalling: IEEE_UNDERFLOW_FLAG IEEE_DENORMAL
Note: The following floating-point exceptions are signalling: IEEE_UNDERFLOW_FLAG IEEE_DENORMAL
Note: The following floating-point exceptions are signalling: IEEE_UNDERFLOW_FLAG IEEE_DENORMAL
Note: The following floating-point exceptions are signalling: IEEE_UNDERFLOW_FLAG IEEE_DENORMAL
Note: The following floating-point exceptions are signalling: IEEE_UNDERFLOW_FLAG IEEE_DENORMAL
Note: The following floating-point exceptions are signalling: IEEE_UNDERFLOW_FLAG IEEE_DENORMAL
Note: The following floating-point exceptions are signalling: IEEE_UNDERFLOW_FLAG IEEE_DENORMAL
Note: The following floating-point exceptions are signalling: IEEE_UNDERFLOW_FLAG IEEE_DENORMAL
Note: The following floating-point exceptions are signalling: IEEE_UNDERFLOW_FLAG IEEE_DENORMAL
Note: The following floating-point exceptions are signalling: IEEE_UNDERFLOW_FLAG IEEE_DENORMAL
Note: The following floating-point exceptions are signalling: IEEE_UNDERFLOW_FLAG IEEE_DENORMAL
Note: The following floating-point exceptions are signalling: IEEE_UNDERFLOW_FLAG IEEE_DENORMAL
Note: The following floating-point exceptions are signalling: IEEE_UNDERFLOW_FLAG IEEE_DENORMAL
Note: The following floating-point exceptions are signalling: IEEE_UNDERFLOW_FLAG IEEE_DENORMAL
Note: The following floating-point exceptions are signalling: IEEE_UNDERFLOW_FLAG IEEE_DENORMAL
Note: The following floating-point exceptions are signalling: IEEE_UNDERFLOW_FLAG IEEE_DENORMAL
Note: The following floating-point exceptions are signalling: IEEE_UNDERFLOW_FLAG IEEE_DENORMAL
Note: The following floating-point exceptions are signalling: IEEE_UNDERFLOW_FLAG IEEE_DENORMAL
Note: The following floating-point exceptions are signalling: IEEE_UNDERFLOW_FLAG IEEE_DENORMAL
Note: The following floating-point exceptions are signalling: IEEE_UNDERFLOW_FLAG IEEE_DENORMAL
Note: The following floating-point exceptions are signalling: IEEE_UNDERFLOW_FLAG IEEE_DENORMAL
Note: The following floating-point exceptions are signalling: IEEE_UNDERFLOW_FLAG IEEE_DENORMAL
Note: The following floating-point exceptions are signalling: IEEE_UNDERFLOW_FLAG IEEE_DENORMAL
Note: The following floating-point exceptions are signalling: IEEE_UNDERFLOW_FLAG IEEE_DENORMAL
Note: The following floating-point exceptions are signalling: IEEE_UNDERFLOW_FLAG IEEE_DENORMAL
Note: The following floating-point exceptions are signalling: IEEE_UNDERFLOW_FLAG IEEE_DENORMAL
Note: The following floating-point exceptions are signalling: IEEE_UNDERFLOW_FLAG IEEE_DENORMAL
Note: The following floating-point exceptions are signalling: IEEE_UNDERFLOW_FLAG IEEE_DENORMAL
Note: The following floating-point exceptions are signalling: IEEE_UNDERFLOW_FLAG IEEE_DENORMAL