     Program PWSCF v.7.0 starts on  1Sep2025 at 14:19:46

     K-points division:     npool     =       8
     R & G space division:  proc/nbgrp/npool/nimage =       4

     Reading input from /home/jvc/QEspresso7.2/ZnO_database/scripts/cell123.in/ZnO-3.60-1.49-123.in
Warning: card &CELL ignored
Warning: card / ignored
Warning: card &FCP ignored
Warning: card / ignored
Warning: card &RISM ignored
Warning: card / ignored

     Current dimensions of program PWSCF are:
     Max number of different atomic species (ntypx) = 10
     Max number of k-points (npk) =  40000
     Max angular momentum in pseudopotentials (lmaxx) =  4
     file Zn.upf: wavefunction(s)  3D renormalized
     Found identity + (  0.0000  0.0000  0.3333) symmetry
     This is a supercell, fractional translations are disabled
     Message from routine setup:
     using ibrav=0 with symmetry is DISCOURAGED, use correct ibrav instead

     Using Slab Decomposition

     bravais-lattice index     =            0
     lattice parameter (alat)  =       6.7967  a.u.
     unit-cell volume          =    2423.1009 (a.u.)^3
     number of atoms/cell      =           24
     number of atomic types    =            2
     number of electrons       =       216.00
     number of Kohn-Sham states=          108
     kinetic-energy cutoff     =      50.0000  Ry
     charge density cutoff     =     400.0000  Ry
     scf convergence threshold =      1.0E-08
     mixing beta               =       0.3000
     number of iterations used =            8  plain     mixing
     Exchange-correlation= PBE
                           (   1   4   3   4   0   0   0)

     celldm(1)=   6.796739  celldm(2)=   0.000000  celldm(3)=   0.000000
     celldm(4)=   0.000000  celldm(5)=   0.000000  celldm(6)=   0.000000

     crystal axes: (cart. coord. in units of alat)
               a(1) = (   1.000000   0.000000   0.000000 )
               a(2) = (  -1.000000   1.732051   0.000000 )
               a(3) = (   0.000000   0.000000   4.455629 )

     reciprocal axes: (cart. coord. in units 2 pi/alat)
               b(1) = (  1.000000  0.577350 -0.000000 )
               b(2) = (  0.000000  0.577350  0.000000 )
               b(3) = (  0.000000 -0.000000  0.224435 )

     PseudoPot. # 1 for Zn read from file:
     /home/jvc/QEspresso7.2/ZnO_database/pseudos/Zn.upf
     MD5 check sum: 7f56cabf9682ed8c977c2f7d0c5985c5
     Pseudo is Ultrasoft + core correction, Zval = 12.0
     Generated using &quot;atomic&quot; code by A. Dal Corso  v.6.2.2
     Using radial grid of 1201 points,  6 beta functions with:
                l(1) =   0
                l(2) =   0
                l(3) =   1
                l(4) =   1
                l(5) =   2
                l(6) =   2
     Q(r) pseudized with 0 coefficients

     PseudoPot. # 2 for O  read from file:
     /home/jvc/QEspresso7.2/ZnO_database/pseudos/O.upf
     MD5 check sum: 91400c9766925bcf19f520983a725ff0
     Pseudo is Ultrasoft + core correction, Zval =  6.0
     Generated using &quot;atomic&quot; code by A. Dal Corso  v.6.3MaX
     Using radial grid of 1095 points,  4 beta functions with:
                l(1) =   0
                l(2) =   0
                l(3) =   1
                l(4) =   1
     Q(r) pseudized with 0 coefficients

     atomic species   valence    mass     pseudopotential
        Zn            12.00    65.38000     Zn( 1.00)
        O              6.00    15.99900     O ( 1.00)

      2 Sym. Ops. (no inversion) found

                                    s                        frac. trans.

      isym =  1     identity

 cryst.   s( 1) = (     1          0          0      )
                  (     0          1          0      )
                  (     0          0          1      )

 cart.    s( 1) = (  1.0000000  0.0000000  0.0000000 )
                  (  0.0000000  1.0000000  0.0000000 )
                  (  0.0000000  0.0000000  1.0000000 )

      isym =  2     inv. 180 deg rotation - cart. axis [1,0,0]

 cryst.   s( 2) = (    -1          0          0      )
                  (     2          1          0      )
                  (     0          0          1      )

 cart.    s( 2) = ( -1.0000000  0.0000000  0.0000000 )
                  (  0.0000000  1.0000000  0.0000000 )
                  (  0.0000000  0.0000000  1.0000000 )

   Cartesian axes

     site n.     atom                  positions (alat units)
         1           Zn  tau(   1) = (   0.5000000   0.2886751   0.7435459  )
         2           Zn  tau(   2) = (   0.0000000   0.5773503   0.0009410  )
         3           O   tau(   3) = (   0.5000000   0.2886751   1.3065039  )
         4           O   tau(   4) = (   0.0000000   0.5773503   0.5638991  )
         5           Zn  tau(   5) = (   0.5000000   0.2886751   2.2287555  )
         6           Zn  tau(   6) = (   0.0000000   0.5773503   1.4861507  )
         7           O   tau(   7) = (   0.5000000   0.2886751   2.7917136  )
         8           O   tau(   8) = (   0.0000000   0.5773503   2.0491088  )
         9           Zn  tau(   9) = (   0.5000000   0.2886751   3.7139652  )
        10           Zn  tau(  10) = (   0.0000000   0.5773503   2.9713604  )
        11           O   tau(  11) = (   0.5000000   0.2886751   4.2769233  )
        12           O   tau(  12) = (   0.0000000   0.5773503   3.5343185  )
        13           Zn  tau(  13) = (   0.0000000   1.1547005   0.7435459  )
        14           Zn  tau(  14) = (  -0.5000000   1.4433757   0.0009410  )
        15           O   tau(  15) = (   0.0000000   1.1547005   1.3065039  )
        16           O   tau(  16) = (  -0.5000000   1.4433757   0.5638991  )
        17           Zn  tau(  17) = (   0.0000000   1.1547005   2.2287555  )
        18           Zn  tau(  18) = (  -0.5000000   1.4433757   1.4861507  )
        19           O   tau(  19) = (   0.0000000   1.1547005   2.7917136  )
        20           O   tau(  20) = (  -0.5000000   1.4433757   2.0491088  )
        21           Zn  tau(  21) = (   0.0000000   1.1547005   3.7139652  )
        22           Zn  tau(  22) = (  -0.5000000   1.4433757   2.9713604  )
        23           O   tau(  23) = (   0.0000000   1.1547005   4.2769233  )
        24           O   tau(  24) = (  -0.5000000   1.4433757   3.5343185  )

   Crystallographic axes

     site n.     atom                  positions (cryst. coord.)
         1           Zn  tau(   1) = (  0.6666667  0.1666667  0.1668779  )
         2           Zn  tau(   2) = (  0.3333333  0.3333333  0.0002112  )
         3           O   tau(   3) = (  0.6666667  0.1666667  0.2932255  )
         4           O   tau(   4) = (  0.3333333  0.3333333  0.1265588  )
         5           Zn  tau(   5) = (  0.6666667  0.1666667  0.5002112  )
         6           Zn  tau(   6) = (  0.3333333  0.3333333  0.3335445  )
         7           O   tau(   7) = (  0.6666667  0.1666667  0.6265588  )
         8           O   tau(   8) = (  0.3333333  0.3333333  0.4598921  )
         9           Zn  tau(   9) = (  0.6666667  0.1666667  0.8335445  )
        10           Zn  tau(  10) = (  0.3333333  0.3333333  0.6668779  )
        11           O   tau(  11) = (  0.6666667  0.1666667  0.9598921  )
        12           O   tau(  12) = (  0.3333333  0.3333333  0.7932255  )
        13           Zn  tau(  13) = (  0.6666667  0.6666667  0.1668779  )
        14           Zn  tau(  14) = (  0.3333333  0.8333333  0.0002112  )
        15           O   tau(  15) = (  0.6666667  0.6666667  0.2932255  )
        16           O   tau(  16) = (  0.3333333  0.8333333  0.1265588  )
        17           Zn  tau(  17) = (  0.6666667  0.6666667  0.5002112  )
        18           Zn  tau(  18) = (  0.3333333  0.8333333  0.3335445  )
        19           O   tau(  19) = (  0.6666667  0.6666667  0.6265588  )
        20           O   tau(  20) = (  0.3333333  0.8333333  0.4598921  )
        21           Zn  tau(  21) = (  0.6666667  0.6666667  0.8335445  )
        22           Zn  tau(  22) = (  0.3333333  0.8333333  0.6668779  )
        23           O   tau(  23) = (  0.6666667  0.6666667  0.9598921  )
        24           O   tau(  24) = (  0.3333333  0.8333333  0.7932255  )

     number of k points=    80
                       cart. coord. in units 2pi/alat
        k(    1) = (   0.0000000   0.0000000   0.0000000), wk =   0.0092593
        k(    2) = (   0.0000000   0.0000000   0.0374059), wk =   0.0185185
        k(    3) = (   0.0000000   0.0000000   0.0748117), wk =   0.0185185
        k(    4) = (   0.0000000   0.0000000  -0.1122176), wk =   0.0092593
        k(    5) = (   0.0000000   0.0962250   0.0000000), wk =   0.0185185
        k(    6) = (   0.0000000   0.0962250   0.0374059), wk =   0.0185185
        k(    7) = (   0.0000000   0.0962250   0.0748117), wk =   0.0185185
        k(    8) = (   0.0000000   0.0962250  -0.1122176), wk =   0.0185185
        k(    9) = (   0.0000000   0.1924501   0.0000000), wk =   0.0185185
        k(   10) = (   0.0000000   0.1924501   0.0374059), wk =   0.0185185
        k(   11) = (   0.0000000   0.1924501   0.0748117), wk =   0.0185185
        k(   12) = (   0.0000000   0.1924501  -0.1122176), wk =   0.0185185
        k(   13) = (   0.0000000  -0.2886751   0.0000000), wk =   0.0092593
        k(   14) = (   0.0000000  -0.2886751   0.0374059), wk =   0.0185185
        k(   15) = (   0.0000000  -0.2886751   0.0748117), wk =   0.0185185
        k(   16) = (   0.0000000  -0.2886751  -0.1122176), wk =   0.0092593
        k(   17) = (   0.1666667   0.0962250   0.0000000), wk =   0.0370370
        k(   18) = (   0.1666667   0.0962250   0.0374059), wk =   0.0370370
        k(   19) = (   0.1666667   0.0962250   0.0748117), wk =   0.0370370
        k(   20) = (   0.1666667   0.0962250  -0.1122176), wk =   0.0370370
        k(   21) = (   0.1666667   0.1924501   0.0000000), wk =   0.0370370
        k(   22) = (   0.1666667   0.1924501   0.0374059), wk =   0.0370370
        k(   23) = (   0.1666667   0.1924501   0.0748117), wk =   0.0370370
        k(   24) = (   0.1666667   0.1924501  -0.1122176), wk =   0.0370370
        k(   25) = (   0.1666667   0.2886751   0.0000000), wk =   0.0185185
        k(   26) = (   0.1666667   0.2886751   0.0374059), wk =   0.0370370
        k(   27) = (   0.1666667   0.2886751   0.0748117), wk =   0.0370370
        k(   28) = (   0.1666667   0.2886751  -0.1122176), wk =   0.0185185
        k(   29) = (   0.1666667   0.0000000   0.0000000), wk =   0.0185185
        k(   30) = (   0.1666667   0.0000000   0.0374059), wk =   0.0370370
        k(   31) = (   0.1666667   0.0000000   0.0748117), wk =   0.0370370
        k(   32) = (   0.1666667   0.0000000  -0.1122176), wk =   0.0185185
        k(   33) = (   0.3333333   0.1924501   0.0000000), wk =   0.0370370
        k(   34) = (   0.3333333   0.1924501   0.0374059), wk =   0.0370370
        k(   35) = (   0.3333333   0.1924501   0.0748117), wk =   0.0370370
        k(   36) = (   0.3333333   0.1924501  -0.1122176), wk =   0.0370370
        k(   37) = (   0.3333333   0.2886751   0.0000000), wk =   0.0185185
        k(   38) = (   0.3333333   0.2886751   0.0374059), wk =   0.0370370
        k(   39) = (   0.3333333   0.2886751   0.0748117), wk =   0.0370370
[...]

!    total energy              =   -2169.50512902 Ry
     estimated scf accuracy    <          7.9E-09 Ry

     The total energy is the sum of the following terms:
     one-electron contribution =   -1068.53466831 Ry
     hartree contribution      =     761.80645355 Ry
     xc contribution           =    -655.10629271 Ry
     ewald contribution        =   -1207.67062156 Ry

     convergence has been achieved in  32 iterations

     Forces acting on atoms (cartesian axes, Ry/au):

     atom    1 type  1   force =     0.00000000   -0.00000353   -0.00603612
     atom    2 type  1   force =     0.00000000   -0.00000440   -0.00603037
     atom    3 type  2   force =     0.00000000    0.00000262    0.00602455
     atom    4 type  2   force =     0.00000000   -0.00000224    0.00602863
     atom    5 type  1   force =     0.00000000   -0.00000780   -0.00601554
     atom    6 type  1   force =     0.00000000    0.00000036   -0.00602882
     atom    7 type  2   force =     0.00000000    0.00000294    0.00602528
     atom    8 type  2   force =     0.00000000   -0.00000220    0.00602625
     atom    9 type  1   force =     0.00000000   -0.00000396   -0.00602340
     atom   10 type  1   force =     0.00000000   -0.00000326   -0.00602160
     atom   11 type  2   force =     0.00000000    0.00000296    0.00602684
     atom   12 type  2   force =     0.00000000   -0.00000196    0.00602388
     atom   13 type  1   force =     0.00000000    0.00000266   -0.00603416
     atom   14 type  1   force =     0.00000000    0.00000556   -0.00602850
     atom   15 type  2   force =     0.00000000    0.00000216    0.00602438
     atom   16 type  2   force =     0.00000000   -0.00000259    0.00602794
     atom   17 type  1   force =     0.00000000    0.00000697   -0.00601939
     atom   18 type  1   force =     0.00000000    0.00000035   -0.00602318
     atom   19 type  2   force =     0.00000000    0.00000191    0.00602615
     atom   20 type  2   force =     0.00000000   -0.00000243    0.00602502
     atom   21 type  1   force =     0.00000000    0.00000288   -0.00602706
     atom   22 type  1   force =     0.00000000    0.00000429   -0.00602183
     atom   23 type  2   force =     0.00000000    0.00000173    0.00602772
     atom   24 type  2   force =     0.00000000   -0.00000302    0.00602333
     The non-local contrib.  to forces
     atom    1 type  1   force =     0.00000000   -0.00001649   -0.22335157
     atom    2 type  1   force =     0.00000000    0.00001041   -0.22334475
     atom    3 type  2   force =     0.00000000    0.00020286   -0.20042853
     atom    4 type  2   force =     0.00000000   -0.00020110   -0.20042147
     atom    5 type  1   force =     0.00000000   -0.00001878   -0.22333458
     atom    6 type  1   force =     0.00000000    0.00001344   -0.22334964
     atom    7 type  2   force =     0.00000000    0.00020278   -0.20043031
     atom    8 type  2   force =     0.00000000   -0.00020123   -0.20042919
     atom    9 type  1   force =     0.00000000   -0.00001706   -0.22334624
     atom   10 type  1   force =     0.00000000    0.00001089   -0.22333890
     atom   11 type  2   force =     0.00000000    0.00020208   -0.20042481
     atom   12 type  2   force =     0.00000000   -0.00019995   -0.20043091
     atom   13 type  1   force =     0.00000000   -0.00001154   -0.22334998
     atom   14 type  1   force =     0.00000000    0.00001787   -0.22334485
     atom   15 type  2   force =     0.00000000    0.00019951   -0.20042903
     atom   16 type  2   force =     0.00000000   -0.00020134   -0.20042296
     atom   17 type  1   force =     0.00000000   -0.00000922   -0.22333635
     atom   18 type  1   force =     0.00000000    0.00001447   -0.22334697
     atom   19 type  2   force =     0.00000000    0.00019967   -0.20042847
     atom   20 type  2   force =     0.00000000   -0.00020101   -0.20042988
     atom   21 type  1   force =     0.00000000   -0.00001104   -0.22334752
     atom   22 type  1   force =     0.00000000    0.00001717   -0.22334020
     atom   23 type  2   force =     0.00000000    0.00020033   -0.20042430
     atom   24 type  2   force =     0.00000000   -0.00020254   -0.20043119
     The ionic contribution  to forces
     atom    1 type  1   force =    -0.00000000    0.00000002   -1.44493108
     atom    2 type  1   force =     0.00000000    0.00000001   -1.44493105
     atom    3 type  2   force =    -0.00000000    0.00000001    1.44493107
     atom    4 type  2   force =     0.00000000    0.00000001    1.44493106
     atom    5 type  1   force =    -0.00000000    0.00000002   -1.44493104
     atom    6 type  1   force =     0.00000000    0.00000001   -1.44493108
     atom    7 type  2   force =    -0.00000000    0.00000001    1.44493105
     atom    8 type  2   force =     0.00000000    0.00000001    1.44493108
     atom    9 type  1   force =    -0.00000000    0.00000002   -1.44493108
     atom   10 type  1   force =     0.00000000    0.00000001   -1.44493108
     atom   11 type  2   force =    -0.00000000    0.00000001    1.44493108
     atom   12 type  2   force =     0.00000000    0.00000001    1.44493107
     atom   13 type  1   force =    -0.00000000   -0.00000001   -1.44493108
     atom   14 type  1   force =     0.00000000   -0.00000002   -1.44493104
     atom   15 type  2   force =    -0.00000000   -0.00000001    1.44493107
     atom   16 type  2   force =     0.00000000   -0.00000001    1.44493105
     atom   17 type  1   force =    -0.00000000   -0.00000001   -1.44493105
     atom   18 type  1   force =     0.00000000   -0.00000002   -1.44493108
     atom   19 type  2   force =    -0.00000000   -0.00000001    1.44493106
     atom   20 type  2   force =     0.00000000   -0.00000001    1.44493108
     atom   21 type  1   force =    -0.00000000   -0.00000001   -1.44493108
     atom   22 type  1   force =     0.00000000   -0.00000002   -1.44493108
     atom   23 type  2   force =    -0.00000000   -0.00000001    1.44493108
     atom   24 type  2   force =     0.00000000   -0.00000001    1.44493107
     The local contribution  to forces
     atom    1 type  1   force =    -0.00000010    0.00001538    1.64828365
     atom    2 type  1   force =    -0.00000000    0.00000081    1.64828132
     atom    3 type  2   force =    -0.00000003   -0.00019625   -1.24018583
     atom    4 type  2   force =     0.00000000    0.00019806   -1.24018298
     atom    5 type  1   force =    -0.00000010    0.00002339    1.64825403
     atom    6 type  1   force =     0.00000000   -0.00000859    1.64827748
     atom    7 type  2   force =    -0.00000003   -0.00019425   -1.24019208
     atom    8 type  2   force =     0.00000000    0.00019776   -1.24018807
     atom    9 type  1   force =    -0.00000010    0.00001627    1.64826569
     atom   10 type  1   force =     0.00000000   -0.00000162    1.64825642
     atom   11 type  2   force =    -0.00000003   -0.00019486   -1.24018214
     atom   12 type  2   force =     0.00000000    0.00019792   -1.24018726
     atom   13 type  1   force =    -0.00000000    0.00000267    1.64828018
     atom   14 type  1   force =     0.00000010   -0.00001927    1.64827762
     atom   15 type  2   force =     0.00000000   -0.00019682   -1.24018637
     atom   16 type  2   force =     0.00000003    0.00019466   -1.24018315
     atom   17 type  1   force =     0.00000000   -0.00000533    1.64826174
     atom   18 type  1   force =     0.00000010   -0.00000923    1.64826546
     atom   19 type  2   force =    -0.00000000   -0.00019834   -1.24019159
     atom   20 type  2   force =     0.00000003    0.00019532   -1.24018998
     atom   21 type  1   force =    -0.00000000    0.00000187    1.64827312
     atom   22 type  1   force =     0.00000010   -0.00001657    1.64825610
     atom   23 type  2   force =    -0.00000000   -0.00019817   -1.24018124
     atom   24 type  2   force =     0.00000003    0.00019478   -1.24018747
     The core correction contribution to forces
     atom    1 type  1   force =    -0.00000001    0.00000428    0.01398557
     atom    2 type  1   force =     0.00000000   -0.00000457    0.01398543
     atom    3 type  2   force =     0.00000000   -0.00000231    0.00170837
     atom    4 type  2   force =     0.00000000    0.00000228    0.00170816
     atom    5 type  1   force =    -0.00000001    0.00000406    0.01398590
     atom    6 type  1   force =     0.00000000   -0.00000433    0.01398821
     atom    7 type  2   force =     0.00000000   -0.00000230    0.00170826
     atom    8 type  2   force =     0.00000000    0.00000228    0.00170677
     atom    9 type  1   force =    -0.00000001    0.00000428    0.01398842
     atom   10 type  1   force =     0.00000000   -0.00000446    0.01398566
     atom   11 type  2   force =     0.00000000   -0.00000229    0.00170670
     atom   12 type  2   force =     0.00000000    0.00000227    0.00170840
     atom   13 type  1   force =    -0.00000000    0.00000448    0.01398558
     atom   14 type  1   force =     0.00000001   -0.00000420    0.01398567
     atom   15 type  2   force =    -0.00000000   -0.00000226    0.00170838
     atom   16 type  2   force =    -0.00000000    0.00000229    0.00170818
     atom   17 type  1   force =    -0.00000000    0.00000470    0.01398564
     atom   18 type  1   force =     0.00000001   -0.00000442    0.01398860
     atom   19 type  2   force =    -0.00000000   -0.00000226    0.00170824
     atom   20 type  2   force =    -0.00000000    0.00000228    0.00170677
     atom   21 type  1   force =    -0.00000000    0.00000448    0.01398813
     atom   22 type  1   force =     0.00000001   -0.00000429    0.01398584
     atom   23 type  2   force =    -0.00000000   -0.00000227    0.00170670
     atom   24 type  2   force =    -0.00000000    0.00000230    0.00170840
     The Hubbard contrib.    to forces
     atom    1 type  1   force =     0.00000000    0.00000000    0.00000000
     atom    2 type  1   force =     0.00000000    0.00000000    0.00000000
     atom    3 type  2   force =     0.00000000    0.00000000    0.00000000
     atom    4 type  2   force =     0.00000000    0.00000000    0.00000000
     atom    5 type  1   force =     0.00000000    0.00000000    0.00000000
     atom    6 type  1   force =     0.00000000    0.00000000    0.00000000
     atom    7 type  2   force =     0.00000000    0.00000000    0.00000000
     atom    8 type  2   force =     0.00000000    0.00000000    0.00000000
     atom    9 type  1   force =     0.00000000    0.00000000    0.00000000
     atom   10 type  1   force =     0.00000000    0.00000000    0.00000000
     atom   11 type  2   force =     0.00000000    0.00000000    0.00000000
     atom   12 type  2   force =     0.00000000    0.00000000    0.00000000
     atom   13 type  1   force =     0.00000000    0.00000000    0.00000000
     atom   14 type  1   force =     0.00000000    0.00000000    0.00000000
     atom   15 type  2   force =     0.00000000    0.00000000    0.00000000
     atom   16 type  2   force =     0.00000000    0.00000000    0.00000000
     atom   17 type  1   force =     0.00000000    0.00000000    0.00000000
     atom   18 type  1   force =     0.00000000    0.00000000    0.00000000
     atom   19 type  2   force =     0.00000000    0.00000000    0.00000000
     atom   20 type  2   force =     0.00000000    0.00000000    0.00000000
     atom   21 type  1   force =     0.00000000    0.00000000    0.00000000
     atom   22 type  1   force =     0.00000000    0.00000000    0.00000000
     atom   23 type  2   force =     0.00000000    0.00000000    0.00000000
     atom   24 type  2   force =     0.00000000    0.00000000    0.00000000
     The SCF correction term to forces
     atom    1 type  1   force =     0.00000000   -0.00000670   -0.00002456
     atom    2 type  1   force =    -0.00000000   -0.00001104   -0.00002318
     atom    3 type  2   force =     0.00000000   -0.00000168   -0.00000239
     atom    4 type  2   force =    -0.00000000   -0.00000147   -0.00000801
     atom    5 type  1   force =     0.00000000   -0.00001646    0.00000828
     atom    6 type  1   force =    -0.00000000   -0.00000015   -0.00001566
     atom    7 type  2   force =     0.00000000   -0.00000327    0.00000648
     atom    8 type  2   force =    -0.00000000   -0.00000099    0.00000380
     atom    9 type  1   force =     0.00000000   -0.00000745   -0.00000206
     atom   10 type  1   force =    -0.00000000   -0.00000805    0.00000443
     atom   11 type  2   force =     0.00000000   -0.00000196   -0.00000585
     atom   12 type  2   force =    -0.00000000   -0.00000219    0.00000072
     atom   13 type  1   force =     0.00000000    0.00000708   -0.00002073
     atom   14 type  1   force =    -0.00000000    0.00001119   -0.00001777
     atom   15 type  2   force =     0.00000000    0.00000177   -0.00000153
     atom   16 type  2   force =    -0.00000000    0.00000185   -0.00000705
     atom   17 type  1   force =     0.00000000    0.00001685   -0.00000124
     atom   18 type  1   force =    -0.00000000   -0.00000043   -0.00000107
     atom   19 type  2   force =     0.00000000    0.00000287    0.00000504
     atom   20 type  2   force =    -0.00000000    0.00000102    0.00000517
     atom   21 type  1   force =     0.00000000    0.00000760   -0.00001158
     atom   22 type  1   force =    -0.00000000    0.00000803    0.00000564
     atom   23 type  2   force =     0.00000000    0.00000188   -0.00000639
     atom   24 type  2   force =    -0.00000000    0.00000247    0.00000065

     Total force =     0.029520     Total SCF correction =     0.000062

     General routines

     Parallel routines

   This run was terminated on:  14:45:46   1Sep2025

   JOB DONE.
Note: The following floating-point exceptions are signalling: IEEE_UNDERFLOW_FLAG IEEE_DENORMAL
Note: The following floating-point exceptions are signalling: IEEE_UNDERFLOW_FLAG IEEE_DENORMAL
Note: The following floating-point exceptions are signalling: IEEE_UNDERFLOW_FLAG IEEE_DENORMAL
Note: The following floating-point exceptions are signalling: IEEE_UNDERFLOW_FLAG IEEE_DENORMAL
Note: The following floating-point exceptions are signalling: IEEE_UNDERFLOW_FLAG IEEE_DENORMAL
Note: The following floating-point exceptions are signalling: IEEE_UNDERFLOW_FLAG IEEE_DENORMAL
Note: The following floating-point exceptions are signalling: IEEE_UNDERFLOW_FLAG IEEE_DENORMAL
Note: The following floating-point exceptions are signalling: IEEE_UNDERFLOW_FLAG IEEE_DENORMAL
Note: The following floating-point exceptions are signalling: IEEE_UNDERFLOW_FLAG IEEE_DENORMAL
Note: The following floating-point exceptions are signalling: IEEE_UNDERFLOW_FLAG IEEE_DENORMAL
Note: The following floating-point exceptions are signalling: IEEE_UNDERFLOW_FLAG IEEE_DENORMAL
Note: The following floating-point exceptions are signalling: IEEE_UNDERFLOW_FLAG IEEE_DENORMAL
Note: The following floating-point exceptions are signalling: IEEE_UNDERFLOW_FLAG IEEE_DENORMAL
Note: The following floating-point exceptions are signalling: IEEE_UNDERFLOW_FLAG IEEE_DENORMAL
Note: The following floating-point exceptions are signalling: IEEE_UNDERFLOW_FLAG IEEE_DENORMAL
Note: The following floating-point exceptions are signalling: IEEE_UNDERFLOW_FLAG IEEE_DENORMAL
Note: The following floating-point exceptions are signalling: IEEE_UNDERFLOW_FLAG IEEE_DENORMAL
Note: The following floating-point exceptions are signalling: IEEE_UNDERFLOW_FLAG IEEE_DENORMAL
Note: The following floating-point exceptions are signalling: IEEE_UNDERFLOW_FLAG IEEE_DENORMAL
Note: The following floating-point exceptions are signalling: IEEE_UNDERFLOW_FLAG IEEE_DENORMAL
Note: The following floating-point exceptions are signalling: IEEE_UNDERFLOW_FLAG IEEE_DENORMAL
Note: The following floating-point exceptions are signalling: IEEE_UNDERFLOW_FLAG IEEE_DENORMAL
Note: The following floating-point exceptions are signalling: IEEE_UNDERFLOW_FLAG IEEE_DENORMAL
Note: The following floating-point exceptions are signalling: IEEE_UNDERFLOW_FLAG IEEE_DENORMAL
Note: The following floating-point exceptions are signalling: IEEE_UNDERFLOW_FLAG IEEE_DENORMAL
Note: The following floating-point exceptions are signalling: IEEE_UNDERFLOW_FLAG IEEE_DENORMAL
Note: The following floating-point exceptions are signalling: IEEE_UNDERFLOW_FLAG IEEE_DENORMAL
Note: The following floating-point exceptions are signalling: IEEE_UNDERFLOW_FLAG IEEE_DENORMAL
Note: The following floating-point exceptions are signalling: IEEE_UNDERFLOW_FLAG IEEE_DENORMAL
Note: The following floating-point exceptions are signalling: IEEE_UNDERFLOW_FLAG IEEE_DENORMAL
Note: The following floating-point exceptions are signalling: IEEE_UNDERFLOW_FLAG IEEE_DENORMAL
Note: The following floating-point exceptions are signalling: IEEE_UNDERFLOW_FLAG IEEE_DENORMAL