     Program PWSCF v.7.0 starts on 31Aug2025 at  2:46: 0

     K-points division:     npool     =       8
     R & G space division:  proc/nbgrp/npool/nimage =       4

     Reading input from /home/jvc/QEspresso7.2/ZnO_database/scripts/cell123.in/ZnO-3.27-1.61-123.in
Warning: card &CELL ignored
Warning: card / ignored
Warning: card &FCP ignored
Warning: card / ignored
Warning: card &RISM ignored
Warning: card / ignored

     Current dimensions of program PWSCF are:
     Max number of different atomic species (ntypx) = 10
     Max number of k-points (npk) =  40000
     Max angular momentum in pseudopotentials (lmaxx) =  4
     file Zn.upf: wavefunction(s)  3D renormalized
     Found identity + (  0.0000  0.0000  0.3333) symmetry
     This is a supercell, fractional translations are disabled
     Message from routine setup:
     using ibrav=0 with symmetry is DISCOURAGED, use correct ibrav instead

     Using Slab Decomposition

     bravais-lattice index     =            0
     lattice parameter (alat)  =       6.1789  a.u.
     unit-cell volume          =    1978.8170 (a.u.)^3
     number of atoms/cell      =           24
     number of atomic types    =            2
     number of electrons       =       216.00
     number of Kohn-Sham states=          108
     kinetic-energy cutoff     =      50.0000  Ry
     charge density cutoff     =     400.0000  Ry
     scf convergence threshold =      1.0E-08
     mixing beta               =       0.3000
     number of iterations used =            8  plain     mixing
     Exchange-correlation= PBE
                           (   1   4   3   4   0   0   0)

     celldm(1)=   6.178854  celldm(2)=   0.000000  celldm(3)=   0.000000
     celldm(4)=   0.000000  celldm(5)=   0.000000  celldm(6)=   0.000000

     crystal axes: (cart. coord. in units of alat)
               a(1) = (   1.000000   0.000000   0.000000 )
               a(2) = (  -1.000000   1.732051   0.000000 )
               a(3) = (   0.000000   0.000000   4.843075 )

     reciprocal axes: (cart. coord. in units 2 pi/alat)
               b(1) = (  1.000000  0.577350 -0.000000 )
               b(2) = (  0.000000  0.577350  0.000000 )
               b(3) = (  0.000000 -0.000000  0.206480 )

     PseudoPot. # 1 for Zn read from file:
     /home/jvc/QEspresso7.2/ZnO_database/pseudos/Zn.upf
     MD5 check sum: 7f56cabf9682ed8c977c2f7d0c5985c5
     Pseudo is Ultrasoft + core correction, Zval = 12.0
     Generated using &quot;atomic&quot; code by A. Dal Corso  v.6.2.2
     Using radial grid of 1201 points,  6 beta functions with:
                l(1) =   0
                l(2) =   0
                l(3) =   1
                l(4) =   1
                l(5) =   2
                l(6) =   2
     Q(r) pseudized with 0 coefficients

     PseudoPot. # 2 for O  read from file:
     /home/jvc/QEspresso7.2/ZnO_database/pseudos/O.upf
     MD5 check sum: 91400c9766925bcf19f520983a725ff0
     Pseudo is Ultrasoft + core correction, Zval =  6.0
     Generated using &quot;atomic&quot; code by A. Dal Corso  v.6.3MaX
     Using radial grid of 1095 points,  4 beta functions with:
                l(1) =   0
                l(2) =   0
                l(3) =   1
                l(4) =   1
     Q(r) pseudized with 0 coefficients

     atomic species   valence    mass     pseudopotential
        Zn            12.00    65.38000     Zn( 1.00)
        O              6.00    15.99900     O ( 1.00)

      2 Sym. Ops. (no inversion) found

                                    s                        frac. trans.

      isym =  1     identity

 cryst.   s( 1) = (     1          0          0      )
                  (     0          1          0      )
                  (     0          0          1      )

 cart.    s( 1) = (  1.0000000  0.0000000  0.0000000 )
                  (  0.0000000  1.0000000  0.0000000 )
                  (  0.0000000  0.0000000  1.0000000 )

      isym =  2     inv. 180 deg rotation - cart. axis [1,0,0]

 cryst.   s( 2) = (    -1          0          0      )
                  (     2          1          0      )
                  (     0          0          1      )

 cart.    s( 2) = ( -1.0000000  0.0000000  0.0000000 )
                  (  0.0000000  1.0000000  0.0000000 )
                  (  0.0000000  0.0000000  1.0000000 )

   Cartesian axes

     site n.     atom                  positions (alat units)
         1           Zn  tau(   1) = (   0.5000000   0.2886751   0.8082020  )
         2           Zn  tau(   2) = (   0.0000000   0.5773503   0.0010228  )
         3           O   tau(   3) = (   0.5000000   0.2886751   1.4201130  )
         4           O   tau(   4) = (   0.0000000   0.5773503   0.6129338  )
         5           Zn  tau(   5) = (   0.5000000   0.2886751   2.4225604  )
         6           Zn  tau(   6) = (   0.0000000   0.5773503   1.6153812  )
         7           O   tau(   7) = (   0.5000000   0.2886751   3.0344713  )
         8           O   tau(   8) = (   0.0000000   0.5773503   2.2272921  )
         9           Zn  tau(   9) = (   0.5000000   0.2886751   4.0369187  )
        10           Zn  tau(  10) = (   0.0000000   0.5773503   3.2297395  )
        11           O   tau(  11) = (   0.5000000   0.2886751   4.6488297  )
        12           O   tau(  12) = (   0.0000000   0.5773503   3.8416505  )
        13           Zn  tau(  13) = (   0.0000000   1.1547005   0.8082020  )
        14           Zn  tau(  14) = (  -0.5000000   1.4433757   0.0010228  )
        15           O   tau(  15) = (   0.0000000   1.1547005   1.4201130  )
        16           O   tau(  16) = (  -0.5000000   1.4433757   0.6129338  )
        17           Zn  tau(  17) = (   0.0000000   1.1547005   2.4225604  )
        18           Zn  tau(  18) = (  -0.5000000   1.4433757   1.6153812  )
        19           O   tau(  19) = (   0.0000000   1.1547005   3.0344713  )
        20           O   tau(  20) = (  -0.5000000   1.4433757   2.2272921  )
        21           Zn  tau(  21) = (   0.0000000   1.1547005   4.0369187  )
        22           Zn  tau(  22) = (  -0.5000000   1.4433757   3.2297395  )
        23           O   tau(  23) = (   0.0000000   1.1547005   4.6488297  )
        24           O   tau(  24) = (  -0.5000000   1.4433757   3.8416505  )

   Crystallographic axes

     site n.     atom                  positions (cryst. coord.)
         1           Zn  tau(   1) = (  0.6666667  0.1666667  0.1668779  )
         2           Zn  tau(   2) = (  0.3333333  0.3333333  0.0002112  )
         3           O   tau(   3) = (  0.6666667  0.1666667  0.2932255  )
         4           O   tau(   4) = (  0.3333333  0.3333333  0.1265588  )
         5           Zn  tau(   5) = (  0.6666667  0.1666667  0.5002112  )
         6           Zn  tau(   6) = (  0.3333333  0.3333333  0.3335445  )
         7           O   tau(   7) = (  0.6666667  0.1666667  0.6265588  )
         8           O   tau(   8) = (  0.3333333  0.3333333  0.4598921  )
         9           Zn  tau(   9) = (  0.6666667  0.1666667  0.8335445  )
        10           Zn  tau(  10) = (  0.3333333  0.3333333  0.6668779  )
        11           O   tau(  11) = (  0.6666667  0.1666667  0.9598921  )
        12           O   tau(  12) = (  0.3333333  0.3333333  0.7932255  )
        13           Zn  tau(  13) = (  0.6666667  0.6666667  0.1668779  )
        14           Zn  tau(  14) = (  0.3333333  0.8333333  0.0002112  )
        15           O   tau(  15) = (  0.6666667  0.6666667  0.2932255  )
        16           O   tau(  16) = (  0.3333333  0.8333333  0.1265588  )
        17           Zn  tau(  17) = (  0.6666667  0.6666667  0.5002112  )
        18           Zn  tau(  18) = (  0.3333333  0.8333333  0.3335445  )
        19           O   tau(  19) = (  0.6666667  0.6666667  0.6265588  )
        20           O   tau(  20) = (  0.3333333  0.8333333  0.4598921  )
        21           Zn  tau(  21) = (  0.6666667  0.6666667  0.8335445  )
        22           Zn  tau(  22) = (  0.3333333  0.8333333  0.6668779  )
        23           O   tau(  23) = (  0.6666667  0.6666667  0.9598921  )
        24           O   tau(  24) = (  0.3333333  0.8333333  0.7932255  )

     number of k points=    80
                       cart. coord. in units 2pi/alat
        k(    1) = (   0.0000000   0.0000000   0.0000000), wk =   0.0092593
        k(    2) = (   0.0000000   0.0000000   0.0344134), wk =   0.0185185
        k(    3) = (   0.0000000   0.0000000   0.0688268), wk =   0.0185185
        k(    4) = (   0.0000000   0.0000000  -0.1032402), wk =   0.0092593
        k(    5) = (   0.0000000   0.0962250   0.0000000), wk =   0.0185185
        k(    6) = (   0.0000000   0.0962250   0.0344134), wk =   0.0185185
        k(    7) = (   0.0000000   0.0962250   0.0688268), wk =   0.0185185
        k(    8) = (   0.0000000   0.0962250  -0.1032402), wk =   0.0185185
        k(    9) = (   0.0000000   0.1924501   0.0000000), wk =   0.0185185
        k(   10) = (   0.0000000   0.1924501   0.0344134), wk =   0.0185185
        k(   11) = (   0.0000000   0.1924501   0.0688268), wk =   0.0185185
        k(   12) = (   0.0000000   0.1924501  -0.1032402), wk =   0.0185185
        k(   13) = (   0.0000000  -0.2886751   0.0000000), wk =   0.0092593
        k(   14) = (   0.0000000  -0.2886751   0.0344134), wk =   0.0185185
        k(   15) = (   0.0000000  -0.2886751   0.0688268), wk =   0.0185185
        k(   16) = (   0.0000000  -0.2886751  -0.1032402), wk =   0.0092593
        k(   17) = (   0.1666667   0.0962250   0.0000000), wk =   0.0370370
        k(   18) = (   0.1666667   0.0962250   0.0344134), wk =   0.0370370
        k(   19) = (   0.1666667   0.0962250   0.0688268), wk =   0.0370370
        k(   20) = (   0.1666667   0.0962250  -0.1032402), wk =   0.0370370
        k(   21) = (   0.1666667   0.1924501   0.0000000), wk =   0.0370370
        k(   22) = (   0.1666667   0.1924501   0.0344134), wk =   0.0370370
        k(   23) = (   0.1666667   0.1924501   0.0688268), wk =   0.0370370
        k(   24) = (   0.1666667   0.1924501  -0.1032402), wk =   0.0370370
        k(   25) = (   0.1666667   0.2886751   0.0000000), wk =   0.0185185
        k(   26) = (   0.1666667   0.2886751   0.0344134), wk =   0.0370370
        k(   27) = (   0.1666667   0.2886751   0.0688268), wk =   0.0370370
        k(   28) = (   0.1666667   0.2886751  -0.1032402), wk =   0.0185185
        k(   29) = (   0.1666667   0.0000000   0.0000000), wk =   0.0185185
        k(   30) = (   0.1666667   0.0000000   0.0344134), wk =   0.0370370
        k(   31) = (   0.1666667   0.0000000   0.0688268), wk =   0.0370370
        k(   32) = (   0.1666667   0.0000000  -0.1032402), wk =   0.0185185
        k(   33) = (   0.3333333   0.1924501   0.0000000), wk =   0.0370370
        k(   34) = (   0.3333333   0.1924501   0.0344134), wk =   0.0370370
        k(   35) = (   0.3333333   0.1924501   0.0688268), wk =   0.0370370
        k(   36) = (   0.3333333   0.1924501  -0.1032402), wk =   0.0370370
        k(   37) = (   0.3333333   0.2886751   0.0000000), wk =   0.0185185
        k(   38) = (   0.3333333   0.2886751   0.0344134), wk =   0.0370370
        k(   39) = (   0.3333333   0.2886751   0.0688268), wk =   0.0370370
[...]
     estimated scf accuracy    <          2.8E-09 Ry

     The total energy is the sum of the following terms:
     one-electron contribution =    -927.15035529 Ry
     hartree contribution      =     709.72320465 Ry
     xc contribution           =    -657.27311220 Ry
     ewald contribution        =   -1295.12165916 Ry

     convergence has been achieved in  30 iterations

     Forces acting on atoms (cartesian axes, Ry/au):

     atom    1 type  1   force =     0.00000000   -0.00000132    0.00006113
     atom    2 type  1   force =     0.00000000    0.00000206    0.00005873
     atom    3 type  2   force =     0.00000000    0.00000243   -0.00005611
     atom    4 type  2   force =     0.00000000   -0.00000226   -0.00005587
     atom    5 type  1   force =     0.00000000   -0.00000766    0.00006007
     atom    6 type  1   force =     0.00000000    0.00000212    0.00004996
     atom    7 type  2   force =     0.00000000    0.00000227   -0.00005619
     atom    8 type  2   force =     0.00000000   -0.00000241   -0.00005600
     atom    9 type  1   force =     0.00000000   -0.00000033    0.00004725
     atom   10 type  1   force =     0.00000000    0.00000984    0.00006427
     atom   11 type  2   force =     0.00000000    0.00000229   -0.00005558
     atom   12 type  2   force =     0.00000000   -0.00000172   -0.00005723
     atom   13 type  1   force =     0.00000000   -0.00001159    0.00005940
     atom   14 type  1   force =     0.00000000    0.00000966    0.00005496
     atom   15 type  2   force =     0.00000000    0.00000245   -0.00005626
     atom   16 type  2   force =     0.00000000   -0.00000250   -0.00005640
     atom   17 type  1   force =     0.00000000   -0.00000562    0.00006359
     atom   18 type  1   force =     0.00000000    0.00001105    0.00005380
     atom   19 type  2   force =     0.00000000    0.00000259   -0.00005618
     atom   20 type  2   force =     0.00000000   -0.00000212   -0.00005612
     atom   21 type  1   force =     0.00000000   -0.00001310    0.00004389
     atom   22 type  1   force =     0.00000000    0.00000391    0.00005795
     atom   23 type  2   force =     0.00000000    0.00000262   -0.00005594
     atom   24 type  2   force =     0.00000000   -0.00000267   -0.00005714
     The non-local contrib.  to forces
     atom    1 type  1   force =     0.00000000    0.00002183   -0.00477147
     atom    2 type  1   force =     0.00000000   -0.00002151   -0.00477452
     atom    3 type  2   force =     0.00000000    0.00020338    0.00552611
     atom    4 type  2   force =     0.00000000   -0.00020303    0.00552413
     atom    5 type  1   force =     0.00000000    0.00002009   -0.00477228
     atom    6 type  1   force =     0.00000000   -0.00002175   -0.00477565
     atom    7 type  2   force =     0.00000000    0.00020427    0.00552260
     atom    8 type  2   force =     0.00000000   -0.00020405    0.00552537
     atom    9 type  1   force =     0.00000000    0.00002296   -0.00477768
     atom   10 type  1   force =     0.00000000   -0.00001985   -0.00476981
     atom   11 type  2   force =     0.00000000    0.00020281    0.00552681
     atom   12 type  2   force =     0.00000000   -0.00020406    0.00552649
     atom   13 type  1   force =     0.00000000    0.00001935   -0.00477109
     atom   14 type  1   force =     0.00000000   -0.00001996   -0.00477437
     atom   15 type  2   force =     0.00000000    0.00020518    0.00552523
     atom   16 type  2   force =     0.00000000   -0.00020583    0.00552313
     atom   17 type  1   force =     0.00000000    0.00002113   -0.00477087
     atom   18 type  1   force =     0.00000000   -0.00001973   -0.00477440
     atom   19 type  2   force =     0.00000000    0.00020439    0.00552264
     atom   20 type  2   force =     0.00000000   -0.00020490    0.00552418
     atom   21 type  1   force =     0.00000000    0.00001849   -0.00477863
     atom   22 type  1   force =     0.00000000   -0.00002154   -0.00477104
     atom   23 type  2   force =     0.00000000    0.00020547    0.00552685
     atom   24 type  2   force =     0.00000000   -0.00020457    0.00552709
     The ionic contribution  to forces
     atom    1 type  1   force =    -0.00000000    0.00000000    0.06271681
     atom    2 type  1   force =     0.00000000   -0.00000000    0.06271685
     atom    3 type  2   force =    -0.00000000    0.00000000   -0.06271682
     atom    4 type  2   force =     0.00000000   -0.00000000   -0.06271683
     atom    5 type  1   force =    -0.00000000    0.00000000    0.06271685
     atom    6 type  1   force =     0.00000000   -0.00000000    0.06271681
     atom    7 type  2   force =    -0.00000000    0.00000000   -0.06271683
     atom    8 type  2   force =     0.00000000   -0.00000000   -0.06271681
     atom    9 type  1   force =    -0.00000000    0.00000000    0.06271681
     atom   10 type  1   force =     0.00000000   -0.00000000    0.06271681
     atom   11 type  2   force =    -0.00000000    0.00000000   -0.06271681
     atom   12 type  2   force =     0.00000000   -0.00000000   -0.06271682
     atom   13 type  1   force =    -0.00000000    0.00000000    0.06271681
     atom   14 type  1   force =     0.00000000   -0.00000000    0.06271685
     atom   15 type  2   force =    -0.00000000    0.00000000   -0.06271682
     atom   16 type  2   force =     0.00000000   -0.00000000   -0.06271683
     atom   17 type  1   force =    -0.00000000    0.00000000    0.06271685
     atom   18 type  1   force =     0.00000000   -0.00000000    0.06271681
     atom   19 type  2   force =    -0.00000000    0.00000000   -0.06271683
     atom   20 type  2   force =     0.00000000   -0.00000000   -0.06271681
     atom   21 type  1   force =    -0.00000000    0.00000000    0.06271681
     atom   22 type  1   force =     0.00000000   -0.00000000    0.06271681
     atom   23 type  2   force =    -0.00000000    0.00000000   -0.06271681
     atom   24 type  2   force =     0.00000000   -0.00000000   -0.06271682
     The local contribution  to forces
     atom    1 type  1   force =    -0.00000009   -0.00004175   -0.05836631
     atom    2 type  1   force =     0.00000000    0.00003930   -0.05836217
     atom    3 type  2   force =    -0.00000002   -0.00020044    0.05719940
     atom    4 type  2   force =    -0.00000000    0.00020051    0.05719598
     atom    5 type  1   force =    -0.00000009   -0.00003240   -0.05836514
     atom    6 type  1   force =     0.00000000    0.00004039   -0.05835162
     atom    7 type  2   force =    -0.00000002   -0.00019965    0.05719793
     atom    8 type  2   force =     0.00000000    0.00020145    0.05719733
     atom    9 type  1   force =    -0.00000009   -0.00004276   -0.05834759
     atom   10 type  1   force =     0.00000000    0.00003000   -0.05837100
     atom   11 type  2   force =    -0.00000002   -0.00020052    0.05719819
     atom   12 type  2   force =     0.00000000    0.00019863    0.05720449
     atom   13 type  1   force =    -0.00000009   -0.00002590   -0.05836455
     atom   14 type  1   force =     0.00000000    0.00002914   -0.05835778
     atom   15 type  2   force =    -0.00000002   -0.00019963    0.05719983
     atom   16 type  2   force =    -0.00000000    0.00020000    0.05719838
     atom   17 type  1   force =    -0.00000009   -0.00003521   -0.05837030
     atom   18 type  1   force =    -0.00000000    0.00002766   -0.05835642
     atom   19 type  2   force =    -0.00000002   -0.00020050    0.05719784
     atom   20 type  2   force =     0.00000000    0.00020017    0.05719740
     atom   21 type  1   force =    -0.00000009   -0.00002496   -0.05834319
     atom   22 type  1   force =    -0.00000000    0.00003761   -0.05836294
     atom   23 type  2   force =    -0.00000002   -0.00019935    0.05719937
     atom   24 type  2   force =     0.00000000    0.00020154    0.05720649
     The core correction contribution to forces
     atom    1 type  1   force =    -0.00000001    0.00000590    0.00046929
     atom    2 type  1   force =     0.00000000   -0.00000579    0.00046940
     atom    3 type  2   force =     0.00000000   -0.00000232   -0.00006239
     atom    4 type  2   force =     0.00000000    0.00000231   -0.00006236
     atom    5 type  1   force =    -0.00000001    0.00000565    0.00046933
     atom    6 type  1   force =     0.00000000   -0.00000583    0.00046909
     atom    7 type  2   force =     0.00000000   -0.00000233   -0.00006234
     atom    8 type  2   force =     0.00000000    0.00000233   -0.00006238
     atom    9 type  1   force =    -0.00000001    0.00000581    0.00046913
     atom   10 type  1   force =     0.00000000   -0.00000559    0.00046932
     atom   11 type  2   force =     0.00000000   -0.00000231   -0.00006240
     atom   12 type  2   force =     0.00000000    0.00000232   -0.00006238
     atom   13 type  1   force =    -0.00000001    0.00000542    0.00046917
     atom   14 type  1   force =     0.00000000   -0.00000549    0.00046921
     atom   15 type  2   force =     0.00000000   -0.00000234   -0.00006237
     atom   16 type  2   force =     0.00000000    0.00000235   -0.00006234
     atom   17 type  1   force =    -0.00000001    0.00000567    0.00046942
     atom   18 type  1   force =     0.00000000   -0.00000547    0.00046916
     atom   19 type  2   force =     0.00000000   -0.00000233   -0.00006233
     atom   20 type  2   force =     0.00000000    0.00000234   -0.00006236
     atom   21 type  1   force =    -0.00000001    0.00000550    0.00046902
     atom   22 type  1   force =     0.00000000   -0.00000572    0.00046910
     atom   23 type  2   force =     0.00000000   -0.00000234   -0.00006240
     atom   24 type  2   force =     0.00000000    0.00000233   -0.00006239
     The Hubbard contrib.    to forces
     atom    1 type  1   force =     0.00000000    0.00000000    0.00000000
     atom    2 type  1   force =     0.00000000    0.00000000    0.00000000
     atom    3 type  2   force =     0.00000000    0.00000000    0.00000000
     atom    4 type  2   force =     0.00000000    0.00000000    0.00000000
     atom    5 type  1   force =     0.00000000    0.00000000    0.00000000
     atom    6 type  1   force =     0.00000000    0.00000000    0.00000000
     atom    7 type  2   force =     0.00000000    0.00000000    0.00000000
     atom    8 type  2   force =     0.00000000    0.00000000    0.00000000
     atom    9 type  1   force =     0.00000000    0.00000000    0.00000000
     atom   10 type  1   force =     0.00000000    0.00000000    0.00000000
     atom   11 type  2   force =     0.00000000    0.00000000    0.00000000
     atom   12 type  2   force =     0.00000000    0.00000000    0.00000000
     atom   13 type  1   force =     0.00000000    0.00000000    0.00000000
     atom   14 type  1   force =     0.00000000    0.00000000    0.00000000
     atom   15 type  2   force =     0.00000000    0.00000000    0.00000000
     atom   16 type  2   force =     0.00000000    0.00000000    0.00000000
     atom   17 type  1   force =     0.00000000    0.00000000    0.00000000
     atom   18 type  1   force =     0.00000000    0.00000000    0.00000000
     atom   19 type  2   force =     0.00000000    0.00000000    0.00000000
     atom   20 type  2   force =     0.00000000    0.00000000    0.00000000
     atom   21 type  1   force =     0.00000000    0.00000000    0.00000000
     atom   22 type  1   force =     0.00000000    0.00000000    0.00000000
     atom   23 type  2   force =     0.00000000    0.00000000    0.00000000
     atom   24 type  2   force =     0.00000000    0.00000000    0.00000000
     The SCF correction term to forces
     atom    1 type  1   force =     0.00000000    0.00001256    0.00001243
     atom    2 type  1   force =    -0.00000000   -0.00001007    0.00000878
     atom    3 type  2   force =     0.00000000    0.00000167   -0.00000280
     atom    4 type  2   force =    -0.00000000   -0.00000218    0.00000283
     atom    5 type  1   force =     0.00000000   -0.00000113    0.00001092
     atom    6 type  1   force =    -0.00000000   -0.00001081   -0.00000906
     atom    7 type  2   force =     0.00000000   -0.00000015    0.00000206
     atom    8 type  2   force =    -0.00000000   -0.00000226    0.00000010
     atom    9 type  1   force =     0.00000000    0.00001353   -0.00001381
     atom   10 type  1   force =    -0.00000000    0.00000515    0.00001857
     atom   11 type  2   force =     0.00000000    0.00000218   -0.00000177
     atom   12 type  2   force =    -0.00000000    0.00000126   -0.00000940
     atom   13 type  1   force =     0.00000000   -0.00001059    0.00000867
     atom   14 type  1   force =    -0.00000000    0.00000585    0.00000066
     atom   15 type  2   force =     0.00000000   -0.00000088   -0.00000251
     atom   16 type  2   force =    -0.00000000    0.00000085    0.00000087
     atom   17 type  1   force =     0.00000000    0.00000267    0.00001811
     atom   18 type  1   force =    -0.00000000    0.00000846   -0.00000173
     atom   19 type  2   force =     0.00000000    0.00000090    0.00000211
     atom   20 type  2   force =    -0.00000000    0.00000015    0.00000108
     atom   21 type  1   force =     0.00000000   -0.00001225   -0.00002052
     atom   22 type  1   force =    -0.00000000   -0.00000656    0.00000563
     atom   23 type  2   force =     0.00000000   -0.00000129   -0.00000335
     atom   24 type  2   force =    -0.00000000   -0.00000210   -0.00001191

     Total force =     0.000278     Total SCF correction =     0.000056
     SCF correction compared to forces is large: reduce conv_thr to get better values

     General routines

     Parallel routines

   This run was terminated on:   3:16:59  31Aug2025

   JOB DONE.
Note: The following floating-point exceptions are signalling: IEEE_UNDERFLOW_FLAG IEEE_DENORMAL
Note: The following floating-point exceptions are signalling: IEEE_UNDERFLOW_FLAG IEEE_DENORMAL
Note: The following floating-point exceptions are signalling: IEEE_UNDERFLOW_FLAG IEEE_DENORMAL
Note: The following floating-point exceptions are signalling: IEEE_UNDERFLOW_FLAG IEEE_DENORMAL
Note: The following floating-point exceptions are signalling: IEEE_UNDERFLOW_FLAG IEEE_DENORMAL
Note: The following floating-point exceptions are signalling: IEEE_UNDERFLOW_FLAG IEEE_DENORMAL
Note: The following floating-point exceptions are signalling: IEEE_UNDERFLOW_FLAG IEEE_DENORMAL
Note: The following floating-point exceptions are signalling: IEEE_UNDERFLOW_FLAG IEEE_DENORMAL
Note: The following floating-point exceptions are signalling: IEEE_UNDERFLOW_FLAG IEEE_DENORMAL
Note: The following floating-point exceptions are signalling: IEEE_UNDERFLOW_FLAG IEEE_DENORMAL
Note: The following floating-point exceptions are signalling: IEEE_UNDERFLOW_FLAG IEEE_DENORMAL
Note: The following floating-point exceptions are signalling: IEEE_UNDERFLOW_FLAG IEEE_DENORMAL
Note: The following floating-point exceptions are signalling: IEEE_UNDERFLOW_FLAG IEEE_DENORMAL
Note: The following floating-point exceptions are signalling: IEEE_UNDERFLOW_FLAG IEEE_DENORMAL
Note: The following floating-point exceptions are signalling: IEEE_UNDERFLOW_FLAG IEEE_DENORMAL
Note: The following floating-point exceptions are signalling: IEEE_UNDERFLOW_FLAG IEEE_DENORMAL
Note: The following floating-point exceptions are signalling: IEEE_UNDERFLOW_FLAG IEEE_DENORMAL
Note: The following floating-point exceptions are signalling: IEEE_UNDERFLOW_FLAG IEEE_DENORMAL
Note: The following floating-point exceptions are signalling: IEEE_UNDERFLOW_FLAG IEEE_DENORMAL
Note: The following floating-point exceptions are signalling: IEEE_UNDERFLOW_FLAG IEEE_DENORMAL
Note: The following floating-point exceptions are signalling: IEEE_UNDERFLOW_FLAG IEEE_DENORMAL
Note: The following floating-point exceptions are signalling: IEEE_UNDERFLOW_FLAG IEEE_DENORMAL
Note: The following floating-point exceptions are signalling: IEEE_UNDERFLOW_FLAG IEEE_DENORMAL
Note: The following floating-point exceptions are signalling: IEEE_UNDERFLOW_FLAG IEEE_DENORMAL
Note: The following floating-point exceptions are signalling: IEEE_UNDERFLOW_FLAG IEEE_DENORMAL
Note: The following floating-point exceptions are signalling: IEEE_UNDERFLOW_FLAG IEEE_DENORMAL
Note: The following floating-point exceptions are signalling: IEEE_UNDERFLOW_FLAG IEEE_DENORMAL
Note: The following floating-point exceptions are signalling: IEEE_UNDERFLOW_FLAG IEEE_DENORMAL
Note: The following floating-point exceptions are signalling: IEEE_UNDERFLOW_FLAG IEEE_DENORMAL
Note: The following floating-point exceptions are signalling: IEEE_UNDERFLOW_FLAG IEEE_DENORMAL
Note: The following floating-point exceptions are signalling: IEEE_UNDERFLOW_FLAG IEEE_DENORMAL
Note: The following floating-point exceptions are signalling: IEEE_UNDERFLOW_FLAG IEEE_DENORMAL