     Program PWSCF v.7.0 starts on  1Sep2025 at 10:16:45

     K-points division:     npool     =       8
     R & G space division:  proc/nbgrp/npool/nimage =       4

     Reading input from /home/jvc/QEspresso7.2/ZnO_database/scripts/cell123.in/ZnO-3.53-1.61-123.in
Warning: card &CELL ignored
Warning: card / ignored
Warning: card &FCP ignored
Warning: card / ignored
Warning: card &RISM ignored
Warning: card / ignored

     Current dimensions of program PWSCF are:
     Max number of different atomic species (ntypx) = 10
     Max number of k-points (npk) =  40000
     Max angular momentum in pseudopotentials (lmaxx) =  4
     file Zn.upf: wavefunction(s)  3D renormalized
     Found identity + (  0.0000  0.0000  0.3333) symmetry
     This is a supercell, fractional translations are disabled
     Message from routine setup:
     using ibrav=0 with symmetry is DISCOURAGED, use correct ibrav instead

     Using Slab Decomposition

     bravais-lattice index     =            0
     lattice parameter (alat)  =       6.6732  a.u.
     unit-cell volume          =    2492.7395 (a.u.)^3
     number of atoms/cell      =           24
     number of atomic types    =            2
     number of electrons       =       216.00
     number of Kohn-Sham states=          108
     kinetic-energy cutoff     =      50.0000  Ry
     charge density cutoff     =     400.0000  Ry
     scf convergence threshold =      1.0E-08
     mixing beta               =       0.3000
     number of iterations used =            8  plain     mixing
     Exchange-correlation= PBE
                           (   1   4   3   4   0   0   0)

     celldm(1)=   6.673162  celldm(2)=   0.000000  celldm(3)=   0.000000
     celldm(4)=   0.000000  celldm(5)=   0.000000  celldm(6)=   0.000000

     crystal axes: (cart. coord. in units of alat)
               a(1) = (   1.000000   0.000000   0.000000 )
               a(2) = (  -1.000000   1.732051   0.000000 )
               a(3) = (   0.000000   0.000000   4.843075 )

     reciprocal axes: (cart. coord. in units 2 pi/alat)
               b(1) = (  1.000000  0.577350 -0.000000 )
               b(2) = (  0.000000  0.577350  0.000000 )
               b(3) = (  0.000000 -0.000000  0.206480 )

     PseudoPot. # 1 for Zn read from file:
     /home/jvc/QEspresso7.2/ZnO_database/pseudos/Zn.upf
     MD5 check sum: 7f56cabf9682ed8c977c2f7d0c5985c5
     Pseudo is Ultrasoft + core correction, Zval = 12.0
     Generated using &quot;atomic&quot; code by A. Dal Corso  v.6.2.2
     Using radial grid of 1201 points,  6 beta functions with:
                l(1) =   0
                l(2) =   0
                l(3) =   1
                l(4) =   1
                l(5) =   2
                l(6) =   2
     Q(r) pseudized with 0 coefficients

     PseudoPot. # 2 for O  read from file:
     /home/jvc/QEspresso7.2/ZnO_database/pseudos/O.upf
     MD5 check sum: 91400c9766925bcf19f520983a725ff0
     Pseudo is Ultrasoft + core correction, Zval =  6.0
     Generated using &quot;atomic&quot; code by A. Dal Corso  v.6.3MaX
     Using radial grid of 1095 points,  4 beta functions with:
                l(1) =   0
                l(2) =   0
                l(3) =   1
                l(4) =   1
     Q(r) pseudized with 0 coefficients

     atomic species   valence    mass     pseudopotential
        Zn            12.00    65.38000     Zn( 1.00)
        O              6.00    15.99900     O ( 1.00)

      2 Sym. Ops. (no inversion) found

                                    s                        frac. trans.

      isym =  1     identity

 cryst.   s( 1) = (     1          0          0      )
                  (     0          1          0      )
                  (     0          0          1      )

 cart.    s( 1) = (  1.0000000  0.0000000  0.0000000 )
                  (  0.0000000  1.0000000  0.0000000 )
                  (  0.0000000  0.0000000  1.0000000 )

      isym =  2     inv. 180 deg rotation - cart. axis [1,0,0]

 cryst.   s( 2) = (    -1          0          0      )
                  (     2          1          0      )
                  (     0          0          1      )

 cart.    s( 2) = ( -1.0000000  0.0000000  0.0000000 )
                  (  0.0000000  1.0000000  0.0000000 )
                  (  0.0000000  0.0000000  1.0000000 )

   Cartesian axes

     site n.     atom                  positions (alat units)
         1           Zn  tau(   1) = (   0.5000000   0.2886751   0.8082020  )
         2           Zn  tau(   2) = (   0.0000000   0.5773503   0.0010228  )
         3           O   tau(   3) = (   0.5000000   0.2886751   1.4201130  )
         4           O   tau(   4) = (   0.0000000   0.5773503   0.6129338  )
         5           Zn  tau(   5) = (   0.5000000   0.2886751   2.4225604  )
         6           Zn  tau(   6) = (   0.0000000   0.5773503   1.6153812  )
         7           O   tau(   7) = (   0.5000000   0.2886751   3.0344713  )
         8           O   tau(   8) = (   0.0000000   0.5773503   2.2272921  )
         9           Zn  tau(   9) = (   0.5000000   0.2886751   4.0369187  )
        10           Zn  tau(  10) = (   0.0000000   0.5773503   3.2297395  )
        11           O   tau(  11) = (   0.5000000   0.2886751   4.6488297  )
        12           O   tau(  12) = (   0.0000000   0.5773503   3.8416505  )
        13           Zn  tau(  13) = (   0.0000000   1.1547005   0.8082020  )
        14           Zn  tau(  14) = (  -0.5000000   1.4433757   0.0010228  )
        15           O   tau(  15) = (   0.0000000   1.1547005   1.4201130  )
        16           O   tau(  16) = (  -0.5000000   1.4433757   0.6129338  )
        17           Zn  tau(  17) = (   0.0000000   1.1547005   2.4225604  )
        18           Zn  tau(  18) = (  -0.5000000   1.4433757   1.6153812  )
        19           O   tau(  19) = (   0.0000000   1.1547005   3.0344713  )
        20           O   tau(  20) = (  -0.5000000   1.4433757   2.2272921  )
        21           Zn  tau(  21) = (   0.0000000   1.1547005   4.0369187  )
        22           Zn  tau(  22) = (  -0.5000000   1.4433757   3.2297395  )
        23           O   tau(  23) = (   0.0000000   1.1547005   4.6488297  )
        24           O   tau(  24) = (  -0.5000000   1.4433757   3.8416505  )

   Crystallographic axes

     site n.     atom                  positions (cryst. coord.)
         1           Zn  tau(   1) = (  0.6666667  0.1666667  0.1668779  )
         2           Zn  tau(   2) = (  0.3333333  0.3333333  0.0002112  )
         3           O   tau(   3) = (  0.6666667  0.1666667  0.2932255  )
         4           O   tau(   4) = (  0.3333333  0.3333333  0.1265588  )
         5           Zn  tau(   5) = (  0.6666667  0.1666667  0.5002112  )
         6           Zn  tau(   6) = (  0.3333333  0.3333333  0.3335445  )
         7           O   tau(   7) = (  0.6666667  0.1666667  0.6265588  )
         8           O   tau(   8) = (  0.3333333  0.3333333  0.4598921  )
         9           Zn  tau(   9) = (  0.6666667  0.1666667  0.8335445  )
        10           Zn  tau(  10) = (  0.3333333  0.3333333  0.6668779  )
        11           O   tau(  11) = (  0.6666667  0.1666667  0.9598921  )
        12           O   tau(  12) = (  0.3333333  0.3333333  0.7932255  )
        13           Zn  tau(  13) = (  0.6666667  0.6666667  0.1668779  )
        14           Zn  tau(  14) = (  0.3333333  0.8333333  0.0002112  )
        15           O   tau(  15) = (  0.6666667  0.6666667  0.2932255  )
        16           O   tau(  16) = (  0.3333333  0.8333333  0.1265588  )
        17           Zn  tau(  17) = (  0.6666667  0.6666667  0.5002112  )
        18           Zn  tau(  18) = (  0.3333333  0.8333333  0.3335445  )
        19           O   tau(  19) = (  0.6666667  0.6666667  0.6265588  )
        20           O   tau(  20) = (  0.3333333  0.8333333  0.4598921  )
        21           Zn  tau(  21) = (  0.6666667  0.6666667  0.8335445  )
        22           Zn  tau(  22) = (  0.3333333  0.8333333  0.6668779  )
        23           O   tau(  23) = (  0.6666667  0.6666667  0.9598921  )
        24           O   tau(  24) = (  0.3333333  0.8333333  0.7932255  )

     number of k points=    80
                       cart. coord. in units 2pi/alat
        k(    1) = (   0.0000000   0.0000000   0.0000000), wk =   0.0092593
        k(    2) = (   0.0000000   0.0000000   0.0344134), wk =   0.0185185
        k(    3) = (   0.0000000   0.0000000   0.0688268), wk =   0.0185185
        k(    4) = (   0.0000000   0.0000000  -0.1032402), wk =   0.0092593
        k(    5) = (   0.0000000   0.0962250   0.0000000), wk =   0.0185185
        k(    6) = (   0.0000000   0.0962250   0.0344134), wk =   0.0185185
        k(    7) = (   0.0000000   0.0962250   0.0688268), wk =   0.0185185
        k(    8) = (   0.0000000   0.0962250  -0.1032402), wk =   0.0185185
        k(    9) = (   0.0000000   0.1924501   0.0000000), wk =   0.0185185
        k(   10) = (   0.0000000   0.1924501   0.0344134), wk =   0.0185185
        k(   11) = (   0.0000000   0.1924501   0.0688268), wk =   0.0185185
        k(   12) = (   0.0000000   0.1924501  -0.1032402), wk =   0.0185185
        k(   13) = (   0.0000000  -0.2886751   0.0000000), wk =   0.0092593
        k(   14) = (   0.0000000  -0.2886751   0.0344134), wk =   0.0185185
        k(   15) = (   0.0000000  -0.2886751   0.0688268), wk =   0.0185185
        k(   16) = (   0.0000000  -0.2886751  -0.1032402), wk =   0.0092593
        k(   17) = (   0.1666667   0.0962250   0.0000000), wk =   0.0370370
        k(   18) = (   0.1666667   0.0962250   0.0344134), wk =   0.0370370
        k(   19) = (   0.1666667   0.0962250   0.0688268), wk =   0.0370370
        k(   20) = (   0.1666667   0.0962250  -0.1032402), wk =   0.0370370
        k(   21) = (   0.1666667   0.1924501   0.0000000), wk =   0.0370370
        k(   22) = (   0.1666667   0.1924501   0.0344134), wk =   0.0370370
        k(   23) = (   0.1666667   0.1924501   0.0688268), wk =   0.0370370
        k(   24) = (   0.1666667   0.1924501  -0.1032402), wk =   0.0370370
        k(   25) = (   0.1666667   0.2886751   0.0000000), wk =   0.0185185
        k(   26) = (   0.1666667   0.2886751   0.0344134), wk =   0.0370370
        k(   27) = (   0.1666667   0.2886751   0.0688268), wk =   0.0370370
        k(   28) = (   0.1666667   0.2886751  -0.1032402), wk =   0.0185185
        k(   29) = (   0.1666667   0.0000000   0.0000000), wk =   0.0185185
        k(   30) = (   0.1666667   0.0000000   0.0344134), wk =   0.0370370
        k(   31) = (   0.1666667   0.0000000   0.0688268), wk =   0.0370370
        k(   32) = (   0.1666667   0.0000000  -0.1032402), wk =   0.0185185
        k(   33) = (   0.3333333   0.1924501   0.0000000), wk =   0.0370370
        k(   34) = (   0.3333333   0.1924501   0.0344134), wk =   0.0370370
        k(   35) = (   0.3333333   0.1924501   0.0688268), wk =   0.0370370
        k(   36) = (   0.3333333   0.1924501  -0.1032402), wk =   0.0370370
        k(   37) = (   0.3333333   0.2886751   0.0000000), wk =   0.0185185
        k(   38) = (   0.3333333   0.2886751   0.0344134), wk =   0.0370370
        k(   39) = (   0.3333333   0.2886751   0.0688268), wk =   0.0370370
[...]
     estimated scf accuracy    <          7.4E-09 Ry

     The total energy is the sum of the following terms:
     one-electron contribution =   -1081.29381586 Ry
     hartree contribution      =     765.79877645 Ry
     xc contribution           =    -654.78146258 Ry
     ewald contribution        =   -1199.18672145 Ry

     convergence has been achieved in  45 iterations

     Forces acting on atoms (cartesian axes, Ry/au):

     atom    1 type  1   force =     0.00000000   -0.00000538   -0.00012094
     atom    2 type  1   force =     0.00000000   -0.00000279   -0.00011271
     atom    3 type  2   force =     0.00000000    0.00000616    0.00010992
     atom    4 type  2   force =     0.00000000   -0.00000538    0.00011286
     atom    5 type  1   force =     0.00000000    0.00000688   -0.00010850
     atom    6 type  1   force =     0.00000000   -0.00000241   -0.00010491
     atom    7 type  2   force =     0.00000000    0.00000521    0.00011139
     atom    8 type  2   force =     0.00000000   -0.00000608    0.00010913
     atom    9 type  1   force =     0.00000000    0.00001731   -0.00010773
     atom   10 type  1   force =     0.00000000   -0.00000031   -0.00011113
     atom   11 type  2   force =     0.00000000    0.00000536    0.00011136
     atom   12 type  2   force =     0.00000000   -0.00000598    0.00011107
     atom   13 type  1   force =     0.00000000    0.00001178   -0.00012137
     atom   14 type  1   force =     0.00000000   -0.00000443   -0.00010042
     atom   15 type  2   force =     0.00000000    0.00000552    0.00011029
     atom   16 type  2   force =     0.00000000   -0.00000580    0.00011367
     atom   17 type  1   force =     0.00000000    0.00000063   -0.00010700
     atom   18 type  1   force =     0.00000000   -0.00000512   -0.00010916
     atom   19 type  2   force =     0.00000000    0.00000642    0.00011179
     atom   20 type  2   force =     0.00000000   -0.00000578    0.00010963
     atom   21 type  1   force =     0.00000000   -0.00000986   -0.00010539
     atom   22 type  1   force =     0.00000000   -0.00000701   -0.00012308
     atom   23 type  2   force =     0.00000000    0.00000624    0.00011013
     atom   24 type  2   force =     0.00000000   -0.00000519    0.00011109
     The non-local contrib.  to forces
     atom    1 type  1   force =     0.00000000   -0.00001483   -0.00454315
     atom    2 type  1   force =     0.00000000    0.00000985   -0.00453478
     atom    3 type  2   force =     0.00000000    0.00022514    0.00639751
     atom    4 type  2   force =     0.00000000   -0.00022525    0.00639852
     atom    5 type  1   force =     0.00000000   -0.00000595   -0.00452903
     atom    6 type  1   force =     0.00000000    0.00000905   -0.00452931
     atom    7 type  2   force =     0.00000000    0.00022156    0.00639885
     atom    8 type  2   force =     0.00000000   -0.00022497    0.00639461
     atom    9 type  1   force =     0.00000000    0.00000044   -0.00453151
     atom   10 type  1   force =     0.00000000    0.00001152   -0.00453417
     atom   11 type  2   force =     0.00000000    0.00022489    0.00639763
     atom   12 type  2   force =     0.00000000   -0.00022400    0.00639832
     atom   13 type  1   force =     0.00000000   -0.00000286   -0.00454361
     atom   14 type  1   force =     0.00000000    0.00000775   -0.00452454
     atom   15 type  2   force =     0.00000000    0.00022427    0.00640032
     atom   16 type  2   force =     0.00000000   -0.00022358    0.00640244
     atom   17 type  1   force =     0.00000000   -0.00001168   -0.00452739
     atom   18 type  1   force =     0.00000000    0.00000829   -0.00453363
     atom   19 type  2   force =     0.00000000    0.00022778    0.00640102
     atom   20 type  2   force =     0.00000000   -0.00022423    0.00639556
     atom   21 type  1   force =     0.00000000   -0.00001819   -0.00453072
     atom   22 type  1   force =     0.00000000    0.00000611   -0.00454113
     atom   23 type  2   force =     0.00000000    0.00022452    0.00639247
     atom   24 type  2   force =     0.00000000   -0.00022478    0.00639651
     The ionic contribution  to forces
     atom    1 type  1   force =    -0.00000000    0.00000001    0.05376955
     atom    2 type  1   force =     0.00000000    0.00000001    0.05376959
     atom    3 type  2   force =    -0.00000000    0.00000000   -0.05376957
     atom    4 type  2   force =     0.00000000    0.00000000   -0.05376957
     atom    5 type  1   force =    -0.00000000    0.00000001    0.05376959
     atom    6 type  1   force =     0.00000000    0.00000001    0.05376955
     atom    7 type  2   force =    -0.00000000    0.00000000   -0.05376957
     atom    8 type  2   force =     0.00000000    0.00000000   -0.05376955
     atom    9 type  1   force =    -0.00000000    0.00000001    0.05376955
     atom   10 type  1   force =     0.00000000    0.00000001    0.05376955
     atom   11 type  2   force =    -0.00000000    0.00000000   -0.05376955
     atom   12 type  2   force =     0.00000000    0.00000000   -0.05376956
     atom   13 type  1   force =     0.00000000   -0.00000001    0.05376955
     atom   14 type  1   force =    -0.00000000   -0.00000000    0.05376959
     atom   15 type  2   force =     0.00000000   -0.00000001   -0.05376957
     atom   16 type  2   force =    -0.00000000   -0.00000000   -0.05376958
     atom   17 type  1   force =     0.00000000   -0.00000001    0.05376959
     atom   18 type  1   force =    -0.00000000   -0.00000000    0.05376956
     atom   19 type  2   force =     0.00000000   -0.00000001   -0.05376957
     atom   20 type  2   force =    -0.00000000   -0.00000000   -0.05376956
     atom   21 type  1   force =     0.00000000   -0.00000001    0.05376955
     atom   22 type  1   force =    -0.00000000   -0.00000000    0.05376956
     atom   23 type  2   force =     0.00000000   -0.00000001   -0.05376955
     atom   24 type  2   force =    -0.00000000   -0.00000000   -0.05376957
     The local contribution  to forces
     atom    1 type  1   force =    -0.00000009    0.00002481   -0.04960387
     atom    2 type  1   force =     0.00000000   -0.00000771   -0.04962079
     atom    3 type  2   force =    -0.00000002   -0.00021507    0.04755269
     atom    4 type  2   force =    -0.00000000    0.00021771    0.04756446
     atom    5 type  1   force =    -0.00000009   -0.00000118   -0.04963254
     atom    6 type  1   force =     0.00000000   -0.00000785   -0.04963879
     atom    7 type  2   force =    -0.00000002   -0.00021769    0.04755844
     atom    8 type  2   force =    -0.00000000    0.00021541    0.04755080
     atom    9 type  1   force =    -0.00000009   -0.00002304   -0.04962996
     atom   10 type  1   force =     0.00000000   -0.00001226   -0.04962750
     atom   11 type  2   force =    -0.00000002   -0.00021893    0.04755270
     atom   12 type  2   force =    -0.00000000    0.00021380    0.04755130
     atom   13 type  1   force =    -0.00000000   -0.00001289   -0.04960157
     atom   14 type  1   force =     0.00000000   -0.00000386   -0.04964756
     atom   15 type  2   force =    -0.00000000   -0.00021765    0.04755088
     atom   16 type  2   force =     0.00000000    0.00021555    0.04756032
     atom   17 type  1   force =    -0.00000000    0.00001258   -0.04963679
     atom   18 type  1   force =     0.00000000   -0.00000333   -0.04962882
     atom   19 type  2   force =     0.00000000   -0.00021538    0.04755794
     atom   20 type  2   force =     0.00000000    0.00021743    0.04755151
     atom   21 type  1   force =    -0.00000000    0.00003468   -0.04963573
     atom   22 type  1   force =     0.00000000    0.00000074   -0.04960219
     atom   23 type  2   force =    -0.00000000   -0.00021415    0.04755371
     atom   24 type  2   force =     0.00000000    0.00021980    0.04755317
     The core correction contribution to forces
     atom    1 type  1   force =    -0.00000001    0.00000603    0.00027760
     atom    2 type  1   force =    -0.00000000   -0.00000654    0.00027762
     atom    3 type  2   force =     0.00000000   -0.00000254   -0.00007265
     atom    4 type  2   force =    -0.00000000    0.00000255   -0.00007264
     atom    5 type  1   force =    -0.00000001    0.00000661    0.00027774
     atom    6 type  1   force =    -0.00000000   -0.00000642    0.00027820
     atom    7 type  2   force =     0.00000000   -0.00000250   -0.00007265
     atom    8 type  2   force =    -0.00000000    0.00000254   -0.00007260
     atom    9 type  1   force =    -0.00000001    0.00000723    0.00027782
     atom   10 type  1   force =    -0.00000000   -0.00000647    0.00027810
     atom   11 type  2   force =     0.00000000   -0.00000254   -0.00007264
     atom   12 type  2   force =    -0.00000000    0.00000253   -0.00007266
     atom   13 type  1   force =     0.00000000    0.00000703    0.00027747
     atom   14 type  1   force =     0.00000000   -0.00000652    0.00027810
     atom   15 type  2   force =     0.00000000   -0.00000253   -0.00007268
     atom   16 type  2   force =    -0.00000000    0.00000252   -0.00007270
     atom   17 type  1   force =     0.00000000    0.00000644    0.00027783
     atom   18 type  1   force =     0.00000000   -0.00000661    0.00027807
     atom   19 type  2   force =     0.00000000   -0.00000258   -0.00007268
     atom   20 type  2   force =    -0.00000000    0.00000253   -0.00007262
     atom   21 type  1   force =     0.00000000    0.00000581    0.00027812
     atom   22 type  1   force =     0.00000000   -0.00000659    0.00027732
     atom   23 type  2   force =     0.00000000   -0.00000253   -0.00007258
     atom   24 type  2   force =    -0.00000000    0.00000254   -0.00007263
     The Hubbard contrib.    to forces
     atom    1 type  1   force =     0.00000000    0.00000000    0.00000000
     atom    2 type  1   force =     0.00000000    0.00000000    0.00000000
     atom    3 type  2   force =     0.00000000    0.00000000    0.00000000
     atom    4 type  2   force =     0.00000000    0.00000000    0.00000000
     atom    5 type  1   force =     0.00000000    0.00000000    0.00000000
     atom    6 type  1   force =     0.00000000    0.00000000    0.00000000
     atom    7 type  2   force =     0.00000000    0.00000000    0.00000000
     atom    8 type  2   force =     0.00000000    0.00000000    0.00000000
     atom    9 type  1   force =     0.00000000    0.00000000    0.00000000
     atom   10 type  1   force =     0.00000000    0.00000000    0.00000000
     atom   11 type  2   force =     0.00000000    0.00000000    0.00000000
     atom   12 type  2   force =     0.00000000    0.00000000    0.00000000
     atom   13 type  1   force =     0.00000000    0.00000000    0.00000000
     atom   14 type  1   force =     0.00000000    0.00000000    0.00000000
     atom   15 type  2   force =     0.00000000    0.00000000    0.00000000
     atom   16 type  2   force =     0.00000000    0.00000000    0.00000000
     atom   17 type  1   force =     0.00000000    0.00000000    0.00000000
     atom   18 type  1   force =     0.00000000    0.00000000    0.00000000
     atom   19 type  2   force =     0.00000000    0.00000000    0.00000000
     atom   20 type  2   force =     0.00000000    0.00000000    0.00000000
     atom   21 type  1   force =     0.00000000    0.00000000    0.00000000
     atom   22 type  1   force =     0.00000000    0.00000000    0.00000000
     atom   23 type  2   force =     0.00000000    0.00000000    0.00000000
     atom   24 type  2   force =     0.00000000    0.00000000    0.00000000
     The SCF correction term to forces
     atom    1 type  1   force =     0.00000000   -0.00002134   -0.00002150
     atom    2 type  1   force =    -0.00000000    0.00000165   -0.00000478
     atom    3 type  2   force =     0.00000000   -0.00000132    0.00000151
     atom    4 type  2   force =    -0.00000000   -0.00000033   -0.00000833
     atom    5 type  1   force =     0.00000000    0.00000745    0.00000531
     atom    6 type  1   force =    -0.00000000    0.00000286    0.00001501
     atom    7 type  2   force =     0.00000000    0.00000390   -0.00000410
     atom    8 type  2   force =    -0.00000000    0.00000099    0.00000546
     atom    9 type  1   force =     0.00000000    0.00003273    0.00000595
     atom   10 type  1   force =    -0.00000000    0.00000696    0.00000247
     atom   11 type  2   force =     0.00000000    0.00000199    0.00000280
     atom   12 type  2   force =    -0.00000000    0.00000175    0.00000324
     atom   13 type  1   force =    -0.00000000    0.00002057   -0.00002364
     atom   14 type  1   force =     0.00000000   -0.00000174    0.00002357
     atom   15 type  2   force =    -0.00000000    0.00000150    0.00000091
     atom   16 type  2   force =     0.00000000   -0.00000022   -0.00000725
     atom   17 type  1   force =    -0.00000000   -0.00000664    0.00000933
     atom   18 type  1   force =     0.00000000   -0.00000340    0.00000524
     atom   19 type  2   force =    -0.00000000   -0.00000333   -0.00000535
     atom   20 type  2   force =     0.00000000   -0.00000145    0.00000431
     atom   21 type  1   force =    -0.00000000   -0.00003209    0.00001296
     atom   22 type  1   force =     0.00000000   -0.00000721   -0.00002706
     atom   23 type  2   force =    -0.00000000   -0.00000154    0.00000565
     atom   24 type  2   force =     0.00000000   -0.00000269    0.00000317

     Total force =     0.000545     Total SCF correction =     0.000080
     SCF correction compared to forces is large: reduce conv_thr to get better values

     General routines

     Parallel routines

   This run was terminated on:  11: 8: 9   1Sep2025

   JOB DONE.
Note: The following floating-point exceptions are signalling: IEEE_UNDERFLOW_FLAG IEEE_DENORMAL
Note: The following floating-point exceptions are signalling: IEEE_UNDERFLOW_FLAG IEEE_DENORMAL
Note: The following floating-point exceptions are signalling: IEEE_UNDERFLOW_FLAG IEEE_DENORMAL
Note: The following floating-point exceptions are signalling: IEEE_UNDERFLOW_FLAG IEEE_DENORMAL
Note: The following floating-point exceptions are signalling: IEEE_UNDERFLOW_FLAG IEEE_DENORMAL
Note: The following floating-point exceptions are signalling: IEEE_UNDERFLOW_FLAG IEEE_DENORMAL
Note: The following floating-point exceptions are signalling: IEEE_UNDERFLOW_FLAG IEEE_DENORMAL
Note: The following floating-point exceptions are signalling: IEEE_UNDERFLOW_FLAG IEEE_DENORMAL
Note: The following floating-point exceptions are signalling: IEEE_UNDERFLOW_FLAG IEEE_DENORMAL
Note: The following floating-point exceptions are signalling: IEEE_UNDERFLOW_FLAG IEEE_DENORMAL
Note: The following floating-point exceptions are signalling: IEEE_UNDERFLOW_FLAG IEEE_DENORMAL
Note: The following floating-point exceptions are signalling: IEEE_UNDERFLOW_FLAG IEEE_DENORMAL
Note: The following floating-point exceptions are signalling: IEEE_UNDERFLOW_FLAG IEEE_DENORMAL
Note: The following floating-point exceptions are signalling: IEEE_UNDERFLOW_FLAG IEEE_DENORMAL
Note: The following floating-point exceptions are signalling: IEEE_UNDERFLOW_FLAG IEEE_DENORMAL
Note: The following floating-point exceptions are signalling: IEEE_UNDERFLOW_FLAG IEEE_DENORMAL
Note: The following floating-point exceptions are signalling: IEEE_UNDERFLOW_FLAG IEEE_DENORMAL
Note: The following floating-point exceptions are signalling: IEEE_UNDERFLOW_FLAG IEEE_DENORMAL
Note: The following floating-point exceptions are signalling: IEEE_UNDERFLOW_FLAG IEEE_DENORMAL
Note: The following floating-point exceptions are signalling: IEEE_UNDERFLOW_FLAG IEEE_DENORMAL
Note: The following floating-point exceptions are signalling: IEEE_UNDERFLOW_FLAG IEEE_DENORMAL
Note: The following floating-point exceptions are signalling: IEEE_UNDERFLOW_FLAG IEEE_DENORMAL
Note: The following floating-point exceptions are signalling: IEEE_UNDERFLOW_FLAG IEEE_DENORMAL
Note: The following floating-point exceptions are signalling: IEEE_UNDERFLOW_FLAG IEEE_DENORMAL
Note: The following floating-point exceptions are signalling: IEEE_UNDERFLOW_FLAG IEEE_DENORMAL
Note: The following floating-point exceptions are signalling: IEEE_UNDERFLOW_FLAG IEEE_DENORMAL
Note: The following floating-point exceptions are signalling: IEEE_UNDERFLOW_FLAG IEEE_DENORMAL
Note: The following floating-point exceptions are signalling: IEEE_UNDERFLOW_FLAG IEEE_DENORMAL
Note: The following floating-point exceptions are signalling: IEEE_UNDERFLOW_FLAG IEEE_DENORMAL
Note: The following floating-point exceptions are signalling: IEEE_UNDERFLOW_FLAG IEEE_DENORMAL
Note: The following floating-point exceptions are signalling: IEEE_UNDERFLOW_FLAG IEEE_DENORMAL
Note: The following floating-point exceptions are signalling: IEEE_UNDERFLOW_FLAG IEEE_DENORMAL