     Program PWSCF v.7.0 starts on 31Aug2025 at 23:52: 9

     K-points division:     npool     =       8
     R & G space division:  proc/nbgrp/npool/nimage =       4

     Reading input from /home/jvc/QEspresso7.2/ZnO_database/scripts/cell123.in/ZnO-3.47-1.55-123.in
Warning: card &CELL ignored
Warning: card / ignored
Warning: card &FCP ignored
Warning: card / ignored
Warning: card &RISM ignored
Warning: card / ignored

     Current dimensions of program PWSCF are:
     Max number of different atomic species (ntypx) = 10
     Max number of k-points (npk) =  40000
     Max angular momentum in pseudopotentials (lmaxx) =  4
     file Zn.upf: wavefunction(s)  3D renormalized
     Found identity + (  0.0000  0.0000  0.3333) symmetry
     This is a supercell, fractional translations are disabled
     Message from routine setup:
     using ibrav=0 with symmetry is DISCOURAGED, use correct ibrav instead

     Using Slab Decomposition

     bravais-lattice index     =            0
     lattice parameter (alat)  =       6.5496  a.u.
     unit-cell volume          =    2262.5305 (a.u.)^3
     number of atoms/cell      =           24
     number of atomic types    =            2
     number of electrons       =       216.00
     number of Kohn-Sham states=          108
     kinetic-energy cutoff     =      50.0000  Ry
     charge density cutoff     =     400.0000  Ry
     scf convergence threshold =      1.0E-08
     mixing beta               =       0.3000
     number of iterations used =            8  plain     mixing
     Exchange-correlation= PBE
                           (   1   4   3   4   0   0   0)

     celldm(1)=   6.549585  celldm(2)=   0.000000  celldm(3)=   0.000000
     celldm(4)=   0.000000  celldm(5)=   0.000000  celldm(6)=   0.000000

     crystal axes: (cart. coord. in units of alat)
               a(1) = (   1.000000   0.000000   0.000000 )
               a(2) = (  -1.000000   1.732051   0.000000 )
               a(3) = (   0.000000   0.000000   4.649352 )

     reciprocal axes: (cart. coord. in units 2 pi/alat)
               b(1) = (  1.000000  0.577350 -0.000000 )
               b(2) = (  0.000000  0.577350  0.000000 )
               b(3) = (  0.000000 -0.000000  0.215084 )

     PseudoPot. # 1 for Zn read from file:
     /home/jvc/QEspresso7.2/ZnO_database/pseudos/Zn.upf
     MD5 check sum: 7f56cabf9682ed8c977c2f7d0c5985c5
     Pseudo is Ultrasoft + core correction, Zval = 12.0
     Generated using &quot;atomic&quot; code by A. Dal Corso  v.6.2.2
     Using radial grid of 1201 points,  6 beta functions with:
                l(1) =   0
                l(2) =   0
                l(3) =   1
                l(4) =   1
                l(5) =   2
                l(6) =   2
     Q(r) pseudized with 0 coefficients

     PseudoPot. # 2 for O  read from file:
     /home/jvc/QEspresso7.2/ZnO_database/pseudos/O.upf
     MD5 check sum: 91400c9766925bcf19f520983a725ff0
     Pseudo is Ultrasoft + core correction, Zval =  6.0
     Generated using &quot;atomic&quot; code by A. Dal Corso  v.6.3MaX
     Using radial grid of 1095 points,  4 beta functions with:
                l(1) =   0
                l(2) =   0
                l(3) =   1
                l(4) =   1
     Q(r) pseudized with 0 coefficients

     atomic species   valence    mass     pseudopotential
        Zn            12.00    65.38000     Zn( 1.00)
        O              6.00    15.99900     O ( 1.00)

      2 Sym. Ops. (no inversion) found

                                    s                        frac. trans.

      isym =  1     identity

 cryst.   s( 1) = (     1          0          0      )
                  (     0          1          0      )
                  (     0          0          1      )

 cart.    s( 1) = (  1.0000000  0.0000000  0.0000000 )
                  (  0.0000000  1.0000000  0.0000000 )
                  (  0.0000000  0.0000000  1.0000000 )

      isym =  2     inv. 180 deg rotation - cart. axis [1,0,0]

 cryst.   s( 2) = (    -1          0          0      )
                  (     2          1          0      )
                  (     0          0          1      )

 cart.    s( 2) = ( -1.0000000  0.0000000  0.0000000 )
                  (  0.0000000  1.0000000  0.0000000 )
                  (  0.0000000  0.0000000  1.0000000 )

   Cartesian axes

     site n.     atom                  positions (alat units)
         1           Zn  tau(   1) = (   0.5000000   0.2886751   0.7758739  )
         2           Zn  tau(   2) = (   0.0000000   0.5773503   0.0009819  )
         3           O   tau(   3) = (   0.5000000   0.2886751   1.3633085  )
         4           O   tau(   4) = (   0.0000000   0.5773503   0.5884164  )
         5           Zn  tau(   5) = (   0.5000000   0.2886751   2.3256580  )
         6           Zn  tau(   6) = (   0.0000000   0.5773503   1.5507659  )
         7           O   tau(   7) = (   0.5000000   0.2886751   2.9130925  )
         8           O   tau(   8) = (   0.0000000   0.5773503   2.1382005  )
         9           Zn  tau(   9) = (   0.5000000   0.2886751   3.8754420  )
        10           Zn  tau(  10) = (   0.0000000   0.5773503   3.1005500  )
        11           O   tau(  11) = (   0.5000000   0.2886751   4.4628765  )
        12           O   tau(  12) = (   0.0000000   0.5773503   3.6879845  )
        13           Zn  tau(  13) = (   0.0000000   1.1547005   0.7758739  )
        14           Zn  tau(  14) = (  -0.5000000   1.4433757   0.0009819  )
        15           O   tau(  15) = (   0.0000000   1.1547005   1.3633085  )
        16           O   tau(  16) = (  -0.5000000   1.4433757   0.5884164  )
        17           Zn  tau(  17) = (   0.0000000   1.1547005   2.3256580  )
        18           Zn  tau(  18) = (  -0.5000000   1.4433757   1.5507659  )
        19           O   tau(  19) = (   0.0000000   1.1547005   2.9130925  )
        20           O   tau(  20) = (  -0.5000000   1.4433757   2.1382005  )
        21           Zn  tau(  21) = (   0.0000000   1.1547005   3.8754420  )
        22           Zn  tau(  22) = (  -0.5000000   1.4433757   3.1005500  )
        23           O   tau(  23) = (   0.0000000   1.1547005   4.4628765  )
        24           O   tau(  24) = (  -0.5000000   1.4433757   3.6879845  )

   Crystallographic axes

     site n.     atom                  positions (cryst. coord.)
         1           Zn  tau(   1) = (  0.6666667  0.1666667  0.1668779  )
         2           Zn  tau(   2) = (  0.3333333  0.3333333  0.0002112  )
         3           O   tau(   3) = (  0.6666667  0.1666667  0.2932255  )
         4           O   tau(   4) = (  0.3333333  0.3333333  0.1265588  )
         5           Zn  tau(   5) = (  0.6666667  0.1666667  0.5002112  )
         6           Zn  tau(   6) = (  0.3333333  0.3333333  0.3335445  )
         7           O   tau(   7) = (  0.6666667  0.1666667  0.6265588  )
         8           O   tau(   8) = (  0.3333333  0.3333333  0.4598921  )
         9           Zn  tau(   9) = (  0.6666667  0.1666667  0.8335445  )
        10           Zn  tau(  10) = (  0.3333333  0.3333333  0.6668779  )
        11           O   tau(  11) = (  0.6666667  0.1666667  0.9598921  )
        12           O   tau(  12) = (  0.3333333  0.3333333  0.7932255  )
        13           Zn  tau(  13) = (  0.6666667  0.6666667  0.1668779  )
        14           Zn  tau(  14) = (  0.3333333  0.8333333  0.0002112  )
        15           O   tau(  15) = (  0.6666667  0.6666667  0.2932255  )
        16           O   tau(  16) = (  0.3333333  0.8333333  0.1265588  )
        17           Zn  tau(  17) = (  0.6666667  0.6666667  0.5002112  )
        18           Zn  tau(  18) = (  0.3333333  0.8333333  0.3335445  )
        19           O   tau(  19) = (  0.6666667  0.6666667  0.6265588  )
        20           O   tau(  20) = (  0.3333333  0.8333333  0.4598921  )
        21           Zn  tau(  21) = (  0.6666667  0.6666667  0.8335445  )
        22           Zn  tau(  22) = (  0.3333333  0.8333333  0.6668779  )
        23           O   tau(  23) = (  0.6666667  0.6666667  0.9598921  )
        24           O   tau(  24) = (  0.3333333  0.8333333  0.7932255  )

     number of k points=    80
                       cart. coord. in units 2pi/alat
        k(    1) = (   0.0000000   0.0000000   0.0000000), wk =   0.0092593
        k(    2) = (   0.0000000   0.0000000   0.0358473), wk =   0.0185185
        k(    3) = (   0.0000000   0.0000000   0.0716946), wk =   0.0185185
        k(    4) = (   0.0000000   0.0000000  -0.1075419), wk =   0.0092593
        k(    5) = (   0.0000000   0.0962250   0.0000000), wk =   0.0185185
        k(    6) = (   0.0000000   0.0962250   0.0358473), wk =   0.0185185
        k(    7) = (   0.0000000   0.0962250   0.0716946), wk =   0.0185185
        k(    8) = (   0.0000000   0.0962250  -0.1075419), wk =   0.0185185
        k(    9) = (   0.0000000   0.1924501   0.0000000), wk =   0.0185185
        k(   10) = (   0.0000000   0.1924501   0.0358473), wk =   0.0185185
        k(   11) = (   0.0000000   0.1924501   0.0716946), wk =   0.0185185
        k(   12) = (   0.0000000   0.1924501  -0.1075419), wk =   0.0185185
        k(   13) = (   0.0000000  -0.2886751   0.0000000), wk =   0.0092593
        k(   14) = (   0.0000000  -0.2886751   0.0358473), wk =   0.0185185
        k(   15) = (   0.0000000  -0.2886751   0.0716946), wk =   0.0185185
        k(   16) = (   0.0000000  -0.2886751  -0.1075419), wk =   0.0092593
        k(   17) = (   0.1666667   0.0962250   0.0000000), wk =   0.0370370
        k(   18) = (   0.1666667   0.0962250   0.0358473), wk =   0.0370370
        k(   19) = (   0.1666667   0.0962250   0.0716946), wk =   0.0370370
        k(   20) = (   0.1666667   0.0962250  -0.1075419), wk =   0.0370370
        k(   21) = (   0.1666667   0.1924501   0.0000000), wk =   0.0370370
        k(   22) = (   0.1666667   0.1924501   0.0358473), wk =   0.0370370
        k(   23) = (   0.1666667   0.1924501   0.0716946), wk =   0.0370370
        k(   24) = (   0.1666667   0.1924501  -0.1075419), wk =   0.0370370
        k(   25) = (   0.1666667   0.2886751   0.0000000), wk =   0.0185185
        k(   26) = (   0.1666667   0.2886751   0.0358473), wk =   0.0370370
        k(   27) = (   0.1666667   0.2886751   0.0716946), wk =   0.0370370
        k(   28) = (   0.1666667   0.2886751  -0.1075419), wk =   0.0185185
        k(   29) = (   0.1666667   0.0000000   0.0000000), wk =   0.0185185
        k(   30) = (   0.1666667   0.0000000   0.0358473), wk =   0.0370370
        k(   31) = (   0.1666667   0.0000000   0.0716946), wk =   0.0370370
        k(   32) = (   0.1666667   0.0000000  -0.1075419), wk =   0.0185185
        k(   33) = (   0.3333333   0.1924501   0.0000000), wk =   0.0370370
        k(   34) = (   0.3333333   0.1924501   0.0358473), wk =   0.0370370
        k(   35) = (   0.3333333   0.1924501   0.0716946), wk =   0.0370370
        k(   36) = (   0.3333333   0.1924501  -0.1075419), wk =   0.0370370
        k(   37) = (   0.3333333   0.2886751   0.0000000), wk =   0.0185185
        k(   38) = (   0.3333333   0.2886751   0.0358473), wk =   0.0370370
        k(   39) = (   0.3333333   0.2886751   0.0716946), wk =   0.0370370
[...]

!    total energy              =   -2169.68863688 Ry
     estimated scf accuracy    <          7.9E-10 Ry

     The total energy is the sum of the following terms:
     one-electron contribution =   -1019.52952051 Ry
     hartree contribution      =     743.26913758 Ry
     xc contribution           =    -655.76533396 Ry
     ewald contribution        =   -1237.66292000 Ry

     convergence has been achieved in  28 iterations

     Forces acting on atoms (cartesian axes, Ry/au):

     atom    1 type  1   force =     0.00000000   -0.00001066   -0.00502846
     atom    2 type  1   force =     0.00000000   -0.00000116   -0.00503707
     atom    3 type  2   force =     0.00000000    0.00000271    0.00502665
     atom    4 type  2   force =     0.00000000   -0.00000292    0.00503105
     atom    5 type  1   force =     0.00000000   -0.00000300   -0.00503412
     atom    6 type  1   force =     0.00000000   -0.00000502   -0.00501828
     atom    7 type  2   force =     0.00000000    0.00000234    0.00503086
     atom    8 type  2   force =     0.00000000   -0.00000263    0.00502989
     atom    9 type  1   force =     0.00000000   -0.00000539   -0.00502352
     atom   10 type  1   force =     0.00000000    0.00000167   -0.00503147
     atom   11 type  2   force =     0.00000000    0.00000233    0.00503043
     atom   12 type  2   force =     0.00000000   -0.00000265    0.00502739
     atom   13 type  1   force =     0.00000000    0.00000401   -0.00503768
     atom   14 type  1   force =     0.00000000    0.00000800   -0.00503122
     atom   15 type  2   force =     0.00000000    0.00000247    0.00502757
     atom   16 type  2   force =     0.00000000   -0.00000243    0.00503069
     atom   17 type  1   force =     0.00000000   -0.00000262   -0.00503168
     atom   18 type  1   force =     0.00000000    0.00001242   -0.00502148
     atom   19 type  2   force =     0.00000000    0.00000253    0.00503106
     atom   20 type  2   force =     0.00000000   -0.00000268    0.00502991
     atom   21 type  1   force =     0.00000000   -0.00000286   -0.00502600
     atom   22 type  1   force =     0.00000000    0.00000589   -0.00503196
     atom   23 type  2   force =     0.00000000    0.00000252    0.00503021
     atom   24 type  2   force =     0.00000000   -0.00000289    0.00502727
     The non-local contrib.  to forces
     atom    1 type  1   force =     0.00000000   -0.00000252   -0.11426365
     atom    2 type  1   force =     0.00000000   -0.00000340   -0.11426301
     atom    3 type  2   force =     0.00000000    0.00020860   -0.09506538
     atom    4 type  2   force =     0.00000000   -0.00020678   -0.09505469
     atom    5 type  1   force =     0.00000000    0.00000066   -0.11426183
     atom    6 type  1   force =     0.00000000   -0.00000506   -0.11425921
     atom    7 type  2   force =     0.00000000    0.00020798   -0.09505495
     atom    8 type  2   force =     0.00000000   -0.00020631   -0.09505678
     atom    9 type  1   force =     0.00000000    0.00000023   -0.11426209
     atom   10 type  1   force =     0.00000000   -0.00000229   -0.11426447
     atom   11 type  2   force =     0.00000000    0.00020929   -0.09505442
     atom   12 type  2   force =     0.00000000   -0.00020758   -0.09506394
     atom   13 type  1   force =     0.00000000    0.00000473   -0.11426589
     atom   14 type  1   force =     0.00000000    0.00000109   -0.11426069
     atom   15 type  2   force =     0.00000000    0.00020796   -0.09506324
     atom   16 type  2   force =     0.00000000   -0.00020926   -0.09505406
     atom   17 type  1   force =     0.00000000    0.00000175   -0.11425962
     atom   18 type  1   force =     0.00000000    0.00000299   -0.11426132
     atom   19 type  2   force =     0.00000000    0.00020758   -0.09505501
     atom   20 type  2   force =     0.00000000   -0.00020979   -0.09505871
     atom   21 type  1   force =     0.00000000    0.00000192   -0.11426294
     atom   22 type  1   force =     0.00000000   -0.00000008   -0.11426487
     atom   23 type  2   force =     0.00000000    0.00020646   -0.09505612
     atom   24 type  2   force =     0.00000000   -0.00020929   -0.09506372
     The ionic contribution  to forces
     atom    1 type  1   force =    -0.00000000    0.00000000   -0.71135626
     atom    2 type  1   force =     0.00000000   -0.00000000   -0.71135623
     atom    3 type  2   force =    -0.00000000    0.00000000    0.71135625
     atom    4 type  2   force =     0.00000000   -0.00000000    0.71135624
     atom    5 type  1   force =    -0.00000000    0.00000000   -0.71135623
     atom    6 type  1   force =     0.00000000   -0.00000000   -0.71135626
     atom    7 type  2   force =    -0.00000000    0.00000000    0.71135624
     atom    8 type  2   force =     0.00000000   -0.00000000    0.71135626
     atom    9 type  1   force =    -0.00000000    0.00000000   -0.71135626
     atom   10 type  1   force =     0.00000000   -0.00000000   -0.71135626
     atom   11 type  2   force =    -0.00000000    0.00000000    0.71135626
     atom   12 type  2   force =     0.00000000   -0.00000000    0.71135625
     atom   13 type  1   force =    -0.00000000    0.00000000   -0.71135626
     atom   14 type  1   force =     0.00000000   -0.00000000   -0.71135623
     atom   15 type  2   force =    -0.00000000    0.00000000    0.71135625
     atom   16 type  2   force =     0.00000000   -0.00000000    0.71135624
     atom   17 type  1   force =    -0.00000000    0.00000000   -0.71135623
     atom   18 type  1   force =     0.00000000   -0.00000000   -0.71135626
     atom   19 type  2   force =    -0.00000000    0.00000000    0.71135624
     atom   20 type  2   force =     0.00000000   -0.00000000    0.71135626
     atom   21 type  1   force =    -0.00000000    0.00000000   -0.71135626
     atom   22 type  1   force =     0.00000000   -0.00000000   -0.71135626
     atom   23 type  2   force =    -0.00000000    0.00000000    0.71135626
     atom   24 type  2   force =     0.00000000   -0.00000000    0.71135625
     The local contribution  to forces
     atom    1 type  1   force =    -0.00000009    0.00000235    0.81304092
     atom    2 type  1   force =    -0.00000000    0.00001541    0.81306050
     atom    3 type  2   force =    -0.00000002   -0.00020202   -0.61204991
     atom    4 type  2   force =     0.00000000    0.00020421   -0.61204893
     atom    5 type  1   force =    -0.00000009   -0.00000939    0.81305621
     atom    6 type  1   force =     0.00000000    0.00002211    0.81302876
     atom    7 type  2   force =    -0.00000002   -0.00020060   -0.61204455
     atom    8 type  2   force =     0.00000000    0.00020301   -0.61204111
     atom    9 type  1   force =    -0.00000009   -0.00000688    0.81303637
     atom   10 type  1   force =    -0.00000000    0.00001177    0.81304418
     atom   11 type  2   force =    -0.00000002   -0.00020178   -0.61204399
     atom   12 type  2   force =    -0.00000000    0.00020296   -0.61204654
     atom   13 type  1   force =    -0.00000009   -0.00002017    0.81305311
     atom   14 type  1   force =     0.00000000    0.00000277    0.81305108
     atom   15 type  2   force =    -0.00000002   -0.00020396   -0.61204935
     atom   16 type  2   force =     0.00000000    0.00019991   -0.61204959
     atom   17 type  1   force =    -0.00000009   -0.00000908    0.81305143
     atom   18 type  1   force =    -0.00000000   -0.00000424    0.81303345
     atom   19 type  2   force =    -0.00000002   -0.00020396   -0.61204452
     atom   20 type  2   force =    -0.00000000    0.00020125   -0.61204132
     atom   21 type  1   force =    -0.00000009   -0.00001065    0.81303968
     atom   22 type  1   force =     0.00000000    0.00000627    0.81304474
     atom   23 type  2   force =    -0.00000002   -0.00020312   -0.61204116
     atom   24 type  2   force =     0.00000000    0.00020344   -0.61204612
     The core correction contribution to forces
     atom    1 type  1   force =    -0.00000001    0.00000497    0.00753973
     atom    2 type  1   force =    -0.00000000   -0.00000520    0.00753916
     atom    3 type  2   force =     0.00000000   -0.00000237    0.00078162
     atom    4 type  2   force =    -0.00000000    0.00000234    0.00078197
     atom    5 type  1   force =    -0.00000001    0.00000523    0.00753924
     atom    6 type  1   force =    -0.00000000   -0.00000538    0.00754183
     atom    7 type  2   force =     0.00000000   -0.00000235    0.00078198
     atom    8 type  2   force =    -0.00000000    0.00000233    0.00077994
     atom    9 type  1   force =    -0.00000001    0.00000517    0.00754176
     atom   10 type  1   force =    -0.00000000   -0.00000516    0.00753966
     atom   11 type  2   force =     0.00000000   -0.00000237    0.00077990
     atom   12 type  2   force =    -0.00000000    0.00000235    0.00078161
     atom   13 type  1   force =    -0.00000001    0.00000531    0.00753940
     atom   14 type  1   force =    -0.00000000   -0.00000509    0.00753939
     atom   15 type  2   force =     0.00000000   -0.00000235    0.00078160
     atom   16 type  2   force =    -0.00000000    0.00000236    0.00078196
     atom   17 type  1   force =    -0.00000001    0.00000504    0.00753923
     atom   18 type  1   force =    -0.00000000   -0.00000493    0.00754185
     atom   19 type  2   force =     0.00000000   -0.00000235    0.00078198
     atom   20 type  2   force =    -0.00000000    0.00000237    0.00077996
     atom   21 type  1   force =    -0.00000001    0.00000515    0.00754172
     atom   22 type  1   force =    -0.00000000   -0.00000514    0.00753967
     atom   23 type  2   force =     0.00000000   -0.00000234    0.00077993
     atom   24 type  2   force =    -0.00000000    0.00000238    0.00078161
     The Hubbard contrib.    to forces
     atom    1 type  1   force =     0.00000000    0.00000000    0.00000000
     atom    2 type  1   force =     0.00000000    0.00000000    0.00000000
     atom    3 type  2   force =     0.00000000    0.00000000    0.00000000
     atom    4 type  2   force =     0.00000000    0.00000000    0.00000000
     atom    5 type  1   force =     0.00000000    0.00000000    0.00000000
     atom    6 type  1   force =     0.00000000    0.00000000    0.00000000
     atom    7 type  2   force =     0.00000000    0.00000000    0.00000000
     atom    8 type  2   force =     0.00000000    0.00000000    0.00000000
     atom    9 type  1   force =     0.00000000    0.00000000    0.00000000
     atom   10 type  1   force =     0.00000000    0.00000000    0.00000000
     atom   11 type  2   force =     0.00000000    0.00000000    0.00000000
     atom   12 type  2   force =     0.00000000    0.00000000    0.00000000
     atom   13 type  1   force =     0.00000000    0.00000000    0.00000000
     atom   14 type  1   force =     0.00000000    0.00000000    0.00000000
     atom   15 type  2   force =     0.00000000    0.00000000    0.00000000
     atom   16 type  2   force =     0.00000000    0.00000000    0.00000000
     atom   17 type  1   force =     0.00000000    0.00000000    0.00000000
     atom   18 type  1   force =     0.00000000    0.00000000    0.00000000
     atom   19 type  2   force =     0.00000000    0.00000000    0.00000000
     atom   20 type  2   force =     0.00000000    0.00000000    0.00000000
     atom   21 type  1   force =     0.00000000    0.00000000    0.00000000
     atom   22 type  1   force =     0.00000000    0.00000000    0.00000000
     atom   23 type  2   force =     0.00000000    0.00000000    0.00000000
     atom   24 type  2   force =     0.00000000    0.00000000    0.00000000
     The SCF correction term to forces
     atom    1 type  1   force =     0.00000000   -0.00001540    0.00001317
     atom    2 type  1   force =    -0.00000000   -0.00000792   -0.00001512
     atom    3 type  2   force =     0.00000000   -0.00000146    0.00000644
     atom    4 type  2   force =    -0.00000000   -0.00000264   -0.00000116
     atom    5 type  1   force =     0.00000000    0.00000055   -0.00000914
     atom    6 type  1   force =    -0.00000000   -0.00001664    0.00002897
     atom    7 type  2   force =     0.00000000   -0.00000264   -0.00000550
     atom    8 type  2   force =    -0.00000000   -0.00000161   -0.00000605
     atom    9 type  1   force =     0.00000000   -0.00000386    0.00001906
     atom   10 type  1   force =    -0.00000000   -0.00000259    0.00000779
     atom   11 type  2   force =     0.00000000   -0.00000277   -0.00000496
     atom   12 type  2   force =    -0.00000000   -0.00000034    0.00000238
     atom   13 type  1   force =     0.00000000    0.00001418   -0.00000567
     atom   14 type  1   force =    -0.00000000    0.00000929   -0.00000241
     atom   15 type  2   force =     0.00000000    0.00000088    0.00000468
     atom   16 type  2   force =    -0.00000000    0.00000460   -0.00000149
     atom   17 type  1   force =     0.00000000   -0.00000027   -0.00000412
     atom   18 type  1   force =    -0.00000000    0.00001866    0.00002318
     atom   19 type  2   force =     0.00000000    0.00000131   -0.00000527
     atom   20 type  2   force =    -0.00000000    0.00000354   -0.00000392
     atom   21 type  1   force =     0.00000000    0.00000077    0.00001417
     atom   22 type  1   force =    -0.00000000    0.00000489    0.00000712
     atom   23 type  2   force =     0.00000000    0.00000157   -0.00000633
     atom   24 type  2   force =    -0.00000000    0.00000064    0.00000163

     Total force =     0.024639     Total SCF correction =     0.000065

     General routines

     Parallel routines

   This run was terminated on:   0:35: 4   1Sep2025

   JOB DONE.
Note: The following floating-point exceptions are signalling: IEEE_UNDERFLOW_FLAG IEEE_DENORMAL
Note: The following floating-point exceptions are signalling: IEEE_UNDERFLOW_FLAG IEEE_DENORMAL
Note: The following floating-point exceptions are signalling: IEEE_UNDERFLOW_FLAG IEEE_DENORMAL
Note: The following floating-point exceptions are signalling: IEEE_UNDERFLOW_FLAG IEEE_DENORMAL
Note: The following floating-point exceptions are signalling: IEEE_UNDERFLOW_FLAG IEEE_DENORMAL
Note: The following floating-point exceptions are signalling: IEEE_UNDERFLOW_FLAG IEEE_DENORMAL
Note: The following floating-point exceptions are signalling: IEEE_UNDERFLOW_FLAG IEEE_DENORMAL
Note: The following floating-point exceptions are signalling: IEEE_UNDERFLOW_FLAG IEEE_DENORMAL
Note: The following floating-point exceptions are signalling: IEEE_UNDERFLOW_FLAG IEEE_DENORMAL
Note: The following floating-point exceptions are signalling: IEEE_UNDERFLOW_FLAG IEEE_DENORMAL
Note: The following floating-point exceptions are signalling: IEEE_UNDERFLOW_FLAG IEEE_DENORMAL
Note: The following floating-point exceptions are signalling: IEEE_UNDERFLOW_FLAG IEEE_DENORMAL
Note: The following floating-point exceptions are signalling: IEEE_UNDERFLOW_FLAG IEEE_DENORMAL
Note: The following floating-point exceptions are signalling: IEEE_UNDERFLOW_FLAG IEEE_DENORMAL
Note: The following floating-point exceptions are signalling: IEEE_UNDERFLOW_FLAG IEEE_DENORMAL
Note: The following floating-point exceptions are signalling: IEEE_UNDERFLOW_FLAG IEEE_DENORMAL
Note: The following floating-point exceptions are signalling: IEEE_UNDERFLOW_FLAG IEEE_DENORMAL
Note: The following floating-point exceptions are signalling: IEEE_UNDERFLOW_FLAG IEEE_DENORMAL
Note: The following floating-point exceptions are signalling: IEEE_UNDERFLOW_FLAG IEEE_DENORMAL
Note: The following floating-point exceptions are signalling: IEEE_UNDERFLOW_FLAG IEEE_DENORMAL
Note: The following floating-point exceptions are signalling: IEEE_UNDERFLOW_FLAG IEEE_DENORMAL
Note: The following floating-point exceptions are signalling: IEEE_UNDERFLOW_FLAG IEEE_DENORMAL
Note: The following floating-point exceptions are signalling: IEEE_UNDERFLOW_FLAG IEEE_DENORMAL
Note: The following floating-point exceptions are signalling: IEEE_UNDERFLOW_FLAG IEEE_DENORMAL
Note: The following floating-point exceptions are signalling: IEEE_UNDERFLOW_FLAG IEEE_DENORMAL
Note: The following floating-point exceptions are signalling: IEEE_UNDERFLOW_FLAG IEEE_DENORMAL
Note: The following floating-point exceptions are signalling: IEEE_UNDERFLOW_FLAG IEEE_DENORMAL
Note: The following floating-point exceptions are signalling: IEEE_UNDERFLOW_FLAG IEEE_DENORMAL
Note: The following floating-point exceptions are signalling: IEEE_UNDERFLOW_FLAG IEEE_DENORMAL
Note: The following floating-point exceptions are signalling: IEEE_UNDERFLOW_FLAG IEEE_DENORMAL
Note: The following floating-point exceptions are signalling: IEEE_UNDERFLOW_FLAG IEEE_DENORMAL
Note: The following floating-point exceptions are signalling: IEEE_UNDERFLOW_FLAG IEEE_DENORMAL