     Program PWSCF v.7.0 starts on 30Aug2025 at  5:45:48

     K-points division:     npool     =       8
     R & G space division:  proc/nbgrp/npool/nimage =       4

     Reading input from /home/jvc/QEspresso7.2/ZnO_database/scripts/cell123.in/ZnO-3.01-1.65-123.in
Warning: card &CELL ignored
Warning: card / ignored
Warning: card &FCP ignored
Warning: card / ignored
Warning: card &RISM ignored
Warning: card / ignored

     Current dimensions of program PWSCF are:
     Max number of different atomic species (ntypx) = 10
     Max number of k-points (npk) =  40000
     Max angular momentum in pseudopotentials (lmaxx) =  4
     file Zn.upf: wavefunction(s)  3D renormalized
     Found identity + (  0.0000  0.0000  0.3333) symmetry
     This is a supercell, fractional translations are disabled
     Message from routine setup:
     using ibrav=0 with symmetry is DISCOURAGED, use correct ibrav instead

     Using Slab Decomposition

     bravais-lattice index     =            0
     lattice parameter (alat)  =       5.6845  a.u.
     unit-cell volume          =    1571.6986 (a.u.)^3
     number of atoms/cell      =           24
     number of atomic types    =            2
     number of electrons       =       216.00
     number of Kohn-Sham states=          108
     kinetic-energy cutoff     =      50.0000  Ry
     charge density cutoff     =     400.0000  Ry
     scf convergence threshold =      1.0E-08
     mixing beta               =       0.3000
     number of iterations used =            8  plain     mixing
     Exchange-correlation= PBE
                           (   1   4   3   4   0   0   0)

     celldm(1)=   5.684546  celldm(2)=   0.000000  celldm(3)=   0.000000
     celldm(4)=   0.000000  celldm(5)=   0.000000  celldm(6)=   0.000000

     crystal axes: (cart. coord. in units of alat)
               a(1) = (   1.000000   0.000000   0.000000 )
               a(2) = (  -1.000000   1.732051   0.000000 )
               a(3) = (   0.000000   0.000000   4.939937 )

     reciprocal axes: (cart. coord. in units 2 pi/alat)
               b(1) = (  1.000000  0.577350 -0.000000 )
               b(2) = (  0.000000  0.577350  0.000000 )
               b(3) = (  0.000000 -0.000000  0.202432 )

     PseudoPot. # 1 for Zn read from file:
     /home/jvc/QEspresso7.2/ZnO_database/pseudos/Zn.upf
     MD5 check sum: 7f56cabf9682ed8c977c2f7d0c5985c5
     Pseudo is Ultrasoft + core correction, Zval = 12.0
     Generated using &quot;atomic&quot; code by A. Dal Corso  v.6.2.2
     Using radial grid of 1201 points,  6 beta functions with:
                l(1) =   0
                l(2) =   0
                l(3) =   1
                l(4) =   1
                l(5) =   2
                l(6) =   2
     Q(r) pseudized with 0 coefficients

     PseudoPot. # 2 for O  read from file:
     /home/jvc/QEspresso7.2/ZnO_database/pseudos/O.upf
     MD5 check sum: 91400c9766925bcf19f520983a725ff0
     Pseudo is Ultrasoft + core correction, Zval =  6.0
     Generated using &quot;atomic&quot; code by A. Dal Corso  v.6.3MaX
     Using radial grid of 1095 points,  4 beta functions with:
                l(1) =   0
                l(2) =   0
                l(3) =   1
                l(4) =   1
     Q(r) pseudized with 0 coefficients

     atomic species   valence    mass     pseudopotential
        Zn            12.00    65.38000     Zn( 1.00)
        O              6.00    15.99900     O ( 1.00)

      2 Sym. Ops. (no inversion) found

                                    s                        frac. trans.

      isym =  1     identity

 cryst.   s( 1) = (     1          0          0      )
                  (     0          1          0      )
                  (     0          0          1      )

 cart.    s( 1) = (  1.0000000  0.0000000  0.0000000 )
                  (  0.0000000  1.0000000  0.0000000 )
                  (  0.0000000  0.0000000  1.0000000 )

      isym =  2     inv. 180 deg rotation - cart. axis [1,0,0]

 cryst.   s( 2) = (    -1          0          0      )
                  (     2          1          0      )
                  (     0          0          1      )

 cart.    s( 2) = ( -1.0000000  0.0000000  0.0000000 )
                  (  0.0000000  1.0000000  0.0000000 )
                  (  0.0000000  0.0000000  1.0000000 )

   Cartesian axes

     site n.     atom                  positions (alat units)
         1           Zn  tau(   1) = (   0.5000000   0.2886751   0.8243661  )
         2           Zn  tau(   2) = (   0.0000000   0.5773503   0.0010433  )
         3           O   tau(   3) = (   0.5000000   0.2886751   1.4485152  )
         4           O   tau(   4) = (   0.0000000   0.5773503   0.6251925  )
         5           Zn  tau(   5) = (   0.5000000   0.2886751   2.4710116  )
         6           Zn  tau(   6) = (   0.0000000   0.5773503   1.6476888  )
         7           O   tau(   7) = (   0.5000000   0.2886751   3.0951608  )
         8           O   tau(   8) = (   0.0000000   0.5773503   2.2718380  )
         9           Zn  tau(   9) = (   0.5000000   0.2886751   4.1176571  )
        10           Zn  tau(  10) = (   0.0000000   0.5773503   3.2943343  )
        11           O   tau(  11) = (   0.5000000   0.2886751   4.7418063  )
        12           O   tau(  12) = (   0.0000000   0.5773503   3.9184835  )
        13           Zn  tau(  13) = (   0.0000000   1.1547005   0.8243661  )
        14           Zn  tau(  14) = (  -0.5000000   1.4433757   0.0010433  )
        15           O   tau(  15) = (   0.0000000   1.1547005   1.4485152  )
        16           O   tau(  16) = (  -0.5000000   1.4433757   0.6251925  )
        17           Zn  tau(  17) = (   0.0000000   1.1547005   2.4710116  )
        18           Zn  tau(  18) = (  -0.5000000   1.4433757   1.6476888  )
        19           O   tau(  19) = (   0.0000000   1.1547005   3.0951608  )
        20           O   tau(  20) = (  -0.5000000   1.4433757   2.2718380  )
        21           Zn  tau(  21) = (   0.0000000   1.1547005   4.1176571  )
        22           Zn  tau(  22) = (  -0.5000000   1.4433757   3.2943343  )
        23           O   tau(  23) = (   0.0000000   1.1547005   4.7418063  )
        24           O   tau(  24) = (  -0.5000000   1.4433757   3.9184835  )

   Crystallographic axes

     site n.     atom                  positions (cryst. coord.)
         1           Zn  tau(   1) = (  0.6666667  0.1666667  0.1668779  )
         2           Zn  tau(   2) = (  0.3333333  0.3333333  0.0002112  )
         3           O   tau(   3) = (  0.6666667  0.1666667  0.2932255  )
         4           O   tau(   4) = (  0.3333333  0.3333333  0.1265588  )
         5           Zn  tau(   5) = (  0.6666667  0.1666667  0.5002112  )
         6           Zn  tau(   6) = (  0.3333333  0.3333333  0.3335445  )
         7           O   tau(   7) = (  0.6666667  0.1666667  0.6265588  )
         8           O   tau(   8) = (  0.3333333  0.3333333  0.4598921  )
         9           Zn  tau(   9) = (  0.6666667  0.1666667  0.8335445  )
        10           Zn  tau(  10) = (  0.3333333  0.3333333  0.6668779  )
        11           O   tau(  11) = (  0.6666667  0.1666667  0.9598921  )
        12           O   tau(  12) = (  0.3333333  0.3333333  0.7932255  )
        13           Zn  tau(  13) = (  0.6666667  0.6666667  0.1668779  )
        14           Zn  tau(  14) = (  0.3333333  0.8333333  0.0002112  )
        15           O   tau(  15) = (  0.6666667  0.6666667  0.2932255  )
        16           O   tau(  16) = (  0.3333333  0.8333333  0.1265588  )
        17           Zn  tau(  17) = (  0.6666667  0.6666667  0.5002112  )
        18           Zn  tau(  18) = (  0.3333333  0.8333333  0.3335445  )
        19           O   tau(  19) = (  0.6666667  0.6666667  0.6265588  )
        20           O   tau(  20) = (  0.3333333  0.8333333  0.4598921  )
        21           Zn  tau(  21) = (  0.6666667  0.6666667  0.8335445  )
        22           Zn  tau(  22) = (  0.3333333  0.8333333  0.6668779  )
        23           O   tau(  23) = (  0.6666667  0.6666667  0.9598921  )
        24           O   tau(  24) = (  0.3333333  0.8333333  0.7932255  )

     number of k points=    80
                       cart. coord. in units 2pi/alat
        k(    1) = (   0.0000000   0.0000000   0.0000000), wk =   0.0092593
        k(    2) = (   0.0000000   0.0000000   0.0337386), wk =   0.0185185
        k(    3) = (   0.0000000   0.0000000   0.0674772), wk =   0.0185185
        k(    4) = (   0.0000000   0.0000000  -0.1012159), wk =   0.0092593
        k(    5) = (   0.0000000   0.0962250   0.0000000), wk =   0.0185185
        k(    6) = (   0.0000000   0.0962250   0.0337386), wk =   0.0185185
        k(    7) = (   0.0000000   0.0962250   0.0674772), wk =   0.0185185
        k(    8) = (   0.0000000   0.0962250  -0.1012159), wk =   0.0185185
        k(    9) = (   0.0000000   0.1924501   0.0000000), wk =   0.0185185
        k(   10) = (   0.0000000   0.1924501   0.0337386), wk =   0.0185185
        k(   11) = (   0.0000000   0.1924501   0.0674772), wk =   0.0185185
        k(   12) = (   0.0000000   0.1924501  -0.1012159), wk =   0.0185185
        k(   13) = (   0.0000000  -0.2886751   0.0000000), wk =   0.0092593
        k(   14) = (   0.0000000  -0.2886751   0.0337386), wk =   0.0185185
        k(   15) = (   0.0000000  -0.2886751   0.0674772), wk =   0.0185185
        k(   16) = (   0.0000000  -0.2886751  -0.1012159), wk =   0.0092593
        k(   17) = (   0.1666667   0.0962250   0.0000000), wk =   0.0370370
        k(   18) = (   0.1666667   0.0962250   0.0337386), wk =   0.0370370
        k(   19) = (   0.1666667   0.0962250   0.0674772), wk =   0.0370370
        k(   20) = (   0.1666667   0.0962250  -0.1012159), wk =   0.0370370
        k(   21) = (   0.1666667   0.1924501   0.0000000), wk =   0.0370370
        k(   22) = (   0.1666667   0.1924501   0.0337386), wk =   0.0370370
        k(   23) = (   0.1666667   0.1924501   0.0674772), wk =   0.0370370
        k(   24) = (   0.1666667   0.1924501  -0.1012159), wk =   0.0370370
        k(   25) = (   0.1666667   0.2886751   0.0000000), wk =   0.0185185
        k(   26) = (   0.1666667   0.2886751   0.0337386), wk =   0.0370370
        k(   27) = (   0.1666667   0.2886751   0.0674772), wk =   0.0370370
        k(   28) = (   0.1666667   0.2886751  -0.1012159), wk =   0.0185185
        k(   29) = (   0.1666667   0.0000000   0.0000000), wk =   0.0185185
        k(   30) = (   0.1666667   0.0000000   0.0337386), wk =   0.0370370
        k(   31) = (   0.1666667   0.0000000   0.0674772), wk =   0.0370370
        k(   32) = (   0.1666667   0.0000000  -0.1012159), wk =   0.0185185
        k(   33) = (   0.3333333   0.1924501   0.0000000), wk =   0.0370370
        k(   34) = (   0.3333333   0.1924501   0.0337386), wk =   0.0370370
        k(   35) = (   0.3333333   0.1924501   0.0674772), wk =   0.0370370
        k(   36) = (   0.3333333   0.1924501  -0.1012159), wk =   0.0370370
        k(   37) = (   0.3333333   0.2886751   0.0000000), wk =   0.0185185
        k(   38) = (   0.3333333   0.2886751   0.0337386), wk =   0.0370370
        k(   39) = (   0.3333333   0.2886751   0.0674772), wk =   0.0370370
[...]

!    total energy              =   -2169.19745520 Ry
     estimated scf accuracy    <          3.0E-09 Ry

     The total energy is the sum of the following terms:
     one-electron contribution =    -763.25983939 Ry
     hartree contribution      =     653.10223301 Ry
     xc contribution           =    -660.51406601 Ry
     ewald contribution        =   -1398.52578281 Ry

     convergence has been achieved in  29 iterations

     Forces acting on atoms (cartesian axes, Ry/au):

     atom    1 type  1   force =     0.00000000   -0.00001398    0.01850597
     atom    2 type  1   force =     0.00000000    0.00001464    0.01850526
     atom    3 type  2   force =     0.00000000    0.00000079   -0.01850350
     atom    4 type  2   force =     0.00000000   -0.00000145   -0.01850497
     atom    5 type  1   force =     0.00000000   -0.00001396    0.01850345
     atom    6 type  1   force =     0.00000000    0.00001560    0.01850127
     atom    7 type  2   force =     0.00000000    0.00000106   -0.01850500
     atom    8 type  2   force =     0.00000000   -0.00000180   -0.01850343
     atom    9 type  1   force =     0.00000000   -0.00001469    0.01850585
     atom   10 type  1   force =     0.00000000    0.00001629    0.01850451
     atom   11 type  2   force =     0.00000000    0.00000157   -0.01850506
     atom   12 type  2   force =     0.00000000   -0.00000159   -0.01850516
     atom   13 type  1   force =     0.00000000   -0.00001583    0.01850526
     atom   14 type  1   force =     0.00000000    0.00001482    0.01850493
     atom   15 type  2   force =     0.00000000    0.00000242   -0.01850370
     atom   16 type  2   force =     0.00000000   -0.00000127   -0.01850453
     atom   17 type  1   force =     0.00000000   -0.00001587    0.01850319
     atom   18 type  1   force =     0.00000000    0.00001394    0.01850276
     atom   19 type  2   force =     0.00000000    0.00000210   -0.01850485
     atom   20 type  2   force =     0.00000000   -0.00000087   -0.01850318
     atom   21 type  1   force =     0.00000000   -0.00001521    0.01850591
     atom   22 type  1   force =     0.00000000    0.00001317    0.01850531
     atom   23 type  2   force =     0.00000000    0.00000155   -0.01850496
     atom   24 type  2   force =     0.00000000   -0.00000142   -0.01850532
     The non-local contrib.  to forces
     atom    1 type  1   force =     0.00000000    0.00003519    0.05666308
     atom    2 type  1   force =     0.00000000   -0.00003453    0.05666143
     atom    3 type  2   force =     0.00000000    0.00018128    0.04498424
     atom    4 type  2   force =     0.00000000   -0.00018249    0.04498221
     atom    5 type  1   force =     0.00000000    0.00003532    0.05665938
     atom    6 type  1   force =     0.00000000   -0.00003370    0.05665773
     atom    7 type  2   force =     0.00000000    0.00018160    0.04498230
     atom    8 type  2   force =     0.00000000   -0.00018294    0.04498432
     atom    9 type  1   force =     0.00000000    0.00003463    0.05666248
     atom   10 type  1   force =     0.00000000   -0.00003345    0.05666106
     atom   11 type  2   force =     0.00000000    0.00018254    0.04498221
     atom   12 type  2   force =     0.00000000   -0.00018254    0.04498243
     atom   13 type  1   force =     0.00000000    0.00003378    0.05666249
     atom   14 type  1   force =     0.00000000   -0.00003450    0.05666163
     atom   15 type  2   force =     0.00000000    0.00018363    0.04498366
     atom   16 type  2   force =     0.00000000   -0.00018245    0.04498302
     atom   17 type  1   force =     0.00000000    0.00003360    0.05665912
     atom   18 type  1   force =     0.00000000   -0.00003530    0.05665917
     atom   19 type  2   force =     0.00000000    0.00018331    0.04498256
     atom   20 type  2   force =     0.00000000   -0.00018161    0.04498465
     atom   21 type  1   force =     0.00000000    0.00003441    0.05666235
     atom   22 type  1   force =     0.00000000   -0.00003562    0.05666161
     atom   23 type  2   force =     0.00000000    0.00018218    0.04498227
     atom   24 type  2   force =     0.00000000   -0.00018229    0.04498210
     The ionic contribution  to forces
     atom    1 type  1   force =    -0.00000000    0.00000001    0.54943325
     atom    2 type  1   force =     0.00000000    0.00000001    0.54943329
     atom    3 type  2   force =    -0.00000000    0.00000001   -0.54943326
     atom    4 type  2   force =     0.00000000    0.00000000   -0.54943327
     atom    5 type  1   force =    -0.00000000    0.00000001    0.54943329
     atom    6 type  1   force =     0.00000000    0.00000001    0.54943324
     atom    7 type  2   force =    -0.00000000    0.00000001   -0.54943327
     atom    8 type  2   force =     0.00000000    0.00000000   -0.54943324
     atom    9 type  1   force =    -0.00000000    0.00000001    0.54943324
     atom   10 type  1   force =     0.00000000    0.00000001    0.54943324
     atom   11 type  2   force =    -0.00000000    0.00000001   -0.54943325
     atom   12 type  2   force =     0.00000000    0.00000000   -0.54943326
     atom   13 type  1   force =    -0.00000001   -0.00000000    0.54943324
     atom   14 type  1   force =     0.00000001   -0.00000002    0.54943329
     atom   15 type  2   force =    -0.00000001    0.00000000   -0.54943326
     atom   16 type  2   force =     0.00000001   -0.00000001   -0.54943327
     atom   17 type  1   force =    -0.00000001   -0.00000000    0.54943329
     atom   18 type  1   force =     0.00000001   -0.00000002    0.54943324
     atom   19 type  2   force =    -0.00000001    0.00000000   -0.54943327
     atom   20 type  2   force =     0.00000001   -0.00000001   -0.54943324
     atom   21 type  1   force =    -0.00000001   -0.00000000    0.54943324
     atom   22 type  1   force =     0.00000001   -0.00000002    0.54943324
     atom   23 type  2   force =    -0.00000001    0.00000000   -0.54943324
     atom   24 type  2   force =     0.00000001   -0.00000001   -0.54943326
     The local contribution  to forces
     atom    1 type  1   force =    -0.00000008   -0.00005605   -0.58283964
     atom    2 type  1   force =    -0.00000000    0.00005451   -0.58283596
     atom    3 type  2   force =    -0.00000002   -0.00018041    0.48624031
     atom    4 type  2   force =    -0.00000000    0.00017866    0.48623769
     atom    5 type  1   force =    -0.00000008   -0.00005628   -0.58283287
     atom    6 type  1   force =     0.00000000    0.00005320   -0.58282833
     atom    7 type  2   force =    -0.00000002   -0.00018033    0.48623813
     atom    8 type  2   force =     0.00000000    0.00017811    0.48623996
     atom    9 type  1   force =    -0.00000008   -0.00005491   -0.58283823
     atom   10 type  1   force =     0.00000000    0.00005229   -0.58283521
     atom   11 type  2   force =    -0.00000002   -0.00017855    0.48623780
     atom   12 type  2   force =     0.00000000    0.00017830    0.48623777
     atom   13 type  1   force =    -0.00000008   -0.00005303   -0.58283831
     atom   14 type  1   force =     0.00000008    0.00005475   -0.58283600
     atom   15 type  2   force =    -0.00000002   -0.00017709    0.48624042
     atom   16 type  2   force =     0.00000002    0.00017926    0.48623886
     atom   17 type  1   force =    -0.00000008   -0.00005279   -0.58283253
     atom   18 type  1   force =     0.00000008    0.00005601   -0.58283101
     atom   19 type  2   force =    -0.00000002   -0.00017728    0.48623780
     atom   20 type  2   force =     0.00000002    0.00017960    0.48623977
     atom   21 type  1   force =    -0.00000008   -0.00005418   -0.58283819
     atom   22 type  1   force =     0.00000008    0.00005703   -0.58283620
     atom   23 type  2   force =    -0.00000002   -0.00017878    0.48623794
     atom   24 type  2   force =     0.00000002    0.00017929    0.48623742
     The core correction contribution to forces
     atom    1 type  1   force =    -0.00000001    0.00000528   -0.00475432
     atom    2 type  1   force =     0.00000002   -0.00000517   -0.00475438
     atom    3 type  2   force =    -0.00000000   -0.00000207   -0.00029245
     atom    4 type  2   force =     0.00000000    0.00000208   -0.00029243
     atom    5 type  1   force =    -0.00000001    0.00000527   -0.00475434
     atom    6 type  1   force =     0.00000002   -0.00000521   -0.00475442
     atom    7 type  2   force =    -0.00000000   -0.00000207   -0.00029243
     atom    8 type  2   force =     0.00000000    0.00000208   -0.00029245
     atom    9 type  1   force =    -0.00000001    0.00000529   -0.00475436
     atom   10 type  1   force =     0.00000002   -0.00000518   -0.00475436
     atom   11 type  2   force =    -0.00000000   -0.00000208   -0.00029243
     atom   12 type  2   force =     0.00000000    0.00000208   -0.00029243
     atom   13 type  1   force =    -0.00000003    0.00000519   -0.00475430
     atom   14 type  1   force =     0.00000001   -0.00000530   -0.00475442
     atom   15 type  2   force =    -0.00000000   -0.00000209   -0.00029244
     atom   16 type  2   force =     0.00000000    0.00000208   -0.00029244
     atom   17 type  1   force =    -0.00000003    0.00000520   -0.00475429
     atom   18 type  1   force =     0.00000001   -0.00000526   -0.00475446
     atom   19 type  2   force =    -0.00000000   -0.00000208   -0.00029243
     atom   20 type  2   force =     0.00000000    0.00000207   -0.00029246
     atom   21 type  1   force =    -0.00000003    0.00000518   -0.00475432
     atom   22 type  1   force =     0.00000001   -0.00000528   -0.00475442
     atom   23 type  2   force =    -0.00000000   -0.00000207   -0.00029243
     atom   24 type  2   force =     0.00000000    0.00000208   -0.00029243
     The Hubbard contrib.    to forces
     atom    1 type  1   force =     0.00000000    0.00000000    0.00000000
     atom    2 type  1   force =     0.00000000    0.00000000    0.00000000
     atom    3 type  2   force =     0.00000000    0.00000000    0.00000000
     atom    4 type  2   force =     0.00000000    0.00000000    0.00000000
     atom    5 type  1   force =     0.00000000    0.00000000    0.00000000
     atom    6 type  1   force =     0.00000000    0.00000000    0.00000000
     atom    7 type  2   force =     0.00000000    0.00000000    0.00000000
     atom    8 type  2   force =     0.00000000    0.00000000    0.00000000
     atom    9 type  1   force =     0.00000000    0.00000000    0.00000000
     atom   10 type  1   force =     0.00000000    0.00000000    0.00000000
     atom   11 type  2   force =     0.00000000    0.00000000    0.00000000
     atom   12 type  2   force =     0.00000000    0.00000000    0.00000000
     atom   13 type  1   force =     0.00000000    0.00000000    0.00000000
     atom   14 type  1   force =     0.00000000    0.00000000    0.00000000
     atom   15 type  2   force =     0.00000000    0.00000000    0.00000000
     atom   16 type  2   force =     0.00000000    0.00000000    0.00000000
     atom   17 type  1   force =     0.00000000    0.00000000    0.00000000
     atom   18 type  1   force =     0.00000000    0.00000000    0.00000000
     atom   19 type  2   force =     0.00000000    0.00000000    0.00000000
     atom   20 type  2   force =     0.00000000    0.00000000    0.00000000
     atom   21 type  1   force =     0.00000000    0.00000000    0.00000000
     atom   22 type  1   force =     0.00000000    0.00000000    0.00000000
     atom   23 type  2   force =     0.00000000    0.00000000    0.00000000
     atom   24 type  2   force =     0.00000000    0.00000000    0.00000000
     The SCF correction term to forces
     atom    1 type  1   force =     0.00000000    0.00000157    0.00000532
     atom    2 type  1   force =    -0.00000000   -0.00000020    0.00000260
     atom    3 type  2   force =    -0.00000000    0.00000195   -0.00000061
     atom    4 type  2   force =    -0.00000000    0.00000027    0.00000255
     atom    5 type  1   force =     0.00000000    0.00000169   -0.00000029
     atom    6 type  1   force =    -0.00000000    0.00000128   -0.00000523
     atom    7 type  2   force =    -0.00000000    0.00000183    0.00000199
     atom    8 type  2   force =    -0.00000000    0.00000092   -0.00000029
     atom    9 type  1   force =    -0.00000000    0.00000026    0.00000443
     atom   10 type  1   force =    -0.00000000    0.00000260    0.00000150
     atom   11 type  2   force =    -0.00000000   -0.00000038    0.00000232
     atom   12 type  2   force =    -0.00000000    0.00000055    0.00000205
     atom   13 type  1   force =     0.00000000   -0.00000179    0.00000385
     atom   14 type  1   force =    -0.00000000   -0.00000015    0.00000215
     atom   15 type  2   force =     0.00000000   -0.00000206   -0.00000036
     atom   16 type  2   force =     0.00000000   -0.00000016    0.00000102
     atom   17 type  1   force =     0.00000000   -0.00000191   -0.00000069
     atom   18 type  1   force =    -0.00000000   -0.00000152   -0.00000247
     atom   19 type  2   force =     0.00000000   -0.00000187    0.00000222
     atom   20 type  2   force =     0.00000000   -0.00000093   -0.00000019
     atom   21 type  1   force =     0.00000000   -0.00000063    0.00000455
     atom   22 type  1   force =     0.00000000   -0.00000296    0.00000279
     atom   23 type  2   force =     0.00000000    0.00000020    0.00000222
     atom   24 type  2   force =     0.00000000   -0.00000051    0.00000257

     Total force =     0.090653     Total SCF correction =     0.000015

     General routines

     Parallel routines

   This run was terminated on:   6: 8: 4  30Aug2025

   JOB DONE.
Note: The following floating-point exceptions are signalling: IEEE_UNDERFLOW_FLAG IEEE_DENORMAL
Note: The following floating-point exceptions are signalling: IEEE_UNDERFLOW_FLAG IEEE_DENORMAL
Note: The following floating-point exceptions are signalling: IEEE_UNDERFLOW_FLAG IEEE_DENORMAL
Note: The following floating-point exceptions are signalling: IEEE_UNDERFLOW_FLAG IEEE_DENORMAL
Note: The following floating-point exceptions are signalling: IEEE_UNDERFLOW_FLAG IEEE_DENORMAL
Note: The following floating-point exceptions are signalling: IEEE_UNDERFLOW_FLAG IEEE_DENORMAL
Note: The following floating-point exceptions are signalling: IEEE_UNDERFLOW_FLAG IEEE_DENORMAL
Note: The following floating-point exceptions are signalling: IEEE_UNDERFLOW_FLAG IEEE_DENORMAL
Note: The following floating-point exceptions are signalling: IEEE_UNDERFLOW_FLAG IEEE_DENORMAL
Note: The following floating-point exceptions are signalling: IEEE_UNDERFLOW_FLAG IEEE_DENORMAL
Note: The following floating-point exceptions are signalling: IEEE_UNDERFLOW_FLAG IEEE_DENORMAL
Note: The following floating-point exceptions are signalling: IEEE_UNDERFLOW_FLAG IEEE_DENORMAL
Note: The following floating-point exceptions are signalling: IEEE_UNDERFLOW_FLAG IEEE_DENORMAL
Note: The following floating-point exceptions are signalling: IEEE_UNDERFLOW_FLAG IEEE_DENORMAL
Note: The following floating-point exceptions are signalling: IEEE_UNDERFLOW_FLAG IEEE_DENORMAL
Note: The following floating-point exceptions are signalling: IEEE_UNDERFLOW_FLAG IEEE_DENORMAL
Note: The following floating-point exceptions are signalling: IEEE_UNDERFLOW_FLAG IEEE_DENORMAL
Note: The following floating-point exceptions are signalling: IEEE_UNDERFLOW_FLAG IEEE_DENORMAL
Note: The following floating-point exceptions are signalling: IEEE_UNDERFLOW_FLAG IEEE_DENORMAL
Note: The following floating-point exceptions are signalling: IEEE_UNDERFLOW_FLAG IEEE_DENORMAL
Note: The following floating-point exceptions are signalling: IEEE_UNDERFLOW_FLAG IEEE_DENORMAL
Note: The following floating-point exceptions are signalling: IEEE_UNDERFLOW_FLAG IEEE_DENORMAL
Note: The following floating-point exceptions are signalling: IEEE_UNDERFLOW_FLAG IEEE_DENORMAL
Note: The following floating-point exceptions are signalling: IEEE_UNDERFLOW_FLAG IEEE_DENORMAL
Note: The following floating-point exceptions are signalling: IEEE_UNDERFLOW_FLAG IEEE_DENORMAL
Note: The following floating-point exceptions are signalling: IEEE_UNDERFLOW_FLAG IEEE_DENORMAL
Note: The following floating-point exceptions are signalling: IEEE_UNDERFLOW_FLAG IEEE_DENORMAL
Note: The following floating-point exceptions are signalling: IEEE_UNDERFLOW_FLAG IEEE_DENORMAL
Note: The following floating-point exceptions are signalling: IEEE_UNDERFLOW_FLAG IEEE_DENORMAL
Note: The following floating-point exceptions are signalling: IEEE_UNDERFLOW_FLAG IEEE_DENORMAL
Note: The following floating-point exceptions are signalling: IEEE_UNDERFLOW_FLAG IEEE_DENORMAL
Note: The following floating-point exceptions are signalling: IEEE_UNDERFLOW_FLAG IEEE_DENORMAL