     Program PWSCF v.7.2 starts on 29Aug2025 at  4:14:19

     Reading input from /home/jvc/QEspresso7.2/ZnO_database/scripts/cell313.in/ZnO-3.01-1.58-313.in
Warning: card &CELL ignored
Warning: card / ignored
Warning: card &FCP ignored
Warning: card / ignored
Warning: card &RISM ignored
Warning: card / ignored

     Current dimensions of program PWSCF are:
     Max number of different atomic species (ntypx) = 10
     Max number of k-points (npk) =  40000
     Max angular momentum in pseudopotentials (lmaxx) =  4
     file Zn.upf: wavefunction(s)  3D renormalized
     Found identity + (  0.0000  0.0000  0.3333) symmetry
     This is a supercell, fractional translations are disabled
     Message from routine setup:
     using ibrav=0 with symmetry is DISCOURAGED, use correct ibrav instead

     K-points division:     npool     =       6
     R & G space division:  proc/nbgrp/npool/nimage =      10
     Subspace diagonalization in iterative solution of the eigenvalue problem:
     one sub-group per band group will be used

     Using Slab Decomposition

     bravais-lattice index     =            0
     lattice parameter (alat)  =      17.0536  a.u.
     unit-cell volume          =    2265.0951 (a.u.)^3
     number of atoms/cell      =           36
     number of atomic types    =            2
     number of electrons       =       324.00
     number of Kohn-Sham states=          162
     kinetic-energy cutoff     =      50.0000  Ry
     charge density cutoff     =     400.0000  Ry
     scf convergence threshold =      1.0E-08
     mixing beta               =       0.3000
     number of iterations used =            8  plain     mixing
     Exchange-correlation= PBE
                           (   1   4   3   4   0   0   0)

     celldm(1)=  17.053637  celldm(2)=   0.000000  celldm(3)=   0.000000
     celldm(4)=   0.000000  celldm(5)=   0.000000  celldm(6)=   0.000000

     crystal axes: (cart. coord. in units of alat)
               a(1) = (   1.000000   0.000000   0.000000 )
               a(2) = (  -0.166667   0.288675   0.000000 )
               a(3) = (   0.000000   0.000000   1.582071 )

     reciprocal axes: (cart. coord. in units 2 pi/alat)
               b(1) = (  1.000000  0.577350 -0.000000 )
               b(2) = (  0.000000  3.464102  0.000000 )
               b(3) = (  0.000000 -0.000000  0.632083 )

     PseudoPot. # 1 for Zn read from file:
     /home/jvc/QEspresso7.2/ZnO_database/pseudos/Zn.upf
     MD5 check sum: 7f56cabf9682ed8c977c2f7d0c5985c5
     Pseudo is Ultrasoft + core correction, Zval = 12.0
     Generated using &quot;atomic&quot; code by A. Dal Corso  v.6.2.2
     Using radial grid of 1201 points,  6 beta functions with:
                l(1) =   0
                l(2) =   0
                l(3) =   1
                l(4) =   1
                l(5) =   2
                l(6) =   2
     Q(r) pseudized with 0 coefficients

     PseudoPot. # 2 for O  read from file:
     /home/jvc/QEspresso7.2/ZnO_database/pseudos/O.upf
     MD5 check sum: 91400c9766925bcf19f520983a725ff0
     Pseudo is Ultrasoft + core correction, Zval =  6.0
     Generated using &quot;atomic&quot; code by A. Dal Corso  v.6.3MaX
     Using radial grid of 1095 points,  4 beta functions with:
                l(1) =   0
                l(2) =   0
                l(3) =   1
                l(4) =   1
     Q(r) pseudized with 0 coefficients

     atomic species   valence    mass     pseudopotential
        Zn            12.00    65.38000     Zn( 1.00)
        O              6.00    15.99900     O ( 1.00)

      2 Sym. Ops. (no inversion) found

                                    s                        frac. trans.

      isym =  1     identity

 cryst.   s( 1) = (     1          0          0      )
                  (     0          1          0      )
                  (     0          0          1      )

 cart.    s( 1) = (  1.0000000  0.0000000  0.0000000 )
                  (  0.0000000  1.0000000  0.0000000 )
                  (  0.0000000  0.0000000  1.0000000 )

      isym =  2     inv. 180 deg rotation - cryst. axis [0,1,0]

 cryst.   s( 2) = (     1          3          0      )
                  (     0         -1          0      )
                  (     0          0          1      )

 cart.    s( 2) = (  0.5000000  0.8660254  0.0000000 )
                  (  0.8660254 -0.5000000  0.0000000 )
                  (  0.0000000  0.0000000  1.0000000 )

   Cartesian axes

     site n.     atom                  positions (alat units)
         1           Zn  tau(   1) = (   0.1666667   0.0962250   0.2640127  )
         2           Zn  tau(   2) = (  -0.0000000   0.1924501   0.0003341  )
         3           O   tau(   3) = (   0.1666667   0.0962250   0.4639036  )
         4           O   tau(   4) = (  -0.0000000   0.1924501   0.2002250  )
         5           Zn  tau(   5) = (   0.1666667   0.0962250   0.7913697  )
         6           Zn  tau(   6) = (  -0.0000000   0.1924501   0.5276912  )
         7           O   tau(   7) = (   0.1666667   0.0962250   0.9912606  )
         8           O   tau(   8) = (  -0.0000000   0.1924501   0.7275821  )
         9           Zn  tau(   9) = (   0.1666667   0.0962250   1.3187268  )
        10           Zn  tau(  10) = (  -0.0000000   0.1924501   1.0550483  )
        11           O   tau(  11) = (   0.1666667   0.0962250   1.5186177  )
        12           O   tau(  12) = (  -0.0000000   0.1924501   1.2549392  )
        13           Zn  tau(  13) = (   0.5000000   0.0962250   0.2640127  )
        14           Zn  tau(  14) = (   0.3333333   0.1924501   0.0003341  )
        15           O   tau(  15) = (   0.5000000   0.0962250   0.4639036  )
        16           O   tau(  16) = (   0.3333333   0.1924501   0.2002250  )
        17           Zn  tau(  17) = (   0.5000000   0.0962250   0.7913697  )
        18           Zn  tau(  18) = (   0.3333333   0.1924501   0.5276912  )
        19           O   tau(  19) = (   0.5000000   0.0962250   0.9912606  )
        20           O   tau(  20) = (   0.3333333   0.1924501   0.7275821  )
        21           Zn  tau(  21) = (   0.5000000   0.0962250   1.3187268  )
        22           Zn  tau(  22) = (   0.3333333   0.1924501   1.0550483  )
        23           O   tau(  23) = (   0.5000000   0.0962250   1.5186177  )
        24           O   tau(  24) = (   0.3333333   0.1924501   1.2549392  )
        25           Zn  tau(  25) = (   0.8333333   0.0962250   0.2640127  )
        26           Zn  tau(  26) = (   0.6666667   0.1924501   0.0003341  )
        27           O   tau(  27) = (   0.8333333   0.0962250   0.4639036  )
        28           O   tau(  28) = (   0.6666667   0.1924501   0.2002250  )
        29           Zn  tau(  29) = (   0.8333333   0.0962250   0.7913697  )
        30           Zn  tau(  30) = (   0.6666667   0.1924501   0.5276912  )
        31           O   tau(  31) = (   0.8333333   0.0962250   0.9912606  )
        32           O   tau(  32) = (   0.6666667   0.1924501   0.7275821  )
        33           Zn  tau(  33) = (   0.8333333   0.0962250   1.3187268  )
        34           Zn  tau(  34) = (   0.6666667   0.1924501   1.0550483  )
        35           O   tau(  35) = (   0.8333333   0.0962250   1.5186177  )
        36           O   tau(  36) = (   0.6666667   0.1924501   1.2549392  )

   Crystallographic axes

     site n.     atom                  positions (cryst. coord.)
         1           Zn  tau(   1) = (  0.2222222  0.3333333  0.1668779  )
         2           Zn  tau(   2) = (  0.1111111  0.6666667  0.0002112  )
         3           O   tau(   3) = (  0.2222222  0.3333333  0.2932255  )
         4           O   tau(   4) = (  0.1111111  0.6666667  0.1265588  )
         5           Zn  tau(   5) = (  0.2222222  0.3333333  0.5002112  )
         6           Zn  tau(   6) = (  0.1111111  0.6666667  0.3335445  )
         7           O   tau(   7) = (  0.2222222  0.3333333  0.6265588  )
         8           O   tau(   8) = (  0.1111111  0.6666667  0.4598921  )
         9           Zn  tau(   9) = (  0.2222222  0.3333333  0.8335445  )
        10           Zn  tau(  10) = (  0.1111111  0.6666667  0.6668779  )
        11           O   tau(  11) = (  0.2222222  0.3333333  0.9598921  )
        12           O   tau(  12) = (  0.1111111  0.6666667  0.7932255  )
        13           Zn  tau(  13) = (  0.5555556  0.3333333  0.1668779  )
        14           Zn  tau(  14) = (  0.4444444  0.6666667  0.0002112  )
        15           O   tau(  15) = (  0.5555556  0.3333333  0.2932255  )
        16           O   tau(  16) = (  0.4444444  0.6666667  0.1265588  )
        17           Zn  tau(  17) = (  0.5555556  0.3333333  0.5002112  )
        18           Zn  tau(  18) = (  0.4444444  0.6666667  0.3335445  )
        19           O   tau(  19) = (  0.5555556  0.3333333  0.6265588  )
        20           O   tau(  20) = (  0.4444444  0.6666667  0.4598921  )
        21           Zn  tau(  21) = (  0.5555556  0.3333333  0.8335445  )
        22           Zn  tau(  22) = (  0.4444444  0.6666667  0.6668779  )
        23           O   tau(  23) = (  0.5555556  0.3333333  0.9598921  )
        24           O   tau(  24) = (  0.4444444  0.6666667  0.7932255  )
        25           Zn  tau(  25) = (  0.8888889  0.3333333  0.1668779  )
        26           Zn  tau(  26) = (  0.7777778  0.6666667  0.0002112  )
        27           O   tau(  27) = (  0.8888889  0.3333333  0.2932255  )
        28           O   tau(  28) = (  0.7777778  0.6666667  0.1265588  )
        29           Zn  tau(  29) = (  0.8888889  0.3333333  0.5002112  )
        30           Zn  tau(  30) = (  0.7777778  0.6666667  0.3335445  )
        31           O   tau(  31) = (  0.8888889  0.3333333  0.6265588  )
        32           O   tau(  32) = (  0.7777778  0.6666667  0.4598921  )
        33           Zn  tau(  33) = (  0.8888889  0.3333333  0.8335445  )
        34           Zn  tau(  34) = (  0.7777778  0.6666667  0.6668779  )
        35           O   tau(  35) = (  0.8888889  0.3333333  0.9598921  )
        36           O   tau(  36) = (  0.7777778  0.6666667  0.7932255  )

     number of k points=    68
                       cart. coord. in units 2pi/alat
        k(    1) = (   0.0000000   0.0000000   0.0000000), wk =   0.0092593
        k(    2) = (   0.0000000   0.0000000   0.1053471), wk =   0.0185185
        k(    3) = (   0.0000000   0.0000000   0.2106943), wk =   0.0185185
        k(    4) = (   0.0000000   0.0000000  -0.3160414), wk =   0.0092593
        k(    5) = (   0.0000000   0.5773503   0.0000000), wk =   0.0370370
        k(    6) = (   0.0000000   0.5773503   0.1053471), wk =   0.0370370
        k(    7) = (   0.0000000   0.5773503   0.2106943), wk =   0.0370370
        k(    8) = (   0.0000000   0.5773503  -0.3160414), wk =   0.0370370
        k(    9) = (   0.0000000   1.1547005   0.0000000), wk =   0.0185185
        k(   10) = (   0.0000000   1.1547005   0.1053471), wk =   0.0370370
        k(   11) = (   0.0000000   1.1547005   0.2106943), wk =   0.0370370
        k(   12) = (   0.0000000   1.1547005  -0.3160414), wk =   0.0185185
        k(   13) = (   0.0000000  -1.7320508   0.0000000), wk =   0.0185185
[...]
     atom   14 type  1   force =     0.00002574    0.00001486   -0.07286480
     atom   15 type  2   force =    -0.00015675   -0.00009050   -0.04131970
     atom   16 type  2   force =     0.00015640    0.00009030   -0.04131961
     atom   17 type  1   force =    -0.00002581   -0.00001490   -0.07286484
     atom   18 type  1   force =     0.00002665    0.00001539   -0.07286557
     atom   19 type  2   force =    -0.00015690   -0.00009058   -0.04132034
     atom   20 type  2   force =     0.00015650    0.00009036   -0.04131992
     atom   21 type  1   force =    -0.00002614   -0.00001509   -0.07286393
     atom   22 type  1   force =     0.00002619    0.00001512   -0.07286414
     atom   23 type  2   force =    -0.00015628   -0.00009023   -0.04131999
     atom   24 type  2   force =     0.00015662    0.00009043   -0.04132078
     atom   25 type  1   force =    -0.00002627   -0.00001517   -0.07286421
     atom   26 type  1   force =     0.00002615    0.00001510   -0.07286488
     atom   27 type  2   force =    -0.00015658   -0.00009040   -0.04131972
     atom   28 type  2   force =     0.00015651    0.00009036   -0.04132000
     atom   29 type  1   force =    -0.00002647   -0.00001528   -0.07286465
     atom   30 type  1   force =     0.00002574    0.00001486   -0.07286574
     atom   31 type  2   force =    -0.00015651   -0.00009036   -0.04131979
     atom   32 type  2   force =     0.00015653    0.00009037   -0.04131991
     atom   33 type  1   force =    -0.00002648   -0.00001529   -0.07286381
     atom   34 type  1   force =     0.00002605    0.00001504   -0.07286429
     atom   35 type  2   force =    -0.00015648   -0.00009034   -0.04131983
     atom   36 type  2   force =     0.00015674    0.00009049   -0.04132045
     The ionic contribution  to forces
     atom    1 type  1   force =     0.00000001    0.00000001   -0.42324055
     atom    2 type  1   force =     0.00000001    0.00000000   -0.42324050
     atom    3 type  2   force =     0.00000000    0.00000000    0.42324053
     atom    4 type  2   force =     0.00000001    0.00000000    0.42324052
     atom    5 type  1   force =     0.00000001    0.00000001   -0.42324050
     atom    6 type  1   force =     0.00000001    0.00000000   -0.42324055
     atom    7 type  2   force =     0.00000000    0.00000000    0.42324052
     atom    8 type  2   force =     0.00000001    0.00000000    0.42324055
     atom    9 type  1   force =     0.00000001    0.00000001   -0.42324055
     atom   10 type  1   force =     0.00000001    0.00000000   -0.42324055
     atom   11 type  2   force =     0.00000000    0.00000000    0.42324055
     atom   12 type  2   force =     0.00000001    0.00000000    0.42324053
     atom   13 type  1   force =    -0.00000001    0.00000000   -0.42324055
     atom   14 type  1   force =     0.00000001   -0.00000000   -0.42324051
     atom   15 type  2   force =    -0.00000001    0.00000001    0.42324054
     atom   16 type  2   force =     0.00000001   -0.00000001    0.42324053
     atom   17 type  1   force =    -0.00000001    0.00000000   -0.42324051
     atom   18 type  1   force =     0.00000001   -0.00000000   -0.42324056
     atom   19 type  2   force =    -0.00000001    0.00000001    0.42324053
     atom   20 type  2   force =     0.00000001   -0.00000001    0.42324055
     atom   21 type  1   force =    -0.00000001    0.00000000   -0.42324056
     atom   22 type  1   force =     0.00000001   -0.00000000   -0.42324055
     atom   23 type  2   force =    -0.00000001    0.00000001    0.42324055
     atom   24 type  2   force =     0.00000001   -0.00000001    0.42324054
     atom   25 type  1   force =    -0.00000001   -0.00000000   -0.42324055
     atom   26 type  1   force =    -0.00000001   -0.00000001   -0.42324050
     atom   27 type  2   force =    -0.00000001   -0.00000000    0.42324053
     atom   28 type  2   force =    -0.00000000   -0.00000000    0.42324052
     atom   29 type  1   force =    -0.00000001   -0.00000000   -0.42324050
     atom   30 type  1   force =    -0.00000001   -0.00000001   -0.42324055
     atom   31 type  2   force =    -0.00000001   -0.00000000    0.42324052
     atom   32 type  2   force =    -0.00000000   -0.00000000    0.42324055
     atom   33 type  1   force =    -0.00000001   -0.00000000   -0.42324055
     atom   34 type  1   force =    -0.00000001   -0.00000001   -0.42324055
     atom   35 type  2   force =    -0.00000001   -0.00000000    0.42324055
     atom   36 type  2   force =    -0.00000000   -0.00000000    0.42324053
     The local contribution  to forces
     atom    1 type  1   force =     0.00004392    0.00002536    0.46799214
     atom    2 type  1   force =    -0.00004505   -0.00002605    0.46799307
     atom    3 type  2   force =     0.00015338    0.00008856   -0.36123370
     atom    4 type  2   force =    -0.00015258   -0.00008810   -0.36123710
     atom    5 type  1   force =     0.00004401    0.00002541    0.46799218
     atom    6 type  1   force =    -0.00004385   -0.00002536    0.46799612
     atom    7 type  2   force =     0.00015210    0.00008782   -0.36123733
     atom    8 type  2   force =    -0.00015260   -0.00008811   -0.36123686
     atom    9 type  1   force =     0.00004302    0.00002484    0.46799056
     atom   10 type  1   force =    -0.00004411   -0.00002551    0.46799106
     atom   11 type  2   force =     0.00015086    0.00008710   -0.36123602
     atom   12 type  2   force =    -0.00015312   -0.00008841   -0.36123597
     atom   13 type  1   force =     0.00004364    0.00002528    0.46799213
     atom   14 type  1   force =    -0.00004267   -0.00002473    0.46799329
     atom   15 type  2   force =     0.00015069    0.00008702   -0.36123496
     atom   16 type  2   force =    -0.00015146   -0.00008747   -0.36123694
     atom   17 type  1   force =     0.00004305    0.00002494    0.46799318
     atom   18 type  1   force =    -0.00004526   -0.00002622    0.46799483
     atom   19 type  2   force =     0.00015253    0.00008808   -0.36123681
     atom   20 type  2   force =    -0.00015274   -0.00008821   -0.36123636
     atom   21 type  1   force =     0.00004391    0.00002544    0.46799099
     atom   22 type  1   force =    -0.00004412   -0.00002556    0.46799170
     atom   23 type  2   force =     0.00015172    0.00008762   -0.36123565
     atom   24 type  2   force =    -0.00015229   -0.00008795   -0.36123708
     atom   25 type  1   force =     0.00004431    0.00002563    0.46799157
     atom   26 type  1   force =    -0.00004423   -0.00002554    0.46799338
     atom   27 type  2   force =     0.00015233    0.00008796   -0.36123375
     atom   28 type  2   force =    -0.00015191   -0.00008770   -0.36123755
     atom   29 type  1   force =     0.00004463    0.00002581    0.46799259
     atom   30 type  1   force =    -0.00004254   -0.00002456    0.46799539
     atom   31 type  2   force =     0.00015230    0.00008794   -0.36123781
     atom   32 type  2   force =    -0.00015065   -0.00008698   -0.36123600
     atom   33 type  1   force =     0.00004490    0.00002597    0.46799072
     atom   34 type  1   force =    -0.00004373   -0.00002525    0.46799176
     atom   35 type  2   force =     0.00015248    0.00008805   -0.36123627
     atom   36 type  2   force =    -0.00015168   -0.00008758   -0.36123735
     The core correction contribution to forces
     atom    1 type  1   force =    -0.00000364   -0.00000210    0.00720222
     atom    2 type  1   force =     0.00000365    0.00000210    0.00720221
     atom    3 type  2   force =     0.00000177    0.00000102    0.00022534
     atom    4 type  2   force =    -0.00000177   -0.00000102    0.00022533
     atom    5 type  1   force =    -0.00000364   -0.00000210    0.00720223
     atom    6 type  1   force =     0.00000365    0.00000210    0.00720222
     atom    7 type  2   force =     0.00000177    0.00000102    0.00022534
     atom    8 type  2   force =    -0.00000177   -0.00000102    0.00022533
     atom    9 type  1   force =    -0.00000366   -0.00000211    0.00720224
     atom   10 type  1   force =     0.00000365    0.00000210    0.00720223
     atom   11 type  2   force =     0.00000176    0.00000102    0.00022534
     atom   12 type  2   force =    -0.00000177   -0.00000102    0.00022534
     atom   13 type  1   force =    -0.00000366   -0.00000210    0.00720222
     atom   14 type  1   force =     0.00000365    0.00000209    0.00720223
     atom   15 type  2   force =     0.00000176    0.00000102    0.00022534
     atom   16 type  2   force =    -0.00000176   -0.00000102    0.00022533
     atom   17 type  1   force =    -0.00000365   -0.00000210    0.00720222
     atom   18 type  1   force =     0.00000365    0.00000210    0.00720222
     atom   19 type  2   force =     0.00000177    0.00000102    0.00022534
     atom   20 type  2   force =    -0.00000176   -0.00000102    0.00022533
     atom   21 type  1   force =    -0.00000366   -0.00000210    0.00720222
     atom   22 type  1   force =     0.00000365    0.00000210    0.00720225
     atom   23 type  2   force =     0.00000176    0.00000101    0.00022534
     atom   24 type  2   force =    -0.00000176   -0.00000102    0.00022534
     atom   25 type  1   force =    -0.00000365   -0.00000210    0.00720222
     atom   26 type  1   force =     0.00000365    0.00000211    0.00720222
     atom   27 type  2   force =     0.00000176    0.00000102    0.00022534
     atom   28 type  2   force =    -0.00000176   -0.00000102    0.00022533
     atom   29 type  1   force =    -0.00000366   -0.00000211    0.00720223
     atom   30 type  1   force =     0.00000366    0.00000211    0.00720223
     atom   31 type  2   force =     0.00000176    0.00000102    0.00022533
     atom   32 type  2   force =    -0.00000176   -0.00000101    0.00022534
     atom   33 type  1   force =    -0.00000364   -0.00000210    0.00720223
     atom   34 type  1   force =     0.00000366    0.00000211    0.00720223
     atom   35 type  2   force =     0.00000176    0.00000102    0.00022533
     atom   36 type  2   force =    -0.00000176   -0.00000102    0.00022534
     The Hubbard contrib.    to forces
     atom    1 type  1   force =     0.00000000    0.00000000    0.00000000
     atom    2 type  1   force =     0.00000000    0.00000000    0.00000000
     atom    3 type  2   force =     0.00000000    0.00000000    0.00000000
     atom    4 type  2   force =     0.00000000    0.00000000    0.00000000
     atom    5 type  1   force =     0.00000000    0.00000000    0.00000000
     atom    6 type  1   force =     0.00000000    0.00000000    0.00000000
     atom    7 type  2   force =     0.00000000    0.00000000    0.00000000
     atom    8 type  2   force =     0.00000000    0.00000000    0.00000000
     atom    9 type  1   force =     0.00000000    0.00000000    0.00000000
     atom   10 type  1   force =     0.00000000    0.00000000    0.00000000
     atom   11 type  2   force =     0.00000000    0.00000000    0.00000000
     atom   12 type  2   force =     0.00000000    0.00000000    0.00000000
     atom   13 type  1   force =     0.00000000    0.00000000    0.00000000
     atom   14 type  1   force =     0.00000000    0.00000000    0.00000000
     atom   15 type  2   force =     0.00000000    0.00000000    0.00000000
     atom   16 type  2   force =     0.00000000    0.00000000    0.00000000
     atom   17 type  1   force =     0.00000000    0.00000000    0.00000000
     atom   18 type  1   force =     0.00000000    0.00000000    0.00000000
     atom   19 type  2   force =     0.00000000    0.00000000    0.00000000
     atom   20 type  2   force =     0.00000000    0.00000000    0.00000000
     atom   21 type  1   force =     0.00000000    0.00000000    0.00000000
     atom   22 type  1   force =     0.00000000    0.00000000    0.00000000
     atom   23 type  2   force =     0.00000000    0.00000000    0.00000000
     atom   24 type  2   force =     0.00000000    0.00000000    0.00000000
     atom   25 type  1   force =     0.00000000    0.00000000    0.00000000
     atom   26 type  1   force =     0.00000000    0.00000000    0.00000000
     atom   27 type  2   force =     0.00000000    0.00000000    0.00000000
     atom   28 type  2   force =     0.00000000    0.00000000    0.00000000
     atom   29 type  1   force =     0.00000000    0.00000000    0.00000000
     atom   30 type  1   force =     0.00000000    0.00000000    0.00000000
     atom   31 type  2   force =     0.00000000    0.00000000    0.00000000
     atom   32 type  2   force =     0.00000000    0.00000000    0.00000000
     atom   33 type  1   force =     0.00000000    0.00000000    0.00000000
     atom   34 type  1   force =     0.00000000    0.00000000    0.00000000
     atom   35 type  2   force =     0.00000000    0.00000000    0.00000000
     atom   36 type  2   force =     0.00000000    0.00000000    0.00000000
     The SCF correction term to forces
     atom    1 type  1   force =     0.00000035    0.00000020    0.00000114
     atom    2 type  1   force =     0.00000107    0.00000062   -0.00000123
     atom    3 type  2   force =    -0.00000015   -0.00000008   -0.00000425
     atom    4 type  2   force =    -0.00000081   -0.00000047   -0.00000061
     atom    5 type  1   force =     0.00000051    0.00000030    0.00000064
     atom    6 type  1   force =    -0.00000059   -0.00000034   -0.00000483
     atom    7 type  2   force =     0.00000123    0.00000071   -0.00000005
     atom    8 type  2   force =    -0.00000085   -0.00000049   -0.00000071
     atom    9 type  1   force =     0.00000218    0.00000126    0.00000254
     atom   10 type  1   force =    -0.00000043   -0.00000025    0.00000245
     atom   11 type  2   force =     0.00000239    0.00000138   -0.00000127
     atom   12 type  2   force =    -0.00000021   -0.00000012   -0.00000154
     atom   13 type  1   force =     0.00000103    0.00000059    0.00000107
     atom   14 type  1   force =    -0.00000236   -0.00000136   -0.00000134
     atom   15 type  2   force =     0.00000280    0.00000162   -0.00000274
     atom   16 type  2   force =    -0.00000152   -0.00000088   -0.00000077
     atom   17 type  1   force =     0.00000192    0.00000111   -0.00000060
     atom   18 type  1   force =     0.00000149    0.00000086   -0.00000235
     atom   19 type  2   force =     0.00000080    0.00000046   -0.00000048
     atom   20 type  2   force =    -0.00000033   -0.00000019   -0.00000129
     atom   21 type  1   force =     0.00000070    0.00000040    0.00000220
     atom   22 type  1   force =    -0.00000022   -0.00000013    0.00000045
     atom   23 type  2   force =     0.00000138    0.00000080   -0.00000209
     atom   24 type  2   force =    -0.00000084   -0.00000048   -0.00000002
     atom   25 type  1   force =     0.00000020    0.00000012    0.00000179
     atom   26 type  1   force =     0.00000004    0.00000002   -0.00000111
     atom   27 type  2   force =     0.00000092    0.00000053   -0.00000408
     atom   28 type  2   force =    -0.00000110   -0.00000064    0.00000002
     atom   29 type  1   force =    -0.00000000   -0.00000000    0.00000012
     atom   30 type  1   force =    -0.00000328   -0.00000189   -0.00000383
     atom   31 type  2   force =     0.00000090    0.00000052    0.00000016
     atom   32 type  2   force =    -0.00000264   -0.00000153   -0.00000166
     atom   33 type  1   force =    -0.00000091   -0.00000052    0.00000249
     atom   34 type  1   force =    -0.00000104   -0.00000060    0.00000149
     atom   35 type  2   force =     0.00000061    0.00000035   -0.00000146
     atom   36 type  2   force =    -0.00000167   -0.00000096    0.00000015

     Total force =     0.125456     Total SCF correction =     0.000015

     General routines

     Parallel routines

   This run was terminated on:   4:46:27  29Aug2025

   JOB DONE.
Note: The following floating-point exceptions are signalling: IEEE_INVALID_FLAG
Note: The following floating-point exceptions are signalling: IEEE_INVALID_FLAG
Note: The following floating-point exceptions are signalling: IEEE_INVALID_FLAG
Note: The following floating-point exceptions are signalling: IEEE_DENORMAL
Note: The following floating-point exceptions are signalling: IEEE_DENORMAL
Note: The following floating-point exceptions are signalling: IEEE_INVALID_FLAG
Note: The following floating-point exceptions are signalling: IEEE_DENORMAL
Note: The following floating-point exceptions are signalling: IEEE_INVALID_FLAG
Note: The following floating-point exceptions are signalling: IEEE_DENORMAL
Note: The following floating-point exceptions are signalling: IEEE_DENORMAL
Note: The following floating-point exceptions are signalling: IEEE_INVALID_FLAG
Note: The following floating-point exceptions are signalling: IEEE_DENORMAL