     Program PWSCF v.7.2 starts on  2Sep2025 at 14: 0:35

     Reading input from /home/jvc/QEspresso7.2/ZnO_database/scripts/cell313.in/ZnO-3.47-1.45-313.in
Warning: card &CELL ignored
Warning: card / ignored
Warning: card &FCP ignored
Warning: card / ignored
Warning: card &RISM ignored
Warning: card / ignored

     Current dimensions of program PWSCF are:
     Max number of different atomic species (ntypx) = 10
     Max number of k-points (npk) =  40000
     Max angular momentum in pseudopotentials (lmaxx) =  4
     file Zn.upf: wavefunction(s)  3D renormalized
     Found identity + (  0.0000  0.0000  0.3333) symmetry
     This is a supercell, fractional translations are disabled
     Message from routine setup:
     using ibrav=0 with symmetry is DISCOURAGED, use correct ibrav instead

     K-points division:     npool     =      17
     R & G space division:  proc/nbgrp/npool/nimage =       3
     Subspace diagonalization in iterative solution of the eigenvalue problem:
     a serial algorithm will be used

     Using Slab Decomposition

     bravais-lattice index     =            0
     lattice parameter (alat)  =      19.6488  a.u.
     unit-cell volume          =    3181.6836 (a.u.)^3
     number of atoms/cell      =           36
     number of atomic types    =            2
     number of electrons       =       324.00
     number of Kohn-Sham states=          162
     kinetic-energy cutoff     =      50.0000  Ry
     charge density cutoff     =     400.0000  Ry
     scf convergence threshold =      1.0E-08
     mixing beta               =       0.3000
     number of iterations used =            8  plain     mixing
     Exchange-correlation= PBE
                           (   1   4   3   4   0   0   0)

     celldm(1)=  19.648756  celldm(2)=   0.000000  celldm(3)=   0.000000
     celldm(4)=   0.000000  celldm(5)=   0.000000  celldm(6)=   0.000000

     crystal axes: (cart. coord. in units of alat)
               a(1) = (   1.000000   0.000000   0.000000 )
               a(2) = (  -0.166667   0.288675   0.000000 )
               a(3) = (   0.000000   0.000000   1.452923 )

     reciprocal axes: (cart. coord. in units 2 pi/alat)
               b(1) = (  1.000000  0.577350 -0.000000 )
               b(2) = (  0.000000  3.464102  0.000000 )
               b(3) = (  0.000000 -0.000000  0.688268 )

     PseudoPot. # 1 for Zn read from file:
     /home/jvc/QEspresso7.2/ZnO_database/pseudos/Zn.upf
     MD5 check sum: 7f56cabf9682ed8c977c2f7d0c5985c5
     Pseudo is Ultrasoft + core correction, Zval = 12.0
     Generated using &quot;atomic&quot; code by A. Dal Corso  v.6.2.2
     Using radial grid of 1201 points,  6 beta functions with:
                l(1) =   0
                l(2) =   0
                l(3) =   1
                l(4) =   1
                l(5) =   2
                l(6) =   2
     Q(r) pseudized with 0 coefficients

     PseudoPot. # 2 for O  read from file:
     /home/jvc/QEspresso7.2/ZnO_database/pseudos/O.upf
     MD5 check sum: 91400c9766925bcf19f520983a725ff0
     Pseudo is Ultrasoft + core correction, Zval =  6.0
     Generated using &quot;atomic&quot; code by A. Dal Corso  v.6.3MaX
     Using radial grid of 1095 points,  4 beta functions with:
                l(1) =   0
                l(2) =   0
                l(3) =   1
                l(4) =   1
     Q(r) pseudized with 0 coefficients

     atomic species   valence    mass     pseudopotential
        Zn            12.00    65.38000     Zn( 1.00)
        O              6.00    15.99900     O ( 1.00)

      2 Sym. Ops. (no inversion) found

                                    s                        frac. trans.

      isym =  1     identity

 cryst.   s( 1) = (     1          0          0      )
                  (     0          1          0      )
                  (     0          0          1      )

 cart.    s( 1) = (  1.0000000  0.0000000  0.0000000 )
                  (  0.0000000  1.0000000  0.0000000 )
                  (  0.0000000  0.0000000  1.0000000 )

      isym =  2     inv. 180 deg rotation - cryst. axis [0,1,0]

 cryst.   s( 2) = (     1          3          0      )
                  (     0         -1          0      )
                  (     0          0          1      )

 cart.    s( 2) = (  0.5000000  0.8660254  0.0000000 )
                  (  0.8660254 -0.5000000  0.0000000 )
                  (  0.0000000  0.0000000  1.0000000 )

   Cartesian axes

     site n.     atom                  positions (alat units)
         1           Zn  tau(   1) = (   0.1666667   0.0962250   0.2424606  )
         2           Zn  tau(   2) = (  -0.0000000   0.1924501   0.0003069  )
         3           O   tau(   3) = (   0.1666667   0.0962250   0.4260339  )
         4           O   tau(   4) = (  -0.0000000   0.1924501   0.1838801  )
         5           Zn  tau(   5) = (   0.1666667   0.0962250   0.7267681  )
         6           Zn  tau(   6) = (  -0.0000000   0.1924501   0.4846144  )
         7           O   tau(   7) = (   0.1666667   0.0962250   0.9103414  )
         8           O   tau(   8) = (  -0.0000000   0.1924501   0.6681876  )
         9           Zn  tau(   9) = (   0.1666667   0.0962250   1.2110756  )
        10           Zn  tau(  10) = (  -0.0000000   0.1924501   0.9689219  )
        11           O   tau(  11) = (   0.1666667   0.0962250   1.3946489  )
        12           O   tau(  12) = (  -0.0000000   0.1924501   1.1524952  )
        13           Zn  tau(  13) = (   0.5000000   0.0962250   0.2424606  )
        14           Zn  tau(  14) = (   0.3333333   0.1924501   0.0003069  )
        15           O   tau(  15) = (   0.5000000   0.0962250   0.4260339  )
        16           O   tau(  16) = (   0.3333333   0.1924501   0.1838801  )
        17           Zn  tau(  17) = (   0.5000000   0.0962250   0.7267681  )
        18           Zn  tau(  18) = (   0.3333333   0.1924501   0.4846144  )
        19           O   tau(  19) = (   0.5000000   0.0962250   0.9103414  )
        20           O   tau(  20) = (   0.3333333   0.1924501   0.6681876  )
        21           Zn  tau(  21) = (   0.5000000   0.0962250   1.2110756  )
        22           Zn  tau(  22) = (   0.3333333   0.1924501   0.9689219  )
        23           O   tau(  23) = (   0.5000000   0.0962250   1.3946489  )
        24           O   tau(  24) = (   0.3333333   0.1924501   1.1524952  )
        25           Zn  tau(  25) = (   0.8333333   0.0962250   0.2424606  )
        26           Zn  tau(  26) = (   0.6666667   0.1924501   0.0003069  )
        27           O   tau(  27) = (   0.8333333   0.0962250   0.4260339  )
        28           O   tau(  28) = (   0.6666667   0.1924501   0.1838801  )
        29           Zn  tau(  29) = (   0.8333333   0.0962250   0.7267681  )
        30           Zn  tau(  30) = (   0.6666667   0.1924501   0.4846144  )
        31           O   tau(  31) = (   0.8333333   0.0962250   0.9103414  )
        32           O   tau(  32) = (   0.6666667   0.1924501   0.6681876  )
        33           Zn  tau(  33) = (   0.8333333   0.0962250   1.2110756  )
        34           Zn  tau(  34) = (   0.6666667   0.1924501   0.9689219  )
        35           O   tau(  35) = (   0.8333333   0.0962250   1.3946489  )
        36           O   tau(  36) = (   0.6666667   0.1924501   1.1524952  )

   Crystallographic axes

     site n.     atom                  positions (cryst. coord.)
         1           Zn  tau(   1) = (  0.2222222  0.3333333  0.1668779  )
         2           Zn  tau(   2) = (  0.1111111  0.6666667  0.0002112  )
         3           O   tau(   3) = (  0.2222222  0.3333333  0.2932255  )
         4           O   tau(   4) = (  0.1111111  0.6666667  0.1265588  )
         5           Zn  tau(   5) = (  0.2222222  0.3333333  0.5002112  )
         6           Zn  tau(   6) = (  0.1111111  0.6666667  0.3335445  )
         7           O   tau(   7) = (  0.2222222  0.3333333  0.6265588  )
         8           O   tau(   8) = (  0.1111111  0.6666667  0.4598921  )
         9           Zn  tau(   9) = (  0.2222222  0.3333333  0.8335445  )
        10           Zn  tau(  10) = (  0.1111111  0.6666667  0.6668779  )
        11           O   tau(  11) = (  0.2222222  0.3333333  0.9598921  )
        12           O   tau(  12) = (  0.1111111  0.6666667  0.7932255  )
        13           Zn  tau(  13) = (  0.5555556  0.3333333  0.1668779  )
        14           Zn  tau(  14) = (  0.4444444  0.6666667  0.0002112  )
        15           O   tau(  15) = (  0.5555556  0.3333333  0.2932255  )
        16           O   tau(  16) = (  0.4444444  0.6666667  0.1265588  )
        17           Zn  tau(  17) = (  0.5555556  0.3333333  0.5002112  )
        18           Zn  tau(  18) = (  0.4444444  0.6666667  0.3335445  )
        19           O   tau(  19) = (  0.5555556  0.3333333  0.6265588  )
        20           O   tau(  20) = (  0.4444444  0.6666667  0.4598921  )
        21           Zn  tau(  21) = (  0.5555556  0.3333333  0.8335445  )
        22           Zn  tau(  22) = (  0.4444444  0.6666667  0.6668779  )
        23           O   tau(  23) = (  0.5555556  0.3333333  0.9598921  )
        24           O   tau(  24) = (  0.4444444  0.6666667  0.7932255  )
        25           Zn  tau(  25) = (  0.8888889  0.3333333  0.1668779  )
        26           Zn  tau(  26) = (  0.7777778  0.6666667  0.0002112  )
        27           O   tau(  27) = (  0.8888889  0.3333333  0.2932255  )
        28           O   tau(  28) = (  0.7777778  0.6666667  0.1265588  )
        29           Zn  tau(  29) = (  0.8888889  0.3333333  0.5002112  )
        30           Zn  tau(  30) = (  0.7777778  0.6666667  0.3335445  )
        31           O   tau(  31) = (  0.8888889  0.3333333  0.6265588  )
        32           O   tau(  32) = (  0.7777778  0.6666667  0.4598921  )
        33           Zn  tau(  33) = (  0.8888889  0.3333333  0.8335445  )
        34           Zn  tau(  34) = (  0.7777778  0.6666667  0.6668779  )
        35           O   tau(  35) = (  0.8888889  0.3333333  0.9598921  )
        36           O   tau(  36) = (  0.7777778  0.6666667  0.7932255  )

     number of k points=    68
                       cart. coord. in units 2pi/alat
        k(    1) = (   0.0000000   0.0000000   0.0000000), wk =   0.0092593
        k(    2) = (   0.0000000   0.0000000   0.1147113), wk =   0.0185185
        k(    3) = (   0.0000000   0.0000000   0.2294226), wk =   0.0185185
        k(    4) = (   0.0000000   0.0000000  -0.3441340), wk =   0.0092593
        k(    5) = (   0.0000000   0.5773503   0.0000000), wk =   0.0370370
        k(    6) = (   0.0000000   0.5773503   0.1147113), wk =   0.0370370
        k(    7) = (   0.0000000   0.5773503   0.2294226), wk =   0.0370370
        k(    8) = (   0.0000000   0.5773503  -0.3441340), wk =   0.0370370
        k(    9) = (   0.0000000   1.1547005   0.0000000), wk =   0.0185185
        k(   10) = (   0.0000000   1.1547005   0.1147113), wk =   0.0370370
        k(   11) = (   0.0000000   1.1547005   0.2294226), wk =   0.0370370
        k(   12) = (   0.0000000   1.1547005  -0.3441340), wk =   0.0185185
        k(   13) = (   0.0000000  -1.7320508   0.0000000), wk =   0.0185185
[...]
     atom   19 type  2   force =    -0.00017145   -0.00009899   -0.24080954
     atom   20 type  2   force =     0.00017021    0.00009827   -0.24080424
     atom   21 type  1   force =     0.00000451    0.00000260   -0.30243116
     atom   22 type  1   force =    -0.00000619   -0.00000358   -0.30242469
     atom   23 type  2   force =    -0.00017152   -0.00009903   -0.24080008
     atom   24 type  2   force =     0.00017210    0.00009936   -0.24080529
     atom   25 type  1   force =     0.00000617    0.00000356   -0.30242765
     atom   26 type  1   force =    -0.00000405   -0.00000234   -0.30243378
     atom   27 type  2   force =    -0.00017148   -0.00009901   -0.24080643
     atom   28 type  2   force =     0.00016951    0.00009787   -0.24080765
     atom   29 type  1   force =     0.00000658    0.00000380   -0.30243275
     atom   30 type  1   force =    -0.00000293   -0.00000169   -0.30243134
     atom   31 type  2   force =    -0.00017196   -0.00009928   -0.24080745
     atom   32 type  2   force =     0.00016981    0.00009804   -0.24080264
     atom   33 type  1   force =     0.00000619    0.00000358   -0.30243033
     atom   34 type  1   force =    -0.00000502   -0.00000290   -0.30242848
     atom   35 type  2   force =    -0.00017209   -0.00009936   -0.24080361
     atom   36 type  2   force =     0.00017139    0.00009895   -0.24080570
     The ionic contribution  to forces
     atom    1 type  1   force =     0.00000001    0.00000001   -2.01156104
     atom    2 type  1   force =     0.00000001    0.00000000   -2.01156100
     atom    3 type  2   force =     0.00000000    0.00000000    2.01156103
     atom    4 type  2   force =     0.00000000    0.00000000    2.01156101
     atom    5 type  1   force =     0.00000001    0.00000001   -2.01156100
     atom    6 type  1   force =     0.00000001    0.00000000   -2.01156104
     atom    7 type  2   force =     0.00000000    0.00000000    2.01156101
     atom    8 type  2   force =     0.00000000    0.00000000    2.01156104
     atom    9 type  1   force =     0.00000001    0.00000001   -2.01156104
     atom   10 type  1   force =     0.00000001    0.00000000   -2.01156104
     atom   11 type  2   force =     0.00000000    0.00000000    2.01156104
     atom   12 type  2   force =     0.00000000    0.00000000    2.01156103
     atom   13 type  1   force =    -0.00000001    0.00000000   -2.01156104
     atom   14 type  1   force =     0.00000001   -0.00000000   -2.01156100
     atom   15 type  2   force =    -0.00000001    0.00000000    2.01156103
     atom   16 type  2   force =     0.00000001   -0.00000000    2.01156102
     atom   17 type  1   force =    -0.00000001    0.00000000   -2.01156100
     atom   18 type  1   force =     0.00000001   -0.00000000   -2.01156104
     atom   19 type  2   force =    -0.00000001    0.00000000    2.01156102
     atom   20 type  2   force =     0.00000001   -0.00000000    2.01156104
     atom   21 type  1   force =    -0.00000001    0.00000000   -2.01156104
     atom   22 type  1   force =     0.00000001   -0.00000000   -2.01156104
     atom   23 type  2   force =    -0.00000001    0.00000000    2.01156104
     atom   24 type  2   force =     0.00000001   -0.00000000    2.01156103
     atom   25 type  1   force =    -0.00000001   -0.00000000   -2.01156104
     atom   26 type  1   force =    -0.00000001   -0.00000001   -2.01156100
     atom   27 type  2   force =    -0.00000000   -0.00000000    2.01156103
     atom   28 type  2   force =    -0.00000000   -0.00000000    2.01156101
     atom   29 type  1   force =    -0.00000001   -0.00000000   -2.01156100
     atom   30 type  1   force =    -0.00000001   -0.00000001   -2.01156104
     atom   31 type  2   force =    -0.00000000   -0.00000000    2.01156101
     atom   32 type  2   force =    -0.00000000   -0.00000000    2.01156104
     atom   33 type  1   force =    -0.00000001   -0.00000000   -2.01156104
     atom   34 type  1   force =    -0.00000001   -0.00000001   -2.01156104
     atom   35 type  2   force =    -0.00000000   -0.00000000    2.01156104
     atom   36 type  2   force =    -0.00000000   -0.00000000    2.01156103
     The local contribution  to forces
     atom    1 type  1   force =     0.00000741    0.00000428    2.25941605
     atom    2 type  1   force =     0.00000091    0.00000047    2.25942629
     atom    3 type  2   force =     0.00017113    0.00009880   -1.73958948
     atom    4 type  2   force =    -0.00016928   -0.00009775   -1.73958979
     atom    5 type  1   force =     0.00000770    0.00000445    2.25941710
     atom    6 type  1   force =     0.00000473    0.00000268    2.25942218
     atom    7 type  2   force =     0.00017060    0.00009849   -1.73959321
     atom    8 type  2   force =    -0.00016702   -0.00009644   -1.73959074
     atom    9 type  1   force =     0.00000134    0.00000078    2.25942111
     atom   10 type  1   force =    -0.00000178   -0.00000108    2.25941135
     atom   11 type  2   force =     0.00017021    0.00009827   -1.73958979
     atom   12 type  2   force =    -0.00016875   -0.00009744   -1.73959115
     atom   13 type  1   force =     0.00000019    0.00000022    2.25941734
     atom   14 type  1   force =    -0.00000363   -0.00000220    2.25942723
     atom   15 type  2   force =     0.00016884    0.00009751   -1.73959066
     atom   16 type  2   force =    -0.00016952   -0.00009790   -1.73958934
     atom   17 type  1   force =     0.00000066    0.00000048    2.25942132
     atom   18 type  1   force =    -0.00000684   -0.00000406    2.25941963
     atom   19 type  2   force =     0.00016795    0.00009699   -1.73959219
     atom   20 type  2   force =    -0.00017097   -0.00009874   -1.73959017
     atom   21 type  1   force =     0.00000736    0.00000435    2.25942125
     atom   22 type  1   force =    -0.00000264   -0.00000163    2.25940404
     atom   23 type  2   force =     0.00016931    0.00009778   -1.73959096
     atom   24 type  2   force =    -0.00017011   -0.00009824   -1.73959218
     atom   25 type  1   force =     0.00000259    0.00000155    2.25941185
     atom   26 type  1   force =    -0.00000771   -0.00000445    2.25942593
     atom   27 type  2   force =     0.00016896    0.00009756   -1.73959132
     atom   28 type  2   force =    -0.00016783   -0.00009690   -1.73959047
     atom   29 type  1   force =     0.00000201    0.00000121    2.25942199
     atom   30 type  1   force =    -0.00000942   -0.00000544    2.25942083
     atom   31 type  2   force =     0.00016859    0.00009735   -1.73959228
     atom   32 type  2   force =    -0.00016984   -0.00009806   -1.73959127
     atom   33 type  1   force =     0.00000202    0.00000122    2.25941651
     atom   34 type  1   force =    -0.00000547   -0.00000316    2.25941392
     atom   35 type  2   force =     0.00016910    0.00009765   -1.73958982
     atom   36 type  2   force =    -0.00016918   -0.00009768   -1.73959103
     The core correction contribution to forces
     atom    1 type  1   force =    -0.00000337   -0.00000193    0.02154226
     atom    2 type  1   force =     0.00000306    0.00000189    0.02154219
     atom    3 type  2   force =     0.00000195    0.00000111    0.00186487
     atom    4 type  2   force =    -0.00000198   -0.00000114    0.00186490
     atom    5 type  1   force =    -0.00000336   -0.00000193    0.02154228
     atom    6 type  1   force =     0.00000299    0.00000184    0.02154211
     atom    7 type  2   force =     0.00000197    0.00000113    0.00186492
     atom    8 type  2   force =    -0.00000199   -0.00000114    0.00186487
     atom    9 type  1   force =    -0.00000330   -0.00000189    0.02154212
     atom   10 type  1   force =     0.00000310    0.00000191    0.02154223
     atom   11 type  2   force =     0.00000198    0.00000113    0.00186484
     atom   12 type  2   force =    -0.00000195   -0.00000112    0.00186488
     atom   13 type  1   force =    -0.00000356   -0.00000201    0.02154221
     atom   14 type  1   force =     0.00000354    0.00000200    0.02154221
     atom   15 type  2   force =     0.00000195    0.00000114    0.00186488
     atom   16 type  2   force =    -0.00000192   -0.00000112    0.00186489
     atom   17 type  1   force =    -0.00000353   -0.00000199    0.02154223
     atom   18 type  1   force =     0.00000351    0.00000198    0.02154215
     atom   19 type  2   force =     0.00000192    0.00000112    0.00186493
     atom   20 type  2   force =    -0.00000192   -0.00000111    0.00186488
     atom   21 type  1   force =    -0.00000366   -0.00000207    0.02154205
     atom   22 type  1   force =     0.00000352    0.00000199    0.02154234
     atom   23 type  2   force =     0.00000193    0.00000112    0.00186482
     atom   24 type  2   force =    -0.00000194   -0.00000113    0.00186489
     atom   25 type  1   force =    -0.00000313   -0.00000192    0.02154236
     atom   26 type  1   force =     0.00000343    0.00000197    0.02154222
     atom   27 type  2   force =     0.00000195    0.00000112    0.00186490
     atom   28 type  2   force =    -0.00000194   -0.00000111    0.00186491
     atom   29 type  1   force =    -0.00000314   -0.00000193    0.02154229
     atom   30 type  1   force =     0.00000350    0.00000201    0.02154213
     atom   31 type  2   force =     0.00000196    0.00000113    0.00186491
     atom   32 type  2   force =    -0.00000195   -0.00000112    0.00186485
     atom   33 type  1   force =    -0.00000307   -0.00000189    0.02154224
     atom   34 type  1   force =     0.00000343    0.00000197    0.02154224
     atom   35 type  2   force =     0.00000196    0.00000113    0.00186486
     atom   36 type  2   force =    -0.00000197   -0.00000113    0.00186489
     The Hubbard contrib.    to forces
     atom    1 type  1   force =     0.00000000    0.00000000    0.00000000
     atom    2 type  1   force =     0.00000000    0.00000000    0.00000000
     atom    3 type  2   force =     0.00000000    0.00000000    0.00000000
     atom    4 type  2   force =     0.00000000    0.00000000    0.00000000
     atom    5 type  1   force =     0.00000000    0.00000000    0.00000000
     atom    6 type  1   force =     0.00000000    0.00000000    0.00000000
     atom    7 type  2   force =     0.00000000    0.00000000    0.00000000
     atom    8 type  2   force =     0.00000000    0.00000000    0.00000000
     atom    9 type  1   force =     0.00000000    0.00000000    0.00000000
     atom   10 type  1   force =     0.00000000    0.00000000    0.00000000
     atom   11 type  2   force =     0.00000000    0.00000000    0.00000000
     atom   12 type  2   force =     0.00000000    0.00000000    0.00000000
     atom   13 type  1   force =     0.00000000    0.00000000    0.00000000
     atom   14 type  1   force =     0.00000000    0.00000000    0.00000000
     atom   15 type  2   force =     0.00000000    0.00000000    0.00000000
     atom   16 type  2   force =     0.00000000    0.00000000    0.00000000
     atom   17 type  1   force =     0.00000000    0.00000000    0.00000000
     atom   18 type  1   force =     0.00000000    0.00000000    0.00000000
     atom   19 type  2   force =     0.00000000    0.00000000    0.00000000
     atom   20 type  2   force =     0.00000000    0.00000000    0.00000000
     atom   21 type  1   force =     0.00000000    0.00000000    0.00000000
     atom   22 type  1   force =     0.00000000    0.00000000    0.00000000
     atom   23 type  2   force =     0.00000000    0.00000000    0.00000000
     atom   24 type  2   force =     0.00000000    0.00000000    0.00000000
     atom   25 type  1   force =     0.00000000    0.00000000    0.00000000
     atom   26 type  1   force =     0.00000000    0.00000000    0.00000000
     atom   27 type  2   force =     0.00000000    0.00000000    0.00000000
     atom   28 type  2   force =     0.00000000    0.00000000    0.00000000
     atom   29 type  1   force =     0.00000000    0.00000000    0.00000000
     atom   30 type  1   force =     0.00000000    0.00000000    0.00000000
     atom   31 type  2   force =     0.00000000    0.00000000    0.00000000
     atom   32 type  2   force =     0.00000000    0.00000000    0.00000000
     atom   33 type  1   force =     0.00000000    0.00000000    0.00000000
     atom   34 type  1   force =     0.00000000    0.00000000    0.00000000
     atom   35 type  2   force =     0.00000000    0.00000000    0.00000000
     atom   36 type  2   force =     0.00000000    0.00000000    0.00000000
     The SCF correction term to forces
     atom    1 type  1   force =    -0.00000494   -0.00000285    0.00000543
     atom    2 type  1   force =    -0.00000492   -0.00000284   -0.00000525
     atom    3 type  2   force =    -0.00000426   -0.00000246   -0.00000163
     atom    4 type  2   force =    -0.00000180   -0.00000104    0.00000024
     atom    5 type  1   force =    -0.00000593   -0.00000343    0.00000445
     atom    6 type  1   force =    -0.00000866   -0.00000500   -0.00000051
     atom    7 type  2   force =    -0.00000195   -0.00000112    0.00000640
     atom    8 type  2   force =    -0.00000493   -0.00000284   -0.00000095
     atom    9 type  1   force =     0.00000132    0.00000076    0.00000064
     atom   10 type  1   force =    -0.00000135   -0.00000078    0.00001117
     atom   11 type  2   force =    -0.00000121   -0.00000070   -0.00000449
     atom   12 type  2   force =    -0.00000005   -0.00000003    0.00000060
     atom   13 type  1   force =     0.00000357    0.00000206    0.00000446
     atom   14 type  1   force =     0.00000067    0.00000039   -0.00000656
     atom   15 type  2   force =     0.00000277    0.00000160   -0.00000009
     atom   16 type  2   force =     0.00000072    0.00000041   -0.00000119
     atom   17 type  1   force =     0.00000267    0.00000154   -0.00000001
     atom   18 type  1   force =     0.00000451    0.00000260    0.00000182
     atom   19 type  2   force =     0.00000114    0.00000066    0.00000545
     atom   20 type  2   force =     0.00000270    0.00000156   -0.00000086
     atom   21 type  1   force =    -0.00000441   -0.00000255    0.00000051
     atom   22 type  1   force =    -0.00000017   -0.00000010    0.00001980
     atom   23 type  2   force =     0.00000015    0.00000009   -0.00000437
     atom   24 type  2   force =     0.00000027    0.00000016    0.00000170
     atom   25 type  1   force =     0.00000031    0.00000018    0.00000918
     atom   26 type  1   force =     0.00000506    0.00000292   -0.00000587
     atom   27 type  2   force =     0.00000037    0.00000021    0.00000137
     atom   28 type  2   force =     0.00000088    0.00000051    0.00000141
     atom   29 type  1   force =     0.00000119    0.00000069   -0.00000032
     atom   30 type  1   force =     0.00000577    0.00000333    0.00000147
     atom   31 type  2   force =     0.00000081    0.00000047    0.00000337
     atom   32 type  2   force =     0.00000233    0.00000134   -0.00000173
     atom   33 type  1   force =     0.00000129    0.00000075    0.00000667
     atom   34 type  1   force =     0.00000241    0.00000139    0.00000873
     atom   35 type  2   force =     0.00000068    0.00000039   -0.00000305
     atom   36 type  2   force =     0.00000002    0.00000001    0.00000125

     Total force =     0.198173     Total SCF correction =     0.000039

     General routines

     Parallel routines

   This run was terminated on:  15:17:34   2Sep2025

   JOB DONE.
Note: The following floating-point exceptions are signalling: IEEE_INVALID_FLAG
Note: The following floating-point exceptions are signalling: IEEE_INVALID_FLAG
Note: The following floating-point exceptions are signalling: IEEE_INVALID_FLAG
Note: The following floating-point exceptions are signalling: IEEE_INVALID_FLAG
Note: The following floating-point exceptions are signalling: IEEE_INVALID_FLAG
Note: The following floating-point exceptions are signalling: IEEE_INVALID_FLAG
Note: The following floating-point exceptions are signalling: IEEE_INVALID_FLAG
Note: The following floating-point exceptions are signalling: IEEE_INVALID_FLAG
Note: The following floating-point exceptions are signalling: IEEE_INVALID_FLAG
Note: The following floating-point exceptions are signalling: IEEE_INVALID_FLAG
Note: The following floating-point exceptions are signalling: IEEE_INVALID_FLAG
Note: The following floating-point exceptions are signalling: IEEE_INVALID_FLAG
Note: The following floating-point exceptions are signalling: IEEE_INVALID_FLAG
Note: The following floating-point exceptions are signalling: IEEE_INVALID_FLAG
Note: The following floating-point exceptions are signalling: IEEE_INVALID_FLAG
Note: The following floating-point exceptions are signalling: IEEE_INVALID_FLAG
Note: The following floating-point exceptions are signalling: IEEE_INVALID_FLAG