     Program PWSCF v.7.2 starts on 28Aug2025 at 20:58:21

     Reading input from /home/jvc/QEspresso7.2/ZnO_database/scripts/cell313.in/ZnO-2.94-1.49-313.in
Warning: card &CELL ignored
Warning: card / ignored
Warning: card &FCP ignored
Warning: card / ignored
Warning: card &RISM ignored
Warning: card / ignored

     Current dimensions of program PWSCF are:
     Max number of different atomic species (ntypx) = 10
     Max number of k-points (npk) =  40000
     Max angular momentum in pseudopotentials (lmaxx) =  4
     file Zn.upf: wavefunction(s)  3D renormalized
     Found identity + (  0.0000  0.0000  0.3333) symmetry
     This is a supercell, fractional translations are disabled
     Message from routine setup:
     using ibrav=0 with symmetry is DISCOURAGED, use correct ibrav instead

     K-points division:     npool     =       6
     R & G space division:  proc/nbgrp/npool/nimage =      10
     Subspace diagonalization in iterative solution of the eigenvalue problem:
     one sub-group per band group will be used

     Using Slab Decomposition

     bravais-lattice index     =            0
     lattice parameter (alat)  =      16.6829  a.u.
     unit-cell volume          =    1990.7294 (a.u.)^3
     number of atoms/cell      =           36
     number of atomic types    =            2
     number of electrons       =       324.00
     number of Kohn-Sham states=          162
     kinetic-energy cutoff     =      50.0000  Ry
     charge density cutoff     =     400.0000  Ry
     scf convergence threshold =      1.0E-08
     mixing beta               =       0.3000
     number of iterations used =            8  plain     mixing
     Exchange-correlation= PBE
                           (   1   4   3   4   0   0   0)

     celldm(1)=  16.682906  celldm(2)=   0.000000  celldm(3)=   0.000000
     celldm(4)=   0.000000  celldm(5)=   0.000000  celldm(6)=   0.000000

     crystal axes: (cart. coord. in units of alat)
               a(1) = (   1.000000   0.000000   0.000000 )
               a(2) = (  -0.166667   0.288675   0.000000 )
               a(3) = (   0.000000   0.000000   1.485210 )

     reciprocal axes: (cart. coord. in units 2 pi/alat)
               b(1) = (  1.000000  0.577350 -0.000000 )
               b(2) = (  0.000000  3.464102  0.000000 )
               b(3) = (  0.000000 -0.000000  0.673306 )

     PseudoPot. # 1 for Zn read from file:
     /home/jvc/QEspresso7.2/ZnO_database/pseudos/Zn.upf
     MD5 check sum: 7f56cabf9682ed8c977c2f7d0c5985c5
     Pseudo is Ultrasoft + core correction, Zval = 12.0
     Generated using &quot;atomic&quot; code by A. Dal Corso  v.6.2.2
     Using radial grid of 1201 points,  6 beta functions with:
                l(1) =   0
                l(2) =   0
                l(3) =   1
                l(4) =   1
                l(5) =   2
                l(6) =   2
     Q(r) pseudized with 0 coefficients

     PseudoPot. # 2 for O  read from file:
     /home/jvc/QEspresso7.2/ZnO_database/pseudos/O.upf
     MD5 check sum: 91400c9766925bcf19f520983a725ff0
     Pseudo is Ultrasoft + core correction, Zval =  6.0
     Generated using &quot;atomic&quot; code by A. Dal Corso  v.6.3MaX
     Using radial grid of 1095 points,  4 beta functions with:
                l(1) =   0
                l(2) =   0
                l(3) =   1
                l(4) =   1
     Q(r) pseudized with 0 coefficients

     atomic species   valence    mass     pseudopotential
        Zn            12.00    65.38000     Zn( 1.00)
        O              6.00    15.99900     O ( 1.00)

      2 Sym. Ops. (no inversion) found

                                    s                        frac. trans.

      isym =  1     identity

 cryst.   s( 1) = (     1          0          0      )
                  (     0          1          0      )
                  (     0          0          1      )

 cart.    s( 1) = (  1.0000000  0.0000000  0.0000000 )
                  (  0.0000000  1.0000000  0.0000000 )
                  (  0.0000000  0.0000000  1.0000000 )

      isym =  2     inv. 180 deg rotation - cryst. axis [0,1,0]

 cryst.   s( 2) = (     1          3          0      )
                  (     0         -1          0      )
                  (     0          0          1      )

 cart.    s( 2) = (  0.5000000  0.8660254  0.0000000 )
                  (  0.8660254 -0.5000000  0.0000000 )
                  (  0.0000000  0.0000000  1.0000000 )

   Cartesian axes

     site n.     atom                  positions (alat units)
         1           Zn  tau(   1) = (   0.1666667   0.0962250   0.2478486  )
         2           Zn  tau(   2) = (  -0.0000000   0.1924501   0.0003137  )
         3           O   tau(   3) = (   0.1666667   0.0962250   0.4355013  )
         4           O   tau(   4) = (  -0.0000000   0.1924501   0.1879664  )
         5           Zn  tau(   5) = (   0.1666667   0.0962250   0.7429185  )
         6           Zn  tau(   6) = (  -0.0000000   0.1924501   0.4953836  )
         7           O   tau(   7) = (   0.1666667   0.0962250   0.9305712  )
         8           O   tau(   8) = (  -0.0000000   0.1924501   0.6830363  )
         9           Zn  tau(   9) = (   0.1666667   0.0962250   1.2379884  )
        10           Zn  tau(  10) = (  -0.0000000   0.1924501   0.9904535  )
        11           O   tau(  11) = (   0.1666667   0.0962250   1.4256411  )
        12           O   tau(  12) = (  -0.0000000   0.1924501   1.1781062  )
        13           Zn  tau(  13) = (   0.5000000   0.0962250   0.2478486  )
        14           Zn  tau(  14) = (   0.3333333   0.1924501   0.0003137  )
        15           O   tau(  15) = (   0.5000000   0.0962250   0.4355013  )
        16           O   tau(  16) = (   0.3333333   0.1924501   0.1879664  )
        17           Zn  tau(  17) = (   0.5000000   0.0962250   0.7429185  )
        18           Zn  tau(  18) = (   0.3333333   0.1924501   0.4953836  )
        19           O   tau(  19) = (   0.5000000   0.0962250   0.9305712  )
        20           O   tau(  20) = (   0.3333333   0.1924501   0.6830363  )
        21           Zn  tau(  21) = (   0.5000000   0.0962250   1.2379884  )
        22           Zn  tau(  22) = (   0.3333333   0.1924501   0.9904535  )
        23           O   tau(  23) = (   0.5000000   0.0962250   1.4256411  )
        24           O   tau(  24) = (   0.3333333   0.1924501   1.1781062  )
        25           Zn  tau(  25) = (   0.8333333   0.0962250   0.2478486  )
        26           Zn  tau(  26) = (   0.6666667   0.1924501   0.0003137  )
        27           O   tau(  27) = (   0.8333333   0.0962250   0.4355013  )
        28           O   tau(  28) = (   0.6666667   0.1924501   0.1879664  )
        29           Zn  tau(  29) = (   0.8333333   0.0962250   0.7429185  )
        30           Zn  tau(  30) = (   0.6666667   0.1924501   0.4953836  )
        31           O   tau(  31) = (   0.8333333   0.0962250   0.9305712  )
        32           O   tau(  32) = (   0.6666667   0.1924501   0.6830363  )
        33           Zn  tau(  33) = (   0.8333333   0.0962250   1.2379884  )
        34           Zn  tau(  34) = (   0.6666667   0.1924501   0.9904535  )
        35           O   tau(  35) = (   0.8333333   0.0962250   1.4256411  )
        36           O   tau(  36) = (   0.6666667   0.1924501   1.1781062  )

   Crystallographic axes

     site n.     atom                  positions (cryst. coord.)
         1           Zn  tau(   1) = (  0.2222222  0.3333333  0.1668779  )
         2           Zn  tau(   2) = (  0.1111111  0.6666667  0.0002112  )
         3           O   tau(   3) = (  0.2222222  0.3333333  0.2932255  )
         4           O   tau(   4) = (  0.1111111  0.6666667  0.1265588  )
         5           Zn  tau(   5) = (  0.2222222  0.3333333  0.5002112  )
         6           Zn  tau(   6) = (  0.1111111  0.6666667  0.3335445  )
         7           O   tau(   7) = (  0.2222222  0.3333333  0.6265588  )
         8           O   tau(   8) = (  0.1111111  0.6666667  0.4598921  )
         9           Zn  tau(   9) = (  0.2222222  0.3333333  0.8335445  )
        10           Zn  tau(  10) = (  0.1111111  0.6666667  0.6668779  )
        11           O   tau(  11) = (  0.2222222  0.3333333  0.9598921  )
        12           O   tau(  12) = (  0.1111111  0.6666667  0.7932255  )
        13           Zn  tau(  13) = (  0.5555556  0.3333333  0.1668779  )
        14           Zn  tau(  14) = (  0.4444444  0.6666667  0.0002112  )
        15           O   tau(  15) = (  0.5555556  0.3333333  0.2932255  )
        16           O   tau(  16) = (  0.4444444  0.6666667  0.1265588  )
        17           Zn  tau(  17) = (  0.5555556  0.3333333  0.5002112  )
        18           Zn  tau(  18) = (  0.4444444  0.6666667  0.3335445  )
        19           O   tau(  19) = (  0.5555556  0.3333333  0.6265588  )
        20           O   tau(  20) = (  0.4444444  0.6666667  0.4598921  )
        21           Zn  tau(  21) = (  0.5555556  0.3333333  0.8335445  )
        22           Zn  tau(  22) = (  0.4444444  0.6666667  0.6668779  )
        23           O   tau(  23) = (  0.5555556  0.3333333  0.9598921  )
        24           O   tau(  24) = (  0.4444444  0.6666667  0.7932255  )
        25           Zn  tau(  25) = (  0.8888889  0.3333333  0.1668779  )
        26           Zn  tau(  26) = (  0.7777778  0.6666667  0.0002112  )
        27           O   tau(  27) = (  0.8888889  0.3333333  0.2932255  )
        28           O   tau(  28) = (  0.7777778  0.6666667  0.1265588  )
        29           Zn  tau(  29) = (  0.8888889  0.3333333  0.5002112  )
        30           Zn  tau(  30) = (  0.7777778  0.6666667  0.3335445  )
        31           O   tau(  31) = (  0.8888889  0.3333333  0.6265588  )
        32           O   tau(  32) = (  0.7777778  0.6666667  0.4598921  )
        33           Zn  tau(  33) = (  0.8888889  0.3333333  0.8335445  )
        34           Zn  tau(  34) = (  0.7777778  0.6666667  0.6668779  )
        35           O   tau(  35) = (  0.8888889  0.3333333  0.9598921  )
        36           O   tau(  36) = (  0.7777778  0.6666667  0.7932255  )

     number of k points=    68
                       cart. coord. in units 2pi/alat
        k(    1) = (   0.0000000   0.0000000   0.0000000), wk =   0.0092593
        k(    2) = (   0.0000000   0.0000000   0.1122176), wk =   0.0185185
        k(    3) = (   0.0000000   0.0000000   0.2244352), wk =   0.0185185
        k(    4) = (   0.0000000   0.0000000  -0.3366528), wk =   0.0092593
        k(    5) = (   0.0000000   0.5773503   0.0000000), wk =   0.0370370
        k(    6) = (   0.0000000   0.5773503   0.1122176), wk =   0.0370370
        k(    7) = (   0.0000000   0.5773503   0.2244352), wk =   0.0370370
        k(    8) = (   0.0000000   0.5773503  -0.3366528), wk =   0.0370370
        k(    9) = (   0.0000000   1.1547005   0.0000000), wk =   0.0185185
        k(   10) = (   0.0000000   1.1547005   0.1122176), wk =   0.0370370
        k(   11) = (   0.0000000   1.1547005   0.2244352), wk =   0.0370370
        k(   12) = (   0.0000000   1.1547005  -0.3366528), wk =   0.0185185
        k(   13) = (   0.0000000  -1.7320508   0.0000000), wk =   0.0185185
[...]
     atom   14 type  1   force =     0.00001568    0.00000905   -0.30117481
     atom   15 type  2   force =    -0.00013456   -0.00007769   -0.15046185
     atom   16 type  2   force =     0.00013933    0.00008044   -0.15045187
     atom   17 type  1   force =    -0.00002077   -0.00001199   -0.30117955
     atom   18 type  1   force =     0.00002183    0.00001260   -0.30117677
     atom   19 type  2   force =    -0.00013687   -0.00007902   -0.15045374
     atom   20 type  2   force =     0.00013285    0.00007670   -0.15045956
     atom   21 type  1   force =    -0.00002621   -0.00001513   -0.30118306
     atom   22 type  1   force =     0.00001837    0.00001061   -0.30118701
     atom   23 type  2   force =    -0.00013164   -0.00007600   -0.15046262
     atom   24 type  2   force =     0.00013773    0.00007952   -0.15045866
     atom   25 type  1   force =    -0.00001881   -0.00001086   -0.30119211
     atom   26 type  1   force =     0.00002663    0.00001538   -0.30117209
     atom   27 type  2   force =    -0.00013446   -0.00007763   -0.15045962
     atom   28 type  2   force =     0.00013086    0.00007555   -0.15044945
     atom   29 type  1   force =    -0.00002190   -0.00001264   -0.30117830
     atom   30 type  1   force =     0.00001974    0.00001139   -0.30117760
     atom   31 type  2   force =    -0.00013418   -0.00007747   -0.15045407
     atom   32 type  2   force =     0.00013551    0.00007824   -0.15045950
     atom   33 type  1   force =    -0.00001987   -0.00001147   -0.30118341
     atom   34 type  1   force =     0.00002359    0.00001362   -0.30118821
     atom   35 type  2   force =    -0.00013748   -0.00007937   -0.15046037
     atom   36 type  2   force =     0.00012843    0.00007415   -0.15045613
     The ionic contribution  to forces
     atom    1 type  1   force =     0.00000001    0.00000001   -2.15847729
     atom    2 type  1   force =     0.00000001    0.00000000   -2.15847724
     atom    3 type  2   force =     0.00000000    0.00000000    2.15847727
     atom    4 type  2   force =     0.00000001    0.00000000    2.15847726
     atom    5 type  1   force =     0.00000001    0.00000001   -2.15847724
     atom    6 type  1   force =     0.00000001    0.00000000   -2.15847729
     atom    7 type  2   force =     0.00000000    0.00000000    2.15847726
     atom    8 type  2   force =     0.00000001    0.00000000    2.15847729
     atom    9 type  1   force =     0.00000001    0.00000001   -2.15847729
     atom   10 type  1   force =     0.00000001    0.00000000   -2.15847729
     atom   11 type  2   force =     0.00000000    0.00000000    2.15847729
     atom   12 type  2   force =     0.00000001    0.00000000    2.15847727
     atom   13 type  1   force =    -0.00000002    0.00000000   -2.15847729
     atom   14 type  1   force =     0.00000002   -0.00000000   -2.15847724
     atom   15 type  2   force =    -0.00000001    0.00000001    2.15847728
     atom   16 type  2   force =     0.00000001   -0.00000001    2.15847726
     atom   17 type  1   force =    -0.00000002    0.00000000   -2.15847724
     atom   18 type  1   force =     0.00000002   -0.00000000   -2.15847729
     atom   19 type  2   force =    -0.00000001    0.00000001    2.15847726
     atom   20 type  2   force =     0.00000001   -0.00000001    2.15847729
     atom   21 type  1   force =    -0.00000002    0.00000000   -2.15847729
     atom   22 type  1   force =     0.00000002   -0.00000000   -2.15847729
     atom   23 type  2   force =    -0.00000001    0.00000001    2.15847729
     atom   24 type  2   force =     0.00000001   -0.00000001    2.15847728
     atom   25 type  1   force =    -0.00000001   -0.00000000   -2.15847729
     atom   26 type  1   force =    -0.00000001   -0.00000001   -2.15847724
     atom   27 type  2   force =    -0.00000001   -0.00000000    2.15847727
     atom   28 type  2   force =    -0.00000000   -0.00000000    2.15847726
     atom   29 type  1   force =    -0.00000001   -0.00000000   -2.15847724
     atom   30 type  1   force =    -0.00000001   -0.00000001   -2.15847729
     atom   31 type  2   force =    -0.00000001   -0.00000000    2.15847726
     atom   32 type  2   force =    -0.00000000   -0.00000000    2.15847729
     atom   33 type  1   force =    -0.00000001   -0.00000000   -2.15847729
     atom   34 type  1   force =    -0.00000001   -0.00000001   -2.15847729
     atom   35 type  2   force =    -0.00000001   -0.00000000    2.15847729
     atom   36 type  2   force =    -0.00000000   -0.00000000    2.15847727
     The local contribution  to forces
     atom    1 type  1   force =     0.00003927    0.00002267    2.27261769
     atom    2 type  1   force =    -0.00003970   -0.00002297    2.27260070
     atom    3 type  2   force =     0.00012928    0.00007464   -1.85475143
     atom    4 type  2   force =    -0.00012297   -0.00007101   -1.85475327
     atom    5 type  1   force =     0.00004233    0.00002444    2.27260573
     atom    6 type  1   force =    -0.00003741   -0.00002164    2.27260769
     atom    7 type  2   force =     0.00012480    0.00007205   -1.85475484
     atom    8 type  2   force =    -0.00012430   -0.00007178   -1.85475770
     atom    9 type  1   force =     0.00003885    0.00002243    2.27261228
     atom   10 type  1   force =    -0.00003709   -0.00002146    2.27261249
     atom   11 type  2   force =     0.00012335    0.00007122   -1.85475966
     atom   12 type  2   force =    -0.00012741   -0.00007357   -1.85475387
     atom   13 type  1   force =     0.00003924    0.00002274    2.27261321
     atom   14 type  1   force =    -0.00003288   -0.00001907    2.27260224
     atom   15 type  2   force =     0.00012345    0.00007130   -1.85475137
     atom   16 type  2   force =    -0.00012987   -0.00007500   -1.85475129
     atom   17 type  1   force =     0.00003564    0.00002066    2.27260880
     atom   18 type  1   force =    -0.00004131   -0.00002394    2.27260443
     atom   19 type  2   force =     0.00012709    0.00007340   -1.85475642
     atom   20 type  2   force =    -0.00012746   -0.00007361   -1.85475721
     atom   21 type  1   force =     0.00004390    0.00002543    2.27261050
     atom   22 type  1   force =    -0.00003847   -0.00002230    2.27261166
     atom   23 type  2   force =     0.00012723    0.00007348   -1.85476149
     atom   24 type  2   force =    -0.00012541   -0.00007243   -1.85475136
     atom   25 type  1   force =     0.00003863    0.00002235    2.27261484
     atom   26 type  1   force =    -0.00004473   -0.00002582    2.27259841
     atom   27 type  2   force =     0.00013114    0.00007572   -1.85475345
     atom   28 type  2   force =    -0.00012674   -0.00007318   -1.85475523
     atom   29 type  1   force =     0.00003997    0.00002312    2.27260635
     atom   30 type  1   force =    -0.00003866   -0.00002232    2.27260786
     atom   31 type  2   force =     0.00012866    0.00007429   -1.85475528
     atom   32 type  2   force =    -0.00012647   -0.00007302   -1.85475738
     atom   33 type  1   force =     0.00003512    0.00002032    2.27261460
     atom   34 type  1   force =    -0.00004195   -0.00002422    2.27261206
     atom   35 type  2   force =     0.00013148    0.00007592   -1.85476069
     atom   36 type  2   force =    -0.00012757   -0.00007366   -1.85475032
     The core correction contribution to forces
     atom    1 type  1   force =    -0.00000168   -0.00000097    0.03325354
     atom    2 type  1   force =     0.00000164    0.00000094    0.03325669
     atom    3 type  2   force =     0.00000152    0.00000088    0.00053547
     atom    4 type  2   force =    -0.00000149   -0.00000086    0.00053180
     atom    5 type  1   force =    -0.00000158   -0.00000091    0.03325667
     atom    6 type  1   force =     0.00000158    0.00000091    0.03324241
     atom    7 type  2   force =     0.00000148    0.00000086    0.00053185
     atom    8 type  2   force =    -0.00000151   -0.00000087    0.00053484
     atom    9 type  1   force =    -0.00000168   -0.00000097    0.03324251
     atom   10 type  1   force =     0.00000160    0.00000092    0.03325361
     atom   11 type  2   force =     0.00000151    0.00000087    0.00053489
     atom   12 type  2   force =    -0.00000156   -0.00000090    0.00053541
     atom   13 type  1   force =    -0.00000160   -0.00000091    0.03325352
     atom   14 type  1   force =     0.00000168    0.00000096    0.03325674
     atom   15 type  2   force =     0.00000150    0.00000086    0.00053547
     atom   16 type  2   force =    -0.00000159   -0.00000092    0.00053183
     atom   17 type  1   force =    -0.00000165   -0.00000094    0.03325670
     atom   18 type  1   force =     0.00000164    0.00000094    0.03324241
     atom   19 type  2   force =     0.00000154    0.00000089    0.00053184
     atom   20 type  2   force =    -0.00000149   -0.00000086    0.00053482
     atom   21 type  1   force =    -0.00000152   -0.00000087    0.03324244
     atom   22 type  1   force =     0.00000165    0.00000094    0.03325356
     atom   23 type  2   force =     0.00000147    0.00000085    0.00053486
     atom   24 type  2   force =    -0.00000154   -0.00000089    0.00053543
     atom   25 type  1   force =    -0.00000167   -0.00000096    0.03325360
     atom   26 type  1   force =     0.00000156    0.00000090    0.03325667
     atom   27 type  2   force =     0.00000152    0.00000088    0.00053544
     atom   28 type  2   force =    -0.00000145   -0.00000084    0.00053179
     atom   29 type  1   force =    -0.00000163   -0.00000093    0.03325670
     atom   30 type  1   force =     0.00000168    0.00000097    0.03324243
     atom   31 type  2   force =     0.00000151    0.00000087    0.00053185
     atom   32 type  2   force =    -0.00000152   -0.00000088    0.00053482
     atom   33 type  1   force =    -0.00000171   -0.00000098    0.03324247
     atom   34 type  1   force =     0.00000164    0.00000095    0.03325354
     atom   35 type  2   force =     0.00000157    0.00000091    0.00053483
     atom   36 type  2   force =    -0.00000142   -0.00000082    0.00053540
     The Hubbard contrib.    to forces
     atom    1 type  1   force =     0.00000000    0.00000000    0.00000000
     atom    2 type  1   force =     0.00000000    0.00000000    0.00000000
     atom    3 type  2   force =     0.00000000    0.00000000    0.00000000
     atom    4 type  2   force =     0.00000000    0.00000000    0.00000000
     atom    5 type  1   force =     0.00000000    0.00000000    0.00000000
     atom    6 type  1   force =     0.00000000    0.00000000    0.00000000
     atom    7 type  2   force =     0.00000000    0.00000000    0.00000000
     atom    8 type  2   force =     0.00000000    0.00000000    0.00000000
     atom    9 type  1   force =     0.00000000    0.00000000    0.00000000
     atom   10 type  1   force =     0.00000000    0.00000000    0.00000000
     atom   11 type  2   force =     0.00000000    0.00000000    0.00000000
     atom   12 type  2   force =     0.00000000    0.00000000    0.00000000
     atom   13 type  1   force =     0.00000000    0.00000000    0.00000000
     atom   14 type  1   force =     0.00000000    0.00000000    0.00000000
     atom   15 type  2   force =     0.00000000    0.00000000    0.00000000
     atom   16 type  2   force =     0.00000000    0.00000000    0.00000000
     atom   17 type  1   force =     0.00000000    0.00000000    0.00000000
     atom   18 type  1   force =     0.00000000    0.00000000    0.00000000
     atom   19 type  2   force =     0.00000000    0.00000000    0.00000000
     atom   20 type  2   force =     0.00000000    0.00000000    0.00000000
     atom   21 type  1   force =     0.00000000    0.00000000    0.00000000
     atom   22 type  1   force =     0.00000000    0.00000000    0.00000000
     atom   23 type  2   force =     0.00000000    0.00000000    0.00000000
     atom   24 type  2   force =     0.00000000    0.00000000    0.00000000
     atom   25 type  1   force =     0.00000000    0.00000000    0.00000000
     atom   26 type  1   force =     0.00000000    0.00000000    0.00000000
     atom   27 type  2   force =     0.00000000    0.00000000    0.00000000
     atom   28 type  2   force =     0.00000000    0.00000000    0.00000000
     atom   29 type  1   force =     0.00000000    0.00000000    0.00000000
     atom   30 type  1   force =     0.00000000    0.00000000    0.00000000
     atom   31 type  2   force =     0.00000000    0.00000000    0.00000000
     atom   32 type  2   force =     0.00000000    0.00000000    0.00000000
     atom   33 type  1   force =     0.00000000    0.00000000    0.00000000
     atom   34 type  1   force =     0.00000000    0.00000000    0.00000000
     atom   35 type  2   force =     0.00000000    0.00000000    0.00000000
     atom   36 type  2   force =     0.00000000    0.00000000    0.00000000
     The SCF correction term to forces
     atom    1 type  1   force =     0.00000257    0.00000148   -0.00001978
     atom    2 type  1   force =    -0.00000438   -0.00000253   -0.00001399
     atom    3 type  2   force =    -0.00000158   -0.00000091    0.00000457
     atom    4 type  2   force =    -0.00000629   -0.00000363    0.00000179
     atom    5 type  1   force =    -0.00000201   -0.00000116   -0.00001875
     atom    6 type  1   force =    -0.00000801   -0.00000463   -0.00001655
     atom    7 type  2   force =     0.00000311    0.00000179    0.00000515
     atom    8 type  2   force =    -0.00000526   -0.00000304    0.00000434
     atom    9 type  1   force =    -0.00000064   -0.00000037   -0.00002178
     atom   10 type  1   force =    -0.00000905   -0.00000523   -0.00001076
     atom   11 type  2   force =     0.00000455    0.00000263    0.00000613
     atom   12 type  2   force =    -0.00000436   -0.00000252    0.00000447
     atom   13 type  1   force =     0.00000617    0.00000356   -0.00001810
     atom   14 type  1   force =    -0.00000381   -0.00000220   -0.00001292
     atom   15 type  2   force =     0.00000705    0.00000407    0.00000311
     atom   16 type  2   force =     0.00000288    0.00000166   -0.00000149
     atom   17 type  1   force =     0.00000790    0.00000456   -0.00001774
     atom   18 type  1   force =     0.00000187    0.00000108   -0.00001255
     atom   19 type  2   force =     0.00000431    0.00000249    0.00000639
     atom   20 type  2   force =    -0.00000023   -0.00000013    0.00000530
     atom   21 type  1   force =     0.00000124    0.00000072   -0.00001302
     atom   22 type  1   force =     0.00000333    0.00000192   -0.00001742
     atom   23 type  2   force =     0.00000377    0.00000218    0.00000872
     atom   24 type  2   force =    -0.00000185   -0.00000107    0.00000329
     atom   25 type  1   force =    -0.00000151   -0.00000087   -0.00001347
     atom   26 type  1   force =    -0.00000103   -0.00000059   -0.00001070
     atom   27 type  2   force =    -0.00000257   -0.00000148    0.00000343
     atom   28 type  2   force =    -0.00000310   -0.00000179    0.00000313
     atom   29 type  1   force =     0.00000186    0.00000108   -0.00001391
     atom   30 type  1   force =    -0.00000027   -0.00000015   -0.00001861
     atom   31 type  2   force =    -0.00000129   -0.00000074    0.00000514
     atom   32 type  2   force =    -0.00000215   -0.00000124    0.00000380
     atom   33 type  1   force =     0.00000801    0.00000463   -0.00002272
     atom   34 type  1   force =    -0.00000192   -0.00000111   -0.00001519
     atom   35 type  2   force =    -0.00000406   -0.00000234    0.00000650
     atom   36 type  2   force =    -0.00000068   -0.00000039    0.00000245

     Total force =     0.922853     Total SCF correction =     0.000078

     General routines

     Parallel routines

   This run was terminated on:  21:27: 9  28Aug2025

   JOB DONE.
Note: The following floating-point exceptions are signalling: IEEE_INVALID_FLAG
Note: The following floating-point exceptions are signalling: IEEE_INVALID_FLAG
Note: The following floating-point exceptions are signalling: IEEE_DENORMAL
Note: The following floating-point exceptions are signalling: IEEE_DENORMAL
Note: The following floating-point exceptions are signalling: IEEE_INVALID_FLAG
Note: The following floating-point exceptions are signalling: IEEE_INVALID_FLAG
Note: The following floating-point exceptions are signalling: IEEE_DENORMAL
Note: The following floating-point exceptions are signalling: IEEE_DENORMAL
Note: The following floating-point exceptions are signalling: IEEE_INVALID_FLAG
Note: The following floating-point exceptions are signalling: IEEE_DENORMAL
Note: The following floating-point exceptions are signalling: IEEE_DENORMAL
Note: The following floating-point exceptions are signalling: IEEE_INVALID_FLAG