     Program PWSCF v.7.2 starts on  2Sep2025 at 21: 0:42

     Reading input from /home/jvc/QEspresso7.2/ZnO_database/scripts/cell313.in/ZnO-3.47-1.65-313.in
Warning: card &CELL ignored
Warning: card / ignored
Warning: card &FCP ignored
Warning: card / ignored
Warning: card &RISM ignored
Warning: card / ignored

     Current dimensions of program PWSCF are:
     Max number of different atomic species (ntypx) = 10
     Max number of k-points (npk) =  40000
     Max angular momentum in pseudopotentials (lmaxx) =  4
     file Zn.upf: wavefunction(s)  3D renormalized
     Found identity + (  0.0000  0.0000  0.3333) symmetry
     This is a supercell, fractional translations are disabled
     Message from routine setup:
     using ibrav=0 with symmetry is DISCOURAGED, use correct ibrav instead

     K-points division:     npool     =      17
     R & G space division:  proc/nbgrp/npool/nimage =       3
     Subspace diagonalization in iterative solution of the eigenvalue problem:
     a serial algorithm will be used

     Using Slab Decomposition

     bravais-lattice index     =            0
     lattice parameter (alat)  =      19.6488  a.u.
     unit-cell volume          =    3605.9081 (a.u.)^3
     number of atoms/cell      =           36
     number of atomic types    =            2
     number of electrons       =       324.00
     number of Kohn-Sham states=          162
     kinetic-energy cutoff     =      50.0000  Ry
     charge density cutoff     =     400.0000  Ry
     scf convergence threshold =      1.0E-08
     mixing beta               =       0.3000
     number of iterations used =            8  plain     mixing
     Exchange-correlation= PBE
                           (   1   4   3   4   0   0   0)

     celldm(1)=  19.648756  celldm(2)=   0.000000  celldm(3)=   0.000000
     celldm(4)=   0.000000  celldm(5)=   0.000000  celldm(6)=   0.000000

     crystal axes: (cart. coord. in units of alat)
               a(1) = (   1.000000   0.000000   0.000000 )
               a(2) = (  -0.166667   0.288675   0.000000 )
               a(3) = (   0.000000   0.000000   1.646646 )

     reciprocal axes: (cart. coord. in units 2 pi/alat)
               b(1) = (  1.000000  0.577350 -0.000000 )
               b(2) = (  0.000000  3.464102  0.000000 )
               b(3) = (  0.000000 -0.000000  0.607295 )

     PseudoPot. # 1 for Zn read from file:
     /home/jvc/QEspresso7.2/ZnO_database/pseudos/Zn.upf
     MD5 check sum: 7f56cabf9682ed8c977c2f7d0c5985c5
     Pseudo is Ultrasoft + core correction, Zval = 12.0
     Generated using &quot;atomic&quot; code by A. Dal Corso  v.6.2.2
     Using radial grid of 1201 points,  6 beta functions with:
                l(1) =   0
                l(2) =   0
                l(3) =   1
                l(4) =   1
                l(5) =   2
                l(6) =   2
     Q(r) pseudized with 0 coefficients

     PseudoPot. # 2 for O  read from file:
     /home/jvc/QEspresso7.2/ZnO_database/pseudos/O.upf
     MD5 check sum: 91400c9766925bcf19f520983a725ff0
     Pseudo is Ultrasoft + core correction, Zval =  6.0
     Generated using &quot;atomic&quot; code by A. Dal Corso  v.6.3MaX
     Using radial grid of 1095 points,  4 beta functions with:
                l(1) =   0
                l(2) =   0
                l(3) =   1
                l(4) =   1
     Q(r) pseudized with 0 coefficients

     atomic species   valence    mass     pseudopotential
        Zn            12.00    65.38000     Zn( 1.00)
        O              6.00    15.99900     O ( 1.00)

      2 Sym. Ops. (no inversion) found

                                    s                        frac. trans.

      isym =  1     identity

 cryst.   s( 1) = (     1          0          0      )
                  (     0          1          0      )
                  (     0          0          1      )

 cart.    s( 1) = (  1.0000000  0.0000000  0.0000000 )
                  (  0.0000000  1.0000000  0.0000000 )
                  (  0.0000000  0.0000000  1.0000000 )

      isym =  2     inv. 180 deg rotation - cryst. axis [0,1,0]

 cryst.   s( 2) = (     1          3          0      )
                  (     0         -1          0      )
                  (     0          0          1      )

 cart.    s( 2) = (  0.5000000  0.8660254  0.0000000 )
                  (  0.8660254 -0.5000000  0.0000000 )
                  (  0.0000000  0.0000000  1.0000000 )

   Cartesian axes

     site n.     atom                  positions (alat units)
         1           Zn  tau(   1) = (   0.1666667   0.0962250   0.2747887  )
         2           Zn  tau(   2) = (  -0.0000000   0.1924501   0.0003478  )
         3           O   tau(   3) = (   0.1666667   0.0962250   0.4828384  )
         4           O   tau(   4) = (  -0.0000000   0.1924501   0.2083975  )
         5           Zn  tau(   5) = (   0.1666667   0.0962250   0.8236705  )
         6           Zn  tau(   6) = (  -0.0000000   0.1924501   0.5492296  )
         7           O   tau(   7) = (   0.1666667   0.0962250   1.0317203  )
         8           O   tau(   8) = (  -0.0000000   0.1924501   0.7572793  )
         9           Zn  tau(   9) = (   0.1666667   0.0962250   1.3725524  )
        10           Zn  tau(  10) = (  -0.0000000   0.1924501   1.0981114  )
        11           O   tau(  11) = (   0.1666667   0.0962250   1.5806021  )
        12           O   tau(  12) = (  -0.0000000   0.1924501   1.3061612  )
        13           Zn  tau(  13) = (   0.5000000   0.0962250   0.2747887  )
        14           Zn  tau(  14) = (   0.3333333   0.1924501   0.0003478  )
        15           O   tau(  15) = (   0.5000000   0.0962250   0.4828384  )
        16           O   tau(  16) = (   0.3333333   0.1924501   0.2083975  )
        17           Zn  tau(  17) = (   0.5000000   0.0962250   0.8236705  )
        18           Zn  tau(  18) = (   0.3333333   0.1924501   0.5492296  )
        19           O   tau(  19) = (   0.5000000   0.0962250   1.0317203  )
        20           O   tau(  20) = (   0.3333333   0.1924501   0.7572793  )
        21           Zn  tau(  21) = (   0.5000000   0.0962250   1.3725524  )
        22           Zn  tau(  22) = (   0.3333333   0.1924501   1.0981114  )
        23           O   tau(  23) = (   0.5000000   0.0962250   1.5806021  )
        24           O   tau(  24) = (   0.3333333   0.1924501   1.3061612  )
        25           Zn  tau(  25) = (   0.8333333   0.0962250   0.2747887  )
        26           Zn  tau(  26) = (   0.6666667   0.1924501   0.0003478  )
        27           O   tau(  27) = (   0.8333333   0.0962250   0.4828384  )
        28           O   tau(  28) = (   0.6666667   0.1924501   0.2083975  )
        29           Zn  tau(  29) = (   0.8333333   0.0962250   0.8236705  )
        30           Zn  tau(  30) = (   0.6666667   0.1924501   0.5492296  )
        31           O   tau(  31) = (   0.8333333   0.0962250   1.0317203  )
        32           O   tau(  32) = (   0.6666667   0.1924501   0.7572793  )
        33           Zn  tau(  33) = (   0.8333333   0.0962250   1.3725524  )
        34           Zn  tau(  34) = (   0.6666667   0.1924501   1.0981114  )
        35           O   tau(  35) = (   0.8333333   0.0962250   1.5806021  )
        36           O   tau(  36) = (   0.6666667   0.1924501   1.3061612  )

   Crystallographic axes

     site n.     atom                  positions (cryst. coord.)
         1           Zn  tau(   1) = (  0.2222222  0.3333333  0.1668779  )
         2           Zn  tau(   2) = (  0.1111111  0.6666667  0.0002112  )
         3           O   tau(   3) = (  0.2222222  0.3333333  0.2932255  )
         4           O   tau(   4) = (  0.1111111  0.6666667  0.1265588  )
         5           Zn  tau(   5) = (  0.2222222  0.3333333  0.5002112  )
         6           Zn  tau(   6) = (  0.1111111  0.6666667  0.3335445  )
         7           O   tau(   7) = (  0.2222222  0.3333333  0.6265588  )
         8           O   tau(   8) = (  0.1111111  0.6666667  0.4598921  )
         9           Zn  tau(   9) = (  0.2222222  0.3333333  0.8335445  )
        10           Zn  tau(  10) = (  0.1111111  0.6666667  0.6668779  )
        11           O   tau(  11) = (  0.2222222  0.3333333  0.9598921  )
        12           O   tau(  12) = (  0.1111111  0.6666667  0.7932255  )
        13           Zn  tau(  13) = (  0.5555556  0.3333333  0.1668779  )
        14           Zn  tau(  14) = (  0.4444444  0.6666667  0.0002112  )
        15           O   tau(  15) = (  0.5555556  0.3333333  0.2932255  )
        16           O   tau(  16) = (  0.4444444  0.6666667  0.1265588  )
        17           Zn  tau(  17) = (  0.5555556  0.3333333  0.5002112  )
        18           Zn  tau(  18) = (  0.4444444  0.6666667  0.3335445  )
        19           O   tau(  19) = (  0.5555556  0.3333333  0.6265588  )
        20           O   tau(  20) = (  0.4444444  0.6666667  0.4598921  )
        21           Zn  tau(  21) = (  0.5555556  0.3333333  0.8335445  )
        22           Zn  tau(  22) = (  0.4444444  0.6666667  0.6668779  )
        23           O   tau(  23) = (  0.5555556  0.3333333  0.9598921  )
        24           O   tau(  24) = (  0.4444444  0.6666667  0.7932255  )
        25           Zn  tau(  25) = (  0.8888889  0.3333333  0.1668779  )
        26           Zn  tau(  26) = (  0.7777778  0.6666667  0.0002112  )
        27           O   tau(  27) = (  0.8888889  0.3333333  0.2932255  )
        28           O   tau(  28) = (  0.7777778  0.6666667  0.1265588  )
        29           Zn  tau(  29) = (  0.8888889  0.3333333  0.5002112  )
        30           Zn  tau(  30) = (  0.7777778  0.6666667  0.3335445  )
        31           O   tau(  31) = (  0.8888889  0.3333333  0.6265588  )
        32           O   tau(  32) = (  0.7777778  0.6666667  0.4598921  )
        33           Zn  tau(  33) = (  0.8888889  0.3333333  0.8335445  )
        34           Zn  tau(  34) = (  0.7777778  0.6666667  0.6668779  )
        35           O   tau(  35) = (  0.8888889  0.3333333  0.9598921  )
        36           O   tau(  36) = (  0.7777778  0.6666667  0.7932255  )

     number of k points=    68
                       cart. coord. in units 2pi/alat
        k(    1) = (   0.0000000   0.0000000   0.0000000), wk =   0.0092593
        k(    2) = (   0.0000000   0.0000000   0.1012159), wk =   0.0185185
        k(    3) = (   0.0000000   0.0000000   0.2024317), wk =   0.0185185
        k(    4) = (   0.0000000   0.0000000  -0.3036476), wk =   0.0092593
        k(    5) = (   0.0000000   0.5773503   0.0000000), wk =   0.0370370
        k(    6) = (   0.0000000   0.5773503   0.1012159), wk =   0.0370370
        k(    7) = (   0.0000000   0.5773503   0.2024317), wk =   0.0370370
        k(    8) = (   0.0000000   0.5773503  -0.3036476), wk =   0.0370370
        k(    9) = (   0.0000000   1.1547005   0.0000000), wk =   0.0185185
        k(   10) = (   0.0000000   1.1547005   0.1012159), wk =   0.0370370
        k(   11) = (   0.0000000   1.1547005   0.2024317), wk =   0.0370370
        k(   12) = (   0.0000000   1.1547005  -0.3036476), wk =   0.0185185
        k(   13) = (   0.0000000  -1.7320508   0.0000000), wk =   0.0185185
[...]
     atom   19 type  2   force =    -0.00021443   -0.00012380    0.05725201
     atom   20 type  2   force =     0.00021490    0.00012407    0.05725251
     atom   21 type  1   force =     0.00001341    0.00000774    0.04587555
     atom   22 type  1   force =    -0.00001756   -0.00001014    0.04587100
     atom   23 type  2   force =    -0.00021528   -0.00012429    0.05724837
     atom   24 type  2   force =     0.00021608    0.00012476    0.05725003
     atom   25 type  1   force =     0.00001459    0.00000842    0.04587314
     atom   26 type  1   force =    -0.00001489   -0.00000860    0.04587644
     atom   27 type  2   force =    -0.00021487   -0.00012406    0.05725009
     atom   28 type  2   force =     0.00021497    0.00012411    0.05724982
     atom   29 type  1   force =     0.00001511    0.00000872    0.04586858
     atom   30 type  1   force =    -0.00001415   -0.00000817    0.04587387
     atom   31 type  2   force =    -0.00021666   -0.00012509    0.05725214
     atom   32 type  2   force =     0.00021448    0.00012383    0.05725217
     atom   33 type  1   force =     0.00001407    0.00000812    0.04587301
     atom   34 type  1   force =    -0.00001082   -0.00000624    0.04587010
     atom   35 type  2   force =    -0.00021465   -0.00012393    0.05724870
     atom   36 type  2   force =     0.00021463    0.00012392    0.05724927
     The ionic contribution  to forces
     atom    1 type  1   force =     0.00000001    0.00000001    0.41388421
     atom    2 type  1   force =     0.00000001    0.00000000    0.41388424
     atom    3 type  2   force =     0.00000000    0.00000000   -0.41388422
     atom    4 type  2   force =     0.00000000    0.00000000   -0.41388423
     atom    5 type  1   force =     0.00000001    0.00000001    0.41388424
     atom    6 type  1   force =     0.00000001    0.00000000    0.41388421
     atom    7 type  2   force =     0.00000000    0.00000000   -0.41388423
     atom    8 type  2   force =     0.00000000    0.00000000   -0.41388421
     atom    9 type  1   force =     0.00000001    0.00000001    0.41388421
     atom   10 type  1   force =     0.00000001    0.00000000    0.41388421
     atom   11 type  2   force =     0.00000000    0.00000000   -0.41388421
     atom   12 type  2   force =     0.00000000    0.00000000   -0.41388422
     atom   13 type  1   force =    -0.00000001    0.00000000    0.41388421
     atom   14 type  1   force =     0.00000001   -0.00000000    0.41388424
     atom   15 type  2   force =    -0.00000001    0.00000000   -0.41388422
     atom   16 type  2   force =     0.00000001   -0.00000000   -0.41388423
     atom   17 type  1   force =    -0.00000001    0.00000000    0.41388424
     atom   18 type  1   force =     0.00000001   -0.00000000    0.41388421
     atom   19 type  2   force =    -0.00000001    0.00000000   -0.41388423
     atom   20 type  2   force =     0.00000001   -0.00000000   -0.41388421
     atom   21 type  1   force =    -0.00000001    0.00000000    0.41388421
     atom   22 type  1   force =     0.00000001   -0.00000000    0.41388421
     atom   23 type  2   force =    -0.00000001    0.00000000   -0.41388421
     atom   24 type  2   force =     0.00000001   -0.00000000   -0.41388422
     atom   25 type  1   force =    -0.00000001   -0.00000000    0.41388421
     atom   26 type  1   force =    -0.00000001   -0.00000001    0.41388424
     atom   27 type  2   force =    -0.00000000   -0.00000000   -0.41388422
     atom   28 type  2   force =    -0.00000000   -0.00000000   -0.41388423
     atom   29 type  1   force =    -0.00000001   -0.00000000    0.41388424
     atom   30 type  1   force =    -0.00000001   -0.00000001    0.41388421
     atom   31 type  2   force =    -0.00000000   -0.00000000   -0.41388423
     atom   32 type  2   force =    -0.00000000   -0.00000000   -0.41388421
     atom   33 type  1   force =    -0.00000001   -0.00000000    0.41388421
     atom   34 type  1   force =    -0.00000001   -0.00000001    0.41388421
     atom   35 type  2   force =    -0.00000000   -0.00000000   -0.41388421
     atom   36 type  2   force =    -0.00000000   -0.00000000   -0.41388422
     The local contribution  to forces
     atom    1 type  1   force =    -0.00000955   -0.00000551   -0.45730691
     atom    2 type  1   force =     0.00000973    0.00000557   -0.45732256
     atom    3 type  2   force =     0.00020451    0.00011808    0.35750059
     atom    4 type  2   force =    -0.00020667   -0.00011933    0.35749745
     atom    5 type  1   force =    -0.00000609   -0.00000352   -0.45730246
     atom    6 type  1   force =     0.00001079    0.00000618   -0.45730308
     atom    7 type  2   force =     0.00020729    0.00011968    0.35750053
     atom    8 type  2   force =    -0.00020532   -0.00011856    0.35750054
     atom    9 type  1   force =    -0.00001138   -0.00000657   -0.45730167
     atom   10 type  1   force =     0.00000891    0.00000509   -0.45730044
     atom   11 type  2   force =     0.00020495    0.00011833    0.35749153
     atom   12 type  2   force =    -0.00020719   -0.00011963    0.35750154
     atom   13 type  1   force =    -0.00000822   -0.00000464   -0.45730775
     atom   14 type  1   force =     0.00000749    0.00000422   -0.45731646
     atom   15 type  2   force =     0.00020720    0.00011965    0.35749910
     atom   16 type  2   force =    -0.00020547   -0.00011865    0.35749680
     atom   17 type  1   force =    -0.00001387   -0.00000790   -0.45728960
     atom   18 type  1   force =     0.00000940    0.00000532   -0.45730242
     atom   19 type  2   force =     0.00020843    0.00012036    0.35750326
     atom   20 type  2   force =    -0.00020714   -0.00011962    0.35750421
     atom   21 type  1   force =    -0.00000818   -0.00000462   -0.45731535
     atom   22 type  1   force =     0.00002090    0.00001196   -0.45730425
     atom   23 type  2   force =     0.00020595    0.00011893    0.35749289
     atom   24 type  2   force =    -0.00020320   -0.00011735    0.35749739
     atom   25 type  1   force =    -0.00001311   -0.00000751   -0.45730656
     atom   26 type  1   force =     0.00001358    0.00000784   -0.45731602
     atom   27 type  2   force =     0.00020630    0.00011912    0.35749784
     atom   28 type  2   force =    -0.00020568   -0.00011875    0.35749806
     atom   29 type  1   force =    -0.00001059   -0.00000606   -0.45729440
     atom   30 type  1   force =     0.00001046    0.00000604   -0.45731038
     atom   31 type  2   force =     0.00020210    0.00011669    0.35750263
     atom   32 type  2   force =    -0.00020598   -0.00011892    0.35750505
     atom   33 type  1   force =    -0.00001122   -0.00000643   -0.45730825
     atom   34 type  1   force =     0.00000037    0.00000021   -0.45730067
     atom   35 type  2   force =     0.00020738    0.00011974    0.35749273
     atom   36 type  2   force =    -0.00020768   -0.00011990    0.35749653
     The core correction contribution to forces
     atom    1 type  1   force =    -0.00000744   -0.00000424   -0.00279729
     atom    2 type  1   force =     0.00000714    0.00000419   -0.00279707
     atom    3 type  2   force =     0.00000244    0.00000141   -0.00052099
     atom    4 type  2   force =    -0.00000242   -0.00000140   -0.00052097
     atom    5 type  1   force =    -0.00000740   -0.00000421   -0.00279722
     atom    6 type  1   force =     0.00000719    0.00000421   -0.00279728
     atom    7 type  2   force =     0.00000243    0.00000140   -0.00052099
     atom    8 type  2   force =    -0.00000243   -0.00000141   -0.00052100
     atom    9 type  1   force =    -0.00000742   -0.00000423   -0.00279722
     atom   10 type  1   force =     0.00000723    0.00000423   -0.00279724
     atom   11 type  2   force =     0.00000245    0.00000142   -0.00052097
     atom   12 type  2   force =    -0.00000242   -0.00000140   -0.00052100
     atom   13 type  1   force =    -0.00000750   -0.00000431   -0.00279723
     atom   14 type  1   force =     0.00000758    0.00000436   -0.00279717
     atom   15 type  2   force =     0.00000242    0.00000140   -0.00052098
     atom   16 type  2   force =    -0.00000242   -0.00000140   -0.00052098
     atom   17 type  1   force =    -0.00000735   -0.00000423   -0.00279744
     atom   18 type  1   force =     0.00000747    0.00000430   -0.00279729
     atom   19 type  2   force =     0.00000241    0.00000139   -0.00052100
     atom   20 type  2   force =    -0.00000242   -0.00000140   -0.00052101
     atom   21 type  1   force =    -0.00000749   -0.00000431   -0.00279709
     atom   22 type  1   force =     0.00000729    0.00000419   -0.00279714
     atom   23 type  2   force =     0.00000242    0.00000140   -0.00052097
     atom   24 type  2   force =    -0.00000243   -0.00000140   -0.00052098
     atom   25 type  1   force =    -0.00000709   -0.00000416   -0.00279727
     atom   26 type  1   force =     0.00000731    0.00000416   -0.00279719
     atom   27 type  2   force =     0.00000242    0.00000140   -0.00052099
     atom   28 type  2   force =    -0.00000244   -0.00000141   -0.00052097
     atom   29 type  1   force =    -0.00000728   -0.00000426   -0.00279736
     atom   30 type  1   force =     0.00000736    0.00000419   -0.00279716
     atom   31 type  2   force =     0.00000244    0.00000141   -0.00052100
     atom   32 type  2   force =    -0.00000244   -0.00000141   -0.00052100
     atom   33 type  1   force =    -0.00000711   -0.00000417   -0.00279720
     atom   34 type  1   force =     0.00000750    0.00000427   -0.00279720
     atom   35 type  2   force =     0.00000242    0.00000140   -0.00052097
     atom   36 type  2   force =    -0.00000244   -0.00000141   -0.00052097
     The Hubbard contrib.    to forces
     atom    1 type  1   force =     0.00000000    0.00000000    0.00000000
     atom    2 type  1   force =     0.00000000    0.00000000    0.00000000
     atom    3 type  2   force =     0.00000000    0.00000000    0.00000000
     atom    4 type  2   force =     0.00000000    0.00000000    0.00000000
     atom    5 type  1   force =     0.00000000    0.00000000    0.00000000
     atom    6 type  1   force =     0.00000000    0.00000000    0.00000000
     atom    7 type  2   force =     0.00000000    0.00000000    0.00000000
     atom    8 type  2   force =     0.00000000    0.00000000    0.00000000
     atom    9 type  1   force =     0.00000000    0.00000000    0.00000000
     atom   10 type  1   force =     0.00000000    0.00000000    0.00000000
     atom   11 type  2   force =     0.00000000    0.00000000    0.00000000
     atom   12 type  2   force =     0.00000000    0.00000000    0.00000000
     atom   13 type  1   force =     0.00000000    0.00000000    0.00000000
     atom   14 type  1   force =     0.00000000    0.00000000    0.00000000
     atom   15 type  2   force =     0.00000000    0.00000000    0.00000000
     atom   16 type  2   force =     0.00000000    0.00000000    0.00000000
     atom   17 type  1   force =     0.00000000    0.00000000    0.00000000
     atom   18 type  1   force =     0.00000000    0.00000000    0.00000000
     atom   19 type  2   force =     0.00000000    0.00000000    0.00000000
     atom   20 type  2   force =     0.00000000    0.00000000    0.00000000
     atom   21 type  1   force =     0.00000000    0.00000000    0.00000000
     atom   22 type  1   force =     0.00000000    0.00000000    0.00000000
     atom   23 type  2   force =     0.00000000    0.00000000    0.00000000
     atom   24 type  2   force =     0.00000000    0.00000000    0.00000000
     atom   25 type  1   force =     0.00000000    0.00000000    0.00000000
     atom   26 type  1   force =     0.00000000    0.00000000    0.00000000
     atom   27 type  2   force =     0.00000000    0.00000000    0.00000000
     atom   28 type  2   force =     0.00000000    0.00000000    0.00000000
     atom   29 type  1   force =     0.00000000    0.00000000    0.00000000
     atom   30 type  1   force =     0.00000000    0.00000000    0.00000000
     atom   31 type  2   force =     0.00000000    0.00000000    0.00000000
     atom   32 type  2   force =     0.00000000    0.00000000    0.00000000
     atom   33 type  1   force =     0.00000000    0.00000000    0.00000000
     atom   34 type  1   force =     0.00000000    0.00000000    0.00000000
     atom   35 type  2   force =     0.00000000    0.00000000    0.00000000
     atom   36 type  2   force =     0.00000000    0.00000000    0.00000000
     The SCF correction term to forces
     atom    1 type  1   force =    -0.00000021   -0.00000012    0.00000295
     atom    2 type  1   force =     0.00000013    0.00000008    0.00002504
     atom    3 type  2   force =     0.00000207    0.00000119   -0.00000192
     atom    4 type  2   force =     0.00000092    0.00000053    0.00000342
     atom    5 type  1   force =    -0.00000507   -0.00000293   -0.00000284
     atom    6 type  1   force =    -0.00000082   -0.00000047   -0.00000222
     atom    7 type  2   force =    -0.00000230   -0.00000133   -0.00000148
     atom    8 type  2   force =    -0.00000151   -0.00000087   -0.00000170
     atom    9 type  1   force =     0.00000213    0.00000123   -0.00000309
     atom   10 type  1   force =     0.00000108    0.00000062   -0.00000394
     atom   11 type  2   force =     0.00000174    0.00000101    0.00001021
     atom   12 type  2   force =     0.00000147    0.00000085   -0.00000304
     atom   13 type  1   force =    -0.00000238   -0.00000137    0.00000297
     atom   14 type  1   force =     0.00000328    0.00000189    0.00001635
     atom   15 type  2   force =    -0.00000092   -0.00000053    0.00000057
     atom   16 type  2   force =    -0.00000112   -0.00000065    0.00000353
     atom   17 type  1   force =     0.00000634    0.00000366   -0.00002013
     atom   18 type  1   force =    -0.00000005   -0.00000003   -0.00000303
     atom   19 type  2   force =    -0.00000300   -0.00000173   -0.00000515
     atom   20 type  2   force =     0.00000116    0.00000067   -0.00000669
     atom   21 type  1   force =    -0.00000220   -0.00000127    0.00001540
     atom   22 type  1   force =    -0.00001455   -0.00000840    0.00000074
     atom   23 type  2   force =     0.00000048    0.00000027    0.00000894
     atom   24 type  2   force =    -0.00000417   -0.00000241    0.00000274
     atom   25 type  1   force =     0.00000490    0.00000283    0.00000235
     atom   26 type  1   force =    -0.00000554   -0.00000320    0.00001587
     atom   27 type  2   force =    -0.00000034   -0.00000020    0.00000221
     atom   28 type  2   force =    -0.00000042   -0.00000024    0.00000220
     atom   29 type  1   force =     0.00000023    0.00000013   -0.00001407
     atom   30 type  1   force =    -0.00000068   -0.00000039    0.00000848
     atom   31 type  2   force =     0.00000587    0.00000339   -0.00000466
     atom   32 type  2   force =     0.00000028    0.00000016   -0.00000721
     atom   33 type  1   force =     0.00000208    0.00000120    0.00000592
     atom   34 type  1   force =     0.00001324    0.00000764   -0.00000510
     atom   35 type  2   force =    -0.00000165   -0.00000096    0.00000881
     atom   36 type  2   force =     0.00000199    0.00000115    0.00000437

     Total force =     0.002068     Total SCF correction =     0.000059

     General routines

     Parallel routines

   This run was terminated on:  23: 3:55   2Sep2025

   JOB DONE.
Note: The following floating-point exceptions are signalling: IEEE_INVALID_FLAG
Note: The following floating-point exceptions are signalling: IEEE_INVALID_FLAG
Note: The following floating-point exceptions are signalling: IEEE_INVALID_FLAG
Note: The following floating-point exceptions are signalling: IEEE_INVALID_FLAG
Note: The following floating-point exceptions are signalling: IEEE_INVALID_FLAG
Note: The following floating-point exceptions are signalling: IEEE_INVALID_FLAG
Note: The following floating-point exceptions are signalling: IEEE_INVALID_FLAG
Note: The following floating-point exceptions are signalling: IEEE_INVALID_FLAG
Note: The following floating-point exceptions are signalling: IEEE_INVALID_FLAG
Note: The following floating-point exceptions are signalling: IEEE_INVALID_FLAG
Note: The following floating-point exceptions are signalling: IEEE_INVALID_FLAG
Note: The following floating-point exceptions are signalling: IEEE_INVALID_FLAG
Note: The following floating-point exceptions are signalling: IEEE_INVALID_FLAG
Note: The following floating-point exceptions are signalling: IEEE_INVALID_FLAG
Note: The following floating-point exceptions are signalling: IEEE_INVALID_FLAG
Note: The following floating-point exceptions are signalling: IEEE_INVALID_FLAG
Note: The following floating-point exceptions are signalling: IEEE_INVALID_FLAG