     Program PWSCF v.7.2 starts on  1Sep2025 at 16:10: 4

     Reading input from /home/jvc/QEspresso7.2/ZnO_database/scripts/cell313.in/ZnO-3.34-1.52-313.in
Warning: card &CELL ignored
Warning: card / ignored
Warning: card &FCP ignored
Warning: card / ignored
Warning: card &RISM ignored
Warning: card / ignored

     Current dimensions of program PWSCF are:
     Max number of different atomic species (ntypx) = 10
     Max number of k-points (npk) =  40000
     Max angular momentum in pseudopotentials (lmaxx) =  4
     file Zn.upf: wavefunction(s)  3D renormalized
     Found identity + (  0.0000  0.0000  0.3333) symmetry
     This is a supercell, fractional translations are disabled
     Message from routine setup:
     using ibrav=0 with symmetry is DISCOURAGED, use correct ibrav instead

     K-points division:     npool     =       4
     R & G space division:  proc/nbgrp/npool/nimage =       8
     Subspace diagonalization in iterative solution of the eigenvalue problem:
     one sub-group per band group will be used

     Using Slab Decomposition

     bravais-lattice index     =            0
     lattice parameter (alat)  =      18.9073  a.u.
     unit-cell volume          =    2960.9103 (a.u.)^3
     number of atoms/cell      =           36
     number of atomic types    =            2
     number of electrons       =       324.00
     number of Kohn-Sham states=          162
     kinetic-energy cutoff     =      50.0000  Ry
     charge density cutoff     =     400.0000  Ry
     scf convergence threshold =      1.0E-08
     mixing beta               =       0.3000
     number of iterations used =            8  plain     mixing
     Exchange-correlation= PBE
                           (   1   4   3   4   0   0   0)

     celldm(1)=  18.907293  celldm(2)=   0.000000  celldm(3)=   0.000000
     celldm(4)=   0.000000  celldm(5)=   0.000000  celldm(6)=   0.000000

     crystal axes: (cart. coord. in units of alat)
               a(1) = (   1.000000   0.000000   0.000000 )
               a(2) = (  -0.166667   0.288675   0.000000 )
               a(3) = (   0.000000   0.000000   1.517497 )

     reciprocal axes: (cart. coord. in units 2 pi/alat)
               b(1) = (  1.000000  0.577350 -0.000000 )
               b(2) = (  0.000000  3.464102  0.000000 )
               b(3) = (  0.000000 -0.000000  0.658980 )

     PseudoPot. # 1 for Zn read from file:
     /home/jvc/QEspresso7.2/ZnO_database/pseudos/Zn.upf
     MD5 check sum: 7f56cabf9682ed8c977c2f7d0c5985c5
     Pseudo is Ultrasoft + core correction, Zval = 12.0
     Generated using &quot;atomic&quot; code by A. Dal Corso  v.6.2.2
     Using radial grid of 1201 points,  6 beta functions with:
                l(1) =   0
                l(2) =   0
                l(3) =   1
                l(4) =   1
                l(5) =   2
                l(6) =   2
     Q(r) pseudized with 0 coefficients

     PseudoPot. # 2 for O  read from file:
     /home/jvc/QEspresso7.2/ZnO_database/pseudos/O.upf
     MD5 check sum: 91400c9766925bcf19f520983a725ff0
     Pseudo is Ultrasoft + core correction, Zval =  6.0
     Generated using &quot;atomic&quot; code by A. Dal Corso  v.6.3MaX
     Using radial grid of 1095 points,  4 beta functions with:
                l(1) =   0
                l(2) =   0
                l(3) =   1
                l(4) =   1
     Q(r) pseudized with 0 coefficients

     atomic species   valence    mass     pseudopotential
        Zn            12.00    65.38000     Zn( 1.00)
        O              6.00    15.99900     O ( 1.00)

      2 Sym. Ops. (no inversion) found

                                    s                        frac. trans.

      isym =  1     identity

 cryst.   s( 1) = (     1          0          0      )
                  (     0          1          0      )
                  (     0          0          1      )

 cart.    s( 1) = (  1.0000000  0.0000000  0.0000000 )
                  (  0.0000000  1.0000000  0.0000000 )
                  (  0.0000000  0.0000000  1.0000000 )

      isym =  2     inv. 180 deg rotation - cryst. axis [0,1,0]

 cryst.   s( 2) = (     1          3          0      )
                  (     0         -1          0      )
                  (     0          0          1      )

 cart.    s( 2) = (  0.5000000  0.8660254  0.0000000 )
                  (  0.8660254 -0.5000000  0.0000000 )
                  (  0.0000000  0.0000000  1.0000000 )

   Cartesian axes

     site n.     atom                  positions (alat units)
         1           Zn  tau(   1) = (   0.1666667   0.0962250   0.2532366  )
         2           Zn  tau(   2) = (  -0.0000000   0.1924501   0.0003205  )
         3           O   tau(   3) = (   0.1666667   0.0962250   0.4449687  )
         4           O   tau(   4) = (  -0.0000000   0.1924501   0.1920526  )
         5           Zn  tau(   5) = (   0.1666667   0.0962250   0.7590689  )
         6           Zn  tau(   6) = (  -0.0000000   0.1924501   0.5061528  )
         7           O   tau(   7) = (   0.1666667   0.0962250   0.9508010  )
         8           O   tau(   8) = (  -0.0000000   0.1924501   0.6978849  )
         9           Zn  tau(   9) = (   0.1666667   0.0962250   1.2649012  )
        10           Zn  tau(  10) = (  -0.0000000   0.1924501   1.0119851  )
        11           O   tau(  11) = (   0.1666667   0.0962250   1.4566333  )
        12           O   tau(  12) = (  -0.0000000   0.1924501   1.2037172  )
        13           Zn  tau(  13) = (   0.5000000   0.0962250   0.2532366  )
        14           Zn  tau(  14) = (   0.3333333   0.1924501   0.0003205  )
        15           O   tau(  15) = (   0.5000000   0.0962250   0.4449687  )
        16           O   tau(  16) = (   0.3333333   0.1924501   0.1920526  )
        17           Zn  tau(  17) = (   0.5000000   0.0962250   0.7590689  )
        18           Zn  tau(  18) = (   0.3333333   0.1924501   0.5061528  )
        19           O   tau(  19) = (   0.5000000   0.0962250   0.9508010  )
        20           O   tau(  20) = (   0.3333333   0.1924501   0.6978849  )
        21           Zn  tau(  21) = (   0.5000000   0.0962250   1.2649012  )
        22           Zn  tau(  22) = (   0.3333333   0.1924501   1.0119851  )
        23           O   tau(  23) = (   0.5000000   0.0962250   1.4566333  )
        24           O   tau(  24) = (   0.3333333   0.1924501   1.2037172  )
        25           Zn  tau(  25) = (   0.8333333   0.0962250   0.2532366  )
        26           Zn  tau(  26) = (   0.6666667   0.1924501   0.0003205  )
        27           O   tau(  27) = (   0.8333333   0.0962250   0.4449687  )
        28           O   tau(  28) = (   0.6666667   0.1924501   0.1920526  )
        29           Zn  tau(  29) = (   0.8333333   0.0962250   0.7590689  )
        30           Zn  tau(  30) = (   0.6666667   0.1924501   0.5061528  )
        31           O   tau(  31) = (   0.8333333   0.0962250   0.9508010  )
        32           O   tau(  32) = (   0.6666667   0.1924501   0.6978849  )
        33           Zn  tau(  33) = (   0.8333333   0.0962250   1.2649012  )
        34           Zn  tau(  34) = (   0.6666667   0.1924501   1.0119851  )
        35           O   tau(  35) = (   0.8333333   0.0962250   1.4566333  )
        36           O   tau(  36) = (   0.6666667   0.1924501   1.2037172  )

   Crystallographic axes

     site n.     atom                  positions (cryst. coord.)
         1           Zn  tau(   1) = (  0.2222222  0.3333333  0.1668779  )
         2           Zn  tau(   2) = (  0.1111111  0.6666667  0.0002112  )
         3           O   tau(   3) = (  0.2222222  0.3333333  0.2932255  )
         4           O   tau(   4) = (  0.1111111  0.6666667  0.1265588  )
         5           Zn  tau(   5) = (  0.2222222  0.3333333  0.5002112  )
         6           Zn  tau(   6) = (  0.1111111  0.6666667  0.3335445  )
         7           O   tau(   7) = (  0.2222222  0.3333333  0.6265588  )
         8           O   tau(   8) = (  0.1111111  0.6666667  0.4598921  )
         9           Zn  tau(   9) = (  0.2222222  0.3333333  0.8335445  )
        10           Zn  tau(  10) = (  0.1111111  0.6666667  0.6668779  )
        11           O   tau(  11) = (  0.2222222  0.3333333  0.9598921  )
        12           O   tau(  12) = (  0.1111111  0.6666667  0.7932255  )
        13           Zn  tau(  13) = (  0.5555556  0.3333333  0.1668779  )
        14           Zn  tau(  14) = (  0.4444444  0.6666667  0.0002112  )
        15           O   tau(  15) = (  0.5555556  0.3333333  0.2932255  )
        16           O   tau(  16) = (  0.4444444  0.6666667  0.1265588  )
        17           Zn  tau(  17) = (  0.5555556  0.3333333  0.5002112  )
        18           Zn  tau(  18) = (  0.4444444  0.6666667  0.3335445  )
        19           O   tau(  19) = (  0.5555556  0.3333333  0.6265588  )
        20           O   tau(  20) = (  0.4444444  0.6666667  0.4598921  )
        21           Zn  tau(  21) = (  0.5555556  0.3333333  0.8335445  )
        22           Zn  tau(  22) = (  0.4444444  0.6666667  0.6668779  )
        23           O   tau(  23) = (  0.5555556  0.3333333  0.9598921  )
        24           O   tau(  24) = (  0.4444444  0.6666667  0.7932255  )
        25           Zn  tau(  25) = (  0.8888889  0.3333333  0.1668779  )
        26           Zn  tau(  26) = (  0.7777778  0.6666667  0.0002112  )
        27           O   tau(  27) = (  0.8888889  0.3333333  0.2932255  )
        28           O   tau(  28) = (  0.7777778  0.6666667  0.1265588  )
        29           Zn  tau(  29) = (  0.8888889  0.3333333  0.5002112  )
        30           Zn  tau(  30) = (  0.7777778  0.6666667  0.3335445  )
        31           O   tau(  31) = (  0.8888889  0.3333333  0.6265588  )
        32           O   tau(  32) = (  0.7777778  0.6666667  0.4598921  )
        33           Zn  tau(  33) = (  0.8888889  0.3333333  0.8335445  )
        34           Zn  tau(  34) = (  0.7777778  0.6666667  0.6668779  )
        35           O   tau(  35) = (  0.8888889  0.3333333  0.9598921  )
        36           O   tau(  36) = (  0.7777778  0.6666667  0.7932255  )

     number of k points=    68
                       cart. coord. in units 2pi/alat
        k(    1) = (   0.0000000   0.0000000   0.0000000), wk =   0.0092593
        k(    2) = (   0.0000000   0.0000000   0.1098300), wk =   0.0185185
        k(    3) = (   0.0000000   0.0000000   0.2196600), wk =   0.0185185
        k(    4) = (   0.0000000   0.0000000  -0.3294900), wk =   0.0092593
        k(    5) = (   0.0000000   0.5773503   0.0000000), wk =   0.0370370
        k(    6) = (   0.0000000   0.5773503   0.1098300), wk =   0.0370370
        k(    7) = (   0.0000000   0.5773503   0.2196600), wk =   0.0370370
        k(    8) = (   0.0000000   0.5773503  -0.3294900), wk =   0.0370370
        k(    9) = (   0.0000000   1.1547005   0.0000000), wk =   0.0185185
        k(   10) = (   0.0000000   1.1547005   0.1098300), wk =   0.0370370
        k(   11) = (   0.0000000   1.1547005   0.2196600), wk =   0.0370370
        k(   12) = (   0.0000000   1.1547005  -0.3294900), wk =   0.0185185
        k(   13) = (   0.0000000  -1.7320508   0.0000000), wk =   0.0185185
[...]
     atom   10 type  1   force =     0.00000760    0.00000439   -0.18429618
     atom   11 type  2   force =    -0.00017897   -0.00010333   -0.13910677
     atom   12 type  2   force =     0.00017736    0.00010240   -0.13910395
     atom   13 type  1   force =    -0.00000531   -0.00000306   -0.18429302
     atom   14 type  1   force =     0.00000630    0.00000364   -0.18429325
     atom   15 type  2   force =    -0.00017786   -0.00010269   -0.13910576
     atom   16 type  2   force =     0.00017660    0.00010196   -0.13910532
     atom   17 type  1   force =    -0.00000782   -0.00000451   -0.18429575
     atom   18 type  1   force =     0.00000635    0.00000367   -0.18429043
     atom   19 type  2   force =    -0.00017694   -0.00010216   -0.13910460
     atom   20 type  2   force =     0.00017959    0.00010368   -0.13910557
     atom   21 type  1   force =    -0.00000760   -0.00000439   -0.18429420
     atom   22 type  1   force =     0.00000497    0.00000287   -0.18429555
     atom   23 type  2   force =    -0.00017608   -0.00010166   -0.13910733
     atom   24 type  2   force =     0.00017812    0.00010284   -0.13910586
     atom   25 type  1   force =    -0.00000472   -0.00000272   -0.18429140
     atom   26 type  1   force =     0.00000687    0.00000397   -0.18429099
     atom   27 type  2   force =    -0.00017823   -0.00010290   -0.13910483
     atom   28 type  2   force =     0.00017766    0.00010257   -0.13910702
     atom   29 type  1   force =    -0.00000541   -0.00000313   -0.18429527
     atom   30 type  1   force =     0.00000684    0.00000395   -0.18429393
     atom   31 type  2   force =    -0.00017722   -0.00010232   -0.13910371
     atom   32 type  2   force =     0.00017674    0.00010204   -0.13910552
     atom   33 type  1   force =    -0.00000611   -0.00000353   -0.18429501
     atom   34 type  1   force =     0.00000672    0.00000388   -0.18429566
     atom   35 type  2   force =    -0.00017663   -0.00010198   -0.13910556
     atom   36 type  2   force =     0.00017653    0.00010192   -0.13910366
     The ionic contribution  to forces
     atom    1 type  1   force =     0.00000001    0.00000001   -1.21305188
     atom    2 type  1   force =     0.00000001    0.00000000   -1.21305184
     atom    3 type  2   force =     0.00000000    0.00000000    1.21305186
     atom    4 type  2   force =     0.00000000    0.00000000    1.21305185
     atom    5 type  1   force =     0.00000001    0.00000001   -1.21305184
     atom    6 type  1   force =     0.00000001    0.00000000   -1.21305188
     atom    7 type  2   force =     0.00000000    0.00000000    1.21305185
     atom    8 type  2   force =     0.00000000    0.00000000    1.21305188
     atom    9 type  1   force =     0.00000001    0.00000001   -1.21305188
     atom   10 type  1   force =     0.00000001    0.00000000   -1.21305188
     atom   11 type  2   force =     0.00000000    0.00000000    1.21305188
     atom   12 type  2   force =     0.00000000    0.00000000    1.21305186
     atom   13 type  1   force =    -0.00000001    0.00000000   -1.21305188
     atom   14 type  1   force =     0.00000001   -0.00000000   -1.21305184
     atom   15 type  2   force =    -0.00000001    0.00000000    1.21305187
     atom   16 type  2   force =     0.00000001   -0.00000000    1.21305186
     atom   17 type  1   force =    -0.00000001    0.00000000   -1.21305184
     atom   18 type  1   force =     0.00000001   -0.00000000   -1.21305188
     atom   19 type  2   force =    -0.00000001    0.00000000    1.21305186
     atom   20 type  2   force =     0.00000001   -0.00000000    1.21305188
     atom   21 type  1   force =    -0.00000001    0.00000000   -1.21305188
     atom   22 type  1   force =     0.00000001   -0.00000000   -1.21305188
     atom   23 type  2   force =    -0.00000001    0.00000000    1.21305188
     atom   24 type  2   force =     0.00000001   -0.00000000    1.21305187
     atom   25 type  1   force =    -0.00000001   -0.00000000   -1.21305188
     atom   26 type  1   force =    -0.00000001   -0.00000001   -1.21305184
     atom   27 type  2   force =    -0.00000000   -0.00000000    1.21305186
     atom   28 type  2   force =    -0.00000000   -0.00000000    1.21305185
     atom   29 type  1   force =    -0.00000001   -0.00000000   -1.21305184
     atom   30 type  1   force =    -0.00000001   -0.00000001   -1.21305188
     atom   31 type  2   force =    -0.00000000   -0.00000000    1.21305185
     atom   32 type  2   force =    -0.00000000   -0.00000000    1.21305188
     atom   33 type  1   force =    -0.00000001   -0.00000000   -1.21305188
     atom   34 type  1   force =    -0.00000001   -0.00000001   -1.21305188
     atom   35 type  2   force =    -0.00000000   -0.00000000    1.21305188
     atom   36 type  2   force =    -0.00000000   -0.00000000    1.21305186
     The local contribution  to forces
     atom    1 type  1   force =     0.00002581    0.00001490    1.35917326
     atom    2 type  1   force =    -0.00001759   -0.00001020    1.35916330
     atom    3 type  2   force =     0.00017649    0.00010190   -1.05068301
     atom    4 type  2   force =    -0.00017099   -0.00009873   -1.05067969
     atom    5 type  1   force =     0.00001656    0.00000956    1.35917857
     atom    6 type  1   force =    -0.00001437   -0.00000834    1.35917239
     atom    7 type  2   force =     0.00017261    0.00009966   -1.05067537
     atom    8 type  2   force =    -0.00017383   -0.00010037   -1.05067792
     atom    9 type  1   force =     0.00001576    0.00000910    1.35917654
     atom   10 type  1   force =    -0.00002270   -0.00001316    1.35918086
     atom   11 type  2   force =     0.00017646    0.00010188   -1.05068233
     atom   12 type  2   force =    -0.00017643   -0.00010188   -1.05067817
     atom   13 type  1   force =     0.00001513    0.00000884    1.35917337
     atom   14 type  1   force =    -0.00001817   -0.00001059    1.35917380
     atom   15 type  2   force =     0.00017083    0.00009866   -1.05068357
     atom   16 type  2   force =    -0.00017197   -0.00009931   -1.05068176
     atom   17 type  1   force =     0.00002332    0.00001357    1.35918274
     atom   18 type  1   force =    -0.00001717   -0.00001001    1.35916351
     atom   19 type  2   force =     0.00017556    0.00010138   -1.05067358
     atom   20 type  2   force =    -0.00017628   -0.00010180   -1.05068013
     atom   21 type  1   force =     0.00002157    0.00001255    1.35917384
     atom   22 type  1   force =    -0.00001264   -0.00000740    1.35917712
     atom   23 type  2   force =     0.00017275    0.00009977   -1.05067949
     atom   24 type  2   force =    -0.00017432   -0.00010067   -1.05067669
     atom   25 type  1   force =     0.00001262    0.00000734    1.35916870
     atom   26 type  1   force =    -0.00001928   -0.00001113    1.35916537
     atom   27 type  2   force =     0.00017526    0.00010120   -1.05068266
     atom   28 type  2   force =    -0.00017812   -0.00010284   -1.05068260
     atom   29 type  1   force =     0.00001533    0.00000890    1.35917866
     atom   30 type  1   force =    -0.00002244   -0.00001296    1.35917589
     atom   31 type  2   force =     0.00017275    0.00009975   -1.05067363
     atom   32 type  2   force =    -0.00017263   -0.00009967   -1.05067552
     atom   33 type  1   force =     0.00001781    0.00001034    1.35917590
     atom   34 type  1   force =    -0.00001999   -0.00001154    1.35917888
     atom   35 type  2   force =     0.00017158    0.00009908   -1.05068590
     atom   36 type  2   force =    -0.00017121   -0.00009885   -1.05067864
     The core correction contribution to forces
     atom    1 type  1   force =    -0.00000411   -0.00000231    0.01387125
     atom    2 type  1   force =     0.00000420    0.00000236    0.01387138
     atom    3 type  2   force =     0.00000202    0.00000117    0.00103180
     atom    4 type  2   force =    -0.00000202   -0.00000117    0.00103183
     atom    5 type  1   force =    -0.00000401   -0.00000226    0.01387123
     atom    6 type  1   force =     0.00000409    0.00000229    0.01387135
     atom    7 type  2   force =     0.00000202    0.00000117    0.00103179
     atom    8 type  2   force =    -0.00000199   -0.00000115    0.00103180
     atom    9 type  1   force =    -0.00000400   -0.00000225    0.01387123
     atom   10 type  1   force =     0.00000414    0.00000233    0.01387130
     atom   11 type  2   force =     0.00000206    0.00000119    0.00103181
     atom   12 type  2   force =    -0.00000202   -0.00000117    0.00103178
     atom   13 type  1   force =    -0.00000392   -0.00000229    0.01387126
     atom   14 type  1   force =     0.00000402    0.00000234    0.01387120
     atom   15 type  2   force =     0.00000202    0.00000117    0.00103179
     atom   16 type  2   force =    -0.00000201   -0.00000116    0.00103179
     atom   17 type  1   force =    -0.00000407   -0.00000237    0.01387117
     atom   18 type  1   force =     0.00000394    0.00000229    0.01387138
     atom   19 type  2   force =     0.00000202    0.00000117    0.00103181
     atom   20 type  2   force =    -0.00000207   -0.00000120    0.00103179
     atom   21 type  1   force =    -0.00000403   -0.00000235    0.01387130
     atom   22 type  1   force =     0.00000392    0.00000228    0.01387139
     atom   23 type  2   force =     0.00000200    0.00000116    0.00103183
     atom   24 type  2   force =    -0.00000204   -0.00000118    0.00103182
     atom   25 type  1   force =    -0.00000416   -0.00000234    0.01387135
     atom   26 type  1   force =     0.00000390    0.00000219    0.01387129
     atom   27 type  2   force =     0.00000204    0.00000118    0.00103178
     atom   28 type  2   force =    -0.00000204   -0.00000118    0.00103182
     atom   29 type  1   force =    -0.00000405   -0.00000227    0.01387127
     atom   30 type  1   force =     0.00000415    0.00000233    0.01387118
     atom   31 type  2   force =     0.00000201    0.00000117    0.00103179
     atom   32 type  2   force =    -0.00000201   -0.00000116    0.00103181
     atom   33 type  1   force =    -0.00000412   -0.00000231    0.01387120
     atom   34 type  1   force =     0.00000408    0.00000229    0.01387125
     atom   35 type  2   force =     0.00000200    0.00000116    0.00103178
     atom   36 type  2   force =    -0.00000200   -0.00000116    0.00103178
     The Hubbard contrib.    to forces
     atom    1 type  1   force =     0.00000000    0.00000000    0.00000000
     atom    2 type  1   force =     0.00000000    0.00000000    0.00000000
     atom    3 type  2   force =     0.00000000    0.00000000    0.00000000
     atom    4 type  2   force =     0.00000000    0.00000000    0.00000000
     atom    5 type  1   force =     0.00000000    0.00000000    0.00000000
     atom    6 type  1   force =     0.00000000    0.00000000    0.00000000
     atom    7 type  2   force =     0.00000000    0.00000000    0.00000000
     atom    8 type  2   force =     0.00000000    0.00000000    0.00000000
     atom    9 type  1   force =     0.00000000    0.00000000    0.00000000
     atom   10 type  1   force =     0.00000000    0.00000000    0.00000000
     atom   11 type  2   force =     0.00000000    0.00000000    0.00000000
     atom   12 type  2   force =     0.00000000    0.00000000    0.00000000
     atom   13 type  1   force =     0.00000000    0.00000000    0.00000000
     atom   14 type  1   force =     0.00000000    0.00000000    0.00000000
     atom   15 type  2   force =     0.00000000    0.00000000    0.00000000
     atom   16 type  2   force =     0.00000000    0.00000000    0.00000000
     atom   17 type  1   force =     0.00000000    0.00000000    0.00000000
     atom   18 type  1   force =     0.00000000    0.00000000    0.00000000
     atom   19 type  2   force =     0.00000000    0.00000000    0.00000000
     atom   20 type  2   force =     0.00000000    0.00000000    0.00000000
     atom   21 type  1   force =     0.00000000    0.00000000    0.00000000
     atom   22 type  1   force =     0.00000000    0.00000000    0.00000000
     atom   23 type  2   force =     0.00000000    0.00000000    0.00000000
     atom   24 type  2   force =     0.00000000    0.00000000    0.00000000
     atom   25 type  1   force =     0.00000000    0.00000000    0.00000000
     atom   26 type  1   force =     0.00000000    0.00000000    0.00000000
     atom   27 type  2   force =     0.00000000    0.00000000    0.00000000
     atom   28 type  2   force =     0.00000000    0.00000000    0.00000000
     atom   29 type  1   force =     0.00000000    0.00000000    0.00000000
     atom   30 type  1   force =     0.00000000    0.00000000    0.00000000
     atom   31 type  2   force =     0.00000000    0.00000000    0.00000000
     atom   32 type  2   force =     0.00000000    0.00000000    0.00000000
     atom   33 type  1   force =     0.00000000    0.00000000    0.00000000
     atom   34 type  1   force =     0.00000000    0.00000000    0.00000000
     atom   35 type  2   force =     0.00000000    0.00000000    0.00000000
     atom   36 type  2   force =     0.00000000    0.00000000    0.00000000
     The SCF correction term to forces
     atom    1 type  1   force =    -0.00001081   -0.00000624   -0.00000431
     atom    2 type  1   force =    -0.00000059   -0.00000034    0.00001230
     atom    3 type  2   force =    -0.00000319   -0.00000184    0.00000537
     atom    4 type  2   force =    -0.00000443   -0.00000256    0.00000224
     atom    5 type  1   force =     0.00000092    0.00000053   -0.00000993
     atom    6 type  1   force =    -0.00000538   -0.00000311   -0.00000319
     atom    7 type  2   force =     0.00000203    0.00000117   -0.00000425
     atom    8 type  2   force =     0.00000053    0.00000031   -0.00000099
     atom    9 type  1   force =     0.00000183    0.00000106   -0.00000447
     atom   10 type  1   force =     0.00000845    0.00000488   -0.00001475
     atom   11 type  2   force =    -0.00000253   -0.00000146    0.00000477
     atom   12 type  2   force =     0.00000284    0.00000164   -0.00000011
     atom   13 type  1   force =     0.00000276    0.00000160   -0.00000372
     atom   14 type  1   force =     0.00000052    0.00000030   -0.00000295
     atom   15 type  2   force =     0.00000391    0.00000225    0.00000737
     atom   16 type  2   force =    -0.00000210   -0.00000121    0.00000370
     atom   17 type  1   force =    -0.00000795   -0.00000459   -0.00001817
     atom   18 type  1   force =    -0.00000090   -0.00000052    0.00001111
     atom   19 type  2   force =    -0.00000263   -0.00000152   -0.00000614
     atom   20 type  2   force =     0.00000157    0.00000091    0.00000108
     atom   21 type  1   force =    -0.00000429   -0.00000247   -0.00000233
     atom   22 type  1   force =    -0.00000773   -0.00000446   -0.00000829
     atom   23 type  2   force =     0.00000074    0.00000043    0.00000066
     atom   24 type  2   force =    -0.00000043   -0.00000025   -0.00000052
     atom   25 type  1   force =     0.00000938    0.00000541    0.00000081
     atom   26 type  1   force =     0.00000441    0.00000255    0.00001007
     atom   27 type  2   force =    -0.00000063   -0.00000037    0.00000393
     atom   28 type  2   force =     0.00000539    0.00000311    0.00000534
     atom   29 type  1   force =     0.00000237    0.00000137   -0.00001135
     atom   30 type  1   force =     0.00000791    0.00000457   -0.00000637
     atom   31 type  2   force =     0.00000142    0.00000082   -0.00000619
     atom   32 type  2   force =    -0.00000166   -0.00000096   -0.00000441
     atom   33 type  1   force =    -0.00000075   -0.00000043   -0.00000232
     atom   34 type  1   force =     0.00000289    0.00000167   -0.00001002
     atom   35 type  2   force =     0.00000286    0.00000165    0.00000857
     atom   36 type  2   force =    -0.00000306   -0.00000176    0.00000038

     Total force =     0.145812     Total SCF correction =     0.000052

     General routines

     Parallel routines

   This run was terminated on:  17: 8:50   1Sep2025

   JOB DONE.
Note: The following floating-point exceptions are signalling: IEEE_DENORMAL
Note: The following floating-point exceptions are signalling: IEEE_DENORMAL
Note: The following floating-point exceptions are signalling: IEEE_DENORMAL
Note: The following floating-point exceptions are signalling: IEEE_INVALID_FLAG
Note: The following floating-point exceptions are signalling: IEEE_INVALID_FLAG
Note: The following floating-point exceptions are signalling: IEEE_INVALID_FLAG
Note: The following floating-point exceptions are signalling: IEEE_DENORMAL
Note: The following floating-point exceptions are signalling: IEEE_INVALID_FLAG