     Program PWSCF v.7.2 starts on 29Aug2025 at 13:16: 9

     Reading input from /home/jvc/QEspresso7.2/ZnO_database/scripts/cell313.in/ZnO-3.07-1.68-313.in
Warning: card &CELL ignored
Warning: card / ignored
Warning: card &FCP ignored
Warning: card / ignored
Warning: card &RISM ignored
Warning: card / ignored

     Current dimensions of program PWSCF are:
     Max number of different atomic species (ntypx) = 10
     Max number of k-points (npk) =  40000
     Max angular momentum in pseudopotentials (lmaxx) =  4
     file Zn.upf: wavefunction(s)  3D renormalized
     Found identity + (  0.0000  0.0000  0.3333) symmetry
     This is a supercell, fractional translations are disabled
     Message from routine setup:
     using ibrav=0 with symmetry is DISCOURAGED, use correct ibrav instead

     K-points division:     npool     =       6
     R & G space division:  proc/nbgrp/npool/nimage =      10
     Subspace diagonalization in iterative solution of the eigenvalue problem:
     one sub-group per band group will be used

     Using Slab Decomposition

     bravais-lattice index     =            0
     lattice parameter (alat)  =      17.4244  a.u.
     unit-cell volume          =    2563.9750 (a.u.)^3
     number of atoms/cell      =           36
     number of atomic types    =            2
     number of electrons       =       324.00
     number of Kohn-Sham states=          162
     kinetic-energy cutoff     =      50.0000  Ry
     charge density cutoff     =     400.0000  Ry
     scf convergence threshold =      1.0E-08
     mixing beta               =       0.3000
     number of iterations used =            8  plain     mixing
     Exchange-correlation= PBE
                           (   1   4   3   4   0   0   0)

     celldm(1)=  17.424368  celldm(2)=   0.000000  celldm(3)=   0.000000
     celldm(4)=   0.000000  celldm(5)=   0.000000  celldm(6)=   0.000000

     crystal axes: (cart. coord. in units of alat)
               a(1) = (   1.000000   0.000000   0.000000 )
               a(2) = (  -0.166667   0.288675   0.000000 )
               a(3) = (   0.000000   0.000000   1.678933 )

     reciprocal axes: (cart. coord. in units 2 pi/alat)
               b(1) = (  1.000000  0.577350 -0.000000 )
               b(2) = (  0.000000  3.464102  0.000000 )
               b(3) = (  0.000000 -0.000000  0.595616 )

     PseudoPot. # 1 for Zn read from file:
     /home/jvc/QEspresso7.2/ZnO_database/pseudos/Zn.upf
     MD5 check sum: 7f56cabf9682ed8c977c2f7d0c5985c5
     Pseudo is Ultrasoft + core correction, Zval = 12.0
     Generated using &quot;atomic&quot; code by A. Dal Corso  v.6.2.2
     Using radial grid of 1201 points,  6 beta functions with:
                l(1) =   0
                l(2) =   0
                l(3) =   1
                l(4) =   1
                l(5) =   2
                l(6) =   2
     Q(r) pseudized with 0 coefficients

     PseudoPot. # 2 for O  read from file:
     /home/jvc/QEspresso7.2/ZnO_database/pseudos/O.upf
     MD5 check sum: 91400c9766925bcf19f520983a725ff0
     Pseudo is Ultrasoft + core correction, Zval =  6.0
     Generated using &quot;atomic&quot; code by A. Dal Corso  v.6.3MaX
     Using radial grid of 1095 points,  4 beta functions with:
                l(1) =   0
                l(2) =   0
                l(3) =   1
                l(4) =   1
     Q(r) pseudized with 0 coefficients

     atomic species   valence    mass     pseudopotential
        Zn            12.00    65.38000     Zn( 1.00)
        O              6.00    15.99900     O ( 1.00)

      2 Sym. Ops. (no inversion) found

                                    s                        frac. trans.

      isym =  1     identity

 cryst.   s( 1) = (     1          0          0      )
                  (     0          1          0      )
                  (     0          0          1      )

 cart.    s( 1) = (  1.0000000 -0.0000000  0.0000000 )
                  (  0.0000000  1.0000000  0.0000000 )
                  (  0.0000000  0.0000000  1.0000000 )

      isym =  2     inv. 180 deg rotation - cryst. axis [0,1,0]

 cryst.   s( 2) = (     1          3          0      )
                  (     0         -1          0      )
                  (     0          0          1      )

 cart.    s( 2) = (  0.5000000  0.8660254  0.0000000 )
                  (  0.8660254 -0.5000000  0.0000000 )
                  (  0.0000000  0.0000000  1.0000000 )

   Cartesian axes

     site n.     atom                  positions (alat units)
         1           Zn  tau(   1) = (   0.1666667   0.0962250   0.2801767  )
         2           Zn  tau(   2) = (  -0.0000000   0.1924501   0.0003546  )
         3           O   tau(   3) = (   0.1666667   0.0962250   0.4923058  )
         4           O   tau(   4) = (  -0.0000000   0.1924501   0.2124837  )
         5           Zn  tau(   5) = (   0.1666667   0.0962250   0.8398209  )
         6           Zn  tau(   6) = (  -0.0000000   0.1924501   0.5599988  )
         7           O   tau(   7) = (   0.1666667   0.0962250   1.0519501  )
         8           O   tau(   8) = (  -0.0000000   0.1924501   0.7721279  )
         9           Zn  tau(   9) = (   0.1666667   0.0962250   1.3994652  )
        10           Zn  tau(  10) = (  -0.0000000   0.1924501   1.1196430  )
        11           O   tau(  11) = (   0.1666667   0.0962250   1.6115943  )
        12           O   tau(  12) = (  -0.0000000   0.1924501   1.3317722  )
        13           Zn  tau(  13) = (   0.5000000   0.0962250   0.2801767  )
        14           Zn  tau(  14) = (   0.3333333   0.1924501   0.0003546  )
        15           O   tau(  15) = (   0.5000000   0.0962250   0.4923058  )
        16           O   tau(  16) = (   0.3333333   0.1924501   0.2124837  )
        17           Zn  tau(  17) = (   0.5000000   0.0962250   0.8398209  )
        18           Zn  tau(  18) = (   0.3333333   0.1924501   0.5599988  )
        19           O   tau(  19) = (   0.5000000   0.0962250   1.0519501  )
        20           O   tau(  20) = (   0.3333333   0.1924501   0.7721279  )
        21           Zn  tau(  21) = (   0.5000000   0.0962250   1.3994652  )
        22           Zn  tau(  22) = (   0.3333333   0.1924501   1.1196430  )
        23           O   tau(  23) = (   0.5000000   0.0962250   1.6115943  )
        24           O   tau(  24) = (   0.3333333   0.1924501   1.3317722  )
        25           Zn  tau(  25) = (   0.8333333   0.0962250   0.2801767  )
        26           Zn  tau(  26) = (   0.6666667   0.1924501   0.0003546  )
        27           O   tau(  27) = (   0.8333333   0.0962250   0.4923058  )
        28           O   tau(  28) = (   0.6666667   0.1924501   0.2124837  )
        29           Zn  tau(  29) = (   0.8333333   0.0962250   0.8398209  )
        30           Zn  tau(  30) = (   0.6666667   0.1924501   0.5599988  )
        31           O   tau(  31) = (   0.8333333   0.0962250   1.0519501  )
        32           O   tau(  32) = (   0.6666667   0.1924501   0.7721279  )
        33           Zn  tau(  33) = (   0.8333333   0.0962250   1.3994652  )
        34           Zn  tau(  34) = (   0.6666667   0.1924501   1.1196430  )
        35           O   tau(  35) = (   0.8333333   0.0962250   1.6115943  )
        36           O   tau(  36) = (   0.6666667   0.1924501   1.3317722  )

   Crystallographic axes

     site n.     atom                  positions (cryst. coord.)
         1           Zn  tau(   1) = (  0.2222222  0.3333333  0.1668779  )
         2           Zn  tau(   2) = (  0.1111111  0.6666667  0.0002112  )
         3           O   tau(   3) = (  0.2222222  0.3333333  0.2932255  )
         4           O   tau(   4) = (  0.1111111  0.6666667  0.1265588  )
         5           Zn  tau(   5) = (  0.2222222  0.3333333  0.5002112  )
         6           Zn  tau(   6) = (  0.1111111  0.6666667  0.3335445  )
         7           O   tau(   7) = (  0.2222222  0.3333333  0.6265588  )
         8           O   tau(   8) = (  0.1111111  0.6666667  0.4598921  )
         9           Zn  tau(   9) = (  0.2222222  0.3333333  0.8335445  )
        10           Zn  tau(  10) = (  0.1111111  0.6666667  0.6668779  )
        11           O   tau(  11) = (  0.2222222  0.3333333  0.9598921  )
        12           O   tau(  12) = (  0.1111111  0.6666667  0.7932255  )
        13           Zn  tau(  13) = (  0.5555556  0.3333333  0.1668779  )
        14           Zn  tau(  14) = (  0.4444444  0.6666667  0.0002112  )
        15           O   tau(  15) = (  0.5555556  0.3333333  0.2932255  )
        16           O   tau(  16) = (  0.4444444  0.6666667  0.1265588  )
        17           Zn  tau(  17) = (  0.5555556  0.3333333  0.5002112  )
        18           Zn  tau(  18) = (  0.4444444  0.6666667  0.3335445  )
        19           O   tau(  19) = (  0.5555556  0.3333333  0.6265588  )
        20           O   tau(  20) = (  0.4444444  0.6666667  0.4598921  )
        21           Zn  tau(  21) = (  0.5555556  0.3333333  0.8335445  )
        22           Zn  tau(  22) = (  0.4444444  0.6666667  0.6668779  )
        23           O   tau(  23) = (  0.5555556  0.3333333  0.9598921  )
        24           O   tau(  24) = (  0.4444444  0.6666667  0.7932255  )
        25           Zn  tau(  25) = (  0.8888889  0.3333333  0.1668779  )
        26           Zn  tau(  26) = (  0.7777778  0.6666667  0.0002112  )
        27           O   tau(  27) = (  0.8888889  0.3333333  0.2932255  )
        28           O   tau(  28) = (  0.7777778  0.6666667  0.1265588  )
        29           Zn  tau(  29) = (  0.8888889  0.3333333  0.5002112  )
        30           Zn  tau(  30) = (  0.7777778  0.6666667  0.3335445  )
        31           O   tau(  31) = (  0.8888889  0.3333333  0.6265588  )
        32           O   tau(  32) = (  0.7777778  0.6666667  0.4598921  )
        33           Zn  tau(  33) = (  0.8888889  0.3333333  0.8335445  )
        34           Zn  tau(  34) = (  0.7777778  0.6666667  0.6668779  )
        35           O   tau(  35) = (  0.8888889  0.3333333  0.9598921  )
        36           O   tau(  36) = (  0.7777778  0.6666667  0.7932255  )

     number of k points=    68
                       cart. coord. in units 2pi/alat
        k(    1) = (   0.0000000   0.0000000   0.0000000), wk =   0.0092593
        k(    2) = (   0.0000000   0.0000000   0.0992694), wk =   0.0185185
        k(    3) = (   0.0000000   0.0000000   0.1985388), wk =   0.0185185
        k(    4) = (   0.0000000   0.0000000  -0.2978082), wk =   0.0092593
        k(    5) = (   0.0000000   0.5773503   0.0000000), wk =   0.0370370
        k(    6) = (   0.0000000   0.5773503   0.0992694), wk =   0.0370370
        k(    7) = (   0.0000000   0.5773503   0.1985388), wk =   0.0370370
        k(    8) = (   0.0000000   0.5773503  -0.2978082), wk =   0.0370370
        k(    9) = (   0.0000000   1.1547005   0.0000000), wk =   0.0185185
        k(   10) = (   0.0000000   1.1547005   0.0992694), wk =   0.0370370
        k(   11) = (   0.0000000   1.1547005   0.1985388), wk =   0.0370370
        k(   12) = (   0.0000000   1.1547005  -0.2978082), wk =   0.0185185
        k(   13) = (   0.0000000  -1.7320508   0.0000000), wk =   0.0185185
[...]
     atom   14 type  1   force =     0.00002274    0.00001313    0.11321066
     atom   15 type  2   force =    -0.00017998   -0.00010391    0.09417313
     atom   16 type  2   force =     0.00017997    0.00010390    0.09417129
     atom   17 type  1   force =    -0.00002175   -0.00001255    0.11320693
     atom   18 type  1   force =     0.00002285    0.00001320    0.11320850
     atom   19 type  2   force =    -0.00018006   -0.00010396    0.09417340
     atom   20 type  2   force =     0.00017977    0.00010379    0.09417438
     atom   21 type  1   force =    -0.00002173   -0.00001254    0.11320780
     atom   22 type  1   force =     0.00002302    0.00001329    0.11320736
     atom   23 type  2   force =    -0.00018056   -0.00010425    0.09417231
     atom   24 type  2   force =     0.00017919    0.00010345    0.09417357
     atom   25 type  1   force =    -0.00002300   -0.00001328    0.11321073
     atom   26 type  1   force =     0.00002272    0.00001312    0.11321025
     atom   27 type  2   force =    -0.00017978   -0.00010380    0.09417267
     atom   28 type  2   force =     0.00018011    0.00010399    0.09417155
     atom   29 type  1   force =    -0.00002285   -0.00001319    0.11320746
     atom   30 type  1   force =     0.00002216    0.00001280    0.11320882
     atom   31 type  2   force =    -0.00017921   -0.00010347    0.09417351
     atom   32 type  2   force =     0.00017961    0.00010370    0.09417296
     atom   33 type  1   force =    -0.00002280   -0.00001316    0.11320815
     atom   34 type  1   force =     0.00002237    0.00001291    0.11320694
     atom   35 type  2   force =    -0.00017979   -0.00010380    0.09417183
     atom   36 type  2   force =     0.00017991    0.00010387    0.09417364
     The ionic contribution  to forces
     atom    1 type  1   force =     0.00000001    0.00000001    0.96206592
     atom    2 type  1   force =     0.00000001    0.00000000    0.96206596
     atom    3 type  2   force =     0.00000000    0.00000000   -0.96206594
     atom    4 type  2   force =     0.00000001    0.00000000   -0.96206595
     atom    5 type  1   force =     0.00000001    0.00000001    0.96206596
     atom    6 type  1   force =     0.00000001    0.00000000    0.96206592
     atom    7 type  2   force =     0.00000000    0.00000000   -0.96206595
     atom    8 type  2   force =     0.00000001    0.00000000   -0.96206592
     atom    9 type  1   force =     0.00000001    0.00000001    0.96206592
     atom   10 type  1   force =     0.00000001    0.00000000    0.96206592
     atom   11 type  2   force =     0.00000000    0.00000000   -0.96206592
     atom   12 type  2   force =     0.00000001    0.00000000   -0.96206594
     atom   13 type  1   force =    -0.00000001    0.00000000    0.96206592
     atom   14 type  1   force =     0.00000001   -0.00000000    0.96206596
     atom   15 type  2   force =    -0.00000001    0.00000000   -0.96206593
     atom   16 type  2   force =     0.00000001   -0.00000000   -0.96206594
     atom   17 type  1   force =    -0.00000001    0.00000000    0.96206596
     atom   18 type  1   force =     0.00000001   -0.00000000    0.96206592
     atom   19 type  2   force =    -0.00000001    0.00000000   -0.96206594
     atom   20 type  2   force =     0.00000001   -0.00000000   -0.96206592
     atom   21 type  1   force =    -0.00000001    0.00000000    0.96206592
     atom   22 type  1   force =     0.00000001   -0.00000000    0.96206592
     atom   23 type  2   force =    -0.00000001    0.00000000   -0.96206592
     atom   24 type  2   force =     0.00000001   -0.00000000   -0.96206593
     atom   25 type  1   force =    -0.00000001   -0.00000000    0.96206592
     atom   26 type  1   force =    -0.00000001   -0.00000001    0.96206596
     atom   27 type  2   force =    -0.00000001   -0.00000000   -0.96206594
     atom   28 type  2   force =    -0.00000000   -0.00000000   -0.96206595
     atom   29 type  1   force =    -0.00000001   -0.00000000    0.96206596
     atom   30 type  1   force =    -0.00000001   -0.00000001    0.96206592
     atom   31 type  2   force =    -0.00000001   -0.00000000   -0.96206595
     atom   32 type  2   force =    -0.00000000   -0.00000000   -0.96206592
     atom   33 type  1   force =    -0.00000001   -0.00000000    0.96206592
     atom   34 type  1   force =    -0.00000001   -0.00000001    0.96206592
     atom   35 type  2   force =    -0.00000001   -0.00000000   -0.96206592
     atom   36 type  2   force =    -0.00000000   -0.00000000   -0.96206594
     The local contribution  to forces
     atom    1 type  1   force =     0.00003729    0.00002153   -1.04228560
     atom    2 type  1   force =    -0.00003650   -0.00002112   -1.04228530
     atom    3 type  2   force =     0.00017262    0.00009966    0.84467962
     atom    4 type  2   force =    -0.00017301   -0.00009990    0.84467736
     atom    5 type  1   force =     0.00003875    0.00002237   -1.04227646
     atom    6 type  1   force =    -0.00003756   -0.00002173   -1.04228016
     atom    7 type  2   force =     0.00017333    0.00010007    0.84468057
     atom    8 type  2   force =    -0.00017362   -0.00010025    0.84468116
     atom    9 type  1   force =     0.00003836    0.00002215   -1.04228014
     atom   10 type  1   force =    -0.00003661   -0.00002118   -1.04227522
     atom   11 type  2   force =     0.00017533    0.00010123    0.84467563
     atom   12 type  2   force =    -0.00017182   -0.00009921    0.84468131
     atom   13 type  1   force =     0.00003632    0.00002106   -1.04228722
     atom   14 type  1   force =    -0.00003770   -0.00002186   -1.04228547
     atom   15 type  2   force =     0.00017411    0.00010055    0.84467981
     atom   16 type  2   force =    -0.00017557   -0.00010139    0.84467471
     atom   17 type  1   force =     0.00003514    0.00002038   -1.04227566
     atom   18 type  1   force =    -0.00003805   -0.00002206   -1.04227915
     atom   19 type  2   force =     0.00017299    0.00009990    0.84467992
     atom   20 type  2   force =    -0.00017409   -0.00010054    0.84468157
     atom   21 type  1   force =     0.00003528    0.00002046   -1.04227899
     atom   22 type  1   force =    -0.00003811   -0.00002209   -1.04227685
     atom   23 type  2   force =     0.00017352    0.00010020    0.84467830
     atom   24 type  2   force =    -0.00017500   -0.00010106    0.84468045
     atom   25 type  1   force =     0.00003877    0.00002243   -1.04228411
     atom   26 type  1   force =    -0.00003832   -0.00002212   -1.04228453
     atom   27 type  2   force =     0.00017357    0.00010022    0.84468022
     atom   28 type  2   force =    -0.00017368   -0.00010027    0.84467482
     atom   29 type  1   force =     0.00003847    0.00002226   -1.04227724
     atom   30 type  1   force =    -0.00003618   -0.00002089   -1.04228040
     atom   31 type  2   force =     0.00017489    0.00010098    0.84468228
     atom   32 type  2   force =    -0.00017388   -0.00010039    0.84468009
     atom   33 type  1   force =     0.00003859    0.00002233   -1.04227981
     atom   34 type  1   force =    -0.00003770   -0.00002177   -1.04227622
     atom   35 type  2   force =     0.00017245    0.00009958    0.84467749
     atom   36 type  2   force =    -0.00017303   -0.00009990    0.84468067
     The core correction contribution to forces
     atom    1 type  1   force =    -0.00000633   -0.00000366   -0.00911130
     atom    2 type  1   force =     0.00000630    0.00000363   -0.00911126
     atom    3 type  2   force =     0.00000203    0.00000117   -0.00067488
     atom    4 type  2   force =    -0.00000203   -0.00000117   -0.00067487
     atom    5 type  1   force =    -0.00000634   -0.00000366   -0.00911133
     atom    6 type  1   force =     0.00000636    0.00000367   -0.00911128
     atom    7 type  2   force =     0.00000204    0.00000118   -0.00067490
     atom    8 type  2   force =    -0.00000204   -0.00000118   -0.00067489
     atom    9 type  1   force =    -0.00000630   -0.00000364   -0.00911126
     atom   10 type  1   force =     0.00000633    0.00000365   -0.00911134
     atom   11 type  2   force =     0.00000204    0.00000118   -0.00067488
     atom   12 type  2   force =    -0.00000203   -0.00000117   -0.00067487
     atom   13 type  1   force =    -0.00000633   -0.00000364   -0.00911130
     atom   14 type  1   force =     0.00000634    0.00000365   -0.00911128
     atom   15 type  2   force =     0.00000204    0.00000118   -0.00067488
     atom   16 type  2   force =    -0.00000204   -0.00000118   -0.00067487
     atom   17 type  1   force =    -0.00000631   -0.00000363   -0.00911132
     atom   18 type  1   force =     0.00000637    0.00000367   -0.00911135
     atom   19 type  2   force =     0.00000203    0.00000117   -0.00067489
     atom   20 type  2   force =    -0.00000203   -0.00000117   -0.00067490
     atom   21 type  1   force =    -0.00000632   -0.00000363   -0.00911128
     atom   22 type  1   force =     0.00000634    0.00000365   -0.00911133
     atom   23 type  2   force =     0.00000204    0.00000118   -0.00067488
     atom   24 type  2   force =    -0.00000203   -0.00000117   -0.00067489
     atom   25 type  1   force =    -0.00000634   -0.00000365   -0.00911132
     atom   26 type  1   force =     0.00000633    0.00000366   -0.00911125
     atom   27 type  2   force =     0.00000203    0.00000117   -0.00067488
     atom   28 type  2   force =    -0.00000204   -0.00000118   -0.00067488
     atom   29 type  1   force =    -0.00000635   -0.00000366   -0.00911134
     atom   30 type  1   force =     0.00000628    0.00000363   -0.00911127
     atom   31 type  2   force =     0.00000203    0.00000117   -0.00067488
     atom   32 type  2   force =    -0.00000203   -0.00000117   -0.00067489
     atom   33 type  1   force =    -0.00000637   -0.00000367   -0.00911128
     atom   34 type  1   force =     0.00000633    0.00000366   -0.00911132
     atom   35 type  2   force =     0.00000203    0.00000117   -0.00067487
     atom   36 type  2   force =    -0.00000203   -0.00000117   -0.00067489
     The Hubbard contrib.    to forces
     atom    1 type  1   force =     0.00000000    0.00000000    0.00000000
     atom    2 type  1   force =     0.00000000    0.00000000    0.00000000
     atom    3 type  2   force =     0.00000000    0.00000000    0.00000000
     atom    4 type  2   force =     0.00000000    0.00000000    0.00000000
     atom    5 type  1   force =     0.00000000    0.00000000    0.00000000
     atom    6 type  1   force =     0.00000000    0.00000000    0.00000000
     atom    7 type  2   force =     0.00000000    0.00000000    0.00000000
     atom    8 type  2   force =     0.00000000    0.00000000    0.00000000
     atom    9 type  1   force =     0.00000000    0.00000000    0.00000000
     atom   10 type  1   force =     0.00000000    0.00000000    0.00000000
     atom   11 type  2   force =     0.00000000    0.00000000    0.00000000
     atom   12 type  2   force =     0.00000000    0.00000000    0.00000000
     atom   13 type  1   force =     0.00000000    0.00000000    0.00000000
     atom   14 type  1   force =     0.00000000    0.00000000    0.00000000
     atom   15 type  2   force =     0.00000000    0.00000000    0.00000000
     atom   16 type  2   force =     0.00000000    0.00000000    0.00000000
     atom   17 type  1   force =     0.00000000    0.00000000    0.00000000
     atom   18 type  1   force =     0.00000000    0.00000000    0.00000000
     atom   19 type  2   force =     0.00000000    0.00000000    0.00000000
     atom   20 type  2   force =     0.00000000    0.00000000    0.00000000
     atom   21 type  1   force =     0.00000000    0.00000000    0.00000000
     atom   22 type  1   force =     0.00000000    0.00000000    0.00000000
     atom   23 type  2   force =     0.00000000    0.00000000    0.00000000
     atom   24 type  2   force =     0.00000000    0.00000000    0.00000000
     atom   25 type  1   force =     0.00000000    0.00000000    0.00000000
     atom   26 type  1   force =     0.00000000    0.00000000    0.00000000
     atom   27 type  2   force =     0.00000000    0.00000000    0.00000000
     atom   28 type  2   force =     0.00000000    0.00000000    0.00000000
     atom   29 type  1   force =     0.00000000    0.00000000    0.00000000
     atom   30 type  1   force =     0.00000000    0.00000000    0.00000000
     atom   31 type  2   force =     0.00000000    0.00000000    0.00000000
     atom   32 type  2   force =     0.00000000    0.00000000    0.00000000
     atom   33 type  1   force =     0.00000000    0.00000000    0.00000000
     atom   34 type  1   force =     0.00000000    0.00000000    0.00000000
     atom   35 type  2   force =     0.00000000    0.00000000    0.00000000
     atom   36 type  2   force =     0.00000000    0.00000000    0.00000000
     The SCF correction term to forces
     atom    1 type  1   force =     0.00000719    0.00000415    0.00002055
     atom    2 type  1   force =    -0.00000703   -0.00000406    0.00002038
     atom    3 type  2   force =     0.00000263    0.00000152   -0.00000001
     atom    4 type  2   force =    -0.00000254   -0.00000147    0.00000342
     atom    5 type  1   force =     0.00000447    0.00000258    0.00000892
     atom    6 type  1   force =    -0.00000757   -0.00000437    0.00001292
     atom    7 type  2   force =     0.00000246    0.00000142   -0.00000252
     atom    8 type  2   force =    -0.00000211   -0.00000122   -0.00000231
     atom    9 type  1   force =     0.00000510    0.00000295    0.00001420
     atom   10 type  1   force =    -0.00000812   -0.00000469    0.00000755
     atom   11 type  2   force =    -0.00000040   -0.00000023    0.00000514
     atom   12 type  2   force =    -0.00000385   -0.00000222   -0.00000153
     atom   13 type  1   force =     0.00000806    0.00000465    0.00002370
     atom   14 type  1   force =    -0.00000677   -0.00000391    0.00002145
     atom   15 type  2   force =     0.00000123    0.00000071   -0.00000073
     atom   16 type  2   force =     0.00000021    0.00000012    0.00000677
     atom   17 type  1   force =     0.00000952    0.00000550    0.00000730
     atom   18 type  1   force =    -0.00000677   -0.00000391    0.00001298
     atom   19 type  2   force =     0.00000254    0.00000147   -0.00000103
     atom   20 type  2   force =    -0.00000112   -0.00000065   -0.00000388
     atom   21 type  1   force =     0.00000910    0.00000525    0.00001293
     atom   22 type  1   force =    -0.00000639   -0.00000369    0.00000978
     atom   23 type  2   force =     0.00000241    0.00000139    0.00000155
     atom   24 type  2   force =     0.00000048    0.00000028   -0.00000185
     atom   25 type  1   force =     0.00000446    0.00000257    0.00001869
     atom   26 type  1   force =    -0.00000532   -0.00000307    0.00001941
     atom   27 type  2   force =     0.00000164    0.00000094   -0.00000073
     atom   28 type  2   force =    -0.00000194   -0.00000112    0.00000635
     atom   29 type  1   force =     0.00000533    0.00000308    0.00001067
     atom   30 type  1   force =    -0.00000767   -0.00000443    0.00001396
     atom   31 type  2   force =    -0.00000034   -0.00000020   -0.00000359
     atom   32 type  2   force =    -0.00000120   -0.00000069   -0.00000102
     atom   33 type  1   force =     0.00000492    0.00000284    0.00001405
     atom   34 type  1   force =    -0.00000520   -0.00000300    0.00000925
     atom   35 type  2   force =     0.00000282    0.00000163    0.00000286
     atom   36 type  2   force =    -0.00000245   -0.00000142   -0.00000214

     Total force =     0.143358     Total SCF correction =     0.000075

     General routines

     Parallel routines

   This run was terminated on:  14: 4:51  29Aug2025

   JOB DONE.
Note: The following floating-point exceptions are signalling: IEEE_DENORMAL
Note: The following floating-point exceptions are signalling: IEEE_INVALID_FLAG
Note: The following floating-point exceptions are signalling: IEEE_INVALID_FLAG
Note: The following floating-point exceptions are signalling: IEEE_INVALID_FLAG
Note: The following floating-point exceptions are signalling: IEEE_INVALID_FLAG
Note: The following floating-point exceptions are signalling: IEEE_DENORMAL
Note: The following floating-point exceptions are signalling: IEEE_DENORMAL
Note: The following floating-point exceptions are signalling: IEEE_DENORMAL
Note: The following floating-point exceptions are signalling: IEEE_INVALID_FLAG
Note: The following floating-point exceptions are signalling: IEEE_DENORMAL
Note: The following floating-point exceptions are signalling: IEEE_DENORMAL
Note: The following floating-point exceptions are signalling: IEEE_INVALID_FLAG