     Program PWSCF v.7.2 starts on  1Sep2025 at 21:47: 9

     Reading input from /home/jvc/QEspresso7.2/ZnO_database/scripts/cell313.in/ZnO-3.34-1.71-313.in
Warning: card &CELL ignored
Warning: card / ignored
Warning: card &FCP ignored
Warning: card / ignored
Warning: card &RISM ignored
Warning: card / ignored

     Current dimensions of program PWSCF are:
     Max number of different atomic species (ntypx) = 10
     Max number of k-points (npk) =  40000
     Max angular momentum in pseudopotentials (lmaxx) =  4
     file Zn.upf: wavefunction(s)  3D renormalized
     Found identity + (  0.0000  0.0000  0.3333) symmetry
     This is a supercell, fractional translations are disabled
     Message from routine setup:
     using ibrav=0 with symmetry is DISCOURAGED, use correct ibrav instead

     K-points division:     npool     =       4
     R & G space division:  proc/nbgrp/npool/nimage =       8
     Subspace diagonalization in iterative solution of the eigenvalue problem:
     one sub-group per band group will be used

     Using Slab Decomposition

     bravais-lattice index     =            0
     lattice parameter (alat)  =      18.9073  a.u.
     unit-cell volume          =    3338.8988 (a.u.)^3
     number of atoms/cell      =           36
     number of atomic types    =            2
     number of electrons       =       324.00
     number of Kohn-Sham states=          162
     kinetic-energy cutoff     =      50.0000  Ry
     charge density cutoff     =     400.0000  Ry
     scf convergence threshold =      1.0E-08
     mixing beta               =       0.3000
     number of iterations used =            8  plain     mixing
     Exchange-correlation= PBE
                           (   1   4   3   4   0   0   0)

     celldm(1)=  18.907293  celldm(2)=   0.000000  celldm(3)=   0.000000
     celldm(4)=   0.000000  celldm(5)=   0.000000  celldm(6)=   0.000000

     crystal axes: (cart. coord. in units of alat)
               a(1) = (   1.000000   0.000000   0.000000 )
               a(2) = (  -0.166667   0.288675   0.000000 )
               a(3) = (   0.000000   0.000000   1.711220 )

     reciprocal axes: (cart. coord. in units 2 pi/alat)
               b(1) = (  1.000000  0.577350 -0.000000 )
               b(2) = (  0.000000  3.464102  0.000000 )
               b(3) = (  0.000000 -0.000000  0.584378 )

     PseudoPot. # 1 for Zn read from file:
     /home/jvc/QEspresso7.2/ZnO_database/pseudos/Zn.upf
     MD5 check sum: 7f56cabf9682ed8c977c2f7d0c5985c5
     Pseudo is Ultrasoft + core correction, Zval = 12.0
     Generated using &quot;atomic&quot; code by A. Dal Corso  v.6.2.2
     Using radial grid of 1201 points,  6 beta functions with:
                l(1) =   0
                l(2) =   0
                l(3) =   1
                l(4) =   1
                l(5) =   2
                l(6) =   2
     Q(r) pseudized with 0 coefficients

     PseudoPot. # 2 for O  read from file:
     /home/jvc/QEspresso7.2/ZnO_database/pseudos/O.upf
     MD5 check sum: 91400c9766925bcf19f520983a725ff0
     Pseudo is Ultrasoft + core correction, Zval =  6.0
     Generated using &quot;atomic&quot; code by A. Dal Corso  v.6.3MaX
     Using radial grid of 1095 points,  4 beta functions with:
                l(1) =   0
                l(2) =   0
                l(3) =   1
                l(4) =   1
     Q(r) pseudized with 0 coefficients

     atomic species   valence    mass     pseudopotential
        Zn            12.00    65.38000     Zn( 1.00)
        O              6.00    15.99900     O ( 1.00)

      2 Sym. Ops. (no inversion) found

                                    s                        frac. trans.

      isym =  1     identity

 cryst.   s( 1) = (     1          0          0      )
                  (     0          1          0      )
                  (     0          0          1      )

 cart.    s( 1) = (  1.0000000  0.0000000  0.0000000 )
                  (  0.0000000  1.0000000  0.0000000 )
                  (  0.0000000  0.0000000  1.0000000 )

      isym =  2     inv. 180 deg rotation - cryst. axis [0,1,0]

 cryst.   s( 2) = (     1          3          0      )
                  (     0         -1          0      )
                  (     0          0          1      )

 cart.    s( 2) = (  0.5000000  0.8660254  0.0000000 )
                  (  0.8660254 -0.5000000  0.0000000 )
                  (  0.0000000  0.0000000  1.0000000 )

   Cartesian axes

     site n.     atom                  positions (alat units)
         1           Zn  tau(   1) = (   0.1666667   0.0962250   0.2855647  )
         2           Zn  tau(   2) = (  -0.0000000   0.1924501   0.0003614  )
         3           O   tau(   3) = (   0.1666667   0.0962250   0.5017732  )
         4           O   tau(   4) = (  -0.0000000   0.1924501   0.2165699  )
         5           Zn  tau(   5) = (   0.1666667   0.0962250   0.8559713  )
         6           Zn  tau(   6) = (  -0.0000000   0.1924501   0.5707680  )
         7           O   tau(   7) = (   0.1666667   0.0962250   1.0721799  )
         8           O   tau(   8) = (  -0.0000000   0.1924501   0.7869766  )
         9           Zn  tau(   9) = (   0.1666667   0.0962250   1.4263779  )
        10           Zn  tau(  10) = (  -0.0000000   0.1924501   1.1411746  )
        11           O   tau(  11) = (   0.1666667   0.0962250   1.6425865  )
        12           O   tau(  12) = (  -0.0000000   0.1924501   1.3573832  )
        13           Zn  tau(  13) = (   0.5000000   0.0962250   0.2855647  )
        14           Zn  tau(  14) = (   0.3333333   0.1924501   0.0003614  )
        15           O   tau(  15) = (   0.5000000   0.0962250   0.5017732  )
        16           O   tau(  16) = (   0.3333333   0.1924501   0.2165699  )
        17           Zn  tau(  17) = (   0.5000000   0.0962250   0.8559713  )
        18           Zn  tau(  18) = (   0.3333333   0.1924501   0.5707680  )
        19           O   tau(  19) = (   0.5000000   0.0962250   1.0721799  )
        20           O   tau(  20) = (   0.3333333   0.1924501   0.7869766  )
        21           Zn  tau(  21) = (   0.5000000   0.0962250   1.4263779  )
        22           Zn  tau(  22) = (   0.3333333   0.1924501   1.1411746  )
        23           O   tau(  23) = (   0.5000000   0.0962250   1.6425865  )
        24           O   tau(  24) = (   0.3333333   0.1924501   1.3573832  )
        25           Zn  tau(  25) = (   0.8333333   0.0962250   0.2855647  )
        26           Zn  tau(  26) = (   0.6666667   0.1924501   0.0003614  )
        27           O   tau(  27) = (   0.8333333   0.0962250   0.5017732  )
        28           O   tau(  28) = (   0.6666667   0.1924501   0.2165699  )
        29           Zn  tau(  29) = (   0.8333333   0.0962250   0.8559713  )
        30           Zn  tau(  30) = (   0.6666667   0.1924501   0.5707680  )
        31           O   tau(  31) = (   0.8333333   0.0962250   1.0721799  )
        32           O   tau(  32) = (   0.6666667   0.1924501   0.7869766  )
        33           Zn  tau(  33) = (   0.8333333   0.0962250   1.4263779  )
        34           Zn  tau(  34) = (   0.6666667   0.1924501   1.1411746  )
        35           O   tau(  35) = (   0.8333333   0.0962250   1.6425865  )
        36           O   tau(  36) = (   0.6666667   0.1924501   1.3573832  )

   Crystallographic axes

     site n.     atom                  positions (cryst. coord.)
         1           Zn  tau(   1) = (  0.2222222  0.3333333  0.1668779  )
         2           Zn  tau(   2) = (  0.1111111  0.6666667  0.0002112  )
         3           O   tau(   3) = (  0.2222222  0.3333333  0.2932255  )
         4           O   tau(   4) = (  0.1111111  0.6666667  0.1265588  )
         5           Zn  tau(   5) = (  0.2222222  0.3333333  0.5002112  )
         6           Zn  tau(   6) = (  0.1111111  0.6666667  0.3335445  )
         7           O   tau(   7) = (  0.2222222  0.3333333  0.6265588  )
         8           O   tau(   8) = (  0.1111111  0.6666667  0.4598921  )
         9           Zn  tau(   9) = (  0.2222222  0.3333333  0.8335445  )
        10           Zn  tau(  10) = (  0.1111111  0.6666667  0.6668779  )
        11           O   tau(  11) = (  0.2222222  0.3333333  0.9598921  )
        12           O   tau(  12) = (  0.1111111  0.6666667  0.7932255  )
        13           Zn  tau(  13) = (  0.5555556  0.3333333  0.1668779  )
        14           Zn  tau(  14) = (  0.4444444  0.6666667  0.0002112  )
        15           O   tau(  15) = (  0.5555556  0.3333333  0.2932255  )
        16           O   tau(  16) = (  0.4444444  0.6666667  0.1265588  )
        17           Zn  tau(  17) = (  0.5555556  0.3333333  0.5002112  )
        18           Zn  tau(  18) = (  0.4444444  0.6666667  0.3335445  )
        19           O   tau(  19) = (  0.5555556  0.3333333  0.6265588  )
        20           O   tau(  20) = (  0.4444444  0.6666667  0.4598921  )
        21           Zn  tau(  21) = (  0.5555556  0.3333333  0.8335445  )
        22           Zn  tau(  22) = (  0.4444444  0.6666667  0.6668779  )
        23           O   tau(  23) = (  0.5555556  0.3333333  0.9598921  )
        24           O   tau(  24) = (  0.4444444  0.6666667  0.7932255  )
        25           Zn  tau(  25) = (  0.8888889  0.3333333  0.1668779  )
        26           Zn  tau(  26) = (  0.7777778  0.6666667  0.0002112  )
        27           O   tau(  27) = (  0.8888889  0.3333333  0.2932255  )
        28           O   tau(  28) = (  0.7777778  0.6666667  0.1265588  )
        29           Zn  tau(  29) = (  0.8888889  0.3333333  0.5002112  )
        30           Zn  tau(  30) = (  0.7777778  0.6666667  0.3335445  )
        31           O   tau(  31) = (  0.8888889  0.3333333  0.6265588  )
        32           O   tau(  32) = (  0.7777778  0.6666667  0.4598921  )
        33           Zn  tau(  33) = (  0.8888889  0.3333333  0.8335445  )
        34           Zn  tau(  34) = (  0.7777778  0.6666667  0.6668779  )
        35           O   tau(  35) = (  0.8888889  0.3333333  0.9598921  )
        36           O   tau(  36) = (  0.7777778  0.6666667  0.7932255  )

     number of k points=    68
                       cart. coord. in units 2pi/alat
        k(    1) = (   0.0000000   0.0000000   0.0000000), wk =   0.0092593
        k(    2) = (   0.0000000   0.0000000   0.0973964), wk =   0.0185185
        k(    3) = (   0.0000000   0.0000000   0.1947928), wk =   0.0185185
        k(    4) = (   0.0000000   0.0000000  -0.2921892), wk =   0.0092593
        k(    5) = (   0.0000000   0.5773503   0.0000000), wk =   0.0370370
        k(    6) = (   0.0000000   0.5773503   0.0973964), wk =   0.0370370
        k(    7) = (   0.0000000   0.5773503   0.1947928), wk =   0.0370370
        k(    8) = (   0.0000000   0.5773503  -0.2921892), wk =   0.0370370
        k(    9) = (   0.0000000   1.1547005   0.0000000), wk =   0.0185185
        k(   10) = (   0.0000000   1.1547005   0.0973964), wk =   0.0370370
        k(   11) = (   0.0000000   1.1547005   0.1947928), wk =   0.0370370
        k(   12) = (   0.0000000   1.1547005  -0.2921892), wk =   0.0185185
        k(   13) = (   0.0000000  -1.7320508   0.0000000), wk =   0.0185185
[...]
     atom   10 type  1   force =    -0.00000190   -0.00000110    0.14782162
     atom   11 type  2   force =    -0.00021269   -0.00012280    0.15466124
     atom   12 type  2   force =     0.00021142    0.00012206    0.15465944
     atom   13 type  1   force =     0.00000186    0.00000107    0.14781930
     atom   14 type  1   force =    -0.00000128   -0.00000074    0.14781891
     atom   15 type  2   force =    -0.00021142   -0.00012206    0.15466102
     atom   16 type  2   force =     0.00021088    0.00012175    0.15466217
     atom   17 type  1   force =     0.00000074    0.00000043    0.14782241
     atom   18 type  1   force =    -0.00000218   -0.00000126    0.14782037
     atom   19 type  2   force =    -0.00021182   -0.00012229    0.15466144
     atom   20 type  2   force =     0.00021185    0.00012231    0.15466010
     atom   21 type  1   force =     0.00000126    0.00000073    0.14781950
     atom   22 type  1   force =    -0.00000000   -0.00000000    0.14781994
     atom   23 type  2   force =    -0.00021062   -0.00012160    0.15466042
     atom   24 type  2   force =     0.00021141    0.00012206    0.15466110
     atom   25 type  1   force =     0.00000237    0.00000137    0.14781987
     atom   26 type  1   force =    -0.00000232   -0.00000134    0.14781935
     atom   27 type  2   force =    -0.00021206   -0.00012243    0.15466162
     atom   28 type  2   force =     0.00021186    0.00012232    0.15466060
     atom   29 type  1   force =     0.00000240    0.00000138    0.14782123
     atom   30 type  1   force =    -0.00000101   -0.00000059    0.14781819
     atom   31 type  2   force =    -0.00020985   -0.00012116    0.15465983
     atom   32 type  2   force =     0.00021311    0.00012304    0.15465986
     atom   33 type  1   force =     0.00000227    0.00000131    0.14781919
     atom   34 type  1   force =    -0.00000365   -0.00000211    0.14782038
     atom   35 type  2   force =    -0.00021106   -0.00012186    0.15466058
     atom   36 type  2   force =     0.00021202    0.00012241    0.15466109
     The ionic contribution  to forces
     atom    1 type  1   force =     0.00000001    0.00000001    1.17172273
     atom    2 type  1   force =     0.00000001    0.00000000    1.17172276
     atom    3 type  2   force =     0.00000000    0.00000000   -1.17172274
     atom    4 type  2   force =     0.00000000    0.00000000   -1.17172275
     atom    5 type  1   force =     0.00000001    0.00000001    1.17172276
     atom    6 type  1   force =     0.00000001    0.00000000    1.17172273
     atom    7 type  2   force =     0.00000000    0.00000000   -1.17172275
     atom    8 type  2   force =     0.00000000    0.00000000   -1.17172273
     atom    9 type  1   force =     0.00000001    0.00000001    1.17172273
     atom   10 type  1   force =     0.00000001    0.00000000    1.17172273
     atom   11 type  2   force =     0.00000000    0.00000000   -1.17172273
     atom   12 type  2   force =     0.00000000    0.00000000   -1.17172274
     atom   13 type  1   force =    -0.00000001    0.00000000    1.17172272
     atom   14 type  1   force =     0.00000001   -0.00000000    1.17172276
     atom   15 type  2   force =    -0.00000001    0.00000000   -1.17172274
     atom   16 type  2   force =     0.00000001   -0.00000000   -1.17172275
     atom   17 type  1   force =    -0.00000001    0.00000000    1.17172276
     atom   18 type  1   force =     0.00000001   -0.00000000    1.17172272
     atom   19 type  2   force =    -0.00000001    0.00000000   -1.17172275
     atom   20 type  2   force =     0.00000001   -0.00000000   -1.17172272
     atom   21 type  1   force =    -0.00000001    0.00000000    1.17172272
     atom   22 type  1   force =     0.00000001   -0.00000000    1.17172272
     atom   23 type  2   force =    -0.00000001    0.00000000   -1.17172272
     atom   24 type  2   force =     0.00000001   -0.00000000   -1.17172274
     atom   25 type  1   force =    -0.00000001   -0.00000000    1.17172273
     atom   26 type  1   force =    -0.00000001   -0.00000001    1.17172276
     atom   27 type  2   force =    -0.00000000   -0.00000000   -1.17172274
     atom   28 type  2   force =    -0.00000000   -0.00000000   -1.17172275
     atom   29 type  1   force =    -0.00000001   -0.00000000    1.17172276
     atom   30 type  1   force =    -0.00000001   -0.00000001    1.17172273
     atom   31 type  2   force =    -0.00000000   -0.00000000   -1.17172275
     atom   32 type  2   force =    -0.00000000   -0.00000000   -1.17172273
     atom   33 type  1   force =    -0.00000001   -0.00000000    1.17172273
     atom   34 type  1   force =    -0.00000001   -0.00000001    1.17172273
     atom   35 type  2   force =    -0.00000000   -0.00000000   -1.17172273
     atom   36 type  2   force =    -0.00000000   -0.00000000   -1.17172274
     The local contribution  to forces
     atom    1 type  1   force =     0.00000757    0.00000437   -1.30683469
     atom    2 type  1   force =    -0.00000566   -0.00000332   -1.30683574
     atom    3 type  2   force =     0.00020221    0.00011674    1.01527389
     atom    4 type  2   force =    -0.00020332   -0.00011740    1.01527772
     atom    5 type  1   force =     0.00000612    0.00000354   -1.30683379
     atom    6 type  1   force =    -0.00000449   -0.00000264   -1.30684055
     atom    7 type  2   force =     0.00020497    0.00011834    1.01527444
     atom    8 type  2   force =    -0.00020217   -0.00011673    1.01527229
     atom    9 type  1   force =     0.00000679    0.00000392   -1.30683434
     atom   10 type  1   force =    -0.00000560   -0.00000328   -1.30684187
     atom   11 type  2   force =     0.00020413    0.00011786    1.01527571
     atom   12 type  2   force =    -0.00020289   -0.00011715    1.01527766
     atom   13 type  1   force =     0.00000689    0.00000408   -1.30683558
     atom   14 type  1   force =    -0.00000815   -0.00000481   -1.30683416
     atom   15 type  2   force =     0.00020648    0.00011923    1.01527714
     atom   16 type  2   force =    -0.00020473   -0.00011823    1.01527777
     atom   17 type  1   force =     0.00000961    0.00000565   -1.30684422
     atom   18 type  1   force =    -0.00000678   -0.00000402   -1.30683760
     atom   19 type  2   force =     0.00020325    0.00011737    1.01527484
     atom   20 type  2   force =    -0.00020280   -0.00011711    1.01527415
     atom   21 type  1   force =     0.00000787    0.00000464   -1.30683592
     atom   22 type  1   force =    -0.00001304   -0.00000763   -1.30683696
     atom   23 type  2   force =     0.00020325    0.00011738    1.01527714
     atom   24 type  2   force =    -0.00020369   -0.00011763    1.01527594
     atom   25 type  1   force =     0.00000567    0.00000332   -1.30683713
     atom   26 type  1   force =    -0.00000515   -0.00000297   -1.30683467
     atom   27 type  2   force =     0.00020332    0.00011740    1.01527531
     atom   28 type  2   force =    -0.00020377   -0.00011764    1.01527859
     atom   29 type  1   force =     0.00000429    0.00000253   -1.30683963
     atom   30 type  1   force =    -0.00000924   -0.00000534   -1.30683204
     atom   31 type  2   force =     0.00020427    0.00011795    1.01527513
     atom   32 type  2   force =    -0.00020627   -0.00011909    1.01527097
     atom   33 type  1   force =     0.00000504    0.00000296   -1.30683442
     atom   34 type  1   force =    -0.00000210   -0.00000121   -1.30683809
     atom   35 type  2   force =     0.00020320    0.00011733    1.01527702
     atom   36 type  2   force =    -0.00020497   -0.00011834    1.01527756
     The core correction contribution to forces
     atom    1 type  1   force =    -0.00000835   -0.00000482   -0.00958330
     atom    2 type  1   force =     0.00000843    0.00000481   -0.00958328
     atom    3 type  2   force =     0.00000238    0.00000136   -0.00134156
     atom    4 type  2   force =    -0.00000240   -0.00000139   -0.00134156
     atom    5 type  1   force =    -0.00000834   -0.00000481   -0.00958339
     atom    6 type  1   force =     0.00000838    0.00000478   -0.00958321
     atom    7 type  2   force =     0.00000241    0.00000138   -0.00134159
     atom    8 type  2   force =    -0.00000236   -0.00000137   -0.00134160
     atom    9 type  1   force =    -0.00000837   -0.00000483   -0.00958329
     atom   10 type  1   force =     0.00000840    0.00000479   -0.00958320
     atom   11 type  2   force =     0.00000241    0.00000138   -0.00134158
     atom   12 type  2   force =    -0.00000239   -0.00000138   -0.00134155
     atom   13 type  1   force =    -0.00000829   -0.00000479   -0.00958320
     atom   14 type  1   force =     0.00000833    0.00000482   -0.00958327
     atom   15 type  2   force =     0.00000240    0.00000139   -0.00134157
     atom   16 type  2   force =    -0.00000239   -0.00000138   -0.00134159
     atom   17 type  1   force =    -0.00000838   -0.00000485   -0.00958323
     atom   18 type  1   force =     0.00000831    0.00000481   -0.00958321
     atom   19 type  2   force =     0.00000240    0.00000139   -0.00134158
     atom   20 type  2   force =    -0.00000240   -0.00000138   -0.00134156
     atom   21 type  1   force =    -0.00000828   -0.00000479   -0.00958323
     atom   22 type  1   force =     0.00000837    0.00000484   -0.00958327
     atom   23 type  2   force =     0.00000238    0.00000137   -0.00134156
     atom   24 type  2   force =    -0.00000240   -0.00000138   -0.00134158
     atom   25 type  1   force =    -0.00000842   -0.00000480   -0.00958320
     atom   26 type  1   force =     0.00000832    0.00000480   -0.00958328
     atom   27 type  2   force =     0.00000240    0.00000139   -0.00134158
     atom   28 type  2   force =    -0.00000239   -0.00000137   -0.00134156
     atom   29 type  1   force =    -0.00000833   -0.00000475   -0.00958327
     atom   30 type  1   force =     0.00000832    0.00000480   -0.00958335
     atom   31 type  2   force =     0.00000237    0.00000137   -0.00134156
     atom   32 type  2   force =    -0.00000242   -0.00000139   -0.00134157
     atom   33 type  1   force =    -0.00000841   -0.00000480   -0.00958326
     atom   34 type  1   force =     0.00000826    0.00000476   -0.00958327
     atom   35 type  2   force =     0.00000239    0.00000138   -0.00134156
     atom   36 type  2   force =    -0.00000240   -0.00000138   -0.00134157
     The Hubbard contrib.    to forces
     atom    1 type  1   force =     0.00000000    0.00000000    0.00000000
     atom    2 type  1   force =     0.00000000    0.00000000    0.00000000
     atom    3 type  2   force =     0.00000000    0.00000000    0.00000000
     atom    4 type  2   force =     0.00000000    0.00000000    0.00000000
     atom    5 type  1   force =     0.00000000    0.00000000    0.00000000
     atom    6 type  1   force =     0.00000000    0.00000000    0.00000000
     atom    7 type  2   force =     0.00000000    0.00000000    0.00000000
     atom    8 type  2   force =     0.00000000    0.00000000    0.00000000
     atom    9 type  1   force =     0.00000000    0.00000000    0.00000000
     atom   10 type  1   force =     0.00000000    0.00000000    0.00000000
     atom   11 type  2   force =     0.00000000    0.00000000    0.00000000
     atom   12 type  2   force =     0.00000000    0.00000000    0.00000000
     atom   13 type  1   force =     0.00000000    0.00000000    0.00000000
     atom   14 type  1   force =     0.00000000    0.00000000    0.00000000
     atom   15 type  2   force =     0.00000000    0.00000000    0.00000000
     atom   16 type  2   force =     0.00000000    0.00000000    0.00000000
     atom   17 type  1   force =     0.00000000    0.00000000    0.00000000
     atom   18 type  1   force =     0.00000000    0.00000000    0.00000000
     atom   19 type  2   force =     0.00000000    0.00000000    0.00000000
     atom   20 type  2   force =     0.00000000    0.00000000    0.00000000
     atom   21 type  1   force =     0.00000000    0.00000000    0.00000000
     atom   22 type  1   force =     0.00000000    0.00000000    0.00000000
     atom   23 type  2   force =     0.00000000    0.00000000    0.00000000
     atom   24 type  2   force =     0.00000000    0.00000000    0.00000000
     atom   25 type  1   force =     0.00000000    0.00000000    0.00000000
     atom   26 type  1   force =     0.00000000    0.00000000    0.00000000
     atom   27 type  2   force =     0.00000000    0.00000000    0.00000000
     atom   28 type  2   force =     0.00000000    0.00000000    0.00000000
     atom   29 type  1   force =     0.00000000    0.00000000    0.00000000
     atom   30 type  1   force =     0.00000000    0.00000000    0.00000000
     atom   31 type  2   force =     0.00000000    0.00000000    0.00000000
     atom   32 type  2   force =     0.00000000    0.00000000    0.00000000
     atom   33 type  1   force =     0.00000000    0.00000000    0.00000000
     atom   34 type  1   force =     0.00000000    0.00000000    0.00000000
     atom   35 type  2   force =     0.00000000    0.00000000    0.00000000
     atom   36 type  2   force =     0.00000000    0.00000000    0.00000000
     The SCF correction term to forces
     atom    1 type  1   force =    -0.00000388   -0.00000224   -0.00001095
     atom    2 type  1   force =     0.00000067    0.00000039   -0.00000921
     atom    3 type  2   force =     0.00000127    0.00000073    0.00000778
     atom    4 type  2   force =    -0.00000046   -0.00000026    0.00000268
     atom    5 type  1   force =    -0.00000548   -0.00000316   -0.00001091
     atom    6 type  1   force =    -0.00000016   -0.00000009   -0.00000337
     atom    7 type  2   force =    -0.00000016   -0.00000009    0.00000531
     atom    8 type  2   force =     0.00000019    0.00000011    0.00000727
     atom    9 type  1   force =    -0.00000298   -0.00000172   -0.00001201
     atom   10 type  1   force =     0.00000089    0.00000051   -0.00000116
     atom   11 type  2   force =     0.00000024    0.00000014    0.00000437
     atom   12 type  2   force =    -0.00000056   -0.00000033    0.00000394
     atom   13 type  1   force =    -0.00000423   -0.00000244   -0.00001029
     atom   14 type  1   force =     0.00000469    0.00000271   -0.00001238
     atom   15 type  2   force =    -0.00000327   -0.00000189    0.00000316
     atom   16 type  2   force =     0.00000197    0.00000114    0.00000130
     atom   17 type  1   force =    -0.00000590   -0.00000341    0.00000326
     atom   18 type  1   force =     0.00000428    0.00000247   -0.00000848
     atom   19 type  2   force =     0.00000041    0.00000024    0.00000523
     atom   20 type  2   force =    -0.00000087   -0.00000050    0.00000711
     atom   21 type  1   force =    -0.00000511   -0.00000295   -0.00000993
     atom   22 type  1   force =     0.00001315    0.00000759   -0.00000709
     atom   23 type  2   force =    -0.00000052   -0.00000030    0.00000359
     atom   24 type  2   force =     0.00000026    0.00000015    0.00000425
     atom   25 type  1   force =    -0.00000225   -0.00000130   -0.00000916
     atom   26 type  1   force =     0.00000124    0.00000072   -0.00001269
     atom   27 type  2   force =     0.00000056    0.00000032    0.00000463
     atom   28 type  2   force =     0.00000008    0.00000005    0.00000185
     atom   29 type  1   force =     0.00000023    0.00000014   -0.00000517
     atom   30 type  1   force =     0.00000819    0.00000473   -0.00001378
     atom   31 type  2   force =    -0.00000235   -0.00000136    0.00000621
     atom   32 type  2   force =     0.00000158    0.00000091    0.00001047
     atom   33 type  1   force =    -0.00000064   -0.00000037   -0.00001228
     atom   34 type  1   force =    -0.00000102   -0.00000059   -0.00000597
     atom   35 type  2   force =    -0.00000014   -0.00000008    0.00000360
     atom   36 type  2   force =     0.00000118    0.00000068    0.00000268

     Total force =     0.018712     Total SCF correction =     0.000052

     General routines

     Parallel routines

   This run was terminated on:  22:44:38   1Sep2025

   JOB DONE.
Note: The following floating-point exceptions are signalling: IEEE_INVALID_FLAG
Note: The following floating-point exceptions are signalling: IEEE_INVALID_FLAG
Note: The following floating-point exceptions are signalling: IEEE_DENORMAL
Note: The following floating-point exceptions are signalling: IEEE_INVALID_FLAG
Note: The following floating-point exceptions are signalling: IEEE_DENORMAL
Note: The following floating-point exceptions are signalling: IEEE_DENORMAL
Note: The following floating-point exceptions are signalling: IEEE_DENORMAL
Note: The following floating-point exceptions are signalling: IEEE_INVALID_FLAG