     Program PWSCF v.7.2 starts on  1Sep2025 at 20:45:26

     Reading input from /home/jvc/QEspresso7.2/ZnO_database/scripts/cell313.in/ZnO-3.34-1.68-313.in
Warning: card &CELL ignored
Warning: card / ignored
Warning: card &FCP ignored
Warning: card / ignored
Warning: card &RISM ignored
Warning: card / ignored

     Current dimensions of program PWSCF are:
     Max number of different atomic species (ntypx) = 10
     Max number of k-points (npk) =  40000
     Max angular momentum in pseudopotentials (lmaxx) =  4
     file Zn.upf: wavefunction(s)  3D renormalized
     Found identity + (  0.0000  0.0000  0.3333) symmetry
     This is a supercell, fractional translations are disabled
     Message from routine setup:
     using ibrav=0 with symmetry is DISCOURAGED, use correct ibrav instead

     K-points division:     npool     =       4
     R & G space division:  proc/nbgrp/npool/nimage =       8
     Subspace diagonalization in iterative solution of the eigenvalue problem:
     one sub-group per band group will be used

     Using Slab Decomposition

     bravais-lattice index     =            0
     lattice parameter (alat)  =      18.9073  a.u.
     unit-cell volume          =    3275.9008 (a.u.)^3
     number of atoms/cell      =           36
     number of atomic types    =            2
     number of electrons       =       324.00
     number of Kohn-Sham states=          162
     kinetic-energy cutoff     =      50.0000  Ry
     charge density cutoff     =     400.0000  Ry
     scf convergence threshold =      1.0E-08
     mixing beta               =       0.3000
     number of iterations used =            8  plain     mixing
     Exchange-correlation= PBE
                           (   1   4   3   4   0   0   0)

     celldm(1)=  18.907293  celldm(2)=   0.000000  celldm(3)=   0.000000
     celldm(4)=   0.000000  celldm(5)=   0.000000  celldm(6)=   0.000000

     crystal axes: (cart. coord. in units of alat)
               a(1) = (   1.000000   0.000000   0.000000 )
               a(2) = (  -0.166667   0.288675   0.000000 )
               a(3) = (   0.000000   0.000000   1.678933 )

     reciprocal axes: (cart. coord. in units 2 pi/alat)
               b(1) = (  1.000000  0.577350 -0.000000 )
               b(2) = (  0.000000  3.464102  0.000000 )
               b(3) = (  0.000000 -0.000000  0.595616 )

     PseudoPot. # 1 for Zn read from file:
     /home/jvc/QEspresso7.2/ZnO_database/pseudos/Zn.upf
     MD5 check sum: 7f56cabf9682ed8c977c2f7d0c5985c5
     Pseudo is Ultrasoft + core correction, Zval = 12.0
     Generated using &quot;atomic&quot; code by A. Dal Corso  v.6.2.2
     Using radial grid of 1201 points,  6 beta functions with:
                l(1) =   0
                l(2) =   0
                l(3) =   1
                l(4) =   1
                l(5) =   2
                l(6) =   2
     Q(r) pseudized with 0 coefficients

     PseudoPot. # 2 for O  read from file:
     /home/jvc/QEspresso7.2/ZnO_database/pseudos/O.upf
     MD5 check sum: 91400c9766925bcf19f520983a725ff0
     Pseudo is Ultrasoft + core correction, Zval =  6.0
     Generated using &quot;atomic&quot; code by A. Dal Corso  v.6.3MaX
     Using radial grid of 1095 points,  4 beta functions with:
                l(1) =   0
                l(2) =   0
                l(3) =   1
                l(4) =   1
     Q(r) pseudized with 0 coefficients

     atomic species   valence    mass     pseudopotential
        Zn            12.00    65.38000     Zn( 1.00)
        O              6.00    15.99900     O ( 1.00)

      2 Sym. Ops. (no inversion) found

                                    s                        frac. trans.

      isym =  1     identity

 cryst.   s( 1) = (     1          0          0      )
                  (     0          1          0      )
                  (     0          0          1      )

 cart.    s( 1) = (  1.0000000  0.0000000  0.0000000 )
                  (  0.0000000  1.0000000  0.0000000 )
                  (  0.0000000  0.0000000  1.0000000 )

      isym =  2     inv. 180 deg rotation - cryst. axis [0,1,0]

 cryst.   s( 2) = (     1          3          0      )
                  (     0         -1          0      )
                  (     0          0          1      )

 cart.    s( 2) = (  0.5000000  0.8660254  0.0000000 )
                  (  0.8660254 -0.5000000  0.0000000 )
                  (  0.0000000  0.0000000  1.0000000 )

   Cartesian axes

     site n.     atom                  positions (alat units)
         1           Zn  tau(   1) = (   0.1666667   0.0962250   0.2801767  )
         2           Zn  tau(   2) = (  -0.0000000   0.1924501   0.0003546  )
         3           O   tau(   3) = (   0.1666667   0.0962250   0.4923058  )
         4           O   tau(   4) = (  -0.0000000   0.1924501   0.2124837  )
         5           Zn  tau(   5) = (   0.1666667   0.0962250   0.8398209  )
         6           Zn  tau(   6) = (  -0.0000000   0.1924501   0.5599988  )
         7           O   tau(   7) = (   0.1666667   0.0962250   1.0519501  )
         8           O   tau(   8) = (  -0.0000000   0.1924501   0.7721279  )
         9           Zn  tau(   9) = (   0.1666667   0.0962250   1.3994652  )
        10           Zn  tau(  10) = (  -0.0000000   0.1924501   1.1196430  )
        11           O   tau(  11) = (   0.1666667   0.0962250   1.6115943  )
        12           O   tau(  12) = (  -0.0000000   0.1924501   1.3317722  )
        13           Zn  tau(  13) = (   0.5000000   0.0962250   0.2801767  )
        14           Zn  tau(  14) = (   0.3333333   0.1924501   0.0003546  )
        15           O   tau(  15) = (   0.5000000   0.0962250   0.4923058  )
        16           O   tau(  16) = (   0.3333333   0.1924501   0.2124837  )
        17           Zn  tau(  17) = (   0.5000000   0.0962250   0.8398209  )
        18           Zn  tau(  18) = (   0.3333333   0.1924501   0.5599988  )
        19           O   tau(  19) = (   0.5000000   0.0962250   1.0519501  )
        20           O   tau(  20) = (   0.3333333   0.1924501   0.7721279  )
        21           Zn  tau(  21) = (   0.5000000   0.0962250   1.3994652  )
        22           Zn  tau(  22) = (   0.3333333   0.1924501   1.1196430  )
        23           O   tau(  23) = (   0.5000000   0.0962250   1.6115943  )
        24           O   tau(  24) = (   0.3333333   0.1924501   1.3317722  )
        25           Zn  tau(  25) = (   0.8333333   0.0962250   0.2801767  )
        26           Zn  tau(  26) = (   0.6666667   0.1924501   0.0003546  )
        27           O   tau(  27) = (   0.8333333   0.0962250   0.4923058  )
        28           O   tau(  28) = (   0.6666667   0.1924501   0.2124837  )
        29           Zn  tau(  29) = (   0.8333333   0.0962250   0.8398209  )
        30           Zn  tau(  30) = (   0.6666667   0.1924501   0.5599988  )
        31           O   tau(  31) = (   0.8333333   0.0962250   1.0519501  )
        32           O   tau(  32) = (   0.6666667   0.1924501   0.7721279  )
        33           Zn  tau(  33) = (   0.8333333   0.0962250   1.3994652  )
        34           Zn  tau(  34) = (   0.6666667   0.1924501   1.1196430  )
        35           O   tau(  35) = (   0.8333333   0.0962250   1.6115943  )
        36           O   tau(  36) = (   0.6666667   0.1924501   1.3317722  )

   Crystallographic axes

     site n.     atom                  positions (cryst. coord.)
         1           Zn  tau(   1) = (  0.2222222  0.3333333  0.1668779  )
         2           Zn  tau(   2) = (  0.1111111  0.6666667  0.0002112  )
         3           O   tau(   3) = (  0.2222222  0.3333333  0.2932255  )
         4           O   tau(   4) = (  0.1111111  0.6666667  0.1265588  )
         5           Zn  tau(   5) = (  0.2222222  0.3333333  0.5002112  )
         6           Zn  tau(   6) = (  0.1111111  0.6666667  0.3335445  )
         7           O   tau(   7) = (  0.2222222  0.3333333  0.6265588  )
         8           O   tau(   8) = (  0.1111111  0.6666667  0.4598921  )
         9           Zn  tau(   9) = (  0.2222222  0.3333333  0.8335445  )
        10           Zn  tau(  10) = (  0.1111111  0.6666667  0.6668779  )
        11           O   tau(  11) = (  0.2222222  0.3333333  0.9598921  )
        12           O   tau(  12) = (  0.1111111  0.6666667  0.7932255  )
        13           Zn  tau(  13) = (  0.5555556  0.3333333  0.1668779  )
        14           Zn  tau(  14) = (  0.4444444  0.6666667  0.0002112  )
        15           O   tau(  15) = (  0.5555556  0.3333333  0.2932255  )
        16           O   tau(  16) = (  0.4444444  0.6666667  0.1265588  )
        17           Zn  tau(  17) = (  0.5555556  0.3333333  0.5002112  )
        18           Zn  tau(  18) = (  0.4444444  0.6666667  0.3335445  )
        19           O   tau(  19) = (  0.5555556  0.3333333  0.6265588  )
        20           O   tau(  20) = (  0.4444444  0.6666667  0.4598921  )
        21           Zn  tau(  21) = (  0.5555556  0.3333333  0.8335445  )
        22           Zn  tau(  22) = (  0.4444444  0.6666667  0.6668779  )
        23           O   tau(  23) = (  0.5555556  0.3333333  0.9598921  )
        24           O   tau(  24) = (  0.4444444  0.6666667  0.7932255  )
        25           Zn  tau(  25) = (  0.8888889  0.3333333  0.1668779  )
        26           Zn  tau(  26) = (  0.7777778  0.6666667  0.0002112  )
        27           O   tau(  27) = (  0.8888889  0.3333333  0.2932255  )
        28           O   tau(  28) = (  0.7777778  0.6666667  0.1265588  )
        29           Zn  tau(  29) = (  0.8888889  0.3333333  0.5002112  )
        30           Zn  tau(  30) = (  0.7777778  0.6666667  0.3335445  )
        31           O   tau(  31) = (  0.8888889  0.3333333  0.6265588  )
        32           O   tau(  32) = (  0.7777778  0.6666667  0.4598921  )
        33           Zn  tau(  33) = (  0.8888889  0.3333333  0.8335445  )
        34           Zn  tau(  34) = (  0.7777778  0.6666667  0.6668779  )
        35           O   tau(  35) = (  0.8888889  0.3333333  0.9598921  )
        36           O   tau(  36) = (  0.7777778  0.6666667  0.7932255  )

     number of k points=    68
                       cart. coord. in units 2pi/alat
        k(    1) = (   0.0000000   0.0000000   0.0000000), wk =   0.0092593
        k(    2) = (   0.0000000   0.0000000   0.0992694), wk =   0.0185185
        k(    3) = (   0.0000000   0.0000000   0.1985388), wk =   0.0185185
        k(    4) = (   0.0000000   0.0000000  -0.2978082), wk =   0.0092593
        k(    5) = (   0.0000000   0.5773503   0.0000000), wk =   0.0370370
        k(    6) = (   0.0000000   0.5773503   0.0992694), wk =   0.0370370
        k(    7) = (   0.0000000   0.5773503   0.1985388), wk =   0.0370370
        k(    8) = (   0.0000000   0.5773503  -0.2978082), wk =   0.0370370
        k(    9) = (   0.0000000   1.1547005   0.0000000), wk =   0.0185185
        k(   10) = (   0.0000000   1.1547005   0.0992694), wk =   0.0370370
        k(   11) = (   0.0000000   1.1547005   0.1985388), wk =   0.0370370
        k(   12) = (   0.0000000   1.1547005  -0.2978082), wk =   0.0185185
        k(   13) = (   0.0000000  -1.7320508   0.0000000), wk =   0.0185185
[...]
     atom   10 type  1   force =     0.00000020    0.00000012    0.09987197
     atom   11 type  2   force =    -0.00020797   -0.00012007    0.10517339
     atom   12 type  2   force =     0.00020769    0.00011991    0.10516988
     atom   13 type  1   force =    -0.00000305   -0.00000176    0.09986227
     atom   14 type  1   force =     0.00000077    0.00000045    0.09986255
     atom   15 type  2   force =    -0.00020729   -0.00011968    0.10517259
     atom   16 type  2   force =     0.00020763    0.00011987    0.10517446
     atom   17 type  1   force =    -0.00000121   -0.00000070    0.09986561
     atom   18 type  1   force =     0.00000263    0.00000152    0.09986443
     atom   19 type  2   force =    -0.00020799   -0.00012008    0.10516892
     atom   20 type  2   force =     0.00020730    0.00011969    0.10517190
     atom   21 type  1   force =    -0.00000120   -0.00000069    0.09986836
     atom   22 type  1   force =     0.00000306    0.00000177    0.09987298
     atom   23 type  2   force =    -0.00020704   -0.00011953    0.10517467
     atom   24 type  2   force =     0.00020685    0.00011943    0.10516956
     atom   25 type  1   force =    -0.00000194   -0.00000112    0.09986209
     atom   26 type  1   force =     0.00000054    0.00000031    0.09986035
     atom   27 type  2   force =    -0.00020634   -0.00011913    0.10517212
     atom   28 type  2   force =     0.00020827    0.00012024    0.10517440
     atom   29 type  1   force =    -0.00000139   -0.00000080    0.09986781
     atom   30 type  1   force =    -0.00000012   -0.00000007    0.09986458
     atom   31 type  2   force =    -0.00020687   -0.00011943    0.10516874
     atom   32 type  2   force =     0.00020802    0.00012010    0.10517155
     atom   33 type  1   force =    -0.00000215   -0.00000124    0.09986842
     atom   34 type  1   force =     0.00000101    0.00000059    0.09987180
     atom   35 type  2   force =    -0.00020743   -0.00011976    0.10517484
     atom   36 type  2   force =     0.00020788    0.00012002    0.10517033
     The ionic contribution  to forces
     atom    1 type  1   force =     0.00000001    0.00000001    0.81707175
     atom    2 type  1   force =     0.00000001    0.00000000    0.81707179
     atom    3 type  2   force =     0.00000000    0.00000000   -0.81707176
     atom    4 type  2   force =     0.00000000    0.00000000   -0.81707177
     atom    5 type  1   force =     0.00000001    0.00000001    0.81707179
     atom    6 type  1   force =     0.00000001    0.00000000    0.81707175
     atom    7 type  2   force =     0.00000000    0.00000000   -0.81707177
     atom    8 type  2   force =     0.00000000    0.00000000   -0.81707175
     atom    9 type  1   force =     0.00000001    0.00000001    0.81707175
     atom   10 type  1   force =     0.00000001    0.00000000    0.81707175
     atom   11 type  2   force =     0.00000000    0.00000000   -0.81707175
     atom   12 type  2   force =     0.00000000    0.00000000   -0.81707176
     atom   13 type  1   force =    -0.00000001    0.00000000    0.81707175
     atom   14 type  1   force =     0.00000001   -0.00000000    0.81707178
     atom   15 type  2   force =    -0.00000001    0.00000000   -0.81707176
     atom   16 type  2   force =     0.00000001   -0.00000000   -0.81707177
     atom   17 type  1   force =    -0.00000001    0.00000000    0.81707178
     atom   18 type  1   force =     0.00000001   -0.00000000    0.81707174
     atom   19 type  2   force =    -0.00000001    0.00000000   -0.81707177
     atom   20 type  2   force =     0.00000001   -0.00000000   -0.81707175
     atom   21 type  1   force =    -0.00000001    0.00000000    0.81707174
     atom   22 type  1   force =     0.00000001   -0.00000000    0.81707175
     atom   23 type  2   force =    -0.00000001    0.00000000   -0.81707175
     atom   24 type  2   force =     0.00000001   -0.00000000   -0.81707176
     atom   25 type  1   force =    -0.00000001   -0.00000000    0.81707175
     atom   26 type  1   force =    -0.00000001   -0.00000001    0.81707179
     atom   27 type  2   force =    -0.00000000   -0.00000000   -0.81707176
     atom   28 type  2   force =    -0.00000000   -0.00000000   -0.81707177
     atom   29 type  1   force =    -0.00000001   -0.00000000    0.81707179
     atom   30 type  1   force =    -0.00000001   -0.00000001    0.81707175
     atom   31 type  2   force =    -0.00000000   -0.00000000   -0.81707177
     atom   32 type  2   force =    -0.00000000   -0.00000000   -0.81707175
     atom   33 type  1   force =    -0.00000001   -0.00000000    0.81707175
     atom   34 type  1   force =    -0.00000001   -0.00000001    0.81707175
     atom   35 type  2   force =    -0.00000000   -0.00000000   -0.81707175
     atom   36 type  2   force =    -0.00000000   -0.00000000   -0.81707176
     The local contribution  to forces
     atom    1 type  1   force =     0.00000476    0.00000275   -0.90662971
     atom    2 type  1   force =    -0.00001233   -0.00000717   -0.90664362
     atom    3 type  2   force =     0.00019822    0.00011444    0.70909503
     atom    4 type  2   force =    -0.00020327   -0.00011737    0.70910074
     atom    5 type  1   force =     0.00001118    0.00000645   -0.90664736
     atom    6 type  1   force =    -0.00000906   -0.00000528   -0.90665317
     atom    7 type  2   force =     0.00020160    0.00011639    0.70908657
     atom    8 type  2   force =    -0.00020048   -0.00011576    0.70909101
     atom    9 type  1   force =     0.00000783    0.00000452   -0.90665321
     atom   10 type  1   force =    -0.00000422   -0.00000249   -0.90666461
     atom   11 type  2   force =     0.00019908    0.00011494    0.70909557
     atom   12 type  2   force =    -0.00019973   -0.00011533    0.70909007
     atom   13 type  1   force =     0.00001674    0.00000976   -0.90664133
     atom   14 type  1   force =    -0.00000973   -0.00000572   -0.90664109
     atom   15 type  2   force =     0.00020117    0.00011617    0.70909561
     atom   16 type  2   force =    -0.00019873   -0.00011476    0.70909867
     atom   17 type  1   force =     0.00001072    0.00000629   -0.90664836
     atom   18 type  1   force =    -0.00001582   -0.00000923   -0.90664675
     atom   19 type  2   force =     0.00019782    0.00011424    0.70908544
     atom   20 type  2   force =    -0.00020133   -0.00011626    0.70909311
     atom   21 type  1   force =     0.00000967    0.00000568   -0.90665308
     atom   22 type  1   force =    -0.00001462   -0.00000854   -0.90666850
     atom   23 type  2   force =     0.00020129    0.00011624    0.70909730
     atom   24 type  2   force =    -0.00020213   -0.00011673    0.70908907
     atom   25 type  1   force =     0.00000824    0.00000481   -0.90664011
     atom   26 type  1   force =    -0.00000769   -0.00000444   -0.90663289
     atom   27 type  2   force =     0.00020236    0.00011685    0.70909392
     atom   28 type  2   force =    -0.00019958   -0.00011523    0.70909782
     atom   29 type  1   force =     0.00000839    0.00000490   -0.90665538
     atom   30 type  1   force =    -0.00000503   -0.00000290   -0.90664589
     atom   31 type  2   force =     0.00020230    0.00011681    0.70908657
     atom   32 type  2   force =    -0.00020030   -0.00011564    0.70909082
     atom   33 type  1   force =     0.00001264    0.00000735   -0.90665282
     atom   34 type  1   force =    -0.00001126   -0.00000650   -0.90666355
     atom   35 type  2   force =     0.00020162    0.00011642    0.70909912
     atom   36 type  2   force =    -0.00019994   -0.00011543    0.70909030
     The core correction contribution to forces
     atom    1 type  1   force =    -0.00000757   -0.00000436   -0.00657770
     atom    2 type  1   force =     0.00000758    0.00000432   -0.00657751
     atom    3 type  2   force =     0.00000236    0.00000135   -0.00090516
     atom    4 type  2   force =    -0.00000234   -0.00000135   -0.00090518
     atom    5 type  1   force =    -0.00000756   -0.00000435   -0.00657761
     atom    6 type  1   force =     0.00000754    0.00000430   -0.00657735
     atom    7 type  2   force =     0.00000235    0.00000135   -0.00090512
     atom    8 type  2   force =    -0.00000234   -0.00000136   -0.00090514
     atom    9 type  1   force =    -0.00000749   -0.00000432   -0.00657761
     atom   10 type  1   force =     0.00000747    0.00000426   -0.00657738
     atom   11 type  2   force =     0.00000235    0.00000135   -0.00090517
     atom   12 type  2   force =    -0.00000235   -0.00000136   -0.00090513
     atom   13 type  1   force =    -0.00000763   -0.00000443   -0.00657746
     atom   14 type  1   force =     0.00000755    0.00000438   -0.00657750
     atom   15 type  2   force =     0.00000235    0.00000136   -0.00090516
     atom   16 type  2   force =    -0.00000235   -0.00000136   -0.00090518
     atom   17 type  1   force =    -0.00000757   -0.00000439   -0.00657750
     atom   18 type  1   force =     0.00000766    0.00000444   -0.00657742
     atom   19 type  2   force =     0.00000236    0.00000136   -0.00090512
     atom   20 type  2   force =    -0.00000235   -0.00000136   -0.00090515
     atom   21 type  1   force =    -0.00000750   -0.00000435   -0.00657757
     atom   22 type  1   force =     0.00000753    0.00000437   -0.00657729
     atom   23 type  2   force =     0.00000235    0.00000135   -0.00090518
     atom   24 type  2   force =    -0.00000235   -0.00000135   -0.00090513
     atom   25 type  1   force =    -0.00000748   -0.00000426   -0.00657751
     atom   26 type  1   force =     0.00000754    0.00000434   -0.00657768
     atom   27 type  2   force =     0.00000233    0.00000135   -0.00090515
     atom   28 type  2   force =    -0.00000236   -0.00000135   -0.00090518
     atom   29 type  1   force =    -0.00000754   -0.00000430   -0.00657739
     atom   30 type  1   force =     0.00000747    0.00000430   -0.00657751
     atom   31 type  2   force =     0.00000234    0.00000136   -0.00090512
     atom   32 type  2   force =    -0.00000236   -0.00000135   -0.00090515
     atom   33 type  1   force =    -0.00000767   -0.00000437   -0.00657759
     atom   34 type  1   force =     0.00000766    0.00000441   -0.00657741
     atom   35 type  2   force =     0.00000235    0.00000136   -0.00090518
     atom   36 type  2   force =    -0.00000235   -0.00000135   -0.00090513
     The Hubbard contrib.    to forces
     atom    1 type  1   force =     0.00000000    0.00000000    0.00000000
     atom    2 type  1   force =     0.00000000    0.00000000    0.00000000
     atom    3 type  2   force =     0.00000000    0.00000000    0.00000000
     atom    4 type  2   force =     0.00000000    0.00000000    0.00000000
     atom    5 type  1   force =     0.00000000    0.00000000    0.00000000
     atom    6 type  1   force =     0.00000000    0.00000000    0.00000000
     atom    7 type  2   force =     0.00000000    0.00000000    0.00000000
     atom    8 type  2   force =     0.00000000    0.00000000    0.00000000
     atom    9 type  1   force =     0.00000000    0.00000000    0.00000000
     atom   10 type  1   force =     0.00000000    0.00000000    0.00000000
     atom   11 type  2   force =     0.00000000    0.00000000    0.00000000
     atom   12 type  2   force =     0.00000000    0.00000000    0.00000000
     atom   13 type  1   force =     0.00000000    0.00000000    0.00000000
     atom   14 type  1   force =     0.00000000    0.00000000    0.00000000
     atom   15 type  2   force =     0.00000000    0.00000000    0.00000000
     atom   16 type  2   force =     0.00000000    0.00000000    0.00000000
     atom   17 type  1   force =     0.00000000    0.00000000    0.00000000
     atom   18 type  1   force =     0.00000000    0.00000000    0.00000000
     atom   19 type  2   force =     0.00000000    0.00000000    0.00000000
     atom   20 type  2   force =     0.00000000    0.00000000    0.00000000
     atom   21 type  1   force =     0.00000000    0.00000000    0.00000000
     atom   22 type  1   force =     0.00000000    0.00000000    0.00000000
     atom   23 type  2   force =     0.00000000    0.00000000    0.00000000
     atom   24 type  2   force =     0.00000000    0.00000000    0.00000000
     atom   25 type  1   force =     0.00000000    0.00000000    0.00000000
     atom   26 type  1   force =     0.00000000    0.00000000    0.00000000
     atom   27 type  2   force =     0.00000000    0.00000000    0.00000000
     atom   28 type  2   force =     0.00000000    0.00000000    0.00000000
     atom   29 type  1   force =     0.00000000    0.00000000    0.00000000
     atom   30 type  1   force =     0.00000000    0.00000000    0.00000000
     atom   31 type  2   force =     0.00000000    0.00000000    0.00000000
     atom   32 type  2   force =     0.00000000    0.00000000    0.00000000
     atom   33 type  1   force =     0.00000000    0.00000000    0.00000000
     atom   34 type  1   force =     0.00000000    0.00000000    0.00000000
     atom   35 type  2   force =     0.00000000    0.00000000    0.00000000
     atom   36 type  2   force =     0.00000000    0.00000000    0.00000000
     The SCF correction term to forces
     atom    1 type  1   force =     0.00000753    0.00000435   -0.00002062
     atom    2 type  1   force =     0.00000316    0.00000183   -0.00000123
     atom    3 type  2   force =     0.00000338    0.00000195   -0.00000272
     atom    4 type  2   force =     0.00000422    0.00000244   -0.00001063
     atom    5 type  1   force =    -0.00000177   -0.00000102    0.00000272
     atom    6 type  1   force =    -0.00000167   -0.00000096    0.00001136
     atom    7 type  2   force =    -0.00000129   -0.00000075    0.00000942
     atom    8 type  2   force =     0.00000035    0.00000020    0.00000360
     atom    9 type  1   force =     0.00000331    0.00000191    0.00001007
     atom   10 type  1   force =    -0.00000841   -0.00000485    0.00002577
     atom   11 type  2   force =     0.00000173    0.00000100   -0.00000377
     atom   12 type  2   force =    -0.00000084   -0.00000048    0.00000531
     atom   13 type  1   force =    -0.00000978   -0.00000564   -0.00000419
     atom   14 type  1   force =    -0.00000011   -0.00000006   -0.00000479
     atom   15 type  2   force =    -0.00000101   -0.00000058   -0.00000293
     atom   16 type  2   force =    -0.00000184   -0.00000106   -0.00000779
     atom   17 type  1   force =    -0.00000086   -0.00000050    0.00000461
     atom   18 type  1   force =     0.00000819    0.00000473    0.00000228
     atom   19 type  2   force =     0.00000311    0.00000180    0.00001105
     atom   20 type  2   force =     0.00000131    0.00000075    0.00000025
     atom   21 type  1   force =     0.00000053    0.00000031    0.00001012
     atom   22 type  1   force =     0.00000611    0.00000353    0.00003110
     atom   23 type  2   force =    -0.00000136   -0.00000079   -0.00000648
     atom   24 type  2   force =     0.00000250    0.00000144    0.00000668
     atom   25 type  1   force =     0.00000317    0.00000183   -0.00000617
     atom   26 type  1   force =    -0.00000352   -0.00000203   -0.00001660
     atom   27 type  2   force =    -0.00000311   -0.00000179   -0.00000108
     atom   28 type  2   force =    -0.00000154   -0.00000089   -0.00000709
     atom   29 type  1   force =     0.00000248    0.00000143    0.00001403
     atom   30 type  1   force =    -0.00000701   -0.00000405    0.00000139
     atom   31 type  2   force =    -0.00000257   -0.00000148    0.00001024
     atom   32 type  2   force =    -0.00000063   -0.00000037    0.00000288
     atom   33 type  1   force =    -0.00000347   -0.00000200    0.00000972
     atom   34 type  1   force =     0.00000179    0.00000103    0.00002400
     atom   35 type  2   force =    -0.00000140   -0.00000081   -0.00000883
     atom   36 type  2   force =    -0.00000084   -0.00000048    0.00000479

     Total force =     0.022284     Total SCF correction =     0.000072

     General routines

     Parallel routines

   This run was terminated on:  21:47: 8   1Sep2025

   JOB DONE.
Note: The following floating-point exceptions are signalling: IEEE_DENORMAL
Note: The following floating-point exceptions are signalling: IEEE_DENORMAL
Note: The following floating-point exceptions are signalling: IEEE_DENORMAL
Note: The following floating-point exceptions are signalling: IEEE_INVALID_FLAG
Note: The following floating-point exceptions are signalling: IEEE_DENORMAL
Note: The following floating-point exceptions are signalling: IEEE_INVALID_FLAG
Note: The following floating-point exceptions are signalling: IEEE_INVALID_FLAG
Note: The following floating-point exceptions are signalling: IEEE_INVALID_FLAG