     Program PWSCF v.7.2 starts on  1Sep2025 at  9: 1:43

     Reading input from /home/jvc/QEspresso7.2/ZnO_database/scripts/cell313.in/ZnO-3.27-1.61-313.in
Warning: card &CELL ignored
Warning: card / ignored
Warning: card &FCP ignored
Warning: card / ignored
Warning: card &RISM ignored
Warning: card / ignored

     Current dimensions of program PWSCF are:
     Max number of different atomic species (ntypx) = 10
     Max number of k-points (npk) =  40000
     Max angular momentum in pseudopotentials (lmaxx) =  4
     file Zn.upf: wavefunction(s)  3D renormalized
     Found identity + (  0.0000  0.0000  0.3333) symmetry
     This is a supercell, fractional translations are disabled
     Message from routine setup:
     using ibrav=0 with symmetry is DISCOURAGED, use correct ibrav instead

     K-points division:     npool     =       4
     R & G space division:  proc/nbgrp/npool/nimage =       8
     Subspace diagonalization in iterative solution of the eigenvalue problem:
     one sub-group per band group will be used

     Using Slab Decomposition

     bravais-lattice index     =            0
     lattice parameter (alat)  =      18.5366  a.u.
     unit-cell volume          =    2968.2254 (a.u.)^3
     number of atoms/cell      =           36
     number of atomic types    =            2
     number of electrons       =       324.00
     number of Kohn-Sham states=          162
     kinetic-energy cutoff     =      50.0000  Ry
     charge density cutoff     =     400.0000  Ry
     scf convergence threshold =      1.0E-08
     mixing beta               =       0.3000
     number of iterations used =            8  plain     mixing
     Exchange-correlation= PBE
                           (   1   4   3   4   0   0   0)

     celldm(1)=  18.536562  celldm(2)=   0.000000  celldm(3)=   0.000000
     celldm(4)=   0.000000  celldm(5)=   0.000000  celldm(6)=   0.000000

     crystal axes: (cart. coord. in units of alat)
               a(1) = (   1.000000   0.000000   0.000000 )
               a(2) = (  -0.166667   0.288675   0.000000 )
               a(3) = (   0.000000   0.000000   1.614358 )

     reciprocal axes: (cart. coord. in units 2 pi/alat)
               b(1) = (  1.000000  0.577350 -0.000000 )
               b(2) = (  0.000000  3.464102  0.000000 )
               b(3) = (  0.000000 -0.000000  0.619441 )

     PseudoPot. # 1 for Zn read from file:
     /home/jvc/QEspresso7.2/ZnO_database/pseudos/Zn.upf
     MD5 check sum: 7f56cabf9682ed8c977c2f7d0c5985c5
     Pseudo is Ultrasoft + core correction, Zval = 12.0
     Generated using &quot;atomic&quot; code by A. Dal Corso  v.6.2.2
     Using radial grid of 1201 points,  6 beta functions with:
                l(1) =   0
                l(2) =   0
                l(3) =   1
                l(4) =   1
                l(5) =   2
                l(6) =   2
     Q(r) pseudized with 0 coefficients

     PseudoPot. # 2 for O  read from file:
     /home/jvc/QEspresso7.2/ZnO_database/pseudos/O.upf
     MD5 check sum: 91400c9766925bcf19f520983a725ff0
     Pseudo is Ultrasoft + core correction, Zval =  6.0
     Generated using &quot;atomic&quot; code by A. Dal Corso  v.6.3MaX
     Using radial grid of 1095 points,  4 beta functions with:
                l(1) =   0
                l(2) =   0
                l(3) =   1
                l(4) =   1
     Q(r) pseudized with 0 coefficients

     atomic species   valence    mass     pseudopotential
        Zn            12.00    65.38000     Zn( 1.00)
        O              6.00    15.99900     O ( 1.00)

      2 Sym. Ops. (no inversion) found

                                    s                        frac. trans.

      isym =  1     identity

 cryst.   s( 1) = (     1          0          0      )
                  (     0          1          0      )
                  (     0          0          1      )

 cart.    s( 1) = (  1.0000000  0.0000000  0.0000000 )
                  (  0.0000000  1.0000000  0.0000000 )
                  (  0.0000000  0.0000000  1.0000000 )

      isym =  2     inv. 180 deg rotation - cryst. axis [0,1,0]

 cryst.   s( 2) = (     1          3          0      )
                  (     0         -1          0      )
                  (     0          0          1      )

 cart.    s( 2) = (  0.5000000  0.8660254  0.0000000 )
                  (  0.8660254 -0.5000000  0.0000000 )
                  (  0.0000000  0.0000000  1.0000000 )

   Cartesian axes

     site n.     atom                  positions (alat units)
         1           Zn  tau(   1) = (   0.1666667   0.0962250   0.2694007  )
         2           Zn  tau(   2) = (  -0.0000000   0.1924501   0.0003409  )
         3           O   tau(   3) = (   0.1666667   0.0962250   0.4733710  )
         4           O   tau(   4) = (  -0.0000000   0.1924501   0.2043113  )
         5           Zn  tau(   5) = (   0.1666667   0.0962250   0.8075201  )
         6           Zn  tau(   6) = (  -0.0000000   0.1924501   0.5384604  )
         7           O   tau(   7) = (   0.1666667   0.0962250   1.0114904  )
         8           O   tau(   8) = (  -0.0000000   0.1924501   0.7424307  )
         9           Zn  tau(   9) = (   0.1666667   0.0962250   1.3456396  )
        10           Zn  tau(  10) = (  -0.0000000   0.1924501   1.0765798  )
        11           O   tau(  11) = (   0.1666667   0.0962250   1.5496099  )
        12           O   tau(  12) = (  -0.0000000   0.1924501   1.2805502  )
        13           Zn  tau(  13) = (   0.5000000   0.0962250   0.2694007  )
        14           Zn  tau(  14) = (   0.3333333   0.1924501   0.0003409  )
        15           O   tau(  15) = (   0.5000000   0.0962250   0.4733710  )
        16           O   tau(  16) = (   0.3333333   0.1924501   0.2043113  )
        17           Zn  tau(  17) = (   0.5000000   0.0962250   0.8075201  )
        18           Zn  tau(  18) = (   0.3333333   0.1924501   0.5384604  )
        19           O   tau(  19) = (   0.5000000   0.0962250   1.0114904  )
        20           O   tau(  20) = (   0.3333333   0.1924501   0.7424307  )
        21           Zn  tau(  21) = (   0.5000000   0.0962250   1.3456396  )
        22           Zn  tau(  22) = (   0.3333333   0.1924501   1.0765798  )
        23           O   tau(  23) = (   0.5000000   0.0962250   1.5496099  )
        24           O   tau(  24) = (   0.3333333   0.1924501   1.2805502  )
        25           Zn  tau(  25) = (   0.8333333   0.0962250   0.2694007  )
        26           Zn  tau(  26) = (   0.6666667   0.1924501   0.0003409  )
        27           O   tau(  27) = (   0.8333333   0.0962250   0.4733710  )
        28           O   tau(  28) = (   0.6666667   0.1924501   0.2043113  )
        29           Zn  tau(  29) = (   0.8333333   0.0962250   0.8075201  )
        30           Zn  tau(  30) = (   0.6666667   0.1924501   0.5384604  )
        31           O   tau(  31) = (   0.8333333   0.0962250   1.0114904  )
        32           O   tau(  32) = (   0.6666667   0.1924501   0.7424307  )
        33           Zn  tau(  33) = (   0.8333333   0.0962250   1.3456396  )
        34           Zn  tau(  34) = (   0.6666667   0.1924501   1.0765798  )
        35           O   tau(  35) = (   0.8333333   0.0962250   1.5496099  )
        36           O   tau(  36) = (   0.6666667   0.1924501   1.2805502  )

   Crystallographic axes

     site n.     atom                  positions (cryst. coord.)
         1           Zn  tau(   1) = (  0.2222222  0.3333333  0.1668779  )
         2           Zn  tau(   2) = (  0.1111111  0.6666667  0.0002112  )
         3           O   tau(   3) = (  0.2222222  0.3333333  0.2932255  )
         4           O   tau(   4) = (  0.1111111  0.6666667  0.1265588  )
         5           Zn  tau(   5) = (  0.2222222  0.3333333  0.5002112  )
         6           Zn  tau(   6) = (  0.1111111  0.6666667  0.3335445  )
         7           O   tau(   7) = (  0.2222222  0.3333333  0.6265588  )
         8           O   tau(   8) = (  0.1111111  0.6666667  0.4598921  )
         9           Zn  tau(   9) = (  0.2222222  0.3333333  0.8335445  )
        10           Zn  tau(  10) = (  0.1111111  0.6666667  0.6668779  )
        11           O   tau(  11) = (  0.2222222  0.3333333  0.9598921  )
        12           O   tau(  12) = (  0.1111111  0.6666667  0.7932255  )
        13           Zn  tau(  13) = (  0.5555556  0.3333333  0.1668779  )
        14           Zn  tau(  14) = (  0.4444444  0.6666667  0.0002112  )
        15           O   tau(  15) = (  0.5555556  0.3333333  0.2932255  )
        16           O   tau(  16) = (  0.4444444  0.6666667  0.1265588  )
        17           Zn  tau(  17) = (  0.5555556  0.3333333  0.5002112  )
        18           Zn  tau(  18) = (  0.4444444  0.6666667  0.3335445  )
        19           O   tau(  19) = (  0.5555556  0.3333333  0.6265588  )
        20           O   tau(  20) = (  0.4444444  0.6666667  0.4598921  )
        21           Zn  tau(  21) = (  0.5555556  0.3333333  0.8335445  )
        22           Zn  tau(  22) = (  0.4444444  0.6666667  0.6668779  )
        23           O   tau(  23) = (  0.5555556  0.3333333  0.9598921  )
        24           O   tau(  24) = (  0.4444444  0.6666667  0.7932255  )
        25           Zn  tau(  25) = (  0.8888889  0.3333333  0.1668779  )
        26           Zn  tau(  26) = (  0.7777778  0.6666667  0.0002112  )
        27           O   tau(  27) = (  0.8888889  0.3333333  0.2932255  )
        28           O   tau(  28) = (  0.7777778  0.6666667  0.1265588  )
        29           Zn  tau(  29) = (  0.8888889  0.3333333  0.5002112  )
        30           Zn  tau(  30) = (  0.7777778  0.6666667  0.3335445  )
        31           O   tau(  31) = (  0.8888889  0.3333333  0.6265588  )
        32           O   tau(  32) = (  0.7777778  0.6666667  0.4598921  )
        33           Zn  tau(  33) = (  0.8888889  0.3333333  0.8335445  )
        34           Zn  tau(  34) = (  0.7777778  0.6666667  0.6668779  )
        35           O   tau(  35) = (  0.8888889  0.3333333  0.9598921  )
        36           O   tau(  36) = (  0.7777778  0.6666667  0.7932255  )

     number of k points=    68
                       cart. coord. in units 2pi/alat
        k(    1) = (   0.0000000   0.0000000   0.0000000), wk =   0.0092593
        k(    2) = (   0.0000000   0.0000000   0.1032402), wk =   0.0185185
        k(    3) = (   0.0000000   0.0000000   0.2064804), wk =   0.0185185
        k(    4) = (   0.0000000   0.0000000  -0.3097206), wk =   0.0092593
        k(    5) = (   0.0000000   0.5773503   0.0000000), wk =   0.0370370
        k(    6) = (   0.0000000   0.5773503   0.1032402), wk =   0.0370370
        k(    7) = (   0.0000000   0.5773503   0.2064804), wk =   0.0370370
        k(    8) = (   0.0000000   0.5773503  -0.3097206), wk =   0.0370370
        k(    9) = (   0.0000000   1.1547005   0.0000000), wk =   0.0185185
        k(   10) = (   0.0000000   1.1547005   0.1032402), wk =   0.0370370
        k(   11) = (   0.0000000   1.1547005   0.2064804), wk =   0.0370370
        k(   12) = (   0.0000000   1.1547005  -0.3097206), wk =   0.0185185
        k(   13) = (   0.0000000  -1.7320508   0.0000000), wk =   0.0185185
[...]
     atom   11 type  2   force =    -0.00019048   -0.00010997    0.00551458
     atom   12 type  2   force =     0.00018971    0.00010953    0.00551318
     atom   13 type  1   force =    -0.00001185   -0.00000684   -0.00477871
     atom   14 type  1   force =     0.00001147    0.00000662   -0.00478319
     atom   15 type  2   force =    -0.00019035   -0.00010990    0.00550948
     atom   16 type  2   force =     0.00019098    0.00011026    0.00551028
     atom   17 type  1   force =    -0.00001240   -0.00000716   -0.00478277
     atom   18 type  1   force =     0.00001176    0.00000679   -0.00477683
     atom   19 type  2   force =    -0.00018971   -0.00010953    0.00551402
     atom   20 type  2   force =     0.00019173    0.00011070    0.00551438
     atom   21 type  1   force =    -0.00001383   -0.00000798   -0.00478124
     atom   22 type  1   force =     0.00001063    0.00000614   -0.00478186
     atom   23 type  2   force =    -0.00019011   -0.00010976    0.00551349
     atom   24 type  2   force =     0.00019264    0.00011122    0.00551181
     atom   25 type  1   force =    -0.00001298   -0.00000750   -0.00477749
     atom   26 type  1   force =     0.00001171    0.00000676   -0.00478111
     atom   27 type  2   force =    -0.00019036   -0.00010990    0.00551008
     atom   28 type  2   force =     0.00019045    0.00010995    0.00551115
     atom   29 type  1   force =    -0.00001179   -0.00000681   -0.00478149
     atom   30 type  1   force =     0.00001149    0.00000663   -0.00477723
     atom   31 type  2   force =    -0.00019131   -0.00011046    0.00551392
     atom   32 type  2   force =     0.00019105    0.00011030    0.00551288
     atom   33 type  1   force =    -0.00001230   -0.00000710   -0.00478191
     atom   34 type  1   force =     0.00001293    0.00000746   -0.00478300
     atom   35 type  2   force =    -0.00019101   -0.00011028    0.00551308
     atom   36 type  2   force =     0.00019056    0.00011002    0.00551263
     The ionic contribution  to forces
     atom    1 type  1   force =     0.00000001    0.00000001    0.06271681
     atom    2 type  1   force =     0.00000001    0.00000000    0.06271685
     atom    3 type  2   force =     0.00000000    0.00000000   -0.06271682
     atom    4 type  2   force =     0.00000000    0.00000000   -0.06271683
     atom    5 type  1   force =     0.00000001    0.00000001    0.06271685
     atom    6 type  1   force =     0.00000001    0.00000000    0.06271681
     atom    7 type  2   force =     0.00000000    0.00000000   -0.06271683
     atom    8 type  2   force =     0.00000000    0.00000000   -0.06271681
     atom    9 type  1   force =     0.00000001    0.00000001    0.06271681
     atom   10 type  1   force =     0.00000001    0.00000000    0.06271681
     atom   11 type  2   force =     0.00000000    0.00000000   -0.06271681
     atom   12 type  2   force =     0.00000000    0.00000000   -0.06271682
     atom   13 type  1   force =    -0.00000001    0.00000000    0.06271681
     atom   14 type  1   force =     0.00000001   -0.00000000    0.06271684
     atom   15 type  2   force =    -0.00000001    0.00000000   -0.06271682
     atom   16 type  2   force =     0.00000001   -0.00000000   -0.06271683
     atom   17 type  1   force =    -0.00000001    0.00000000    0.06271684
     atom   18 type  1   force =     0.00000001   -0.00000000    0.06271680
     atom   19 type  2   force =    -0.00000001    0.00000000   -0.06271683
     atom   20 type  2   force =     0.00000001   -0.00000000   -0.06271681
     atom   21 type  1   force =    -0.00000001    0.00000000    0.06271680
     atom   22 type  1   force =     0.00000001   -0.00000000    0.06271681
     atom   23 type  2   force =    -0.00000001    0.00000000   -0.06271681
     atom   24 type  2   force =     0.00000001   -0.00000000   -0.06271682
     atom   25 type  1   force =    -0.00000001   -0.00000000    0.06271681
     atom   26 type  1   force =    -0.00000001   -0.00000001    0.06271685
     atom   27 type  2   force =    -0.00000000   -0.00000000   -0.06271682
     atom   28 type  2   force =    -0.00000000   -0.00000000   -0.06271683
     atom   29 type  1   force =    -0.00000001   -0.00000000    0.06271685
     atom   30 type  1   force =    -0.00000001   -0.00000001    0.06271681
     atom   31 type  2   force =    -0.00000000   -0.00000000   -0.06271683
     atom   32 type  2   force =    -0.00000000   -0.00000000   -0.06271681
     atom   33 type  1   force =    -0.00000001   -0.00000000    0.06271681
     atom   34 type  1   force =    -0.00000001   -0.00000001    0.06271681
     atom   35 type  2   force =    -0.00000000   -0.00000000   -0.06271681
     atom   36 type  2   force =    -0.00000000   -0.00000000   -0.06271682
     The local contribution  to forces
     atom    1 type  1   force =     0.00002232    0.00001289   -0.05836432
     atom    2 type  1   force =    -0.00002661   -0.00001541   -0.05834836
     atom    3 type  2   force =     0.00018403    0.00010625    0.05720554
     atom    4 type  2   force =    -0.00018606   -0.00010743    0.05720578
     atom    5 type  1   force =     0.00002311    0.00001335   -0.05834742
     atom    6 type  1   force =    -0.00002735   -0.00001584   -0.05836092
     atom    7 type  2   force =     0.00018626    0.00010754    0.05721201
     atom    8 type  2   force =    -0.00018629   -0.00010757    0.05721037
     atom    9 type  1   force =     0.00001979    0.00001142   -0.05834748
     atom   10 type  1   force =    -0.00002613   -0.00001514   -0.05834622
     atom   11 type  2   force =     0.00018381    0.00010612    0.05721043
     atom   12 type  2   force =    -0.00018772   -0.00010839    0.05721059
     atom   13 type  1   force =     0.00002236    0.00001301   -0.05836065
     atom   14 type  1   force =    -0.00002232   -0.00001299   -0.05834828
     atom   15 type  2   force =     0.00018581    0.00010731    0.05720457
     atom   16 type  2   force =    -0.00018696   -0.00010797    0.05720661
     atom   17 type  1   force =     0.00002510    0.00001459   -0.05834359
     atom   18 type  1   force =    -0.00002293   -0.00001333   -0.05836175
     atom   19 type  2   force =     0.00018631    0.00010759    0.05721179
     atom   20 type  2   force =    -0.00018640   -0.00010765    0.05721117
     atom   21 type  1   force =     0.00002918    0.00001695   -0.05834915
     atom   22 type  1   force =    -0.00001962   -0.00001142   -0.05834946
     atom   23 type  2   force =     0.00018657    0.00010774    0.05721029
     atom   24 type  2   force =    -0.00018524   -0.00010697    0.05720919
     atom   25 type  1   force =     0.00002776    0.00001608   -0.05836228
     atom   26 type  1   force =    -0.00002306   -0.00001331   -0.05835390
     atom   27 type  2   force =     0.00018581    0.00010729    0.05720718
     atom   28 type  2   force =    -0.00018394   -0.00010620    0.05720598
     atom   29 type  1   force =     0.00002360    0.00001368   -0.05834726
     atom   30 type  1   force =    -0.00002233   -0.00001289   -0.05836076
     atom   31 type  2   force =     0.00018413    0.00010632    0.05721096
     atom   32 type  2   force =    -0.00018449   -0.00010652    0.05721165
     atom   33 type  1   force =     0.00002375    0.00001376   -0.05834820
     atom   34 type  1   force =    -0.00002649   -0.00001529   -0.05834603
     atom   35 type  2   force =     0.00018666    0.00010778    0.05720916
     atom   36 type  2   force =    -0.00018582   -0.00010728    0.05720999
     The core correction contribution to forces
     atom    1 type  1   force =    -0.00000566   -0.00000327    0.00047035
     atom    2 type  1   force =     0.00000575    0.00000332    0.00047000
     atom    3 type  2   force =     0.00000215    0.00000124   -0.00006220
     atom    4 type  2   force =    -0.00000217   -0.00000125   -0.00006223
     atom    5 type  1   force =    -0.00000566   -0.00000327    0.00047007
     atom    6 type  1   force =     0.00000575    0.00000332    0.00047012
     atom    7 type  2   force =     0.00000216    0.00000125   -0.00006223
     atom    8 type  2   force =    -0.00000215   -0.00000124   -0.00006225
     atom    9 type  1   force =    -0.00000563   -0.00000325    0.00047012
     atom   10 type  1   force =     0.00000573    0.00000330    0.00047012
     atom   11 type  2   force =     0.00000216    0.00000124   -0.00006227
     atom   12 type  2   force =    -0.00000215   -0.00000124   -0.00006225
     atom   13 type  1   force =    -0.00000561   -0.00000323    0.00047027
     atom   14 type  1   force =     0.00000569    0.00000327    0.00047008
     atom   15 type  2   force =     0.00000216    0.00000125   -0.00006221
     atom   16 type  2   force =    -0.00000217   -0.00000125   -0.00006222
     atom   17 type  1   force =    -0.00000577   -0.00000332    0.00046992
     atom   18 type  1   force =     0.00000569    0.00000327    0.00047018
     atom   19 type  2   force =     0.00000215    0.00000124   -0.00006226
     atom   20 type  2   force =    -0.00000218   -0.00000126   -0.00006226
     atom   21 type  1   force =    -0.00000581   -0.00000334    0.00047003
     atom   22 type  1   force =     0.00000562    0.00000323    0.00047029
     atom   23 type  2   force =     0.00000216    0.00000125   -0.00006225
     atom   24 type  2   force =    -0.00000219   -0.00000126   -0.00006223
     atom   25 type  1   force =    -0.00000584   -0.00000336    0.00047016
     atom   26 type  1   force =     0.00000568    0.00000328    0.00047019
     atom   27 type  2   force =     0.00000216    0.00000125   -0.00006221
     atom   28 type  2   force =    -0.00000216   -0.00000124   -0.00006223
     atom   29 type  1   force =    -0.00000571   -0.00000329    0.00047003
     atom   30 type  1   force =     0.00000567    0.00000327    0.00047016
     atom   31 type  2   force =     0.00000217    0.00000125   -0.00006226
     atom   32 type  2   force =    -0.00000217   -0.00000125   -0.00006224
     atom   33 type  1   force =    -0.00000566   -0.00000326    0.00047009
     atom   34 type  1   force =     0.00000577    0.00000333    0.00047016
     atom   35 type  2   force =     0.00000217    0.00000125   -0.00006225
     atom   36 type  2   force =    -0.00000216   -0.00000125   -0.00006224
     The Hubbard contrib.    to forces
     atom    1 type  1   force =     0.00000000    0.00000000    0.00000000
     atom    2 type  1   force =     0.00000000    0.00000000    0.00000000
     atom    3 type  2   force =     0.00000000    0.00000000    0.00000000
     atom    4 type  2   force =     0.00000000    0.00000000    0.00000000
     atom    5 type  1   force =     0.00000000    0.00000000    0.00000000
     atom    6 type  1   force =     0.00000000    0.00000000    0.00000000
     atom    7 type  2   force =     0.00000000    0.00000000    0.00000000
     atom    8 type  2   force =     0.00000000    0.00000000    0.00000000
     atom    9 type  1   force =     0.00000000    0.00000000    0.00000000
     atom   10 type  1   force =     0.00000000    0.00000000    0.00000000
     atom   11 type  2   force =     0.00000000    0.00000000    0.00000000
     atom   12 type  2   force =     0.00000000    0.00000000    0.00000000
     atom   13 type  1   force =     0.00000000    0.00000000    0.00000000
     atom   14 type  1   force =     0.00000000    0.00000000    0.00000000
     atom   15 type  2   force =     0.00000000    0.00000000    0.00000000
     atom   16 type  2   force =     0.00000000    0.00000000    0.00000000
     atom   17 type  1   force =     0.00000000    0.00000000    0.00000000
     atom   18 type  1   force =     0.00000000    0.00000000    0.00000000
     atom   19 type  2   force =     0.00000000    0.00000000    0.00000000
     atom   20 type  2   force =     0.00000000    0.00000000    0.00000000
     atom   21 type  1   force =     0.00000000    0.00000000    0.00000000
     atom   22 type  1   force =     0.00000000    0.00000000    0.00000000
     atom   23 type  2   force =     0.00000000    0.00000000    0.00000000
     atom   24 type  2   force =     0.00000000    0.00000000    0.00000000
     atom   25 type  1   force =     0.00000000    0.00000000    0.00000000
     atom   26 type  1   force =     0.00000000    0.00000000    0.00000000
     atom   27 type  2   force =     0.00000000    0.00000000    0.00000000
     atom   28 type  2   force =     0.00000000    0.00000000    0.00000000
     atom   29 type  1   force =     0.00000000    0.00000000    0.00000000
     atom   30 type  1   force =     0.00000000    0.00000000    0.00000000
     atom   31 type  2   force =     0.00000000    0.00000000    0.00000000
     atom   32 type  2   force =     0.00000000    0.00000000    0.00000000
     atom   33 type  1   force =     0.00000000    0.00000000    0.00000000
     atom   34 type  1   force =     0.00000000    0.00000000    0.00000000
     atom   35 type  2   force =     0.00000000    0.00000000    0.00000000
     atom   36 type  2   force =     0.00000000    0.00000000    0.00000000
     The SCF correction term to forces
     atom    1 type  1   force =     0.00000274    0.00000158    0.00001608
     atom    2 type  1   force =     0.00000318    0.00000183   -0.00000410
     atom    3 type  2   force =     0.00000137    0.00000079    0.00000787
     atom    4 type  2   force =     0.00000037    0.00000021    0.00000795
     atom    5 type  1   force =     0.00000086    0.00000049   -0.00001104
     atom    6 type  1   force =     0.00000303    0.00000175    0.00000883
     atom    7 type  2   force =    -0.00000041   -0.00000024   -0.00000439
     atom    8 type  2   force =     0.00000070    0.00000041   -0.00000245
     atom    9 type  1   force =     0.00000498    0.00000288   -0.00001069
     atom   10 type  1   force =     0.00000207    0.00000119   -0.00001399
     atom   11 type  2   force =     0.00000224    0.00000130   -0.00000036
     atom   12 type  2   force =     0.00000223    0.00000129   -0.00000326
     atom   13 type  1   force =     0.00000178    0.00000103    0.00001190
     atom   14 type  1   force =    -0.00000275   -0.00000159   -0.00000364
     atom   15 type  2   force =     0.00000004    0.00000002    0.00000856
     atom   16 type  2   force =     0.00000037    0.00000021    0.00000791
     atom   17 type  1   force =    -0.00000042   -0.00000024   -0.00001570
     atom   18 type  1   force =    -0.00000151   -0.00000087    0.00000943
     atom   19 type  2   force =    -0.00000107   -0.00000062   -0.00000575
     atom   20 type  2   force =    -0.00000013   -0.00000007   -0.00000393
     atom   21 type  1   force =    -0.00000547   -0.00000316   -0.00000822
     atom   22 type  1   force =    -0.00000521   -0.00000301   -0.00001087
     atom   23 type  2   force =    -0.00000114   -0.00000066    0.00000001
     atom   24 type  2   force =    -0.00000221   -0.00000127   -0.00000073
     atom   25 type  1   force =    -0.00000361   -0.00000209    0.00001413
     atom   26 type  1   force =    -0.00000120   -0.00000069    0.00000212
     atom   27 type  2   force =     0.00000011    0.00000006    0.00000624
     atom   28 type  2   force =    -0.00000153   -0.00000089    0.00000794
     atom   29 type  1   force =     0.00000092    0.00000053   -0.00001237
     atom   30 type  1   force =    -0.00000261   -0.00000150    0.00000856
     atom   31 type  2   force =     0.00000236    0.00000136   -0.00000514
     atom   32 type  2   force =    -0.00000112   -0.00000065   -0.00000335
     atom   33 type  1   force =     0.00000090    0.00000052   -0.00001019
     atom   34 type  1   force =     0.00000202    0.00000117   -0.00001377
     atom   35 type  2   force =    -0.00000026   -0.00000015    0.00000147
     atom   36 type  2   force =    -0.00000020   -0.00000012   -0.00000219

     Total force =     0.000328     Total SCF correction =     0.000054
     SCF correction compared to forces is large: reduce conv_thr to get better values

     General routines

     Parallel routines

   This run was terminated on:   9:49:50   1Sep2025

   JOB DONE.
Note: The following floating-point exceptions are signalling: IEEE_DENORMAL
Note: The following floating-point exceptions are signalling: IEEE_DENORMAL
Note: The following floating-point exceptions are signalling: IEEE_DENORMAL
Note: The following floating-point exceptions are signalling: IEEE_INVALID_FLAG
Note: The following floating-point exceptions are signalling: IEEE_INVALID_FLAG
Note: The following floating-point exceptions are signalling: IEEE_INVALID_FLAG
Note: The following floating-point exceptions are signalling: IEEE_INVALID_FLAG
Note: The following floating-point exceptions are signalling: IEEE_DENORMAL