     Program PWSCF v.7.2 starts on 31Aug2025 at 23:46:27

     Reading input from /home/jvc/QEspresso7.2/ZnO_database/scripts/cell313.in/ZnO-3.20-1.65-313.in
Warning: card &CELL ignored
Warning: card / ignored
Warning: card &FCP ignored
Warning: card / ignored
Warning: card &RISM ignored
Warning: card / ignored

     Current dimensions of program PWSCF are:
     Max number of different atomic species (ntypx) = 10
     Max number of k-points (npk) =  40000
     Max angular momentum in pseudopotentials (lmaxx) =  4
     file Zn.upf: wavefunction(s)  3D renormalized
     Found identity + (  0.0000  0.0000  0.3333) symmetry
     This is a supercell, fractional translations are disabled
     Message from routine setup:
     using ibrav=0 with symmetry is DISCOURAGED, use correct ibrav instead

     K-points division:     npool     =       4
     R & G space division:  proc/nbgrp/npool/nimage =       8
     Subspace diagonalization in iterative solution of the eigenvalue problem:
     one sub-group per band group will be used

     Using Slab Decomposition

     bravais-lattice index     =            0
     lattice parameter (alat)  =      18.1658  a.u.
     unit-cell volume          =    2849.5434 (a.u.)^3
     number of atoms/cell      =           36
     number of atomic types    =            2
     number of electrons       =       324.00
     number of Kohn-Sham states=          162
     kinetic-energy cutoff     =      50.0000  Ry
     charge density cutoff     =     400.0000  Ry
     scf convergence threshold =      1.0E-08
     mixing beta               =       0.3000
     number of iterations used =            8  plain     mixing
     Exchange-correlation= PBE
                           (   1   4   3   4   0   0   0)

     celldm(1)=  18.165831  celldm(2)=   0.000000  celldm(3)=   0.000000
     celldm(4)=   0.000000  celldm(5)=   0.000000  celldm(6)=   0.000000

     crystal axes: (cart. coord. in units of alat)
               a(1) = (   1.000000   0.000000   0.000000 )
               a(2) = (  -0.166667   0.288675   0.000000 )
               a(3) = (   0.000000   0.000000   1.646646 )

     reciprocal axes: (cart. coord. in units 2 pi/alat)
               b(1) = (  1.000000  0.577350 -0.000000 )
               b(2) = (  0.000000  3.464102  0.000000 )
               b(3) = (  0.000000 -0.000000  0.607295 )

     PseudoPot. # 1 for Zn read from file:
     /home/jvc/QEspresso7.2/ZnO_database/pseudos/Zn.upf
     MD5 check sum: 7f56cabf9682ed8c977c2f7d0c5985c5
     Pseudo is Ultrasoft + core correction, Zval = 12.0
     Generated using &quot;atomic&quot; code by A. Dal Corso  v.6.2.2
     Using radial grid of 1201 points,  6 beta functions with:
                l(1) =   0
                l(2) =   0
                l(3) =   1
                l(4) =   1
                l(5) =   2
                l(6) =   2
     Q(r) pseudized with 0 coefficients

     PseudoPot. # 2 for O  read from file:
     /home/jvc/QEspresso7.2/ZnO_database/pseudos/O.upf
     MD5 check sum: 91400c9766925bcf19f520983a725ff0
     Pseudo is Ultrasoft + core correction, Zval =  6.0
     Generated using &quot;atomic&quot; code by A. Dal Corso  v.6.3MaX
     Using radial grid of 1095 points,  4 beta functions with:
                l(1) =   0
                l(2) =   0
                l(3) =   1
                l(4) =   1
     Q(r) pseudized with 0 coefficients

     atomic species   valence    mass     pseudopotential
        Zn            12.00    65.38000     Zn( 1.00)
        O              6.00    15.99900     O ( 1.00)

      2 Sym. Ops. (no inversion) found

                                    s                        frac. trans.

      isym =  1     identity

 cryst.   s( 1) = (     1          0          0      )
                  (     0          1          0      )
                  (     0          0          1      )

 cart.    s( 1) = (  1.0000000 -0.0000000  0.0000000 )
                  (  0.0000000  1.0000000  0.0000000 )
                  (  0.0000000  0.0000000  1.0000000 )

      isym =  2     inv. 180 deg rotation - cryst. axis [0,1,0]

 cryst.   s( 2) = (     1          3          0      )
                  (     0         -1          0      )
                  (     0          0          1      )

 cart.    s( 2) = (  0.5000000  0.8660254  0.0000000 )
                  (  0.8660254 -0.5000000  0.0000000 )
                  (  0.0000000  0.0000000  1.0000000 )

   Cartesian axes

     site n.     atom                  positions (alat units)
         1           Zn  tau(   1) = (   0.1666667   0.0962250   0.2747887  )
         2           Zn  tau(   2) = (  -0.0000000   0.1924501   0.0003478  )
         3           O   tau(   3) = (   0.1666667   0.0962250   0.4828384  )
         4           O   tau(   4) = (  -0.0000000   0.1924501   0.2083975  )
         5           Zn  tau(   5) = (   0.1666667   0.0962250   0.8236705  )
         6           Zn  tau(   6) = (  -0.0000000   0.1924501   0.5492296  )
         7           O   tau(   7) = (   0.1666667   0.0962250   1.0317203  )
         8           O   tau(   8) = (  -0.0000000   0.1924501   0.7572793  )
         9           Zn  tau(   9) = (   0.1666667   0.0962250   1.3725524  )
        10           Zn  tau(  10) = (  -0.0000000   0.1924501   1.0981114  )
        11           O   tau(  11) = (   0.1666667   0.0962250   1.5806021  )
        12           O   tau(  12) = (  -0.0000000   0.1924501   1.3061612  )
        13           Zn  tau(  13) = (   0.5000000   0.0962250   0.2747887  )
        14           Zn  tau(  14) = (   0.3333333   0.1924501   0.0003478  )
        15           O   tau(  15) = (   0.5000000   0.0962250   0.4828384  )
        16           O   tau(  16) = (   0.3333333   0.1924501   0.2083975  )
        17           Zn  tau(  17) = (   0.5000000   0.0962250   0.8236705  )
        18           Zn  tau(  18) = (   0.3333333   0.1924501   0.5492296  )
        19           O   tau(  19) = (   0.5000000   0.0962250   1.0317203  )
        20           O   tau(  20) = (   0.3333333   0.1924501   0.7572793  )
        21           Zn  tau(  21) = (   0.5000000   0.0962250   1.3725524  )
        22           Zn  tau(  22) = (   0.3333333   0.1924501   1.0981114  )
        23           O   tau(  23) = (   0.5000000   0.0962250   1.5806021  )
        24           O   tau(  24) = (   0.3333333   0.1924501   1.3061612  )
        25           Zn  tau(  25) = (   0.8333333   0.0962250   0.2747887  )
        26           Zn  tau(  26) = (   0.6666667   0.1924501   0.0003478  )
        27           O   tau(  27) = (   0.8333333   0.0962250   0.4828384  )
        28           O   tau(  28) = (   0.6666667   0.1924501   0.2083975  )
        29           Zn  tau(  29) = (   0.8333333   0.0962250   0.8236705  )
        30           Zn  tau(  30) = (   0.6666667   0.1924501   0.5492296  )
        31           O   tau(  31) = (   0.8333333   0.0962250   1.0317203  )
        32           O   tau(  32) = (   0.6666667   0.1924501   0.7572793  )
        33           Zn  tau(  33) = (   0.8333333   0.0962250   1.3725524  )
        34           Zn  tau(  34) = (   0.6666667   0.1924501   1.0981114  )
        35           O   tau(  35) = (   0.8333333   0.0962250   1.5806021  )
        36           O   tau(  36) = (   0.6666667   0.1924501   1.3061612  )

   Crystallographic axes

     site n.     atom                  positions (cryst. coord.)
         1           Zn  tau(   1) = (  0.2222222  0.3333333  0.1668779  )
         2           Zn  tau(   2) = (  0.1111111  0.6666667  0.0002112  )
         3           O   tau(   3) = (  0.2222222  0.3333333  0.2932255  )
         4           O   tau(   4) = (  0.1111111  0.6666667  0.1265588  )
         5           Zn  tau(   5) = (  0.2222222  0.3333333  0.5002112  )
         6           Zn  tau(   6) = (  0.1111111  0.6666667  0.3335445  )
         7           O   tau(   7) = (  0.2222222  0.3333333  0.6265588  )
         8           O   tau(   8) = (  0.1111111  0.6666667  0.4598921  )
         9           Zn  tau(   9) = (  0.2222222  0.3333333  0.8335445  )
        10           Zn  tau(  10) = (  0.1111111  0.6666667  0.6668779  )
        11           O   tau(  11) = (  0.2222222  0.3333333  0.9598921  )
        12           O   tau(  12) = (  0.1111111  0.6666667  0.7932255  )
        13           Zn  tau(  13) = (  0.5555556  0.3333333  0.1668779  )
        14           Zn  tau(  14) = (  0.4444444  0.6666667  0.0002112  )
        15           O   tau(  15) = (  0.5555556  0.3333333  0.2932255  )
        16           O   tau(  16) = (  0.4444444  0.6666667  0.1265588  )
        17           Zn  tau(  17) = (  0.5555556  0.3333333  0.5002112  )
        18           Zn  tau(  18) = (  0.4444444  0.6666667  0.3335445  )
        19           O   tau(  19) = (  0.5555556  0.3333333  0.6265588  )
        20           O   tau(  20) = (  0.4444444  0.6666667  0.4598921  )
        21           Zn  tau(  21) = (  0.5555556  0.3333333  0.8335445  )
        22           Zn  tau(  22) = (  0.4444444  0.6666667  0.6668779  )
        23           O   tau(  23) = (  0.5555556  0.3333333  0.9598921  )
        24           O   tau(  24) = (  0.4444444  0.6666667  0.7932255  )
        25           Zn  tau(  25) = (  0.8888889  0.3333333  0.1668779  )
        26           Zn  tau(  26) = (  0.7777778  0.6666667  0.0002112  )
        27           O   tau(  27) = (  0.8888889  0.3333333  0.2932255  )
        28           O   tau(  28) = (  0.7777778  0.6666667  0.1265588  )
        29           Zn  tau(  29) = (  0.8888889  0.3333333  0.5002112  )
        30           Zn  tau(  30) = (  0.7777778  0.6666667  0.3335445  )
        31           O   tau(  31) = (  0.8888889  0.3333333  0.6265588  )
        32           O   tau(  32) = (  0.7777778  0.6666667  0.4598921  )
        33           Zn  tau(  33) = (  0.8888889  0.3333333  0.8335445  )
        34           Zn  tau(  34) = (  0.7777778  0.6666667  0.6668779  )
        35           O   tau(  35) = (  0.8888889  0.3333333  0.9598921  )
        36           O   tau(  36) = (  0.7777778  0.6666667  0.7932255  )

     number of k points=    68
                       cart. coord. in units 2pi/alat
        k(    1) = (   0.0000000   0.0000000   0.0000000), wk =   0.0092593
        k(    2) = (   0.0000000   0.0000000   0.1012159), wk =   0.0185185
        k(    3) = (   0.0000000   0.0000000   0.2024317), wk =   0.0185185
        k(    4) = (   0.0000000   0.0000000  -0.3036476), wk =   0.0092593
        k(    5) = (   0.0000000   0.5773503   0.0000000), wk =   0.0370370
        k(    6) = (   0.0000000   0.5773503   0.1012159), wk =   0.0370370
        k(    7) = (   0.0000000   0.5773503   0.2024317), wk =   0.0370370
        k(    8) = (   0.0000000   0.5773503  -0.3036476), wk =   0.0370370
        k(    9) = (   0.0000000   1.1547005   0.0000000), wk =   0.0185185
        k(   10) = (   0.0000000   1.1547005   0.1012159), wk =   0.0370370
        k(   11) = (   0.0000000   1.1547005   0.2024317), wk =   0.0370370
        k(   12) = (   0.0000000   1.1547005  -0.3036476), wk =   0.0185185
        k(   13) = (   0.0000000  -1.7320508   0.0000000), wk =   0.0185185
[...]
     atom   10 type  1   force =     0.00001589    0.00000917    0.05222535
     atom   11 type  2   force =    -0.00018831   -0.00010872    0.05258898
     atom   12 type  2   force =     0.00018951    0.00010941    0.05258719
     atom   13 type  1   force =    -0.00001954   -0.00001128    0.05222448
     atom   14 type  1   force =     0.00001342    0.00000775    0.05222618
     atom   15 type  2   force =    -0.00018989   -0.00010963    0.05259192
     atom   16 type  2   force =     0.00018917    0.00010922    0.05258936
     atom   17 type  1   force =    -0.00001652   -0.00000954    0.05222422
     atom   18 type  1   force =     0.00001568    0.00000905    0.05222254
     atom   19 type  2   force =    -0.00018980   -0.00010958    0.05258715
     atom   20 type  2   force =     0.00018943    0.00010937    0.05258930
     atom   21 type  1   force =    -0.00001729   -0.00000998    0.05222310
     atom   22 type  1   force =     0.00001667    0.00000963    0.05222463
     atom   23 type  2   force =    -0.00018836   -0.00010875    0.05258889
     atom   24 type  2   force =     0.00018970    0.00010952    0.05258704
     atom   25 type  1   force =    -0.00001515   -0.00000875    0.05222366
     atom   26 type  1   force =     0.00002004    0.00001157    0.05222509
     atom   27 type  2   force =    -0.00018994   -0.00010966    0.05259152
     atom   28 type  2   force =     0.00018879    0.00010900    0.05259074
     atom   29 type  1   force =    -0.00001623   -0.00000937    0.05222453
     atom   30 type  1   force =     0.00001769    0.00001021    0.05222369
     atom   31 type  2   force =    -0.00018973   -0.00010954    0.05258703
     atom   32 type  2   force =     0.00018898    0.00010911    0.05258935
     atom   33 type  1   force =    -0.00001490   -0.00000860    0.05222313
     atom   34 type  1   force =     0.00001754    0.00001013    0.05222559
     atom   35 type  2   force =    -0.00018873   -0.00010896    0.05258794
     atom   36 type  2   force =     0.00018796    0.00010852    0.05258801
     The ionic contribution  to forces
     atom    1 type  1   force =     0.00000001    0.00000001    0.48421522
     atom    2 type  1   force =     0.00000001    0.00000000    0.48421526
     atom    3 type  2   force =     0.00000000    0.00000000   -0.48421524
     atom    4 type  2   force =     0.00000000    0.00000000   -0.48421524
     atom    5 type  1   force =     0.00000001    0.00000001    0.48421526
     atom    6 type  1   force =     0.00000001    0.00000000    0.48421522
     atom    7 type  2   force =     0.00000000    0.00000000   -0.48421525
     atom    8 type  2   force =     0.00000000    0.00000000   -0.48421522
     atom    9 type  1   force =     0.00000001    0.00000001    0.48421522
     atom   10 type  1   force =     0.00000001    0.00000000    0.48421522
     atom   11 type  2   force =     0.00000000    0.00000000   -0.48421522
     atom   12 type  2   force =     0.00000000    0.00000000   -0.48421524
     atom   13 type  1   force =    -0.00000001    0.00000000    0.48421522
     atom   14 type  1   force =     0.00000001   -0.00000000    0.48421526
     atom   15 type  2   force =    -0.00000001    0.00000000   -0.48421523
     atom   16 type  2   force =     0.00000001   -0.00000000   -0.48421524
     atom   17 type  1   force =    -0.00000001    0.00000000    0.48421526
     atom   18 type  1   force =     0.00000001   -0.00000000    0.48421522
     atom   19 type  2   force =    -0.00000001    0.00000000   -0.48421524
     atom   20 type  2   force =     0.00000001   -0.00000000   -0.48421522
     atom   21 type  1   force =    -0.00000001    0.00000000    0.48421522
     atom   22 type  1   force =     0.00000001   -0.00000000    0.48421522
     atom   23 type  2   force =    -0.00000001    0.00000000   -0.48421522
     atom   24 type  2   force =     0.00000001   -0.00000000   -0.48421523
     atom   25 type  1   force =    -0.00000001   -0.00000000    0.48421522
     atom   26 type  1   force =    -0.00000001   -0.00000001    0.48421526
     atom   27 type  2   force =    -0.00000000   -0.00000000   -0.48421524
     atom   28 type  2   force =    -0.00000000   -0.00000000   -0.48421525
     atom   29 type  1   force =    -0.00000001   -0.00000000    0.48421526
     atom   30 type  1   force =    -0.00000001   -0.00000001    0.48421522
     atom   31 type  2   force =    -0.00000000   -0.00000000   -0.48421524
     atom   32 type  2   force =    -0.00000000   -0.00000000   -0.48421522
     atom   33 type  1   force =    -0.00000001   -0.00000000    0.48421522
     atom   34 type  1   force =    -0.00000001   -0.00000001    0.48421522
     atom   35 type  2   force =    -0.00000000   -0.00000000   -0.48421522
     atom   36 type  2   force =    -0.00000000   -0.00000000   -0.48421524
     The local contribution  to forces
     atom    1 type  1   force =     0.00002987    0.00001725   -0.52527807
     atom    2 type  1   force =    -0.00003629   -0.00002100   -0.52528140
     atom    3 type  2   force =     0.00018441    0.00010647    0.42467482
     atom    4 type  2   force =    -0.00019007   -0.00010975    0.42467454
     atom    5 type  1   force =     0.00002936    0.00001695   -0.52528026
     atom    6 type  1   force =    -0.00003284   -0.00001901   -0.52527611
     atom    7 type  2   force =     0.00018688    0.00010789    0.42467864
     atom    8 type  2   force =    -0.00018556   -0.00010715    0.42467529
     atom    9 type  1   force =     0.00003631    0.00002097   -0.52528487
     atom   10 type  1   force =    -0.00002862   -0.00001657   -0.52528155
     atom   11 type  2   force =     0.00018775    0.00010840    0.42467504
     atom   12 type  2   force =    -0.00018476   -0.00010668    0.42467853
     atom   13 type  1   force =     0.00004039    0.00002342   -0.52528179
     atom   14 type  1   force =    -0.00001608   -0.00000938   -0.52528881
     atom   15 type  2   force =     0.00018933    0.00010933    0.42467360
     atom   16 type  2   force =    -0.00018067   -0.00010434    0.42467306
     atom   17 type  1   force =     0.00003033    0.00001761   -0.52527680
     atom   18 type  1   force =    -0.00002490   -0.00001447   -0.52528155
     atom   19 type  2   force =     0.00018485    0.00010675    0.42468001
     atom   20 type  2   force =    -0.00018626   -0.00010756    0.42467696
     atom   21 type  1   force =     0.00002929    0.00001700   -0.52527253
     atom   22 type  1   force =    -0.00002853   -0.00001657   -0.52527886
     atom   23 type  2   force =     0.00018818    0.00010867    0.42467482
     atom   24 type  2   force =    -0.00018544   -0.00010709    0.42467810
     atom   25 type  1   force =     0.00002269    0.00001315   -0.52528174
     atom   26 type  1   force =    -0.00004092   -0.00002362   -0.52528333
     atom   27 type  2   force =     0.00018418    0.00010635    0.42467238
     atom   28 type  2   force =    -0.00018736   -0.00010817    0.42467427
     atom   29 type  1   force =     0.00003273    0.00001895   -0.52528152
     atom   30 type  1   force =    -0.00003351   -0.00001935   -0.52528416
     atom   31 type  2   force =     0.00018553    0.00010713    0.42467887
     atom   32 type  2   force =    -0.00018571   -0.00010722    0.42467475
     atom   33 type  1   force =     0.00002650    0.00001535   -0.52527404
     atom   34 type  1   force =    -0.00003475   -0.00002007   -0.52528313
     atom   35 type  2   force =     0.00018125    0.00010466    0.42467824
     atom   36 type  2   force =    -0.00018738   -0.00010819    0.42468151
     The core correction contribution to forces
     atom    1 type  1   force =    -0.00000608   -0.00000351   -0.00379195
     atom    2 type  1   force =     0.00000618    0.00000356   -0.00379194
     atom    3 type  2   force =     0.00000214    0.00000124   -0.00042073
     atom    4 type  2   force =    -0.00000217   -0.00000125   -0.00042071
     atom    5 type  1   force =    -0.00000596   -0.00000344   -0.00379195
     atom    6 type  1   force =     0.00000615    0.00000354   -0.00379205
     atom    7 type  2   force =     0.00000215    0.00000124   -0.00042066
     atom    8 type  2   force =    -0.00000217   -0.00000125   -0.00042072
     atom    9 type  1   force =    -0.00000614   -0.00000354   -0.00379184
     atom   10 type  1   force =     0.00000605    0.00000349   -0.00379195
     atom   11 type  2   force =     0.00000215    0.00000124   -0.00042069
     atom   12 type  2   force =    -0.00000217   -0.00000125   -0.00042066
     atom   13 type  1   force =    -0.00000613   -0.00000353   -0.00379205
     atom   14 type  1   force =     0.00000585    0.00000337   -0.00379186
     atom   15 type  2   force =     0.00000218    0.00000126   -0.00042074
     atom   16 type  2   force =    -0.00000216   -0.00000125   -0.00042070
     atom   17 type  1   force =    -0.00000606   -0.00000349   -0.00379208
     atom   18 type  1   force =     0.00000597    0.00000343   -0.00379189
     atom   19 type  2   force =     0.00000217    0.00000125   -0.00042066
     atom   20 type  2   force =    -0.00000217   -0.00000125   -0.00042069
     atom   21 type  1   force =    -0.00000594   -0.00000342   -0.00379205
     atom   22 type  1   force =     0.00000601    0.00000346   -0.00379196
     atom   23 type  2   force =     0.00000216    0.00000124   -0.00042069
     atom   24 type  2   force =    -0.00000217   -0.00000125   -0.00042067
     atom   25 type  1   force =    -0.00000594   -0.00000342   -0.00379198
     atom   26 type  1   force =     0.00000609    0.00000352   -0.00379198
     atom   27 type  2   force =     0.00000217    0.00000125   -0.00042073
     atom   28 type  2   force =    -0.00000216   -0.00000124   -0.00042072
     atom   29 type  1   force =    -0.00000615   -0.00000355   -0.00379198
     atom   30 type  1   force =     0.00000610    0.00000352   -0.00379187
     atom   31 type  2   force =     0.00000217    0.00000125   -0.00042066
     atom   32 type  2   force =    -0.00000216   -0.00000125   -0.00042070
     atom   33 type  1   force =    -0.00000609   -0.00000351   -0.00379202
     atom   34 type  1   force =     0.00000614    0.00000354   -0.00379190
     atom   35 type  2   force =     0.00000215    0.00000124   -0.00042067
     atom   36 type  2   force =    -0.00000214   -0.00000124   -0.00042067
     The Hubbard contrib.    to forces
     atom    1 type  1   force =     0.00000000    0.00000000    0.00000000
     atom    2 type  1   force =     0.00000000    0.00000000    0.00000000
     atom    3 type  2   force =     0.00000000    0.00000000    0.00000000
     atom    4 type  2   force =     0.00000000    0.00000000    0.00000000
     atom    5 type  1   force =     0.00000000    0.00000000    0.00000000
     atom    6 type  1   force =     0.00000000    0.00000000    0.00000000
     atom    7 type  2   force =     0.00000000    0.00000000    0.00000000
     atom    8 type  2   force =     0.00000000    0.00000000    0.00000000
     atom    9 type  1   force =     0.00000000    0.00000000    0.00000000
     atom   10 type  1   force =     0.00000000    0.00000000    0.00000000
     atom   11 type  2   force =     0.00000000    0.00000000    0.00000000
     atom   12 type  2   force =     0.00000000    0.00000000    0.00000000
     atom   13 type  1   force =     0.00000000    0.00000000    0.00000000
     atom   14 type  1   force =     0.00000000    0.00000000    0.00000000
     atom   15 type  2   force =     0.00000000    0.00000000    0.00000000
     atom   16 type  2   force =     0.00000000    0.00000000    0.00000000
     atom   17 type  1   force =     0.00000000    0.00000000    0.00000000
     atom   18 type  1   force =     0.00000000    0.00000000    0.00000000
     atom   19 type  2   force =     0.00000000    0.00000000    0.00000000
     atom   20 type  2   force =     0.00000000    0.00000000    0.00000000
     atom   21 type  1   force =     0.00000000    0.00000000    0.00000000
     atom   22 type  1   force =     0.00000000    0.00000000    0.00000000
     atom   23 type  2   force =     0.00000000    0.00000000    0.00000000
     atom   24 type  2   force =     0.00000000    0.00000000    0.00000000
     atom   25 type  1   force =     0.00000000    0.00000000    0.00000000
     atom   26 type  1   force =     0.00000000    0.00000000    0.00000000
     atom   27 type  2   force =     0.00000000    0.00000000    0.00000000
     atom   28 type  2   force =     0.00000000    0.00000000    0.00000000
     atom   29 type  1   force =     0.00000000    0.00000000    0.00000000
     atom   30 type  1   force =     0.00000000    0.00000000    0.00000000
     atom   31 type  2   force =     0.00000000    0.00000000    0.00000000
     atom   32 type  2   force =     0.00000000    0.00000000    0.00000000
     atom   33 type  1   force =     0.00000000    0.00000000    0.00000000
     atom   34 type  1   force =     0.00000000    0.00000000    0.00000000
     atom   35 type  2   force =     0.00000000    0.00000000    0.00000000
     atom   36 type  2   force =     0.00000000    0.00000000    0.00000000
     The SCF correction term to forces
     atom    1 type  1   force =    -0.00000246   -0.00000142   -0.00001076
     atom    2 type  1   force =     0.00001212    0.00000700   -0.00000753
     atom    3 type  2   force =    -0.00000073   -0.00000042    0.00000320
     atom    4 type  2   force =     0.00000610    0.00000352    0.00000479
     atom    5 type  1   force =     0.00000089    0.00000051   -0.00000861
     atom    6 type  1   force =     0.00000639    0.00000369   -0.00001206
     atom    7 type  2   force =    -0.00000322   -0.00000186    0.00000171
     atom    8 type  2   force =     0.00000142    0.00000082    0.00000294
     atom    9 type  1   force =    -0.00001194   -0.00000689   -0.00000527
     atom   10 type  1   force =     0.00000001    0.00000001   -0.00000956
     atom   11 type  2   force =    -0.00000441   -0.00000254    0.00000516
     atom   12 type  2   force =     0.00000011    0.00000006    0.00000191
     atom   13 type  1   force =    -0.00001654   -0.00000955   -0.00000582
     atom   14 type  1   force =    -0.00001947   -0.00001124    0.00000251
     atom   15 type  2   force =    -0.00000481   -0.00000278    0.00000448
     atom   16 type  2   force =    -0.00000390   -0.00000225    0.00000758
     atom   17 type  1   force =    -0.00000207   -0.00000119   -0.00001544
     atom   18 type  1   force =    -0.00000682   -0.00000394   -0.00000386
     atom   19 type  2   force =    -0.00000036   -0.00000021    0.00000021
     atom   20 type  2   force =     0.00000170    0.00000098    0.00000243
     atom   21 type  1   force =    -0.00000029   -0.00000017   -0.00002357
     atom   22 type  1   force =    -0.00000179   -0.00000103   -0.00001326
     atom   23 type  2   force =    -0.00000489   -0.00000282    0.00000488
     atom   24 type  2   force =     0.00000072    0.00000042    0.00000142
     atom   25 type  1   force =     0.00000962    0.00000555   -0.00000545
     atom   26 type  1   force =     0.00001690    0.00000976   -0.00000505
     atom   27 type  2   force =     0.00000048    0.00000027    0.00000583
     atom   28 type  2   force =     0.00000357    0.00000206    0.00000501
     atom   29 type  1   force =    -0.00000728   -0.00000420   -0.00000644
     atom   30 type  1   force =     0.00000557    0.00000321   -0.00000131
     atom   31 type  2   force =    -0.00000108   -0.00000062    0.00000197
     atom   32 type  2   force =     0.00000148    0.00000085    0.00000460
     atom   33 type  1   force =     0.00000372    0.00000215   -0.00002047
     atom   34 type  1   force =     0.00000842    0.00000486   -0.00000682
     atom   35 type  2   force =     0.00000312    0.00000180    0.00000219
     atom   36 type  2   force =     0.00000460    0.00000266   -0.00000225

     Total force =     0.044176     Total SCF correction =     0.000069

     General routines

     Parallel routines

   This run was terminated on:   0:33:56   1Sep2025

   JOB DONE.
Note: The following floating-point exceptions are signalling: IEEE_DENORMAL
Note: The following floating-point exceptions are signalling: IEEE_DENORMAL
Note: The following floating-point exceptions are signalling: IEEE_DENORMAL
Note: The following floating-point exceptions are signalling: IEEE_INVALID_FLAG
Note: The following floating-point exceptions are signalling: IEEE_INVALID_FLAG
Note: The following floating-point exceptions are signalling: IEEE_INVALID_FLAG
Note: The following floating-point exceptions are signalling: IEEE_DENORMAL
Note: The following floating-point exceptions are signalling: IEEE_INVALID_FLAG