     Program PWSCF v.7.2 starts on  3Sep2025 at  9:24:23

     Reading input from /home/jvc/QEspresso7.2/ZnO_database/scripts/cell313.in/ZnO-3.53-1.55-313.in
Warning: card &CELL ignored
Warning: card / ignored
Warning: card &FCP ignored
Warning: card / ignored
Warning: card &RISM ignored
Warning: card / ignored

     Current dimensions of program PWSCF are:
     Max number of different atomic species (ntypx) = 10
     Max number of k-points (npk) =  40000
     Max angular momentum in pseudopotentials (lmaxx) =  4
     file Zn.upf: wavefunction(s)  3D renormalized
     Found identity + (  0.0000  0.0000  0.3333) symmetry
     This is a supercell, fractional translations are disabled
     Message from routine setup:
     using ibrav=0 with symmetry is DISCOURAGED, use correct ibrav instead

     K-points division:     npool     =      16
     R & G space division:  proc/nbgrp/npool/nimage =       2
     Subspace diagonalization in iterative solution of the eigenvalue problem:
     a serial algorithm will be used

     Using Slab Decomposition

     bravais-lattice index     =            0
     lattice parameter (alat)  =      20.0195  a.u.
     unit-cell volume          =    3589.5448 (a.u.)^3
     number of atoms/cell      =           36
     number of atomic types    =            2
     number of electrons       =       324.00
     number of Kohn-Sham states=          162
     kinetic-energy cutoff     =      50.0000  Ry
     charge density cutoff     =     400.0000  Ry
     scf convergence threshold =      1.0E-08
     mixing beta               =       0.3000
     number of iterations used =            8  plain     mixing
     Exchange-correlation= PBE
                           (   1   4   3   4   0   0   0)

     celldm(1)=  20.019487  celldm(2)=   0.000000  celldm(3)=   0.000000
     celldm(4)=   0.000000  celldm(5)=   0.000000  celldm(6)=   0.000000

     crystal axes: (cart. coord. in units of alat)
               a(1) = (   1.000000   0.000000   0.000000 )
               a(2) = (  -0.166667   0.288675   0.000000 )
               a(3) = (   0.000000   0.000000   1.549784 )

     reciprocal axes: (cart. coord. in units 2 pi/alat)
               b(1) = (  1.000000  0.577350 -0.000000 )
               b(2) = (  0.000000  3.464102  0.000000 )
               b(3) = (  0.000000 -0.000000  0.645251 )

     PseudoPot. # 1 for Zn read from file:
     /home/jvc/QEspresso7.2/ZnO_database/pseudos/Zn.upf
     MD5 check sum: 7f56cabf9682ed8c977c2f7d0c5985c5
     Pseudo is Ultrasoft + core correction, Zval = 12.0
     Generated using &quot;atomic&quot; code by A. Dal Corso  v.6.2.2
     Using radial grid of 1201 points,  6 beta functions with:
                l(1) =   0
                l(2) =   0
                l(3) =   1
                l(4) =   1
                l(5) =   2
                l(6) =   2
     Q(r) pseudized with 0 coefficients

     PseudoPot. # 2 for O  read from file:
     /home/jvc/QEspresso7.2/ZnO_database/pseudos/O.upf
     MD5 check sum: 91400c9766925bcf19f520983a725ff0
     Pseudo is Ultrasoft + core correction, Zval =  6.0
     Generated using &quot;atomic&quot; code by A. Dal Corso  v.6.3MaX
     Using radial grid of 1095 points,  4 beta functions with:
                l(1) =   0
                l(2) =   0
                l(3) =   1
                l(4) =   1
     Q(r) pseudized with 0 coefficients

     atomic species   valence    mass     pseudopotential
        Zn            12.00    65.38000     Zn( 1.00)
        O              6.00    15.99900     O ( 1.00)

      2 Sym. Ops. (no inversion) found

                                    s                        frac. trans.

      isym =  1     identity

 cryst.   s( 1) = (     1          0          0      )
                  (     0          1          0      )
                  (     0          0          1      )

 cart.    s( 1) = (  1.0000000  0.0000000  0.0000000 )
                  (  0.0000000  1.0000000  0.0000000 )
                  (  0.0000000  0.0000000  1.0000000 )

      isym =  2     inv. 180 deg rotation - cryst. axis [0,1,0]

 cryst.   s( 2) = (     1          3          0      )
                  (     0         -1          0      )
                  (     0          0          1      )

 cart.    s( 2) = (  0.5000000  0.8660254  0.0000000 )
                  (  0.8660254 -0.5000000  0.0000000 )
                  (  0.0000000  0.0000000  1.0000000 )

   Cartesian axes

     site n.     atom                  positions (alat units)
         1           Zn  tau(   1) = (   0.1666667   0.0962250   0.2586246  )
         2           Zn  tau(   2) = (  -0.0000000   0.1924501   0.0003273  )
         3           O   tau(   3) = (   0.1666667   0.0962250   0.4544362  )
         4           O   tau(   4) = (  -0.0000000   0.1924501   0.1961388  )
         5           Zn  tau(   5) = (   0.1666667   0.0962250   0.7752193  )
         6           Zn  tau(   6) = (  -0.0000000   0.1924501   0.5169220  )
         7           O   tau(   7) = (   0.1666667   0.0962250   0.9710308  )
         8           O   tau(   8) = (  -0.0000000   0.1924501   0.7127335  )
         9           Zn  tau(   9) = (   0.1666667   0.0962250   1.2918140  )
        10           Zn  tau(  10) = (  -0.0000000   0.1924501   1.0335167  )
        11           O   tau(  11) = (   0.1666667   0.0962250   1.4876255  )
        12           O   tau(  12) = (  -0.0000000   0.1924501   1.2293282  )
        13           Zn  tau(  13) = (   0.5000000   0.0962250   0.2586246  )
        14           Zn  tau(  14) = (   0.3333333   0.1924501   0.0003273  )
        15           O   tau(  15) = (   0.5000000   0.0962250   0.4544362  )
        16           O   tau(  16) = (   0.3333333   0.1924501   0.1961388  )
        17           Zn  tau(  17) = (   0.5000000   0.0962250   0.7752193  )
        18           Zn  tau(  18) = (   0.3333333   0.1924501   0.5169220  )
        19           O   tau(  19) = (   0.5000000   0.0962250   0.9710308  )
        20           O   tau(  20) = (   0.3333333   0.1924501   0.7127335  )
        21           Zn  tau(  21) = (   0.5000000   0.0962250   1.2918140  )
        22           Zn  tau(  22) = (   0.3333333   0.1924501   1.0335167  )
        23           O   tau(  23) = (   0.5000000   0.0962250   1.4876255  )
        24           O   tau(  24) = (   0.3333333   0.1924501   1.2293282  )
        25           Zn  tau(  25) = (   0.8333333   0.0962250   0.2586246  )
        26           Zn  tau(  26) = (   0.6666667   0.1924501   0.0003273  )
        27           O   tau(  27) = (   0.8333333   0.0962250   0.4544362  )
        28           O   tau(  28) = (   0.6666667   0.1924501   0.1961388  )
        29           Zn  tau(  29) = (   0.8333333   0.0962250   0.7752193  )
        30           Zn  tau(  30) = (   0.6666667   0.1924501   0.5169220  )
        31           O   tau(  31) = (   0.8333333   0.0962250   0.9710308  )
        32           O   tau(  32) = (   0.6666667   0.1924501   0.7127335  )
        33           Zn  tau(  33) = (   0.8333333   0.0962250   1.2918140  )
        34           Zn  tau(  34) = (   0.6666667   0.1924501   1.0335167  )
        35           O   tau(  35) = (   0.8333333   0.0962250   1.4876255  )
        36           O   tau(  36) = (   0.6666667   0.1924501   1.2293282  )

   Crystallographic axes

     site n.     atom                  positions (cryst. coord.)
         1           Zn  tau(   1) = (  0.2222222  0.3333333  0.1668779  )
         2           Zn  tau(   2) = (  0.1111111  0.6666667  0.0002112  )
         3           O   tau(   3) = (  0.2222222  0.3333333  0.2932255  )
         4           O   tau(   4) = (  0.1111111  0.6666667  0.1265588  )
         5           Zn  tau(   5) = (  0.2222222  0.3333333  0.5002112  )
         6           Zn  tau(   6) = (  0.1111111  0.6666667  0.3335445  )
         7           O   tau(   7) = (  0.2222222  0.3333333  0.6265588  )
         8           O   tau(   8) = (  0.1111111  0.6666667  0.4598921  )
         9           Zn  tau(   9) = (  0.2222222  0.3333333  0.8335445  )
        10           Zn  tau(  10) = (  0.1111111  0.6666667  0.6668779  )
        11           O   tau(  11) = (  0.2222222  0.3333333  0.9598921  )
        12           O   tau(  12) = (  0.1111111  0.6666667  0.7932255  )
        13           Zn  tau(  13) = (  0.5555556  0.3333333  0.1668779  )
        14           Zn  tau(  14) = (  0.4444444  0.6666667  0.0002112  )
        15           O   tau(  15) = (  0.5555556  0.3333333  0.2932255  )
        16           O   tau(  16) = (  0.4444444  0.6666667  0.1265588  )
        17           Zn  tau(  17) = (  0.5555556  0.3333333  0.5002112  )
        18           Zn  tau(  18) = (  0.4444444  0.6666667  0.3335445  )
        19           O   tau(  19) = (  0.5555556  0.3333333  0.6265588  )
        20           O   tau(  20) = (  0.4444444  0.6666667  0.4598921  )
        21           Zn  tau(  21) = (  0.5555556  0.3333333  0.8335445  )
        22           Zn  tau(  22) = (  0.4444444  0.6666667  0.6668779  )
        23           O   tau(  23) = (  0.5555556  0.3333333  0.9598921  )
        24           O   tau(  24) = (  0.4444444  0.6666667  0.7932255  )
        25           Zn  tau(  25) = (  0.8888889  0.3333333  0.1668779  )
        26           Zn  tau(  26) = (  0.7777778  0.6666667  0.0002112  )
        27           O   tau(  27) = (  0.8888889  0.3333333  0.2932255  )
        28           O   tau(  28) = (  0.7777778  0.6666667  0.1265588  )
        29           Zn  tau(  29) = (  0.8888889  0.3333333  0.5002112  )
        30           Zn  tau(  30) = (  0.7777778  0.6666667  0.3335445  )
        31           O   tau(  31) = (  0.8888889  0.3333333  0.6265588  )
        32           O   tau(  32) = (  0.7777778  0.6666667  0.4598921  )
        33           Zn  tau(  33) = (  0.8888889  0.3333333  0.8335445  )
        34           Zn  tau(  34) = (  0.7777778  0.6666667  0.6668779  )
        35           O   tau(  35) = (  0.8888889  0.3333333  0.9598921  )
        36           O   tau(  36) = (  0.7777778  0.6666667  0.7932255  )

     number of k points=    68
                       cart. coord. in units 2pi/alat
        k(    1) = (   0.0000000   0.0000000   0.0000000), wk =   0.0092593
        k(    2) = (   0.0000000   0.0000000   0.1075419), wk =   0.0185185
        k(    3) = (   0.0000000   0.0000000   0.2150837), wk =   0.0185185
        k(    4) = (   0.0000000   0.0000000  -0.3226256), wk =   0.0092593
        k(    5) = (   0.0000000   0.5773503   0.0000000), wk =   0.0370370
        k(    6) = (   0.0000000   0.5773503   0.1075419), wk =   0.0370370
        k(    7) = (   0.0000000   0.5773503   0.2150837), wk =   0.0370370
        k(    8) = (   0.0000000   0.5773503  -0.3226256), wk =   0.0370370
        k(    9) = (   0.0000000   1.1547005   0.0000000), wk =   0.0185185
        k(   10) = (   0.0000000   1.1547005   0.1075419), wk =   0.0370370
        k(   11) = (   0.0000000   1.1547005   0.2150837), wk =   0.0370370
        k(   12) = (   0.0000000   1.1547005  -0.3226256), wk =   0.0185185
        k(   13) = (   0.0000000  -1.7320508   0.0000000), wk =   0.0185185
[...]
     atom   18 type  1   force =    -0.00001934   -0.00001116   -0.11100983
     atom   19 type  2   force =    -0.00020098   -0.00011604   -0.09650424
     atom   20 type  2   force =     0.00020259    0.00011697   -0.09650233
     atom   21 type  1   force =     0.00001960    0.00001132   -0.11100910
     atom   22 type  1   force =    -0.00001482   -0.00000856   -0.11099916
     atom   23 type  2   force =    -0.00020389   -0.00011772   -0.09650162
     atom   24 type  2   force =     0.00020039    0.00011570   -0.09650127
     atom   25 type  1   force =     0.00001755    0.00001013   -0.11100602
     atom   26 type  1   force =    -0.00001284   -0.00000741   -0.11100440
     atom   27 type  2   force =    -0.00020382   -0.00011767   -0.09650338
     atom   28 type  2   force =     0.00020027    0.00011563   -0.09649863
     atom   29 type  1   force =     0.00001768    0.00001021   -0.11100167
     atom   30 type  1   force =    -0.00001220   -0.00000704   -0.11100677
     atom   31 type  2   force =    -0.00020107   -0.00011609   -0.09650476
     atom   32 type  2   force =     0.00019949    0.00011517   -0.09650180
     atom   33 type  1   force =     0.00001758    0.00001015   -0.11100385
     atom   34 type  1   force =    -0.00001480   -0.00000855   -0.11099630
     atom   35 type  2   force =    -0.00020130   -0.00011622   -0.09649911
     atom   36 type  2   force =     0.00019832    0.00011450   -0.09650568
     The ionic contribution  to forces
     atom    1 type  1   force =     0.00000001    0.00000001   -0.68525368
     atom    2 type  1   force =     0.00000001    0.00000000   -0.68525365
     atom    3 type  2   force =     0.00000000    0.00000000    0.68525367
     atom    4 type  2   force =     0.00000000    0.00000000    0.68525366
     atom    5 type  1   force =     0.00000001    0.00000001   -0.68525365
     atom    6 type  1   force =     0.00000001    0.00000000   -0.68525369
     atom    7 type  2   force =     0.00000000    0.00000000    0.68525366
     atom    8 type  2   force =     0.00000000    0.00000000    0.68525368
     atom    9 type  1   force =     0.00000001    0.00000001   -0.68525368
     atom   10 type  1   force =     0.00000001    0.00000000   -0.68525368
     atom   11 type  2   force =     0.00000000    0.00000000    0.68525368
     atom   12 type  2   force =     0.00000000    0.00000000    0.68525367
     atom   13 type  1   force =    -0.00000001    0.00000000   -0.68525369
     atom   14 type  1   force =     0.00000001   -0.00000000   -0.68525365
     atom   15 type  2   force =    -0.00000001    0.00000000    0.68525368
     atom   16 type  2   force =     0.00000001   -0.00000000    0.68525367
     atom   17 type  1   force =    -0.00000001    0.00000000   -0.68525365
     atom   18 type  1   force =     0.00000001   -0.00000000   -0.68525369
     atom   19 type  2   force =    -0.00000001    0.00000000    0.68525367
     atom   20 type  2   force =     0.00000001   -0.00000000    0.68525369
     atom   21 type  1   force =    -0.00000001    0.00000000   -0.68525369
     atom   22 type  1   force =     0.00000001   -0.00000000   -0.68525369
     atom   23 type  2   force =    -0.00000001    0.00000000    0.68525369
     atom   24 type  2   force =     0.00000001   -0.00000000    0.68525368
     atom   25 type  1   force =    -0.00000001   -0.00000000   -0.68525368
     atom   26 type  1   force =    -0.00000001   -0.00000001   -0.68525365
     atom   27 type  2   force =    -0.00000000   -0.00000000    0.68525367
     atom   28 type  2   force =    -0.00000000   -0.00000000    0.68525366
     atom   29 type  1   force =    -0.00000001   -0.00000000   -0.68525365
     atom   30 type  1   force =    -0.00000001   -0.00000001   -0.68525368
     atom   31 type  2   force =    -0.00000000   -0.00000000    0.68525366
     atom   32 type  2   force =    -0.00000000   -0.00000000    0.68525368
     atom   33 type  1   force =    -0.00000001   -0.00000000   -0.68525369
     atom   34 type  1   force =    -0.00000001   -0.00000001   -0.68525368
     atom   35 type  2   force =    -0.00000000   -0.00000000    0.68525368
     atom   36 type  2   force =    -0.00000000   -0.00000000    0.68525367
     The local contribution  to forces
     atom    1 type  1   force =    -0.00001816   -0.00001048    0.78738334
     atom    2 type  1   force =     0.00002502    0.00001439    0.78738956
     atom    3 type  2   force =     0.00019466    0.00011239   -0.58765022
     atom    4 type  2   force =    -0.00019456   -0.00011234   -0.58765034
     atom    5 type  1   force =    -0.00000774   -0.00000447    0.78738873
     atom    6 type  1   force =     0.00000825    0.00000471    0.78738834
     atom    7 type  2   force =     0.00019494    0.00011255   -0.58765361
     atom    8 type  2   force =    -0.00019420   -0.00011213   -0.58765057
     atom    9 type  1   force =     0.00000385    0.00000223    0.78739393
     atom   10 type  1   force =     0.00001398    0.00000802    0.78737194
     atom   11 type  2   force =     0.00019919    0.00011500   -0.58765051
     atom   12 type  2   force =    -0.00019248   -0.00011114   -0.58765233
     atom   13 type  1   force =     0.00000076    0.00000055    0.78739468
     atom   14 type  1   force =     0.00000786    0.00000443    0.78736830
     atom   15 type  2   force =     0.00019615    0.00011328   -0.58764956
     atom   16 type  2   force =    -0.00019345   -0.00011172   -0.58765149
     atom   17 type  1   force =    -0.00000676   -0.00000379    0.78737808
     atom   18 type  1   force =     0.00002114    0.00001210    0.78739340
     atom   19 type  2   force =     0.00019493    0.00011257   -0.58765513
     atom   20 type  2   force =    -0.00019307   -0.00011150   -0.58765103
     atom   21 type  1   force =    -0.00002136   -0.00001222    0.78739625
     atom   22 type  1   force =     0.00000780    0.00000440    0.78737935
     atom   23 type  2   force =     0.00019224    0.00011102   -0.58764961
     atom   24 type  2   force =    -0.00019611   -0.00011325   -0.58764963
     atom   25 type  1   force =    -0.00001413   -0.00000811    0.78739247
     atom   26 type  1   force =    -0.00000063   -0.00000037    0.78739281
     atom   27 type  2   force =     0.00019321    0.00011157   -0.58765072
     atom   28 type  2   force =    -0.00019574   -0.00011301   -0.58764873
     atom   29 type  1   force =    -0.00001629   -0.00000935    0.78738625
     atom   30 type  1   force =     0.00000197    0.00000114    0.78738811
     atom   31 type  2   force =     0.00019343    0.00011169   -0.58765512
     atom   32 type  2   force =    -0.00019774   -0.00011417   -0.58765095
     atom   33 type  1   force =    -0.00001373   -0.00000787    0.78738091
     atom   34 type  1   force =     0.00000949    0.00000548    0.78736860
     atom   35 type  2   force =     0.00019349    0.00011173   -0.58764808
     atom   36 type  2   force =    -0.00019586   -0.00011308   -0.58765190
     The core correction contribution to forces
     atom    1 type  1   force =    -0.00000532   -0.00000316    0.00695335
     atom    2 type  1   force =     0.00000524    0.00000304    0.00695617
     atom    3 type  2   force =     0.00000224    0.00000129    0.00081828
     atom    4 type  2   force =    -0.00000227   -0.00000130    0.00081958
     atom    5 type  1   force =    -0.00000567   -0.00000337    0.00695607
     atom    6 type  1   force =     0.00000577    0.00000334    0.00695460
     atom    7 type  2   force =     0.00000225    0.00000129    0.00081961
     atom    8 type  2   force =    -0.00000227   -0.00000131    0.00081737
     atom    9 type  1   force =    -0.00000572   -0.00000339    0.00695418
     atom   10 type  1   force =     0.00000561    0.00000324    0.00695362
     atom   11 type  2   force =     0.00000222    0.00000127    0.00081737
     atom   12 type  2   force =    -0.00000231   -0.00000133    0.00081831
     atom   13 type  1   force =    -0.00000560   -0.00000340    0.00695292
     atom   14 type  1   force =     0.00000537    0.00000328    0.00695659
     atom   15 type  2   force =     0.00000225    0.00000130    0.00081825
     atom   16 type  2   force =    -0.00000229   -0.00000132    0.00081960
     atom   17 type  1   force =    -0.00000538   -0.00000328    0.00695622
     atom   18 type  1   force =     0.00000512    0.00000312    0.00695460
     atom   19 type  2   force =     0.00000228    0.00000132    0.00081961
     atom   20 type  2   force =    -0.00000230   -0.00000133    0.00081739
     atom   21 type  1   force =    -0.00000515   -0.00000314    0.00695429
     atom   22 type  1   force =     0.00000545    0.00000331    0.00695326
     atom   23 type  2   force =     0.00000232    0.00000134    0.00081739
     atom   24 type  2   force =    -0.00000227   -0.00000131    0.00081827
     atom   25 type  1   force =    -0.00000563   -0.00000325    0.00695331
     atom   26 type  1   force =     0.00000595    0.00000353    0.00695600
     atom   27 type  2   force =     0.00000231    0.00000133    0.00081830
     atom   28 type  2   force =    -0.00000224   -0.00000129    0.00081955
     atom   29 type  1   force =    -0.00000547   -0.00000317    0.00695616
     atom   30 type  1   force =     0.00000564    0.00000335    0.00695456
     atom   31 type  2   force =     0.00000227    0.00000131    0.00081963
     atom   32 type  2   force =    -0.00000224   -0.00000129    0.00081739
     atom   33 type  1   force =    -0.00000566   -0.00000328    0.00695458
     atom   34 type  1   force =     0.00000549    0.00000326    0.00695360
     atom   35 type  2   force =     0.00000228    0.00000131    0.00081736
     atom   36 type  2   force =    -0.00000222   -0.00000128    0.00081833
     The Hubbard contrib.    to forces
     atom    1 type  1   force =     0.00000000    0.00000000    0.00000000
     atom    2 type  1   force =     0.00000000    0.00000000    0.00000000
     atom    3 type  2   force =     0.00000000    0.00000000    0.00000000
     atom    4 type  2   force =     0.00000000    0.00000000    0.00000000
     atom    5 type  1   force =     0.00000000    0.00000000    0.00000000
     atom    6 type  1   force =     0.00000000    0.00000000    0.00000000
     atom    7 type  2   force =     0.00000000    0.00000000    0.00000000
     atom    8 type  2   force =     0.00000000    0.00000000    0.00000000
     atom    9 type  1   force =     0.00000000    0.00000000    0.00000000
     atom   10 type  1   force =     0.00000000    0.00000000    0.00000000
     atom   11 type  2   force =     0.00000000    0.00000000    0.00000000
     atom   12 type  2   force =     0.00000000    0.00000000    0.00000000
     atom   13 type  1   force =     0.00000000    0.00000000    0.00000000
     atom   14 type  1   force =     0.00000000    0.00000000    0.00000000
     atom   15 type  2   force =     0.00000000    0.00000000    0.00000000
     atom   16 type  2   force =     0.00000000    0.00000000    0.00000000
     atom   17 type  1   force =     0.00000000    0.00000000    0.00000000
     atom   18 type  1   force =     0.00000000    0.00000000    0.00000000
     atom   19 type  2   force =     0.00000000    0.00000000    0.00000000
     atom   20 type  2   force =     0.00000000    0.00000000    0.00000000
     atom   21 type  1   force =     0.00000000    0.00000000    0.00000000
     atom   22 type  1   force =     0.00000000    0.00000000    0.00000000
     atom   23 type  2   force =     0.00000000    0.00000000    0.00000000
     atom   24 type  2   force =     0.00000000    0.00000000    0.00000000
     atom   25 type  1   force =     0.00000000    0.00000000    0.00000000
     atom   26 type  1   force =     0.00000000    0.00000000    0.00000000
     atom   27 type  2   force =     0.00000000    0.00000000    0.00000000
     atom   28 type  2   force =     0.00000000    0.00000000    0.00000000
     atom   29 type  1   force =     0.00000000    0.00000000    0.00000000
     atom   30 type  1   force =     0.00000000    0.00000000    0.00000000
     atom   31 type  2   force =     0.00000000    0.00000000    0.00000000
     atom   32 type  2   force =     0.00000000    0.00000000    0.00000000
     atom   33 type  1   force =     0.00000000    0.00000000    0.00000000
     atom   34 type  1   force =     0.00000000    0.00000000    0.00000000
     atom   35 type  2   force =     0.00000000    0.00000000    0.00000000
     atom   36 type  2   force =     0.00000000    0.00000000    0.00000000
     The SCF correction term to forces
     atom    1 type  1   force =     0.00000828    0.00000478   -0.00000016
     atom    2 type  1   force =    -0.00001490   -0.00000860   -0.00000537
     atom    3 type  2   force =     0.00000006    0.00000003   -0.00000194
     atom    4 type  2   force =     0.00000012    0.00000007   -0.00000139
     atom    5 type  1   force =    -0.00000395   -0.00000228   -0.00000536
     atom    6 type  1   force =     0.00000333    0.00000192   -0.00000246
     atom    7 type  2   force =    -0.00000057   -0.00000033    0.00000197
     atom    8 type  2   force =    -0.00000077   -0.00000045   -0.00000177
     atom    9 type  1   force =    -0.00001716   -0.00000991   -0.00000820
     atom   10 type  1   force =    -0.00000286   -0.00000165    0.00001281
     atom   11 type  2   force =    -0.00000630   -0.00000363   -0.00000047
     atom   12 type  2   force =    -0.00000485   -0.00000280    0.00000191
     atom   13 type  1   force =    -0.00001392   -0.00000804   -0.00001211
     atom   14 type  1   force =     0.00000282    0.00000163    0.00002026
     atom   15 type  2   force =    -0.00000258   -0.00000149   -0.00000472
     atom   16 type  2   force =    -0.00000280   -0.00000162    0.00000072
     atom   17 type  1   force =    -0.00000593   -0.00000342    0.00000598
     atom   18 type  1   force =    -0.00001058   -0.00000611   -0.00000815
     atom   19 type  2   force =     0.00000058    0.00000033    0.00000388
     atom   20 type  2   force =    -0.00000311   -0.00000179    0.00000044
     atom   21 type  1   force =     0.00001108    0.00000640   -0.00001196
     atom   22 type  1   force =     0.00000325    0.00000187    0.00000395
     atom   23 type  2   force =     0.00000549    0.00000317    0.00000037
     atom   24 type  2   force =     0.00000120    0.00000069   -0.00000293
     atom   25 type  1   force =     0.00000342    0.00000197   -0.00000884
     atom   26 type  1   force =     0.00001285    0.00000742   -0.00000877
     atom   27 type  2   force =     0.00000389    0.00000225   -0.00000155
     atom   28 type  2   force =     0.00000111    0.00000064   -0.00000507
     atom   29 type  1   force =     0.00000562    0.00000324   -0.00000327
     atom   30 type  1   force =     0.00001014    0.00000585   -0.00000380
     atom   31 type  2   force =     0.00000227    0.00000131    0.00000482
     atom   32 type  2   force =     0.00000394    0.00000228    0.00000048
     atom   33 type  1   force =     0.00000287    0.00000165    0.00000626
     atom   34 type  1   force =     0.00000203    0.00000117    0.00001697
     atom   35 type  2   force =     0.00000174    0.00000100   -0.00000434
     atom   36 type  2   force =     0.00000279    0.00000161    0.00000200

     Total force =     0.011508     Total SCF correction =     0.000062

     General routines

     Parallel routines

   This run was terminated on:  10:46: 0   3Sep2025

   JOB DONE.
Note: The following floating-point exceptions are signalling: IEEE_INVALID_FLAG
Note: The following floating-point exceptions are signalling: IEEE_INVALID_FLAG
Note: The following floating-point exceptions are signalling: IEEE_INVALID_FLAG
Note: The following floating-point exceptions are signalling: IEEE_INVALID_FLAG
Note: The following floating-point exceptions are signalling: IEEE_INVALID_FLAG
Note: The following floating-point exceptions are signalling: IEEE_INVALID_FLAG
Note: The following floating-point exceptions are signalling: IEEE_INVALID_FLAG
Note: The following floating-point exceptions are signalling: IEEE_INVALID_FLAG
Note: The following floating-point exceptions are signalling: IEEE_INVALID_FLAG
Note: The following floating-point exceptions are signalling: IEEE_INVALID_FLAG
Note: The following floating-point exceptions are signalling: IEEE_INVALID_FLAG
Note: The following floating-point exceptions are signalling: IEEE_INVALID_FLAG
Note: The following floating-point exceptions are signalling: IEEE_INVALID_FLAG
Note: The following floating-point exceptions are signalling: IEEE_INVALID_FLAG
Note: The following floating-point exceptions are signalling: IEEE_INVALID_FLAG
Note: The following floating-point exceptions are signalling: IEEE_INVALID_FLAG