     Program PWSCF v.7.2 starts on 28Aug2025 at 22:35:56

     Reading input from /home/jvc/QEspresso7.2/ZnO_database/scripts/cell313.in/ZnO-2.94-1.58-313.in
Warning: card &CELL ignored
Warning: card / ignored
Warning: card &FCP ignored
Warning: card / ignored
Warning: card &RISM ignored
Warning: card / ignored

     Current dimensions of program PWSCF are:
     Max number of different atomic species (ntypx) = 10
     Max number of k-points (npk) =  40000
     Max angular momentum in pseudopotentials (lmaxx) =  4
     file Zn.upf: wavefunction(s)  3D renormalized
     Found identity + (  0.0000  0.0000  0.3333) symmetry
     This is a supercell, fractional translations are disabled
     Message from routine setup:
     using ibrav=0 with symmetry is DISCOURAGED, use correct ibrav instead

     K-points division:     npool     =       6
     R & G space division:  proc/nbgrp/npool/nimage =      10
     Subspace diagonalization in iterative solution of the eigenvalue problem:
     one sub-group per band group will be used

     Using Slab Decomposition

     bravais-lattice index     =            0
     lattice parameter (alat)  =      16.6829  a.u.
     unit-cell volume          =    2120.5596 (a.u.)^3
     number of atoms/cell      =           36
     number of atomic types    =            2
     number of electrons       =       324.00
     number of Kohn-Sham states=          162
     kinetic-energy cutoff     =      50.0000  Ry
     charge density cutoff     =     400.0000  Ry
     scf convergence threshold =      1.0E-08
     mixing beta               =       0.3000
     number of iterations used =            8  plain     mixing
     Exchange-correlation= PBE
                           (   1   4   3   4   0   0   0)

     celldm(1)=  16.682906  celldm(2)=   0.000000  celldm(3)=   0.000000
     celldm(4)=   0.000000  celldm(5)=   0.000000  celldm(6)=   0.000000

     crystal axes: (cart. coord. in units of alat)
               a(1) = (   1.000000   0.000000   0.000000 )
               a(2) = (  -0.166667   0.288675   0.000000 )
               a(3) = (   0.000000   0.000000   1.582071 )

     reciprocal axes: (cart. coord. in units 2 pi/alat)
               b(1) = (  1.000000  0.577350 -0.000000 )
               b(2) = (  0.000000  3.464102  0.000000 )
               b(3) = (  0.000000 -0.000000  0.632083 )

     PseudoPot. # 1 for Zn read from file:
     /home/jvc/QEspresso7.2/ZnO_database/pseudos/Zn.upf
     MD5 check sum: 7f56cabf9682ed8c977c2f7d0c5985c5
     Pseudo is Ultrasoft + core correction, Zval = 12.0
     Generated using &quot;atomic&quot; code by A. Dal Corso  v.6.2.2
     Using radial grid of 1201 points,  6 beta functions with:
                l(1) =   0
                l(2) =   0
                l(3) =   1
                l(4) =   1
                l(5) =   2
                l(6) =   2
     Q(r) pseudized with 0 coefficients

     PseudoPot. # 2 for O  read from file:
     /home/jvc/QEspresso7.2/ZnO_database/pseudos/O.upf
     MD5 check sum: 91400c9766925bcf19f520983a725ff0
     Pseudo is Ultrasoft + core correction, Zval =  6.0
     Generated using &quot;atomic&quot; code by A. Dal Corso  v.6.3MaX
     Using radial grid of 1095 points,  4 beta functions with:
                l(1) =   0
                l(2) =   0
                l(3) =   1
                l(4) =   1
     Q(r) pseudized with 0 coefficients

     atomic species   valence    mass     pseudopotential
        Zn            12.00    65.38000     Zn( 1.00)
        O              6.00    15.99900     O ( 1.00)

      2 Sym. Ops. (no inversion) found

                                    s                        frac. trans.

      isym =  1     identity

 cryst.   s( 1) = (     1          0          0      )
                  (     0          1          0      )
                  (     0          0          1      )

 cart.    s( 1) = (  1.0000000  0.0000000  0.0000000 )
                  (  0.0000000  1.0000000  0.0000000 )
                  (  0.0000000  0.0000000  1.0000000 )

      isym =  2     inv. 180 deg rotation - cryst. axis [0,1,0]

 cryst.   s( 2) = (     1          3          0      )
                  (     0         -1          0      )
                  (     0          0          1      )

 cart.    s( 2) = (  0.5000000  0.8660254  0.0000000 )
                  (  0.8660254 -0.5000000  0.0000000 )
                  (  0.0000000  0.0000000  1.0000000 )

   Cartesian axes

     site n.     atom                  positions (alat units)
         1           Zn  tau(   1) = (   0.1666667   0.0962250   0.2640127  )
         2           Zn  tau(   2) = (  -0.0000000   0.1924501   0.0003341  )
         3           O   tau(   3) = (   0.1666667   0.0962250   0.4639036  )
         4           O   tau(   4) = (  -0.0000000   0.1924501   0.2002250  )
         5           Zn  tau(   5) = (   0.1666667   0.0962250   0.7913697  )
         6           Zn  tau(   6) = (  -0.0000000   0.1924501   0.5276912  )
         7           O   tau(   7) = (   0.1666667   0.0962250   0.9912606  )
         8           O   tau(   8) = (  -0.0000000   0.1924501   0.7275821  )
         9           Zn  tau(   9) = (   0.1666667   0.0962250   1.3187268  )
        10           Zn  tau(  10) = (  -0.0000000   0.1924501   1.0550483  )
        11           O   tau(  11) = (   0.1666667   0.0962250   1.5186177  )
        12           O   tau(  12) = (  -0.0000000   0.1924501   1.2549392  )
        13           Zn  tau(  13) = (   0.5000000   0.0962250   0.2640127  )
        14           Zn  tau(  14) = (   0.3333333   0.1924501   0.0003341  )
        15           O   tau(  15) = (   0.5000000   0.0962250   0.4639036  )
        16           O   tau(  16) = (   0.3333333   0.1924501   0.2002250  )
        17           Zn  tau(  17) = (   0.5000000   0.0962250   0.7913697  )
        18           Zn  tau(  18) = (   0.3333333   0.1924501   0.5276912  )
        19           O   tau(  19) = (   0.5000000   0.0962250   0.9912606  )
        20           O   tau(  20) = (   0.3333333   0.1924501   0.7275821  )
        21           Zn  tau(  21) = (   0.5000000   0.0962250   1.3187268  )
        22           Zn  tau(  22) = (   0.3333333   0.1924501   1.0550483  )
        23           O   tau(  23) = (   0.5000000   0.0962250   1.5186177  )
        24           O   tau(  24) = (   0.3333333   0.1924501   1.2549392  )
        25           Zn  tau(  25) = (   0.8333333   0.0962250   0.2640127  )
        26           Zn  tau(  26) = (   0.6666667   0.1924501   0.0003341  )
        27           O   tau(  27) = (   0.8333333   0.0962250   0.4639036  )
        28           O   tau(  28) = (   0.6666667   0.1924501   0.2002250  )
        29           Zn  tau(  29) = (   0.8333333   0.0962250   0.7913697  )
        30           Zn  tau(  30) = (   0.6666667   0.1924501   0.5276912  )
        31           O   tau(  31) = (   0.8333333   0.0962250   0.9912606  )
        32           O   tau(  32) = (   0.6666667   0.1924501   0.7275821  )
        33           Zn  tau(  33) = (   0.8333333   0.0962250   1.3187268  )
        34           Zn  tau(  34) = (   0.6666667   0.1924501   1.0550483  )
        35           O   tau(  35) = (   0.8333333   0.0962250   1.5186177  )
        36           O   tau(  36) = (   0.6666667   0.1924501   1.2549392  )

   Crystallographic axes

     site n.     atom                  positions (cryst. coord.)
         1           Zn  tau(   1) = (  0.2222222  0.3333333  0.1668779  )
         2           Zn  tau(   2) = (  0.1111111  0.6666667  0.0002112  )
         3           O   tau(   3) = (  0.2222222  0.3333333  0.2932255  )
         4           O   tau(   4) = (  0.1111111  0.6666667  0.1265588  )
         5           Zn  tau(   5) = (  0.2222222  0.3333333  0.5002112  )
         6           Zn  tau(   6) = (  0.1111111  0.6666667  0.3335445  )
         7           O   tau(   7) = (  0.2222222  0.3333333  0.6265588  )
         8           O   tau(   8) = (  0.1111111  0.6666667  0.4598921  )
         9           Zn  tau(   9) = (  0.2222222  0.3333333  0.8335445  )
        10           Zn  tau(  10) = (  0.1111111  0.6666667  0.6668779  )
        11           O   tau(  11) = (  0.2222222  0.3333333  0.9598921  )
        12           O   tau(  12) = (  0.1111111  0.6666667  0.7932255  )
        13           Zn  tau(  13) = (  0.5555556  0.3333333  0.1668779  )
        14           Zn  tau(  14) = (  0.4444444  0.6666667  0.0002112  )
        15           O   tau(  15) = (  0.5555556  0.3333333  0.2932255  )
        16           O   tau(  16) = (  0.4444444  0.6666667  0.1265588  )
        17           Zn  tau(  17) = (  0.5555556  0.3333333  0.5002112  )
        18           Zn  tau(  18) = (  0.4444444  0.6666667  0.3335445  )
        19           O   tau(  19) = (  0.5555556  0.3333333  0.6265588  )
        20           O   tau(  20) = (  0.4444444  0.6666667  0.4598921  )
        21           Zn  tau(  21) = (  0.5555556  0.3333333  0.8335445  )
        22           Zn  tau(  22) = (  0.4444444  0.6666667  0.6668779  )
        23           O   tau(  23) = (  0.5555556  0.3333333  0.9598921  )
        24           O   tau(  24) = (  0.4444444  0.6666667  0.7932255  )
        25           Zn  tau(  25) = (  0.8888889  0.3333333  0.1668779  )
        26           Zn  tau(  26) = (  0.7777778  0.6666667  0.0002112  )
        27           O   tau(  27) = (  0.8888889  0.3333333  0.2932255  )
        28           O   tau(  28) = (  0.7777778  0.6666667  0.1265588  )
        29           Zn  tau(  29) = (  0.8888889  0.3333333  0.5002112  )
        30           Zn  tau(  30) = (  0.7777778  0.6666667  0.3335445  )
        31           O   tau(  31) = (  0.8888889  0.3333333  0.6265588  )
        32           O   tau(  32) = (  0.7777778  0.6666667  0.4598921  )
        33           Zn  tau(  33) = (  0.8888889  0.3333333  0.8335445  )
        34           Zn  tau(  34) = (  0.7777778  0.6666667  0.6668779  )
        35           O   tau(  35) = (  0.8888889  0.3333333  0.9598921  )
        36           O   tau(  36) = (  0.7777778  0.6666667  0.7932255  )

     number of k points=    68
                       cart. coord. in units 2pi/alat
        k(    1) = (   0.0000000   0.0000000   0.0000000), wk =   0.0092593
        k(    2) = (   0.0000000   0.0000000   0.1053471), wk =   0.0185185
        k(    3) = (   0.0000000   0.0000000   0.2106943), wk =   0.0185185
        k(    4) = (   0.0000000   0.0000000  -0.3160414), wk =   0.0092593
        k(    5) = (   0.0000000   0.5773503   0.0000000), wk =   0.0370370
        k(    6) = (   0.0000000   0.5773503   0.1053471), wk =   0.0370370
        k(    7) = (   0.0000000   0.5773503   0.2106943), wk =   0.0370370
        k(    8) = (   0.0000000   0.5773503  -0.3160414), wk =   0.0370370
        k(    9) = (   0.0000000   1.1547005   0.0000000), wk =   0.0185185
        k(   10) = (   0.0000000   1.1547005   0.1053471), wk =   0.0370370
        k(   11) = (   0.0000000   1.1547005   0.2106943), wk =   0.0370370
        k(   12) = (   0.0000000   1.1547005  -0.3160414), wk =   0.0185185
        k(   13) = (   0.0000000  -1.7320508   0.0000000), wk =   0.0185185
[...]
     atom   13 type  1   force =    -0.00002827   -0.00001632   -0.07582426
     atom   14 type  1   force =     0.00002773    0.00001601   -0.07582342
     atom   15 type  2   force =    -0.00015000   -0.00008661   -0.04153568
     atom   16 type  2   force =     0.00015016    0.00008670   -0.04153553
     atom   17 type  1   force =    -0.00002803   -0.00001618   -0.07582369
     atom   18 type  1   force =     0.00002776    0.00001603   -0.07582353
     atom   19 type  2   force =    -0.00014970   -0.00008643   -0.04153576
     atom   20 type  2   force =     0.00015006    0.00008664   -0.04153574
     atom   21 type  1   force =    -0.00002783   -0.00001607   -0.07582413
     atom   22 type  1   force =     0.00002760    0.00001594   -0.07582388
     atom   23 type  2   force =    -0.00014988   -0.00008653   -0.04153570
     atom   24 type  2   force =     0.00014989    0.00008654   -0.04153553
     atom   25 type  1   force =    -0.00002771   -0.00001600   -0.07582381
     atom   26 type  1   force =     0.00002782    0.00001606   -0.07582368
     atom   27 type  2   force =    -0.00014998   -0.00008659   -0.04153535
     atom   28 type  2   force =     0.00014989    0.00008654   -0.04153548
     atom   29 type  1   force =    -0.00002826   -0.00001632   -0.07582337
     atom   30 type  1   force =     0.00002793    0.00001613   -0.07582360
     atom   31 type  2   force =    -0.00015007   -0.00008665   -0.04153508
     atom   32 type  2   force =     0.00015035    0.00008680   -0.04153553
     atom   33 type  1   force =    -0.00002798   -0.00001615   -0.07582373
     atom   34 type  1   force =     0.00002782    0.00001606   -0.07582385
     atom   35 type  2   force =    -0.00014987   -0.00008653   -0.04153540
     atom   36 type  2   force =     0.00015001    0.00008661   -0.04153593
     The ionic contribution  to forces
     atom    1 type  1   force =     0.00000001    0.00000001   -0.44226025
     atom    2 type  1   force =     0.00000001    0.00000000   -0.44226020
     atom    3 type  2   force =     0.00000000    0.00000000    0.44226023
     atom    4 type  2   force =     0.00000001    0.00000000    0.44226022
     atom    5 type  1   force =     0.00000001    0.00000001   -0.44226020
     atom    6 type  1   force =     0.00000001    0.00000000   -0.44226025
     atom    7 type  2   force =     0.00000000    0.00000000    0.44226022
     atom    8 type  2   force =     0.00000001    0.00000000    0.44226025
     atom    9 type  1   force =     0.00000001    0.00000001   -0.44226025
     atom   10 type  1   force =     0.00000001    0.00000000   -0.44226025
     atom   11 type  2   force =     0.00000000    0.00000000    0.44226025
     atom   12 type  2   force =     0.00000001    0.00000000    0.44226023
     atom   13 type  1   force =    -0.00000001    0.00000000   -0.44226025
     atom   14 type  1   force =     0.00000001   -0.00000000   -0.44226020
     atom   15 type  2   force =    -0.00000001    0.00000001    0.44226024
     atom   16 type  2   force =     0.00000001   -0.00000001    0.44226022
     atom   17 type  1   force =    -0.00000001    0.00000000   -0.44226020
     atom   18 type  1   force =     0.00000001   -0.00000000   -0.44226025
     atom   19 type  2   force =    -0.00000001    0.00000001    0.44226022
     atom   20 type  2   force =     0.00000001   -0.00000001    0.44226025
     atom   21 type  1   force =    -0.00000001    0.00000000   -0.44226025
     atom   22 type  1   force =     0.00000001   -0.00000000   -0.44226025
     atom   23 type  2   force =    -0.00000001    0.00000001    0.44226025
     atom   24 type  2   force =     0.00000001   -0.00000001    0.44226024
     atom   25 type  1   force =    -0.00000001   -0.00000000   -0.44226025
     atom   26 type  1   force =    -0.00000001   -0.00000001   -0.44226020
     atom   27 type  2   force =    -0.00000001   -0.00000000    0.44226023
     atom   28 type  2   force =    -0.00000000   -0.00000000    0.44226022
     atom   29 type  1   force =    -0.00000001   -0.00000000   -0.44226020
     atom   30 type  1   force =    -0.00000001   -0.00000001   -0.44226025
     atom   31 type  2   force =    -0.00000001   -0.00000000    0.44226022
     atom   32 type  2   force =    -0.00000000   -0.00000000    0.44226025
     atom   33 type  1   force =    -0.00000001   -0.00000000   -0.44226025
     atom   34 type  1   force =    -0.00000001   -0.00000001   -0.44226025
     atom   35 type  2   force =    -0.00000001   -0.00000000    0.44226025
     atom   36 type  2   force =    -0.00000000   -0.00000000    0.44226023
     The local contribution  to forces
     atom    1 type  1   force =     0.00004645    0.00002682    0.48429368
     atom    2 type  1   force =    -0.00004774   -0.00002761    0.48429290
     atom    3 type  2   force =     0.00014676    0.00008473   -0.37513761
     atom    4 type  2   force =    -0.00014720   -0.00008500   -0.37513807
     atom    5 type  1   force =     0.00004510    0.00002604    0.48429125
     atom    6 type  1   force =    -0.00004761   -0.00002753    0.48429477
     atom    7 type  2   force =     0.00014632    0.00008448   -0.37513757
     atom    8 type  2   force =    -0.00014735   -0.00008508   -0.37513819
     atom    9 type  1   force =     0.00004645    0.00002682    0.48429343
     atom   10 type  1   force =    -0.00004864   -0.00002813    0.48429472
     atom   11 type  2   force =     0.00014662    0.00008465   -0.37513880
     atom   12 type  2   force =    -0.00014614   -0.00008439   -0.37513810
     atom   13 type  1   force =     0.00004850    0.00002809    0.48429479
     atom   14 type  1   force =    -0.00004678   -0.00002710    0.48429160
     atom   15 type  2   force =     0.00014733    0.00008509   -0.37513796
     atom   16 type  2   force =    -0.00014664   -0.00008469   -0.37513793
     atom   17 type  1   force =     0.00004799    0.00002780    0.48429360
     atom   18 type  1   force =    -0.00004699   -0.00002722    0.48429227
     atom   19 type  2   force =     0.00014699    0.00008489   -0.37513669
     atom   20 type  2   force =    -0.00014684   -0.00008480   -0.37513850
     atom   21 type  1   force =     0.00004758    0.00002756    0.48429440
     atom   22 type  1   force =    -0.00004609   -0.00002670    0.48429366
     atom   23 type  2   force =     0.00014662    0.00008467   -0.37513806
     atom   24 type  2   force =    -0.00014701   -0.00008490   -0.37513786
     atom   25 type  1   force =     0.00004707    0.00002722    0.48429323
     atom   26 type  1   force =    -0.00004762   -0.00002749    0.48429294
     atom   27 type  2   force =     0.00014631    0.00008448   -0.37513794
     atom   28 type  2   force =    -0.00014628   -0.00008445   -0.37513762
     atom   29 type  1   force =     0.00004876    0.00002820    0.48429260
     atom   30 type  1   force =    -0.00004760   -0.00002748    0.48429288
     atom   31 type  2   force =     0.00014652    0.00008460   -0.37513812
     atom   32 type  2   force =    -0.00014601   -0.00008430   -0.37513852
     atom   33 type  1   force =     0.00004774    0.00002761    0.48429291
     atom   34 type  1   force =    -0.00004729   -0.00002730    0.48429348
     atom   35 type  2   force =     0.00014670    0.00008471   -0.37513812
     atom   36 type  2   force =    -0.00014640   -0.00008453   -0.37513780
     The core correction contribution to forces
     atom    1 type  1   force =    -0.00000327   -0.00000189    0.00799346
     atom    2 type  1   force =     0.00000327    0.00000188    0.00799347
     atom    3 type  2   force =     0.00000171    0.00000098    0.00020887
     atom    4 type  2   force =    -0.00000170   -0.00000098    0.00020887
     atom    5 type  1   force =    -0.00000326   -0.00000188    0.00799348
     atom    6 type  1   force =     0.00000326    0.00000188    0.00799347
     atom    7 type  2   force =     0.00000170    0.00000098    0.00020887
     atom    8 type  2   force =    -0.00000170   -0.00000098    0.00020887
     atom    9 type  1   force =    -0.00000326   -0.00000188    0.00799347
     atom   10 type  1   force =     0.00000328    0.00000189    0.00799345
     atom   11 type  2   force =     0.00000170    0.00000098    0.00020887
     atom   12 type  2   force =    -0.00000170   -0.00000098    0.00020887
     atom   13 type  1   force =    -0.00000328   -0.00000188    0.00799346
     atom   14 type  1   force =     0.00000327    0.00000188    0.00799348
     atom   15 type  2   force =     0.00000170    0.00000098    0.00020888
     atom   16 type  2   force =    -0.00000171   -0.00000098    0.00020887
     atom   17 type  1   force =    -0.00000329   -0.00000189    0.00799345
     atom   18 type  1   force =     0.00000327    0.00000188    0.00799349
     atom   19 type  2   force =     0.00000170    0.00000098    0.00020888
     atom   20 type  2   force =    -0.00000170   -0.00000098    0.00020887
     atom   21 type  1   force =    -0.00000329   -0.00000189    0.00799345
     atom   22 type  1   force =     0.00000327    0.00000187    0.00799347
     atom   23 type  2   force =     0.00000170    0.00000098    0.00020888
     atom   24 type  2   force =    -0.00000170   -0.00000098    0.00020887
     atom   25 type  1   force =    -0.00000328   -0.00000189    0.00799346
     atom   26 type  1   force =     0.00000328    0.00000189    0.00799346
     atom   27 type  2   force =     0.00000170    0.00000098    0.00020887
     atom   28 type  2   force =    -0.00000170   -0.00000098    0.00020887
     atom   29 type  1   force =    -0.00000328   -0.00000189    0.00799346
     atom   30 type  1   force =     0.00000327    0.00000189    0.00799347
     atom   31 type  2   force =     0.00000170    0.00000098    0.00020887
     atom   32 type  2   force =    -0.00000171   -0.00000098    0.00020887
     atom   33 type  1   force =    -0.00000328   -0.00000189    0.00799347
     atom   34 type  1   force =     0.00000327    0.00000189    0.00799346
     atom   35 type  2   force =     0.00000170    0.00000098    0.00020887
     atom   36 type  2   force =    -0.00000170   -0.00000098    0.00020888
     The Hubbard contrib.    to forces
     atom    1 type  1   force =     0.00000000    0.00000000    0.00000000
     atom    2 type  1   force =     0.00000000    0.00000000    0.00000000
     atom    3 type  2   force =     0.00000000    0.00000000    0.00000000
     atom    4 type  2   force =     0.00000000    0.00000000    0.00000000
     atom    5 type  1   force =     0.00000000    0.00000000    0.00000000
     atom    6 type  1   force =     0.00000000    0.00000000    0.00000000
     atom    7 type  2   force =     0.00000000    0.00000000    0.00000000
     atom    8 type  2   force =     0.00000000    0.00000000    0.00000000
     atom    9 type  1   force =     0.00000000    0.00000000    0.00000000
     atom   10 type  1   force =     0.00000000    0.00000000    0.00000000
     atom   11 type  2   force =     0.00000000    0.00000000    0.00000000
     atom   12 type  2   force =     0.00000000    0.00000000    0.00000000
     atom   13 type  1   force =     0.00000000    0.00000000    0.00000000
     atom   14 type  1   force =     0.00000000    0.00000000    0.00000000
     atom   15 type  2   force =     0.00000000    0.00000000    0.00000000
     atom   16 type  2   force =     0.00000000    0.00000000    0.00000000
     atom   17 type  1   force =     0.00000000    0.00000000    0.00000000
     atom   18 type  1   force =     0.00000000    0.00000000    0.00000000
     atom   19 type  2   force =     0.00000000    0.00000000    0.00000000
     atom   20 type  2   force =     0.00000000    0.00000000    0.00000000
     atom   21 type  1   force =     0.00000000    0.00000000    0.00000000
     atom   22 type  1   force =     0.00000000    0.00000000    0.00000000
     atom   23 type  2   force =     0.00000000    0.00000000    0.00000000
     atom   24 type  2   force =     0.00000000    0.00000000    0.00000000
     atom   25 type  1   force =     0.00000000    0.00000000    0.00000000
     atom   26 type  1   force =     0.00000000    0.00000000    0.00000000
     atom   27 type  2   force =     0.00000000    0.00000000    0.00000000
     atom   28 type  2   force =     0.00000000    0.00000000    0.00000000
     atom   29 type  1   force =     0.00000000    0.00000000    0.00000000
     atom   30 type  1   force =     0.00000000    0.00000000    0.00000000
     atom   31 type  2   force =     0.00000000    0.00000000    0.00000000
     atom   32 type  2   force =     0.00000000    0.00000000    0.00000000
     atom   33 type  1   force =     0.00000000    0.00000000    0.00000000
     atom   34 type  1   force =     0.00000000    0.00000000    0.00000000
     atom   35 type  2   force =     0.00000000    0.00000000    0.00000000
     atom   36 type  2   force =     0.00000000    0.00000000    0.00000000
     The SCF correction term to forces
     atom    1 type  1   force =     0.00000014    0.00000008   -0.00000124
     atom    2 type  1   force =     0.00000206    0.00000119   -0.00000011
     atom    3 type  2   force =    -0.00000066   -0.00000038    0.00000073
     atom    4 type  2   force =     0.00000112    0.00000065    0.00000121
     atom    5 type  1   force =     0.00000242    0.00000140    0.00000280
     atom    6 type  1   force =     0.00000160    0.00000092   -0.00000393
     atom    7 type  2   force =    -0.00000010   -0.00000006    0.00000051
     atom    8 type  2   force =     0.00000143    0.00000083    0.00000155
     atom    9 type  1   force =     0.00000006    0.00000003   -0.00000086
     atom   10 type  1   force =     0.00000296    0.00000171   -0.00000311
     atom   11 type  2   force =    -0.00000060   -0.00000035    0.00000214
     atom   12 type  2   force =     0.00000011    0.00000006    0.00000118
     atom   13 type  1   force =    -0.00000324   -0.00000187   -0.00000337
     atom   14 type  1   force =     0.00000063    0.00000036    0.00000223
     atom   15 type  2   force =    -0.00000143   -0.00000083    0.00000127
     atom   16 type  2   force =     0.00000036    0.00000021    0.00000093
     atom   17 type  1   force =    -0.00000248   -0.00000143   -0.00000151
     atom   18 type  1   force =     0.00000096    0.00000056    0.00000082
     atom   19 type  2   force =    -0.00000112   -0.00000064   -0.00000039
     atom   20 type  2   force =     0.00000076    0.00000044    0.00000179
     atom   21 type  1   force =    -0.00000202   -0.00000117   -0.00000238
     atom   22 type  1   force =    -0.00000082   -0.00000047   -0.00000147
     atom   23 type  2   force =    -0.00000070   -0.00000040    0.00000139
     atom   24 type  2   force =     0.00000087    0.00000050    0.00000106
     atom   25 type  1   force =    -0.00000130   -0.00000075   -0.00000040
     atom   26 type  1   force =     0.00000217    0.00000126    0.00000005
     atom   27 type  2   force =     0.00000013    0.00000008    0.00000083
     atom   28 type  2   force =     0.00000012    0.00000007    0.00000065
     atom   29 type  1   force =    -0.00000403   -0.00000233   -0.00000022
     atom   30 type  1   force =     0.00000199    0.00000115   -0.00000033
     atom   31 type  2   force =    -0.00000041   -0.00000024    0.00000103
     atom   32 type  2   force =    -0.00000065   -0.00000038    0.00000179
     atom   33 type  1   force =    -0.00000209   -0.00000121   -0.00000007
     atom   34 type  1   force =     0.00000161    0.00000093   -0.00000094
     atom   35 type  2   force =    -0.00000075   -0.00000043    0.00000114
     atom   36 type  2   force =     0.00000013    0.00000008    0.00000126

     Total force =     0.154784     Total SCF correction =     0.000014

     General routines

     Parallel routines

   This run was terminated on:  23: 8:30  28Aug2025

   JOB DONE.
Note: The following floating-point exceptions are signalling: IEEE_INVALID_FLAG
Note: The following floating-point exceptions are signalling: IEEE_DENORMAL
Note: The following floating-point exceptions are signalling: IEEE_DENORMAL
Note: The following floating-point exceptions are signalling: IEEE_INVALID_FLAG
Note: The following floating-point exceptions are signalling: IEEE_DENORMAL
Note: The following floating-point exceptions are signalling: IEEE_INVALID_FLAG
Note: The following floating-point exceptions are signalling: IEEE_INVALID_FLAG
Note: The following floating-point exceptions are signalling: IEEE_DENORMAL
Note: The following floating-point exceptions are signalling: IEEE_INVALID_FLAG
Note: The following floating-point exceptions are signalling: IEEE_INVALID_FLAG
Note: The following floating-point exceptions are signalling: IEEE_DENORMAL