     Program PWSCF v.7.2 starts on  2Sep2025 at 12:32:36

     Reading input from /home/jvc/QEspresso7.2/ZnO_database/scripts/cell313.in/ZnO-3.40-1.78-313.in
Warning: card &CELL ignored
Warning: card / ignored
Warning: card &FCP ignored
Warning: card / ignored
Warning: card &RISM ignored
Warning: card / ignored

     Current dimensions of program PWSCF are:
     Max number of different atomic species (ntypx) = 10
     Max number of k-points (npk) =  40000
     Max angular momentum in pseudopotentials (lmaxx) =  4
     file Zn.upf: wavefunction(s)  3D renormalized
     Found identity + (  0.0000  0.0000  0.3333) symmetry
     This is a supercell, fractional translations are disabled
     Message from routine setup:
     using ibrav=0 with symmetry is DISCOURAGED, use correct ibrav instead

     K-points division:     npool     =      17
     R & G space division:  proc/nbgrp/npool/nimage =       3
     Subspace diagonalization in iterative solution of the eigenvalue problem:
     a serial algorithm will be used

     Using Slab Decomposition

     bravais-lattice index     =            0
     lattice parameter (alat)  =      19.2780  a.u.
     unit-cell volume          =    3672.7349 (a.u.)^3
     number of atoms/cell      =           36
     number of atomic types    =            2
     number of electrons       =       324.00
     number of Kohn-Sham states=          162
     kinetic-energy cutoff     =      50.0000  Ry
     charge density cutoff     =     400.0000  Ry
     scf convergence threshold =      1.0E-08
     mixing beta               =       0.3000
     number of iterations used =            8  plain     mixing
     Exchange-correlation= PBE
                           (   1   4   3   4   0   0   0)

     celldm(1)=  19.278024  celldm(2)=   0.000000  celldm(3)=   0.000000
     celldm(4)=   0.000000  celldm(5)=   0.000000  celldm(6)=   0.000000

     crystal axes: (cart. coord. in units of alat)
               a(1) = (   1.000000   0.000000   0.000000 )
               a(2) = (  -0.166667   0.288675   0.000000 )
               a(3) = (   0.000000   0.000000   1.775794 )

     reciprocal axes: (cart. coord. in units 2 pi/alat)
               b(1) = (  1.000000  0.577350 -0.000000 )
               b(2) = (  0.000000  3.464102  0.000000 )
               b(3) = (  0.000000 -0.000000  0.563128 )

     PseudoPot. # 1 for Zn read from file:
     /home/jvc/QEspresso7.2/ZnO_database/pseudos/Zn.upf
     MD5 check sum: 7f56cabf9682ed8c977c2f7d0c5985c5
     Pseudo is Ultrasoft + core correction, Zval = 12.0
     Generated using &quot;atomic&quot; code by A. Dal Corso  v.6.2.2
     Using radial grid of 1201 points,  6 beta functions with:
                l(1) =   0
                l(2) =   0
                l(3) =   1
                l(4) =   1
                l(5) =   2
                l(6) =   2
     Q(r) pseudized with 0 coefficients

     PseudoPot. # 2 for O  read from file:
     /home/jvc/QEspresso7.2/ZnO_database/pseudos/O.upf
     MD5 check sum: 91400c9766925bcf19f520983a725ff0
     Pseudo is Ultrasoft + core correction, Zval =  6.0
     Generated using &quot;atomic&quot; code by A. Dal Corso  v.6.3MaX
     Using radial grid of 1095 points,  4 beta functions with:
                l(1) =   0
                l(2) =   0
                l(3) =   1
                l(4) =   1
     Q(r) pseudized with 0 coefficients

     atomic species   valence    mass     pseudopotential
        Zn            12.00    65.38000     Zn( 1.00)
        O              6.00    15.99900     O ( 1.00)

      2 Sym. Ops. (no inversion) found

                                    s                        frac. trans.

      isym =  1     identity

 cryst.   s( 1) = (     1          0          0      )
                  (     0          1          0      )
                  (     0          0          1      )

 cart.    s( 1) = (  1.0000000  0.0000000  0.0000000 )
                  (  0.0000000  1.0000000  0.0000000 )
                  (  0.0000000  0.0000000  1.0000000 )

      isym =  2     inv. 180 deg rotation - cryst. axis [0,1,0]

 cryst.   s( 2) = (     1          3          0      )
                  (     0         -1          0      )
                  (     0          0          1      )

 cart.    s( 2) = (  0.5000000  0.8660254  0.0000000 )
                  (  0.8660254 -0.5000000  0.0000000 )
                  (  0.0000000  0.0000000  1.0000000 )

   Cartesian axes

     site n.     atom                  positions (alat units)
         1           Zn  tau(   1) = (   0.1666667   0.0962250   0.2963407  )
         2           Zn  tau(   2) = (  -0.0000000   0.1924501   0.0003750  )
         3           O   tau(   3) = (   0.1666667   0.0962250   0.5207081  )
         4           O   tau(   4) = (  -0.0000000   0.1924501   0.2247424  )
         5           Zn  tau(   5) = (   0.1666667   0.0962250   0.8882721  )
         6           Zn  tau(   6) = (  -0.0000000   0.1924501   0.5923064  )
         7           O   tau(   7) = (   0.1666667   0.0962250   1.1126395  )
         8           O   tau(   8) = (  -0.0000000   0.1924501   0.8166738  )
         9           Zn  tau(   9) = (   0.1666667   0.0962250   1.4802035  )
        10           Zn  tau(  10) = (  -0.0000000   0.1924501   1.1842378  )
        11           O   tau(  11) = (   0.1666667   0.0962250   1.7045709  )
        12           O   tau(  12) = (  -0.0000000   0.1924501   1.4086052  )
        13           Zn  tau(  13) = (   0.5000000   0.0962250   0.2963407  )
        14           Zn  tau(  14) = (   0.3333333   0.1924501   0.0003750  )
        15           O   tau(  15) = (   0.5000000   0.0962250   0.5207081  )
        16           O   tau(  16) = (   0.3333333   0.1924501   0.2247424  )
        17           Zn  tau(  17) = (   0.5000000   0.0962250   0.8882721  )
        18           Zn  tau(  18) = (   0.3333333   0.1924501   0.5923064  )
        19           O   tau(  19) = (   0.5000000   0.0962250   1.1126395  )
        20           O   tau(  20) = (   0.3333333   0.1924501   0.8166738  )
        21           Zn  tau(  21) = (   0.5000000   0.0962250   1.4802035  )
        22           Zn  tau(  22) = (   0.3333333   0.1924501   1.1842378  )
        23           O   tau(  23) = (   0.5000000   0.0962250   1.7045709  )
        24           O   tau(  24) = (   0.3333333   0.1924501   1.4086052  )
        25           Zn  tau(  25) = (   0.8333333   0.0962250   0.2963407  )
        26           Zn  tau(  26) = (   0.6666667   0.1924501   0.0003750  )
        27           O   tau(  27) = (   0.8333333   0.0962250   0.5207081  )
        28           O   tau(  28) = (   0.6666667   0.1924501   0.2247424  )
        29           Zn  tau(  29) = (   0.8333333   0.0962250   0.8882721  )
        30           Zn  tau(  30) = (   0.6666667   0.1924501   0.5923064  )
        31           O   tau(  31) = (   0.8333333   0.0962250   1.1126395  )
        32           O   tau(  32) = (   0.6666667   0.1924501   0.8166738  )
        33           Zn  tau(  33) = (   0.8333333   0.0962250   1.4802035  )
        34           Zn  tau(  34) = (   0.6666667   0.1924501   1.1842378  )
        35           O   tau(  35) = (   0.8333333   0.0962250   1.7045709  )
        36           O   tau(  36) = (   0.6666667   0.1924501   1.4086052  )

   Crystallographic axes

     site n.     atom                  positions (cryst. coord.)
         1           Zn  tau(   1) = (  0.2222222  0.3333333  0.1668779  )
         2           Zn  tau(   2) = (  0.1111111  0.6666667  0.0002112  )
         3           O   tau(   3) = (  0.2222222  0.3333333  0.2932255  )
         4           O   tau(   4) = (  0.1111111  0.6666667  0.1265588  )
         5           Zn  tau(   5) = (  0.2222222  0.3333333  0.5002112  )
         6           Zn  tau(   6) = (  0.1111111  0.6666667  0.3335445  )
         7           O   tau(   7) = (  0.2222222  0.3333333  0.6265588  )
         8           O   tau(   8) = (  0.1111111  0.6666667  0.4598921  )
         9           Zn  tau(   9) = (  0.2222222  0.3333333  0.8335445  )
        10           Zn  tau(  10) = (  0.1111111  0.6666667  0.6668779  )
        11           O   tau(  11) = (  0.2222222  0.3333333  0.9598921  )
        12           O   tau(  12) = (  0.1111111  0.6666667  0.7932255  )
        13           Zn  tau(  13) = (  0.5555556  0.3333333  0.1668779  )
        14           Zn  tau(  14) = (  0.4444444  0.6666667  0.0002112  )
        15           O   tau(  15) = (  0.5555556  0.3333333  0.2932255  )
        16           O   tau(  16) = (  0.4444444  0.6666667  0.1265588  )
        17           Zn  tau(  17) = (  0.5555556  0.3333333  0.5002112  )
        18           Zn  tau(  18) = (  0.4444444  0.6666667  0.3335445  )
        19           O   tau(  19) = (  0.5555556  0.3333333  0.6265588  )
        20           O   tau(  20) = (  0.4444444  0.6666667  0.4598921  )
        21           Zn  tau(  21) = (  0.5555556  0.3333333  0.8335445  )
        22           Zn  tau(  22) = (  0.4444444  0.6666667  0.6668779  )
        23           O   tau(  23) = (  0.5555556  0.3333333  0.9598921  )
        24           O   tau(  24) = (  0.4444444  0.6666667  0.7932255  )
        25           Zn  tau(  25) = (  0.8888889  0.3333333  0.1668779  )
        26           Zn  tau(  26) = (  0.7777778  0.6666667  0.0002112  )
        27           O   tau(  27) = (  0.8888889  0.3333333  0.2932255  )
        28           O   tau(  28) = (  0.7777778  0.6666667  0.1265588  )
        29           Zn  tau(  29) = (  0.8888889  0.3333333  0.5002112  )
        30           Zn  tau(  30) = (  0.7777778  0.6666667  0.3335445  )
        31           O   tau(  31) = (  0.8888889  0.3333333  0.6265588  )
        32           O   tau(  32) = (  0.7777778  0.6666667  0.4598921  )
        33           Zn  tau(  33) = (  0.8888889  0.3333333  0.8335445  )
        34           Zn  tau(  34) = (  0.7777778  0.6666667  0.6668779  )
        35           O   tau(  35) = (  0.8888889  0.3333333  0.9598921  )
        36           O   tau(  36) = (  0.7777778  0.6666667  0.7932255  )

     number of k points=    68
                       cart. coord. in units 2pi/alat
        k(    1) = (   0.0000000   0.0000000   0.0000000), wk =   0.0092593
        k(    2) = (   0.0000000   0.0000000   0.0938547), wk =   0.0185185
        k(    3) = (   0.0000000   0.0000000   0.1877094), wk =   0.0185185
        k(    4) = (   0.0000000   0.0000000  -0.2815642), wk =   0.0092593
        k(    5) = (   0.0000000   0.5773503   0.0000000), wk =   0.0370370
        k(    6) = (   0.0000000   0.5773503   0.0938547), wk =   0.0370370
        k(    7) = (   0.0000000   0.5773503   0.1877094), wk =   0.0370370
        k(    8) = (   0.0000000   0.5773503  -0.2815642), wk =   0.0370370
        k(    9) = (   0.0000000   1.1547005   0.0000000), wk =   0.0185185
        k(   10) = (   0.0000000   1.1547005   0.0938547), wk =   0.0370370
        k(   11) = (   0.0000000   1.1547005   0.1877094), wk =   0.0370370
        k(   12) = (   0.0000000   1.1547005  -0.2815642), wk =   0.0185185
        k(   13) = (   0.0000000  -1.7320508   0.0000000), wk =   0.0185185
[...]
     atom   19 type  2   force =    -0.00022230   -0.00012835    0.25437812
     atom   20 type  2   force =     0.00022163    0.00012796    0.25437651
     atom   21 type  1   force =     0.00002276    0.00001314    0.22773782
     atom   22 type  1   force =    -0.00002197   -0.00001268    0.22773495
     atom   23 type  2   force =    -0.00022247   -0.00012844    0.25437775
     atom   24 type  2   force =     0.00022181    0.00012806    0.25437860
     atom   25 type  1   force =     0.00002135    0.00001233    0.22773733
     atom   26 type  1   force =    -0.00002259   -0.00001304    0.22773604
     atom   27 type  2   force =    -0.00022170   -0.00012800    0.25437728
     atom   28 type  2   force =     0.00022270    0.00012858    0.25437846
     atom   29 type  1   force =     0.00002142    0.00001236    0.22774099
     atom   30 type  1   force =    -0.00002256   -0.00001302    0.22773826
     atom   31 type  2   force =    -0.00022210   -0.00012823    0.25437830
     atom   32 type  2   force =     0.00022238    0.00012839    0.25437697
     atom   33 type  1   force =     0.00002144    0.00001238    0.22773794
     atom   34 type  1   force =    -0.00002213   -0.00001278    0.22773538
     atom   35 type  2   force =    -0.00022189   -0.00012811    0.25437820
     atom   36 type  2   force =     0.00022229    0.00012834    0.25437862
     The ionic contribution  to forces
     atom    1 type  1   force =     0.00000001    0.00000000    1.76883792
     atom    2 type  1   force =     0.00000001    0.00000000    1.76883796
     atom    3 type  2   force =     0.00000000    0.00000000   -1.76883794
     atom    4 type  2   force =     0.00000000    0.00000000   -1.76883794
     atom    5 type  1   force =     0.00000001    0.00000000    1.76883796
     atom    6 type  1   force =     0.00000001    0.00000000    1.76883792
     atom    7 type  2   force =     0.00000000    0.00000000   -1.76883794
     atom    8 type  2   force =     0.00000000    0.00000000   -1.76883792
     atom    9 type  1   force =     0.00000001    0.00000000    1.76883792
     atom   10 type  1   force =     0.00000001    0.00000000    1.76883792
     atom   11 type  2   force =     0.00000000    0.00000000   -1.76883792
     atom   12 type  2   force =     0.00000000    0.00000000   -1.76883794
     atom   13 type  1   force =    -0.00000001    0.00000000    1.76883792
     atom   14 type  1   force =     0.00000001   -0.00000000    1.76883796
     atom   15 type  2   force =    -0.00000001    0.00000000   -1.76883793
     atom   16 type  2   force =     0.00000001   -0.00000000   -1.76883794
     atom   17 type  1   force =    -0.00000001    0.00000000    1.76883796
     atom   18 type  1   force =     0.00000001   -0.00000000    1.76883792
     atom   19 type  2   force =    -0.00000001    0.00000000   -1.76883794
     atom   20 type  2   force =     0.00000001   -0.00000000   -1.76883792
     atom   21 type  1   force =    -0.00000001    0.00000000    1.76883792
     atom   22 type  1   force =     0.00000001   -0.00000000    1.76883792
     atom   23 type  2   force =    -0.00000001    0.00000000   -1.76883792
     atom   24 type  2   force =     0.00000001   -0.00000000   -1.76883793
     atom   25 type  1   force =    -0.00000001   -0.00000000    1.76883792
     atom   26 type  1   force =    -0.00000001   -0.00000000    1.76883796
     atom   27 type  2   force =    -0.00000000   -0.00000000   -1.76883794
     atom   28 type  2   force =    -0.00000000   -0.00000000   -1.76883794
     atom   29 type  1   force =    -0.00000001   -0.00000000    1.76883796
     atom   30 type  1   force =    -0.00000001   -0.00000000    1.76883792
     atom   31 type  2   force =    -0.00000000   -0.00000000   -1.76883794
     atom   32 type  2   force =    -0.00000000   -0.00000000   -1.76883792
     atom   33 type  1   force =    -0.00000001   -0.00000000    1.76883792
     atom   34 type  1   force =    -0.00000001   -0.00000000    1.76883792
     atom   35 type  2   force =    -0.00000000   -0.00000000   -1.76883792
     atom   36 type  2   force =    -0.00000000   -0.00000000   -1.76883794
     The local contribution  to forces
     atom    1 type  1   force =    -0.00002226   -0.00001285   -1.99036406
     atom    2 type  1   force =     0.00002022    0.00001162   -1.99036496
     atom    3 type  2   force =     0.00020928    0.00012083    1.52417929
     atom    4 type  2   force =    -0.00020985   -0.00012117    1.52418085
     atom    5 type  1   force =    -0.00002035   -0.00001175   -1.99037667
     atom    6 type  1   force =     0.00002115    0.00001216   -1.99036857
     atom    7 type  2   force =     0.00020938    0.00012089    1.52418157
     atom    8 type  2   force =    -0.00020921   -0.00012080    1.52417695
     atom    9 type  1   force =    -0.00002016   -0.00001164   -1.99036717
     atom   10 type  1   force =     0.00001954    0.00001123   -1.99036045
     atom   11 type  2   force =     0.00020945    0.00012092    1.52418044
     atom   12 type  2   force =    -0.00020930   -0.00012085    1.52417995
     atom   13 type  1   force =    -0.00001981   -0.00001134   -1.99036346
     atom   14 type  1   force =     0.00001891    0.00001081   -1.99036681
     atom   15 type  2   force =     0.00020906    0.00012073    1.52417864
     atom   16 type  2   force =    -0.00020973   -0.00012112    1.52418065
     atom   17 type  1   force =    -0.00002251   -0.00001289   -1.99037246
     atom   18 type  1   force =     0.00001790    0.00001023   -1.99036822
     atom   19 type  2   force =     0.00020949    0.00012097    1.52418121
     atom   20 type  2   force =    -0.00021033   -0.00012146    1.52417687
     atom   21 type  1   force =    -0.00002238   -0.00001282   -1.99036628
     atom   22 type  1   force =     0.00002066    0.00001183   -1.99036139
     atom   23 type  2   force =     0.00020903    0.00012071    1.52418006
     atom   24 type  2   force =    -0.00020999   -0.00012126    1.52418010
     atom   25 type  1   force =    -0.00001825   -0.00001048   -1.99036496
     atom   26 type  1   force =     0.00002123    0.00001226   -1.99036447
     atom   27 type  2   force =     0.00021017    0.00012136    1.52417864
     atom   28 type  2   force =    -0.00020875   -0.00012052    1.52418064
     atom   29 type  1   force =    -0.00001746   -0.00001003   -1.99037258
     atom   30 type  1   force =     0.00002135    0.00001233   -1.99037036
     atom   31 type  2   force =     0.00020967    0.00012107    1.52418106
     atom   32 type  2   force =    -0.00020898   -0.00012065    1.52417717
     atom   33 type  1   force =    -0.00001782   -0.00001024   -1.99036633
     atom   34 type  1   force =     0.00002027    0.00001170   -1.99036291
     atom   35 type  2   force =     0.00020993    0.00012122    1.52418057
     atom   36 type  2   force =    -0.00020920   -0.00012078    1.52417979
     The core correction contribution to forces
     atom    1 type  1   force =    -0.00001006   -0.00000575   -0.01361759
     atom    2 type  1   force =     0.00001020    0.00000584   -0.01361606
     atom    3 type  2   force =     0.00000249    0.00000144   -0.00230454
     atom    4 type  2   force =    -0.00000249   -0.00000144   -0.00230438
     atom    5 type  1   force =    -0.00001008   -0.00000576   -0.01361749
     atom    6 type  1   force =     0.00001020    0.00000584   -0.01361601
     atom    7 type  2   force =     0.00000248    0.00000144   -0.00230454
     atom    8 type  2   force =    -0.00000250   -0.00000144   -0.00230436
     atom    9 type  1   force =    -0.00001009   -0.00000577   -0.01361754
     atom   10 type  1   force =     0.00001024    0.00000587   -0.01361612
     atom   11 type  2   force =     0.00000249    0.00000144   -0.00230454
     atom   12 type  2   force =    -0.00000249   -0.00000144   -0.00230439
     atom   13 type  1   force =    -0.00001012   -0.00000583   -0.01361760
     atom   14 type  1   force =     0.00001010    0.00000582   -0.01361600
     atom   15 type  2   force =     0.00000252    0.00000146   -0.00230454
     atom   16 type  2   force =    -0.00000251   -0.00000146   -0.00230439
     atom   17 type  1   force =    -0.00001004   -0.00000579   -0.01361756
     atom   18 type  1   force =     0.00001011    0.00000583   -0.01361599
     atom   19 type  2   force =     0.00000252    0.00000146   -0.00230454
     atom   20 type  2   force =    -0.00000251   -0.00000146   -0.00230437
     atom   21 type  1   force =    -0.00001005   -0.00000580   -0.01361756
     atom   22 type  1   force =     0.00001006    0.00000580   -0.01361607
     atom   23 type  2   force =     0.00000252    0.00000146   -0.00230454
     atom   24 type  2   force =    -0.00000251   -0.00000146   -0.00230439
     atom   25 type  1   force =    -0.00001024   -0.00000586   -0.01361757
     atom   26 type  1   force =     0.00001012    0.00000579   -0.01361603
     atom   27 type  2   force =     0.00000248    0.00000144   -0.00230454
     atom   28 type  2   force =    -0.00000249   -0.00000144   -0.00230439
     atom   29 type  1   force =    -0.00001030   -0.00000589   -0.01361755
     atom   30 type  1   force =     0.00001011    0.00000578   -0.01361595
     atom   31 type  2   force =     0.00000249    0.00000144   -0.00230455
     atom   32 type  2   force =    -0.00000248   -0.00000144   -0.00230437
     atom   33 type  1   force =    -0.00001028   -0.00000588   -0.01361756
     atom   34 type  1   force =     0.00001012    0.00000579   -0.01361604
     atom   35 type  2   force =     0.00000249    0.00000144   -0.00230455
     atom   36 type  2   force =    -0.00000248   -0.00000144   -0.00230439
     The Hubbard contrib.    to forces
     atom    1 type  1   force =     0.00000000    0.00000000    0.00000000
     atom    2 type  1   force =     0.00000000    0.00000000    0.00000000
     atom    3 type  2   force =     0.00000000    0.00000000    0.00000000
     atom    4 type  2   force =     0.00000000    0.00000000    0.00000000
     atom    5 type  1   force =     0.00000000    0.00000000    0.00000000
     atom    6 type  1   force =     0.00000000    0.00000000    0.00000000
     atom    7 type  2   force =     0.00000000    0.00000000    0.00000000
     atom    8 type  2   force =     0.00000000    0.00000000    0.00000000
     atom    9 type  1   force =     0.00000000    0.00000000    0.00000000
     atom   10 type  1   force =     0.00000000    0.00000000    0.00000000
     atom   11 type  2   force =     0.00000000    0.00000000    0.00000000
     atom   12 type  2   force =     0.00000000    0.00000000    0.00000000
     atom   13 type  1   force =     0.00000000    0.00000000    0.00000000
     atom   14 type  1   force =     0.00000000    0.00000000    0.00000000
     atom   15 type  2   force =     0.00000000    0.00000000    0.00000000
     atom   16 type  2   force =     0.00000000    0.00000000    0.00000000
     atom   17 type  1   force =     0.00000000    0.00000000    0.00000000
     atom   18 type  1   force =     0.00000000    0.00000000    0.00000000
     atom   19 type  2   force =     0.00000000    0.00000000    0.00000000
     atom   20 type  2   force =     0.00000000    0.00000000    0.00000000
     atom   21 type  1   force =     0.00000000    0.00000000    0.00000000
     atom   22 type  1   force =     0.00000000    0.00000000    0.00000000
     atom   23 type  2   force =     0.00000000    0.00000000    0.00000000
     atom   24 type  2   force =     0.00000000    0.00000000    0.00000000
     atom   25 type  1   force =     0.00000000    0.00000000    0.00000000
     atom   26 type  1   force =     0.00000000    0.00000000    0.00000000
     atom   27 type  2   force =     0.00000000    0.00000000    0.00000000
     atom   28 type  2   force =     0.00000000    0.00000000    0.00000000
     atom   29 type  1   force =     0.00000000    0.00000000    0.00000000
     atom   30 type  1   force =     0.00000000    0.00000000    0.00000000
     atom   31 type  2   force =     0.00000000    0.00000000    0.00000000
     atom   32 type  2   force =     0.00000000    0.00000000    0.00000000
     atom   33 type  1   force =     0.00000000    0.00000000    0.00000000
     atom   34 type  1   force =     0.00000000    0.00000000    0.00000000
     atom   35 type  2   force =     0.00000000    0.00000000    0.00000000
     atom   36 type  2   force =     0.00000000    0.00000000    0.00000000
     The SCF correction term to forces
     atom    1 type  1   force =     0.00000272    0.00000157   -0.00001205
     atom    2 type  1   force =    -0.00000040   -0.00000023   -0.00001104
     atom    3 type  2   force =     0.00000032    0.00000019   -0.00000182
     atom    4 type  2   force =     0.00000053    0.00000030   -0.00000389
     atom    5 type  1   force =     0.00000050    0.00000029    0.00000230
     atom    6 type  1   force =    -0.00000139   -0.00000080   -0.00000662
     atom    7 type  2   force =     0.00000013    0.00000007   -0.00000386
     atom    8 type  2   force =    -0.00000065   -0.00000038    0.00000169
     atom    9 type  1   force =     0.00000015    0.00000009   -0.00000835
     atom   10 type  1   force =     0.00000079    0.00000046   -0.00001608
     atom   11 type  2   force =     0.00000012    0.00000007   -0.00000274
     atom   12 type  2   force =    -0.00000050   -0.00000029   -0.00000340
     atom   13 type  1   force =    -0.00000059   -0.00000034   -0.00001250
     atom   14 type  1   force =     0.00000147    0.00000085   -0.00000860
     atom   15 type  2   force =     0.00000061    0.00000035   -0.00000126
     atom   16 type  2   force =     0.00000057    0.00000033   -0.00000372
     atom   17 type  1   force =     0.00000299    0.00000173   -0.00000267
     atom   18 type  1   force =     0.00000264    0.00000152   -0.00000699
     atom   19 type  2   force =     0.00000001    0.00000001   -0.00000364
     atom   20 type  2   force =     0.00000135    0.00000078    0.00000147
     atom   21 type  1   force =     0.00000263    0.00000152   -0.00000917
     atom   22 type  1   force =    -0.00000082   -0.00000048   -0.00001498
     atom   23 type  2   force =     0.00000055    0.00000032   -0.00000248
     atom   24 type  2   force =     0.00000090    0.00000052   -0.00000342
     atom   25 type  1   force =    -0.00000210   -0.00000122   -0.00001092
     atom   26 type  1   force =    -0.00000114   -0.00000066   -0.00001144
     atom   27 type  2   force =    -0.00000111   -0.00000064   -0.00000078
     atom   28 type  2   force =    -0.00000107   -0.00000062   -0.00000369
     atom   29 type  1   force =    -0.00000344   -0.00000199   -0.00000251
     atom   30 type  1   force =    -0.00000141   -0.00000081   -0.00000426
     atom   31 type  2   force =    -0.00000030   -0.00000017   -0.00000363
     atom   32 type  2   force =    -0.00000057   -0.00000033    0.00000088
     atom   33 type  1   force =    -0.00000282   -0.00000163   -0.00000921
     atom   34 type  1   force =    -0.00000021   -0.00000012   -0.00001290
     atom   35 type  2   force =    -0.00000073   -0.00000042   -0.00000328
     atom   36 type  2   force =    -0.00000031   -0.00000018   -0.00000309

     Total force =     0.044489     Total SCF correction =     0.000045

     General routines

     Parallel routines

   This run was terminated on:  14: 0:33   2Sep2025

   JOB DONE.
Note: The following floating-point exceptions are signalling: IEEE_INVALID_FLAG
Note: The following floating-point exceptions are signalling: IEEE_INVALID_FLAG
Note: The following floating-point exceptions are signalling: IEEE_INVALID_FLAG
Note: The following floating-point exceptions are signalling: IEEE_INVALID_FLAG
Note: The following floating-point exceptions are signalling: IEEE_INVALID_FLAG
Note: The following floating-point exceptions are signalling: IEEE_INVALID_FLAG
Note: The following floating-point exceptions are signalling: IEEE_INVALID_FLAG
Note: The following floating-point exceptions are signalling: IEEE_INVALID_FLAG
Note: The following floating-point exceptions are signalling: IEEE_INVALID_FLAG
Note: The following floating-point exceptions are signalling: IEEE_INVALID_FLAG
Note: The following floating-point exceptions are signalling: IEEE_INVALID_FLAG
Note: The following floating-point exceptions are signalling: IEEE_INVALID_FLAG
Note: The following floating-point exceptions are signalling: IEEE_INVALID_FLAG
Note: The following floating-point exceptions are signalling: IEEE_INVALID_FLAG
Note: The following floating-point exceptions are signalling: IEEE_INVALID_FLAG
Note: The following floating-point exceptions are signalling: IEEE_INVALID_FLAG
Note: The following floating-point exceptions are signalling: IEEE_INVALID_FLAG