     Program PWSCF v.7.2 starts on  4Sep2025 at  8:48:24

     Reading input from ZnO-3.14-1.45-313.in
Warning: card &CELL ignored
Warning: card / ignored
Warning: card &FCP ignored
Warning: card / ignored
Warning: card &RISM ignored
Warning: card / ignored

     Current dimensions of program PWSCF are:
     Max number of different atomic species (ntypx) = 10
     Max number of k-points (npk) =  40000
     Max angular momentum in pseudopotentials (lmaxx) =  4
     file Zn.upf: wavefunction(s)  3D renormalized
     Found identity + (  0.0000  0.0000  0.3333) symmetry
     This is a supercell, fractional translations are disabled
     Message from routine setup:
     using ibrav=0 with symmetry is DISCOURAGED, use correct ibrav instead

     K-points division:     npool     =       4
     R & G space division:  proc/nbgrp/npool/nimage =       4
     Subspace diagonalization in iterative solution of the eigenvalue problem:
     one sub-group per band group will be used

     Using Slab Decomposition

     bravais-lattice index     =            0
     lattice parameter (alat)  =      17.7951  a.u.
     unit-cell volume          =    2363.4863 (a.u.)^3
     number of atoms/cell      =           36
     number of atomic types    =            2
     number of electrons       =       324.00
     number of Kohn-Sham states=          162
     kinetic-energy cutoff     =      50.0000  Ry
     charge density cutoff     =     400.0000  Ry
     scf convergence threshold =      1.0E-08
     mixing beta               =       0.3000
     number of iterations used =            8  plain     mixing
     Exchange-correlation= PBE
                           (   1   4   3   4   0   0   0)

     celldm(1)=  17.795099  celldm(2)=   0.000000  celldm(3)=   0.000000
     celldm(4)=   0.000000  celldm(5)=   0.000000  celldm(6)=   0.000000

     crystal axes: (cart. coord. in units of alat)
               a(1) = (   1.000000   0.000000   0.000000 )
               a(2) = (  -0.166667   0.288675   0.000000 )
               a(3) = (   0.000000   0.000000   1.452923 )

     reciprocal axes: (cart. coord. in units 2 pi/alat)
               b(1) = (  1.000000  0.577350 -0.000000 )
               b(2) = (  0.000000  3.464102  0.000000 )
               b(3) = (  0.000000 -0.000000  0.688268 )

     PseudoPot. # 1 for Zn read from file:
     /home/jvc/QEspresso7.2/ZnO_database/pseudos/Zn.upf
     MD5 check sum: 7f56cabf9682ed8c977c2f7d0c5985c5
     Pseudo is Ultrasoft + core correction, Zval = 12.0
     Generated using &quot;atomic&quot; code by A. Dal Corso  v.6.2.2
     Using radial grid of 1201 points,  6 beta functions with:
                l(1) =   0
                l(2) =   0
                l(3) =   1
                l(4) =   1
                l(5) =   2
                l(6) =   2
     Q(r) pseudized with 0 coefficients

     PseudoPot. # 2 for O  read from file:
     /home/jvc/QEspresso7.2/ZnO_database/pseudos/O.upf
     MD5 check sum: 91400c9766925bcf19f520983a725ff0
     Pseudo is Ultrasoft + core correction, Zval =  6.0
     Generated using &quot;atomic&quot; code by A. Dal Corso  v.6.3MaX
     Using radial grid of 1095 points,  4 beta functions with:
                l(1) =   0
                l(2) =   0
                l(3) =   1
                l(4) =   1
     Q(r) pseudized with 0 coefficients

     atomic species   valence    mass     pseudopotential
        Zn            12.00    65.38000     Zn( 1.00)
        O              6.00    15.99900     O ( 1.00)

      2 Sym. Ops. (no inversion) found

                                    s                        frac. trans.

      isym =  1     identity

 cryst.   s( 1) = (     1          0          0      )
                  (     0          1          0      )
                  (     0          0          1      )

 cart.    s( 1) = (  1.0000000  0.0000000  0.0000000 )
                  (  0.0000000  1.0000000  0.0000000 )
                  (  0.0000000  0.0000000  1.0000000 )

      isym =  2     inv. 180 deg rotation - cryst. axis [0,1,0]

 cryst.   s( 2) = (     1          3          0      )
                  (     0         -1          0      )
                  (     0          0          1      )

 cart.    s( 2) = (  0.5000000  0.8660254  0.0000000 )
                  (  0.8660254 -0.5000000  0.0000000 )
                  (  0.0000000  0.0000000  1.0000000 )

   Cartesian axes

     site n.     atom                  positions (alat units)
         1           Zn  tau(   1) = (   0.1666667   0.0962250   0.2424606  )
         2           Zn  tau(   2) = (  -0.0000000   0.1924501   0.0003069  )
         3           O   tau(   3) = (   0.1666667   0.0962250   0.4260339  )
         4           O   tau(   4) = (  -0.0000000   0.1924501   0.1838801  )
         5           Zn  tau(   5) = (   0.1666667   0.0962250   0.7267681  )
         6           Zn  tau(   6) = (  -0.0000000   0.1924501   0.4846144  )
         7           O   tau(   7) = (   0.1666667   0.0962250   0.9103414  )
         8           O   tau(   8) = (  -0.0000000   0.1924501   0.6681876  )
         9           Zn  tau(   9) = (   0.1666667   0.0962250   1.2110756  )
        10           Zn  tau(  10) = (  -0.0000000   0.1924501   0.9689219  )
        11           O   tau(  11) = (   0.1666667   0.0962250   1.3946489  )
        12           O   tau(  12) = (  -0.0000000   0.1924501   1.1524952  )
        13           Zn  tau(  13) = (   0.5000000   0.0962250   0.2424606  )
        14           Zn  tau(  14) = (   0.3333333   0.1924501   0.0003069  )
        15           O   tau(  15) = (   0.5000000   0.0962250   0.4260339  )
        16           O   tau(  16) = (   0.3333333   0.1924501   0.1838801  )
        17           Zn  tau(  17) = (   0.5000000   0.0962250   0.7267681  )
        18           Zn  tau(  18) = (   0.3333333   0.1924501   0.4846144  )
        19           O   tau(  19) = (   0.5000000   0.0962250   0.9103414  )
        20           O   tau(  20) = (   0.3333333   0.1924501   0.6681876  )
        21           Zn  tau(  21) = (   0.5000000   0.0962250   1.2110756  )
        22           Zn  tau(  22) = (   0.3333333   0.1924501   0.9689219  )
        23           O   tau(  23) = (   0.5000000   0.0962250   1.3946489  )
        24           O   tau(  24) = (   0.3333333   0.1924501   1.1524952  )
        25           Zn  tau(  25) = (   0.8333333   0.0962250   0.2424606  )
        26           Zn  tau(  26) = (   0.6666667   0.1924501   0.0003069  )
        27           O   tau(  27) = (   0.8333333   0.0962250   0.4260339  )
        28           O   tau(  28) = (   0.6666667   0.1924501   0.1838801  )
        29           Zn  tau(  29) = (   0.8333333   0.0962250   0.7267681  )
        30           Zn  tau(  30) = (   0.6666667   0.1924501   0.4846144  )
        31           O   tau(  31) = (   0.8333333   0.0962250   0.9103414  )
        32           O   tau(  32) = (   0.6666667   0.1924501   0.6681876  )
        33           Zn  tau(  33) = (   0.8333333   0.0962250   1.2110756  )
        34           Zn  tau(  34) = (   0.6666667   0.1924501   0.9689219  )
        35           O   tau(  35) = (   0.8333333   0.0962250   1.3946489  )
        36           O   tau(  36) = (   0.6666667   0.1924501   1.1524952  )

   Crystallographic axes

     site n.     atom                  positions (cryst. coord.)
         1           Zn  tau(   1) = (  0.2222222  0.3333333  0.1668779  )
         2           Zn  tau(   2) = (  0.1111111  0.6666667  0.0002112  )
         3           O   tau(   3) = (  0.2222222  0.3333333  0.2932255  )
         4           O   tau(   4) = (  0.1111111  0.6666667  0.1265588  )
         5           Zn  tau(   5) = (  0.2222222  0.3333333  0.5002112  )
         6           Zn  tau(   6) = (  0.1111111  0.6666667  0.3335445  )
         7           O   tau(   7) = (  0.2222222  0.3333333  0.6265588  )
         8           O   tau(   8) = (  0.1111111  0.6666667  0.4598921  )
         9           Zn  tau(   9) = (  0.2222222  0.3333333  0.8335445  )
        10           Zn  tau(  10) = (  0.1111111  0.6666667  0.6668779  )
        11           O   tau(  11) = (  0.2222222  0.3333333  0.9598921  )
        12           O   tau(  12) = (  0.1111111  0.6666667  0.7932255  )
        13           Zn  tau(  13) = (  0.5555556  0.3333333  0.1668779  )
        14           Zn  tau(  14) = (  0.4444444  0.6666667  0.0002112  )
        15           O   tau(  15) = (  0.5555556  0.3333333  0.2932255  )
        16           O   tau(  16) = (  0.4444444  0.6666667  0.1265588  )
        17           Zn  tau(  17) = (  0.5555556  0.3333333  0.5002112  )
        18           Zn  tau(  18) = (  0.4444444  0.6666667  0.3335445  )
        19           O   tau(  19) = (  0.5555556  0.3333333  0.6265588  )
        20           O   tau(  20) = (  0.4444444  0.6666667  0.4598921  )
        21           Zn  tau(  21) = (  0.5555556  0.3333333  0.8335445  )
        22           Zn  tau(  22) = (  0.4444444  0.6666667  0.6668779  )
        23           O   tau(  23) = (  0.5555556  0.3333333  0.9598921  )
        24           O   tau(  24) = (  0.4444444  0.6666667  0.7932255  )
        25           Zn  tau(  25) = (  0.8888889  0.3333333  0.1668779  )
        26           Zn  tau(  26) = (  0.7777778  0.6666667  0.0002112  )
        27           O   tau(  27) = (  0.8888889  0.3333333  0.2932255  )
        28           O   tau(  28) = (  0.7777778  0.6666667  0.1265588  )
        29           Zn  tau(  29) = (  0.8888889  0.3333333  0.5002112  )
        30           Zn  tau(  30) = (  0.7777778  0.6666667  0.3335445  )
        31           O   tau(  31) = (  0.8888889  0.3333333  0.6265588  )
        32           O   tau(  32) = (  0.7777778  0.6666667  0.4598921  )
        33           Zn  tau(  33) = (  0.8888889  0.3333333  0.8335445  )
        34           Zn  tau(  34) = (  0.7777778  0.6666667  0.6668779  )
        35           O   tau(  35) = (  0.8888889  0.3333333  0.9598921  )
        36           O   tau(  36) = (  0.7777778  0.6666667  0.7932255  )

     number of k points=    68
                       cart. coord. in units 2pi/alat
        k(    1) = (   0.0000000   0.0000000   0.0000000), wk =   0.0092593
        k(    2) = (   0.0000000   0.0000000   0.1147113), wk =   0.0185185
        k(    3) = (   0.0000000   0.0000000   0.2294226), wk =   0.0185185
        k(    4) = (   0.0000000   0.0000000  -0.3441340), wk =   0.0092593
        k(    5) = (   0.0000000   0.5773503   0.0000000), wk =   0.0370370
        k(    6) = (   0.0000000   0.5773503   0.1147113), wk =   0.0370370
        k(    7) = (   0.0000000   0.5773503   0.2294226), wk =   0.0370370
        k(    8) = (   0.0000000   0.5773503  -0.3441340), wk =   0.0370370
        k(    9) = (   0.0000000   1.1547005   0.0000000), wk =   0.0185185
        k(   10) = (   0.0000000   1.1547005   0.1147113), wk =   0.0370370
        k(   11) = (   0.0000000   1.1547005   0.2294226), wk =   0.0370370
        k(   12) = (   0.0000000   1.1547005  -0.3441340), wk =   0.0185185
        k(   13) = (   0.0000000  -1.7320508   0.0000000), wk =   0.0185185
[...]
     atom   10 type  1   force =     0.00001592    0.00000919   -0.34949865
     atom   11 type  2   force =    -0.00014448   -0.00008341   -0.20753520
     atom   12 type  2   force =     0.00014471    0.00008355   -0.20753483
     atom   13 type  1   force =    -0.00001584   -0.00000915   -0.34949673
     atom   14 type  1   force =     0.00001578    0.00000911   -0.34949793
     atom   15 type  2   force =    -0.00014461   -0.00008349   -0.20753550
     atom   16 type  2   force =     0.00014450    0.00008343   -0.20753577
     atom   17 type  1   force =    -0.00001606   -0.00000927   -0.34949760
     atom   18 type  1   force =     0.00001605    0.00000927   -0.34949723
     atom   19 type  2   force =    -0.00014446   -0.00008340   -0.20753494
     atom   20 type  2   force =     0.00014451    0.00008343   -0.20753570
     atom   21 type  1   force =    -0.00001577   -0.00000910   -0.34949929
     atom   22 type  1   force =     0.00001590    0.00000918   -0.34949831
     atom   23 type  2   force =    -0.00014476   -0.00008358   -0.20753509
     atom   24 type  2   force =     0.00014461    0.00008349   -0.20753442
     atom   25 type  1   force =    -0.00001586   -0.00000916   -0.34949723
     atom   26 type  1   force =     0.00001629    0.00000941   -0.34949829
     atom   27 type  2   force =    -0.00014480   -0.00008360   -0.20753568
     atom   28 type  2   force =     0.00014480    0.00008360   -0.20753572
     atom   29 type  1   force =    -0.00001534   -0.00000885   -0.34949789
     atom   30 type  1   force =     0.00001578    0.00000911   -0.34949746
     atom   31 type  2   force =    -0.00014497   -0.00008370   -0.20753491
     atom   32 type  2   force =     0.00014473    0.00008356   -0.20753532
     atom   33 type  1   force =    -0.00001577   -0.00000911   -0.34949827
     atom   34 type  1   force =     0.00001575    0.00000909   -0.34949822
     atom   35 type  2   force =    -0.00014487   -0.00008364   -0.20753504
     atom   36 type  2   force =     0.00014472    0.00008356   -0.20753486
     The ionic contribution  to forces
     atom    1 type  1   force =     0.00000001    0.00000001   -2.45246309
     atom    2 type  1   force =     0.00000001    0.00000000   -2.45246304
     atom    3 type  2   force =     0.00000000    0.00000000    2.45246307
     atom    4 type  2   force =     0.00000001    0.00000000    2.45246306
     atom    5 type  1   force =     0.00000001    0.00000001   -2.45246304
     atom    6 type  1   force =     0.00000001    0.00000000   -2.45246309
     atom    7 type  2   force =     0.00000000    0.00000000    2.45246306
     atom    8 type  2   force =     0.00000001    0.00000000    2.45246309
     atom    9 type  1   force =     0.00000001    0.00000001   -2.45246309
     atom   10 type  1   force =     0.00000001    0.00000000   -2.45246309
     atom   11 type  2   force =     0.00000000    0.00000000    2.45246309
     atom   12 type  2   force =     0.00000001    0.00000000    2.45246307
     atom   13 type  1   force =    -0.00000001    0.00000000   -2.45246309
     atom   14 type  1   force =     0.00000001   -0.00000000   -2.45246305
     atom   15 type  2   force =    -0.00000001    0.00000000    2.45246308
     atom   16 type  2   force =     0.00000001   -0.00000000    2.45246306
     atom   17 type  1   force =    -0.00000001    0.00000000   -2.45246305
     atom   18 type  1   force =     0.00000001   -0.00000000   -2.45246309
     atom   19 type  2   force =    -0.00000001    0.00000000    2.45246306
     atom   20 type  2   force =     0.00000001   -0.00000000    2.45246309
     atom   21 type  1   force =    -0.00000001    0.00000000   -2.45246309
     atom   22 type  1   force =     0.00000001   -0.00000000   -2.45246309
     atom   23 type  2   force =    -0.00000001    0.00000000    2.45246309
     atom   24 type  2   force =     0.00000001   -0.00000000    2.45246308
     atom   25 type  1   force =    -0.00000001   -0.00000000   -2.45246309
     atom   26 type  1   force =    -0.00000001   -0.00000001   -2.45246304
     atom   27 type  2   force =    -0.00000001   -0.00000000    2.45246307
     atom   28 type  2   force =    -0.00000000   -0.00000000    2.45246306
     atom   29 type  1   force =    -0.00000001   -0.00000000   -2.45246304
     atom   30 type  1   force =    -0.00000001   -0.00000001   -2.45246309
     atom   31 type  2   force =    -0.00000001   -0.00000000    2.45246306
     atom   32 type  2   force =    -0.00000000   -0.00000000    2.45246309
     atom   33 type  1   force =    -0.00000001   -0.00000000   -2.45246309
     atom   34 type  1   force =    -0.00000001   -0.00000001   -2.45246309
     atom   35 type  2   force =    -0.00000001   -0.00000000    2.45246309
     atom   36 type  2   force =    -0.00000000   -0.00000000    2.45246307
     The local contribution  to forces
     atom    1 type  1   force =     0.00003020    0.00001743    2.64891073
     atom    2 type  1   force =    -0.00002891   -0.00001674    2.64891222
     atom    3 type  2   force =     0.00014169    0.00008180   -2.12600778
     atom    4 type  2   force =    -0.00014158   -0.00008175   -2.12600730
     atom    5 type  1   force =     0.00003152    0.00001820    2.64891054
     atom    6 type  1   force =    -0.00002912   -0.00001686    2.64890699
     atom    7 type  2   force =     0.00014145    0.00008167   -2.12600610
     atom    8 type  2   force =    -0.00014155   -0.00008173   -2.12600755
     atom    9 type  1   force =     0.00003069    0.00001772    2.64891396
     atom   10 type  1   force =    -0.00003102   -0.00001796    2.64891360
     atom   11 type  2   force =     0.00014245    0.00008225   -2.12600640
     atom   12 type  2   force =    -0.00014169   -0.00008182   -2.12600582
     atom   13 type  1   force =     0.00003104    0.00001802    2.64890763
     atom   14 type  1   force =    -0.00003003   -0.00001743    2.64891048
     atom   15 type  2   force =     0.00014155    0.00008175   -2.12600799
     atom   16 type  2   force =    -0.00014192   -0.00008196   -2.12600812
     atom   17 type  1   force =     0.00003175    0.00001843    2.64890987
     atom   18 type  1   force =    -0.00003211   -0.00001863    2.64890957
     atom   19 type  2   force =     0.00014214    0.00008209   -2.12600681
     atom   20 type  2   force =    -0.00014161   -0.00008178   -2.12600704
     atom   21 type  1   force =     0.00003086    0.00001791    2.64891624
     atom   22 type  1   force =    -0.00003121   -0.00001812    2.64891241
     atom   23 type  2   force =     0.00014164    0.00008180   -2.12600613
     atom   24 type  2   force =    -0.00014191   -0.00008196   -2.12600522
     atom   25 type  1   force =     0.00003073    0.00001779    2.64890844
     atom   26 type  1   force =    -0.00003311   -0.00001912    2.64891260
     atom   27 type  2   force =     0.00014230    0.00008217   -2.12600785
     atom   28 type  2   force =    -0.00014223   -0.00008211   -2.12600772
     atom   29 type  1   force =     0.00002852    0.00001651    2.64891116
     atom   30 type  1   force =    -0.00003061   -0.00001767    2.64891116
     atom   31 type  2   force =     0.00014194    0.00008196   -2.12600629
     atom   32 type  2   force =    -0.00014209   -0.00008204   -2.12600668
     atom   33 type  1   force =     0.00003054    0.00001768    2.64891153
     atom   34 type  1   force =    -0.00002988   -0.00001725    2.64891256
     atom   35 type  2   force =     0.00014169    0.00008182   -2.12600671
     atom   36 type  2   force =    -0.00014203   -0.00008200   -2.12600565
     The core correction contribution to forces
     atom    1 type  1   force =    -0.00000193   -0.00000112    0.03301155
     atom    2 type  1   force =     0.00000192    0.00000110    0.03301155
     atom    3 type  2   force =     0.00000165    0.00000095    0.00111725
     atom    4 type  2   force =    -0.00000166   -0.00000096    0.00111725
     atom    5 type  1   force =    -0.00000197   -0.00000114    0.03301153
     atom    6 type  1   force =     0.00000191    0.00000110    0.03301161
     atom    7 type  2   force =     0.00000165    0.00000095    0.00111724
     atom    8 type  2   force =    -0.00000165   -0.00000095    0.00111724
     atom    9 type  1   force =    -0.00000193   -0.00000111    0.03301155
     atom   10 type  1   force =     0.00000194    0.00000112    0.03301154
     atom   11 type  2   force =     0.00000165    0.00000095    0.00111725
     atom   12 type  2   force =    -0.00000165   -0.00000095    0.00111724
     atom   13 type  1   force =    -0.00000196   -0.00000112    0.03301159
     atom   14 type  1   force =     0.00000193    0.00000110    0.03301159
     atom   15 type  2   force =     0.00000165    0.00000095    0.00111724
     atom   16 type  2   force =    -0.00000165   -0.00000095    0.00111725
     atom   17 type  1   force =    -0.00000197   -0.00000113    0.03301159
     atom   18 type  1   force =     0.00000199    0.00000113    0.03301156
     atom   19 type  2   force =     0.00000165    0.00000095    0.00111724
     atom   20 type  2   force =    -0.00000165   -0.00000095    0.00111725
     atom   21 type  1   force =    -0.00000196   -0.00000112    0.03301152
     atom   22 type  1   force =     0.00000196    0.00000112    0.03301154
     atom   23 type  2   force =     0.00000165    0.00000095    0.00111724
     atom   24 type  2   force =    -0.00000165   -0.00000095    0.00111724
     atom   25 type  1   force =    -0.00000194   -0.00000112    0.03301160
     atom   26 type  1   force =     0.00000200    0.00000115    0.03301155
     atom   27 type  2   force =     0.00000166    0.00000096    0.00111725
     atom   28 type  2   force =    -0.00000166   -0.00000096    0.00111725
     atom   29 type  1   force =    -0.00000191   -0.00000109    0.03301156
     atom   30 type  1   force =     0.00000195    0.00000113    0.03301152
     atom   31 type  2   force =     0.00000166    0.00000096    0.00111724
     atom   32 type  2   force =    -0.00000165   -0.00000096    0.00111725
     atom   33 type  1   force =    -0.00000195   -0.00000112    0.03301158
     atom   34 type  1   force =     0.00000193    0.00000111    0.03301154
     atom   35 type  2   force =     0.00000166    0.00000096    0.00111724
     atom   36 type  2   force =    -0.00000165   -0.00000096    0.00111724
     The Hubbard contrib.    to forces
     atom    1 type  1   force =     0.00000000    0.00000000    0.00000000
     atom    2 type  1   force =     0.00000000    0.00000000    0.00000000
     atom    3 type  2   force =     0.00000000    0.00000000    0.00000000
     atom    4 type  2   force =     0.00000000    0.00000000    0.00000000
     atom    5 type  1   force =     0.00000000    0.00000000    0.00000000
     atom    6 type  1   force =     0.00000000    0.00000000    0.00000000
     atom    7 type  2   force =     0.00000000    0.00000000    0.00000000
     atom    8 type  2   force =     0.00000000    0.00000000    0.00000000
     atom    9 type  1   force =     0.00000000    0.00000000    0.00000000
     atom   10 type  1   force =     0.00000000    0.00000000    0.00000000
     atom   11 type  2   force =     0.00000000    0.00000000    0.00000000
     atom   12 type  2   force =     0.00000000    0.00000000    0.00000000
     atom   13 type  1   force =     0.00000000    0.00000000    0.00000000
     atom   14 type  1   force =     0.00000000    0.00000000    0.00000000
     atom   15 type  2   force =     0.00000000    0.00000000    0.00000000
     atom   16 type  2   force =     0.00000000    0.00000000    0.00000000
     atom   17 type  1   force =     0.00000000    0.00000000    0.00000000
     atom   18 type  1   force =     0.00000000    0.00000000    0.00000000
     atom   19 type  2   force =     0.00000000    0.00000000    0.00000000
     atom   20 type  2   force =     0.00000000    0.00000000    0.00000000
     atom   21 type  1   force =     0.00000000    0.00000000    0.00000000
     atom   22 type  1   force =     0.00000000    0.00000000    0.00000000
     atom   23 type  2   force =     0.00000000    0.00000000    0.00000000
     atom   24 type  2   force =     0.00000000    0.00000000    0.00000000
     atom   25 type  1   force =     0.00000000    0.00000000    0.00000000
     atom   26 type  1   force =     0.00000000    0.00000000    0.00000000
     atom   27 type  2   force =     0.00000000    0.00000000    0.00000000
     atom   28 type  2   force =     0.00000000    0.00000000    0.00000000
     atom   29 type  1   force =     0.00000000    0.00000000    0.00000000
     atom   30 type  1   force =     0.00000000    0.00000000    0.00000000
     atom   31 type  2   force =     0.00000000    0.00000000    0.00000000
     atom   32 type  2   force =     0.00000000    0.00000000    0.00000000
     atom   33 type  1   force =     0.00000000    0.00000000    0.00000000
     atom   34 type  1   force =     0.00000000    0.00000000    0.00000000
     atom   35 type  2   force =     0.00000000    0.00000000    0.00000000
     atom   36 type  2   force =     0.00000000    0.00000000    0.00000000
     The SCF correction term to forces
     atom    1 type  1   force =     0.00000003    0.00000002   -0.00000732
     atom    2 type  1   force =    -0.00000138   -0.00000080   -0.00000931
     atom    3 type  2   force =    -0.00000010   -0.00000006    0.00000362
     atom    4 type  2   force =    -0.00000013   -0.00000007    0.00000276
     atom    5 type  1   force =    -0.00000203   -0.00000117   -0.00000739
     atom    6 type  1   force =    -0.00000126   -0.00000073   -0.00000234
     atom    7 type  2   force =     0.00000004    0.00000002    0.00000077
     atom    8 type  2   force =    -0.00000010   -0.00000006    0.00000282
     atom    9 type  1   force =    -0.00000095   -0.00000055   -0.00001171
     atom   10 type  1   force =     0.00000167    0.00000096   -0.00001128
     atom   11 type  2   force =    -0.00000115   -0.00000066    0.00000149
     atom   12 type  2   force =     0.00000018    0.00000010    0.00000057
     atom   13 type  1   force =    -0.00000162   -0.00000094   -0.00000322
     atom   14 type  1   force =    -0.00000002   -0.00000001   -0.00000666
     atom   15 type  2   force =    -0.00000001   -0.00000000    0.00000346
     atom   16 type  2   force =     0.00000042    0.00000024    0.00000395
     atom   17 type  1   force =    -0.00000255   -0.00000147   -0.00000656
     atom   18 type  1   force =     0.00000309    0.00000178   -0.00000580
     atom   19 type  2   force =    -0.00000078   -0.00000045    0.00000183
     atom   20 type  2   force =     0.00000010    0.00000006    0.00000239
     atom   21 type  1   force =    -0.00000138   -0.00000080   -0.00001522
     atom   22 type  1   force =     0.00000192    0.00000111   -0.00000950
     atom   23 type  2   force =    -0.00000010   -0.00000006    0.00000134
     atom   24 type  2   force =     0.00000044    0.00000025   -0.00000075
     atom   25 type  1   force =    -0.00000116   -0.00000067   -0.00000405
     atom   26 type  1   force =     0.00000452    0.00000261   -0.00000998
     atom   27 type  2   force =    -0.00000087   -0.00000050    0.00000346
     atom   28 type  2   force =     0.00000083    0.00000048    0.00000359
     atom   29 type  1   force =     0.00000206    0.00000119   -0.00000821
     atom   30 type  1   force =     0.00000084    0.00000049   -0.00000822
     atom   31 type  2   force =    -0.00000036   -0.00000021    0.00000100
     atom   32 type  2   force =     0.00000073    0.00000042    0.00000173
     atom   33 type  1   force =    -0.00000076   -0.00000044   -0.00000833
     atom   34 type  1   force =    -0.00000054   -0.00000031   -0.00000998
     atom   35 type  2   force =     0.00000005    0.00000003    0.00000169
     atom   36 type  2   force =     0.00000039    0.00000023    0.00000036

     Total force =     0.720259     Total SCF correction =     0.000039

     General routines

     Parallel routines

   This run was terminated on:  10:41:15   4Sep2025

   JOB DONE.
Note: The following floating-point exceptions are signalling: IEEE_DENORMAL
Note: The following floating-point exceptions are signalling: IEEE_DENORMAL
Note: The following floating-point exceptions are signalling: IEEE_DENORMAL
Note: The following floating-point exceptions are signalling: IEEE_INVALID_FLAG
Note: The following floating-point exceptions are signalling: IEEE_INVALID_FLAG
Note: The following floating-point exceptions are signalling: IEEE_INVALID_FLAG
Note: The following floating-point exceptions are signalling: IEEE_INVALID_FLAG
Note: The following floating-point exceptions are signalling: IEEE_DENORMAL