     Program PWSCF v.7.2 starts on  3Sep2025 at 22:12:41

     Reading input from /home/jvc/QEspresso7.2/ZnO_database/scripts/cell313.in/ZnO-3.60-1.58-313.in
Warning: card &CELL ignored
Warning: card / ignored
Warning: card &FCP ignored
Warning: card / ignored
Warning: card &RISM ignored
Warning: card / ignored

     Current dimensions of program PWSCF are:
     Max number of different atomic species (ntypx) = 10
     Max number of k-points (npk) =  40000
     Max angular momentum in pseudopotentials (lmaxx) =  4
     file Zn.upf: wavefunction(s)  3D renormalized
     Found identity + (  0.0000  0.0000  0.3333) symmetry
     This is a supercell, fractional translations are disabled
     Message from routine setup:
     using ibrav=0 with symmetry is DISCOURAGED, use correct ibrav instead

     K-points division:     npool     =      16
     R & G space division:  proc/nbgrp/npool/nimage =       4
     Subspace diagonalization in iterative solution of the eigenvalue problem:
     one sub-group per band group will be used

     Using Slab Decomposition

     bravais-lattice index     =            0
     lattice parameter (alat)  =      20.3902  a.u.
     unit-cell volume          =    3871.6939 (a.u.)^3
     number of atoms/cell      =           36
     number of atomic types    =            2
     number of electrons       =       324.00
     number of Kohn-Sham states=          162
     kinetic-energy cutoff     =      50.0000  Ry
     charge density cutoff     =     400.0000  Ry
     scf convergence threshold =      1.0E-08
     mixing beta               =       0.3000
     number of iterations used =            8  plain     mixing
     Exchange-correlation= PBE
                           (   1   4   3   4   0   0   0)

     celldm(1)=  20.390218  celldm(2)=   0.000000  celldm(3)=   0.000000
     celldm(4)=   0.000000  celldm(5)=   0.000000  celldm(6)=   0.000000

     crystal axes: (cart. coord. in units of alat)
               a(1) = (   1.000000   0.000000   0.000000 )
               a(2) = (  -0.166667   0.288675   0.000000 )
               a(3) = (   0.000000   0.000000   1.582071 )

     reciprocal axes: (cart. coord. in units 2 pi/alat)
               b(1) = (  1.000000  0.577350 -0.000000 )
               b(2) = (  0.000000  3.464102  0.000000 )
               b(3) = (  0.000000 -0.000000  0.632083 )

     PseudoPot. # 1 for Zn read from file:
     /home/jvc/QEspresso7.2/ZnO_database/pseudos/Zn.upf
     MD5 check sum: 7f56cabf9682ed8c977c2f7d0c5985c5
     Pseudo is Ultrasoft + core correction, Zval = 12.0
     Generated using &quot;atomic&quot; code by A. Dal Corso  v.6.2.2
     Using radial grid of 1201 points,  6 beta functions with:
                l(1) =   0
                l(2) =   0
                l(3) =   1
                l(4) =   1
                l(5) =   2
                l(6) =   2
     Q(r) pseudized with 0 coefficients

     PseudoPot. # 2 for O  read from file:
     /home/jvc/QEspresso7.2/ZnO_database/pseudos/O.upf
     MD5 check sum: 91400c9766925bcf19f520983a725ff0
     Pseudo is Ultrasoft + core correction, Zval =  6.0
     Generated using &quot;atomic&quot; code by A. Dal Corso  v.6.3MaX
     Using radial grid of 1095 points,  4 beta functions with:
                l(1) =   0
                l(2) =   0
                l(3) =   1
                l(4) =   1
     Q(r) pseudized with 0 coefficients

     atomic species   valence    mass     pseudopotential
        Zn            12.00    65.38000     Zn( 1.00)
        O              6.00    15.99900     O ( 1.00)

      2 Sym. Ops. (no inversion) found

                                    s                        frac. trans.

      isym =  1     identity

 cryst.   s( 1) = (     1          0          0      )
                  (     0          1          0      )
                  (     0          0          1      )

 cart.    s( 1) = (  1.0000000  0.0000000  0.0000000 )
                  (  0.0000000  1.0000000  0.0000000 )
                  (  0.0000000  0.0000000  1.0000000 )

      isym =  2     inv. 180 deg rotation - cryst. axis [0,1,0]

 cryst.   s( 2) = (     1          3          0      )
                  (     0         -1          0      )
                  (     0          0          1      )

 cart.    s( 2) = (  0.5000000  0.8660254  0.0000000 )
                  (  0.8660254 -0.5000000  0.0000000 )
                  (  0.0000000  0.0000000  1.0000000 )

   Cartesian axes

     site n.     atom                  positions (alat units)
         1           Zn  tau(   1) = (   0.1666667   0.0962250   0.2640127  )
         2           Zn  tau(   2) = (  -0.0000000   0.1924501   0.0003341  )
         3           O   tau(   3) = (   0.1666667   0.0962250   0.4639036  )
         4           O   tau(   4) = (  -0.0000000   0.1924501   0.2002250  )
         5           Zn  tau(   5) = (   0.1666667   0.0962250   0.7913697  )
         6           Zn  tau(   6) = (  -0.0000000   0.1924501   0.5276912  )
         7           O   tau(   7) = (   0.1666667   0.0962250   0.9912606  )
         8           O   tau(   8) = (  -0.0000000   0.1924501   0.7275821  )
         9           Zn  tau(   9) = (   0.1666667   0.0962250   1.3187268  )
        10           Zn  tau(  10) = (  -0.0000000   0.1924501   1.0550483  )
        11           O   tau(  11) = (   0.1666667   0.0962250   1.5186177  )
        12           O   tau(  12) = (  -0.0000000   0.1924501   1.2549392  )
        13           Zn  tau(  13) = (   0.5000000   0.0962250   0.2640127  )
        14           Zn  tau(  14) = (   0.3333333   0.1924501   0.0003341  )
        15           O   tau(  15) = (   0.5000000   0.0962250   0.4639036  )
        16           O   tau(  16) = (   0.3333333   0.1924501   0.2002250  )
        17           Zn  tau(  17) = (   0.5000000   0.0962250   0.7913697  )
        18           Zn  tau(  18) = (   0.3333333   0.1924501   0.5276912  )
        19           O   tau(  19) = (   0.5000000   0.0962250   0.9912606  )
        20           O   tau(  20) = (   0.3333333   0.1924501   0.7275821  )
        21           Zn  tau(  21) = (   0.5000000   0.0962250   1.3187268  )
        22           Zn  tau(  22) = (   0.3333333   0.1924501   1.0550483  )
        23           O   tau(  23) = (   0.5000000   0.0962250   1.5186177  )
        24           O   tau(  24) = (   0.3333333   0.1924501   1.2549392  )
        25           Zn  tau(  25) = (   0.8333333   0.0962250   0.2640127  )
        26           Zn  tau(  26) = (   0.6666667   0.1924501   0.0003341  )
        27           O   tau(  27) = (   0.8333333   0.0962250   0.4639036  )
        28           O   tau(  28) = (   0.6666667   0.1924501   0.2002250  )
        29           Zn  tau(  29) = (   0.8333333   0.0962250   0.7913697  )
        30           Zn  tau(  30) = (   0.6666667   0.1924501   0.5276912  )
        31           O   tau(  31) = (   0.8333333   0.0962250   0.9912606  )
        32           O   tau(  32) = (   0.6666667   0.1924501   0.7275821  )
        33           Zn  tau(  33) = (   0.8333333   0.0962250   1.3187268  )
        34           Zn  tau(  34) = (   0.6666667   0.1924501   1.0550483  )
        35           O   tau(  35) = (   0.8333333   0.0962250   1.5186177  )
        36           O   tau(  36) = (   0.6666667   0.1924501   1.2549392  )

   Crystallographic axes

     site n.     atom                  positions (cryst. coord.)
         1           Zn  tau(   1) = (  0.2222222  0.3333333  0.1668779  )
         2           Zn  tau(   2) = (  0.1111111  0.6666667  0.0002112  )
         3           O   tau(   3) = (  0.2222222  0.3333333  0.2932255  )
         4           O   tau(   4) = (  0.1111111  0.6666667  0.1265588  )
         5           Zn  tau(   5) = (  0.2222222  0.3333333  0.5002112  )
         6           Zn  tau(   6) = (  0.1111111  0.6666667  0.3335445  )
         7           O   tau(   7) = (  0.2222222  0.3333333  0.6265588  )
         8           O   tau(   8) = (  0.1111111  0.6666667  0.4598921  )
         9           Zn  tau(   9) = (  0.2222222  0.3333333  0.8335445  )
        10           Zn  tau(  10) = (  0.1111111  0.6666667  0.6668779  )
        11           O   tau(  11) = (  0.2222222  0.3333333  0.9598921  )
        12           O   tau(  12) = (  0.1111111  0.6666667  0.7932255  )
        13           Zn  tau(  13) = (  0.5555556  0.3333333  0.1668779  )
        14           Zn  tau(  14) = (  0.4444444  0.6666667  0.0002112  )
        15           O   tau(  15) = (  0.5555556  0.3333333  0.2932255  )
        16           O   tau(  16) = (  0.4444444  0.6666667  0.1265588  )
        17           Zn  tau(  17) = (  0.5555556  0.3333333  0.5002112  )
        18           Zn  tau(  18) = (  0.4444444  0.6666667  0.3335445  )
        19           O   tau(  19) = (  0.5555556  0.3333333  0.6265588  )
        20           O   tau(  20) = (  0.4444444  0.6666667  0.4598921  )
        21           Zn  tau(  21) = (  0.5555556  0.3333333  0.8335445  )
        22           Zn  tau(  22) = (  0.4444444  0.6666667  0.6668779  )
        23           O   tau(  23) = (  0.5555556  0.3333333  0.9598921  )
        24           O   tau(  24) = (  0.4444444  0.6666667  0.7932255  )
        25           Zn  tau(  25) = (  0.8888889  0.3333333  0.1668779  )
        26           Zn  tau(  26) = (  0.7777778  0.6666667  0.0002112  )
        27           O   tau(  27) = (  0.8888889  0.3333333  0.2932255  )
        28           O   tau(  28) = (  0.7777778  0.6666667  0.1265588  )
        29           Zn  tau(  29) = (  0.8888889  0.3333333  0.5002112  )
        30           Zn  tau(  30) = (  0.7777778  0.6666667  0.3335445  )
        31           O   tau(  31) = (  0.8888889  0.3333333  0.6265588  )
        32           O   tau(  32) = (  0.7777778  0.6666667  0.4598921  )
        33           Zn  tau(  33) = (  0.8888889  0.3333333  0.8335445  )
        34           Zn  tau(  34) = (  0.7777778  0.6666667  0.6668779  )
        35           O   tau(  35) = (  0.8888889  0.3333333  0.9598921  )
        36           O   tau(  36) = (  0.7777778  0.6666667  0.7932255  )

     number of k points=    68
                       cart. coord. in units 2pi/alat
        k(    1) = (   0.0000000   0.0000000   0.0000000), wk =   0.0092593
        k(    2) = (   0.0000000   0.0000000   0.1053471), wk =   0.0185185
        k(    3) = (   0.0000000   0.0000000   0.2106943), wk =   0.0185185
        k(    4) = (   0.0000000   0.0000000  -0.3160414), wk =   0.0092593
        k(    5) = (   0.0000000   0.5773503   0.0000000), wk =   0.0370370
        k(    6) = (   0.0000000   0.5773503   0.1053471), wk =   0.0370370
        k(    7) = (   0.0000000   0.5773503   0.2106943), wk =   0.0370370
        k(    8) = (   0.0000000   0.5773503  -0.3160414), wk =   0.0370370
        k(    9) = (   0.0000000   1.1547005   0.0000000), wk =   0.0185185
        k(   10) = (   0.0000000   1.1547005   0.1053471), wk =   0.0370370
        k(   11) = (   0.0000000   1.1547005   0.2106943), wk =   0.0370370
        k(   12) = (   0.0000000   1.1547005  -0.3160414), wk =   0.0185185
        k(   13) = (   0.0000000  -1.7320508   0.0000000), wk =   0.0185185
[...]
     atom   34 type  1   force =    -0.00003097   -0.00001788   -0.05474789
     atom   35 type  2   force =    -0.00021340   -0.00012321   -0.04578320
     atom   36 type  2   force =     0.00021421    0.00012367   -0.04578233
     The ionic contribution  to forces
     atom    1 type  1   force =     0.00000001    0.00000000   -0.29605851
     atom    2 type  1   force =     0.00000001    0.00000000   -0.29605848
     atom    3 type  2   force =     0.00000000    0.00000000    0.29605850
     atom    4 type  2   force =     0.00000000    0.00000000    0.29605849
     atom    5 type  1   force =     0.00000001    0.00000000   -0.29605848
     atom    6 type  1   force =     0.00000001    0.00000000   -0.29605851
     atom    7 type  2   force =     0.00000000    0.00000000    0.29605849
     atom    8 type  2   force =     0.00000000    0.00000000    0.29605851
     atom    9 type  1   force =     0.00000001    0.00000000   -0.29605851
     atom   10 type  1   force =     0.00000001    0.00000000   -0.29605851
     atom   11 type  2   force =     0.00000000    0.00000000    0.29605851
     atom   12 type  2   force =     0.00000000    0.00000000    0.29605850
     atom   13 type  1   force =    -0.00000001    0.00000000   -0.29605852
     atom   14 type  1   force =     0.00000001   -0.00000000   -0.29605848
     atom   15 type  2   force =    -0.00000001    0.00000000    0.29605850
     atom   16 type  2   force =     0.00000001   -0.00000000    0.29605850
     atom   17 type  1   force =    -0.00000001    0.00000000   -0.29605848
     atom   18 type  1   force =     0.00000001   -0.00000000   -0.29605852
     atom   19 type  2   force =    -0.00000001    0.00000000    0.29605850
     atom   20 type  2   force =     0.00000001   -0.00000000    0.29605852
     atom   21 type  1   force =    -0.00000001    0.00000000   -0.29605852
     atom   22 type  1   force =     0.00000001   -0.00000000   -0.29605852
     atom   23 type  2   force =    -0.00000001    0.00000000    0.29605852
     atom   24 type  2   force =     0.00000001   -0.00000000    0.29605850
     atom   25 type  1   force =    -0.00000001   -0.00000000   -0.29605851
     atom   26 type  1   force =    -0.00000001   -0.00000000   -0.29605848
     atom   27 type  2   force =    -0.00000000   -0.00000000    0.29605850
     atom   28 type  2   force =    -0.00000000   -0.00000000    0.29605849
     atom   29 type  1   force =    -0.00000001   -0.00000000   -0.29605848
     atom   30 type  1   force =    -0.00000001   -0.00000000   -0.29605851
     atom   31 type  2   force =    -0.00000000   -0.00000000    0.29605849
     atom   32 type  2   force =    -0.00000000   -0.00000000    0.29605851
     atom   33 type  1   force =    -0.00000001   -0.00000000   -0.29605851
     atom   34 type  1   force =    -0.00000001   -0.00000000   -0.29605851
     atom   35 type  2   force =    -0.00000000   -0.00000000    0.29605851
     atom   36 type  2   force =    -0.00000000   -0.00000000    0.29605850
     The local contribution  to forces
     atom    1 type  1   force =    -0.00002338   -0.00001350    0.34868402
     atom    2 type  1   force =     0.00003314    0.00001908    0.34868996
     atom    3 type  2   force =     0.00020970    0.00012107   -0.25175364
     atom    4 type  2   force =    -0.00020104   -0.00011609   -0.25174390
     atom    5 type  1   force =    -0.00003369   -0.00001945    0.34867445
     atom    6 type  1   force =     0.00001453    0.00000833    0.34867456
     atom    7 type  2   force =     0.00020806    0.00012013   -0.25173533
     atom    8 type  2   force =    -0.00020618   -0.00011905   -0.25174540
     atom    9 type  1   force =    -0.00002816   -0.00001626    0.34868681
     atom   10 type  1   force =     0.00003234    0.00001862    0.34869868
     atom   11 type  2   force =     0.00020456    0.00011810   -0.25173832
     atom   12 type  2   force =    -0.00020339   -0.00011744   -0.25174589
     atom   13 type  1   force =    -0.00003529   -0.00002026    0.34868790
     atom   14 type  1   force =     0.00002728    0.00001564    0.34868884
     atom   15 type  2   force =     0.00020129    0.00011625   -0.25175204
     atom   16 type  2   force =    -0.00021118   -0.00012196   -0.25173695
     atom   17 type  1   force =    -0.00002807   -0.00001610    0.34867640
     atom   18 type  1   force =     0.00002831    0.00001624    0.34866875
     atom   19 type  2   force =     0.00020324    0.00011737   -0.25174022
     atom   20 type  2   force =    -0.00020499   -0.00011838   -0.25174516
     atom   21 type  1   force =    -0.00003422   -0.00001964    0.34869376
     atom   22 type  1   force =     0.00002278    0.00001304    0.34869957
     atom   23 type  2   force =     0.00020312    0.00011730   -0.25173896
     atom   24 type  2   force =    -0.00020974   -0.00012112   -0.25174725
     atom   25 type  1   force =    -0.00002845   -0.00001637    0.34870345
     atom   26 type  1   force =     0.00002600    0.00001501    0.34868851
     atom   27 type  2   force =     0.00020691    0.00011948   -0.25174756
     atom   28 type  2   force =    -0.00020525   -0.00011850   -0.25174274
     atom   29 type  1   force =    -0.00002484   -0.00001429    0.34867176
     atom   30 type  1   force =     0.00004467    0.00002579    0.34866839
     atom   31 type  2   force =     0.00020534    0.00011857   -0.25174028
     atom   32 type  2   force =    -0.00020568   -0.00011875   -0.25174466
     atom   33 type  1   force =    -0.00002468   -0.00001419    0.34869057
     atom   34 type  1   force =     0.00003190    0.00001841    0.34869313
     atom   35 type  2   force =     0.00020874    0.00012053   -0.25174033
     atom   36 type  2   force =    -0.00020329   -0.00011737   -0.25174293
     The core correction contribution to forces
     atom    1 type  1   force =    -0.00000660   -0.00000381    0.00318712
     atom    2 type  1   force =     0.00000654    0.00000377    0.00318710
     atom    3 type  2   force =     0.00000245    0.00000141    0.00039870
     atom    4 type  2   force =    -0.00000242   -0.00000140    0.00039868
     atom    5 type  1   force =    -0.00000646   -0.00000373    0.00318714
     atom    6 type  1   force =     0.00000697    0.00000402    0.00318705
     atom    7 type  2   force =     0.00000243    0.00000140    0.00039866
     atom    8 type  2   force =    -0.00000241   -0.00000139    0.00039871
     atom    9 type  1   force =    -0.00000663   -0.00000383    0.00318692
     atom   10 type  1   force =     0.00000662    0.00000381    0.00318695
     atom   11 type  2   force =     0.00000242    0.00000140    0.00039867
     atom   12 type  2   force =    -0.00000243   -0.00000140    0.00039864
     atom   13 type  1   force =    -0.00000662   -0.00000381    0.00318716
     atom   14 type  1   force =     0.00000654    0.00000376    0.00318715
     atom   15 type  2   force =     0.00000241    0.00000139    0.00039870
     atom   16 type  2   force =    -0.00000242   -0.00000140    0.00039871
     atom   17 type  1   force =    -0.00000666   -0.00000383    0.00318712
     atom   18 type  1   force =     0.00000662    0.00000381    0.00318706
     atom   19 type  2   force =     0.00000242    0.00000140    0.00039866
     atom   20 type  2   force =    -0.00000242   -0.00000140    0.00039871
     atom   21 type  1   force =    -0.00000656   -0.00000377    0.00318685
     atom   22 type  1   force =     0.00000665    0.00000383    0.00318687
     atom   23 type  2   force =     0.00000242    0.00000140    0.00039866
     atom   24 type  2   force =    -0.00000242   -0.00000140    0.00039864
     atom   25 type  1   force =    -0.00000661   -0.00000381    0.00318665
     atom   26 type  1   force =     0.00000674    0.00000389    0.00318705
     atom   27 type  2   force =     0.00000243    0.00000140    0.00039870
     atom   28 type  2   force =    -0.00000243   -0.00000140    0.00039866
     atom   29 type  1   force =    -0.00000670   -0.00000386    0.00318712
     atom   30 type  1   force =     0.00000625    0.00000361    0.00318734
     atom   31 type  2   force =     0.00000241    0.00000139    0.00039867
     atom   32 type  2   force =    -0.00000244   -0.00000141    0.00039873
     atom   33 type  1   force =    -0.00000664   -0.00000383    0.00318699
     atom   34 type  1   force =     0.00000655    0.00000378    0.00318695
     atom   35 type  2   force =     0.00000242    0.00000140    0.00039867
     atom   36 type  2   force =    -0.00000242   -0.00000140    0.00039865
     The Hubbard contrib.    to forces
     atom    1 type  1   force =     0.00000000    0.00000000    0.00000000
     atom    2 type  1   force =     0.00000000    0.00000000    0.00000000
     atom    3 type  2   force =     0.00000000    0.00000000    0.00000000
     atom    4 type  2   force =     0.00000000    0.00000000    0.00000000
     atom    5 type  1   force =     0.00000000    0.00000000    0.00000000
     atom    6 type  1   force =     0.00000000    0.00000000    0.00000000
     atom    7 type  2   force =     0.00000000    0.00000000    0.00000000
     atom    8 type  2   force =     0.00000000    0.00000000    0.00000000
     atom    9 type  1   force =     0.00000000    0.00000000    0.00000000
     atom   10 type  1   force =     0.00000000    0.00000000    0.00000000
     atom   11 type  2   force =     0.00000000    0.00000000    0.00000000
     atom   12 type  2   force =     0.00000000    0.00000000    0.00000000
     atom   13 type  1   force =     0.00000000    0.00000000    0.00000000
     atom   14 type  1   force =     0.00000000    0.00000000    0.00000000
     atom   15 type  2   force =     0.00000000    0.00000000    0.00000000
     atom   16 type  2   force =     0.00000000    0.00000000    0.00000000
     atom   17 type  1   force =     0.00000000    0.00000000    0.00000000
     atom   18 type  1   force =     0.00000000    0.00000000    0.00000000
     atom   19 type  2   force =     0.00000000    0.00000000    0.00000000
     atom   20 type  2   force =     0.00000000    0.00000000    0.00000000
     atom   21 type  1   force =     0.00000000    0.00000000    0.00000000
     atom   22 type  1   force =     0.00000000    0.00000000    0.00000000
     atom   23 type  2   force =     0.00000000    0.00000000    0.00000000
     atom   24 type  2   force =     0.00000000    0.00000000    0.00000000
     atom   25 type  1   force =     0.00000000    0.00000000    0.00000000
     atom   26 type  1   force =     0.00000000    0.00000000    0.00000000
     atom   27 type  2   force =     0.00000000    0.00000000    0.00000000
     atom   28 type  2   force =     0.00000000    0.00000000    0.00000000
     atom   29 type  1   force =     0.00000000    0.00000000    0.00000000
     atom   30 type  1   force =     0.00000000    0.00000000    0.00000000
     atom   31 type  2   force =     0.00000000    0.00000000    0.00000000
     atom   32 type  2   force =     0.00000000    0.00000000    0.00000000
     atom   33 type  1   force =     0.00000000    0.00000000    0.00000000
     atom   34 type  1   force =     0.00000000    0.00000000    0.00000000
     atom   35 type  2   force =     0.00000000    0.00000000    0.00000000
     atom   36 type  2   force =     0.00000000    0.00000000    0.00000000
     The SCF correction term to forces
     atom    1 type  1   force =    -0.00001002   -0.00000579   -0.00000223
     atom    2 type  1   force =    -0.00000465   -0.00000268   -0.00001072
     atom    3 type  2   force =    -0.00000455   -0.00000263    0.00001525
     atom    4 type  2   force =    -0.00000391   -0.00000226    0.00000347
     atom    5 type  1   force =     0.00000533    0.00000307    0.00000966
     atom    6 type  1   force =     0.00001718    0.00000992    0.00001188
     atom    7 type  2   force =    -0.00000353   -0.00000204   -0.00000763
     atom    8 type  2   force =     0.00000192    0.00000111    0.00000675
     atom    9 type  1   force =     0.00000026    0.00000015   -0.00000176
     atom   10 type  1   force =    -0.00000502   -0.00000290   -0.00002459
     atom   11 type  2   force =     0.00000002    0.00000001   -0.00000430
     atom   12 type  2   force =    -0.00000194   -0.00000112    0.00000336
     atom   13 type  1   force =     0.00001125    0.00000649   -0.00000777
     atom   14 type  1   force =     0.00000230    0.00000133   -0.00000968
     atom   15 type  2   force =     0.00000310    0.00000179    0.00001324
     atom   16 type  2   force =     0.00000803    0.00000464   -0.00000334
     atom   17 type  1   force =    -0.00000235   -0.00000135    0.00000642
     atom   18 type  1   force =     0.00000085    0.00000049    0.00002027
     atom   19 type  2   force =     0.00000188    0.00000109   -0.00000206
     atom   20 type  2   force =     0.00000052    0.00000030    0.00000563
     atom   21 type  1   force =     0.00000666    0.00000385   -0.00001152
     atom   22 type  1   force =     0.00000853    0.00000492   -0.00002353
     atom   23 type  2   force =     0.00000212    0.00000122   -0.00000394
     atom   24 type  2   force =     0.00000606    0.00000350    0.00000507
     atom   25 type  1   force =    -0.00000181   -0.00000104   -0.00002581
     atom   26 type  1   force =     0.00000474    0.00000274   -0.00000645
     atom   27 type  2   force =    -0.00000183   -0.00000106    0.00000818
     atom   28 type  2   force =    -0.00000039   -0.00000023    0.00000038
     atom   29 type  1   force =    -0.00000475   -0.00000274    0.00001276
     atom   30 type  1   force =    -0.00001871   -0.00001080    0.00001913
     atom   31 type  2   force =    -0.00000091   -0.00000053   -0.00000162
     atom   32 type  2   force =     0.00000029    0.00000017    0.00000724
     atom   33 type  1   force =    -0.00000767   -0.00000443   -0.00000933
     atom   34 type  1   force =    -0.00000267   -0.00000154   -0.00001411
     atom   35 type  2   force =    -0.00000464   -0.00000268   -0.00000189
     atom   36 type  2   force =    -0.00000175   -0.00000101    0.00000019

     Total force =     0.006400     Total SCF correction =     0.000080

     General routines

     Parallel routines

   This run was terminated on:  23:26:34   3Sep2025

   JOB DONE.
Note: The following floating-point exceptions are signalling: IEEE_INVALID_FLAG
Note: The following floating-point exceptions are signalling: IEEE_INVALID_FLAG
Note: The following floating-point exceptions are signalling: IEEE_INVALID_FLAG
Note: The following floating-point exceptions are signalling: IEEE_DENORMAL
Note: The following floating-point exceptions are signalling: IEEE_DENORMAL
Note: The following floating-point exceptions are signalling: IEEE_DENORMAL
Note: The following floating-point exceptions are signalling: IEEE_INVALID_FLAG
Note: The following floating-point exceptions are signalling: IEEE_INVALID_FLAG
Note: The following floating-point exceptions are signalling: IEEE_INVALID_FLAG
Note: The following floating-point exceptions are signalling: IEEE_DENORMAL
Note: The following floating-point exceptions are signalling: IEEE_DENORMAL
Note: The following floating-point exceptions are signalling: IEEE_DENORMAL
Note: The following floating-point exceptions are signalling: IEEE_DENORMAL
Note: The following floating-point exceptions are signalling: IEEE_INVALID_FLAG
Note: The following floating-point exceptions are signalling: IEEE_INVALID_FLAG
Note: The following floating-point exceptions are signalling: IEEE_INVALID_FLAG
Note: The following floating-point exceptions are signalling: IEEE_DENORMAL
Note: The following floating-point exceptions are signalling: IEEE_DENORMAL
Note: The following floating-point exceptions are signalling: IEEE_DENORMAL
Note: The following floating-point exceptions are signalling: IEEE_DENORMAL
Note: The following floating-point exceptions are signalling: IEEE_INVALID_FLAG
Note: The following floating-point exceptions are signalling: IEEE_DENORMAL
Note: The following floating-point exceptions are signalling: IEEE_DENORMAL
Note: The following floating-point exceptions are signalling: IEEE_INVALID_FLAG
Note: The following floating-point exceptions are signalling: IEEE_INVALID_FLAG
Note: The following floating-point exceptions are signalling: IEEE_INVALID_FLAG
Note: The following floating-point exceptions are signalling: IEEE_INVALID_FLAG
Note: The following floating-point exceptions are signalling: IEEE_INVALID_FLAG
Note: The following floating-point exceptions are signalling: IEEE_INVALID_FLAG
Note: The following floating-point exceptions are signalling: IEEE_DENORMAL
Note: The following floating-point exceptions are signalling: IEEE_DENORMAL
Note: The following floating-point exceptions are signalling: IEEE_DENORMAL