     Program PWSCF v.7.2 starts on 31Aug2025 at 20: 0: 9

     Reading input from /home/jvc/QEspresso7.2/ZnO_database/scripts/cell313.in/ZnO-3.20-1.49-313.in
Warning: card &CELL ignored
Warning: card / ignored
Warning: card &FCP ignored
Warning: card / ignored
Warning: card &RISM ignored
Warning: card / ignored

     Current dimensions of program PWSCF are:
     Max number of different atomic species (ntypx) = 10
     Max number of k-points (npk) =  40000
     Max angular momentum in pseudopotentials (lmaxx) =  4
     file Zn.upf: wavefunction(s)  3D renormalized
     Found identity + (  0.0000  0.0000  0.3333) symmetry
     This is a supercell, fractional translations are disabled
     Message from routine setup:
     using ibrav=0 with symmetry is DISCOURAGED, use correct ibrav instead

     K-points division:     npool     =       4
     R & G space division:  proc/nbgrp/npool/nimage =       8
     Subspace diagonalization in iterative solution of the eigenvalue problem:
     one sub-group per band group will be used

     Using Slab Decomposition

     bravais-lattice index     =            0
     lattice parameter (alat)  =      18.1658  a.u.
     unit-cell volume          =    2570.1764 (a.u.)^3
     number of atoms/cell      =           36
     number of atomic types    =            2
     number of electrons       =       324.00
     number of Kohn-Sham states=          162
     kinetic-energy cutoff     =      50.0000  Ry
     charge density cutoff     =     400.0000  Ry
     scf convergence threshold =      1.0E-08
     mixing beta               =       0.3000
     number of iterations used =            8  plain     mixing
     Exchange-correlation= PBE
                           (   1   4   3   4   0   0   0)

     celldm(1)=  18.165831  celldm(2)=   0.000000  celldm(3)=   0.000000
     celldm(4)=   0.000000  celldm(5)=   0.000000  celldm(6)=   0.000000

     crystal axes: (cart. coord. in units of alat)
               a(1) = (   1.000000   0.000000   0.000000 )
               a(2) = (  -0.166667   0.288675   0.000000 )
               a(3) = (   0.000000   0.000000   1.485210 )

     reciprocal axes: (cart. coord. in units 2 pi/alat)
               b(1) = (  1.000000  0.577350 -0.000000 )
               b(2) = (  0.000000  3.464102  0.000000 )
               b(3) = (  0.000000 -0.000000  0.673306 )

     PseudoPot. # 1 for Zn read from file:
     /home/jvc/QEspresso7.2/ZnO_database/pseudos/Zn.upf
     MD5 check sum: 7f56cabf9682ed8c977c2f7d0c5985c5
     Pseudo is Ultrasoft + core correction, Zval = 12.0
     Generated using &quot;atomic&quot; code by A. Dal Corso  v.6.2.2
     Using radial grid of 1201 points,  6 beta functions with:
                l(1) =   0
                l(2) =   0
                l(3) =   1
                l(4) =   1
                l(5) =   2
                l(6) =   2
     Q(r) pseudized with 0 coefficients

     PseudoPot. # 2 for O  read from file:
     /home/jvc/QEspresso7.2/ZnO_database/pseudos/O.upf
     MD5 check sum: 91400c9766925bcf19f520983a725ff0
     Pseudo is Ultrasoft + core correction, Zval =  6.0
     Generated using &quot;atomic&quot; code by A. Dal Corso  v.6.3MaX
     Using radial grid of 1095 points,  4 beta functions with:
                l(1) =   0
                l(2) =   0
                l(3) =   1
                l(4) =   1
     Q(r) pseudized with 0 coefficients

     atomic species   valence    mass     pseudopotential
        Zn            12.00    65.38000     Zn( 1.00)
        O              6.00    15.99900     O ( 1.00)

      2 Sym. Ops. (no inversion) found

                                    s                        frac. trans.

      isym =  1     identity

 cryst.   s( 1) = (     1          0          0      )
                  (     0          1          0      )
                  (     0          0          1      )

 cart.    s( 1) = (  1.0000000  0.0000000  0.0000000 )
                  (  0.0000000  1.0000000  0.0000000 )
                  (  0.0000000  0.0000000  1.0000000 )

      isym =  2     inv. 180 deg rotation - cryst. axis [0,1,0]

 cryst.   s( 2) = (     1          3          0      )
                  (     0         -1          0      )
                  (     0          0          1      )

 cart.    s( 2) = (  0.5000000  0.8660254  0.0000000 )
                  (  0.8660254 -0.5000000  0.0000000 )
                  (  0.0000000  0.0000000  1.0000000 )

   Cartesian axes

     site n.     atom                  positions (alat units)
         1           Zn  tau(   1) = (   0.1666667   0.0962250   0.2478486  )
         2           Zn  tau(   2) = (  -0.0000000   0.1924501   0.0003137  )
         3           O   tau(   3) = (   0.1666667   0.0962250   0.4355013  )
         4           O   tau(   4) = (  -0.0000000   0.1924501   0.1879664  )
         5           Zn  tau(   5) = (   0.1666667   0.0962250   0.7429185  )
         6           Zn  tau(   6) = (  -0.0000000   0.1924501   0.4953836  )
         7           O   tau(   7) = (   0.1666667   0.0962250   0.9305712  )
         8           O   tau(   8) = (  -0.0000000   0.1924501   0.6830363  )
         9           Zn  tau(   9) = (   0.1666667   0.0962250   1.2379884  )
        10           Zn  tau(  10) = (  -0.0000000   0.1924501   0.9904535  )
        11           O   tau(  11) = (   0.1666667   0.0962250   1.4256411  )
        12           O   tau(  12) = (  -0.0000000   0.1924501   1.1781062  )
        13           Zn  tau(  13) = (   0.5000000   0.0962250   0.2478486  )
        14           Zn  tau(  14) = (   0.3333333   0.1924501   0.0003137  )
        15           O   tau(  15) = (   0.5000000   0.0962250   0.4355013  )
        16           O   tau(  16) = (   0.3333333   0.1924501   0.1879664  )
        17           Zn  tau(  17) = (   0.5000000   0.0962250   0.7429185  )
        18           Zn  tau(  18) = (   0.3333333   0.1924501   0.4953836  )
        19           O   tau(  19) = (   0.5000000   0.0962250   0.9305712  )
        20           O   tau(  20) = (   0.3333333   0.1924501   0.6830363  )
        21           Zn  tau(  21) = (   0.5000000   0.0962250   1.2379884  )
        22           Zn  tau(  22) = (   0.3333333   0.1924501   0.9904535  )
        23           O   tau(  23) = (   0.5000000   0.0962250   1.4256411  )
        24           O   tau(  24) = (   0.3333333   0.1924501   1.1781062  )
        25           Zn  tau(  25) = (   0.8333333   0.0962250   0.2478486  )
        26           Zn  tau(  26) = (   0.6666667   0.1924501   0.0003137  )
        27           O   tau(  27) = (   0.8333333   0.0962250   0.4355013  )
        28           O   tau(  28) = (   0.6666667   0.1924501   0.1879664  )
        29           Zn  tau(  29) = (   0.8333333   0.0962250   0.7429185  )
        30           Zn  tau(  30) = (   0.6666667   0.1924501   0.4953836  )
        31           O   tau(  31) = (   0.8333333   0.0962250   0.9305712  )
        32           O   tau(  32) = (   0.6666667   0.1924501   0.6830363  )
        33           Zn  tau(  33) = (   0.8333333   0.0962250   1.2379884  )
        34           Zn  tau(  34) = (   0.6666667   0.1924501   0.9904535  )
        35           O   tau(  35) = (   0.8333333   0.0962250   1.4256411  )
        36           O   tau(  36) = (   0.6666667   0.1924501   1.1781062  )

   Crystallographic axes

     site n.     atom                  positions (cryst. coord.)
         1           Zn  tau(   1) = (  0.2222222  0.3333333  0.1668779  )
         2           Zn  tau(   2) = (  0.1111111  0.6666667  0.0002112  )
         3           O   tau(   3) = (  0.2222222  0.3333333  0.2932255  )
         4           O   tau(   4) = (  0.1111111  0.6666667  0.1265588  )
         5           Zn  tau(   5) = (  0.2222222  0.3333333  0.5002112  )
         6           Zn  tau(   6) = (  0.1111111  0.6666667  0.3335445  )
         7           O   tau(   7) = (  0.2222222  0.3333333  0.6265588  )
         8           O   tau(   8) = (  0.1111111  0.6666667  0.4598921  )
         9           Zn  tau(   9) = (  0.2222222  0.3333333  0.8335445  )
        10           Zn  tau(  10) = (  0.1111111  0.6666667  0.6668779  )
        11           O   tau(  11) = (  0.2222222  0.3333333  0.9598921  )
        12           O   tau(  12) = (  0.1111111  0.6666667  0.7932255  )
        13           Zn  tau(  13) = (  0.5555556  0.3333333  0.1668779  )
        14           Zn  tau(  14) = (  0.4444444  0.6666667  0.0002112  )
        15           O   tau(  15) = (  0.5555556  0.3333333  0.2932255  )
        16           O   tau(  16) = (  0.4444444  0.6666667  0.1265588  )
        17           Zn  tau(  17) = (  0.5555556  0.3333333  0.5002112  )
        18           Zn  tau(  18) = (  0.4444444  0.6666667  0.3335445  )
        19           O   tau(  19) = (  0.5555556  0.3333333  0.6265588  )
        20           O   tau(  20) = (  0.4444444  0.6666667  0.4598921  )
        21           Zn  tau(  21) = (  0.5555556  0.3333333  0.8335445  )
        22           Zn  tau(  22) = (  0.4444444  0.6666667  0.6668779  )
        23           O   tau(  23) = (  0.5555556  0.3333333  0.9598921  )
        24           O   tau(  24) = (  0.4444444  0.6666667  0.7932255  )
        25           Zn  tau(  25) = (  0.8888889  0.3333333  0.1668779  )
        26           Zn  tau(  26) = (  0.7777778  0.6666667  0.0002112  )
        27           O   tau(  27) = (  0.8888889  0.3333333  0.2932255  )
        28           O   tau(  28) = (  0.7777778  0.6666667  0.1265588  )
        29           Zn  tau(  29) = (  0.8888889  0.3333333  0.5002112  )
        30           Zn  tau(  30) = (  0.7777778  0.6666667  0.3335445  )
        31           O   tau(  31) = (  0.8888889  0.3333333  0.6265588  )
        32           O   tau(  32) = (  0.7777778  0.6666667  0.4598921  )
        33           Zn  tau(  33) = (  0.8888889  0.3333333  0.8335445  )
        34           Zn  tau(  34) = (  0.7777778  0.6666667  0.6668779  )
        35           O   tau(  35) = (  0.8888889  0.3333333  0.9598921  )
        36           O   tau(  36) = (  0.7777778  0.6666667  0.7932255  )

     number of k points=    68
                       cart. coord. in units 2pi/alat
        k(    1) = (   0.0000000   0.0000000   0.0000000), wk =   0.0092593
        k(    2) = (   0.0000000   0.0000000   0.1122176), wk =   0.0185185
        k(    3) = (   0.0000000   0.0000000   0.2244352), wk =   0.0185185
        k(    4) = (   0.0000000   0.0000000  -0.3366528), wk =   0.0092593
        k(    5) = (   0.0000000   0.5773503   0.0000000), wk =   0.0370370
        k(    6) = (   0.0000000   0.5773503   0.1122176), wk =   0.0370370
        k(    7) = (   0.0000000   0.5773503   0.2244352), wk =   0.0370370
        k(    8) = (   0.0000000   0.5773503  -0.3366528), wk =   0.0370370
        k(    9) = (   0.0000000   1.1547005   0.0000000), wk =   0.0185185
        k(   10) = (   0.0000000   1.1547005   0.1122176), wk =   0.0370370
        k(   11) = (   0.0000000   1.1547005   0.2244352), wk =   0.0370370
        k(   12) = (   0.0000000   1.1547005  -0.3366528), wk =   0.0185185
        k(   13) = (   0.0000000  -1.7320508   0.0000000), wk =   0.0185185
[...]
     atom    8 type  2   force =     0.00015859    0.00009156   -0.17495348
     atom    9 type  1   force =    -0.00001431   -0.00000826   -0.26599405
     atom   10 type  1   force =     0.00001386    0.00000800   -0.26599595
     atom   11 type  2   force =    -0.00015860   -0.00009157   -0.17495506
     atom   12 type  2   force =     0.00015857    0.00009155   -0.17495435
     atom   13 type  1   force =    -0.00001311   -0.00000757   -0.26599623
     atom   14 type  1   force =     0.00001461    0.00000844   -0.26599415
     atom   15 type  2   force =    -0.00015881   -0.00009169   -0.17495320
     atom   16 type  2   force =     0.00015810    0.00009128   -0.17495371
     atom   17 type  1   force =    -0.00001359   -0.00000785   -0.26599620
     atom   18 type  1   force =     0.00001474    0.00000851   -0.26599703
     atom   19 type  2   force =    -0.00015872   -0.00009164   -0.17495386
     atom   20 type  2   force =     0.00015845    0.00009148   -0.17495358
     atom   21 type  1   force =    -0.00001341   -0.00000774   -0.26599434
     atom   22 type  1   force =     0.00001499    0.00000866   -0.26599648
     atom   23 type  2   force =    -0.00015843   -0.00009147   -0.17495493
     atom   24 type  2   force =     0.00015797    0.00009121   -0.17495492
     atom   25 type  1   force =    -0.00001457   -0.00000841   -0.26599591
     atom   26 type  1   force =     0.00001312    0.00000757   -0.26599345
     atom   27 type  2   force =    -0.00015827   -0.00009138   -0.17495307
     atom   28 type  2   force =     0.00015862    0.00009158   -0.17495419
     atom   29 type  1   force =    -0.00001456   -0.00000840   -0.26599624
     atom   30 type  1   force =     0.00001384    0.00000799   -0.26599741
     atom   31 type  2   force =    -0.00015804   -0.00009124   -0.17495381
     atom   32 type  2   force =     0.00015825    0.00009137   -0.17495377
     atom   33 type  1   force =    -0.00001473   -0.00000850   -0.26599549
     atom   34 type  1   force =     0.00001372    0.00000792   -0.26599553
     atom   35 type  2   force =    -0.00015817   -0.00009132   -0.17495478
     atom   36 type  2   force =     0.00015875    0.00009165   -0.17495396
     The ionic contribution  to forces
     atom    1 type  1   force =     0.00000001    0.00000001   -1.82045669
     atom    2 type  1   force =     0.00000001    0.00000000   -1.82045665
     atom    3 type  2   force =     0.00000000    0.00000000    1.82045667
     atom    4 type  2   force =     0.00000001    0.00000000    1.82045666
     atom    5 type  1   force =     0.00000001    0.00000001   -1.82045665
     atom    6 type  1   force =     0.00000001    0.00000000   -1.82045669
     atom    7 type  2   force =     0.00000000    0.00000000    1.82045666
     atom    8 type  2   force =     0.00000001    0.00000000    1.82045669
     atom    9 type  1   force =     0.00000001    0.00000001   -1.82045669
     atom   10 type  1   force =     0.00000001    0.00000000   -1.82045669
     atom   11 type  2   force =     0.00000000    0.00000000    1.82045669
     atom   12 type  2   force =     0.00000001    0.00000000    1.82045668
     atom   13 type  1   force =    -0.00000001    0.00000000   -1.82045669
     atom   14 type  1   force =     0.00000001   -0.00000000   -1.82045665
     atom   15 type  2   force =    -0.00000001    0.00000000    1.82045668
     atom   16 type  2   force =     0.00000001   -0.00000000    1.82045666
     atom   17 type  1   force =    -0.00000001    0.00000000   -1.82045665
     atom   18 type  1   force =     0.00000001   -0.00000000   -1.82045669
     atom   19 type  2   force =    -0.00000001    0.00000000    1.82045666
     atom   20 type  2   force =     0.00000001   -0.00000000    1.82045669
     atom   21 type  1   force =    -0.00000001    0.00000000   -1.82045669
     atom   22 type  1   force =     0.00000001   -0.00000000   -1.82045669
     atom   23 type  2   force =    -0.00000001    0.00000000    1.82045669
     atom   24 type  2   force =     0.00000001   -0.00000000    1.82045668
     atom   25 type  1   force =    -0.00000001   -0.00000000   -1.82045669
     atom   26 type  1   force =    -0.00000001   -0.00000001   -1.82045665
     atom   27 type  2   force =    -0.00000001   -0.00000000    1.82045668
     atom   28 type  2   force =    -0.00000000   -0.00000000    1.82045666
     atom   29 type  1   force =    -0.00000001   -0.00000000   -1.82045665
     atom   30 type  1   force =    -0.00000001   -0.00000001   -1.82045669
     atom   31 type  2   force =    -0.00000001   -0.00000000    1.82045666
     atom   32 type  2   force =    -0.00000000   -0.00000000    1.82045669
     atom   33 type  1   force =    -0.00000001   -0.00000000   -1.82045669
     atom   34 type  1   force =    -0.00000001   -0.00000001   -1.82045669
     atom   35 type  2   force =    -0.00000001   -0.00000000    1.82045669
     atom   36 type  2   force =    -0.00000000   -0.00000000    1.82045667
     The local contribution  to forces
     atom    1 type  1   force =     0.00002980    0.00001720    1.99696882
     atom    2 type  1   force =    -0.00003030   -0.00001754    1.99696177
     atom    3 type  2   force =     0.00015610    0.00009012   -1.58014047
     atom    4 type  2   force =    -0.00015534   -0.00008970   -1.58014178
     atom    5 type  1   force =     0.00002860    0.00001651    1.99696885
     atom    6 type  1   force =    -0.00002783   -0.00001612    1.99696978
     atom    7 type  2   force =     0.00015564    0.00008986   -1.58014121
     atom    8 type  2   force =    -0.00015556   -0.00008982   -1.58014073
     atom    9 type  1   force =     0.00002876    0.00001660    1.99696295
     atom   10 type  1   force =    -0.00002722   -0.00001576    1.99696789
     atom   11 type  2   force =     0.00015543    0.00008974   -1.58014387
     atom   12 type  2   force =    -0.00015535   -0.00008971   -1.58014288
     atom   13 type  1   force =     0.00002544    0.00001478    1.99696856
     atom   14 type  1   force =    -0.00002898   -0.00001683    1.99696406
     atom   15 type  2   force =     0.00015483    0.00008942   -1.58013995
     atom   16 type  2   force =    -0.00015632   -0.00009028   -1.58014134
     atom   17 type  1   force =     0.00002691    0.00001563    1.99696788
     atom   18 type  1   force =    -0.00002935   -0.00001704    1.99697010
     atom   19 type  2   force =     0.00015506    0.00008955   -1.58014158
     atom   20 type  2   force =    -0.00015602   -0.00009010   -1.58014104
     atom   21 type  1   force =     0.00002585    0.00001502    1.99696339
     atom   22 type  1   force =    -0.00003001   -0.00001742    1.99696938
     atom   23 type  2   force =     0.00015546    0.00008978   -1.58014396
     atom   24 type  2   force =    -0.00015641   -0.00009033   -1.58014304
     atom   25 type  1   force =     0.00002929    0.00001696    1.99696875
     atom   26 type  1   force =    -0.00002512   -0.00001450    1.99696121
     atom   27 type  2   force =     0.00015596    0.00009006   -1.58014018
     atom   28 type  2   force =    -0.00015536   -0.00008970   -1.58014202
     atom   29 type  1   force =     0.00002904    0.00001681    1.99696853
     atom   30 type  1   force =    -0.00002753   -0.00001589    1.99697027
     atom   31 type  2   force =     0.00015614    0.00009016   -1.58014178
     atom   32 type  2   force =    -0.00015578   -0.00008994   -1.58014082
     atom   33 type  1   force =     0.00002989    0.00001731    1.99696749
     atom   34 type  1   force =    -0.00002736   -0.00001580    1.99696651
     atom   35 type  2   force =     0.00015632    0.00009027   -1.58014376
     atom   36 type  2   force =    -0.00015530   -0.00008966   -1.58014263
     The core correction contribution to forces
     atom    1 type  1   force =    -0.00000286   -0.00000165    0.02301520
     atom    2 type  1   force =     0.00000288    0.00000166    0.02301530
     atom    3 type  2   force =     0.00000181    0.00000105    0.00110237
     atom    4 type  2   force =    -0.00000182   -0.00000105    0.00110238
     atom    5 type  1   force =    -0.00000284   -0.00000164    0.02301525
     atom    6 type  1   force =     0.00000284    0.00000163    0.02301525
     atom    7 type  2   force =     0.00000181    0.00000105    0.00110238
     atom    8 type  2   force =    -0.00000182   -0.00000105    0.00110238
     atom    9 type  1   force =    -0.00000285   -0.00000164    0.02301533
     atom   10 type  1   force =     0.00000283    0.00000163    0.02301525
     atom   11 type  2   force =     0.00000182    0.00000105    0.00110239
     atom   12 type  2   force =    -0.00000182   -0.00000105    0.00110238
     atom   13 type  1   force =    -0.00000280   -0.00000161    0.02301523
     atom   14 type  1   force =     0.00000285    0.00000163    0.02301524
     atom   15 type  2   force =     0.00000182    0.00000105    0.00110237
     atom   16 type  2   force =    -0.00000181   -0.00000105    0.00110238
     atom   17 type  1   force =    -0.00000283   -0.00000162    0.02301528
     atom   18 type  1   force =     0.00000284    0.00000163    0.02301524
     atom   19 type  2   force =     0.00000182    0.00000105    0.00110238
     atom   20 type  2   force =    -0.00000182   -0.00000105    0.00110238
     atom   21 type  1   force =    -0.00000280   -0.00000160    0.02301534
     atom   22 type  1   force =     0.00000285    0.00000163    0.02301523
     atom   23 type  2   force =     0.00000182    0.00000105    0.00110239
     atom   24 type  2   force =    -0.00000181   -0.00000104    0.00110239
     atom   25 type  1   force =    -0.00000285   -0.00000164    0.02301518
     atom   26 type  1   force =     0.00000278    0.00000161    0.02301534
     atom   27 type  2   force =     0.00000181    0.00000105    0.00110237
     atom   28 type  2   force =    -0.00000182   -0.00000105    0.00110238
     atom   29 type  1   force =    -0.00000284   -0.00000164    0.02301526
     atom   30 type  1   force =     0.00000282    0.00000163    0.02301527
     atom   31 type  2   force =     0.00000181    0.00000105    0.00110238
     atom   32 type  2   force =    -0.00000181   -0.00000105    0.00110238
     atom   33 type  1   force =    -0.00000287   -0.00000165    0.02301523
     atom   34 type  1   force =     0.00000283    0.00000164    0.02301528
     atom   35 type  2   force =     0.00000181    0.00000105    0.00110239
     atom   36 type  2   force =    -0.00000182   -0.00000105    0.00110238
     The Hubbard contrib.    to forces
     atom    1 type  1   force =     0.00000000    0.00000000    0.00000000
     atom    2 type  1   force =     0.00000000    0.00000000    0.00000000
     atom    3 type  2   force =     0.00000000    0.00000000    0.00000000
     atom    4 type  2   force =     0.00000000    0.00000000    0.00000000
     atom    5 type  1   force =     0.00000000    0.00000000    0.00000000
     atom    6 type  1   force =     0.00000000    0.00000000    0.00000000
     atom    7 type  2   force =     0.00000000    0.00000000    0.00000000
     atom    8 type  2   force =     0.00000000    0.00000000    0.00000000
     atom    9 type  1   force =     0.00000000    0.00000000    0.00000000
     atom   10 type  1   force =     0.00000000    0.00000000    0.00000000
     atom   11 type  2   force =     0.00000000    0.00000000    0.00000000
     atom   12 type  2   force =     0.00000000    0.00000000    0.00000000
     atom   13 type  1   force =     0.00000000    0.00000000    0.00000000
     atom   14 type  1   force =     0.00000000    0.00000000    0.00000000
     atom   15 type  2   force =     0.00000000    0.00000000    0.00000000
     atom   16 type  2   force =     0.00000000    0.00000000    0.00000000
     atom   17 type  1   force =     0.00000000    0.00000000    0.00000000
     atom   18 type  1   force =     0.00000000    0.00000000    0.00000000
     atom   19 type  2   force =     0.00000000    0.00000000    0.00000000
     atom   20 type  2   force =     0.00000000    0.00000000    0.00000000
     atom   21 type  1   force =     0.00000000    0.00000000    0.00000000
     atom   22 type  1   force =     0.00000000    0.00000000    0.00000000
     atom   23 type  2   force =     0.00000000    0.00000000    0.00000000
     atom   24 type  2   force =     0.00000000    0.00000000    0.00000000
     atom   25 type  1   force =     0.00000000    0.00000000    0.00000000
     atom   26 type  1   force =     0.00000000    0.00000000    0.00000000
     atom   27 type  2   force =     0.00000000    0.00000000    0.00000000
     atom   28 type  2   force =     0.00000000    0.00000000    0.00000000
     atom   29 type  1   force =     0.00000000    0.00000000    0.00000000
     atom   30 type  1   force =     0.00000000    0.00000000    0.00000000
     atom   31 type  2   force =     0.00000000    0.00000000    0.00000000
     atom   32 type  2   force =     0.00000000    0.00000000    0.00000000
     atom   33 type  1   force =     0.00000000    0.00000000    0.00000000
     atom   34 type  1   force =     0.00000000    0.00000000    0.00000000
     atom   35 type  2   force =     0.00000000    0.00000000    0.00000000
     atom   36 type  2   force =     0.00000000    0.00000000    0.00000000
     The SCF correction term to forces
     atom    1 type  1   force =    -0.00000155   -0.00000090    0.00000706
     atom    2 type  1   force =     0.00000209    0.00000120    0.00001487
     atom    3 type  2   force =    -0.00000026   -0.00000015   -0.00000158
     atom    4 type  2   force =    -0.00000053   -0.00000031   -0.00000037
     atom    5 type  1   force =     0.00000002    0.00000001    0.00000706
     atom    6 type  1   force =    -0.00000068   -0.00000039    0.00000733
     atom    7 type  2   force =     0.00000023    0.00000013   -0.00000089
     atom    8 type  2   force =    -0.00000049   -0.00000028   -0.00000177
     atom    9 type  1   force =    -0.00000040   -0.00000023    0.00001335
     atom   10 type  1   force =    -0.00000157   -0.00000091    0.00000853
     atom   11 type  2   force =     0.00000061    0.00000035    0.00000252
     atom   12 type  2   force =    -0.00000061   -0.00000035    0.00000099
     atom   13 type  1   force =     0.00000301    0.00000174    0.00000780
     atom   14 type  1   force =     0.00000022    0.00000013    0.00001250
     atom   15 type  2   force =     0.00000100    0.00000058   -0.00000232
     atom   16 type  2   force =     0.00000065    0.00000038   -0.00000097
     atom   17 type  1   force =     0.00000126    0.00000073    0.00000847
     atom   18 type  1   force =     0.00000078    0.00000045    0.00000635
     atom   19 type  2   force =     0.00000070    0.00000040   -0.00000040
     atom   20 type  2   force =     0.00000022    0.00000013   -0.00000103
     atom   21 type  1   force =     0.00000283    0.00000163    0.00001293
     atom   22 type  1   force =     0.00000164    0.00000095    0.00000686
     atom   23 type  2   force =     0.00000032    0.00000019    0.00000231
     atom   24 type  2   force =     0.00000089    0.00000052    0.00000122
     atom   25 type  1   force =    -0.00000113   -0.00000066    0.00000737
     atom   26 type  1   force =    -0.00000364   -0.00000210    0.00001508
     atom   27 type  2   force =    -0.00000037   -0.00000021   -0.00000209
     atom   28 type  2   force =    -0.00000054   -0.00000031    0.00000019
     atom   29 type  1   force =    -0.00000062   -0.00000036    0.00000735
     atom   30 type  1   force =    -0.00000066   -0.00000038    0.00000644
     atom   31 type  2   force =    -0.00000065   -0.00000038   -0.00000013
     atom   32 type  2   force =     0.00000007    0.00000004   -0.00000130
     atom   33 type  1   force =    -0.00000175   -0.00000101    0.00000856
     atom   34 type  1   force =    -0.00000087   -0.00000050    0.00001006
     atom   35 type  2   force =    -0.00000072   -0.00000042    0.00000198
     atom   36 type  2   force =    -0.00000057   -0.00000033    0.00000041

     Total force =     0.398771     Total SCF correction =     0.000043

     General routines

     Parallel routines

   This run was terminated on:  20:38:44  31Aug2025

   JOB DONE.
Note: The following floating-point exceptions are signalling: IEEE_INVALID_FLAG
Note: The following floating-point exceptions are signalling: IEEE_DENORMAL
Note: The following floating-point exceptions are signalling: IEEE_DENORMAL
Note: The following floating-point exceptions are signalling: IEEE_INVALID_FLAG
Note: The following floating-point exceptions are signalling: IEEE_INVALID_FLAG
Note: The following floating-point exceptions are signalling: IEEE_INVALID_FLAG