     Program PWSCF v.7.2 starts on 31Aug2025 at 15:52: 7

     Reading input from /home/jvc/QEspresso7.2/ZnO_database/scripts/cell313.in/ZnO-3.14-1.68-313.in
Warning: card &CELL ignored
Warning: card / ignored
Warning: card &FCP ignored
Warning: card / ignored
Warning: card &RISM ignored
Warning: card / ignored

     Current dimensions of program PWSCF are:
     Max number of different atomic species (ntypx) = 10
     Max number of k-points (npk) =  40000
     Max angular momentum in pseudopotentials (lmaxx) =  4
     file Zn.upf: wavefunction(s)  3D renormalized
     Found identity + (  0.0000  0.0000  0.3333) symmetry
     This is a supercell, fractional translations are disabled
     Message from routine setup:
     using ibrav=0 with symmetry is DISCOURAGED, use correct ibrav instead

     K-points division:     npool     =       4
     R & G space division:  proc/nbgrp/npool/nimage =       8
     Subspace diagonalization in iterative solution of the eigenvalue problem:
     one sub-group per band group will be used

     Using Slab Decomposition

     bravais-lattice index     =            0
     lattice parameter (alat)  =      17.7951  a.u.
     unit-cell volume          =    2731.1397 (a.u.)^3
     number of atoms/cell      =           36
     number of atomic types    =            2
     number of electrons       =       324.00
     number of Kohn-Sham states=          162
     kinetic-energy cutoff     =      50.0000  Ry
     charge density cutoff     =     400.0000  Ry
     scf convergence threshold =      1.0E-08
     mixing beta               =       0.3000
     number of iterations used =            8  plain     mixing
     Exchange-correlation= PBE
                           (   1   4   3   4   0   0   0)

     celldm(1)=  17.795099  celldm(2)=   0.000000  celldm(3)=   0.000000
     celldm(4)=   0.000000  celldm(5)=   0.000000  celldm(6)=   0.000000

     crystal axes: (cart. coord. in units of alat)
               a(1) = (   1.000000   0.000000   0.000000 )
               a(2) = (  -0.166667   0.288675   0.000000 )
               a(3) = (   0.000000   0.000000   1.678933 )

     reciprocal axes: (cart. coord. in units 2 pi/alat)
               b(1) = (  1.000000  0.577350 -0.000000 )
               b(2) = (  0.000000  3.464102  0.000000 )
               b(3) = (  0.000000 -0.000000  0.595616 )

     PseudoPot. # 1 for Zn read from file:
     /home/jvc/QEspresso7.2/ZnO_database/pseudos/Zn.upf
     MD5 check sum: 7f56cabf9682ed8c977c2f7d0c5985c5
     Pseudo is Ultrasoft + core correction, Zval = 12.0
     Generated using &quot;atomic&quot; code by A. Dal Corso  v.6.2.2
     Using radial grid of 1201 points,  6 beta functions with:
                l(1) =   0
                l(2) =   0
                l(3) =   1
                l(4) =   1
                l(5) =   2
                l(6) =   2
     Q(r) pseudized with 0 coefficients

     PseudoPot. # 2 for O  read from file:
     /home/jvc/QEspresso7.2/ZnO_database/pseudos/O.upf
     MD5 check sum: 91400c9766925bcf19f520983a725ff0
     Pseudo is Ultrasoft + core correction, Zval =  6.0
     Generated using &quot;atomic&quot; code by A. Dal Corso  v.6.3MaX
     Using radial grid of 1095 points,  4 beta functions with:
                l(1) =   0
                l(2) =   0
                l(3) =   1
                l(4) =   1
     Q(r) pseudized with 0 coefficients

     atomic species   valence    mass     pseudopotential
        Zn            12.00    65.38000     Zn( 1.00)
        O              6.00    15.99900     O ( 1.00)

      2 Sym. Ops. (no inversion) found

                                    s                        frac. trans.

      isym =  1     identity

 cryst.   s( 1) = (     1          0          0      )
                  (     0          1          0      )
                  (     0          0          1      )

 cart.    s( 1) = (  1.0000000  0.0000000  0.0000000 )
                  (  0.0000000  1.0000000  0.0000000 )
                  (  0.0000000  0.0000000  1.0000000 )

      isym =  2     inv. 180 deg rotation - cryst. axis [0,1,0]

 cryst.   s( 2) = (     1          3          0      )
                  (     0         -1          0      )
                  (     0          0          1      )

 cart.    s( 2) = (  0.5000000  0.8660254  0.0000000 )
                  (  0.8660254 -0.5000000  0.0000000 )
                  (  0.0000000  0.0000000  1.0000000 )

   Cartesian axes

     site n.     atom                  positions (alat units)
         1           Zn  tau(   1) = (   0.1666667   0.0962250   0.2801767  )
         2           Zn  tau(   2) = (  -0.0000000   0.1924501   0.0003546  )
         3           O   tau(   3) = (   0.1666667   0.0962250   0.4923058  )
         4           O   tau(   4) = (  -0.0000000   0.1924501   0.2124837  )
         5           Zn  tau(   5) = (   0.1666667   0.0962250   0.8398209  )
         6           Zn  tau(   6) = (  -0.0000000   0.1924501   0.5599988  )
         7           O   tau(   7) = (   0.1666667   0.0962250   1.0519501  )
         8           O   tau(   8) = (  -0.0000000   0.1924501   0.7721279  )
         9           Zn  tau(   9) = (   0.1666667   0.0962250   1.3994652  )
        10           Zn  tau(  10) = (  -0.0000000   0.1924501   1.1196430  )
        11           O   tau(  11) = (   0.1666667   0.0962250   1.6115943  )
        12           O   tau(  12) = (  -0.0000000   0.1924501   1.3317722  )
        13           Zn  tau(  13) = (   0.5000000   0.0962250   0.2801767  )
        14           Zn  tau(  14) = (   0.3333333   0.1924501   0.0003546  )
        15           O   tau(  15) = (   0.5000000   0.0962250   0.4923058  )
        16           O   tau(  16) = (   0.3333333   0.1924501   0.2124837  )
        17           Zn  tau(  17) = (   0.5000000   0.0962250   0.8398209  )
        18           Zn  tau(  18) = (   0.3333333   0.1924501   0.5599988  )
        19           O   tau(  19) = (   0.5000000   0.0962250   1.0519501  )
        20           O   tau(  20) = (   0.3333333   0.1924501   0.7721279  )
        21           Zn  tau(  21) = (   0.5000000   0.0962250   1.3994652  )
        22           Zn  tau(  22) = (   0.3333333   0.1924501   1.1196430  )
        23           O   tau(  23) = (   0.5000000   0.0962250   1.6115943  )
        24           O   tau(  24) = (   0.3333333   0.1924501   1.3317722  )
        25           Zn  tau(  25) = (   0.8333333   0.0962250   0.2801767  )
        26           Zn  tau(  26) = (   0.6666667   0.1924501   0.0003546  )
        27           O   tau(  27) = (   0.8333333   0.0962250   0.4923058  )
        28           O   tau(  28) = (   0.6666667   0.1924501   0.2124837  )
        29           Zn  tau(  29) = (   0.8333333   0.0962250   0.8398209  )
        30           Zn  tau(  30) = (   0.6666667   0.1924501   0.5599988  )
        31           O   tau(  31) = (   0.8333333   0.0962250   1.0519501  )
        32           O   tau(  32) = (   0.6666667   0.1924501   0.7721279  )
        33           Zn  tau(  33) = (   0.8333333   0.0962250   1.3994652  )
        34           Zn  tau(  34) = (   0.6666667   0.1924501   1.1196430  )
        35           O   tau(  35) = (   0.8333333   0.0962250   1.6115943  )
        36           O   tau(  36) = (   0.6666667   0.1924501   1.3317722  )

   Crystallographic axes

     site n.     atom                  positions (cryst. coord.)
         1           Zn  tau(   1) = (  0.2222222  0.3333333  0.1668779  )
         2           Zn  tau(   2) = (  0.1111111  0.6666667  0.0002112  )
         3           O   tau(   3) = (  0.2222222  0.3333333  0.2932255  )
         4           O   tau(   4) = (  0.1111111  0.6666667  0.1265588  )
         5           Zn  tau(   5) = (  0.2222222  0.3333333  0.5002112  )
         6           Zn  tau(   6) = (  0.1111111  0.6666667  0.3335445  )
         7           O   tau(   7) = (  0.2222222  0.3333333  0.6265588  )
         8           O   tau(   8) = (  0.1111111  0.6666667  0.4598921  )
         9           Zn  tau(   9) = (  0.2222222  0.3333333  0.8335445  )
        10           Zn  tau(  10) = (  0.1111111  0.6666667  0.6668779  )
        11           O   tau(  11) = (  0.2222222  0.3333333  0.9598921  )
        12           O   tau(  12) = (  0.1111111  0.6666667  0.7932255  )
        13           Zn  tau(  13) = (  0.5555556  0.3333333  0.1668779  )
        14           Zn  tau(  14) = (  0.4444444  0.6666667  0.0002112  )
        15           O   tau(  15) = (  0.5555556  0.3333333  0.2932255  )
        16           O   tau(  16) = (  0.4444444  0.6666667  0.1265588  )
        17           Zn  tau(  17) = (  0.5555556  0.3333333  0.5002112  )
        18           Zn  tau(  18) = (  0.4444444  0.6666667  0.3335445  )
        19           O   tau(  19) = (  0.5555556  0.3333333  0.6265588  )
        20           O   tau(  20) = (  0.4444444  0.6666667  0.4598921  )
        21           Zn  tau(  21) = (  0.5555556  0.3333333  0.8335445  )
        22           Zn  tau(  22) = (  0.4444444  0.6666667  0.6668779  )
        23           O   tau(  23) = (  0.5555556  0.3333333  0.9598921  )
        24           O   tau(  24) = (  0.4444444  0.6666667  0.7932255  )
        25           Zn  tau(  25) = (  0.8888889  0.3333333  0.1668779  )
        26           Zn  tau(  26) = (  0.7777778  0.6666667  0.0002112  )
        27           O   tau(  27) = (  0.8888889  0.3333333  0.2932255  )
        28           O   tau(  28) = (  0.7777778  0.6666667  0.1265588  )
        29           Zn  tau(  29) = (  0.8888889  0.3333333  0.5002112  )
        30           Zn  tau(  30) = (  0.7777778  0.6666667  0.3335445  )
        31           O   tau(  31) = (  0.8888889  0.3333333  0.6265588  )
        32           O   tau(  32) = (  0.7777778  0.6666667  0.4598921  )
        33           Zn  tau(  33) = (  0.8888889  0.3333333  0.8335445  )
        34           Zn  tau(  34) = (  0.7777778  0.6666667  0.6668779  )
        35           O   tau(  35) = (  0.8888889  0.3333333  0.9598921  )
        36           O   tau(  36) = (  0.7777778  0.6666667  0.7932255  )

     number of k points=    68
                       cart. coord. in units 2pi/alat
        k(    1) = (   0.0000000   0.0000000   0.0000000), wk =   0.0092593
        k(    2) = (   0.0000000   0.0000000   0.0992694), wk =   0.0185185
        k(    3) = (   0.0000000   0.0000000   0.1985388), wk =   0.0185185
        k(    4) = (   0.0000000   0.0000000  -0.2978082), wk =   0.0092593
        k(    5) = (   0.0000000   0.5773503   0.0000000), wk =   0.0370370
        k(    6) = (   0.0000000   0.5773503   0.0992694), wk =   0.0370370
        k(    7) = (   0.0000000   0.5773503   0.1985388), wk =   0.0370370
        k(    8) = (   0.0000000   0.5773503  -0.2978082), wk =   0.0370370
        k(    9) = (   0.0000000   1.1547005   0.0000000), wk =   0.0185185
        k(   10) = (   0.0000000   1.1547005   0.0992694), wk =   0.0370370
        k(   11) = (   0.0000000   1.1547005   0.1985388), wk =   0.0370370
        k(   12) = (   0.0000000   1.1547005  -0.2978082), wk =   0.0185185
        k(   13) = (   0.0000000  -1.7320508   0.0000000), wk =   0.0185185
[...]
     atom   10 type  1   force =     0.00002069    0.00001195    0.10979760
     atom   11 type  2   force =    -0.00018704   -0.00010799    0.09778312
     atom   12 type  2   force =     0.00018674    0.00010782    0.09778262
     atom   13 type  1   force =    -0.00001989   -0.00001149    0.10979958
     atom   14 type  1   force =     0.00001926    0.00001112    0.10980060
     atom   15 type  2   force =    -0.00018700   -0.00010796    0.09778274
     atom   16 type  2   force =     0.00018718    0.00010807    0.09778313
     atom   17 type  1   force =    -0.00001968   -0.00001136    0.10979858
     atom   18 type  1   force =     0.00001980    0.00001143    0.10979984
     atom   19 type  2   force =    -0.00018742   -0.00010821    0.09778298
     atom   20 type  2   force =     0.00018734    0.00010816    0.09778283
     atom   21 type  1   force =    -0.00001997   -0.00001153    0.10979990
     atom   22 type  1   force =     0.00001962    0.00001133    0.10979831
     atom   23 type  2   force =    -0.00018707   -0.00010801    0.09778319
     atom   24 type  2   force =     0.00018724    0.00010810    0.09778257
     atom   25 type  1   force =    -0.00001943   -0.00001122    0.10979999
     atom   26 type  1   force =     0.00002014    0.00001163    0.10980051
     atom   27 type  2   force =    -0.00018741   -0.00010820    0.09778253
     atom   28 type  2   force =     0.00018717    0.00010806    0.09778356
     atom   29 type  1   force =    -0.00001986   -0.00001147    0.10979775
     atom   30 type  1   force =     0.00002026    0.00001170    0.10980027
     atom   31 type  2   force =    -0.00018704   -0.00010799    0.09778316
     atom   32 type  2   force =     0.00018697    0.00010795    0.09778309
     atom   33 type  1   force =    -0.00001999   -0.00001154    0.10980150
     atom   34 type  1   force =     0.00001918    0.00001107    0.10979787
     atom   35 type  2   force =    -0.00018733   -0.00010815    0.09778330
     atom   36 type  2   force =     0.00018737    0.00010818    0.09778242
     The ionic contribution  to forces
     atom    1 type  1   force =     0.00000001    0.00000001    0.92239741
     atom    2 type  1   force =     0.00000001    0.00000000    0.92239745
     atom    3 type  2   force =     0.00000000    0.00000000   -0.92239742
     atom    4 type  2   force =     0.00000000    0.00000000   -0.92239743
     atom    5 type  1   force =     0.00000001    0.00000001    0.92239745
     atom    6 type  1   force =     0.00000001    0.00000000    0.92239740
     atom    7 type  2   force =     0.00000000    0.00000000   -0.92239743
     atom    8 type  2   force =     0.00000000    0.00000000   -0.92239740
     atom    9 type  1   force =     0.00000001    0.00000001    0.92239740
     atom   10 type  1   force =     0.00000001    0.00000000    0.92239740
     atom   11 type  2   force =     0.00000000    0.00000000   -0.92239741
     atom   12 type  2   force =     0.00000000    0.00000000   -0.92239742
     atom   13 type  1   force =    -0.00000001    0.00000000    0.92239740
     atom   14 type  1   force =     0.00000001   -0.00000000    0.92239744
     atom   15 type  2   force =    -0.00000001    0.00000000   -0.92239742
     atom   16 type  2   force =     0.00000001   -0.00000000   -0.92239743
     atom   17 type  1   force =    -0.00000001    0.00000000    0.92239744
     atom   18 type  1   force =     0.00000001   -0.00000000    0.92239740
     atom   19 type  2   force =    -0.00000001    0.00000000   -0.92239743
     atom   20 type  2   force =     0.00000001   -0.00000000   -0.92239740
     atom   21 type  1   force =    -0.00000001    0.00000000    0.92239740
     atom   22 type  1   force =     0.00000001   -0.00000000    0.92239740
     atom   23 type  2   force =    -0.00000001    0.00000000   -0.92239740
     atom   24 type  2   force =     0.00000001   -0.00000000   -0.92239742
     atom   25 type  1   force =    -0.00000001   -0.00000000    0.92239740
     atom   26 type  1   force =    -0.00000001   -0.00000001    0.92239745
     atom   27 type  2   force =    -0.00000000   -0.00000000   -0.92239742
     atom   28 type  2   force =    -0.00000000   -0.00000000   -0.92239743
     atom   29 type  1   force =    -0.00000001   -0.00000000    0.92239745
     atom   30 type  1   force =    -0.00000001   -0.00000001    0.92239740
     atom   31 type  2   force =    -0.00000000   -0.00000000   -0.92239743
     atom   32 type  2   force =    -0.00000000   -0.00000000   -0.92239741
     atom   33 type  1   force =    -0.00000001   -0.00000000    0.92239740
     atom   34 type  1   force =    -0.00000001   -0.00000001    0.92239741
     atom   35 type  2   force =    -0.00000000   -0.00000000   -0.92239740
     atom   36 type  2   force =    -0.00000000   -0.00000000   -0.92239742
     The local contribution  to forces
     atom    1 type  1   force =     0.00003453    0.00001993   -1.00644671
     atom    2 type  1   force =    -0.00003347   -0.00001937   -1.00644697
     atom    3 type  2   force =     0.00018244    0.00010533    0.80799870
     atom    4 type  2   force =    -0.00018236   -0.00010530    0.80799797
     atom    5 type  1   force =     0.00003356    0.00001937   -1.00644560
     atom    6 type  1   force =    -0.00003344   -0.00001935   -1.00644671
     atom    7 type  2   force =     0.00018189    0.00010502    0.80799930
     atom    8 type  2   force =    -0.00018215   -0.00010517    0.80799978
     atom    9 type  1   force =     0.00003272    0.00001889   -1.00644862
     atom   10 type  1   force =    -0.00003605   -0.00002086   -1.00644386
     atom   11 type  2   force =     0.00018208    0.00010512    0.80799806
     atom   12 type  2   force =    -0.00018260   -0.00010544    0.80799662
     atom   13 type  1   force =     0.00003431    0.00001990   -1.00644563
     atom   14 type  1   force =    -0.00003364   -0.00001952   -1.00644757
     atom   15 type  2   force =     0.00018218    0.00010521    0.80799819
     atom   16 type  2   force =    -0.00018217   -0.00010520    0.80799841
     atom   17 type  1   force =     0.00003425    0.00001987   -1.00644571
     atom   18 type  1   force =    -0.00003414   -0.00001981   -1.00644722
     atom   19 type  2   force =     0.00018222    0.00010523    0.80799928
     atom   20 type  2   force =    -0.00018222   -0.00010523    0.80799955
     atom   21 type  1   force =     0.00003463    0.00002009   -1.00644688
     atom   22 type  1   force =    -0.00003355   -0.00001946   -1.00644549
     atom   23 type  2   force =     0.00018259    0.00010544    0.80799772
     atom   24 type  2   force =    -0.00018210   -0.00010516    0.80799724
     atom   25 type  1   force =     0.00003364    0.00001947   -1.00644629
     atom   26 type  1   force =    -0.00003507   -0.00002025   -1.00644751
     atom   27 type  2   force =     0.00018178    0.00010496    0.80799821
     atom   28 type  2   force =    -0.00018218   -0.00010518    0.80799834
     atom   29 type  1   force =     0.00003464    0.00002005   -1.00644457
     atom   30 type  1   force =    -0.00003496   -0.00002019   -1.00644779
     atom   31 type  2   force =     0.00018241    0.00010533    0.80800000
     atom   32 type  2   force =    -0.00018227   -0.00010523    0.80799973
     atom   33 type  1   force =     0.00003507    0.00002030   -1.00644994
     atom   34 type  1   force =    -0.00003310   -0.00001911   -1.00644472
     atom   35 type  2   force =     0.00018149    0.00010480    0.80799795
     atom   36 type  2   force =    -0.00018156   -0.00010483    0.80799666
     The core correction contribution to forces
     atom    1 type  1   force =    -0.00000653   -0.00000377   -0.00838750
     atom    2 type  1   force =     0.00000652    0.00000376   -0.00838745
     atom    3 type  2   force =     0.00000212    0.00000123   -0.00074368
     atom    4 type  2   force =    -0.00000213   -0.00000123   -0.00074368
     atom    5 type  1   force =    -0.00000652   -0.00000376   -0.00838743
     atom    6 type  1   force =     0.00000652    0.00000376   -0.00838746
     atom    7 type  2   force =     0.00000212    0.00000122   -0.00074368
     atom    8 type  2   force =    -0.00000212   -0.00000123   -0.00074368
     atom    9 type  1   force =    -0.00000651   -0.00000376   -0.00838744
     atom   10 type  1   force =     0.00000656    0.00000378   -0.00838747
     atom   11 type  2   force =     0.00000213    0.00000123   -0.00074368
     atom   12 type  2   force =    -0.00000212   -0.00000122   -0.00074368
     atom   13 type  1   force =    -0.00000654   -0.00000377   -0.00838748
     atom   14 type  1   force =     0.00000652    0.00000375   -0.00838744
     atom   15 type  2   force =     0.00000213    0.00000123   -0.00074368
     atom   16 type  2   force =    -0.00000213   -0.00000123   -0.00074368
     atom   17 type  1   force =    -0.00000653   -0.00000376   -0.00838746
     atom   18 type  1   force =     0.00000652    0.00000375   -0.00838745
     atom   19 type  2   force =     0.00000213    0.00000123   -0.00074368
     atom   20 type  2   force =    -0.00000213   -0.00000123   -0.00074368
     atom   21 type  1   force =    -0.00000654   -0.00000376   -0.00838746
     atom   22 type  1   force =     0.00000652    0.00000375   -0.00838745
     atom   23 type  2   force =     0.00000213    0.00000123   -0.00074368
     atom   24 type  2   force =    -0.00000213   -0.00000123   -0.00074368
     atom   25 type  1   force =    -0.00000652   -0.00000376   -0.00838747
     atom   26 type  1   force =     0.00000655    0.00000378   -0.00838747
     atom   27 type  2   force =     0.00000213    0.00000123   -0.00074368
     atom   28 type  2   force =    -0.00000213   -0.00000123   -0.00074369
     atom   29 type  1   force =    -0.00000654   -0.00000377   -0.00838746
     atom   30 type  1   force =     0.00000654    0.00000378   -0.00838747
     atom   31 type  2   force =     0.00000213    0.00000123   -0.00074368
     atom   32 type  2   force =    -0.00000212   -0.00000123   -0.00074368
     atom   33 type  1   force =    -0.00000655   -0.00000378   -0.00838744
     atom   34 type  1   force =     0.00000650    0.00000375   -0.00838743
     atom   35 type  2   force =     0.00000213    0.00000123   -0.00074368
     atom   36 type  2   force =    -0.00000213   -0.00000123   -0.00074368
     The Hubbard contrib.    to forces
     atom    1 type  1   force =     0.00000000    0.00000000    0.00000000
     atom    2 type  1   force =     0.00000000    0.00000000    0.00000000
     atom    3 type  2   force =     0.00000000    0.00000000    0.00000000
     atom    4 type  2   force =     0.00000000    0.00000000    0.00000000
     atom    5 type  1   force =     0.00000000    0.00000000    0.00000000
     atom    6 type  1   force =     0.00000000    0.00000000    0.00000000
     atom    7 type  2   force =     0.00000000    0.00000000    0.00000000
     atom    8 type  2   force =     0.00000000    0.00000000    0.00000000
     atom    9 type  1   force =     0.00000000    0.00000000    0.00000000
     atom   10 type  1   force =     0.00000000    0.00000000    0.00000000
     atom   11 type  2   force =     0.00000000    0.00000000    0.00000000
     atom   12 type  2   force =     0.00000000    0.00000000    0.00000000
     atom   13 type  1   force =     0.00000000    0.00000000    0.00000000
     atom   14 type  1   force =     0.00000000    0.00000000    0.00000000
     atom   15 type  2   force =     0.00000000    0.00000000    0.00000000
     atom   16 type  2   force =     0.00000000    0.00000000    0.00000000
     atom   17 type  1   force =     0.00000000    0.00000000    0.00000000
     atom   18 type  1   force =     0.00000000    0.00000000    0.00000000
     atom   19 type  2   force =     0.00000000    0.00000000    0.00000000
     atom   20 type  2   force =     0.00000000    0.00000000    0.00000000
     atom   21 type  1   force =     0.00000000    0.00000000    0.00000000
     atom   22 type  1   force =     0.00000000    0.00000000    0.00000000
     atom   23 type  2   force =     0.00000000    0.00000000    0.00000000
     atom   24 type  2   force =     0.00000000    0.00000000    0.00000000
     atom   25 type  1   force =     0.00000000    0.00000000    0.00000000
     atom   26 type  1   force =     0.00000000    0.00000000    0.00000000
     atom   27 type  2   force =     0.00000000    0.00000000    0.00000000
     atom   28 type  2   force =     0.00000000    0.00000000    0.00000000
     atom   29 type  1   force =     0.00000000    0.00000000    0.00000000
     atom   30 type  1   force =     0.00000000    0.00000000    0.00000000
     atom   31 type  2   force =     0.00000000    0.00000000    0.00000000
     atom   32 type  2   force =     0.00000000    0.00000000    0.00000000
     atom   33 type  1   force =     0.00000000    0.00000000    0.00000000
     atom   34 type  1   force =     0.00000000    0.00000000    0.00000000
     atom   35 type  2   force =     0.00000000    0.00000000    0.00000000
     atom   36 type  2   force =     0.00000000    0.00000000    0.00000000
     The SCF correction term to forces
     atom    1 type  1   force =     0.00000002    0.00000001   -0.00000222
     atom    2 type  1   force =    -0.00000116   -0.00000067   -0.00000251
     atom    3 type  2   force =     0.00000010    0.00000006   -0.00000231
     atom    4 type  2   force =    -0.00000014   -0.00000008   -0.00000241
     atom    5 type  1   force =     0.00000167    0.00000096   -0.00000080
     atom    6 type  1   force =    -0.00000022   -0.00000013   -0.00000185
     atom    7 type  2   force =     0.00000018    0.00000010   -0.00000153
     atom    8 type  2   force =     0.00000040    0.00000023   -0.00000153
     atom    9 type  1   force =     0.00000169    0.00000097   -0.00000090
     atom   10 type  1   force =     0.00000076    0.00000044   -0.00000194
     atom   11 type  2   force =     0.00000004    0.00000003   -0.00000244
     atom   12 type  2   force =     0.00000022    0.00000013   -0.00000141
     atom   13 type  1   force =     0.00000070    0.00000040   -0.00000383
     atom   14 type  1   force =    -0.00000000   -0.00000000   -0.00000274
     atom   15 type  2   force =    -0.00000015   -0.00000009   -0.00000183
     atom   16 type  2   force =    -0.00000001   -0.00000000   -0.00000267
     atom   17 type  1   force =    -0.00000004   -0.00000002   -0.00000062
     atom   18 type  1   force =    -0.00000056   -0.00000032   -0.00000125
     atom   19 type  2   force =    -0.00000007   -0.00000004   -0.00000170
     atom   20 type  2   force =    -0.00000032   -0.00000018   -0.00000147
     atom   21 type  1   force =     0.00000009    0.00000005   -0.00000208
     atom   22 type  1   force =    -0.00000131   -0.00000076   -0.00000041
     atom   23 type  2   force =     0.00000010    0.00000006   -0.00000228
     atom   24 type  2   force =     0.00000001    0.00000001   -0.00000178
     atom   25 type  1   force =     0.00000063    0.00000036   -0.00000378
     atom   26 type  1   force =     0.00000003    0.00000002   -0.00000224
     atom   27 type  2   force =     0.00000027    0.00000016   -0.00000223
     atom   28 type  2   force =     0.00000002    0.00000001   -0.00000305
     atom   29 type  1   force =    -0.00000018   -0.00000010   -0.00000082
     atom   30 type  1   force =    -0.00000050   -0.00000029   -0.00000103
     atom   31 type  2   force =     0.00000002    0.00000001   -0.00000193
     atom   32 type  2   force =    -0.00000010   -0.00000006   -0.00000167
     atom   33 type  1   force =    -0.00000063   -0.00000037    0.00000025
     atom   34 type  1   force =    -0.00000100   -0.00000058   -0.00000124
     atom   35 type  2   force =     0.00000023    0.00000013   -0.00000232
     atom   36 type  2   force =    -0.00000063   -0.00000036   -0.00000111

     Total force =     0.104169     Total SCF correction =     0.000013

     General routines

     Parallel routines

   This run was terminated on:  16:42:17  31Aug2025

   JOB DONE.
Note: The following floating-point exceptions are signalling: IEEE_INVALID_FLAG
Note: The following floating-point exceptions are signalling: IEEE_INVALID_FLAG
Note: The following floating-point exceptions are signalling: IEEE_INVALID_FLAG
Note: The following floating-point exceptions are signalling: IEEE_DENORMAL
Note: The following floating-point exceptions are signalling: IEEE_DENORMAL
Note: The following floating-point exceptions are signalling: IEEE_INVALID_FLAG
Note: The following floating-point exceptions are signalling: IEEE_DENORMAL
Note: The following floating-point exceptions are signalling: IEEE_DENORMAL