     Program PWSCF v.7.2 starts on  3Sep2025 at 16: 6:18

     Reading input from /home/jvc/QEspresso7.2/ZnO_database/scripts/cell313.in/ZnO-3.53-1.78-313.in
Warning: card &CELL ignored
Warning: card / ignored
Warning: card &FCP ignored
Warning: card / ignored
Warning: card &RISM ignored
Warning: card / ignored

     Current dimensions of program PWSCF are:
     Max number of different atomic species (ntypx) = 10
     Max number of k-points (npk) =  40000
     Max angular momentum in pseudopotentials (lmaxx) =  4
     file Zn.upf: wavefunction(s)  3D renormalized
     Found identity + (  0.0000  0.0000  0.3333) symmetry
     This is a supercell, fractional translations are disabled
     Message from routine setup:
     using ibrav=0 with symmetry is DISCOURAGED, use correct ibrav instead

     K-points division:     npool     =      16
     R & G space division:  proc/nbgrp/npool/nimage =       4
     Subspace diagonalization in iterative solution of the eigenvalue problem:
     one sub-group per band group will be used

     Using Slab Decomposition

     bravais-lattice index     =            0
     lattice parameter (alat)  =      20.0195  a.u.
     unit-cell volume          =    4113.0201 (a.u.)^3
     number of atoms/cell      =           36
     number of atomic types    =            2
     number of electrons       =       324.00
     number of Kohn-Sham states=          162
     kinetic-energy cutoff     =      50.0000  Ry
     charge density cutoff     =     400.0000  Ry
     scf convergence threshold =      1.0E-08
     mixing beta               =       0.3000
     number of iterations used =            8  plain     mixing
     Exchange-correlation= PBE
                           (   1   4   3   4   0   0   0)

     celldm(1)=  20.019487  celldm(2)=   0.000000  celldm(3)=   0.000000
     celldm(4)=   0.000000  celldm(5)=   0.000000  celldm(6)=   0.000000

     crystal axes: (cart. coord. in units of alat)
               a(1) = (   1.000000   0.000000   0.000000 )
               a(2) = (  -0.166667   0.288675   0.000000 )
               a(3) = (   0.000000   0.000000   1.775794 )

     reciprocal axes: (cart. coord. in units 2 pi/alat)
               b(1) = (  1.000000  0.577350 -0.000000 )
               b(2) = (  0.000000  3.464102  0.000000 )
               b(3) = (  0.000000 -0.000000  0.563128 )

     PseudoPot. # 1 for Zn read from file:
     /home/jvc/QEspresso7.2/ZnO_database/pseudos/Zn.upf
     MD5 check sum: 7f56cabf9682ed8c977c2f7d0c5985c5
     Pseudo is Ultrasoft + core correction, Zval = 12.0
     Generated using &quot;atomic&quot; code by A. Dal Corso  v.6.2.2
     Using radial grid of 1201 points,  6 beta functions with:
                l(1) =   0
                l(2) =   0
                l(3) =   1
                l(4) =   1
                l(5) =   2
                l(6) =   2
     Q(r) pseudized with 0 coefficients

     PseudoPot. # 2 for O  read from file:
     /home/jvc/QEspresso7.2/ZnO_database/pseudos/O.upf
     MD5 check sum: 91400c9766925bcf19f520983a725ff0
     Pseudo is Ultrasoft + core correction, Zval =  6.0
     Generated using &quot;atomic&quot; code by A. Dal Corso  v.6.3MaX
     Using radial grid of 1095 points,  4 beta functions with:
                l(1) =   0
                l(2) =   0
                l(3) =   1
                l(4) =   1
     Q(r) pseudized with 0 coefficients

     atomic species   valence    mass     pseudopotential
        Zn            12.00    65.38000     Zn( 1.00)
        O              6.00    15.99900     O ( 1.00)

      2 Sym. Ops. (no inversion) found

                                    s                        frac. trans.

      isym =  1     identity

 cryst.   s( 1) = (     1          0          0      )
                  (     0          1          0      )
                  (     0          0          1      )

 cart.    s( 1) = (  1.0000000  0.0000000  0.0000000 )
                  (  0.0000000  1.0000000  0.0000000 )
                  (  0.0000000  0.0000000  1.0000000 )

      isym =  2     inv. 180 deg rotation - cryst. axis [0,1,0]

 cryst.   s( 2) = (     1          3          0      )
                  (     0         -1          0      )
                  (     0          0          1      )

 cart.    s( 2) = (  0.5000000  0.8660254  0.0000000 )
                  (  0.8660254 -0.5000000  0.0000000 )
                  (  0.0000000  0.0000000  1.0000000 )

   Cartesian axes

     site n.     atom                  positions (alat units)
         1           Zn  tau(   1) = (   0.1666667   0.0962250   0.2963407  )
         2           Zn  tau(   2) = (  -0.0000000   0.1924501   0.0003750  )
         3           O   tau(   3) = (   0.1666667   0.0962250   0.5207081  )
         4           O   tau(   4) = (  -0.0000000   0.1924501   0.2247424  )
         5           Zn  tau(   5) = (   0.1666667   0.0962250   0.8882721  )
         6           Zn  tau(   6) = (  -0.0000000   0.1924501   0.5923064  )
         7           O   tau(   7) = (   0.1666667   0.0962250   1.1126395  )
         8           O   tau(   8) = (  -0.0000000   0.1924501   0.8166738  )
         9           Zn  tau(   9) = (   0.1666667   0.0962250   1.4802035  )
        10           Zn  tau(  10) = (  -0.0000000   0.1924501   1.1842378  )
        11           O   tau(  11) = (   0.1666667   0.0962250   1.7045709  )
        12           O   tau(  12) = (  -0.0000000   0.1924501   1.4086052  )
        13           Zn  tau(  13) = (   0.5000000   0.0962250   0.2963407  )
        14           Zn  tau(  14) = (   0.3333333   0.1924501   0.0003750  )
        15           O   tau(  15) = (   0.5000000   0.0962250   0.5207081  )
        16           O   tau(  16) = (   0.3333333   0.1924501   0.2247424  )
        17           Zn  tau(  17) = (   0.5000000   0.0962250   0.8882721  )
        18           Zn  tau(  18) = (   0.3333333   0.1924501   0.5923064  )
        19           O   tau(  19) = (   0.5000000   0.0962250   1.1126395  )
        20           O   tau(  20) = (   0.3333333   0.1924501   0.8166738  )
        21           Zn  tau(  21) = (   0.5000000   0.0962250   1.4802035  )
        22           Zn  tau(  22) = (   0.3333333   0.1924501   1.1842378  )
        23           O   tau(  23) = (   0.5000000   0.0962250   1.7045709  )
        24           O   tau(  24) = (   0.3333333   0.1924501   1.4086052  )
        25           Zn  tau(  25) = (   0.8333333   0.0962250   0.2963407  )
        26           Zn  tau(  26) = (   0.6666667   0.1924501   0.0003750  )
        27           O   tau(  27) = (   0.8333333   0.0962250   0.5207081  )
        28           O   tau(  28) = (   0.6666667   0.1924501   0.2247424  )
        29           Zn  tau(  29) = (   0.8333333   0.0962250   0.8882721  )
        30           Zn  tau(  30) = (   0.6666667   0.1924501   0.5923064  )
        31           O   tau(  31) = (   0.8333333   0.0962250   1.1126395  )
        32           O   tau(  32) = (   0.6666667   0.1924501   0.8166738  )
        33           Zn  tau(  33) = (   0.8333333   0.0962250   1.4802035  )
        34           Zn  tau(  34) = (   0.6666667   0.1924501   1.1842378  )
        35           O   tau(  35) = (   0.8333333   0.0962250   1.7045709  )
        36           O   tau(  36) = (   0.6666667   0.1924501   1.4086052  )

   Crystallographic axes

     site n.     atom                  positions (cryst. coord.)
         1           Zn  tau(   1) = (  0.2222222  0.3333333  0.1668779  )
         2           Zn  tau(   2) = (  0.1111111  0.6666667  0.0002112  )
         3           O   tau(   3) = (  0.2222222  0.3333333  0.2932255  )
         4           O   tau(   4) = (  0.1111111  0.6666667  0.1265588  )
         5           Zn  tau(   5) = (  0.2222222  0.3333333  0.5002112  )
         6           Zn  tau(   6) = (  0.1111111  0.6666667  0.3335445  )
         7           O   tau(   7) = (  0.2222222  0.3333333  0.6265588  )
         8           O   tau(   8) = (  0.1111111  0.6666667  0.4598921  )
         9           Zn  tau(   9) = (  0.2222222  0.3333333  0.8335445  )
        10           Zn  tau(  10) = (  0.1111111  0.6666667  0.6668779  )
        11           O   tau(  11) = (  0.2222222  0.3333333  0.9598921  )
        12           O   tau(  12) = (  0.1111111  0.6666667  0.7932255  )
        13           Zn  tau(  13) = (  0.5555556  0.3333333  0.1668779  )
        14           Zn  tau(  14) = (  0.4444444  0.6666667  0.0002112  )
        15           O   tau(  15) = (  0.5555556  0.3333333  0.2932255  )
        16           O   tau(  16) = (  0.4444444  0.6666667  0.1265588  )
        17           Zn  tau(  17) = (  0.5555556  0.3333333  0.5002112  )
        18           Zn  tau(  18) = (  0.4444444  0.6666667  0.3335445  )
        19           O   tau(  19) = (  0.5555556  0.3333333  0.6265588  )
        20           O   tau(  20) = (  0.4444444  0.6666667  0.4598921  )
        21           Zn  tau(  21) = (  0.5555556  0.3333333  0.8335445  )
        22           Zn  tau(  22) = (  0.4444444  0.6666667  0.6668779  )
        23           O   tau(  23) = (  0.5555556  0.3333333  0.9598921  )
        24           O   tau(  24) = (  0.4444444  0.6666667  0.7932255  )
        25           Zn  tau(  25) = (  0.8888889  0.3333333  0.1668779  )
        26           Zn  tau(  26) = (  0.7777778  0.6666667  0.0002112  )
        27           O   tau(  27) = (  0.8888889  0.3333333  0.2932255  )
        28           O   tau(  28) = (  0.7777778  0.6666667  0.1265588  )
        29           Zn  tau(  29) = (  0.8888889  0.3333333  0.5002112  )
        30           Zn  tau(  30) = (  0.7777778  0.6666667  0.3335445  )
        31           O   tau(  31) = (  0.8888889  0.3333333  0.6265588  )
        32           O   tau(  32) = (  0.7777778  0.6666667  0.4598921  )
        33           Zn  tau(  33) = (  0.8888889  0.3333333  0.8335445  )
        34           Zn  tau(  34) = (  0.7777778  0.6666667  0.6668779  )
        35           O   tau(  35) = (  0.8888889  0.3333333  0.9598921  )
        36           O   tau(  36) = (  0.7777778  0.6666667  0.7932255  )

     number of k points=    68
                       cart. coord. in units 2pi/alat
        k(    1) = (   0.0000000   0.0000000   0.0000000), wk =   0.0092593
        k(    2) = (   0.0000000   0.0000000   0.0938547), wk =   0.0185185
        k(    3) = (   0.0000000   0.0000000   0.1877094), wk =   0.0185185
        k(    4) = (   0.0000000   0.0000000  -0.2815642), wk =   0.0092593
        k(    5) = (   0.0000000   0.5773503   0.0000000), wk =   0.0370370
        k(    6) = (   0.0000000   0.5773503   0.0938547), wk =   0.0370370
        k(    7) = (   0.0000000   0.5773503   0.1877094), wk =   0.0370370
        k(    8) = (   0.0000000   0.5773503  -0.2815642), wk =   0.0370370
        k(    9) = (   0.0000000   1.1547005   0.0000000), wk =   0.0185185
        k(   10) = (   0.0000000   1.1547005   0.0938547), wk =   0.0370370
        k(   11) = (   0.0000000   1.1547005   0.1877094), wk =   0.0370370
        k(   12) = (   0.0000000   1.1547005  -0.2815642), wk =   0.0185185
        k(   13) = (   0.0000000  -1.7320508   0.0000000), wk =   0.0185185
[...]
     atom   34 type  1   force =    -0.00004538   -0.00002620    0.21250445
     atom   35 type  2   force =    -0.00022592   -0.00013044    0.25670639
     atom   36 type  2   force =     0.00022712    0.00013113    0.25670156
     The ionic contribution  to forces
     atom    1 type  1   force =     0.00000001    0.00000000    1.64023928
     atom    2 type  1   force =     0.00000001    0.00000000    1.64023931
     atom    3 type  2   force =     0.00000000    0.00000000   -1.64023930
     atom    4 type  2   force =     0.00000000    0.00000000   -1.64023930
     atom    5 type  1   force =     0.00000001    0.00000000    1.64023931
     atom    6 type  1   force =     0.00000001    0.00000000    1.64023928
     atom    7 type  2   force =     0.00000000    0.00000000   -1.64023930
     atom    8 type  2   force =     0.00000000    0.00000000   -1.64023928
     atom    9 type  1   force =     0.00000001    0.00000000    1.64023928
     atom   10 type  1   force =     0.00000001    0.00000000    1.64023928
     atom   11 type  2   force =     0.00000000    0.00000000   -1.64023928
     atom   12 type  2   force =     0.00000000    0.00000000   -1.64023929
     atom   13 type  1   force =    -0.00000001    0.00000000    1.64023928
     atom   14 type  1   force =     0.00000001   -0.00000000    1.64023931
     atom   15 type  2   force =    -0.00000001    0.00000000   -1.64023929
     atom   16 type  2   force =     0.00000001   -0.00000000   -1.64023930
     atom   17 type  1   force =    -0.00000001    0.00000000    1.64023931
     atom   18 type  1   force =     0.00000001   -0.00000000    1.64023928
     atom   19 type  2   force =    -0.00000001    0.00000000   -1.64023930
     atom   20 type  2   force =     0.00000001   -0.00000000   -1.64023928
     atom   21 type  1   force =    -0.00000001    0.00000000    1.64023928
     atom   22 type  1   force =     0.00000001   -0.00000000    1.64023928
     atom   23 type  2   force =    -0.00000001    0.00000000   -1.64023928
     atom   24 type  2   force =     0.00000001   -0.00000000   -1.64023929
     atom   25 type  1   force =    -0.00000001   -0.00000000    1.64023928
     atom   26 type  1   force =    -0.00000001   -0.00000000    1.64023931
     atom   27 type  2   force =    -0.00000000   -0.00000000   -1.64023929
     atom   28 type  2   force =    -0.00000000   -0.00000000   -1.64023930
     atom   29 type  1   force =    -0.00000001   -0.00000000    1.64023931
     atom   30 type  1   force =    -0.00000001   -0.00000000    1.64023928
     atom   31 type  2   force =    -0.00000000   -0.00000000   -1.64023930
     atom   32 type  2   force =    -0.00000000   -0.00000000   -1.64023928
     atom   33 type  1   force =    -0.00000001   -0.00000000    1.64023928
     atom   34 type  1   force =    -0.00000001   -0.00000000    1.64023928
     atom   35 type  2   force =    -0.00000000   -0.00000000   -1.64023928
     atom   36 type  2   force =    -0.00000000   -0.00000000   -1.64023930
     The local contribution  to forces
     atom    1 type  1   force =    -0.00005058   -0.00002920   -1.85712593
     atom    2 type  1   force =     0.00005590    0.00003222   -1.85715981
     atom    3 type  2   force =     0.00020865    0.00012047    1.40199936
     atom    4 type  2   force =    -0.00020924   -0.00012082    1.40200135
     atom    5 type  1   force =    -0.00005726   -0.00003306   -1.85713447
     atom    6 type  1   force =     0.00005075    0.00002925   -1.85712542
     atom    7 type  2   force =     0.00020776    0.00011995    1.40197901
     atom    8 type  2   force =    -0.00021058   -0.00012159    1.40199635
     atom    9 type  1   force =    -0.00005868   -0.00003388   -1.85712780
     atom   10 type  1   force =     0.00004781    0.00002755   -1.85718703
     atom   11 type  2   force =     0.00020938    0.00012089    1.40198871
     atom   12 type  2   force =    -0.00021336   -0.00012320    1.40199373
     atom   13 type  1   force =    -0.00003958   -0.00002274   -1.85713248
     atom   14 type  1   force =     0.00005159    0.00002967   -1.85715740
     atom   15 type  2   force =     0.00021037    0.00012149    1.40199886
     atom   16 type  2   force =    -0.00020624   -0.00011910    1.40200184
     atom   17 type  1   force =    -0.00004535   -0.00002607   -1.85713700
     atom   18 type  1   force =     0.00005542    0.00003189   -1.85713445
     atom   19 type  2   force =     0.00020972    0.00012111    1.40198232
     atom   20 type  2   force =    -0.00020695   -0.00011951    1.40199713
     atom   21 type  1   force =    -0.00003087   -0.00001772   -1.85714593
     atom   22 type  1   force =     0.00005640    0.00003246   -1.85718912
     atom   23 type  2   force =     0.00020977    0.00012114    1.40199227
     atom   24 type  2   force =    -0.00020478   -0.00011826    1.40199467
     atom   25 type  1   force =    -0.00006463   -0.00003726   -1.85713649
     atom   26 type  1   force =     0.00004755    0.00002745   -1.85714350
     atom   27 type  2   force =     0.00020729    0.00011969    1.40200006
     atom   28 type  2   force =    -0.00021121   -0.00012194    1.40199911
     atom   29 type  1   force =    -0.00005341   -0.00003078   -1.85714523
     atom   30 type  1   force =     0.00004885    0.00002820   -1.85712778
     atom   31 type  2   force =     0.00020856    0.00012042    1.40198400
     atom   32 type  2   force =    -0.00020891   -0.00012062    1.40199551
     atom   33 type  1   force =    -0.00006439   -0.00003712   -1.85716120
     atom   34 type  1   force =     0.00005016    0.00002896   -1.85716588
     atom   35 type  2   force =     0.00020791    0.00012005    1.40199417
     atom   36 type  2   force =    -0.00021075   -0.00012167    1.40199091
     The core correction contribution to forces
     atom    1 type  1   force =    -0.00001029   -0.00000601   -0.01163181
     atom    2 type  1   force =     0.00001004    0.00000577   -0.01163129
     atom    3 type  2   force =     0.00000251    0.00000146   -0.00242544
     atom    4 type  2   force =    -0.00000252   -0.00000146   -0.00242537
     atom    5 type  1   force =    -0.00001012   -0.00000591   -0.01163163
     atom    6 type  1   force =     0.00001030    0.00000592   -0.01163175
     atom    7 type  2   force =     0.00000252    0.00000146   -0.00242528
     atom    8 type  2   force =    -0.00000254   -0.00000147   -0.00242541
     atom    9 type  1   force =    -0.00001021   -0.00000596   -0.01163189
     atom   10 type  1   force =     0.00001021    0.00000587   -0.01163110
     atom   11 type  2   force =     0.00000251    0.00000146   -0.00242536
     atom   12 type  2   force =    -0.00000251   -0.00000145   -0.00242533
     atom   13 type  1   force =    -0.00001041   -0.00000613   -0.01163178
     atom   14 type  1   force =     0.00001028    0.00000605   -0.01163139
     atom   15 type  2   force =     0.00000255    0.00000150   -0.00242542
     atom   16 type  2   force =    -0.00000258   -0.00000152   -0.00242536
     atom   17 type  1   force =    -0.00001034   -0.00000609   -0.01163166
     atom   18 type  1   force =     0.00001006    0.00000593   -0.01163161
     atom   19 type  2   force =     0.00000253    0.00000149   -0.00242530
     atom   20 type  2   force =    -0.00000256   -0.00000151   -0.00242541
     atom   21 type  1   force =    -0.00001064   -0.00000626   -0.01163174
     atom   22 type  1   force =     0.00001019    0.00000600   -0.01163104
     atom   23 type  2   force =     0.00000256    0.00000151   -0.00242535
     atom   24 type  2   force =    -0.00000260   -0.00000153   -0.00242531
     atom   25 type  1   force =    -0.00000995   -0.00000572   -0.01163163
     atom   26 type  1   force =     0.00001036    0.00000605   -0.01163171
     atom   27 type  2   force =     0.00000256    0.00000148   -0.00242545
     atom   28 type  2   force =    -0.00000251   -0.00000145   -0.00242538
     atom   29 type  1   force =    -0.00001024   -0.00000589   -0.01163154
     atom   30 type  1   force =     0.00001031    0.00000602   -0.01163177
     atom   31 type  2   force =     0.00000256    0.00000148   -0.00242534
     atom   32 type  2   force =    -0.00000251   -0.00000146   -0.00242540
     atom   33 type  1   force =    -0.00000981   -0.00000564   -0.01163144
     atom   34 type  1   force =     0.00001026    0.00000599   -0.01163154
     atom   35 type  2   force =     0.00000255    0.00000147   -0.00242535
     atom   36 type  2   force =    -0.00000253   -0.00000147   -0.00242529
     The Hubbard contrib.    to forces
     atom    1 type  1   force =     0.00000000    0.00000000    0.00000000
     atom    2 type  1   force =     0.00000000    0.00000000    0.00000000
     atom    3 type  2   force =     0.00000000    0.00000000    0.00000000
     atom    4 type  2   force =     0.00000000    0.00000000    0.00000000
     atom    5 type  1   force =     0.00000000    0.00000000    0.00000000
     atom    6 type  1   force =     0.00000000    0.00000000    0.00000000
     atom    7 type  2   force =     0.00000000    0.00000000    0.00000000
     atom    8 type  2   force =     0.00000000    0.00000000    0.00000000
     atom    9 type  1   force =     0.00000000    0.00000000    0.00000000
     atom   10 type  1   force =     0.00000000    0.00000000    0.00000000
     atom   11 type  2   force =     0.00000000    0.00000000    0.00000000
     atom   12 type  2   force =     0.00000000    0.00000000    0.00000000
     atom   13 type  1   force =     0.00000000    0.00000000    0.00000000
     atom   14 type  1   force =     0.00000000    0.00000000    0.00000000
     atom   15 type  2   force =     0.00000000    0.00000000    0.00000000
     atom   16 type  2   force =     0.00000000    0.00000000    0.00000000
     atom   17 type  1   force =     0.00000000    0.00000000    0.00000000
     atom   18 type  1   force =     0.00000000    0.00000000    0.00000000
     atom   19 type  2   force =     0.00000000    0.00000000    0.00000000
     atom   20 type  2   force =     0.00000000    0.00000000    0.00000000
     atom   21 type  1   force =     0.00000000    0.00000000    0.00000000
     atom   22 type  1   force =     0.00000000    0.00000000    0.00000000
     atom   23 type  2   force =     0.00000000    0.00000000    0.00000000
     atom   24 type  2   force =     0.00000000    0.00000000    0.00000000
     atom   25 type  1   force =     0.00000000    0.00000000    0.00000000
     atom   26 type  1   force =     0.00000000    0.00000000    0.00000000
     atom   27 type  2   force =     0.00000000    0.00000000    0.00000000
     atom   28 type  2   force =     0.00000000    0.00000000    0.00000000
     atom   29 type  1   force =     0.00000000    0.00000000    0.00000000
     atom   30 type  1   force =     0.00000000    0.00000000    0.00000000
     atom   31 type  2   force =     0.00000000    0.00000000    0.00000000
     atom   32 type  2   force =     0.00000000    0.00000000    0.00000000
     atom   33 type  1   force =     0.00000000    0.00000000    0.00000000
     atom   34 type  1   force =     0.00000000    0.00000000    0.00000000
     atom   35 type  2   force =     0.00000000    0.00000000    0.00000000
     atom   36 type  2   force =     0.00000000    0.00000000    0.00000000
     The SCF correction term to forces
     atom    1 type  1   force =    -0.00000144   -0.00000083   -0.00002353
     atom    2 type  1   force =    -0.00000423   -0.00000244    0.00001906
     atom    3 type  2   force =    -0.00000044   -0.00000025   -0.00000830
     atom    4 type  2   force =     0.00000236    0.00000136   -0.00000496
     atom    5 type  1   force =     0.00000368    0.00000212   -0.00001052
     atom    6 type  1   force =     0.00000104    0.00000060   -0.00002238
     atom    7 type  2   force =     0.00000079    0.00000045    0.00002254
     atom    8 type  2   force =     0.00000187    0.00000108   -0.00000173
     atom    9 type  1   force =     0.00000855    0.00000494   -0.00002211
     atom   10 type  1   force =     0.00000405    0.00000234    0.00004932
     atom   11 type  2   force =    -0.00000015   -0.00000009    0.00000736
     atom   12 type  2   force =     0.00000732    0.00000423    0.00000609
     atom   13 type  1   force =    -0.00001499   -0.00000866   -0.00001566
     atom   14 type  1   force =     0.00000126    0.00000073    0.00001511
     atom   15 type  2   force =    -0.00000228   -0.00000132   -0.00000723
     atom   16 type  2   force =    -0.00000394   -0.00000227   -0.00000562
     atom   17 type  1   force =    -0.00000729   -0.00000421   -0.00000673
     atom   18 type  1   force =    -0.00000423   -0.00000244   -0.00001404
     atom   19 type  2   force =    -0.00000207   -0.00000120    0.00001944
     atom   20 type  2   force =    -0.00000158   -0.00000091   -0.00000306
     atom   21 type  1   force =    -0.00002699   -0.00001559   -0.00000257
     atom   22 type  1   force =    -0.00000345   -0.00000199    0.00005455
     atom   23 type  2   force =    -0.00000100   -0.00000058    0.00000379
     atom   24 type  2   force =    -0.00000574   -0.00000332    0.00000546
     atom   25 type  1   force =     0.00001579    0.00000911   -0.00001005
     atom   26 type  1   force =     0.00000409    0.00000236   -0.00000249
     atom   27 type  2   force =     0.00000220    0.00000127   -0.00000816
     atom   28 type  2   force =     0.00000264    0.00000152   -0.00000369
     atom   29 type  1   force =     0.00000281    0.00000162    0.00000164
     atom   30 type  1   force =     0.00000421    0.00000243   -0.00002209
     atom   31 type  2   force =     0.00000087    0.00000050    0.00001555
     atom   32 type  2   force =     0.00000051    0.00000030   -0.00000021
     atom   33 type  1   force =     0.00001581    0.00000913    0.00001643
     atom   34 type  1   force =     0.00000117    0.00000067    0.00002584
     atom   35 type  2   force =     0.00000012    0.00000007    0.00000375
     atom   36 type  2   force =     0.00000012    0.00000007    0.00001038

     Total force =     0.096242     Total SCF correction =     0.000117

     General routines

     Parallel routines

   This run was terminated on:  17:22:50   3Sep2025

   JOB DONE.
Note: The following floating-point exceptions are signalling: IEEE_INVALID_FLAG
Note: The following floating-point exceptions are signalling: IEEE_DENORMAL
Note: The following floating-point exceptions are signalling: IEEE_INVALID_FLAG
Note: The following floating-point exceptions are signalling: IEEE_DENORMAL
Note: The following floating-point exceptions are signalling: IEEE_INVALID_FLAG
Note: The following floating-point exceptions are signalling: IEEE_DENORMAL
Note: The following floating-point exceptions are signalling: IEEE_INVALID_FLAG
Note: The following floating-point exceptions are signalling: IEEE_DENORMAL
Note: The following floating-point exceptions are signalling: IEEE_INVALID_FLAG
Note: The following floating-point exceptions are signalling: IEEE_DENORMAL
Note: The following floating-point exceptions are signalling: IEEE_DENORMAL
Note: The following floating-point exceptions are signalling: IEEE_INVALID_FLAG
Note: The following floating-point exceptions are signalling: IEEE_INVALID_FLAG
Note: The following floating-point exceptions are signalling: IEEE_INVALID_FLAG
Note: The following floating-point exceptions are signalling: IEEE_DENORMAL
Note: The following floating-point exceptions are signalling: IEEE_INVALID_FLAG
Note: The following floating-point exceptions are signalling: IEEE_DENORMAL
Note: The following floating-point exceptions are signalling: IEEE_INVALID_FLAG
Note: The following floating-point exceptions are signalling: IEEE_INVALID_FLAG
Note: The following floating-point exceptions are signalling: IEEE_INVALID_FLAG
Note: The following floating-point exceptions are signalling: IEEE_DENORMAL
Note: The following floating-point exceptions are signalling: IEEE_DENORMAL
Note: The following floating-point exceptions are signalling: IEEE_INVALID_FLAG
Note: The following floating-point exceptions are signalling: IEEE_DENORMAL
Note: The following floating-point exceptions are signalling: IEEE_DENORMAL
Note: The following floating-point exceptions are signalling: IEEE_INVALID_FLAG
Note: The following floating-point exceptions are signalling: IEEE_INVALID_FLAG
Note: The following floating-point exceptions are signalling: IEEE_DENORMAL
Note: The following floating-point exceptions are signalling: IEEE_DENORMAL
Note: The following floating-point exceptions are signalling: IEEE_DENORMAL
Note: The following floating-point exceptions are signalling: IEEE_DENORMAL
Note: The following floating-point exceptions are signalling: IEEE_INVALID_FLAG