     Program PWSCF v.7.2 starts on 29Aug2025 at 12:31: 0

     Reading input from /home/jvc/QEspresso7.2/ZnO_database/scripts/cell313.in/ZnO-3.07-1.65-313.in
Warning: card &CELL ignored
Warning: card / ignored
Warning: card &FCP ignored
Warning: card / ignored
Warning: card &RISM ignored
Warning: card / ignored

     Current dimensions of program PWSCF are:
     Max number of different atomic species (ntypx) = 10
     Max number of k-points (npk) =  40000
     Max angular momentum in pseudopotentials (lmaxx) =  4
     file Zn.upf: wavefunction(s)  3D renormalized
     Found identity + (  0.0000  0.0000  0.3333) symmetry
     This is a supercell, fractional translations are disabled
     Message from routine setup:
     using ibrav=0 with symmetry is DISCOURAGED, use correct ibrav instead

     K-points division:     npool     =       6
     R & G space division:  proc/nbgrp/npool/nimage =      10
     Subspace diagonalization in iterative solution of the eigenvalue problem:
     one sub-group per band group will be used

     Using Slab Decomposition

     bravais-lattice index     =            0
     lattice parameter (alat)  =      17.4244  a.u.
     unit-cell volume          =    2514.6678 (a.u.)^3
     number of atoms/cell      =           36
     number of atomic types    =            2
     number of electrons       =       324.00
     number of Kohn-Sham states=          162
     kinetic-energy cutoff     =      50.0000  Ry
     charge density cutoff     =     400.0000  Ry
     scf convergence threshold =      1.0E-08
     mixing beta               =       0.3000
     number of iterations used =            8  plain     mixing
     Exchange-correlation= PBE
                           (   1   4   3   4   0   0   0)

     celldm(1)=  17.424368  celldm(2)=   0.000000  celldm(3)=   0.000000
     celldm(4)=   0.000000  celldm(5)=   0.000000  celldm(6)=   0.000000

     crystal axes: (cart. coord. in units of alat)
               a(1) = (   1.000000   0.000000   0.000000 )
               a(2) = (  -0.166667   0.288675   0.000000 )
               a(3) = (   0.000000   0.000000   1.646646 )

     reciprocal axes: (cart. coord. in units 2 pi/alat)
               b(1) = (  1.000000  0.577350 -0.000000 )
               b(2) = (  0.000000  3.464102  0.000000 )
               b(3) = (  0.000000 -0.000000  0.607295 )

     PseudoPot. # 1 for Zn read from file:
     /home/jvc/QEspresso7.2/ZnO_database/pseudos/Zn.upf
     MD5 check sum: 7f56cabf9682ed8c977c2f7d0c5985c5
     Pseudo is Ultrasoft + core correction, Zval = 12.0
     Generated using &quot;atomic&quot; code by A. Dal Corso  v.6.2.2
     Using radial grid of 1201 points,  6 beta functions with:
                l(1) =   0
                l(2) =   0
                l(3) =   1
                l(4) =   1
                l(5) =   2
                l(6) =   2
     Q(r) pseudized with 0 coefficients

     PseudoPot. # 2 for O  read from file:
     /home/jvc/QEspresso7.2/ZnO_database/pseudos/O.upf
     MD5 check sum: 91400c9766925bcf19f520983a725ff0
     Pseudo is Ultrasoft + core correction, Zval =  6.0
     Generated using &quot;atomic&quot; code by A. Dal Corso  v.6.3MaX
     Using radial grid of 1095 points,  4 beta functions with:
                l(1) =   0
                l(2) =   0
                l(3) =   1
                l(4) =   1
     Q(r) pseudized with 0 coefficients

     atomic species   valence    mass     pseudopotential
        Zn            12.00    65.38000     Zn( 1.00)
        O              6.00    15.99900     O ( 1.00)

      2 Sym. Ops. (no inversion) found

                                    s                        frac. trans.

      isym =  1     identity

 cryst.   s( 1) = (     1          0          0      )
                  (     0          1          0      )
                  (     0          0          1      )

 cart.    s( 1) = (  1.0000000 -0.0000000  0.0000000 )
                  (  0.0000000  1.0000000  0.0000000 )
                  (  0.0000000  0.0000000  1.0000000 )

      isym =  2     inv. 180 deg rotation - cryst. axis [0,1,0]

 cryst.   s( 2) = (     1          3          0      )
                  (     0         -1          0      )
                  (     0          0          1      )

 cart.    s( 2) = (  0.5000000  0.8660254  0.0000000 )
                  (  0.8660254 -0.5000000  0.0000000 )
                  (  0.0000000  0.0000000  1.0000000 )

   Cartesian axes

     site n.     atom                  positions (alat units)
         1           Zn  tau(   1) = (   0.1666667   0.0962250   0.2747887  )
         2           Zn  tau(   2) = (  -0.0000000   0.1924501   0.0003478  )
         3           O   tau(   3) = (   0.1666667   0.0962250   0.4828384  )
         4           O   tau(   4) = (  -0.0000000   0.1924501   0.2083975  )
         5           Zn  tau(   5) = (   0.1666667   0.0962250   0.8236705  )
         6           Zn  tau(   6) = (  -0.0000000   0.1924501   0.5492296  )
         7           O   tau(   7) = (   0.1666667   0.0962250   1.0317203  )
         8           O   tau(   8) = (  -0.0000000   0.1924501   0.7572793  )
         9           Zn  tau(   9) = (   0.1666667   0.0962250   1.3725524  )
        10           Zn  tau(  10) = (  -0.0000000   0.1924501   1.0981114  )
        11           O   tau(  11) = (   0.1666667   0.0962250   1.5806021  )
        12           O   tau(  12) = (  -0.0000000   0.1924501   1.3061612  )
        13           Zn  tau(  13) = (   0.5000000   0.0962250   0.2747887  )
        14           Zn  tau(  14) = (   0.3333333   0.1924501   0.0003478  )
        15           O   tau(  15) = (   0.5000000   0.0962250   0.4828384  )
        16           O   tau(  16) = (   0.3333333   0.1924501   0.2083975  )
        17           Zn  tau(  17) = (   0.5000000   0.0962250   0.8236705  )
        18           Zn  tau(  18) = (   0.3333333   0.1924501   0.5492296  )
        19           O   tau(  19) = (   0.5000000   0.0962250   1.0317203  )
        20           O   tau(  20) = (   0.3333333   0.1924501   0.7572793  )
        21           Zn  tau(  21) = (   0.5000000   0.0962250   1.3725524  )
        22           Zn  tau(  22) = (   0.3333333   0.1924501   1.0981114  )
        23           O   tau(  23) = (   0.5000000   0.0962250   1.5806021  )
        24           O   tau(  24) = (   0.3333333   0.1924501   1.3061612  )
        25           Zn  tau(  25) = (   0.8333333   0.0962250   0.2747887  )
        26           Zn  tau(  26) = (   0.6666667   0.1924501   0.0003478  )
        27           O   tau(  27) = (   0.8333333   0.0962250   0.4828384  )
        28           O   tau(  28) = (   0.6666667   0.1924501   0.2083975  )
        29           Zn  tau(  29) = (   0.8333333   0.0962250   0.8236705  )
        30           Zn  tau(  30) = (   0.6666667   0.1924501   0.5492296  )
        31           O   tau(  31) = (   0.8333333   0.0962250   1.0317203  )
        32           O   tau(  32) = (   0.6666667   0.1924501   0.7572793  )
        33           Zn  tau(  33) = (   0.8333333   0.0962250   1.3725524  )
        34           Zn  tau(  34) = (   0.6666667   0.1924501   1.0981114  )
        35           O   tau(  35) = (   0.8333333   0.0962250   1.5806021  )
        36           O   tau(  36) = (   0.6666667   0.1924501   1.3061612  )

   Crystallographic axes

     site n.     atom                  positions (cryst. coord.)
         1           Zn  tau(   1) = (  0.2222222  0.3333333  0.1668779  )
         2           Zn  tau(   2) = (  0.1111111  0.6666667  0.0002112  )
         3           O   tau(   3) = (  0.2222222  0.3333333  0.2932255  )
         4           O   tau(   4) = (  0.1111111  0.6666667  0.1265588  )
         5           Zn  tau(   5) = (  0.2222222  0.3333333  0.5002112  )
         6           Zn  tau(   6) = (  0.1111111  0.6666667  0.3335445  )
         7           O   tau(   7) = (  0.2222222  0.3333333  0.6265588  )
         8           O   tau(   8) = (  0.1111111  0.6666667  0.4598921  )
         9           Zn  tau(   9) = (  0.2222222  0.3333333  0.8335445  )
        10           Zn  tau(  10) = (  0.1111111  0.6666667  0.6668779  )
        11           O   tau(  11) = (  0.2222222  0.3333333  0.9598921  )
        12           O   tau(  12) = (  0.1111111  0.6666667  0.7932255  )
        13           Zn  tau(  13) = (  0.5555556  0.3333333  0.1668779  )
        14           Zn  tau(  14) = (  0.4444444  0.6666667  0.0002112  )
        15           O   tau(  15) = (  0.5555556  0.3333333  0.2932255  )
        16           O   tau(  16) = (  0.4444444  0.6666667  0.1265588  )
        17           Zn  tau(  17) = (  0.5555556  0.3333333  0.5002112  )
        18           Zn  tau(  18) = (  0.4444444  0.6666667  0.3335445  )
        19           O   tau(  19) = (  0.5555556  0.3333333  0.6265588  )
        20           O   tau(  20) = (  0.4444444  0.6666667  0.4598921  )
        21           Zn  tau(  21) = (  0.5555556  0.3333333  0.8335445  )
        22           Zn  tau(  22) = (  0.4444444  0.6666667  0.6668779  )
        23           O   tau(  23) = (  0.5555556  0.3333333  0.9598921  )
        24           O   tau(  24) = (  0.4444444  0.6666667  0.7932255  )
        25           Zn  tau(  25) = (  0.8888889  0.3333333  0.1668779  )
        26           Zn  tau(  26) = (  0.7777778  0.6666667  0.0002112  )
        27           O   tau(  27) = (  0.8888889  0.3333333  0.2932255  )
        28           O   tau(  28) = (  0.7777778  0.6666667  0.1265588  )
        29           Zn  tau(  29) = (  0.8888889  0.3333333  0.5002112  )
        30           Zn  tau(  30) = (  0.7777778  0.6666667  0.3335445  )
        31           O   tau(  31) = (  0.8888889  0.3333333  0.6265588  )
        32           O   tau(  32) = (  0.7777778  0.6666667  0.4598921  )
        33           Zn  tau(  33) = (  0.8888889  0.3333333  0.8335445  )
        34           Zn  tau(  34) = (  0.7777778  0.6666667  0.6668779  )
        35           O   tau(  35) = (  0.8888889  0.3333333  0.9598921  )
        36           O   tau(  36) = (  0.7777778  0.6666667  0.7932255  )

     number of k points=    68
                       cart. coord. in units 2pi/alat
        k(    1) = (   0.0000000   0.0000000   0.0000000), wk =   0.0092593
        k(    2) = (   0.0000000   0.0000000   0.1012159), wk =   0.0185185
        k(    3) = (   0.0000000   0.0000000   0.2024317), wk =   0.0185185
        k(    4) = (   0.0000000   0.0000000  -0.3036476), wk =   0.0092593
        k(    5) = (   0.0000000   0.5773503   0.0000000), wk =   0.0370370
        k(    6) = (   0.0000000   0.5773503   0.1012159), wk =   0.0370370
        k(    7) = (   0.0000000   0.5773503   0.2024317), wk =   0.0370370
        k(    8) = (   0.0000000   0.5773503  -0.3036476), wk =   0.0370370
        k(    9) = (   0.0000000   1.1547005   0.0000000), wk =   0.0185185
        k(   10) = (   0.0000000   1.1547005   0.1012159), wk =   0.0370370
        k(   11) = (   0.0000000   1.1547005   0.2024317), wk =   0.0370370
        k(   12) = (   0.0000000   1.1547005  -0.3036476), wk =   0.0185185
        k(   13) = (   0.0000000  -1.7320508   0.0000000), wk =   0.0185185
[...]
     atom   14 type  1   force =     0.00002353    0.00001358    0.05525659
     atom   15 type  2   force =    -0.00017531   -0.00010122    0.04803553
     atom   16 type  2   force =     0.00017666    0.00010200    0.04803381
     atom   17 type  1   force =    -0.00002404   -0.00001388    0.05525627
     atom   18 type  1   force =     0.00002395    0.00001383    0.05525519
     atom   19 type  2   force =    -0.00017449   -0.00010074    0.04803975
     atom   20 type  2   force =     0.00017348    0.00010016    0.04803326
     atom   21 type  1   force =    -0.00002479   -0.00001431    0.05525470
     atom   22 type  1   force =     0.00002377    0.00001372    0.05525380
     atom   23 type  2   force =    -0.00017291   -0.00009983    0.04803202
     atom   24 type  2   force =     0.00017590    0.00010155    0.04803953
     atom   25 type  1   force =    -0.00002384   -0.00001377    0.05525615
     atom   26 type  1   force =     0.00002481    0.00001432    0.05525689
     atom   27 type  2   force =    -0.00017489   -0.00010097    0.04803594
     atom   28 type  2   force =     0.00017321    0.00010001    0.04803327
     atom   29 type  1   force =    -0.00002437   -0.00001407    0.05525582
     atom   30 type  1   force =     0.00002404    0.00001388    0.05525598
     atom   31 type  2   force =    -0.00017428   -0.00010062    0.04803889
     atom   32 type  2   force =     0.00017454    0.00010077    0.04803559
     atom   33 type  1   force =    -0.00002360   -0.00001363    0.05525556
     atom   34 type  1   force =     0.00002422    0.00001398    0.05525354
     atom   35 type  2   force =    -0.00017597   -0.00010160    0.04803335
     atom   36 type  2   force =     0.00017394    0.00010042    0.04803895
     The ionic contribution  to forces
     atom    1 type  1   force =     0.00000001    0.00000001    0.52630183
     atom    2 type  1   force =     0.00000001    0.00000000    0.52630187
     atom    3 type  2   force =     0.00000000    0.00000000   -0.52630185
     atom    4 type  2   force =     0.00000001    0.00000000   -0.52630186
     atom    5 type  1   force =     0.00000001    0.00000001    0.52630188
     atom    6 type  1   force =     0.00000001    0.00000000    0.52630183
     atom    7 type  2   force =     0.00000000    0.00000000   -0.52630186
     atom    8 type  2   force =     0.00000001    0.00000000   -0.52630183
     atom    9 type  1   force =     0.00000001    0.00000001    0.52630183
     atom   10 type  1   force =     0.00000001    0.00000000    0.52630183
     atom   11 type  2   force =     0.00000000    0.00000000   -0.52630183
     atom   12 type  2   force =     0.00000001    0.00000000   -0.52630185
     atom   13 type  1   force =    -0.00000001    0.00000000    0.52630183
     atom   14 type  1   force =     0.00000001   -0.00000000    0.52630187
     atom   15 type  2   force =    -0.00000001    0.00000000   -0.52630184
     atom   16 type  2   force =     0.00000001   -0.00000000   -0.52630185
     atom   17 type  1   force =    -0.00000001    0.00000000    0.52630187
     atom   18 type  1   force =     0.00000001   -0.00000000    0.52630183
     atom   19 type  2   force =    -0.00000001    0.00000000   -0.52630185
     atom   20 type  2   force =     0.00000001   -0.00000000   -0.52630183
     atom   21 type  1   force =    -0.00000001    0.00000000    0.52630183
     atom   22 type  1   force =     0.00000001   -0.00000000    0.52630183
     atom   23 type  2   force =    -0.00000001    0.00000000   -0.52630183
     atom   24 type  2   force =     0.00000001   -0.00000000   -0.52630184
     atom   25 type  1   force =    -0.00000001   -0.00000000    0.52630183
     atom   26 type  1   force =    -0.00000001   -0.00000001    0.52630188
     atom   27 type  2   force =    -0.00000001   -0.00000000   -0.52630185
     atom   28 type  2   force =    -0.00000000   -0.00000000   -0.52630186
     atom   29 type  1   force =    -0.00000001   -0.00000000    0.52630187
     atom   30 type  1   force =    -0.00000001   -0.00000001    0.52630183
     atom   31 type  2   force =    -0.00000001   -0.00000000   -0.52630186
     atom   32 type  2   force =    -0.00000000   -0.00000000   -0.52630183
     atom   33 type  1   force =    -0.00000001   -0.00000000    0.52630183
     atom   34 type  1   force =    -0.00000001   -0.00000001    0.52630183
     atom   35 type  2   force =    -0.00000001   -0.00000000   -0.52630183
     atom   36 type  2   force =    -0.00000000   -0.00000000   -0.52630185
     The local contribution  to forces
     atom    1 type  1   force =     0.00003996    0.00002307   -0.56305302
     atom    2 type  1   force =    -0.00004209   -0.00002435   -0.56305878
     atom    3 type  2   force =     0.00016990    0.00009809    0.46451423
     atom    4 type  2   force =    -0.00017046   -0.00009843    0.46451507
     atom    5 type  1   force =     0.00003990    0.00002304   -0.56305495
     atom    6 type  1   force =    -0.00003998   -0.00002313   -0.56305435
     atom    7 type  2   force =     0.00017003    0.00009816    0.46451560
     atom    8 type  2   force =    -0.00017090   -0.00009868    0.46451468
     atom    9 type  1   force =     0.00004076    0.00002354   -0.56305208
     atom   10 type  1   force =    -0.00004224   -0.00002443   -0.56305102
     atom   11 type  2   force =     0.00017020    0.00009827    0.46451627
     atom   12 type  2   force =    -0.00017040   -0.00009839    0.46451343
     atom   13 type  1   force =     0.00004212    0.00002441   -0.56305555
     atom   14 type  1   force =    -0.00003907   -0.00002265   -0.56305719
     atom   15 type  2   force =     0.00017093    0.00009871    0.46451463
     atom   16 type  2   force =    -0.00017104   -0.00009877    0.46451469
     atom   17 type  1   force =     0.00004128    0.00002392   -0.56305515
     atom   18 type  1   force =    -0.00004178   -0.00002421   -0.56305449
     atom   19 type  2   force =     0.00017068    0.00009857    0.46451479
     atom   20 type  2   force =    -0.00016944   -0.00009785    0.46451542
     atom   21 type  1   force =     0.00004159    0.00002410   -0.56305231
     atom   22 type  1   force =    -0.00004016   -0.00002328   -0.56304927
     atom   23 type  2   force =     0.00016973    0.00009802    0.46451490
     atom   24 type  2   force =    -0.00017060   -0.00009852    0.46451279
     atom   25 type  1   force =     0.00003975    0.00002299   -0.56305432
     atom   26 type  1   force =    -0.00004073   -0.00002352   -0.56305871
     atom   27 type  2   force =     0.00017035    0.00009836    0.46451389
     atom   28 type  2   force =    -0.00016974   -0.00009800    0.46451519
     atom   29 type  1   force =     0.00004104    0.00002374   -0.56305345
     atom   30 type  1   force =    -0.00003969   -0.00002292   -0.56305556
     atom   31 type  2   force =     0.00017028    0.00009832    0.46451565
     atom   32 type  2   force =    -0.00016979   -0.00009803    0.46451427
     atom   33 type  1   force =     0.00003969    0.00002296   -0.56305159
     atom   34 type  1   force =    -0.00003956   -0.00002284   -0.56304990
     atom   35 type  2   force =     0.00017008    0.00009821    0.46451389
     atom   36 type  2   force =    -0.00017004   -0.00009817    0.46451263
     The core correction contribution to forces
     atom    1 type  1   force =    -0.00000543   -0.00000313   -0.00441273
     atom    2 type  1   force =     0.00000546    0.00000315   -0.00441267
     atom    3 type  2   force =     0.00000197    0.00000114   -0.00033988
     atom    4 type  2   force =    -0.00000198   -0.00000114   -0.00033985
     atom    5 type  1   force =    -0.00000538   -0.00000311   -0.00441274
     atom    6 type  1   force =     0.00000541    0.00000312   -0.00441265
     atom    7 type  2   force =     0.00000199    0.00000115   -0.00033989
     atom    8 type  2   force =    -0.00000199   -0.00000115   -0.00033985
     atom    9 type  1   force =    -0.00000543   -0.00000313   -0.00441266
     atom   10 type  1   force =     0.00000543    0.00000313   -0.00441269
     atom   11 type  2   force =     0.00000198    0.00000114   -0.00033979
     atom   12 type  2   force =    -0.00000198   -0.00000114   -0.00033990
     atom   13 type  1   force =    -0.00000542   -0.00000312   -0.00441271
     atom   14 type  1   force =     0.00000542    0.00000312   -0.00441266
     atom   15 type  2   force =     0.00000199    0.00000115   -0.00033986
     atom   16 type  2   force =    -0.00000201   -0.00000116   -0.00033983
     atom   17 type  1   force =    -0.00000544   -0.00000313   -0.00441273
     atom   18 type  1   force =     0.00000547    0.00000314   -0.00441263
     atom   19 type  2   force =     0.00000198    0.00000114   -0.00033991
     atom   20 type  2   force =    -0.00000196   -0.00000113   -0.00033983
     atom   21 type  1   force =    -0.00000540   -0.00000311   -0.00441267
     atom   22 type  1   force =     0.00000544    0.00000313   -0.00441272
     atom   23 type  2   force =     0.00000196    0.00000113   -0.00033981
     atom   24 type  2   force =    -0.00000200   -0.00000115   -0.00033992
     atom   25 type  1   force =    -0.00000541   -0.00000312   -0.00441274
     atom   26 type  1   force =     0.00000536    0.00000310   -0.00441264
     atom   27 type  2   force =     0.00000198    0.00000115   -0.00033987
     atom   28 type  2   force =    -0.00000196   -0.00000113   -0.00033983
     atom   29 type  1   force =    -0.00000541   -0.00000312   -0.00441274
     atom   30 type  1   force =     0.00000539    0.00000311   -0.00441267
     atom   31 type  2   force =     0.00000198    0.00000114   -0.00033990
     atom   32 type  2   force =    -0.00000198   -0.00000114   -0.00033986
     atom   33 type  1   force =    -0.00000541   -0.00000312   -0.00441275
     atom   34 type  1   force =     0.00000537    0.00000310   -0.00441268
     atom   35 type  2   force =     0.00000200    0.00000115   -0.00033983
     atom   36 type  2   force =    -0.00000197   -0.00000114   -0.00033991
     The Hubbard contrib.    to forces
     atom    1 type  1   force =     0.00000000    0.00000000    0.00000000
     atom    2 type  1   force =     0.00000000    0.00000000    0.00000000
     atom    3 type  2   force =     0.00000000    0.00000000    0.00000000
     atom    4 type  2   force =     0.00000000    0.00000000    0.00000000
     atom    5 type  1   force =     0.00000000    0.00000000    0.00000000
     atom    6 type  1   force =     0.00000000    0.00000000    0.00000000
     atom    7 type  2   force =     0.00000000    0.00000000    0.00000000
     atom    8 type  2   force =     0.00000000    0.00000000    0.00000000
     atom    9 type  1   force =     0.00000000    0.00000000    0.00000000
     atom   10 type  1   force =     0.00000000    0.00000000    0.00000000
     atom   11 type  2   force =     0.00000000    0.00000000    0.00000000
     atom   12 type  2   force =     0.00000000    0.00000000    0.00000000
     atom   13 type  1   force =     0.00000000    0.00000000    0.00000000
     atom   14 type  1   force =     0.00000000    0.00000000    0.00000000
     atom   15 type  2   force =     0.00000000    0.00000000    0.00000000
     atom   16 type  2   force =     0.00000000    0.00000000    0.00000000
     atom   17 type  1   force =     0.00000000    0.00000000    0.00000000
     atom   18 type  1   force =     0.00000000    0.00000000    0.00000000
     atom   19 type  2   force =     0.00000000    0.00000000    0.00000000
     atom   20 type  2   force =     0.00000000    0.00000000    0.00000000
     atom   21 type  1   force =     0.00000000    0.00000000    0.00000000
     atom   22 type  1   force =     0.00000000    0.00000000    0.00000000
     atom   23 type  2   force =     0.00000000    0.00000000    0.00000000
     atom   24 type  2   force =     0.00000000    0.00000000    0.00000000
     atom   25 type  1   force =     0.00000000    0.00000000    0.00000000
     atom   26 type  1   force =     0.00000000    0.00000000    0.00000000
     atom   27 type  2   force =     0.00000000    0.00000000    0.00000000
     atom   28 type  2   force =     0.00000000    0.00000000    0.00000000
     atom   29 type  1   force =     0.00000000    0.00000000    0.00000000
     atom   30 type  1   force =     0.00000000    0.00000000    0.00000000
     atom   31 type  2   force =     0.00000000    0.00000000    0.00000000
     atom   32 type  2   force =     0.00000000    0.00000000    0.00000000
     atom   33 type  1   force =     0.00000000    0.00000000    0.00000000
     atom   34 type  1   force =     0.00000000    0.00000000    0.00000000
     atom   35 type  2   force =     0.00000000    0.00000000    0.00000000
     atom   36 type  2   force =     0.00000000    0.00000000    0.00000000
     The SCF correction term to forces
     atom    1 type  1   force =     0.00000089    0.00000052    0.00000153
     atom    2 type  1   force =     0.00000212    0.00000123    0.00000812
     atom    3 type  2   force =    -0.00000035   -0.00000020   -0.00000050
     atom    4 type  2   force =     0.00000001    0.00000000    0.00000199
     atom    5 type  1   force =     0.00000124    0.00000072    0.00000314
     atom    6 type  1   force =    -0.00000179   -0.00000103    0.00000317
     atom    7 type  2   force =     0.00000044    0.00000025   -0.00000245
     atom    8 type  2   force =    -0.00000088   -0.00000051    0.00000130
     atom    9 type  1   force =    -0.00000017   -0.00000010   -0.00000012
     atom   10 type  1   force =     0.00000193    0.00000112   -0.00000119
     atom   11 type  2   force =    -0.00000033   -0.00000019    0.00000371
     atom   12 type  2   force =     0.00000021    0.00000012   -0.00000131
     atom   13 type  1   force =    -0.00000184   -0.00000106    0.00000496
     atom   14 type  1   force =    -0.00000233   -0.00000135    0.00000627
     atom   15 type  2   force =     0.00000027    0.00000016    0.00000118
     atom   16 type  2   force =    -0.00000169   -0.00000098    0.00000274
     atom   17 type  1   force =    -0.00000103   -0.00000059    0.00000351
     atom   18 type  1   force =     0.00000231    0.00000134    0.00000372
     atom   19 type  2   force =    -0.00000017   -0.00000010   -0.00000354
     atom   20 type  2   force =     0.00000053    0.00000030    0.00000198
     atom   21 type  1   force =    -0.00000030   -0.00000017   -0.00000008
     atom   22 type  1   force =    -0.00000076   -0.00000044   -0.00000337
     atom   23 type  2   force =    -0.00000087   -0.00000050    0.00000371
     atom   24 type  2   force =    -0.00000102   -0.00000059   -0.00000192
     atom   25 type  1   force =     0.00000178    0.00000103    0.00000267
     atom   26 type  1   force =    -0.00000096   -0.00000055    0.00000908
     atom   27 type  2   force =     0.00000039    0.00000023    0.00000097
     atom   28 type  2   force =     0.00000136    0.00000078    0.00000276
     atom   29 type  1   force =    -0.00000000   -0.00000000    0.00000127
     atom   30 type  1   force =    -0.00000190   -0.00000110    0.00000497
     atom   31 type  2   force =    -0.00000013   -0.00000008   -0.00000354
     atom   32 type  2   force =    -0.00000024   -0.00000014    0.00000101
     atom   33 type  1   force =     0.00000107    0.00000062   -0.00000272
     atom   34 type  1   force =    -0.00000244   -0.00000141   -0.00000181
     atom   35 type  2   force =     0.00000167    0.00000096    0.00000403
     atom   36 type  2   force =     0.00000045    0.00000026   -0.00000168

     Total force =     0.084552     Total SCF correction =     0.000022

     General routines

     Parallel routines

   This run was terminated on:  13:16: 8  29Aug2025

   JOB DONE.
Note: The following floating-point exceptions are signalling: IEEE_DENORMAL
Note: The following floating-point exceptions are signalling: IEEE_INVALID_FLAG
Note: The following floating-point exceptions are signalling: IEEE_INVALID_FLAG
Note: The following floating-point exceptions are signalling: IEEE_DENORMAL
Note: The following floating-point exceptions are signalling: IEEE_DENORMAL
Note: The following floating-point exceptions are signalling: IEEE_DENORMAL
Note: The following floating-point exceptions are signalling: IEEE_INVALID_FLAG
Note: The following floating-point exceptions are signalling: IEEE_DENORMAL
Note: The following floating-point exceptions are signalling: IEEE_INVALID_FLAG
Note: The following floating-point exceptions are signalling: IEEE_DENORMAL
Note: The following floating-point exceptions are signalling: IEEE_INVALID_FLAG
Note: The following floating-point exceptions are signalling: IEEE_INVALID_FLAG