     Program PWSCF v.7.2 starts on  3Sep2025 at 10:46: 1

     Reading input from /home/jvc/QEspresso7.2/ZnO_database/scripts/cell313.in/ZnO-3.53-1.58-313.in
Warning: card &CELL ignored
Warning: card / ignored
Warning: card &FCP ignored
Warning: card / ignored
Warning: card &RISM ignored
Warning: card / ignored

     Current dimensions of program PWSCF are:
     Max number of different atomic species (ntypx) = 10
     Max number of k-points (npk) =  40000
     Max angular momentum in pseudopotentials (lmaxx) =  4
     file Zn.upf: wavefunction(s)  3D renormalized
     Found identity + (  0.0000  0.0000  0.3333) symmetry
     This is a supercell, fractional translations are disabled
     Message from routine setup:
     using ibrav=0 with symmetry is DISCOURAGED, use correct ibrav instead

     K-points division:     npool     =      16
     R & G space division:  proc/nbgrp/npool/nimage =       2
     Subspace diagonalization in iterative solution of the eigenvalue problem:
     a serial algorithm will be used

     Using Slab Decomposition

     bravais-lattice index     =            0
     lattice parameter (alat)  =      20.0195  a.u.
     unit-cell volume          =    3664.3270 (a.u.)^3
     number of atoms/cell      =           36
     number of atomic types    =            2
     number of electrons       =       324.00
     number of Kohn-Sham states=          162
     kinetic-energy cutoff     =      50.0000  Ry
     charge density cutoff     =     400.0000  Ry
     scf convergence threshold =      1.0E-08
     mixing beta               =       0.3000
     number of iterations used =            8  plain     mixing
     Exchange-correlation= PBE
                           (   1   4   3   4   0   0   0)

     celldm(1)=  20.019487  celldm(2)=   0.000000  celldm(3)=   0.000000
     celldm(4)=   0.000000  celldm(5)=   0.000000  celldm(6)=   0.000000

     crystal axes: (cart. coord. in units of alat)
               a(1) = (   1.000000   0.000000   0.000000 )
               a(2) = (  -0.166667   0.288675   0.000000 )
               a(3) = (   0.000000   0.000000   1.582071 )

     reciprocal axes: (cart. coord. in units 2 pi/alat)
               b(1) = (  1.000000  0.577350 -0.000000 )
               b(2) = (  0.000000  3.464102  0.000000 )
               b(3) = (  0.000000 -0.000000  0.632083 )

     PseudoPot. # 1 for Zn read from file:
     /home/jvc/QEspresso7.2/ZnO_database/pseudos/Zn.upf
     MD5 check sum: 7f56cabf9682ed8c977c2f7d0c5985c5
     Pseudo is Ultrasoft + core correction, Zval = 12.0
     Generated using &quot;atomic&quot; code by A. Dal Corso  v.6.2.2
     Using radial grid of 1201 points,  6 beta functions with:
                l(1) =   0
                l(2) =   0
                l(3) =   1
                l(4) =   1
                l(5) =   2
                l(6) =   2
     Q(r) pseudized with 0 coefficients

     PseudoPot. # 2 for O  read from file:
     /home/jvc/QEspresso7.2/ZnO_database/pseudos/O.upf
     MD5 check sum: 91400c9766925bcf19f520983a725ff0
     Pseudo is Ultrasoft + core correction, Zval =  6.0
     Generated using &quot;atomic&quot; code by A. Dal Corso  v.6.3MaX
     Using radial grid of 1095 points,  4 beta functions with:
                l(1) =   0
                l(2) =   0
                l(3) =   1
                l(4) =   1
     Q(r) pseudized with 0 coefficients

     atomic species   valence    mass     pseudopotential
        Zn            12.00    65.38000     Zn( 1.00)
        O              6.00    15.99900     O ( 1.00)

      2 Sym. Ops. (no inversion) found

                                    s                        frac. trans.

      isym =  1     identity

 cryst.   s( 1) = (     1          0          0      )
                  (     0          1          0      )
                  (     0          0          1      )

 cart.    s( 1) = (  1.0000000 -0.0000000  0.0000000 )
                  (  0.0000000  1.0000000  0.0000000 )
                  (  0.0000000  0.0000000  1.0000000 )

      isym =  2     inv. 180 deg rotation - cryst. axis [0,1,0]

 cryst.   s( 2) = (     1          3          0      )
                  (     0         -1          0      )
                  (     0          0          1      )

 cart.    s( 2) = (  0.5000000  0.8660254  0.0000000 )
                  (  0.8660254 -0.5000000  0.0000000 )
                  (  0.0000000  0.0000000  1.0000000 )

   Cartesian axes

     site n.     atom                  positions (alat units)
         1           Zn  tau(   1) = (   0.1666667   0.0962250   0.2640127  )
         2           Zn  tau(   2) = (  -0.0000000   0.1924501   0.0003341  )
         3           O   tau(   3) = (   0.1666667   0.0962250   0.4639036  )
         4           O   tau(   4) = (  -0.0000000   0.1924501   0.2002250  )
         5           Zn  tau(   5) = (   0.1666667   0.0962250   0.7913697  )
         6           Zn  tau(   6) = (  -0.0000000   0.1924501   0.5276912  )
         7           O   tau(   7) = (   0.1666667   0.0962250   0.9912606  )
         8           O   tau(   8) = (  -0.0000000   0.1924501   0.7275821  )
         9           Zn  tau(   9) = (   0.1666667   0.0962250   1.3187268  )
        10           Zn  tau(  10) = (  -0.0000000   0.1924501   1.0550483  )
        11           O   tau(  11) = (   0.1666667   0.0962250   1.5186177  )
        12           O   tau(  12) = (  -0.0000000   0.1924501   1.2549392  )
        13           Zn  tau(  13) = (   0.5000000   0.0962250   0.2640127  )
        14           Zn  tau(  14) = (   0.3333333   0.1924501   0.0003341  )
        15           O   tau(  15) = (   0.5000000   0.0962250   0.4639036  )
        16           O   tau(  16) = (   0.3333333   0.1924501   0.2002250  )
        17           Zn  tau(  17) = (   0.5000000   0.0962250   0.7913697  )
        18           Zn  tau(  18) = (   0.3333333   0.1924501   0.5276912  )
        19           O   tau(  19) = (   0.5000000   0.0962250   0.9912606  )
        20           O   tau(  20) = (   0.3333333   0.1924501   0.7275821  )
        21           Zn  tau(  21) = (   0.5000000   0.0962250   1.3187268  )
        22           Zn  tau(  22) = (   0.3333333   0.1924501   1.0550483  )
        23           O   tau(  23) = (   0.5000000   0.0962250   1.5186177  )
        24           O   tau(  24) = (   0.3333333   0.1924501   1.2549392  )
        25           Zn  tau(  25) = (   0.8333333   0.0962250   0.2640127  )
        26           Zn  tau(  26) = (   0.6666667   0.1924501   0.0003341  )
        27           O   tau(  27) = (   0.8333333   0.0962250   0.4639036  )
        28           O   tau(  28) = (   0.6666667   0.1924501   0.2002250  )
        29           Zn  tau(  29) = (   0.8333333   0.0962250   0.7913697  )
        30           Zn  tau(  30) = (   0.6666667   0.1924501   0.5276912  )
        31           O   tau(  31) = (   0.8333333   0.0962250   0.9912606  )
        32           O   tau(  32) = (   0.6666667   0.1924501   0.7275821  )
        33           Zn  tau(  33) = (   0.8333333   0.0962250   1.3187268  )
        34           Zn  tau(  34) = (   0.6666667   0.1924501   1.0550483  )
        35           O   tau(  35) = (   0.8333333   0.0962250   1.5186177  )
        36           O   tau(  36) = (   0.6666667   0.1924501   1.2549392  )

   Crystallographic axes

     site n.     atom                  positions (cryst. coord.)
         1           Zn  tau(   1) = (  0.2222222  0.3333333  0.1668779  )
         2           Zn  tau(   2) = (  0.1111111  0.6666667  0.0002112  )
         3           O   tau(   3) = (  0.2222222  0.3333333  0.2932255  )
         4           O   tau(   4) = (  0.1111111  0.6666667  0.1265588  )
         5           Zn  tau(   5) = (  0.2222222  0.3333333  0.5002112  )
         6           Zn  tau(   6) = (  0.1111111  0.6666667  0.3335445  )
         7           O   tau(   7) = (  0.2222222  0.3333333  0.6265588  )
         8           O   tau(   8) = (  0.1111111  0.6666667  0.4598921  )
         9           Zn  tau(   9) = (  0.2222222  0.3333333  0.8335445  )
        10           Zn  tau(  10) = (  0.1111111  0.6666667  0.6668779  )
        11           O   tau(  11) = (  0.2222222  0.3333333  0.9598921  )
        12           O   tau(  12) = (  0.1111111  0.6666667  0.7932255  )
        13           Zn  tau(  13) = (  0.5555556  0.3333333  0.1668779  )
        14           Zn  tau(  14) = (  0.4444444  0.6666667  0.0002112  )
        15           O   tau(  15) = (  0.5555556  0.3333333  0.2932255  )
        16           O   tau(  16) = (  0.4444444  0.6666667  0.1265588  )
        17           Zn  tau(  17) = (  0.5555556  0.3333333  0.5002112  )
        18           Zn  tau(  18) = (  0.4444444  0.6666667  0.3335445  )
        19           O   tau(  19) = (  0.5555556  0.3333333  0.6265588  )
        20           O   tau(  20) = (  0.4444444  0.6666667  0.4598921  )
        21           Zn  tau(  21) = (  0.5555556  0.3333333  0.8335445  )
        22           Zn  tau(  22) = (  0.4444444  0.6666667  0.6668779  )
        23           O   tau(  23) = (  0.5555556  0.3333333  0.9598921  )
        24           O   tau(  24) = (  0.4444444  0.6666667  0.7932255  )
        25           Zn  tau(  25) = (  0.8888889  0.3333333  0.1668779  )
        26           Zn  tau(  26) = (  0.7777778  0.6666667  0.0002112  )
        27           O   tau(  27) = (  0.8888889  0.3333333  0.2932255  )
        28           O   tau(  28) = (  0.7777778  0.6666667  0.1265588  )
        29           Zn  tau(  29) = (  0.8888889  0.3333333  0.5002112  )
        30           Zn  tau(  30) = (  0.7777778  0.6666667  0.3335445  )
        31           O   tau(  31) = (  0.8888889  0.3333333  0.6265588  )
        32           O   tau(  32) = (  0.7777778  0.6666667  0.4598921  )
        33           Zn  tau(  33) = (  0.8888889  0.3333333  0.8335445  )
        34           Zn  tau(  34) = (  0.7777778  0.6666667  0.6668779  )
        35           O   tau(  35) = (  0.8888889  0.3333333  0.9598921  )
        36           O   tau(  36) = (  0.7777778  0.6666667  0.7932255  )

     number of k points=    68
                       cart. coord. in units 2pi/alat
        k(    1) = (   0.0000000   0.0000000   0.0000000), wk =   0.0092593
        k(    2) = (   0.0000000   0.0000000   0.1053471), wk =   0.0185185
        k(    3) = (   0.0000000   0.0000000   0.2106943), wk =   0.0185185
        k(    4) = (   0.0000000   0.0000000  -0.3160414), wk =   0.0092593
        k(    5) = (   0.0000000   0.5773503   0.0000000), wk =   0.0370370
        k(    6) = (   0.0000000   0.5773503   0.1053471), wk =   0.0370370
        k(    7) = (   0.0000000   0.5773503   0.2106943), wk =   0.0370370
        k(    8) = (   0.0000000   0.5773503  -0.3160414), wk =   0.0370370
        k(    9) = (   0.0000000   1.1547005   0.0000000), wk =   0.0185185
        k(   10) = (   0.0000000   1.1547005   0.1053471), wk =   0.0370370
        k(   11) = (   0.0000000   1.1547005   0.2106943), wk =   0.0370370
        k(   12) = (   0.0000000   1.1547005  -0.3160414), wk =   0.0185185
        k(   13) = (   0.0000000  -1.7320508   0.0000000), wk =   0.0185185
[...]
     atom   18 type  1   force =    -0.00002120   -0.00001224   -0.05627009
     atom   19 type  2   force =    -0.00020830   -0.00012026   -0.04517936
     atom   20 type  2   force =     0.00020881    0.00012056   -0.04518017
     atom   21 type  1   force =     0.00002155    0.00001244   -0.05627252
     atom   22 type  1   force =    -0.00001943   -0.00001122   -0.05627540
     atom   23 type  2   force =    -0.00021057   -0.00012157   -0.04518038
     atom   24 type  2   force =     0.00020849    0.00012037   -0.04517913
     atom   25 type  1   force =     0.00001864    0.00001076   -0.05627843
     atom   26 type  1   force =    -0.00001483   -0.00000856   -0.05627593
     atom   27 type  2   force =    -0.00020968   -0.00012106   -0.04518311
     atom   28 type  2   force =     0.00020946    0.00012093   -0.04517633
     atom   29 type  1   force =     0.00001741    0.00001005   -0.05627133
     atom   30 type  1   force =    -0.00002101   -0.00001213   -0.05626725
     atom   31 type  2   force =    -0.00020907   -0.00012071   -0.04518085
     atom   32 type  2   force =     0.00020985    0.00012116   -0.04518289
     atom   33 type  1   force =     0.00001786    0.00001031   -0.05626698
     atom   34 type  1   force =    -0.00001880   -0.00001086   -0.05627071
     atom   35 type  2   force =    -0.00020980   -0.00012113   -0.04517905
     atom   36 type  2   force =     0.00020626    0.00011908   -0.04518352
     The ionic contribution  to forces
     atom    1 type  1   force =     0.00000001    0.00000001   -0.30712517
     atom    2 type  1   force =     0.00000001    0.00000000   -0.30712514
     atom    3 type  2   force =     0.00000000    0.00000000    0.30712516
     atom    4 type  2   force =     0.00000000    0.00000000    0.30712515
     atom    5 type  1   force =     0.00000001    0.00000001   -0.30712514
     atom    6 type  1   force =     0.00000001    0.00000000   -0.30712517
     atom    7 type  2   force =     0.00000000    0.00000000    0.30712515
     atom    8 type  2   force =     0.00000000    0.00000000    0.30712517
     atom    9 type  1   force =     0.00000001    0.00000001   -0.30712517
     atom   10 type  1   force =     0.00000001    0.00000000   -0.30712517
     atom   11 type  2   force =     0.00000000    0.00000000    0.30712517
     atom   12 type  2   force =     0.00000000    0.00000000    0.30712516
     atom   13 type  1   force =    -0.00000001    0.00000000   -0.30712518
     atom   14 type  1   force =     0.00000001   -0.00000000   -0.30712514
     atom   15 type  2   force =    -0.00000001    0.00000000    0.30712516
     atom   16 type  2   force =     0.00000001   -0.00000000    0.30712515
     atom   17 type  1   force =    -0.00000001    0.00000000   -0.30712514
     atom   18 type  1   force =     0.00000001   -0.00000000   -0.30712518
     atom   19 type  2   force =    -0.00000001    0.00000000    0.30712515
     atom   20 type  2   force =     0.00000001   -0.00000000    0.30712518
     atom   21 type  1   force =    -0.00000001    0.00000000   -0.30712518
     atom   22 type  1   force =     0.00000001   -0.00000000   -0.30712518
     atom   23 type  2   force =    -0.00000001    0.00000000    0.30712518
     atom   24 type  2   force =     0.00000001   -0.00000000    0.30712516
     atom   25 type  1   force =    -0.00000001   -0.00000000   -0.30712517
     atom   26 type  1   force =    -0.00000001   -0.00000001   -0.30712514
     atom   27 type  2   force =    -0.00000000   -0.00000000    0.30712516
     atom   28 type  2   force =    -0.00000000   -0.00000000    0.30712515
     atom   29 type  1   force =    -0.00000001   -0.00000000   -0.30712514
     atom   30 type  1   force =    -0.00000001   -0.00000001   -0.30712517
     atom   31 type  2   force =    -0.00000000   -0.00000000    0.30712515
     atom   32 type  2   force =    -0.00000000   -0.00000000    0.30712517
     atom   33 type  1   force =    -0.00000001   -0.00000000   -0.30712517
     atom   34 type  1   force =    -0.00000001   -0.00000001   -0.30712517
     atom   35 type  2   force =    -0.00000000   -0.00000000    0.30712517
     atom   36 type  2   force =    -0.00000000   -0.00000000    0.30712516
     The local contribution  to forces
     atom    1 type  1   force =    -0.00001847   -0.00001066    0.35981246
     atom    2 type  1   force =     0.00001986    0.00001141    0.35982145
     atom    3 type  2   force =     0.00019749    0.00011402   -0.26219698
     atom    4 type  2   force =    -0.00020007   -0.00011553   -0.26219268
     atom    5 type  1   force =    -0.00001817   -0.00001049    0.35980982
     atom    6 type  1   force =     0.00000016    0.00000004    0.35980624
     atom    7 type  2   force =     0.00019924    0.00011503   -0.26219228
     atom    8 type  2   force =    -0.00020270   -0.00011704   -0.26219372
     atom    9 type  1   force =    -0.00000838   -0.00000484    0.35980453
     atom   10 type  1   force =     0.00000910    0.00000520    0.35981894
     atom   11 type  2   force =     0.00020164    0.00011642   -0.26219091
     atom   12 type  2   force =    -0.00020117   -0.00011616   -0.26219619
     atom   13 type  1   force =    -0.00000953   -0.00000539    0.35980907
     atom   14 type  1   force =     0.00001983    0.00001134    0.35981406
     atom   15 type  2   force =     0.00020242    0.00011690   -0.26219492
     atom   16 type  2   force =    -0.00020072   -0.00011592   -0.26219345
     atom   17 type  1   force =    -0.00001274   -0.00000725    0.35981374
     atom   18 type  1   force =     0.00001986    0.00001136    0.35980995
     atom   19 type  2   force =     0.00020169    0.00011648   -0.26219323
     atom   20 type  2   force =    -0.00019994   -0.00011546   -0.26219365
     atom   21 type  1   force =    -0.00002399   -0.00001374    0.35981468
     atom   22 type  1   force =     0.00001769    0.00001011    0.35982181
     atom   23 type  2   force =     0.00020120    0.00011619   -0.26219262
     atom   24 type  2   force =    -0.00020158   -0.00011641   -0.26219526
     atom   25 type  1   force =    -0.00001635   -0.00000939    0.35982669
     atom   26 type  1   force =     0.00000377    0.00000218    0.35982391
     atom   27 type  2   force =     0.00020171    0.00011647   -0.26219422
     atom   28 type  2   force =    -0.00020165   -0.00011642   -0.26219395
     atom   29 type  1   force =    -0.00001256   -0.00000720    0.35981372
     atom   30 type  1   force =     0.00002385    0.00001377    0.35980096
     atom   31 type  2   force =     0.00020117    0.00011616   -0.26219365
     atom   32 type  2   force =    -0.00020051   -0.00011576   -0.26219290
     atom   33 type  1   force =    -0.00001141   -0.00000654    0.35980124
     atom   34 type  1   force =     0.00001715    0.00000990    0.35980722
     atom   35 type  2   force =     0.00019968    0.00011530   -0.26219137
     atom   36 type  2   force =    -0.00019897   -0.00011487   -0.26219483
     The core correction contribution to forces
     atom    1 type  1   force =    -0.00000634   -0.00000374    0.00345129
     atom    2 type  1   force =     0.00000623    0.00000361    0.00345091
     atom    3 type  2   force =     0.00000238    0.00000137    0.00038299
     atom    4 type  2   force =    -0.00000232   -0.00000134    0.00038294
     atom    5 type  1   force =    -0.00000626   -0.00000369    0.00345115
     atom    6 type  1   force =     0.00000664    0.00000384    0.00345113
     atom    7 type  2   force =     0.00000235    0.00000135    0.00038297
     atom    8 type  2   force =    -0.00000233   -0.00000135    0.00038301
     atom    9 type  1   force =    -0.00000631   -0.00000372    0.00345131
     atom   10 type  1   force =     0.00000652    0.00000377    0.00345098
     atom   11 type  2   force =     0.00000230    0.00000133    0.00038302
     atom   12 type  2   force =    -0.00000239   -0.00000138    0.00038299
     atom   13 type  1   force =    -0.00000615   -0.00000371    0.00345129
     atom   14 type  1   force =     0.00000588    0.00000355    0.00345102
     atom   15 type  2   force =     0.00000231    0.00000134    0.00038301
     atom   16 type  2   force =    -0.00000237   -0.00000137    0.00038299
     atom   17 type  1   force =    -0.00000609   -0.00000368    0.00345101
     atom   18 type  1   force =     0.00000612    0.00000369    0.00345100
     atom   19 type  2   force =     0.00000235    0.00000136    0.00038296
     atom   20 type  2   force =    -0.00000236   -0.00000137    0.00038297
     atom   21 type  1   force =    -0.00000589   -0.00000356    0.00345097
     atom   22 type  1   force =     0.00000604    0.00000364    0.00345084
     atom   23 type  2   force =     0.00000239    0.00000138    0.00038297
     atom   24 type  2   force =    -0.00000236   -0.00000136    0.00038295
     atom   25 type  1   force =    -0.00000623   -0.00000361    0.00345098
     atom   26 type  1   force =     0.00000658    0.00000388    0.00345081
     atom   27 type  2   force =     0.00000237    0.00000136    0.00038302
     atom   28 type  2   force =    -0.00000236   -0.00000136    0.00038293
     atom   29 type  1   force =    -0.00000634   -0.00000367    0.00345092
     atom   30 type  1   force =     0.00000595    0.00000352    0.00345128
     atom   31 type  2   force =     0.00000236    0.00000136    0.00038299
     atom   32 type  2   force =    -0.00000237   -0.00000136    0.00038303
     atom   33 type  1   force =    -0.00000651   -0.00000377    0.00345124
     atom   34 type  1   force =     0.00000614    0.00000362    0.00345128
     atom   35 type  2   force =     0.00000237    0.00000136    0.00038296
     atom   36 type  2   force =    -0.00000231   -0.00000133    0.00038303
     The Hubbard contrib.    to forces
     atom    1 type  1   force =     0.00000000    0.00000000    0.00000000
     atom    2 type  1   force =     0.00000000    0.00000000    0.00000000
     atom    3 type  2   force =     0.00000000    0.00000000    0.00000000
     atom    4 type  2   force =     0.00000000    0.00000000    0.00000000
     atom    5 type  1   force =     0.00000000    0.00000000    0.00000000
     atom    6 type  1   force =     0.00000000    0.00000000    0.00000000
     atom    7 type  2   force =     0.00000000    0.00000000    0.00000000
     atom    8 type  2   force =     0.00000000    0.00000000    0.00000000
     atom    9 type  1   force =     0.00000000    0.00000000    0.00000000
     atom   10 type  1   force =     0.00000000    0.00000000    0.00000000
     atom   11 type  2   force =     0.00000000    0.00000000    0.00000000
     atom   12 type  2   force =     0.00000000    0.00000000    0.00000000
     atom   13 type  1   force =     0.00000000    0.00000000    0.00000000
     atom   14 type  1   force =     0.00000000    0.00000000    0.00000000
     atom   15 type  2   force =     0.00000000    0.00000000    0.00000000
     atom   16 type  2   force =     0.00000000    0.00000000    0.00000000
     atom   17 type  1   force =     0.00000000    0.00000000    0.00000000
     atom   18 type  1   force =     0.00000000    0.00000000    0.00000000
     atom   19 type  2   force =     0.00000000    0.00000000    0.00000000
     atom   20 type  2   force =     0.00000000    0.00000000    0.00000000
     atom   21 type  1   force =     0.00000000    0.00000000    0.00000000
     atom   22 type  1   force =     0.00000000    0.00000000    0.00000000
     atom   23 type  2   force =     0.00000000    0.00000000    0.00000000
     atom   24 type  2   force =     0.00000000    0.00000000    0.00000000
     atom   25 type  1   force =     0.00000000    0.00000000    0.00000000
     atom   26 type  1   force =     0.00000000    0.00000000    0.00000000
     atom   27 type  2   force =     0.00000000    0.00000000    0.00000000
     atom   28 type  2   force =     0.00000000    0.00000000    0.00000000
     atom   29 type  1   force =     0.00000000    0.00000000    0.00000000
     atom   30 type  1   force =     0.00000000    0.00000000    0.00000000
     atom   31 type  2   force =     0.00000000    0.00000000    0.00000000
     atom   32 type  2   force =     0.00000000    0.00000000    0.00000000
     atom   33 type  1   force =     0.00000000    0.00000000    0.00000000
     atom   34 type  1   force =     0.00000000    0.00000000    0.00000000
     atom   35 type  2   force =     0.00000000    0.00000000    0.00000000
     atom   36 type  2   force =     0.00000000    0.00000000    0.00000000
     The SCF correction term to forces
     atom    1 type  1   force =     0.00000368    0.00000213    0.00000320
     atom    2 type  1   force =    -0.00000562   -0.00000324   -0.00000694
     atom    3 type  2   force =     0.00000414    0.00000239    0.00000258
     atom    4 type  2   force =     0.00000077    0.00000045   -0.00000381
     atom    5 type  1   force =     0.00000334    0.00000193    0.00000510
     atom    6 type  1   force =     0.00001442    0.00000832    0.00000794
     atom    7 type  2   force =     0.00000125    0.00000072   -0.00000236
     atom    8 type  2   force =     0.00000224    0.00000129    0.00000103
     atom    9 type  1   force =    -0.00000576   -0.00000333    0.00001174
     atom   10 type  1   force =     0.00000599    0.00000346   -0.00000418
     atom   11 type  2   force =    -0.00000275   -0.00000159   -0.00000073
     atom   12 type  2   force =    -0.00000191   -0.00000110    0.00000234
     atom   13 type  1   force =    -0.00000474   -0.00000273    0.00000662
     atom   14 type  1   force =    -0.00000635   -0.00000366    0.00000079
     atom   15 type  2   force =    -0.00000317   -0.00000183    0.00000247
     atom   16 type  2   force =    -0.00000130   -0.00000075    0.00000026
     atom   17 type  1   force =    -0.00000151   -0.00000087    0.00000080
     atom   18 type  1   force =    -0.00000458   -0.00000264    0.00000433
     atom   19 type  2   force =    -0.00000071   -0.00000041   -0.00000132
     atom   20 type  2   force =    -0.00000119   -0.00000069   -0.00000049
     atom   21 type  1   force =     0.00001033    0.00000596    0.00000024
     atom   22 type  1   force =    -0.00000344   -0.00000199   -0.00000698
     atom   23 type  2   force =     0.00000160    0.00000092   -0.00000138
     atom   24 type  2   force =     0.00000034    0.00000019   -0.00000023
     atom   25 type  1   force =     0.00000200    0.00000116   -0.00001176
     atom   26 type  1   force =     0.00001155    0.00000667   -0.00000983
     atom   27 type  2   force =     0.00000033    0.00000019    0.00000193
     atom   28 type  2   force =    -0.00000018   -0.00000011   -0.00000348
     atom   29 type  1   force =    -0.00000198   -0.00000114    0.00000011
     atom   30 type  1   force =    -0.00001034   -0.00000597    0.00001371
     atom   31 type  2   force =     0.00000042    0.00000024    0.00000000
     atom   32 type  2   force =    -0.00000148   -0.00000085    0.00000111
     atom   33 type  1   force =    -0.00000375   -0.00000217    0.00001417
     atom   34 type  1   force =    -0.00000328   -0.00000189    0.00000918
     atom   35 type  2   force =     0.00000183    0.00000106   -0.00000304
     atom   36 type  2   force =     0.00000060    0.00000035    0.00000262

     Total force =     0.000795     Total SCF correction =     0.000049

     General routines

     Parallel routines

   This run was terminated on:  12: 8:43   3Sep2025

   JOB DONE.
Note: The following floating-point exceptions are signalling: IEEE_INVALID_FLAG
Note: The following floating-point exceptions are signalling: IEEE_INVALID_FLAG
Note: The following floating-point exceptions are signalling: IEEE_INVALID_FLAG
Note: The following floating-point exceptions are signalling: IEEE_INVALID_FLAG
Note: The following floating-point exceptions are signalling: IEEE_INVALID_FLAG
Note: The following floating-point exceptions are signalling: IEEE_INVALID_FLAG
Note: The following floating-point exceptions are signalling: IEEE_INVALID_FLAG
Note: The following floating-point exceptions are signalling: IEEE_INVALID_FLAG
Note: The following floating-point exceptions are signalling: IEEE_INVALID_FLAG
Note: The following floating-point exceptions are signalling: IEEE_INVALID_FLAG
Note: The following floating-point exceptions are signalling: IEEE_INVALID_FLAG
Note: The following floating-point exceptions are signalling: IEEE_INVALID_FLAG
Note: The following floating-point exceptions are signalling: IEEE_INVALID_FLAG
Note: The following floating-point exceptions are signalling: IEEE_INVALID_FLAG
Note: The following floating-point exceptions are signalling: IEEE_INVALID_FLAG
Note: The following floating-point exceptions are signalling: IEEE_INVALID_FLAG