     Program PWSCF v.7.2 starts on  3Sep2025 at  7:35:41

     Reading input from /home/jvc/QEspresso7.2/ZnO_database/scripts/cell313.in/ZnO-3.53-1.52-313.in
Warning: card &CELL ignored
Warning: card / ignored
Warning: card &FCP ignored
Warning: card / ignored
Warning: card &RISM ignored
Warning: card / ignored

     Current dimensions of program PWSCF are:
     Max number of different atomic species (ntypx) = 10
     Max number of k-points (npk) =  40000
     Max angular momentum in pseudopotentials (lmaxx) =  4
     file Zn.upf: wavefunction(s)  3D renormalized
     Found identity + (  0.0000  0.0000  0.3333) symmetry
     This is a supercell, fractional translations are disabled
     Message from routine setup:
     using ibrav=0 with symmetry is DISCOURAGED, use correct ibrav instead

     K-points division:     npool     =      17
     R & G space division:  proc/nbgrp/npool/nimage =       3
     Subspace diagonalization in iterative solution of the eigenvalue problem:
     a serial algorithm will be used

     Using Slab Decomposition

     bravais-lattice index     =            0
     lattice parameter (alat)  =      20.0195  a.u.
     unit-cell volume          =    3514.7626 (a.u.)^3
     number of atoms/cell      =           36
     number of atomic types    =            2
     number of electrons       =       324.00
     number of Kohn-Sham states=          162
     kinetic-energy cutoff     =      50.0000  Ry
     charge density cutoff     =     400.0000  Ry
     scf convergence threshold =      1.0E-08
     mixing beta               =       0.3000
     number of iterations used =            8  plain     mixing
     Exchange-correlation= PBE
                           (   1   4   3   4   0   0   0)

     celldm(1)=  20.019487  celldm(2)=   0.000000  celldm(3)=   0.000000
     celldm(4)=   0.000000  celldm(5)=   0.000000  celldm(6)=   0.000000

     crystal axes: (cart. coord. in units of alat)
               a(1) = (   1.000000   0.000000   0.000000 )
               a(2) = (  -0.166667   0.288675   0.000000 )
               a(3) = (   0.000000   0.000000   1.517497 )

     reciprocal axes: (cart. coord. in units 2 pi/alat)
               b(1) = (  1.000000  0.577350 -0.000000 )
               b(2) = (  0.000000  3.464102  0.000000 )
               b(3) = (  0.000000 -0.000000  0.658980 )

     PseudoPot. # 1 for Zn read from file:
     /home/jvc/QEspresso7.2/ZnO_database/pseudos/Zn.upf
     MD5 check sum: 7f56cabf9682ed8c977c2f7d0c5985c5
     Pseudo is Ultrasoft + core correction, Zval = 12.0
     Generated using &quot;atomic&quot; code by A. Dal Corso  v.6.2.2
     Using radial grid of 1201 points,  6 beta functions with:
                l(1) =   0
                l(2) =   0
                l(3) =   1
                l(4) =   1
                l(5) =   2
                l(6) =   2
     Q(r) pseudized with 0 coefficients

     PseudoPot. # 2 for O  read from file:
     /home/jvc/QEspresso7.2/ZnO_database/pseudos/O.upf
     MD5 check sum: 91400c9766925bcf19f520983a725ff0
     Pseudo is Ultrasoft + core correction, Zval =  6.0
     Generated using &quot;atomic&quot; code by A. Dal Corso  v.6.3MaX
     Using radial grid of 1095 points,  4 beta functions with:
                l(1) =   0
                l(2) =   0
                l(3) =   1
                l(4) =   1
     Q(r) pseudized with 0 coefficients

     atomic species   valence    mass     pseudopotential
        Zn            12.00    65.38000     Zn( 1.00)
        O              6.00    15.99900     O ( 1.00)

      2 Sym. Ops. (no inversion) found

                                    s                        frac. trans.

      isym =  1     identity

 cryst.   s( 1) = (     1          0          0      )
                  (     0          1          0      )
                  (     0          0          1      )

 cart.    s( 1) = (  1.0000000  0.0000000  0.0000000 )
                  (  0.0000000  1.0000000  0.0000000 )
                  (  0.0000000  0.0000000  1.0000000 )

      isym =  2     inv. 180 deg rotation - cryst. axis [0,1,0]

 cryst.   s( 2) = (     1          3          0      )
                  (     0         -1          0      )
                  (     0          0          1      )

 cart.    s( 2) = (  0.5000000  0.8660254  0.0000000 )
                  (  0.8660254 -0.5000000  0.0000000 )
                  (  0.0000000  0.0000000  1.0000000 )

   Cartesian axes

     site n.     atom                  positions (alat units)
         1           Zn  tau(   1) = (   0.1666667   0.0962250   0.2532366  )
         2           Zn  tau(   2) = (  -0.0000000   0.1924501   0.0003205  )
         3           O   tau(   3) = (   0.1666667   0.0962250   0.4449687  )
         4           O   tau(   4) = (  -0.0000000   0.1924501   0.1920526  )
         5           Zn  tau(   5) = (   0.1666667   0.0962250   0.7590689  )
         6           Zn  tau(   6) = (  -0.0000000   0.1924501   0.5061528  )
         7           O   tau(   7) = (   0.1666667   0.0962250   0.9508010  )
         8           O   tau(   8) = (  -0.0000000   0.1924501   0.6978849  )
         9           Zn  tau(   9) = (   0.1666667   0.0962250   1.2649012  )
        10           Zn  tau(  10) = (  -0.0000000   0.1924501   1.0119851  )
        11           O   tau(  11) = (   0.1666667   0.0962250   1.4566333  )
        12           O   tau(  12) = (  -0.0000000   0.1924501   1.2037172  )
        13           Zn  tau(  13) = (   0.5000000   0.0962250   0.2532366  )
        14           Zn  tau(  14) = (   0.3333333   0.1924501   0.0003205  )
        15           O   tau(  15) = (   0.5000000   0.0962250   0.4449687  )
        16           O   tau(  16) = (   0.3333333   0.1924501   0.1920526  )
        17           Zn  tau(  17) = (   0.5000000   0.0962250   0.7590689  )
        18           Zn  tau(  18) = (   0.3333333   0.1924501   0.5061528  )
        19           O   tau(  19) = (   0.5000000   0.0962250   0.9508010  )
        20           O   tau(  20) = (   0.3333333   0.1924501   0.6978849  )
        21           Zn  tau(  21) = (   0.5000000   0.0962250   1.2649012  )
        22           Zn  tau(  22) = (   0.3333333   0.1924501   1.0119851  )
        23           O   tau(  23) = (   0.5000000   0.0962250   1.4566333  )
        24           O   tau(  24) = (   0.3333333   0.1924501   1.2037172  )
        25           Zn  tau(  25) = (   0.8333333   0.0962250   0.2532366  )
        26           Zn  tau(  26) = (   0.6666667   0.1924501   0.0003205  )
        27           O   tau(  27) = (   0.8333333   0.0962250   0.4449687  )
        28           O   tau(  28) = (   0.6666667   0.1924501   0.1920526  )
        29           Zn  tau(  29) = (   0.8333333   0.0962250   0.7590689  )
        30           Zn  tau(  30) = (   0.6666667   0.1924501   0.5061528  )
        31           O   tau(  31) = (   0.8333333   0.0962250   0.9508010  )
        32           O   tau(  32) = (   0.6666667   0.1924501   0.6978849  )
        33           Zn  tau(  33) = (   0.8333333   0.0962250   1.2649012  )
        34           Zn  tau(  34) = (   0.6666667   0.1924501   1.0119851  )
        35           O   tau(  35) = (   0.8333333   0.0962250   1.4566333  )
        36           O   tau(  36) = (   0.6666667   0.1924501   1.2037172  )

   Crystallographic axes

     site n.     atom                  positions (cryst. coord.)
         1           Zn  tau(   1) = (  0.2222222  0.3333333  0.1668779  )
         2           Zn  tau(   2) = (  0.1111111  0.6666667  0.0002112  )
         3           O   tau(   3) = (  0.2222222  0.3333333  0.2932255  )
         4           O   tau(   4) = (  0.1111111  0.6666667  0.1265588  )
         5           Zn  tau(   5) = (  0.2222222  0.3333333  0.5002112  )
         6           Zn  tau(   6) = (  0.1111111  0.6666667  0.3335445  )
         7           O   tau(   7) = (  0.2222222  0.3333333  0.6265588  )
         8           O   tau(   8) = (  0.1111111  0.6666667  0.4598921  )
         9           Zn  tau(   9) = (  0.2222222  0.3333333  0.8335445  )
        10           Zn  tau(  10) = (  0.1111111  0.6666667  0.6668779  )
        11           O   tau(  11) = (  0.2222222  0.3333333  0.9598921  )
        12           O   tau(  12) = (  0.1111111  0.6666667  0.7932255  )
        13           Zn  tau(  13) = (  0.5555556  0.3333333  0.1668779  )
        14           Zn  tau(  14) = (  0.4444444  0.6666667  0.0002112  )
        15           O   tau(  15) = (  0.5555556  0.3333333  0.2932255  )
        16           O   tau(  16) = (  0.4444444  0.6666667  0.1265588  )
        17           Zn  tau(  17) = (  0.5555556  0.3333333  0.5002112  )
        18           Zn  tau(  18) = (  0.4444444  0.6666667  0.3335445  )
        19           O   tau(  19) = (  0.5555556  0.3333333  0.6265588  )
        20           O   tau(  20) = (  0.4444444  0.6666667  0.4598921  )
        21           Zn  tau(  21) = (  0.5555556  0.3333333  0.8335445  )
        22           Zn  tau(  22) = (  0.4444444  0.6666667  0.6668779  )
        23           O   tau(  23) = (  0.5555556  0.3333333  0.9598921  )
        24           O   tau(  24) = (  0.4444444  0.6666667  0.7932255  )
        25           Zn  tau(  25) = (  0.8888889  0.3333333  0.1668779  )
        26           Zn  tau(  26) = (  0.7777778  0.6666667  0.0002112  )
        27           O   tau(  27) = (  0.8888889  0.3333333  0.2932255  )
        28           O   tau(  28) = (  0.7777778  0.6666667  0.1265588  )
        29           Zn  tau(  29) = (  0.8888889  0.3333333  0.5002112  )
        30           Zn  tau(  30) = (  0.7777778  0.6666667  0.3335445  )
        31           O   tau(  31) = (  0.8888889  0.3333333  0.6265588  )
        32           O   tau(  32) = (  0.7777778  0.6666667  0.4598921  )
        33           Zn  tau(  33) = (  0.8888889  0.3333333  0.8335445  )
        34           Zn  tau(  34) = (  0.7777778  0.6666667  0.6668779  )
        35           O   tau(  35) = (  0.8888889  0.3333333  0.9598921  )
        36           O   tau(  36) = (  0.7777778  0.6666667  0.7932255  )

     number of k points=    68
                       cart. coord. in units 2pi/alat
        k(    1) = (   0.0000000   0.0000000   0.0000000), wk =   0.0092593
        k(    2) = (   0.0000000   0.0000000   0.1098300), wk =   0.0185185
        k(    3) = (   0.0000000   0.0000000   0.2196600), wk =   0.0185185
        k(    4) = (   0.0000000   0.0000000  -0.3294900), wk =   0.0092593
        k(    5) = (   0.0000000   0.5773503   0.0000000), wk =   0.0370370
        k(    6) = (   0.0000000   0.5773503   0.1098300), wk =   0.0370370
        k(    7) = (   0.0000000   0.5773503   0.2196600), wk =   0.0370370
        k(    8) = (   0.0000000   0.5773503  -0.3294900), wk =   0.0370370
        k(    9) = (   0.0000000   1.1547005   0.0000000), wk =   0.0185185
        k(   10) = (   0.0000000   1.1547005   0.1098300), wk =   0.0370370
        k(   11) = (   0.0000000   1.1547005   0.2196600), wk =   0.0370370
        k(   12) = (   0.0000000   1.1547005  -0.3294900), wk =   0.0185185
        k(   13) = (   0.0000000  -1.7320508   0.0000000), wk =   0.0185185
[...]
     atom   19 type  2   force =    -0.00019570   -0.00011298   -0.14727307
     atom   20 type  2   force =     0.00019064    0.00011007   -0.14728635
     atom   21 type  1   force =     0.00001610    0.00000930   -0.16882069
     atom   22 type  1   force =    -0.00001253   -0.00000723   -0.16883280
     atom   23 type  2   force =    -0.00019545   -0.00011284   -0.14729266
     atom   24 type  2   force =     0.00019018    0.00010980   -0.14729234
     atom   25 type  1   force =     0.00001232    0.00000711   -0.16880652
     atom   26 type  1   force =    -0.00001966   -0.00001135   -0.16880388
     atom   27 type  2   force =    -0.00019036   -0.00010991   -0.14729550
     atom   28 type  2   force =     0.00019031    0.00010988   -0.14729944
     atom   29 type  1   force =     0.00001070    0.00000618   -0.16882607
     atom   30 type  1   force =    -0.00001256   -0.00000725   -0.16881712
     atom   31 type  2   force =    -0.00019195   -0.00011082   -0.14727492
     atom   32 type  2   force =     0.00019332    0.00011161   -0.14728149
     atom   33 type  1   force =     0.00001053    0.00000608   -0.16882854
     atom   34 type  1   force =    -0.00001491   -0.00000861   -0.16883502
     atom   35 type  2   force =    -0.00018854   -0.00010885   -0.14729760
     atom   36 type  2   force =     0.00019652    0.00011346   -0.14728877
     The ionic contribution  to forces
     atom    1 type  1   force =     0.00000001    0.00000001   -1.08201232
     atom    2 type  1   force =     0.00000001    0.00000000   -1.08201229
     atom    3 type  2   force =     0.00000000    0.00000000    1.08201231
     atom    4 type  2   force =     0.00000000    0.00000000    1.08201230
     atom    5 type  1   force =     0.00000001    0.00000001   -1.08201229
     atom    6 type  1   force =     0.00000001    0.00000000   -1.08201232
     atom    7 type  2   force =     0.00000000    0.00000000    1.08201230
     atom    8 type  2   force =     0.00000000    0.00000000    1.08201232
     atom    9 type  1   force =     0.00000001    0.00000001   -1.08201232
     atom   10 type  1   force =     0.00000001    0.00000000   -1.08201232
     atom   11 type  2   force =     0.00000000    0.00000000    1.08201232
     atom   12 type  2   force =     0.00000000    0.00000000    1.08201231
     atom   13 type  1   force =    -0.00000001    0.00000000   -1.08201233
     atom   14 type  1   force =     0.00000001   -0.00000000   -1.08201229
     atom   15 type  2   force =    -0.00000001    0.00000000    1.08201231
     atom   16 type  2   force =     0.00000001   -0.00000000    1.08201230
     atom   17 type  1   force =    -0.00000001    0.00000000   -1.08201229
     atom   18 type  1   force =     0.00000001   -0.00000000   -1.08201233
     atom   19 type  2   force =    -0.00000001    0.00000000    1.08201230
     atom   20 type  2   force =     0.00000001   -0.00000000    1.08201233
     atom   21 type  1   force =    -0.00000001    0.00000000   -1.08201233
     atom   22 type  1   force =     0.00000001   -0.00000000   -1.08201233
     atom   23 type  2   force =    -0.00000001    0.00000000    1.08201233
     atom   24 type  2   force =     0.00000001   -0.00000000    1.08201231
     atom   25 type  1   force =    -0.00000001   -0.00000000   -1.08201232
     atom   26 type  1   force =    -0.00000001   -0.00000001   -1.08201229
     atom   27 type  2   force =    -0.00000000   -0.00000000    1.08201231
     atom   28 type  2   force =    -0.00000000   -0.00000000    1.08201230
     atom   29 type  1   force =    -0.00000001   -0.00000000   -1.08201229
     atom   30 type  1   force =    -0.00000001   -0.00000001   -1.08201232
     atom   31 type  2   force =    -0.00000000   -0.00000000    1.08201230
     atom   32 type  2   force =    -0.00000000   -0.00000000    1.08201232
     atom   33 type  1   force =    -0.00000001   -0.00000000   -1.08201232
     atom   34 type  1   force =    -0.00000001   -0.00000001   -1.08201232
     atom   35 type  2   force =    -0.00000000   -0.00000000    1.08201232
     atom   36 type  2   force =    -0.00000000   -0.00000000    1.08201231
     The local contribution  to forces
     atom    1 type  1   force =     0.00002337    0.00001349    1.23410293
     atom    2 type  1   force =     0.00001518    0.00000871    1.23407942
     atom    3 type  2   force =     0.00019747    0.00011401   -0.93009372
     atom    4 type  2   force =    -0.00018131   -0.00010469   -0.93009607
     atom    5 type  1   force =    -0.00000716   -0.00000414    1.23414255
     atom    6 type  1   force =     0.00003954    0.00002277    1.23410651
     atom    7 type  2   force =     0.00019021    0.00010982   -0.93006948
     atom    8 type  2   force =    -0.00018460   -0.00010659   -0.93007295
     atom    9 type  1   force =    -0.00001292   -0.00000746    1.23412937
     atom   10 type  1   force =     0.00001489    0.00000854    1.23415256
     atom   11 type  2   force =     0.00019047    0.00010997   -0.93008931
     atom   12 type  2   force =    -0.00018734   -0.00010817   -0.93007854
     atom   13 type  1   force =    -0.00004354   -0.00002503    1.23410429
     atom   14 type  1   force =    -0.00001489   -0.00000870    1.23411442
     atom   15 type  2   force =     0.00017930    0.00010355   -0.93009238
     atom   16 type  2   force =    -0.00019707   -0.00011381   -0.93009115
     atom   17 type  1   force =    -0.00002262   -0.00001295    1.23415285
     atom   18 type  1   force =    -0.00001383   -0.00000809    1.23408006
     atom   19 type  2   force =     0.00018638    0.00010763   -0.93007398
     atom   20 type  2   force =    -0.00019552   -0.00011291   -0.93007496
     atom   21 type  1   force =    -0.00001235   -0.00000702    1.23410830
     atom   22 type  1   force =     0.00000210    0.00000110    1.23415290
     atom   23 type  2   force =     0.00018365    0.00010606   -0.93008868
     atom   24 type  2   force =    -0.00019042   -0.00010997   -0.93008082
     atom   25 type  1   force =    -0.00000423   -0.00000239    1.23408265
     atom   26 type  1   force =     0.00002557    0.00001476    1.23408451
     atom   27 type  2   force =     0.00019071    0.00011012   -0.93008910
     atom   28 type  2   force =    -0.00018907   -0.00010916   -0.93009463
     atom   29 type  1   force =     0.00000486    0.00000286    1.23415511
     atom   30 type  1   force =     0.00000066    0.00000038    1.23410187
     atom   31 type  2   force =     0.00019068    0.00011010   -0.93007154
     atom   32 type  2   force =    -0.00018782   -0.00010844   -0.93007236
     atom   33 type  1   force =     0.00000001    0.00000006    1.23413385
     atom   34 type  1   force =     0.00000882    0.00000509    1.23415914
     atom   35 type  2   force =     0.00019216    0.00011096   -0.93009432
     atom   36 type  2   force =    -0.00018777   -0.00010841   -0.93007996
     The core correction contribution to forces
     atom    1 type  1   force =    -0.00000524   -0.00000308    0.01083227
     atom    2 type  1   force =     0.00000490    0.00000282    0.01083282
     atom    3 type  2   force =     0.00000212    0.00000121    0.00123726
     atom    4 type  2   force =    -0.00000229   -0.00000131    0.00123759
     atom    5 type  1   force =    -0.00000493   -0.00000290    0.01083179
     atom    6 type  1   force =     0.00000454    0.00000262    0.01083474
     atom    7 type  2   force =     0.00000218    0.00000125    0.00123738
     atom    8 type  2   force =    -0.00000225   -0.00000129    0.00123552
     atom    9 type  1   force =    -0.00000498   -0.00000293    0.01083456
     atom   10 type  1   force =     0.00000478    0.00000276    0.01083231
     atom   11 type  2   force =     0.00000221    0.00000127    0.00123563
     atom   12 type  2   force =    -0.00000220   -0.00000126    0.00123716
     atom   13 type  1   force =    -0.00000435   -0.00000266    0.01083267
     atom   14 type  1   force =     0.00000506    0.00000307    0.01083204
     atom   15 type  2   force =     0.00000232    0.00000135    0.00123731
     atom   16 type  2   force =    -0.00000216   -0.00000126    0.00123751
     atom   17 type  1   force =    -0.00000447   -0.00000273    0.01083180
     atom   18 type  1   force =     0.00000483    0.00000294    0.01083463
     atom   19 type  2   force =     0.00000223    0.00000130    0.00123730
     atom   20 type  2   force =    -0.00000218   -0.00000126    0.00123554
     atom   21 type  1   force =    -0.00000471   -0.00000287    0.01083499
     atom   22 type  1   force =     0.00000479    0.00000292    0.01083226
     atom   23 type  2   force =     0.00000222    0.00000129    0.00123562
     atom   24 type  2   force =    -0.00000216   -0.00000126    0.00123722
     atom   25 type  1   force =    -0.00000497   -0.00000287    0.01083262
     atom   26 type  1   force =     0.00000468    0.00000275    0.01083280
     atom   27 type  2   force =     0.00000216    0.00000124    0.00123725
     atom   28 type  2   force =    -0.00000213   -0.00000122    0.00123764
     atom   29 type  1   force =    -0.00000518   -0.00000298    0.01083174
     atom   30 type  1   force =     0.00000527    0.00000310    0.01083476
     atom   31 type  2   force =     0.00000218    0.00000125    0.00123733
     atom   32 type  2   force =    -0.00000217   -0.00000124    0.00123548
     atom   33 type  1   force =    -0.00000492   -0.00000284    0.01083465
     atom   34 type  1   force =     0.00000502    0.00000295    0.01083219
     atom   35 type  2   force =     0.00000214    0.00000122    0.00123568
     atom   36 type  2   force =    -0.00000221   -0.00000127    0.00123718
     The Hubbard contrib.    to forces
     atom    1 type  1   force =     0.00000000    0.00000000    0.00000000
     atom    2 type  1   force =     0.00000000    0.00000000    0.00000000
     atom    3 type  2   force =     0.00000000    0.00000000    0.00000000
     atom    4 type  2   force =     0.00000000    0.00000000    0.00000000
     atom    5 type  1   force =     0.00000000    0.00000000    0.00000000
     atom    6 type  1   force =     0.00000000    0.00000000    0.00000000
     atom    7 type  2   force =     0.00000000    0.00000000    0.00000000
     atom    8 type  2   force =     0.00000000    0.00000000    0.00000000
     atom    9 type  1   force =     0.00000000    0.00000000    0.00000000
     atom   10 type  1   force =     0.00000000    0.00000000    0.00000000
     atom   11 type  2   force =     0.00000000    0.00000000    0.00000000
     atom   12 type  2   force =     0.00000000    0.00000000    0.00000000
     atom   13 type  1   force =     0.00000000    0.00000000    0.00000000
     atom   14 type  1   force =     0.00000000    0.00000000    0.00000000
     atom   15 type  2   force =     0.00000000    0.00000000    0.00000000
     atom   16 type  2   force =     0.00000000    0.00000000    0.00000000
     atom   17 type  1   force =     0.00000000    0.00000000    0.00000000
     atom   18 type  1   force =     0.00000000    0.00000000    0.00000000
     atom   19 type  2   force =     0.00000000    0.00000000    0.00000000
     atom   20 type  2   force =     0.00000000    0.00000000    0.00000000
     atom   21 type  1   force =     0.00000000    0.00000000    0.00000000
     atom   22 type  1   force =     0.00000000    0.00000000    0.00000000
     atom   23 type  2   force =     0.00000000    0.00000000    0.00000000
     atom   24 type  2   force =     0.00000000    0.00000000    0.00000000
     atom   25 type  1   force =     0.00000000    0.00000000    0.00000000
     atom   26 type  1   force =     0.00000000    0.00000000    0.00000000
     atom   27 type  2   force =     0.00000000    0.00000000    0.00000000
     atom   28 type  2   force =     0.00000000    0.00000000    0.00000000
     atom   29 type  1   force =     0.00000000    0.00000000    0.00000000
     atom   30 type  1   force =     0.00000000    0.00000000    0.00000000
     atom   31 type  2   force =     0.00000000    0.00000000    0.00000000
     atom   32 type  2   force =     0.00000000    0.00000000    0.00000000
     atom   33 type  1   force =     0.00000000    0.00000000    0.00000000
     atom   34 type  1   force =     0.00000000    0.00000000    0.00000000
     atom   35 type  2   force =     0.00000000    0.00000000    0.00000000
     atom   36 type  2   force =     0.00000000    0.00000000    0.00000000
     The SCF correction term to forces
     atom    1 type  1   force =    -0.00004165   -0.00002405    0.00003246
     atom    2 type  1   force =    -0.00000982   -0.00000567    0.00006628
     atom    3 type  2   force =    -0.00001299   -0.00000750    0.00001260
     atom    4 type  2   force =    -0.00001456   -0.00000840    0.00001705
     atom    5 type  1   force =    -0.00000122   -0.00000070   -0.00001994
     atom    6 type  1   force =    -0.00004093   -0.00002363    0.00003350
     atom    7 type  2   force =    -0.00000139   -0.00000080   -0.00002671
     atom    8 type  2   force =    -0.00000820   -0.00000474   -0.00001653
     atom    9 type  1   force =     0.00000500    0.00000289    0.00000442
     atom   10 type  1   force =    -0.00001018   -0.00000588   -0.00002860
     atom   11 type  2   force =     0.00000066    0.00000038    0.00000909
     atom   12 type  2   force =    -0.00000181   -0.00000105   -0.00001134
     atom   13 type  1   force =     0.00004572    0.00002640    0.00003384
     atom   14 type  1   force =     0.00003059    0.00001766    0.00001564
     atom   15 type  2   force =     0.00001818    0.00001049    0.00001547
     atom   16 type  2   force =     0.00001207    0.00000697    0.00000672
     atom   17 type  1   force =     0.00002065    0.00001193   -0.00003088
     atom   18 type  1   force =     0.00002823    0.00001630    0.00006510
     atom   19 type  2   force =     0.00000463    0.00000267   -0.00002679
     atom   20 type  2   force =     0.00001015    0.00000586   -0.00001266
     atom   21 type  1   force =     0.00000390    0.00000225    0.00003328
     atom   22 type  1   force =     0.00000890    0.00000514   -0.00003027
     atom   23 type  2   force =     0.00000690    0.00000398    0.00000759
     atom   24 type  2   force =     0.00000483    0.00000279   -0.00000411
     atom   25 type  1   force =    -0.00000423   -0.00000244    0.00005962
     atom   26 type  1   force =    -0.00002193   -0.00001266    0.00005853
     atom   27 type  2   force =    -0.00000517   -0.00000298    0.00000652
     atom   28 type  2   force =     0.00000365    0.00000211    0.00001824
     atom   29 type  1   force =    -0.00001863   -0.00001075   -0.00003515
     atom   30 type  1   force =     0.00001005    0.00000580    0.00003895
     atom   31 type  2   force =    -0.00000387   -0.00000224   -0.00002778
     atom   32 type  2   force =    -0.00000077   -0.00000044   -0.00002016
     atom   33 type  1   force =    -0.00001020   -0.00000589   -0.00000105
     atom   34 type  1   force =    -0.00000025   -0.00000014   -0.00003841
     atom   35 type  2   force =    -0.00000785   -0.00000453    0.00001832
     atom   36 type  2   force =    -0.00000333   -0.00000192   -0.00000817

     Total force =     0.035216     Total SCF correction =     0.000215

     General routines

     Parallel routines

   This run was terminated on:   9: 5: 9   3Sep2025

   JOB DONE.
Note: The following floating-point exceptions are signalling: IEEE_INVALID_FLAG
Note: The following floating-point exceptions are signalling: IEEE_INVALID_FLAG
Note: The following floating-point exceptions are signalling: IEEE_INVALID_FLAG
Note: The following floating-point exceptions are signalling: IEEE_INVALID_FLAG
Note: The following floating-point exceptions are signalling: IEEE_INVALID_FLAG
Note: The following floating-point exceptions are signalling: IEEE_INVALID_FLAG
Note: The following floating-point exceptions are signalling: IEEE_INVALID_FLAG
Note: The following floating-point exceptions are signalling: IEEE_INVALID_FLAG
Note: The following floating-point exceptions are signalling: IEEE_INVALID_FLAG
Note: The following floating-point exceptions are signalling: IEEE_INVALID_FLAG
Note: The following floating-point exceptions are signalling: IEEE_INVALID_FLAG
Note: The following floating-point exceptions are signalling: IEEE_INVALID_FLAG
Note: The following floating-point exceptions are signalling: IEEE_INVALID_FLAG
Note: The following floating-point exceptions are signalling: IEEE_INVALID_FLAG
Note: The following floating-point exceptions are signalling: IEEE_INVALID_FLAG
Note: The following floating-point exceptions are signalling: IEEE_INVALID_FLAG
Note: The following floating-point exceptions are signalling: IEEE_INVALID_FLAG