     Program PWSCF v.7.2 starts on  1Sep2025 at 17: 8:51

     Reading input from /home/jvc/QEspresso7.2/ZnO_database/scripts/cell313.in/ZnO-3.34-1.55-313.in
Warning: card &CELL ignored
Warning: card / ignored
Warning: card &FCP ignored
Warning: card / ignored
Warning: card &RISM ignored
Warning: card / ignored

     Current dimensions of program PWSCF are:
     Max number of different atomic species (ntypx) = 10
     Max number of k-points (npk) =  40000
     Max angular momentum in pseudopotentials (lmaxx) =  4
     file Zn.upf: wavefunction(s)  3D renormalized
     Found identity + (  0.0000  0.0000  0.3333) symmetry
     This is a supercell, fractional translations are disabled
     Message from routine setup:
     using ibrav=0 with symmetry is DISCOURAGED, use correct ibrav instead

     K-points division:     npool     =       4
     R & G space division:  proc/nbgrp/npool/nimage =       8
     Subspace diagonalization in iterative solution of the eigenvalue problem:
     one sub-group per band group will be used

     Using Slab Decomposition

     bravais-lattice index     =            0
     lattice parameter (alat)  =      18.9073  a.u.
     unit-cell volume          =    3023.9084 (a.u.)^3
     number of atoms/cell      =           36
     number of atomic types    =            2
     number of electrons       =       324.00
     number of Kohn-Sham states=          162
     kinetic-energy cutoff     =      50.0000  Ry
     charge density cutoff     =     400.0000  Ry
     scf convergence threshold =      1.0E-08
     mixing beta               =       0.3000
     number of iterations used =            8  plain     mixing
     Exchange-correlation= PBE
                           (   1   4   3   4   0   0   0)

     celldm(1)=  18.907293  celldm(2)=   0.000000  celldm(3)=   0.000000
     celldm(4)=   0.000000  celldm(5)=   0.000000  celldm(6)=   0.000000

     crystal axes: (cart. coord. in units of alat)
               a(1) = (   1.000000   0.000000   0.000000 )
               a(2) = (  -0.166667   0.288675   0.000000 )
               a(3) = (   0.000000   0.000000   1.549784 )

     reciprocal axes: (cart. coord. in units 2 pi/alat)
               b(1) = (  1.000000  0.577350 -0.000000 )
               b(2) = (  0.000000  3.464102  0.000000 )
               b(3) = (  0.000000 -0.000000  0.645251 )

     PseudoPot. # 1 for Zn read from file:
     /home/jvc/QEspresso7.2/ZnO_database/pseudos/Zn.upf
     MD5 check sum: 7f56cabf9682ed8c977c2f7d0c5985c5
     Pseudo is Ultrasoft + core correction, Zval = 12.0
     Generated using &quot;atomic&quot; code by A. Dal Corso  v.6.2.2
     Using radial grid of 1201 points,  6 beta functions with:
                l(1) =   0
                l(2) =   0
                l(3) =   1
                l(4) =   1
                l(5) =   2
                l(6) =   2
     Q(r) pseudized with 0 coefficients

     PseudoPot. # 2 for O  read from file:
     /home/jvc/QEspresso7.2/ZnO_database/pseudos/O.upf
     MD5 check sum: 91400c9766925bcf19f520983a725ff0
     Pseudo is Ultrasoft + core correction, Zval =  6.0
     Generated using &quot;atomic&quot; code by A. Dal Corso  v.6.3MaX
     Using radial grid of 1095 points,  4 beta functions with:
                l(1) =   0
                l(2) =   0
                l(3) =   1
                l(4) =   1
     Q(r) pseudized with 0 coefficients

     atomic species   valence    mass     pseudopotential
        Zn            12.00    65.38000     Zn( 1.00)
        O              6.00    15.99900     O ( 1.00)

      2 Sym. Ops. (no inversion) found

                                    s                        frac. trans.

      isym =  1     identity

 cryst.   s( 1) = (     1          0          0      )
                  (     0          1          0      )
                  (     0          0          1      )

 cart.    s( 1) = (  1.0000000  0.0000000  0.0000000 )
                  (  0.0000000  1.0000000  0.0000000 )
                  (  0.0000000  0.0000000  1.0000000 )

      isym =  2     inv. 180 deg rotation - cryst. axis [0,1,0]

 cryst.   s( 2) = (     1          3          0      )
                  (     0         -1          0      )
                  (     0          0          1      )

 cart.    s( 2) = (  0.5000000  0.8660254  0.0000000 )
                  (  0.8660254 -0.5000000  0.0000000 )
                  (  0.0000000  0.0000000  1.0000000 )

   Cartesian axes

     site n.     atom                  positions (alat units)
         1           Zn  tau(   1) = (   0.1666667   0.0962250   0.2586246  )
         2           Zn  tau(   2) = (  -0.0000000   0.1924501   0.0003273  )
         3           O   tau(   3) = (   0.1666667   0.0962250   0.4544362  )
         4           O   tau(   4) = (  -0.0000000   0.1924501   0.1961388  )
         5           Zn  tau(   5) = (   0.1666667   0.0962250   0.7752193  )
         6           Zn  tau(   6) = (  -0.0000000   0.1924501   0.5169220  )
         7           O   tau(   7) = (   0.1666667   0.0962250   0.9710308  )
         8           O   tau(   8) = (  -0.0000000   0.1924501   0.7127335  )
         9           Zn  tau(   9) = (   0.1666667   0.0962250   1.2918140  )
        10           Zn  tau(  10) = (  -0.0000000   0.1924501   1.0335167  )
        11           O   tau(  11) = (   0.1666667   0.0962250   1.4876255  )
        12           O   tau(  12) = (  -0.0000000   0.1924501   1.2293282  )
        13           Zn  tau(  13) = (   0.5000000   0.0962250   0.2586246  )
        14           Zn  tau(  14) = (   0.3333333   0.1924501   0.0003273  )
        15           O   tau(  15) = (   0.5000000   0.0962250   0.4544362  )
        16           O   tau(  16) = (   0.3333333   0.1924501   0.1961388  )
        17           Zn  tau(  17) = (   0.5000000   0.0962250   0.7752193  )
        18           Zn  tau(  18) = (   0.3333333   0.1924501   0.5169220  )
        19           O   tau(  19) = (   0.5000000   0.0962250   0.9710308  )
        20           O   tau(  20) = (   0.3333333   0.1924501   0.7127335  )
        21           Zn  tau(  21) = (   0.5000000   0.0962250   1.2918140  )
        22           Zn  tau(  22) = (   0.3333333   0.1924501   1.0335167  )
        23           O   tau(  23) = (   0.5000000   0.0962250   1.4876255  )
        24           O   tau(  24) = (   0.3333333   0.1924501   1.2293282  )
        25           Zn  tau(  25) = (   0.8333333   0.0962250   0.2586246  )
        26           Zn  tau(  26) = (   0.6666667   0.1924501   0.0003273  )
        27           O   tau(  27) = (   0.8333333   0.0962250   0.4544362  )
        28           O   tau(  28) = (   0.6666667   0.1924501   0.1961388  )
        29           Zn  tau(  29) = (   0.8333333   0.0962250   0.7752193  )
        30           Zn  tau(  30) = (   0.6666667   0.1924501   0.5169220  )
        31           O   tau(  31) = (   0.8333333   0.0962250   0.9710308  )
        32           O   tau(  32) = (   0.6666667   0.1924501   0.7127335  )
        33           Zn  tau(  33) = (   0.8333333   0.0962250   1.2918140  )
        34           Zn  tau(  34) = (   0.6666667   0.1924501   1.0335167  )
        35           O   tau(  35) = (   0.8333333   0.0962250   1.4876255  )
        36           O   tau(  36) = (   0.6666667   0.1924501   1.2293282  )

   Crystallographic axes

     site n.     atom                  positions (cryst. coord.)
         1           Zn  tau(   1) = (  0.2222222  0.3333333  0.1668779  )
         2           Zn  tau(   2) = (  0.1111111  0.6666667  0.0002112  )
         3           O   tau(   3) = (  0.2222222  0.3333333  0.2932255  )
         4           O   tau(   4) = (  0.1111111  0.6666667  0.1265588  )
         5           Zn  tau(   5) = (  0.2222222  0.3333333  0.5002112  )
         6           Zn  tau(   6) = (  0.1111111  0.6666667  0.3335445  )
         7           O   tau(   7) = (  0.2222222  0.3333333  0.6265588  )
         8           O   tau(   8) = (  0.1111111  0.6666667  0.4598921  )
         9           Zn  tau(   9) = (  0.2222222  0.3333333  0.8335445  )
        10           Zn  tau(  10) = (  0.1111111  0.6666667  0.6668779  )
        11           O   tau(  11) = (  0.2222222  0.3333333  0.9598921  )
        12           O   tau(  12) = (  0.1111111  0.6666667  0.7932255  )
        13           Zn  tau(  13) = (  0.5555556  0.3333333  0.1668779  )
        14           Zn  tau(  14) = (  0.4444444  0.6666667  0.0002112  )
        15           O   tau(  15) = (  0.5555556  0.3333333  0.2932255  )
        16           O   tau(  16) = (  0.4444444  0.6666667  0.1265588  )
        17           Zn  tau(  17) = (  0.5555556  0.3333333  0.5002112  )
        18           Zn  tau(  18) = (  0.4444444  0.6666667  0.3335445  )
        19           O   tau(  19) = (  0.5555556  0.3333333  0.6265588  )
        20           O   tau(  20) = (  0.4444444  0.6666667  0.4598921  )
        21           Zn  tau(  21) = (  0.5555556  0.3333333  0.8335445  )
        22           Zn  tau(  22) = (  0.4444444  0.6666667  0.6668779  )
        23           O   tau(  23) = (  0.5555556  0.3333333  0.9598921  )
        24           O   tau(  24) = (  0.4444444  0.6666667  0.7932255  )
        25           Zn  tau(  25) = (  0.8888889  0.3333333  0.1668779  )
        26           Zn  tau(  26) = (  0.7777778  0.6666667  0.0002112  )
        27           O   tau(  27) = (  0.8888889  0.3333333  0.2932255  )
        28           O   tau(  28) = (  0.7777778  0.6666667  0.1265588  )
        29           Zn  tau(  29) = (  0.8888889  0.3333333  0.5002112  )
        30           Zn  tau(  30) = (  0.7777778  0.6666667  0.3335445  )
        31           O   tau(  31) = (  0.8888889  0.3333333  0.6265588  )
        32           O   tau(  32) = (  0.7777778  0.6666667  0.4598921  )
        33           Zn  tau(  33) = (  0.8888889  0.3333333  0.8335445  )
        34           Zn  tau(  34) = (  0.7777778  0.6666667  0.6668779  )
        35           O   tau(  35) = (  0.8888889  0.3333333  0.9598921  )
        36           O   tau(  36) = (  0.7777778  0.6666667  0.7932255  )

     number of k points=    68
                       cart. coord. in units 2pi/alat
        k(    1) = (   0.0000000   0.0000000   0.0000000), wk =   0.0092593
        k(    2) = (   0.0000000   0.0000000   0.1075419), wk =   0.0185185
        k(    3) = (   0.0000000   0.0000000   0.2150837), wk =   0.0185185
        k(    4) = (   0.0000000   0.0000000  -0.3226256), wk =   0.0092593
        k(    5) = (   0.0000000   0.5773503   0.0000000), wk =   0.0370370
        k(    6) = (   0.0000000   0.5773503   0.1075419), wk =   0.0370370
        k(    7) = (   0.0000000   0.5773503   0.2150837), wk =   0.0370370
        k(    8) = (   0.0000000   0.5773503  -0.3226256), wk =   0.0370370
        k(    9) = (   0.0000000   1.1547005   0.0000000), wk =   0.0185185
        k(   10) = (   0.0000000   1.1547005   0.1075419), wk =   0.0370370
        k(   11) = (   0.0000000   1.1547005   0.2150837), wk =   0.0370370
        k(   12) = (   0.0000000   1.1547005  -0.3226256), wk =   0.0185185
        k(   13) = (   0.0000000  -1.7320508   0.0000000), wk =   0.0185185
[...]
     atom   10 type  1   force =     0.00000717    0.00000414   -0.12121702
     atom   11 type  2   force =    -0.00018459   -0.00010657   -0.09170512
     atom   12 type  2   force =     0.00018438    0.00010645   -0.09170651
     atom   13 type  1   force =    -0.00000553   -0.00000319   -0.12121908
     atom   14 type  1   force =     0.00000774    0.00000447   -0.12121714
     atom   15 type  2   force =    -0.00018459   -0.00010657   -0.09170328
     atom   16 type  2   force =     0.00018312    0.00010573   -0.09170423
     atom   17 type  1   force =    -0.00000699   -0.00000404   -0.12121838
     atom   18 type  1   force =     0.00000746    0.00000430   -0.12121927
     atom   19 type  2   force =    -0.00018434   -0.00010643   -0.09170501
     atom   20 type  2   force =     0.00018401    0.00010624   -0.09170479
     atom   21 type  1   force =    -0.00000691   -0.00000399   -0.12121575
     atom   22 type  1   force =     0.00000675    0.00000390   -0.12121724
     atom   23 type  2   force =    -0.00018436   -0.00010644   -0.09170591
     atom   24 type  2   force =     0.00018449    0.00010652   -0.09170613
     atom   25 type  1   force =    -0.00000838   -0.00000484   -0.12121821
     atom   26 type  1   force =     0.00000603    0.00000348   -0.12121705
     atom   27 type  2   force =    -0.00018370   -0.00010606   -0.09170317
     atom   28 type  2   force =     0.00018580    0.00010727   -0.09170485
     atom   29 type  1   force =    -0.00000685   -0.00000395   -0.12121844
     atom   30 type  1   force =     0.00000628    0.00000362   -0.12122011
     atom   31 type  2   force =    -0.00018433   -0.00010642   -0.09170488
     atom   32 type  2   force =     0.00018427    0.00010639   -0.09170481
     atom   33 type  1   force =    -0.00000725   -0.00000418   -0.12121573
     atom   34 type  1   force =     0.00000682    0.00000394   -0.12121758
     atom   35 type  2   force =    -0.00018369   -0.00010605   -0.09170557
     atom   36 type  2   force =     0.00018395    0.00010620   -0.09170700
     The ionic contribution  to forces
     atom    1 type  1   force =     0.00000001    0.00000001   -0.76824288
     atom    2 type  1   force =     0.00000001    0.00000000   -0.76824285
     atom    3 type  2   force =     0.00000000    0.00000000    0.76824287
     atom    4 type  2   force =     0.00000000    0.00000000    0.76824286
     atom    5 type  1   force =     0.00000001    0.00000001   -0.76824285
     atom    6 type  1   force =     0.00000001    0.00000000   -0.76824289
     atom    7 type  2   force =     0.00000000    0.00000000    0.76824286
     atom    8 type  2   force =     0.00000000    0.00000000    0.76824288
     atom    9 type  1   force =     0.00000001    0.00000001   -0.76824289
     atom   10 type  1   force =     0.00000001    0.00000000   -0.76824288
     atom   11 type  2   force =     0.00000000    0.00000000    0.76824288
     atom   12 type  2   force =     0.00000000    0.00000000    0.76824287
     atom   13 type  1   force =    -0.00000001    0.00000000   -0.76824289
     atom   14 type  1   force =     0.00000001   -0.00000000   -0.76824285
     atom   15 type  2   force =    -0.00000001    0.00000000    0.76824287
     atom   16 type  2   force =     0.00000001   -0.00000000    0.76824286
     atom   17 type  1   force =    -0.00000001    0.00000000   -0.76824285
     atom   18 type  1   force =     0.00000001   -0.00000000   -0.76824289
     atom   19 type  2   force =    -0.00000001    0.00000000    0.76824286
     atom   20 type  2   force =     0.00000001   -0.00000000    0.76824289
     atom   21 type  1   force =    -0.00000001    0.00000000   -0.76824289
     atom   22 type  1   force =     0.00000001   -0.00000000   -0.76824289
     atom   23 type  2   force =    -0.00000001    0.00000000    0.76824289
     atom   24 type  2   force =     0.00000001   -0.00000000    0.76824287
     atom   25 type  1   force =    -0.00000001   -0.00000000   -0.76824288
     atom   26 type  1   force =    -0.00000001   -0.00000001   -0.76824285
     atom   27 type  2   force =    -0.00000000   -0.00000000    0.76824287
     atom   28 type  2   force =    -0.00000000   -0.00000000    0.76824286
     atom   29 type  1   force =    -0.00000001   -0.00000000   -0.76824285
     atom   30 type  1   force =    -0.00000001   -0.00000001   -0.76824289
     atom   31 type  2   force =    -0.00000000   -0.00000000    0.76824286
     atom   32 type  2   force =    -0.00000000   -0.00000000    0.76824288
     atom   33 type  1   force =    -0.00000001   -0.00000000   -0.76824289
     atom   34 type  1   force =    -0.00000001   -0.00000001   -0.76824288
     atom   35 type  2   force =    -0.00000000   -0.00000000    0.76824288
     atom   36 type  2   force =    -0.00000000   -0.00000000    0.76824287
     The local contribution  to forces
     atom    1 type  1   force =     0.00001871    0.00001080    0.86751152
     atom    2 type  1   force =    -0.00001892   -0.00001098    0.86750988
     atom    3 type  2   force =     0.00018000    0.00010393   -0.66420725
     atom    4 type  2   force =    -0.00017913   -0.00010343   -0.66420764
     atom    5 type  1   force =     0.00001895    0.00001094    0.86751024
     atom    6 type  1   force =    -0.00001916   -0.00001111    0.86751087
     atom    7 type  2   force =     0.00018016    0.00010402   -0.66420902
     atom    8 type  2   force =    -0.00018009   -0.00010399   -0.66420692
     atom    9 type  1   force =     0.00001839    0.00001062    0.86750589
     atom   10 type  1   force =    -0.00001888   -0.00001095    0.86750696
     atom   11 type  2   force =     0.00017833    0.00010296   -0.66420720
     atom   12 type  2   force =    -0.00018145   -0.00010477   -0.66420896
     atom   13 type  1   force =     0.00001494    0.00000873    0.86751226
     atom   14 type  1   force =    -0.00001955   -0.00001139    0.86750810
     atom   15 type  2   force =     0.00017972    0.00010379   -0.66420644
     atom   16 type  2   force =    -0.00018238   -0.00010532   -0.66420603
     atom   17 type  1   force =     0.00001834    0.00001069    0.86751043
     atom   18 type  1   force =    -0.00001937   -0.00001129    0.86751256
     atom   19 type  2   force =     0.00018109    0.00010458   -0.66420878
     atom   20 type  2   force =    -0.00018065   -0.00010433   -0.66420610
     atom   21 type  1   force =     0.00001828    0.00001066    0.86750493
     atom   22 type  1   force =    -0.00001777   -0.00001036    0.86750750
     atom   23 type  2   force =     0.00018047    0.00010422   -0.66420892
     atom   24 type  2   force =    -0.00017993   -0.00010391   -0.66420947
     atom   25 type  1   force =     0.00002195    0.00001272    0.86751058
     atom   26 type  1   force =    -0.00001679   -0.00000969    0.86750769
     atom   27 type  2   force =     0.00018197    0.00010507   -0.66420541
     atom   28 type  2   force =    -0.00017908   -0.00010339   -0.66420713
     atom   29 type  1   force =     0.00001801    0.00001045    0.86751065
     atom   30 type  1   force =    -0.00001705   -0.00000984    0.86751376
     atom   31 type  2   force =     0.00017959    0.00010370   -0.66420785
     atom   32 type  2   force =    -0.00018001   -0.00010393   -0.66420685
     atom   33 type  1   force =     0.00001911    0.00001108    0.86750500
     atom   34 type  1   force =    -0.00001792   -0.00001035    0.86750847
     atom   35 type  2   force =     0.00018143    0.00010476   -0.66420877
     atom   36 type  2   force =    -0.00017935   -0.00010355   -0.66421113
     The core correction contribution to forces
     atom    1 type  1   force =    -0.00000465   -0.00000264    0.00892295
     atom    2 type  1   force =     0.00000472    0.00000266    0.00892293
     atom    3 type  2   force =     0.00000209    0.00000121    0.00069328
     atom    4 type  2   force =    -0.00000209   -0.00000121    0.00069328
     atom    5 type  1   force =    -0.00000468   -0.00000266    0.00892296
     atom    6 type  1   force =     0.00000473    0.00000267    0.00892291
     atom    7 type  2   force =     0.00000209    0.00000121    0.00069329
     atom    8 type  2   force =    -0.00000210   -0.00000121    0.00069328
     atom    9 type  1   force =    -0.00000467   -0.00000265    0.00892295
     atom   10 type  1   force =     0.00000478    0.00000270    0.00892299
     atom   11 type  2   force =     0.00000208    0.00000121    0.00069329
     atom   12 type  2   force =    -0.00000210   -0.00000121    0.00069330
     atom   13 type  1   force =    -0.00000451   -0.00000263    0.00892296
     atom   14 type  1   force =     0.00000462    0.00000269    0.00892286
     atom   15 type  2   force =     0.00000211    0.00000122    0.00069327
     atom   16 type  2   force =    -0.00000210   -0.00000121    0.00069329
     atom   17 type  1   force =    -0.00000452   -0.00000263    0.00892296
     atom   18 type  1   force =     0.00000460    0.00000268    0.00892285
     atom   19 type  2   force =     0.00000211    0.00000122    0.00069329
     atom   20 type  2   force =    -0.00000211   -0.00000122    0.00069330
     atom   21 type  1   force =    -0.00000455   -0.00000265    0.00892304
     atom   22 type  1   force =     0.00000456    0.00000265    0.00892293
     atom   23 type  2   force =     0.00000211    0.00000122    0.00069330
     atom   24 type  2   force =    -0.00000211   -0.00000122    0.00069331
     atom   25 type  1   force =    -0.00000478   -0.00000270    0.00892289
     atom   26 type  1   force =     0.00000460    0.00000261    0.00892296
     atom   27 type  2   force =     0.00000209    0.00000121    0.00069326
     atom   28 type  2   force =    -0.00000210   -0.00000122    0.00069329
     atom   29 type  1   force =    -0.00000475   -0.00000268    0.00892291
     atom   30 type  1   force =     0.00000463    0.00000263    0.00892291
     atom   31 type  2   force =     0.00000209    0.00000121    0.00069328
     atom   32 type  2   force =    -0.00000209   -0.00000121    0.00069329
     atom   33 type  1   force =    -0.00000472   -0.00000266    0.00892297
     atom   34 type  1   force =     0.00000463    0.00000263    0.00892298
     atom   35 type  2   force =     0.00000209    0.00000121    0.00069329
     atom   36 type  2   force =    -0.00000208   -0.00000120    0.00069331
     The Hubbard contrib.    to forces
     atom    1 type  1   force =     0.00000000    0.00000000    0.00000000
     atom    2 type  1   force =     0.00000000    0.00000000    0.00000000
     atom    3 type  2   force =     0.00000000    0.00000000    0.00000000
     atom    4 type  2   force =     0.00000000    0.00000000    0.00000000
     atom    5 type  1   force =     0.00000000    0.00000000    0.00000000
     atom    6 type  1   force =     0.00000000    0.00000000    0.00000000
     atom    7 type  2   force =     0.00000000    0.00000000    0.00000000
     atom    8 type  2   force =     0.00000000    0.00000000    0.00000000
     atom    9 type  1   force =     0.00000000    0.00000000    0.00000000
     atom   10 type  1   force =     0.00000000    0.00000000    0.00000000
     atom   11 type  2   force =     0.00000000    0.00000000    0.00000000
     atom   12 type  2   force =     0.00000000    0.00000000    0.00000000
     atom   13 type  1   force =     0.00000000    0.00000000    0.00000000
     atom   14 type  1   force =     0.00000000    0.00000000    0.00000000
     atom   15 type  2   force =     0.00000000    0.00000000    0.00000000
     atom   16 type  2   force =     0.00000000    0.00000000    0.00000000
     atom   17 type  1   force =     0.00000000    0.00000000    0.00000000
     atom   18 type  1   force =     0.00000000    0.00000000    0.00000000
     atom   19 type  2   force =     0.00000000    0.00000000    0.00000000
     atom   20 type  2   force =     0.00000000    0.00000000    0.00000000
     atom   21 type  1   force =     0.00000000    0.00000000    0.00000000
     atom   22 type  1   force =     0.00000000    0.00000000    0.00000000
     atom   23 type  2   force =     0.00000000    0.00000000    0.00000000
     atom   24 type  2   force =     0.00000000    0.00000000    0.00000000
     atom   25 type  1   force =     0.00000000    0.00000000    0.00000000
     atom   26 type  1   force =     0.00000000    0.00000000    0.00000000
     atom   27 type  2   force =     0.00000000    0.00000000    0.00000000
     atom   28 type  2   force =     0.00000000    0.00000000    0.00000000
     atom   29 type  1   force =     0.00000000    0.00000000    0.00000000
     atom   30 type  1   force =     0.00000000    0.00000000    0.00000000
     atom   31 type  2   force =     0.00000000    0.00000000    0.00000000
     atom   32 type  2   force =     0.00000000    0.00000000    0.00000000
     atom   33 type  1   force =     0.00000000    0.00000000    0.00000000
     atom   34 type  1   force =     0.00000000    0.00000000    0.00000000
     atom   35 type  2   force =     0.00000000    0.00000000    0.00000000
     atom   36 type  2   force =     0.00000000    0.00000000    0.00000000
     The SCF correction term to forces
     atom    1 type  1   force =    -0.00000096   -0.00000056    0.00000567
     atom    2 type  1   force =     0.00000104    0.00000060    0.00000738
     atom    3 type  2   force =     0.00000006    0.00000004   -0.00000199
     atom    4 type  2   force =    -0.00000095   -0.00000055   -0.00000128
     atom    5 type  1   force =    -0.00000109   -0.00000063    0.00000761
     atom    6 type  1   force =     0.00000131    0.00000076    0.00000874
     atom    7 type  2   force =     0.00000004    0.00000003    0.00000052
     atom    8 type  2   force =    -0.00000030   -0.00000017   -0.00000182
     atom    9 type  1   force =    -0.00000078   -0.00000045    0.00001183
     atom   10 type  1   force =    -0.00000004   -0.00000002    0.00001192
     atom   11 type  2   force =     0.00000173    0.00000100   -0.00000139
     atom   12 type  2   force =     0.00000106    0.00000061    0.00000099
     atom   13 type  1   force =     0.00000237    0.00000137    0.00000461
     atom   14 type  1   force =     0.00000022    0.00000013    0.00001084
     atom   15 type  2   force =     0.00000053    0.00000030   -0.00000324
     atom   16 type  2   force =     0.00000260    0.00000150   -0.00000294
     atom   17 type  1   force =    -0.00000173   -0.00000100    0.00000701
     atom   18 type  1   force =     0.00000125    0.00000072    0.00000695
     atom   19 type  2   force =    -0.00000083   -0.00000048    0.00000017
     atom   20 type  2   force =     0.00000062    0.00000036   -0.00000249
     atom   21 type  1   force =    -0.00000109   -0.00000063    0.00001132
     atom   22 type  1   force =    -0.00000008   -0.00000005    0.00001211
     atom   23 type  2   force =    -0.00000018   -0.00000011    0.00000055
     atom   24 type  2   force =    -0.00000029   -0.00000017    0.00000133
     atom   25 type  1   force =    -0.00000415   -0.00000239    0.00000794
     atom   26 type  1   force =     0.00000065    0.00000037    0.00000968
     atom   27 type  2   force =    -0.00000191   -0.00000110   -0.00000406
     atom   28 type  2   force =    -0.00000175   -0.00000101   -0.00000173
     atom   29 type  1   force =     0.00000058    0.00000034    0.00000809
     atom   30 type  1   force =    -0.00000013   -0.00000007    0.00000527
     atom   31 type  2   force =     0.00000048    0.00000028   -0.00000067
     atom   32 type  2   force =    -0.00000011   -0.00000006   -0.00000200
     atom   33 type  1   force =    -0.00000186   -0.00000108    0.00001280
     atom   34 type  1   force =     0.00000033    0.00000019    0.00000978
     atom   35 type  2   force =    -0.00000149   -0.00000086    0.00000019
     atom   36 type  2   force =    -0.00000053   -0.00000031    0.00000310

     Total force =     0.078126     Total SCF correction =     0.000041

     General routines

     Parallel routines

   This run was terminated on:  18: 5:18   1Sep2025

   JOB DONE.
Note: The following floating-point exceptions are signalling: IEEE_DENORMAL
Note: The following floating-point exceptions are signalling: IEEE_DENORMAL
Note: The following floating-point exceptions are signalling: IEEE_DENORMAL
Note: The following floating-point exceptions are signalling: IEEE_DENORMAL
Note: The following floating-point exceptions are signalling: IEEE_INVALID_FLAG
Note: The following floating-point exceptions are signalling: IEEE_INVALID_FLAG
Note: The following floating-point exceptions are signalling: IEEE_INVALID_FLAG
Note: The following floating-point exceptions are signalling: IEEE_INVALID_FLAG