     Program PWSCF v.7.2 starts on 29Aug2025 at 14: 4:52

     Reading input from /home/jvc/QEspresso7.2/ZnO_database/scripts/cell313.in/ZnO-3.07-1.71-313.in
Warning: card &CELL ignored
Warning: card / ignored
Warning: card &FCP ignored
Warning: card / ignored
Warning: card &RISM ignored
Warning: card / ignored

     Current dimensions of program PWSCF are:
     Max number of different atomic species (ntypx) = 10
     Max number of k-points (npk) =  40000
     Max angular momentum in pseudopotentials (lmaxx) =  4
     file Zn.upf: wavefunction(s)  3D renormalized
     Found identity + (  0.0000  0.0000  0.3333) symmetry
     This is a supercell, fractional translations are disabled
     Message from routine setup:
     using ibrav=0 with symmetry is DISCOURAGED, use correct ibrav instead

     K-points division:     npool     =       6
     R & G space division:  proc/nbgrp/npool/nimage =      10
     Subspace diagonalization in iterative solution of the eigenvalue problem:
     one sub-group per band group will be used

     Using Slab Decomposition

     bravais-lattice index     =            0
     lattice parameter (alat)  =      17.4244  a.u.
     unit-cell volume          =    2613.2822 (a.u.)^3
     number of atoms/cell      =           36
     number of atomic types    =            2
     number of electrons       =       324.00
     number of Kohn-Sham states=          162
     kinetic-energy cutoff     =      50.0000  Ry
     charge density cutoff     =     400.0000  Ry
     scf convergence threshold =      1.0E-08
     mixing beta               =       0.3000
     number of iterations used =            8  plain     mixing
     Exchange-correlation= PBE
                           (   1   4   3   4   0   0   0)

     celldm(1)=  17.424368  celldm(2)=   0.000000  celldm(3)=   0.000000
     celldm(4)=   0.000000  celldm(5)=   0.000000  celldm(6)=   0.000000

     crystal axes: (cart. coord. in units of alat)
               a(1) = (   1.000000   0.000000   0.000000 )
               a(2) = (  -0.166667   0.288675   0.000000 )
               a(3) = (   0.000000   0.000000   1.711220 )

     reciprocal axes: (cart. coord. in units 2 pi/alat)
               b(1) = (  1.000000  0.577350 -0.000000 )
               b(2) = (  0.000000  3.464102  0.000000 )
               b(3) = (  0.000000 -0.000000  0.584378 )

     PseudoPot. # 1 for Zn read from file:
     /home/jvc/QEspresso7.2/ZnO_database/pseudos/Zn.upf
     MD5 check sum: 7f56cabf9682ed8c977c2f7d0c5985c5
     Pseudo is Ultrasoft + core correction, Zval = 12.0
     Generated using &quot;atomic&quot; code by A. Dal Corso  v.6.2.2
     Using radial grid of 1201 points,  6 beta functions with:
                l(1) =   0
                l(2) =   0
                l(3) =   1
                l(4) =   1
                l(5) =   2
                l(6) =   2
     Q(r) pseudized with 0 coefficients

     PseudoPot. # 2 for O  read from file:
     /home/jvc/QEspresso7.2/ZnO_database/pseudos/O.upf
     MD5 check sum: 91400c9766925bcf19f520983a725ff0
     Pseudo is Ultrasoft + core correction, Zval =  6.0
     Generated using &quot;atomic&quot; code by A. Dal Corso  v.6.3MaX
     Using radial grid of 1095 points,  4 beta functions with:
                l(1) =   0
                l(2) =   0
                l(3) =   1
                l(4) =   1
     Q(r) pseudized with 0 coefficients

     atomic species   valence    mass     pseudopotential
        Zn            12.00    65.38000     Zn( 1.00)
        O              6.00    15.99900     O ( 1.00)

      2 Sym. Ops. (no inversion) found

                                    s                        frac. trans.

      isym =  1     identity

 cryst.   s( 1) = (     1          0          0      )
                  (     0          1          0      )
                  (     0          0          1      )

 cart.    s( 1) = (  1.0000000  0.0000000  0.0000000 )
                  (  0.0000000  1.0000000  0.0000000 )
                  (  0.0000000  0.0000000  1.0000000 )

      isym =  2     inv. 180 deg rotation - cryst. axis [0,1,0]

 cryst.   s( 2) = (     1          3          0      )
                  (     0         -1          0      )
                  (     0          0          1      )

 cart.    s( 2) = (  0.5000000  0.8660254  0.0000000 )
                  (  0.8660254 -0.5000000  0.0000000 )
                  (  0.0000000  0.0000000  1.0000000 )

   Cartesian axes

     site n.     atom                  positions (alat units)
         1           Zn  tau(   1) = (   0.1666667   0.0962250   0.2855647  )
         2           Zn  tau(   2) = (  -0.0000000   0.1924501   0.0003614  )
         3           O   tau(   3) = (   0.1666667   0.0962250   0.5017732  )
         4           O   tau(   4) = (  -0.0000000   0.1924501   0.2165699  )
         5           Zn  tau(   5) = (   0.1666667   0.0962250   0.8559713  )
         6           Zn  tau(   6) = (  -0.0000000   0.1924501   0.5707680  )
         7           O   tau(   7) = (   0.1666667   0.0962250   1.0721799  )
         8           O   tau(   8) = (  -0.0000000   0.1924501   0.7869766  )
         9           Zn  tau(   9) = (   0.1666667   0.0962250   1.4263779  )
        10           Zn  tau(  10) = (  -0.0000000   0.1924501   1.1411746  )
        11           O   tau(  11) = (   0.1666667   0.0962250   1.6425865  )
        12           O   tau(  12) = (  -0.0000000   0.1924501   1.3573832  )
        13           Zn  tau(  13) = (   0.5000000   0.0962250   0.2855647  )
        14           Zn  tau(  14) = (   0.3333333   0.1924501   0.0003614  )
        15           O   tau(  15) = (   0.5000000   0.0962250   0.5017732  )
        16           O   tau(  16) = (   0.3333333   0.1924501   0.2165699  )
        17           Zn  tau(  17) = (   0.5000000   0.0962250   0.8559713  )
        18           Zn  tau(  18) = (   0.3333333   0.1924501   0.5707680  )
        19           O   tau(  19) = (   0.5000000   0.0962250   1.0721799  )
        20           O   tau(  20) = (   0.3333333   0.1924501   0.7869766  )
        21           Zn  tau(  21) = (   0.5000000   0.0962250   1.4263779  )
        22           Zn  tau(  22) = (   0.3333333   0.1924501   1.1411746  )
        23           O   tau(  23) = (   0.5000000   0.0962250   1.6425865  )
        24           O   tau(  24) = (   0.3333333   0.1924501   1.3573832  )
        25           Zn  tau(  25) = (   0.8333333   0.0962250   0.2855647  )
        26           Zn  tau(  26) = (   0.6666667   0.1924501   0.0003614  )
        27           O   tau(  27) = (   0.8333333   0.0962250   0.5017732  )
        28           O   tau(  28) = (   0.6666667   0.1924501   0.2165699  )
        29           Zn  tau(  29) = (   0.8333333   0.0962250   0.8559713  )
        30           Zn  tau(  30) = (   0.6666667   0.1924501   0.5707680  )
        31           O   tau(  31) = (   0.8333333   0.0962250   1.0721799  )
        32           O   tau(  32) = (   0.6666667   0.1924501   0.7869766  )
        33           Zn  tau(  33) = (   0.8333333   0.0962250   1.4263779  )
        34           Zn  tau(  34) = (   0.6666667   0.1924501   1.1411746  )
        35           O   tau(  35) = (   0.8333333   0.0962250   1.6425865  )
        36           O   tau(  36) = (   0.6666667   0.1924501   1.3573832  )

   Crystallographic axes

     site n.     atom                  positions (cryst. coord.)
         1           Zn  tau(   1) = (  0.2222222  0.3333333  0.1668779  )
         2           Zn  tau(   2) = (  0.1111111  0.6666667  0.0002112  )
         3           O   tau(   3) = (  0.2222222  0.3333333  0.2932255  )
         4           O   tau(   4) = (  0.1111111  0.6666667  0.1265588  )
         5           Zn  tau(   5) = (  0.2222222  0.3333333  0.5002112  )
         6           Zn  tau(   6) = (  0.1111111  0.6666667  0.3335445  )
         7           O   tau(   7) = (  0.2222222  0.3333333  0.6265588  )
         8           O   tau(   8) = (  0.1111111  0.6666667  0.4598921  )
         9           Zn  tau(   9) = (  0.2222222  0.3333333  0.8335445  )
        10           Zn  tau(  10) = (  0.1111111  0.6666667  0.6668779  )
        11           O   tau(  11) = (  0.2222222  0.3333333  0.9598921  )
        12           O   tau(  12) = (  0.1111111  0.6666667  0.7932255  )
        13           Zn  tau(  13) = (  0.5555556  0.3333333  0.1668779  )
        14           Zn  tau(  14) = (  0.4444444  0.6666667  0.0002112  )
        15           O   tau(  15) = (  0.5555556  0.3333333  0.2932255  )
        16           O   tau(  16) = (  0.4444444  0.6666667  0.1265588  )
        17           Zn  tau(  17) = (  0.5555556  0.3333333  0.5002112  )
        18           Zn  tau(  18) = (  0.4444444  0.6666667  0.3335445  )
        19           O   tau(  19) = (  0.5555556  0.3333333  0.6265588  )
        20           O   tau(  20) = (  0.4444444  0.6666667  0.4598921  )
        21           Zn  tau(  21) = (  0.5555556  0.3333333  0.8335445  )
        22           Zn  tau(  22) = (  0.4444444  0.6666667  0.6668779  )
        23           O   tau(  23) = (  0.5555556  0.3333333  0.9598921  )
        24           O   tau(  24) = (  0.4444444  0.6666667  0.7932255  )
        25           Zn  tau(  25) = (  0.8888889  0.3333333  0.1668779  )
        26           Zn  tau(  26) = (  0.7777778  0.6666667  0.0002112  )
        27           O   tau(  27) = (  0.8888889  0.3333333  0.2932255  )
        28           O   tau(  28) = (  0.7777778  0.6666667  0.1265588  )
        29           Zn  tau(  29) = (  0.8888889  0.3333333  0.5002112  )
        30           Zn  tau(  30) = (  0.7777778  0.6666667  0.3335445  )
        31           O   tau(  31) = (  0.8888889  0.3333333  0.6265588  )
        32           O   tau(  32) = (  0.7777778  0.6666667  0.4598921  )
        33           Zn  tau(  33) = (  0.8888889  0.3333333  0.8335445  )
        34           Zn  tau(  34) = (  0.7777778  0.6666667  0.6668779  )
        35           O   tau(  35) = (  0.8888889  0.3333333  0.9598921  )
        36           O   tau(  36) = (  0.7777778  0.6666667  0.7932255  )

     number of k points=    68
                       cart. coord. in units 2pi/alat
        k(    1) = (   0.0000000   0.0000000   0.0000000), wk =   0.0092593
        k(    2) = (   0.0000000   0.0000000   0.0973964), wk =   0.0185185
        k(    3) = (   0.0000000   0.0000000   0.1947928), wk =   0.0185185
        k(    4) = (   0.0000000   0.0000000  -0.2921892), wk =   0.0092593
        k(    5) = (   0.0000000   0.5773503   0.0000000), wk =   0.0370370
        k(    6) = (   0.0000000   0.5773503   0.0973964), wk =   0.0370370
        k(    7) = (   0.0000000   0.5773503   0.1947928), wk =   0.0370370
        k(    8) = (   0.0000000   0.5773503  -0.2921892), wk =   0.0370370
        k(    9) = (   0.0000000   1.1547005   0.0000000), wk =   0.0185185
        k(   10) = (   0.0000000   1.1547005   0.0973964), wk =   0.0370370
        k(   11) = (   0.0000000   1.1547005   0.1947928), wk =   0.0370370
        k(   12) = (   0.0000000   1.1547005  -0.2921892), wk =   0.0185185
        k(   13) = (   0.0000000  -1.7320508   0.0000000), wk =   0.0185185
[...]
     atom   14 type  1   force =     0.00002756    0.00001591    0.16810376
     atom   15 type  2   force =    -0.00018776   -0.00010840    0.14088100
     atom   16 type  2   force =     0.00018363    0.00010602    0.14088011
     atom   17 type  1   force =    -0.00002946   -0.00001701    0.16811039
     atom   18 type  1   force =     0.00002353    0.00001358    0.16810006
     atom   19 type  2   force =    -0.00018012   -0.00010399    0.14087343
     atom   20 type  2   force =     0.00018793    0.00010850    0.14087501
     atom   21 type  1   force =    -0.00001827   -0.00001055    0.16811217
     atom   22 type  1   force =     0.00001485    0.00000858    0.16810476
     atom   23 type  2   force =    -0.00018560   -0.00010716    0.14087645
     atom   24 type  2   force =     0.00018214    0.00010516    0.14087519
     atom   25 type  1   force =    -0.00001489   -0.00000859    0.16810980
     atom   26 type  1   force =     0.00001641    0.00000947    0.16810329
     atom   27 type  2   force =    -0.00018370   -0.00010606    0.14088510
     atom   28 type  2   force =     0.00017964    0.00010371    0.14087519
     atom   29 type  1   force =    -0.00001147   -0.00000662    0.16810983
     atom   30 type  1   force =     0.00002791    0.00001611    0.16808629
     atom   31 type  2   force =    -0.00018903   -0.00010914    0.14087223
     atom   32 type  2   force =     0.00018027    0.00010408    0.14087985
     atom   33 type  1   force =    -0.00002558   -0.00001477    0.16810653
     atom   34 type  1   force =     0.00002725    0.00001573    0.16811063
     atom   35 type  2   force =    -0.00017871   -0.00010318    0.14087541
     atom   36 type  2   force =     0.00018285    0.00010557    0.14087421
     The ionic contribution  to forces
     atom    1 type  1   force =     0.00000001    0.00000001    1.37965180
     atom    2 type  1   force =     0.00000001    0.00000000    1.37965184
     atom    3 type  2   force =     0.00000000    0.00000000   -1.37965181
     atom    4 type  2   force =     0.00000001    0.00000000   -1.37965182
     atom    5 type  1   force =     0.00000001    0.00000001    1.37965184
     atom    6 type  1   force =     0.00000001    0.00000000    1.37965179
     atom    7 type  2   force =     0.00000000    0.00000000   -1.37965182
     atom    8 type  2   force =     0.00000001    0.00000000   -1.37965179
     atom    9 type  1   force =     0.00000001    0.00000001    1.37965179
     atom   10 type  1   force =     0.00000001    0.00000000    1.37965179
     atom   11 type  2   force =     0.00000000    0.00000000   -1.37965180
     atom   12 type  2   force =     0.00000001    0.00000000   -1.37965181
     atom   13 type  1   force =    -0.00000001    0.00000000    1.37965179
     atom   14 type  1   force =     0.00000001   -0.00000000    1.37965183
     atom   15 type  2   force =    -0.00000001    0.00000000   -1.37965181
     atom   16 type  2   force =     0.00000001   -0.00000000   -1.37965182
     atom   17 type  1   force =    -0.00000001    0.00000000    1.37965183
     atom   18 type  1   force =     0.00000001   -0.00000000    1.37965179
     atom   19 type  2   force =    -0.00000001    0.00000000   -1.37965182
     atom   20 type  2   force =     0.00000001   -0.00000000   -1.37965179
     atom   21 type  1   force =    -0.00000001    0.00000000    1.37965179
     atom   22 type  1   force =     0.00000001   -0.00000000    1.37965179
     atom   23 type  2   force =    -0.00000001    0.00000000   -1.37965179
     atom   24 type  2   force =     0.00000001   -0.00000000   -1.37965181
     atom   25 type  1   force =    -0.00000001   -0.00000000    1.37965179
     atom   26 type  1   force =    -0.00000001   -0.00000001    1.37965184
     atom   27 type  2   force =    -0.00000001   -0.00000000   -1.37965181
     atom   28 type  2   force =    -0.00000000   -0.00000000   -1.37965182
     atom   29 type  1   force =    -0.00000001   -0.00000000    1.37965184
     atom   30 type  1   force =    -0.00000001   -0.00000001    1.37965179
     atom   31 type  2   force =    -0.00000001   -0.00000000   -1.37965182
     atom   32 type  2   force =    -0.00000000   -0.00000000   -1.37965180
     atom   33 type  1   force =    -0.00000001   -0.00000000    1.37965179
     atom   34 type  1   force =    -0.00000001   -0.00000001    1.37965180
     atom   35 type  2   force =    -0.00000001   -0.00000000   -1.37965179
     atom   36 type  2   force =    -0.00000000   -0.00000000   -1.37965181
     The local contribution  to forces
     atom    1 type  1   force =     0.00006641    0.00003834   -1.50364127
     atom    2 type  1   force =    -0.00002941   -0.00001703   -1.50368553
     atom    3 type  2   force =     0.00018635    0.00010759    1.20908693
     atom    4 type  2   force =    -0.00017652   -0.00010192    1.20908091
     atom    5 type  1   force =     0.00004105    0.00002370   -1.50368331
     atom    6 type  1   force =    -0.00000539   -0.00000316   -1.50363665
     atom    7 type  2   force =     0.00018294    0.00010562    1.20908222
     atom    8 type  2   force =    -0.00017882   -0.00010325    1.20907801
     atom    9 type  1   force =     0.00003114    0.00001798   -1.50365520
     atom   10 type  1   force =    -0.00004185   -0.00002421   -1.50363661
     atom   11 type  2   force =     0.00017965    0.00010372    1.20907730
     atom   12 type  2   force =    -0.00017940   -0.00010359    1.20908026
     atom   13 type  1   force =     0.00002739    0.00001591   -1.50366041
     atom   14 type  1   force =    -0.00006154   -0.00003562   -1.50364880
     atom   15 type  2   force =     0.00017761    0.00010257    1.20909184
     atom   16 type  2   force =    -0.00018190   -0.00010504    1.20908288
     atom   17 type  1   force =     0.00006099    0.00003531   -1.50367265
     atom   18 type  1   force =    -0.00004626   -0.00002680   -1.50364552
     atom   19 type  2   force =     0.00018454    0.00010657    1.20907960
     atom   20 type  2   force =    -0.00017690   -0.00010216    1.20907684
     atom   21 type  1   force =     0.00003035    0.00001761   -1.50367909
     atom   22 type  1   force =    -0.00001690   -0.00000985   -1.50365552
     atom   23 type  2   force =     0.00017777    0.00010266    1.20907919
     atom   24 type  2   force =    -0.00017912   -0.00010344    1.20907871
     atom   25 type  1   force =     0.00001974    0.00001144   -1.50367331
     atom   26 type  1   force =    -0.00002206   -0.00001273   -1.50365171
     atom   27 type  2   force =     0.00017740    0.00010243    1.20909109
     atom   28 type  2   force =    -0.00018216   -0.00010517    1.20908150
     atom   29 type  1   force =     0.00001127    0.00000655   -1.50367627
     atom   30 type  1   force =    -0.00006075   -0.00003507   -1.50360520
     atom   31 type  2   force =     0.00017306    0.00009993    1.20908063
     atom   32 type  2   force =    -0.00018678   -0.00010784    1.20907944
     atom   33 type  1   force =     0.00005183    0.00002997   -1.50366216
     atom   34 type  1   force =    -0.00005396   -0.00003115   -1.50366935
     atom   35 type  2   force =     0.00018259    0.00010543    1.20907841
     atom   36 type  2   force =    -0.00018250   -0.00010537    1.20907617
     The core correction contribution to forces
     atom    1 type  1   force =    -0.00000761   -0.00000440   -0.01336825
     atom    2 type  1   force =     0.00000692    0.00000399   -0.01336727
     atom    3 type  2   force =     0.00000202    0.00000117   -0.00103085
     atom    4 type  2   force =    -0.00000212   -0.00000122   -0.00103079
     atom    5 type  1   force =    -0.00000723   -0.00000418   -0.01336715
     atom    6 type  1   force =     0.00000645    0.00000372   -0.01336781
     atom    7 type  2   force =     0.00000205    0.00000119   -0.00103082
     atom    8 type  2   force =    -0.00000206   -0.00000119   -0.00103079
     atom    9 type  1   force =    -0.00000698   -0.00000403   -0.01336776
     atom   10 type  1   force =     0.00000750    0.00000432   -0.01336831
     atom   11 type  2   force =     0.00000210    0.00000121   -0.00103076
     atom   12 type  2   force =    -0.00000210   -0.00000121   -0.00103087
     atom   13 type  1   force =    -0.00000701   -0.00000403   -0.01336770
     atom   14 type  1   force =     0.00000777    0.00000448   -0.01336820
     atom   15 type  2   force =     0.00000213    0.00000123   -0.00103086
     atom   16 type  2   force =    -0.00000208   -0.00000120   -0.00103085
     atom   17 type  1   force =    -0.00000744   -0.00000428   -0.01336755
     atom   18 type  1   force =     0.00000739    0.00000426   -0.01336784
     atom   19 type  2   force =     0.00000204    0.00000118   -0.00103077
     atom   20 type  2   force =    -0.00000213   -0.00000123   -0.00103080
     atom   21 type  1   force =    -0.00000706   -0.00000406   -0.01336729
     atom   22 type  1   force =     0.00000668    0.00000385   -0.01336783
     atom   23 type  2   force =     0.00000210    0.00000121   -0.00103081
     atom   24 type  2   force =    -0.00000206   -0.00000119   -0.00103080
     atom   25 type  1   force =    -0.00000686   -0.00000395   -0.01336737
     atom   26 type  1   force =     0.00000681    0.00000393   -0.01336792
     atom   27 type  2   force =     0.00000208    0.00000120   -0.00103091
     atom   28 type  2   force =    -0.00000203   -0.00000117   -0.00103079
     atom   29 type  1   force =    -0.00000681   -0.00000392   -0.01336716
     atom   30 type  1   force =     0.00000768    0.00000443   -0.01336863
     atom   31 type  2   force =     0.00000214    0.00000123   -0.00103076
     atom   32 type  2   force =    -0.00000205   -0.00000118   -0.00103086
     atom   33 type  1   force =    -0.00000745   -0.00000429   -0.01336768
     atom   34 type  1   force =     0.00000732    0.00000422   -0.01336773
     atom   35 type  2   force =     0.00000202    0.00000116   -0.00103080
     atom   36 type  2   force =    -0.00000207   -0.00000120   -0.00103079
     The Hubbard contrib.    to forces
     atom    1 type  1   force =     0.00000000    0.00000000    0.00000000
     atom    2 type  1   force =     0.00000000    0.00000000    0.00000000
     atom    3 type  2   force =     0.00000000    0.00000000    0.00000000
     atom    4 type  2   force =     0.00000000    0.00000000    0.00000000
     atom    5 type  1   force =     0.00000000    0.00000000    0.00000000
     atom    6 type  1   force =     0.00000000    0.00000000    0.00000000
     atom    7 type  2   force =     0.00000000    0.00000000    0.00000000
     atom    8 type  2   force =     0.00000000    0.00000000    0.00000000
     atom    9 type  1   force =     0.00000000    0.00000000    0.00000000
     atom   10 type  1   force =     0.00000000    0.00000000    0.00000000
     atom   11 type  2   force =     0.00000000    0.00000000    0.00000000
     atom   12 type  2   force =     0.00000000    0.00000000    0.00000000
     atom   13 type  1   force =     0.00000000    0.00000000    0.00000000
     atom   14 type  1   force =     0.00000000    0.00000000    0.00000000
     atom   15 type  2   force =     0.00000000    0.00000000    0.00000000
     atom   16 type  2   force =     0.00000000    0.00000000    0.00000000
     atom   17 type  1   force =     0.00000000    0.00000000    0.00000000
     atom   18 type  1   force =     0.00000000    0.00000000    0.00000000
     atom   19 type  2   force =     0.00000000    0.00000000    0.00000000
     atom   20 type  2   force =     0.00000000    0.00000000    0.00000000
     atom   21 type  1   force =     0.00000000    0.00000000    0.00000000
     atom   22 type  1   force =     0.00000000    0.00000000    0.00000000
     atom   23 type  2   force =     0.00000000    0.00000000    0.00000000
     atom   24 type  2   force =     0.00000000    0.00000000    0.00000000
     atom   25 type  1   force =     0.00000000    0.00000000    0.00000000
     atom   26 type  1   force =     0.00000000    0.00000000    0.00000000
     atom   27 type  2   force =     0.00000000    0.00000000    0.00000000
     atom   28 type  2   force =     0.00000000    0.00000000    0.00000000
     atom   29 type  1   force =     0.00000000    0.00000000    0.00000000
     atom   30 type  1   force =     0.00000000    0.00000000    0.00000000
     atom   31 type  2   force =     0.00000000    0.00000000    0.00000000
     atom   32 type  2   force =     0.00000000    0.00000000    0.00000000
     atom   33 type  1   force =     0.00000000    0.00000000    0.00000000
     atom   34 type  1   force =     0.00000000    0.00000000    0.00000000
     atom   35 type  2   force =     0.00000000    0.00000000    0.00000000
     atom   36 type  2   force =     0.00000000    0.00000000    0.00000000
     The SCF correction term to forces
     atom    1 type  1   force =    -0.00003211   -0.00001854   -0.00003287
     atom    2 type  1   force =    -0.00000892   -0.00000515    0.00001739
     atom    3 type  2   force =    -0.00001087   -0.00000628   -0.00001063
     atom    4 type  2   force =    -0.00000465   -0.00000268    0.00000014
     atom    5 type  1   force =    -0.00000446   -0.00000257    0.00001524
     atom    6 type  1   force =    -0.00003711   -0.00002142   -0.00003733
     atom    7 type  2   force =    -0.00000535   -0.00000309   -0.00000245
     atom    8 type  2   force =     0.00000056    0.00000032    0.00000305
     atom    9 type  1   force =     0.00000605    0.00000349   -0.00001640
     atom   10 type  1   force =     0.00000522    0.00000301   -0.00003725
     atom   11 type  2   force =     0.00000073    0.00000042    0.00000569
     atom   12 type  2   force =    -0.00000094   -0.00000054   -0.00000434
     atom   13 type  1   force =     0.00000979    0.00000565   -0.00001091
     atom   14 type  1   force =     0.00002783    0.00001607   -0.00002335
     atom   15 type  2   force =     0.00000505    0.00000292   -0.00001503
     atom   16 type  2   force =     0.00000229    0.00000132   -0.00000628
     atom   17 type  1   force =    -0.00002660   -0.00001536    0.00000319
     atom   18 type  1   force =     0.00000881    0.00000508   -0.00002868
     atom   19 type  2   force =    -0.00000768   -0.00000443    0.00000261
     atom   20 type  2   force =    -0.00000581   -0.00000335    0.00000330
     atom   21 type  1   force =     0.00000742    0.00000429    0.00001069
     atom   22 type  1   force =    -0.00002418   -0.00001396   -0.00001670
     atom   23 type  2   force =     0.00000279    0.00000161    0.00000142
     atom   24 type  2   force =     0.00000121    0.00000070    0.00000189
     atom   25 type  1   force =     0.00001952    0.00001127    0.00000465
     atom   26 type  1   force =    -0.00001794   -0.00001035   -0.00001935
     atom   27 type  2   force =     0.00000163    0.00000094   -0.00001630
     atom   28 type  2   force =     0.00000613    0.00000354   -0.00000117
     atom   29 type  1   force =     0.00002935    0.00001695    0.00000650
     atom   30 type  1   force =     0.00002673    0.00001543   -0.00007164
     atom   31 type  2   force =     0.00000970    0.00000560    0.00000266
     atom   32 type  2   force =     0.00001015    0.00000586   -0.00000366
     atom   33 type  1   force =    -0.00001577   -0.00000910   -0.00000775
     atom   34 type  1   force =     0.00001852    0.00001069   -0.00000202
     atom   35 type  2   force =    -0.00000700   -0.00000404    0.00000218
     atom   36 type  2   force =     0.00000343    0.00000198    0.00000519

     Total force =     0.184332     Total SCF correction =     0.000155

     General routines

     Parallel routines

   This run was terminated on:  14:38:38  29Aug2025

   JOB DONE.
Note: The following floating-point exceptions are signalling: IEEE_DENORMAL
Note: The following floating-point exceptions are signalling: IEEE_INVALID_FLAG
Note: The following floating-point exceptions are signalling: IEEE_DENORMAL
Note: The following floating-point exceptions are signalling: IEEE_INVALID_FLAG
Note: The following floating-point exceptions are signalling: IEEE_DENORMAL
Note: The following floating-point exceptions are signalling: IEEE_INVALID_FLAG
Note: The following floating-point exceptions are signalling: IEEE_INVALID_FLAG
Note: The following floating-point exceptions are signalling: IEEE_DENORMAL
Note: The following floating-point exceptions are signalling: IEEE_INVALID_FLAG
Note: The following floating-point exceptions are signalling: IEEE_INVALID_FLAG
Note: The following floating-point exceptions are signalling: IEEE_DENORMAL
Note: The following floating-point exceptions are signalling: IEEE_DENORMAL