     Program PWSCF v.7.2 starts on  3Sep2025 at 15:14:25

     Reading input from /home/jvc/QEspresso7.2/ZnO_database/scripts/cell313.in/ZnO-3.53-1.74-313.in
Warning: card &CELL ignored
Warning: card / ignored
Warning: card &FCP ignored
Warning: card / ignored
Warning: card &RISM ignored
Warning: card / ignored

     Current dimensions of program PWSCF are:
     Max number of different atomic species (ntypx) = 10
     Max number of k-points (npk) =  40000
     Max angular momentum in pseudopotentials (lmaxx) =  4
     file Zn.upf: wavefunction(s)  3D renormalized
     Found identity + (  0.0000  0.0000  0.3333) symmetry
     This is a supercell, fractional translations are disabled
     Message from routine setup:
     using ibrav=0 with symmetry is DISCOURAGED, use correct ibrav instead

     K-points division:     npool     =      16
     R & G space division:  proc/nbgrp/npool/nimage =       4
     Subspace diagonalization in iterative solution of the eigenvalue problem:
     one sub-group per band group will be used

     Using Slab Decomposition

     bravais-lattice index     =            0
     lattice parameter (alat)  =      20.0195  a.u.
     unit-cell volume          =    4038.2379 (a.u.)^3
     number of atoms/cell      =           36
     number of atomic types    =            2
     number of electrons       =       324.00
     number of Kohn-Sham states=          162
     kinetic-energy cutoff     =      50.0000  Ry
     charge density cutoff     =     400.0000  Ry
     scf convergence threshold =      1.0E-08
     mixing beta               =       0.3000
     number of iterations used =            8  plain     mixing
     Exchange-correlation= PBE
                           (   1   4   3   4   0   0   0)

     celldm(1)=  20.019487  celldm(2)=   0.000000  celldm(3)=   0.000000
     celldm(4)=   0.000000  celldm(5)=   0.000000  celldm(6)=   0.000000

     crystal axes: (cart. coord. in units of alat)
               a(1) = (   1.000000   0.000000   0.000000 )
               a(2) = (  -0.166667   0.288675   0.000000 )
               a(3) = (   0.000000   0.000000   1.743507 )

     reciprocal axes: (cart. coord. in units 2 pi/alat)
               b(1) = (  1.000000  0.577350 -0.000000 )
               b(2) = (  0.000000  3.464102  0.000000 )
               b(3) = (  0.000000 -0.000000  0.573557 )

     PseudoPot. # 1 for Zn read from file:
     /home/jvc/QEspresso7.2/ZnO_database/pseudos/Zn.upf
     MD5 check sum: 7f56cabf9682ed8c977c2f7d0c5985c5
     Pseudo is Ultrasoft + core correction, Zval = 12.0
     Generated using &quot;atomic&quot; code by A. Dal Corso  v.6.2.2
     Using radial grid of 1201 points,  6 beta functions with:
                l(1) =   0
                l(2) =   0
                l(3) =   1
                l(4) =   1
                l(5) =   2
                l(6) =   2
     Q(r) pseudized with 0 coefficients

     PseudoPot. # 2 for O  read from file:
     /home/jvc/QEspresso7.2/ZnO_database/pseudos/O.upf
     MD5 check sum: 91400c9766925bcf19f520983a725ff0
     Pseudo is Ultrasoft + core correction, Zval =  6.0
     Generated using &quot;atomic&quot; code by A. Dal Corso  v.6.3MaX
     Using radial grid of 1095 points,  4 beta functions with:
                l(1) =   0
                l(2) =   0
                l(3) =   1
                l(4) =   1
     Q(r) pseudized with 0 coefficients

     atomic species   valence    mass     pseudopotential
        Zn            12.00    65.38000     Zn( 1.00)
        O              6.00    15.99900     O ( 1.00)

      2 Sym. Ops. (no inversion) found

                                    s                        frac. trans.

      isym =  1     identity

 cryst.   s( 1) = (     1          0          0      )
                  (     0          1          0      )
                  (     0          0          1      )

 cart.    s( 1) = (  1.0000000 -0.0000000  0.0000000 )
                  (  0.0000000  1.0000000  0.0000000 )
                  (  0.0000000  0.0000000  1.0000000 )

      isym =  2     inv. 180 deg rotation - cryst. axis [0,1,0]

 cryst.   s( 2) = (     1          3          0      )
                  (     0         -1          0      )
                  (     0          0          1      )

 cart.    s( 2) = (  0.5000000  0.8660254  0.0000000 )
                  (  0.8660254 -0.5000000  0.0000000 )
                  (  0.0000000  0.0000000  1.0000000 )

   Cartesian axes

     site n.     atom                  positions (alat units)
         1           Zn  tau(   1) = (   0.1666667   0.0962250   0.2909527  )
         2           Zn  tau(   2) = (  -0.0000000   0.1924501   0.0003682  )
         3           O   tau(   3) = (   0.1666667   0.0962250   0.5112407  )
         4           O   tau(   4) = (  -0.0000000   0.1924501   0.2206562  )
         5           Zn  tau(   5) = (   0.1666667   0.0962250   0.8721217  )
         6           Zn  tau(   6) = (  -0.0000000   0.1924501   0.5815372  )
         7           O   tau(   7) = (   0.1666667   0.0962250   1.0924097  )
         8           O   tau(   8) = (  -0.0000000   0.1924501   0.8018252  )
         9           Zn  tau(   9) = (   0.1666667   0.0962250   1.4532907  )
        10           Zn  tau(  10) = (  -0.0000000   0.1924501   1.1627062  )
        11           O   tau(  11) = (   0.1666667   0.0962250   1.6735787  )
        12           O   tau(  12) = (  -0.0000000   0.1924501   1.3829942  )
        13           Zn  tau(  13) = (   0.5000000   0.0962250   0.2909527  )
        14           Zn  tau(  14) = (   0.3333333   0.1924501   0.0003682  )
        15           O   tau(  15) = (   0.5000000   0.0962250   0.5112407  )
        16           O   tau(  16) = (   0.3333333   0.1924501   0.2206562  )
        17           Zn  tau(  17) = (   0.5000000   0.0962250   0.8721217  )
        18           Zn  tau(  18) = (   0.3333333   0.1924501   0.5815372  )
        19           O   tau(  19) = (   0.5000000   0.0962250   1.0924097  )
        20           O   tau(  20) = (   0.3333333   0.1924501   0.8018252  )
        21           Zn  tau(  21) = (   0.5000000   0.0962250   1.4532907  )
        22           Zn  tau(  22) = (   0.3333333   0.1924501   1.1627062  )
        23           O   tau(  23) = (   0.5000000   0.0962250   1.6735787  )
        24           O   tau(  24) = (   0.3333333   0.1924501   1.3829942  )
        25           Zn  tau(  25) = (   0.8333333   0.0962250   0.2909527  )
        26           Zn  tau(  26) = (   0.6666667   0.1924501   0.0003682  )
        27           O   tau(  27) = (   0.8333333   0.0962250   0.5112407  )
        28           O   tau(  28) = (   0.6666667   0.1924501   0.2206562  )
        29           Zn  tau(  29) = (   0.8333333   0.0962250   0.8721217  )
        30           Zn  tau(  30) = (   0.6666667   0.1924501   0.5815372  )
        31           O   tau(  31) = (   0.8333333   0.0962250   1.0924097  )
        32           O   tau(  32) = (   0.6666667   0.1924501   0.8018252  )
        33           Zn  tau(  33) = (   0.8333333   0.0962250   1.4532907  )
        34           Zn  tau(  34) = (   0.6666667   0.1924501   1.1627062  )
        35           O   tau(  35) = (   0.8333333   0.0962250   1.6735787  )
        36           O   tau(  36) = (   0.6666667   0.1924501   1.3829942  )

   Crystallographic axes

     site n.     atom                  positions (cryst. coord.)
         1           Zn  tau(   1) = (  0.2222222  0.3333333  0.1668779  )
         2           Zn  tau(   2) = (  0.1111111  0.6666667  0.0002112  )
         3           O   tau(   3) = (  0.2222222  0.3333333  0.2932255  )
         4           O   tau(   4) = (  0.1111111  0.6666667  0.1265588  )
         5           Zn  tau(   5) = (  0.2222222  0.3333333  0.5002112  )
         6           Zn  tau(   6) = (  0.1111111  0.6666667  0.3335445  )
         7           O   tau(   7) = (  0.2222222  0.3333333  0.6265588  )
         8           O   tau(   8) = (  0.1111111  0.6666667  0.4598921  )
         9           Zn  tau(   9) = (  0.2222222  0.3333333  0.8335445  )
        10           Zn  tau(  10) = (  0.1111111  0.6666667  0.6668779  )
        11           O   tau(  11) = (  0.2222222  0.3333333  0.9598921  )
        12           O   tau(  12) = (  0.1111111  0.6666667  0.7932255  )
        13           Zn  tau(  13) = (  0.5555556  0.3333333  0.1668779  )
        14           Zn  tau(  14) = (  0.4444444  0.6666667  0.0002112  )
        15           O   tau(  15) = (  0.5555556  0.3333333  0.2932255  )
        16           O   tau(  16) = (  0.4444444  0.6666667  0.1265588  )
        17           Zn  tau(  17) = (  0.5555556  0.3333333  0.5002112  )
        18           Zn  tau(  18) = (  0.4444444  0.6666667  0.3335445  )
        19           O   tau(  19) = (  0.5555556  0.3333333  0.6265588  )
        20           O   tau(  20) = (  0.4444444  0.6666667  0.4598921  )
        21           Zn  tau(  21) = (  0.5555556  0.3333333  0.8335445  )
        22           Zn  tau(  22) = (  0.4444444  0.6666667  0.6668779  )
        23           O   tau(  23) = (  0.5555556  0.3333333  0.9598921  )
        24           O   tau(  24) = (  0.4444444  0.6666667  0.7932255  )
        25           Zn  tau(  25) = (  0.8888889  0.3333333  0.1668779  )
        26           Zn  tau(  26) = (  0.7777778  0.6666667  0.0002112  )
        27           O   tau(  27) = (  0.8888889  0.3333333  0.2932255  )
        28           O   tau(  28) = (  0.7777778  0.6666667  0.1265588  )
        29           Zn  tau(  29) = (  0.8888889  0.3333333  0.5002112  )
        30           Zn  tau(  30) = (  0.7777778  0.6666667  0.3335445  )
        31           O   tau(  31) = (  0.8888889  0.3333333  0.6265588  )
        32           O   tau(  32) = (  0.7777778  0.6666667  0.4598921  )
        33           Zn  tau(  33) = (  0.8888889  0.3333333  0.8335445  )
        34           Zn  tau(  34) = (  0.7777778  0.6666667  0.6668779  )
        35           O   tau(  35) = (  0.8888889  0.3333333  0.9598921  )
        36           O   tau(  36) = (  0.7777778  0.6666667  0.7932255  )

     number of k points=    68
                       cart. coord. in units 2pi/alat
        k(    1) = (   0.0000000   0.0000000   0.0000000), wk =   0.0092593
        k(    2) = (   0.0000000   0.0000000   0.0955928), wk =   0.0185185
        k(    3) = (   0.0000000   0.0000000   0.1911855), wk =   0.0185185
        k(    4) = (   0.0000000   0.0000000  -0.2867783), wk =   0.0092593
        k(    5) = (   0.0000000   0.5773503   0.0000000), wk =   0.0370370
        k(    6) = (   0.0000000   0.5773503   0.0955928), wk =   0.0370370
        k(    7) = (   0.0000000   0.5773503   0.1911855), wk =   0.0370370
        k(    8) = (   0.0000000   0.5773503  -0.2867783), wk =   0.0370370
        k(    9) = (   0.0000000   1.1547005   0.0000000), wk =   0.0185185
        k(   10) = (   0.0000000   1.1547005   0.0955928), wk =   0.0370370
        k(   11) = (   0.0000000   1.1547005   0.1911855), wk =   0.0370370
        k(   12) = (   0.0000000   1.1547005  -0.2867783), wk =   0.0185185
        k(   13) = (   0.0000000  -1.7320508   0.0000000), wk =   0.0185185
[...]
     atom   34 type  1   force =    -0.00004045   -0.00002335    0.17426447
     atom   35 type  2   force =    -0.00022752   -0.00013136    0.20853666
     atom   36 type  2   force =     0.00022650    0.00013077    0.20853738
     The ionic contribution  to forces
     atom    1 type  1   force =     0.00000001    0.00000000    1.34866902
     atom    2 type  1   force =     0.00000001    0.00000000    1.34866905
     atom    3 type  2   force =     0.00000000    0.00000000   -1.34866903
     atom    4 type  2   force =     0.00000000    0.00000000   -1.34866903
     atom    5 type  1   force =     0.00000001    0.00000000    1.34866905
     atom    6 type  1   force =     0.00000001    0.00000000    1.34866901
     atom    7 type  2   force =     0.00000000    0.00000000   -1.34866904
     atom    8 type  2   force =     0.00000000    0.00000000   -1.34866902
     atom    9 type  1   force =     0.00000001    0.00000000    1.34866902
     atom   10 type  1   force =     0.00000001    0.00000000    1.34866902
     atom   11 type  2   force =     0.00000000    0.00000000   -1.34866902
     atom   12 type  2   force =     0.00000000    0.00000000   -1.34866903
     atom   13 type  1   force =    -0.00000001    0.00000000    1.34866901
     atom   14 type  1   force =     0.00000001   -0.00000000    1.34866905
     atom   15 type  2   force =    -0.00000001    0.00000000   -1.34866903
     atom   16 type  2   force =     0.00000001   -0.00000000   -1.34866903
     atom   17 type  1   force =    -0.00000001    0.00000000    1.34866905
     atom   18 type  1   force =     0.00000001   -0.00000000    1.34866901
     atom   19 type  2   force =    -0.00000001    0.00000000   -1.34866903
     atom   20 type  2   force =     0.00000001   -0.00000000   -1.34866901
     atom   21 type  1   force =    -0.00000001    0.00000000    1.34866901
     atom   22 type  1   force =     0.00000001   -0.00000000    1.34866901
     atom   23 type  2   force =    -0.00000001    0.00000000   -1.34866901
     atom   24 type  2   force =     0.00000001   -0.00000000   -1.34866903
     atom   25 type  1   force =    -0.00000001   -0.00000000    1.34866902
     atom   26 type  1   force =    -0.00000001   -0.00000000    1.34866905
     atom   27 type  2   force =    -0.00000000   -0.00000000   -1.34866903
     atom   28 type  2   force =    -0.00000000   -0.00000000   -1.34866904
     atom   29 type  1   force =    -0.00000001   -0.00000000    1.34866905
     atom   30 type  1   force =    -0.00000001   -0.00000000    1.34866902
     atom   31 type  2   force =    -0.00000000   -0.00000000   -1.34866903
     atom   32 type  2   force =    -0.00000000   -0.00000000   -1.34866902
     atom   33 type  1   force =    -0.00000001   -0.00000000    1.34866901
     atom   34 type  1   force =    -0.00000001   -0.00000000    1.34866902
     atom   35 type  2   force =    -0.00000000   -0.00000000   -1.34866902
     atom   36 type  2   force =    -0.00000000   -0.00000000   -1.34866903
     The local contribution  to forces
     atom    1 type  1   force =    -0.00004614   -0.00002664   -1.52471253
     atom    2 type  1   force =     0.00004950    0.00002852   -1.52471723
     atom    3 type  2   force =     0.00021030    0.00012141    1.15355577
     atom    4 type  2   force =    -0.00020783   -0.00012000    1.15355372
     atom    5 type  1   force =    -0.00004317   -0.00002492   -1.52470754
     atom    6 type  1   force =     0.00005069    0.00002921   -1.52470999
     atom    7 type  2   force =     0.00021141    0.00012206    1.15354944
     atom    8 type  2   force =    -0.00020853   -0.00012041    1.15355478
     atom    9 type  1   force =    -0.00004405   -0.00002543   -1.52472093
     atom   10 type  1   force =     0.00005137    0.00002960   -1.52471526
     atom   11 type  2   force =     0.00021178    0.00012227    1.15355197
     atom   12 type  2   force =    -0.00020868   -0.00012049    1.15355041
     atom   13 type  1   force =    -0.00004963   -0.00002854   -1.52471223
     atom   14 type  1   force =     0.00004461    0.00002565   -1.52471880
     atom   15 type  2   force =     0.00020916    0.00012078    1.15355484
     atom   16 type  2   force =    -0.00021020   -0.00012139    1.15355330
     atom   17 type  1   force =    -0.00004996   -0.00002873   -1.52470796
     atom   18 type  1   force =     0.00004339    0.00002494   -1.52471015
     atom   19 type  2   force =     0.00020953    0.00012100    1.15355142
     atom   20 type  2   force =    -0.00021027   -0.00012143    1.15355421
     atom   21 type  1   force =    -0.00004914   -0.00002826   -1.52472344
     atom   22 type  1   force =     0.00004503    0.00002589   -1.52471335
     atom   23 type  2   force =     0.00020821    0.00012024    1.15355182
     atom   24 type  2   force =    -0.00021046   -0.00012154    1.15355158
     atom   25 type  1   force =    -0.00004515   -0.00002602   -1.52471310
     atom   26 type  1   force =     0.00004712    0.00002720   -1.52471803
     atom   27 type  2   force =     0.00020910    0.00012074    1.15355460
     atom   28 type  2   force =    -0.00021035   -0.00012144    1.15355455
     atom   29 type  1   force =    -0.00004757   -0.00002741   -1.52470873
     atom   30 type  1   force =     0.00004640    0.00002679   -1.52470877
     atom   31 type  2   force =     0.00021038    0.00012148    1.15355209
     atom   32 type  2   force =    -0.00021109   -0.00012187    1.15355420
     atom   33 type  1   force =    -0.00004925   -0.00002838   -1.52472076
     atom   34 type  1   force =     0.00004498    0.00002597   -1.52471304
     atom   35 type  2   force =     0.00020886    0.00012060    1.15355185
     atom   36 type  2   force =    -0.00021064   -0.00012161    1.15355111
     The core correction contribution to forces
     atom    1 type  1   force =    -0.00000976   -0.00000571   -0.00968760
     atom    2 type  1   force =     0.00000977    0.00000560   -0.00968658
     atom    3 type  2   force =     0.00000252    0.00000146   -0.00195611
     atom    4 type  2   force =    -0.00000256   -0.00000148   -0.00195674
     atom    5 type  1   force =    -0.00000978   -0.00000572   -0.00968770
     atom    6 type  1   force =     0.00000976    0.00000560   -0.00968661
     atom    7 type  2   force =     0.00000252    0.00000146   -0.00195616
     atom    8 type  2   force =    -0.00000255   -0.00000148   -0.00195678
     atom    9 type  1   force =    -0.00000978   -0.00000572   -0.00968751
     atom   10 type  1   force =     0.00000978    0.00000561   -0.00968661
     atom   11 type  2   force =     0.00000254    0.00000147   -0.00195607
     atom   12 type  2   force =    -0.00000257   -0.00000149   -0.00195673
     atom   13 type  1   force =    -0.00000961   -0.00000568   -0.00968759
     atom   14 type  1   force =     0.00000965    0.00000570   -0.00968658
     atom   15 type  2   force =     0.00000258    0.00000152   -0.00195612
     atom   16 type  2   force =    -0.00000255   -0.00000150   -0.00195673
     atom   17 type  1   force =    -0.00000962   -0.00000568   -0.00968770
     atom   18 type  1   force =     0.00000968    0.00000572   -0.00968670
     atom   19 type  2   force =     0.00000259    0.00000152   -0.00195614
     atom   20 type  2   force =    -0.00000257   -0.00000151   -0.00195679
     atom   21 type  1   force =    -0.00000963   -0.00000569   -0.00968755
     atom   22 type  1   force =     0.00000966    0.00000571   -0.00968662
     atom   23 type  2   force =     0.00000256    0.00000151   -0.00195606
     atom   24 type  2   force =    -0.00000258   -0.00000151   -0.00195669
     atom   25 type  1   force =    -0.00000985   -0.00000566   -0.00968757
     atom   26 type  1   force =     0.00000980    0.00000573   -0.00968653
     atom   27 type  2   force =     0.00000254    0.00000147   -0.00195615
     atom   28 type  2   force =    -0.00000253   -0.00000147   -0.00195672
     atom   29 type  1   force =    -0.00000982   -0.00000564   -0.00968767
     atom   30 type  1   force =     0.00000978    0.00000572   -0.00968667
     atom   31 type  2   force =     0.00000257    0.00000148   -0.00195615
     atom   32 type  2   force =    -0.00000253   -0.00000147   -0.00195678
     atom   33 type  1   force =    -0.00000985   -0.00000565   -0.00968751
     atom   34 type  1   force =     0.00000980    0.00000573   -0.00968659
     atom   35 type  2   force =     0.00000255    0.00000148   -0.00195609
     atom   36 type  2   force =    -0.00000252   -0.00000146   -0.00195672
     The Hubbard contrib.    to forces
     atom    1 type  1   force =     0.00000000    0.00000000    0.00000000
     atom    2 type  1   force =     0.00000000    0.00000000    0.00000000
     atom    3 type  2   force =     0.00000000    0.00000000    0.00000000
     atom    4 type  2   force =     0.00000000    0.00000000    0.00000000
     atom    5 type  1   force =     0.00000000    0.00000000    0.00000000
     atom    6 type  1   force =     0.00000000    0.00000000    0.00000000
     atom    7 type  2   force =     0.00000000    0.00000000    0.00000000
     atom    8 type  2   force =     0.00000000    0.00000000    0.00000000
     atom    9 type  1   force =     0.00000000    0.00000000    0.00000000
     atom   10 type  1   force =     0.00000000    0.00000000    0.00000000
     atom   11 type  2   force =     0.00000000    0.00000000    0.00000000
     atom   12 type  2   force =     0.00000000    0.00000000    0.00000000
     atom   13 type  1   force =     0.00000000    0.00000000    0.00000000
     atom   14 type  1   force =     0.00000000    0.00000000    0.00000000
     atom   15 type  2   force =     0.00000000    0.00000000    0.00000000
     atom   16 type  2   force =     0.00000000    0.00000000    0.00000000
     atom   17 type  1   force =     0.00000000    0.00000000    0.00000000
     atom   18 type  1   force =     0.00000000    0.00000000    0.00000000
     atom   19 type  2   force =     0.00000000    0.00000000    0.00000000
     atom   20 type  2   force =     0.00000000    0.00000000    0.00000000
     atom   21 type  1   force =     0.00000000    0.00000000    0.00000000
     atom   22 type  1   force =     0.00000000    0.00000000    0.00000000
     atom   23 type  2   force =     0.00000000    0.00000000    0.00000000
     atom   24 type  2   force =     0.00000000    0.00000000    0.00000000
     atom   25 type  1   force =     0.00000000    0.00000000    0.00000000
     atom   26 type  1   force =     0.00000000    0.00000000    0.00000000
     atom   27 type  2   force =     0.00000000    0.00000000    0.00000000
     atom   28 type  2   force =     0.00000000    0.00000000    0.00000000
     atom   29 type  1   force =     0.00000000    0.00000000    0.00000000
     atom   30 type  1   force =     0.00000000    0.00000000    0.00000000
     atom   31 type  2   force =     0.00000000    0.00000000    0.00000000
     atom   32 type  2   force =     0.00000000    0.00000000    0.00000000
     atom   33 type  1   force =     0.00000000    0.00000000    0.00000000
     atom   34 type  1   force =     0.00000000    0.00000000    0.00000000
     atom   35 type  2   force =     0.00000000    0.00000000    0.00000000
     atom   36 type  2   force =     0.00000000    0.00000000    0.00000000
     The SCF correction term to forces
     atom    1 type  1   force =     0.00000753    0.00000435    0.00000171
     atom    2 type  1   force =    -0.00001004   -0.00000579    0.00000849
     atom    3 type  2   force =     0.00000057    0.00000033   -0.00000129
     atom    4 type  2   force =    -0.00000495   -0.00000286    0.00000030
     atom    5 type  1   force =     0.00000157    0.00000090   -0.00000216
     atom    6 type  1   force =    -0.00001170   -0.00000676    0.00000238
     atom    7 type  2   force =    -0.00000099   -0.00000057    0.00000383
     atom    8 type  2   force =    -0.00000368   -0.00000213   -0.00000036
     atom    9 type  1   force =     0.00000316    0.00000183    0.00001101
     atom   10 type  1   force =    -0.00001298   -0.00000750    0.00001104
     atom   11 type  2   force =    -0.00000024   -0.00000014    0.00000359
     atom   12 type  2   force =    -0.00000405   -0.00000234    0.00000576
     atom   13 type  1   force =     0.00000916    0.00000529    0.00000039
     atom   14 type  1   force =    -0.00000289   -0.00000167    0.00000993
     atom   15 type  2   force =     0.00000392    0.00000227   -0.00000167
     atom   16 type  2   force =    -0.00000037   -0.00000021    0.00000110
     atom   17 type  1   force =     0.00001117    0.00000645   -0.00000088
     atom   18 type  1   force =    -0.00000059   -0.00000034    0.00000291
     atom   19 type  2   force =     0.00000375    0.00000217    0.00000237
     atom   20 type  2   force =    -0.00000134   -0.00000077   -0.00000082
     atom   21 type  1   force =     0.00001055    0.00000609    0.00001630
     atom   22 type  1   force =    -0.00000382   -0.00000221    0.00000658
     atom   23 type  2   force =     0.00000400    0.00000231    0.00000420
     atom   24 type  2   force =    -0.00000156   -0.00000090    0.00000598
     atom   25 type  1   force =     0.00000443    0.00000256    0.00000218
     atom   26 type  1   force =    -0.00000855   -0.00000494    0.00000910
     atom   27 type  2   force =     0.00000223    0.00000129   -0.00000141
     atom   28 type  2   force =    -0.00000142   -0.00000082    0.00000023
     atom   29 type  1   force =     0.00000834    0.00000482    0.00000104
     atom   30 type  1   force =    -0.00000632   -0.00000365    0.00000135
     atom   31 type  2   force =     0.00000168    0.00000097    0.00000183
     atom   32 type  2   force =    -0.00000027   -0.00000016   -0.00000074
     atom   33 type  1   force =     0.00001146    0.00000662    0.00001252
     atom   34 type  1   force =    -0.00000484   -0.00000280    0.00000578
     atom   35 type  2   force =     0.00000277    0.00000160    0.00000312
     atom   36 type  2   force =    -0.00000013   -0.00000007    0.00000505

     Total force =     0.068787     Total SCF correction =     0.000054

     General routines

     Parallel routines

   This run was terminated on:  16: 6:17   3Sep2025

   JOB DONE.
Note: The following floating-point exceptions are signalling: IEEE_DENORMAL
Note: The following floating-point exceptions are signalling: IEEE_DENORMAL
Note: The following floating-point exceptions are signalling: IEEE_DENORMAL
Note: The following floating-point exceptions are signalling: IEEE_INVALID_FLAG
Note: The following floating-point exceptions are signalling: IEEE_DENORMAL
Note: The following floating-point exceptions are signalling: IEEE_INVALID_FLAG
Note: The following floating-point exceptions are signalling: IEEE_DENORMAL
Note: The following floating-point exceptions are signalling: IEEE_DENORMAL
Note: The following floating-point exceptions are signalling: IEEE_INVALID_FLAG
Note: The following floating-point exceptions are signalling: IEEE_DENORMAL
Note: The following floating-point exceptions are signalling: IEEE_INVALID_FLAG
Note: The following floating-point exceptions are signalling: IEEE_INVALID_FLAG
Note: The following floating-point exceptions are signalling: IEEE_DENORMAL
Note: The following floating-point exceptions are signalling: IEEE_DENORMAL
Note: The following floating-point exceptions are signalling: IEEE_INVALID_FLAG
Note: The following floating-point exceptions are signalling: IEEE_DENORMAL
Note: The following floating-point exceptions are signalling: IEEE_INVALID_FLAG
Note: The following floating-point exceptions are signalling: IEEE_DENORMAL
Note: The following floating-point exceptions are signalling: IEEE_DENORMAL
Note: The following floating-point exceptions are signalling: IEEE_INVALID_FLAG
Note: The following floating-point exceptions are signalling: IEEE_INVALID_FLAG
Note: The following floating-point exceptions are signalling: IEEE_DENORMAL
Note: The following floating-point exceptions are signalling: IEEE_INVALID_FLAG
Note: The following floating-point exceptions are signalling: IEEE_INVALID_FLAG
Note: The following floating-point exceptions are signalling: IEEE_DENORMAL
Note: The following floating-point exceptions are signalling: IEEE_INVALID_FLAG
Note: The following floating-point exceptions are signalling: IEEE_INVALID_FLAG
Note: The following floating-point exceptions are signalling: IEEE_DENORMAL
Note: The following floating-point exceptions are signalling: IEEE_INVALID_FLAG
Note: The following floating-point exceptions are signalling: IEEE_INVALID_FLAG
Note: The following floating-point exceptions are signalling: IEEE_INVALID_FLAG
Note: The following floating-point exceptions are signalling: IEEE_DENORMAL