     Program PWSCF v.7.2 starts on  3Sep2025 at 23:26:36

     Reading input from /home/jvc/QEspresso7.2/ZnO_database/scripts/cell313.in/ZnO-3.60-1.61-313.in
Warning: card &CELL ignored
Warning: card / ignored
Warning: card &FCP ignored
Warning: card / ignored
Warning: card &RISM ignored
Warning: card / ignored

     Current dimensions of program PWSCF are:
     Max number of different atomic species (ntypx) = 10
     Max number of k-points (npk) =  40000
     Max angular momentum in pseudopotentials (lmaxx) =  4
     file Zn.upf: wavefunction(s)  3D renormalized
     Found identity + (  0.0000  0.0000  0.3333) symmetry
     This is a supercell, fractional translations are disabled
     Message from routine setup:
     using ibrav=0 with symmetry is DISCOURAGED, use correct ibrav instead

     K-points division:     npool     =      16
     R & G space division:  proc/nbgrp/npool/nimage =       4
     Subspace diagonalization in iterative solution of the eigenvalue problem:
     one sub-group per band group will be used

     Using Slab Decomposition

     bravais-lattice index     =            0
     lattice parameter (alat)  =      20.3902  a.u.
     unit-cell volume          =    3950.7081 (a.u.)^3
     number of atoms/cell      =           36
     number of atomic types    =            2
     number of electrons       =       324.00
     number of Kohn-Sham states=          162
     kinetic-energy cutoff     =      50.0000  Ry
     charge density cutoff     =     400.0000  Ry
     scf convergence threshold =      1.0E-08
     mixing beta               =       0.3000
     number of iterations used =            8  plain     mixing
     Exchange-correlation= PBE
                           (   1   4   3   4   0   0   0)

     celldm(1)=  20.390218  celldm(2)=   0.000000  celldm(3)=   0.000000
     celldm(4)=   0.000000  celldm(5)=   0.000000  celldm(6)=   0.000000

     crystal axes: (cart. coord. in units of alat)
               a(1) = (   1.000000   0.000000   0.000000 )
               a(2) = (  -0.166667   0.288675   0.000000 )
               a(3) = (   0.000000   0.000000   1.614358 )

     reciprocal axes: (cart. coord. in units 2 pi/alat)
               b(1) = (  1.000000  0.577350 -0.000000 )
               b(2) = (  0.000000  3.464102  0.000000 )
               b(3) = (  0.000000 -0.000000  0.619441 )

     PseudoPot. # 1 for Zn read from file:
     /home/jvc/QEspresso7.2/ZnO_database/pseudos/Zn.upf
     MD5 check sum: 7f56cabf9682ed8c977c2f7d0c5985c5
     Pseudo is Ultrasoft + core correction, Zval = 12.0
     Generated using &quot;atomic&quot; code by A. Dal Corso  v.6.2.2
     Using radial grid of 1201 points,  6 beta functions with:
                l(1) =   0
                l(2) =   0
                l(3) =   1
                l(4) =   1
                l(5) =   2
                l(6) =   2
     Q(r) pseudized with 0 coefficients

     PseudoPot. # 2 for O  read from file:
     /home/jvc/QEspresso7.2/ZnO_database/pseudos/O.upf
     MD5 check sum: 91400c9766925bcf19f520983a725ff0
     Pseudo is Ultrasoft + core correction, Zval =  6.0
     Generated using &quot;atomic&quot; code by A. Dal Corso  v.6.3MaX
     Using radial grid of 1095 points,  4 beta functions with:
                l(1) =   0
                l(2) =   0
                l(3) =   1
                l(4) =   1
     Q(r) pseudized with 0 coefficients

     atomic species   valence    mass     pseudopotential
        Zn            12.00    65.38000     Zn( 1.00)
        O              6.00    15.99900     O ( 1.00)

      2 Sym. Ops. (no inversion) found

                                    s                        frac. trans.

      isym =  1     identity

 cryst.   s( 1) = (     1          0          0      )
                  (     0          1          0      )
                  (     0          0          1      )

 cart.    s( 1) = (  1.0000000  0.0000000  0.0000000 )
                  (  0.0000000  1.0000000  0.0000000 )
                  (  0.0000000  0.0000000  1.0000000 )

      isym =  2     inv. 180 deg rotation - cryst. axis [0,1,0]

 cryst.   s( 2) = (     1          3          0      )
                  (     0         -1          0      )
                  (     0          0          1      )

 cart.    s( 2) = (  0.5000000  0.8660254  0.0000000 )
                  (  0.8660254 -0.5000000  0.0000000 )
                  (  0.0000000  0.0000000  1.0000000 )

   Cartesian axes

     site n.     atom                  positions (alat units)
         1           Zn  tau(   1) = (   0.1666667   0.0962250   0.2694007  )
         2           Zn  tau(   2) = (  -0.0000000   0.1924501   0.0003409  )
         3           O   tau(   3) = (   0.1666667   0.0962250   0.4733710  )
         4           O   tau(   4) = (  -0.0000000   0.1924501   0.2043113  )
         5           Zn  tau(   5) = (   0.1666667   0.0962250   0.8075201  )
         6           Zn  tau(   6) = (  -0.0000000   0.1924501   0.5384604  )
         7           O   tau(   7) = (   0.1666667   0.0962250   1.0114904  )
         8           O   tau(   8) = (  -0.0000000   0.1924501   0.7424307  )
         9           Zn  tau(   9) = (   0.1666667   0.0962250   1.3456396  )
        10           Zn  tau(  10) = (  -0.0000000   0.1924501   1.0765798  )
        11           O   tau(  11) = (   0.1666667   0.0962250   1.5496099  )
        12           O   tau(  12) = (  -0.0000000   0.1924501   1.2805502  )
        13           Zn  tau(  13) = (   0.5000000   0.0962250   0.2694007  )
        14           Zn  tau(  14) = (   0.3333333   0.1924501   0.0003409  )
        15           O   tau(  15) = (   0.5000000   0.0962250   0.4733710  )
        16           O   tau(  16) = (   0.3333333   0.1924501   0.2043113  )
        17           Zn  tau(  17) = (   0.5000000   0.0962250   0.8075201  )
        18           Zn  tau(  18) = (   0.3333333   0.1924501   0.5384604  )
        19           O   tau(  19) = (   0.5000000   0.0962250   1.0114904  )
        20           O   tau(  20) = (   0.3333333   0.1924501   0.7424307  )
        21           Zn  tau(  21) = (   0.5000000   0.0962250   1.3456396  )
        22           Zn  tau(  22) = (   0.3333333   0.1924501   1.0765798  )
        23           O   tau(  23) = (   0.5000000   0.0962250   1.5496099  )
        24           O   tau(  24) = (   0.3333333   0.1924501   1.2805502  )
        25           Zn  tau(  25) = (   0.8333333   0.0962250   0.2694007  )
        26           Zn  tau(  26) = (   0.6666667   0.1924501   0.0003409  )
        27           O   tau(  27) = (   0.8333333   0.0962250   0.4733710  )
        28           O   tau(  28) = (   0.6666667   0.1924501   0.2043113  )
        29           Zn  tau(  29) = (   0.8333333   0.0962250   0.8075201  )
        30           Zn  tau(  30) = (   0.6666667   0.1924501   0.5384604  )
        31           O   tau(  31) = (   0.8333333   0.0962250   1.0114904  )
        32           O   tau(  32) = (   0.6666667   0.1924501   0.7424307  )
        33           Zn  tau(  33) = (   0.8333333   0.0962250   1.3456396  )
        34           Zn  tau(  34) = (   0.6666667   0.1924501   1.0765798  )
        35           O   tau(  35) = (   0.8333333   0.0962250   1.5496099  )
        36           O   tau(  36) = (   0.6666667   0.1924501   1.2805502  )

   Crystallographic axes

     site n.     atom                  positions (cryst. coord.)
         1           Zn  tau(   1) = (  0.2222222  0.3333333  0.1668779  )
         2           Zn  tau(   2) = (  0.1111111  0.6666667  0.0002112  )
         3           O   tau(   3) = (  0.2222222  0.3333333  0.2932255  )
         4           O   tau(   4) = (  0.1111111  0.6666667  0.1265588  )
         5           Zn  tau(   5) = (  0.2222222  0.3333333  0.5002112  )
         6           Zn  tau(   6) = (  0.1111111  0.6666667  0.3335445  )
         7           O   tau(   7) = (  0.2222222  0.3333333  0.6265588  )
         8           O   tau(   8) = (  0.1111111  0.6666667  0.4598921  )
         9           Zn  tau(   9) = (  0.2222222  0.3333333  0.8335445  )
        10           Zn  tau(  10) = (  0.1111111  0.6666667  0.6668779  )
        11           O   tau(  11) = (  0.2222222  0.3333333  0.9598921  )
        12           O   tau(  12) = (  0.1111111  0.6666667  0.7932255  )
        13           Zn  tau(  13) = (  0.5555556  0.3333333  0.1668779  )
        14           Zn  tau(  14) = (  0.4444444  0.6666667  0.0002112  )
        15           O   tau(  15) = (  0.5555556  0.3333333  0.2932255  )
        16           O   tau(  16) = (  0.4444444  0.6666667  0.1265588  )
        17           Zn  tau(  17) = (  0.5555556  0.3333333  0.5002112  )
        18           Zn  tau(  18) = (  0.4444444  0.6666667  0.3335445  )
        19           O   tau(  19) = (  0.5555556  0.3333333  0.6265588  )
        20           O   tau(  20) = (  0.4444444  0.6666667  0.4598921  )
        21           Zn  tau(  21) = (  0.5555556  0.3333333  0.8335445  )
        22           Zn  tau(  22) = (  0.4444444  0.6666667  0.6668779  )
        23           O   tau(  23) = (  0.5555556  0.3333333  0.9598921  )
        24           O   tau(  24) = (  0.4444444  0.6666667  0.7932255  )
        25           Zn  tau(  25) = (  0.8888889  0.3333333  0.1668779  )
        26           Zn  tau(  26) = (  0.7777778  0.6666667  0.0002112  )
        27           O   tau(  27) = (  0.8888889  0.3333333  0.2932255  )
        28           O   tau(  28) = (  0.7777778  0.6666667  0.1265588  )
        29           Zn  tau(  29) = (  0.8888889  0.3333333  0.5002112  )
        30           Zn  tau(  30) = (  0.7777778  0.6666667  0.3335445  )
        31           O   tau(  31) = (  0.8888889  0.3333333  0.6265588  )
        32           O   tau(  32) = (  0.7777778  0.6666667  0.4598921  )
        33           Zn  tau(  33) = (  0.8888889  0.3333333  0.8335445  )
        34           Zn  tau(  34) = (  0.7777778  0.6666667  0.6668779  )
        35           O   tau(  35) = (  0.8888889  0.3333333  0.9598921  )
        36           O   tau(  36) = (  0.7777778  0.6666667  0.7932255  )

     number of k points=    68
                       cart. coord. in units 2pi/alat
        k(    1) = (   0.0000000   0.0000000   0.0000000), wk =   0.0092593
        k(    2) = (   0.0000000   0.0000000   0.1032402), wk =   0.0185185
        k(    3) = (   0.0000000   0.0000000   0.2064804), wk =   0.0185185
        k(    4) = (   0.0000000   0.0000000  -0.3097206), wk =   0.0092593
        k(    5) = (   0.0000000   0.5773503   0.0000000), wk =   0.0370370
        k(    6) = (   0.0000000   0.5773503   0.1032402), wk =   0.0370370
        k(    7) = (   0.0000000   0.5773503   0.2064804), wk =   0.0370370
        k(    8) = (   0.0000000   0.5773503  -0.3097206), wk =   0.0370370
        k(    9) = (   0.0000000   1.1547005   0.0000000), wk =   0.0185185
        k(   10) = (   0.0000000   1.1547005   0.1032402), wk =   0.0370370
        k(   11) = (   0.0000000   1.1547005   0.2064804), wk =   0.0370370
        k(   12) = (   0.0000000   1.1547005  -0.3097206), wk =   0.0185185
        k(   13) = (   0.0000000  -1.7320508   0.0000000), wk =   0.0185185
[...]
     atom   36 type  2   force =     0.00022303    0.00012877    0.00632283
     The ionic contribution  to forces
     atom    1 type  1   force =     0.00000001    0.00000000    0.05183207
     atom    2 type  1   force =     0.00000001    0.00000000    0.05183211
     atom    3 type  2   force =     0.00000000    0.00000000   -0.05183209
     atom    4 type  2   force =     0.00000000    0.00000000   -0.05183209
     atom    5 type  1   force =     0.00000001    0.00000000    0.05183211
     atom    6 type  1   force =     0.00000001    0.00000000    0.05183207
     atom    7 type  2   force =     0.00000000    0.00000000   -0.05183209
     atom    8 type  2   force =     0.00000000    0.00000000   -0.05183207
     atom    9 type  1   force =     0.00000001    0.00000000    0.05183207
     atom   10 type  1   force =     0.00000001    0.00000000    0.05183207
     atom   11 type  2   force =     0.00000000    0.00000000   -0.05183207
     atom   12 type  2   force =     0.00000000    0.00000000   -0.05183208
     atom   13 type  1   force =    -0.00000001    0.00000000    0.05183207
     atom   14 type  1   force =     0.00000001   -0.00000000    0.05183210
     atom   15 type  2   force =    -0.00000001    0.00000000   -0.05183208
     atom   16 type  2   force =     0.00000001   -0.00000000   -0.05183209
     atom   17 type  1   force =    -0.00000001    0.00000000    0.05183210
     atom   18 type  1   force =     0.00000001   -0.00000000    0.05183207
     atom   19 type  2   force =    -0.00000001    0.00000000   -0.05183209
     atom   20 type  2   force =     0.00000001   -0.00000000   -0.05183207
     atom   21 type  1   force =    -0.00000001    0.00000000    0.05183207
     atom   22 type  1   force =     0.00000001   -0.00000000    0.05183207
     atom   23 type  2   force =    -0.00000001    0.00000000   -0.05183207
     atom   24 type  2   force =     0.00000001   -0.00000000   -0.05183208
     atom   25 type  1   force =    -0.00000001   -0.00000000    0.05183207
     atom   26 type  1   force =    -0.00000001   -0.00000000    0.05183211
     atom   27 type  2   force =    -0.00000000   -0.00000000   -0.05183208
     atom   28 type  2   force =    -0.00000000   -0.00000000   -0.05183209
     atom   29 type  1   force =    -0.00000001   -0.00000000    0.05183211
     atom   30 type  1   force =    -0.00000001   -0.00000000    0.05183207
     atom   31 type  2   force =    -0.00000000   -0.00000000   -0.05183209
     atom   32 type  2   force =    -0.00000000   -0.00000000   -0.05183207
     atom   33 type  1   force =    -0.00000001   -0.00000000    0.05183207
     atom   34 type  1   force =    -0.00000001   -0.00000000    0.05183207
     atom   35 type  2   force =    -0.00000000   -0.00000000   -0.05183207
     atom   36 type  2   force =    -0.00000000   -0.00000000   -0.05183209
     The local contribution  to forces
     atom    1 type  1   force =    -0.00003151   -0.00001819   -0.04757458
     atom    2 type  1   force =     0.00003096    0.00001782   -0.04756072
     atom    3 type  2   force =     0.00021105    0.00012185    0.04566498
     atom    4 type  2   force =    -0.00021020   -0.00012138    0.04566795
     atom    5 type  1   force =    -0.00002934   -0.00001694   -0.04757009
     atom    6 type  1   force =     0.00003672    0.00002114   -0.04759541
     atom    7 type  2   force =     0.00021078    0.00012169    0.04566923
     atom    8 type  2   force =    -0.00020874   -0.00012053    0.04566866
     atom    9 type  1   force =    -0.00003894   -0.00002248   -0.04755777
     atom   10 type  1   force =     0.00003736    0.00002152   -0.04756109
     atom   11 type  2   force =     0.00021009    0.00012130    0.04567451
     atom   12 type  2   force =    -0.00020947   -0.00012095    0.04567523
     atom   13 type  1   force =    -0.00003206   -0.00001840   -0.04757329
     atom   14 type  1   force =     0.00003532    0.00002028   -0.04755591
     atom   15 type  2   force =     0.00021008    0.00012132    0.04566353
     atom   16 type  2   force =    -0.00020724   -0.00011968    0.04566852
     atom   17 type  1   force =    -0.00002693   -0.00001544   -0.04757444
     atom   18 type  1   force =     0.00003802    0.00002184   -0.04759459
     atom   19 type  2   force =     0.00021003    0.00012129    0.04567144
     atom   20 type  2   force =    -0.00020987   -0.00012119    0.04566767
     atom   21 type  1   force =    -0.00003088   -0.00001772   -0.04755952
     atom   22 type  1   force =     0.00003534    0.00002029   -0.04756913
     atom   23 type  2   force =     0.00020971    0.00012110    0.04567544
     atom   24 type  2   force =    -0.00020798   -0.00012011    0.04567480
     atom   25 type  1   force =    -0.00003844   -0.00002214   -0.04758162
     atom   26 type  1   force =     0.00003627    0.00002094   -0.04755618
     atom   27 type  2   force =     0.00020832    0.00012029    0.04566366
     atom   28 type  2   force =    -0.00021261   -0.00012275    0.04566882
     atom   29 type  1   force =    -0.00004675   -0.00002694   -0.04757646
     atom   30 type  1   force =     0.00002761    0.00001594   -0.04758572
     atom   31 type  2   force =     0.00020803    0.00012012    0.04566811
     atom   32 type  2   force =    -0.00021049   -0.00012153    0.04566867
     atom   33 type  1   force =    -0.00003278   -0.00001887   -0.04755417
     atom   34 type  1   force =     0.00002974    0.00001717   -0.04756812
     atom   35 type  2   force =     0.00020896    0.00012066    0.04567509
     atom   36 type  2   force =    -0.00021189   -0.00012234    0.04567488
     The core correction contribution to forces
     atom    1 type  1   force =    -0.00000732   -0.00000422    0.00025282
     atom    2 type  1   force =     0.00000735    0.00000424    0.00025270
     atom    3 type  2   force =     0.00000245    0.00000141   -0.00007056
     atom    4 type  2   force =    -0.00000249   -0.00000144   -0.00007063
     atom    5 type  1   force =    -0.00000744   -0.00000429    0.00025253
     atom    6 type  1   force =     0.00000729    0.00000420    0.00025300
     atom    7 type  2   force =     0.00000247    0.00000142   -0.00007072
     atom    8 type  2   force =    -0.00000246   -0.00000142   -0.00007060
     atom    9 type  1   force =    -0.00000724   -0.00000418    0.00025261
     atom   10 type  1   force =     0.00000728    0.00000420    0.00025258
     atom   11 type  2   force =     0.00000251    0.00000145   -0.00007067
     atom   12 type  2   force =    -0.00000247   -0.00000143   -0.00007069
     atom   13 type  1   force =    -0.00000731   -0.00000421    0.00025273
     atom   14 type  1   force =     0.00000735    0.00000423    0.00025263
     atom   15 type  2   force =     0.00000250    0.00000145   -0.00007059
     atom   16 type  2   force =    -0.00000248   -0.00000143   -0.00007067
     atom   17 type  1   force =    -0.00000739   -0.00000425    0.00025259
     atom   18 type  1   force =     0.00000724    0.00000417    0.00025290
     atom   19 type  2   force =     0.00000250    0.00000145   -0.00007064
     atom   20 type  2   force =    -0.00000255   -0.00000147   -0.00007060
     atom   21 type  1   force =    -0.00000736   -0.00000423    0.00025261
     atom   22 type  1   force =     0.00000726    0.00000418    0.00025274
     atom   23 type  2   force =     0.00000247    0.00000142   -0.00007070
     atom   24 type  2   force =    -0.00000244   -0.00000141   -0.00007064
     atom   25 type  1   force =    -0.00000728   -0.00000420    0.00025285
     atom   26 type  1   force =     0.00000723    0.00000417    0.00025266
     atom   27 type  2   force =     0.00000251    0.00000145   -0.00007061
     atom   28 type  2   force =    -0.00000250   -0.00000144   -0.00007062
     atom   29 type  1   force =    -0.00000710   -0.00000409    0.00025270
     atom   30 type  1   force =     0.00000739    0.00000427    0.00025275
     atom   31 type  2   force =     0.00000249    0.00000144   -0.00007068
     atom   32 type  2   force =    -0.00000246   -0.00000142   -0.00007060
     atom   33 type  1   force =    -0.00000733   -0.00000423    0.00025258
     atom   34 type  1   force =     0.00000738    0.00000426    0.00025259
     atom   35 type  2   force =     0.00000247    0.00000143   -0.00007068
     atom   36 type  2   force =    -0.00000253   -0.00000146   -0.00007071
     The Hubbard contrib.    to forces
     atom    1 type  1   force =     0.00000000    0.00000000    0.00000000
     atom    2 type  1   force =     0.00000000    0.00000000    0.00000000
     atom    3 type  2   force =     0.00000000    0.00000000    0.00000000
     atom    4 type  2   force =     0.00000000    0.00000000    0.00000000
     atom    5 type  1   force =     0.00000000    0.00000000    0.00000000
     atom    6 type  1   force =     0.00000000    0.00000000    0.00000000
     atom    7 type  2   force =     0.00000000    0.00000000    0.00000000
     atom    8 type  2   force =     0.00000000    0.00000000    0.00000000
     atom    9 type  1   force =     0.00000000    0.00000000    0.00000000
     atom   10 type  1   force =     0.00000000    0.00000000    0.00000000
     atom   11 type  2   force =     0.00000000    0.00000000    0.00000000
     atom   12 type  2   force =     0.00000000    0.00000000    0.00000000
     atom   13 type  1   force =     0.00000000    0.00000000    0.00000000
     atom   14 type  1   force =     0.00000000    0.00000000    0.00000000
     atom   15 type  2   force =     0.00000000    0.00000000    0.00000000
     atom   16 type  2   force =     0.00000000    0.00000000    0.00000000
     atom   17 type  1   force =     0.00000000    0.00000000    0.00000000
     atom   18 type  1   force =     0.00000000    0.00000000    0.00000000
     atom   19 type  2   force =     0.00000000    0.00000000    0.00000000
     atom   20 type  2   force =     0.00000000    0.00000000    0.00000000
     atom   21 type  1   force =     0.00000000    0.00000000    0.00000000
     atom   22 type  1   force =     0.00000000    0.00000000    0.00000000
     atom   23 type  2   force =     0.00000000    0.00000000    0.00000000
     atom   24 type  2   force =     0.00000000    0.00000000    0.00000000
     atom   25 type  1   force =     0.00000000    0.00000000    0.00000000
     atom   26 type  1   force =     0.00000000    0.00000000    0.00000000
     atom   27 type  2   force =     0.00000000    0.00000000    0.00000000
     atom   28 type  2   force =     0.00000000    0.00000000    0.00000000
     atom   29 type  1   force =     0.00000000    0.00000000    0.00000000
     atom   30 type  1   force =     0.00000000    0.00000000    0.00000000
     atom   31 type  2   force =     0.00000000    0.00000000    0.00000000
     atom   32 type  2   force =     0.00000000    0.00000000    0.00000000
     atom   33 type  1   force =     0.00000000    0.00000000    0.00000000
     atom   34 type  1   force =     0.00000000    0.00000000    0.00000000
     atom   35 type  2   force =     0.00000000    0.00000000    0.00000000
     atom   36 type  2   force =     0.00000000    0.00000000    0.00000000
     The SCF correction term to forces
     atom    1 type  1   force =    -0.00000585   -0.00000338    0.00001134
     atom    2 type  1   force =     0.00000528    0.00000305   -0.00000850
     atom    3 type  2   force =    -0.00000429   -0.00000248    0.00001020
     atom    4 type  2   force =     0.00000130    0.00000075    0.00000278
     atom    5 type  1   force =    -0.00000826   -0.00000477    0.00000287
     atom    6 type  1   force =    -0.00000157   -0.00000090    0.00003517
     atom    7 type  2   force =    -0.00000283   -0.00000164   -0.00000349
     atom    8 type  2   force =     0.00000111    0.00000064    0.00000405
     atom    9 type  1   force =     0.00000326    0.00000188   -0.00001210
     atom   10 type  1   force =    -0.00000109   -0.00000063   -0.00000649
     atom   11 type  2   force =     0.00000037    0.00000021   -0.00000704
     atom   12 type  2   force =     0.00000108    0.00000063   -0.00000868
     atom   13 type  1   force =    -0.00000567   -0.00000327    0.00000947
     atom   14 type  1   force =     0.00000025    0.00000014   -0.00001413
     atom   15 type  2   force =    -0.00000017   -0.00000010    0.00001039
     atom   16 type  2   force =    -0.00000213   -0.00000123    0.00000021
     atom   17 type  1   force =    -0.00001019   -0.00000588    0.00000810
     atom   18 type  1   force =    -0.00000216   -0.00000125    0.00003345
     atom   19 type  2   force =    -0.00000030   -0.00000017   -0.00000142
     atom   20 type  2   force =    -0.00000237   -0.00000137    0.00000512
     atom   21 type  1   force =    -0.00000630   -0.00000364   -0.00001013
     atom   22 type  1   force =    -0.00000113   -0.00000065    0.00000100
     atom   23 type  2   force =    -0.00000154   -0.00000089   -0.00000988
     atom   24 type  2   force =     0.00000055    0.00000032   -0.00000537
     atom   25 type  1   force =     0.00000410    0.00000237    0.00001876
     atom   26 type  1   force =     0.00000016    0.00000009   -0.00001484
     atom   27 type  2   force =     0.00000224    0.00000129    0.00000911
     atom   28 type  2   force =     0.00000374    0.00000216    0.00000260
     atom   29 type  1   force =     0.00001411    0.00000815    0.00000958
     atom   30 type  1   force =     0.00000914    0.00000528    0.00002438
     atom   31 type  2   force =     0.00000168    0.00000097    0.00000068
     atom   32 type  2   force =     0.00000291    0.00000168    0.00000400
     atom   33 type  1   force =    -0.00000194   -0.00000112   -0.00001687
     atom   34 type  1   force =     0.00000798    0.00000461    0.00000113
     atom   35 type  2   force =    -0.00000044   -0.00000025   -0.00000808
     atom   36 type  2   force =     0.00000078    0.00000045   -0.00000903

     Total force =     0.000512     Total SCF correction =     0.000081
     SCF correction compared to forces is large: reduce conv_thr to get better values

     General routines

     Parallel routines

   This run was terminated on:   0:30:27   4Sep2025

   JOB DONE.
Note: The following floating-point exceptions are signalling: IEEE_DENORMAL
Note: The following floating-point exceptions are signalling: IEEE_INVALID_FLAG
Note: The following floating-point exceptions are signalling: IEEE_INVALID_FLAG
Note: The following floating-point exceptions are signalling: IEEE_INVALID_FLAG
Note: The following floating-point exceptions are signalling: IEEE_DENORMAL
Note: The following floating-point exceptions are signalling: IEEE_DENORMAL
Note: The following floating-point exceptions are signalling: IEEE_INVALID_FLAG
Note: The following floating-point exceptions are signalling: IEEE_DENORMAL
Note: The following floating-point exceptions are signalling: IEEE_DENORMAL
Note: The following floating-point exceptions are signalling: IEEE_DENORMAL
Note: The following floating-point exceptions are signalling: IEEE_DENORMAL
Note: The following floating-point exceptions are signalling: IEEE_INVALID_FLAG
Note: The following floating-point exceptions are signalling: IEEE_DENORMAL
Note: The following floating-point exceptions are signalling: IEEE_DENORMAL
Note: The following floating-point exceptions are signalling: IEEE_DENORMAL
Note: The following floating-point exceptions are signalling: IEEE_INVALID_FLAG
Note: The following floating-point exceptions are signalling: IEEE_INVALID_FLAG
Note: The following floating-point exceptions are signalling: IEEE_DENORMAL
Note: The following floating-point exceptions are signalling: IEEE_INVALID_FLAG
Note: The following floating-point exceptions are signalling: IEEE_INVALID_FLAG
Note: The following floating-point exceptions are signalling: IEEE_DENORMAL
Note: The following floating-point exceptions are signalling: IEEE_DENORMAL
Note: The following floating-point exceptions are signalling: IEEE_INVALID_FLAG
Note: The following floating-point exceptions are signalling: IEEE_DENORMAL
Note: The following floating-point exceptions are signalling: IEEE_INVALID_FLAG
Note: The following floating-point exceptions are signalling: IEEE_INVALID_FLAG
Note: The following floating-point exceptions are signalling: IEEE_INVALID_FLAG
Note: The following floating-point exceptions are signalling: IEEE_DENORMAL
Note: The following floating-point exceptions are signalling: IEEE_DENORMAL
Note: The following floating-point exceptions are signalling: IEEE_INVALID_FLAG
Note: The following floating-point exceptions are signalling: IEEE_INVALID_FLAG
Note: The following floating-point exceptions are signalling: IEEE_INVALID_FLAG