     Program PWSCF v.7.2 starts on 31Aug2025 at 19:31:39

     Reading input from /home/jvc/QEspresso7.2/ZnO_database/scripts/cell313.in/ZnO-3.20-1.45-313.in
Warning: card &CELL ignored
Warning: card / ignored
Warning: card &FCP ignored
Warning: card / ignored
Warning: card &RISM ignored
Warning: card / ignored

     Current dimensions of program PWSCF are:
     Max number of different atomic species (ntypx) = 10
     Max number of k-points (npk) =  40000
     Max angular momentum in pseudopotentials (lmaxx) =  4
     file Zn.upf: wavefunction(s)  3D renormalized
     Found identity + (  0.0000  0.0000  0.3333) symmetry
     This is a supercell, fractional translations are disabled
     Message from routine setup:
     using ibrav=0 with symmetry is DISCOURAGED, use correct ibrav instead

     K-points division:     npool     =       4
     R & G space division:  proc/nbgrp/npool/nimage =       8
     Subspace diagonalization in iterative solution of the eigenvalue problem:
     one sub-group per band group will be used

     Using Slab Decomposition

     bravais-lattice index     =            0
     lattice parameter (alat)  =      18.1658  a.u.
     unit-cell volume          =    2514.3030 (a.u.)^3
     number of atoms/cell      =           36
     number of atomic types    =            2
     number of electrons       =       324.00
     number of Kohn-Sham states=          162
     kinetic-energy cutoff     =      50.0000  Ry
     charge density cutoff     =     400.0000  Ry
     scf convergence threshold =      1.0E-08
     mixing beta               =       0.3000
     number of iterations used =            8  plain     mixing
     Exchange-correlation= PBE
                           (   1   4   3   4   0   0   0)

     celldm(1)=  18.165831  celldm(2)=   0.000000  celldm(3)=   0.000000
     celldm(4)=   0.000000  celldm(5)=   0.000000  celldm(6)=   0.000000

     crystal axes: (cart. coord. in units of alat)
               a(1) = (   1.000000   0.000000   0.000000 )
               a(2) = (  -0.166667   0.288675   0.000000 )
               a(3) = (   0.000000   0.000000   1.452923 )

     reciprocal axes: (cart. coord. in units 2 pi/alat)
               b(1) = (  1.000000  0.577350 -0.000000 )
               b(2) = (  0.000000  3.464102  0.000000 )
               b(3) = (  0.000000 -0.000000  0.688268 )

     PseudoPot. # 1 for Zn read from file:
     /home/jvc/QEspresso7.2/ZnO_database/pseudos/Zn.upf
     MD5 check sum: 7f56cabf9682ed8c977c2f7d0c5985c5
     Pseudo is Ultrasoft + core correction, Zval = 12.0
     Generated using &quot;atomic&quot; code by A. Dal Corso  v.6.2.2
     Using radial grid of 1201 points,  6 beta functions with:
                l(1) =   0
                l(2) =   0
                l(3) =   1
                l(4) =   1
                l(5) =   2
                l(6) =   2
     Q(r) pseudized with 0 coefficients

     PseudoPot. # 2 for O  read from file:
     /home/jvc/QEspresso7.2/ZnO_database/pseudos/O.upf
     MD5 check sum: 91400c9766925bcf19f520983a725ff0
     Pseudo is Ultrasoft + core correction, Zval =  6.0
     Generated using &quot;atomic&quot; code by A. Dal Corso  v.6.3MaX
     Using radial grid of 1095 points,  4 beta functions with:
                l(1) =   0
                l(2) =   0
                l(3) =   1
                l(4) =   1
     Q(r) pseudized with 0 coefficients

     atomic species   valence    mass     pseudopotential
        Zn            12.00    65.38000     Zn( 1.00)
        O              6.00    15.99900     O ( 1.00)

      2 Sym. Ops. (no inversion) found

                                    s                        frac. trans.

      isym =  1     identity

 cryst.   s( 1) = (     1          0          0      )
                  (     0          1          0      )
                  (     0          0          1      )

 cart.    s( 1) = (  1.0000000  0.0000000  0.0000000 )
                  (  0.0000000  1.0000000  0.0000000 )
                  (  0.0000000  0.0000000  1.0000000 )

      isym =  2     inv. 180 deg rotation - cryst. axis [0,1,0]

 cryst.   s( 2) = (     1          3          0      )
                  (     0         -1          0      )
                  (     0          0          1      )

 cart.    s( 2) = (  0.5000000  0.8660254  0.0000000 )
                  (  0.8660254 -0.5000000  0.0000000 )
                  (  0.0000000  0.0000000  1.0000000 )

   Cartesian axes

     site n.     atom                  positions (alat units)
         1           Zn  tau(   1) = (   0.1666667   0.0962250   0.2424606  )
         2           Zn  tau(   2) = (  -0.0000000   0.1924501   0.0003069  )
         3           O   tau(   3) = (   0.1666667   0.0962250   0.4260339  )
         4           O   tau(   4) = (  -0.0000000   0.1924501   0.1838801  )
         5           Zn  tau(   5) = (   0.1666667   0.0962250   0.7267681  )
         6           Zn  tau(   6) = (  -0.0000000   0.1924501   0.4846144  )
         7           O   tau(   7) = (   0.1666667   0.0962250   0.9103414  )
         8           O   tau(   8) = (  -0.0000000   0.1924501   0.6681876  )
         9           Zn  tau(   9) = (   0.1666667   0.0962250   1.2110756  )
        10           Zn  tau(  10) = (  -0.0000000   0.1924501   0.9689219  )
        11           O   tau(  11) = (   0.1666667   0.0962250   1.3946489  )
        12           O   tau(  12) = (  -0.0000000   0.1924501   1.1524952  )
        13           Zn  tau(  13) = (   0.5000000   0.0962250   0.2424606  )
        14           Zn  tau(  14) = (   0.3333333   0.1924501   0.0003069  )
        15           O   tau(  15) = (   0.5000000   0.0962250   0.4260339  )
        16           O   tau(  16) = (   0.3333333   0.1924501   0.1838801  )
        17           Zn  tau(  17) = (   0.5000000   0.0962250   0.7267681  )
        18           Zn  tau(  18) = (   0.3333333   0.1924501   0.4846144  )
        19           O   tau(  19) = (   0.5000000   0.0962250   0.9103414  )
        20           O   tau(  20) = (   0.3333333   0.1924501   0.6681876  )
        21           Zn  tau(  21) = (   0.5000000   0.0962250   1.2110756  )
        22           Zn  tau(  22) = (   0.3333333   0.1924501   0.9689219  )
        23           O   tau(  23) = (   0.5000000   0.0962250   1.3946489  )
        24           O   tau(  24) = (   0.3333333   0.1924501   1.1524952  )
        25           Zn  tau(  25) = (   0.8333333   0.0962250   0.2424606  )
        26           Zn  tau(  26) = (   0.6666667   0.1924501   0.0003069  )
        27           O   tau(  27) = (   0.8333333   0.0962250   0.4260339  )
        28           O   tau(  28) = (   0.6666667   0.1924501   0.1838801  )
        29           Zn  tau(  29) = (   0.8333333   0.0962250   0.7267681  )
        30           Zn  tau(  30) = (   0.6666667   0.1924501   0.4846144  )
        31           O   tau(  31) = (   0.8333333   0.0962250   0.9103414  )
        32           O   tau(  32) = (   0.6666667   0.1924501   0.6681876  )
        33           Zn  tau(  33) = (   0.8333333   0.0962250   1.2110756  )
        34           Zn  tau(  34) = (   0.6666667   0.1924501   0.9689219  )
        35           O   tau(  35) = (   0.8333333   0.0962250   1.3946489  )
        36           O   tau(  36) = (   0.6666667   0.1924501   1.1524952  )

   Crystallographic axes

     site n.     atom                  positions (cryst. coord.)
         1           Zn  tau(   1) = (  0.2222222  0.3333333  0.1668779  )
         2           Zn  tau(   2) = (  0.1111111  0.6666667  0.0002112  )
         3           O   tau(   3) = (  0.2222222  0.3333333  0.2932255  )
         4           O   tau(   4) = (  0.1111111  0.6666667  0.1265588  )
         5           Zn  tau(   5) = (  0.2222222  0.3333333  0.5002112  )
         6           Zn  tau(   6) = (  0.1111111  0.6666667  0.3335445  )
         7           O   tau(   7) = (  0.2222222  0.3333333  0.6265588  )
         8           O   tau(   8) = (  0.1111111  0.6666667  0.4598921  )
         9           Zn  tau(   9) = (  0.2222222  0.3333333  0.8335445  )
        10           Zn  tau(  10) = (  0.1111111  0.6666667  0.6668779  )
        11           O   tau(  11) = (  0.2222222  0.3333333  0.9598921  )
        12           O   tau(  12) = (  0.1111111  0.6666667  0.7932255  )
        13           Zn  tau(  13) = (  0.5555556  0.3333333  0.1668779  )
        14           Zn  tau(  14) = (  0.4444444  0.6666667  0.0002112  )
        15           O   tau(  15) = (  0.5555556  0.3333333  0.2932255  )
        16           O   tau(  16) = (  0.4444444  0.6666667  0.1265588  )
        17           Zn  tau(  17) = (  0.5555556  0.3333333  0.5002112  )
        18           Zn  tau(  18) = (  0.4444444  0.6666667  0.3335445  )
        19           O   tau(  19) = (  0.5555556  0.3333333  0.6265588  )
        20           O   tau(  20) = (  0.4444444  0.6666667  0.4598921  )
        21           Zn  tau(  21) = (  0.5555556  0.3333333  0.8335445  )
        22           Zn  tau(  22) = (  0.4444444  0.6666667  0.6668779  )
        23           O   tau(  23) = (  0.5555556  0.3333333  0.9598921  )
        24           O   tau(  24) = (  0.4444444  0.6666667  0.7932255  )
        25           Zn  tau(  25) = (  0.8888889  0.3333333  0.1668779  )
        26           Zn  tau(  26) = (  0.7777778  0.6666667  0.0002112  )
        27           O   tau(  27) = (  0.8888889  0.3333333  0.2932255  )
        28           O   tau(  28) = (  0.7777778  0.6666667  0.1265588  )
        29           Zn  tau(  29) = (  0.8888889  0.3333333  0.5002112  )
        30           Zn  tau(  30) = (  0.7777778  0.6666667  0.3335445  )
        31           O   tau(  31) = (  0.8888889  0.3333333  0.6265588  )
        32           O   tau(  32) = (  0.7777778  0.6666667  0.4598921  )
        33           Zn  tau(  33) = (  0.8888889  0.3333333  0.8335445  )
        34           Zn  tau(  34) = (  0.7777778  0.6666667  0.6668779  )
        35           O   tau(  35) = (  0.8888889  0.3333333  0.9598921  )
        36           O   tau(  36) = (  0.7777778  0.6666667  0.7932255  )

     number of k points=    68
                       cart. coord. in units 2pi/alat
        k(    1) = (   0.0000000   0.0000000   0.0000000), wk =   0.0092593
        k(    2) = (   0.0000000   0.0000000   0.1147113), wk =   0.0185185
        k(    3) = (   0.0000000   0.0000000   0.2294226), wk =   0.0185185
        k(    4) = (   0.0000000   0.0000000  -0.3441340), wk =   0.0092593
        k(    5) = (   0.0000000   0.5773503   0.0000000), wk =   0.0370370
        k(    6) = (   0.0000000   0.5773503   0.1147113), wk =   0.0370370
        k(    7) = (   0.0000000   0.5773503   0.2294226), wk =   0.0370370
        k(    8) = (   0.0000000   0.5773503  -0.3441340), wk =   0.0370370
        k(    9) = (   0.0000000   1.1547005   0.0000000), wk =   0.0185185
        k(   10) = (   0.0000000   1.1547005   0.1147113), wk =   0.0370370
        k(   11) = (   0.0000000   1.1547005   0.2294226), wk =   0.0370370
        k(   12) = (   0.0000000   1.1547005  -0.3441340), wk =   0.0185185
        k(   13) = (   0.0000000  -1.7320508   0.0000000), wk =   0.0185185
[...]
     atom   10 type  1   force =     0.00001025    0.00000592   -0.33934331
     atom   11 type  2   force =    -0.00015014   -0.00008668   -0.21529829
     atom   12 type  2   force =     0.00015182    0.00008766   -0.21529965
     atom   13 type  1   force =    -0.00001214   -0.00000701   -0.33934457
     atom   14 type  1   force =     0.00001304    0.00000753   -0.33934477
     atom   15 type  2   force =    -0.00015147   -0.00008745   -0.21529935
     atom   16 type  2   force =     0.00015072    0.00008702   -0.21529865
     atom   17 type  1   force =    -0.00000916   -0.00000529   -0.33934315
     atom   18 type  1   force =     0.00001254    0.00000724   -0.33934277
     atom   19 type  2   force =    -0.00015278   -0.00008821   -0.21529975
     atom   20 type  2   force =     0.00015079    0.00008706   -0.21529914
     atom   21 type  1   force =    -0.00001082   -0.00000625   -0.33934430
     atom   22 type  1   force =     0.00001541    0.00000890   -0.33934257
     atom   23 type  2   force =    -0.00015107   -0.00008722   -0.21529811
     atom   24 type  2   force =     0.00015124    0.00008732   -0.21529937
     atom   25 type  1   force =    -0.00001148   -0.00000663   -0.33934607
     atom   26 type  1   force =     0.00001398    0.00000807   -0.33934537
     atom   27 type  2   force =    -0.00015130   -0.00008736   -0.21529992
     atom   28 type  2   force =     0.00015045    0.00008686   -0.21529811
     atom   29 type  1   force =    -0.00001272   -0.00000735   -0.33934340
     atom   30 type  1   force =     0.00001320    0.00000762   -0.33934060
     atom   31 type  2   force =    -0.00014997   -0.00008659   -0.21529832
     atom   32 type  2   force =     0.00015053    0.00008691   -0.21529942
     atom   33 type  1   force =    -0.00001123   -0.00000649   -0.33934431
     atom   34 type  1   force =     0.00001191    0.00000688   -0.33934448
     atom   35 type  2   force =    -0.00015162   -0.00008754   -0.21529742
     atom   36 type  2   force =     0.00015028    0.00008677   -0.21529928
     The ionic contribution  to forces
     atom    1 type  1   force =     0.00000001    0.00000001   -2.35338399
     atom    2 type  1   force =     0.00000001    0.00000000   -2.35338394
     atom    3 type  2   force =     0.00000000    0.00000000    2.35338397
     atom    4 type  2   force =     0.00000001    0.00000000    2.35338396
     atom    5 type  1   force =     0.00000001    0.00000001   -2.35338394
     atom    6 type  1   force =     0.00000001    0.00000000   -2.35338399
     atom    7 type  2   force =     0.00000000    0.00000000    2.35338396
     atom    8 type  2   force =     0.00000001    0.00000000    2.35338399
     atom    9 type  1   force =     0.00000001    0.00000001   -2.35338399
     atom   10 type  1   force =     0.00000001    0.00000000   -2.35338399
     atom   11 type  2   force =     0.00000000    0.00000000    2.35338399
     atom   12 type  2   force =     0.00000001    0.00000000    2.35338397
     atom   13 type  1   force =    -0.00000001    0.00000000   -2.35338399
     atom   14 type  1   force =     0.00000001   -0.00000000   -2.35338395
     atom   15 type  2   force =    -0.00000001    0.00000000    2.35338398
     atom   16 type  2   force =     0.00000001   -0.00000000    2.35338396
     atom   17 type  1   force =    -0.00000001    0.00000000   -2.35338395
     atom   18 type  1   force =     0.00000001   -0.00000000   -2.35338399
     atom   19 type  2   force =    -0.00000001    0.00000000    2.35338396
     atom   20 type  2   force =     0.00000001   -0.00000000    2.35338399
     atom   21 type  1   force =    -0.00000001    0.00000000   -2.35338399
     atom   22 type  1   force =     0.00000001   -0.00000000   -2.35338399
     atom   23 type  2   force =    -0.00000001    0.00000000    2.35338399
     atom   24 type  2   force =     0.00000001   -0.00000000    2.35338398
     atom   25 type  1   force =    -0.00000001   -0.00000000   -2.35338399
     atom   26 type  1   force =    -0.00000001   -0.00000001   -2.35338394
     atom   27 type  2   force =    -0.00000001   -0.00000000    2.35338397
     atom   28 type  2   force =    -0.00000000   -0.00000000    2.35338396
     atom   29 type  1   force =    -0.00000001   -0.00000000   -2.35338394
     atom   30 type  1   force =    -0.00000001   -0.00000001   -2.35338399
     atom   31 type  2   force =    -0.00000001   -0.00000000    2.35338396
     atom   32 type  2   force =    -0.00000000   -0.00000000    2.35338399
     atom   33 type  1   force =    -0.00000001   -0.00000000   -2.35338399
     atom   34 type  1   force =    -0.00000001   -0.00000001   -2.35338399
     atom   35 type  2   force =    -0.00000001   -0.00000000    2.35338399
     atom   36 type  2   force =    -0.00000000   -0.00000000    2.35338397
     The local contribution  to forces
     atom    1 type  1   force =     0.00002880    0.00001663    2.56570372
     atom    2 type  1   force =    -0.00002143   -0.00001242    2.56571260
     atom    3 type  2   force =     0.00014954    0.00008634   -2.04256329
     atom    4 type  2   force =    -0.00014581   -0.00008419   -2.04255595
     atom    5 type  1   force =     0.00003564    0.00002057    2.56570608
     atom    6 type  1   force =    -0.00002378   -0.00001378    2.56570000
     atom    7 type  2   force =     0.00015072    0.00008702   -2.04256190
     atom    8 type  2   force =    -0.00014451   -0.00008344   -2.04256296
     atom    9 type  1   force =     0.00003468    0.00002002    2.56570034
     atom   10 type  1   force =    -0.00001963   -0.00001138    2.56570281
     atom   11 type  2   force =     0.00015206    0.00008779   -2.04255804
     atom   12 type  2   force =    -0.00014237   -0.00008221   -2.04256295
     atom   13 type  1   force =     0.00002523    0.00001466    2.56570780
     atom   14 type  1   force =    -0.00002648   -0.00001538    2.56570834
     atom   15 type  2   force =     0.00014647    0.00008459   -2.04256376
     atom   16 type  2   force =    -0.00014795   -0.00008545   -2.04255827
     atom   17 type  1   force =     0.00001573    0.00000918    2.56570231
     atom   18 type  1   force =    -0.00002518   -0.00001463    2.56570547
     atom   19 type  2   force =     0.00014314    0.00008267   -2.04256208
     atom   20 type  2   force =    -0.00014997   -0.00008661   -2.04256244
     atom   21 type  1   force =     0.00002087    0.00001215    2.56570734
     atom   22 type  1   force =    -0.00003381   -0.00001962    2.56570292
     atom   23 type  2   force =     0.00014523    0.00008387   -2.04255715
     atom   24 type  2   force =    -0.00015181   -0.00008767   -2.04256145
     atom   25 type  1   force =     0.00002415    0.00001399    2.56571042
     atom   26 type  1   force =    -0.00003037   -0.00001754    2.56571009
     atom   27 type  2   force =     0.00014726    0.00008503   -2.04256391
     atom   28 type  2   force =    -0.00014968   -0.00008642   -2.04255591
     atom   29 type  1   force =     0.00002726    0.00001579    2.56570597
     atom   30 type  1   force =    -0.00002796   -0.00001614    2.56569608
     atom   31 type  2   force =     0.00014951    0.00008633   -2.04256287
     atom   32 type  2   force =    -0.00014900   -0.00008603   -2.04256592
     atom   33 type  1   force =     0.00002336    0.00001354    2.56570706
     atom   34 type  1   force =    -0.00002497   -0.00001442    2.56570533
     atom   35 type  2   force =     0.00014683    0.00008479   -2.04255709
     atom   36 type  2   force =    -0.00014964   -0.00008640   -2.04255923
     The core correction contribution to forces
     atom    1 type  1   force =    -0.00000231   -0.00000134    0.03020621
     atom    2 type  1   force =     0.00000241    0.00000138    0.03020607
     atom    3 type  2   force =     0.00000172    0.00000099    0.00128846
     atom    4 type  2   force =    -0.00000174   -0.00000100    0.00128847
     atom    5 type  1   force =    -0.00000242   -0.00000140    0.03020601
     atom    6 type  1   force =     0.00000241    0.00000139    0.03020613
     atom    7 type  2   force =     0.00000173    0.00000100    0.00128846
     atom    8 type  2   force =    -0.00000174   -0.00000101    0.00128846
     atom    9 type  1   force =    -0.00000235   -0.00000136    0.03020611
     atom   10 type  1   force =     0.00000233    0.00000134    0.03020618
     atom   11 type  2   force =     0.00000173    0.00000100    0.00128846
     atom   12 type  2   force =    -0.00000174   -0.00000100    0.00128846
     atom   13 type  1   force =    -0.00000233   -0.00000133    0.03020614
     atom   14 type  1   force =     0.00000229    0.00000131    0.03020610
     atom   15 type  2   force =     0.00000173    0.00000100    0.00128846
     atom   16 type  2   force =    -0.00000173   -0.00000100    0.00128846
     atom   17 type  1   force =    -0.00000223   -0.00000128    0.03020614
     atom   18 type  1   force =     0.00000228    0.00000130    0.03020600
     atom   19 type  2   force =     0.00000175    0.00000101    0.00128847
     atom   20 type  2   force =    -0.00000173   -0.00000100    0.00128846
     atom   21 type  1   force =    -0.00000230   -0.00000132    0.03020609
     atom   22 type  1   force =     0.00000235    0.00000134    0.03020607
     atom   23 type  2   force =     0.00000173    0.00000100    0.00128846
     atom   24 type  2   force =    -0.00000174   -0.00000100    0.00128846
     atom   25 type  1   force =    -0.00000236   -0.00000135    0.03020617
     atom   26 type  1   force =     0.00000233    0.00000135    0.03020609
     atom   27 type  2   force =     0.00000174    0.00000100    0.00128847
     atom   28 type  2   force =    -0.00000173   -0.00000100    0.00128846
     atom   29 type  1   force =    -0.00000235   -0.00000135    0.03020601
     atom   30 type  1   force =     0.00000236    0.00000136    0.03020619
     atom   31 type  2   force =     0.00000172    0.00000099    0.00128845
     atom   32 type  2   force =    -0.00000173   -0.00000100    0.00128846
     atom   33 type  1   force =    -0.00000234   -0.00000134    0.03020610
     atom   34 type  1   force =     0.00000234    0.00000135    0.03020615
     atom   35 type  2   force =     0.00000174    0.00000101    0.00128845
     atom   36 type  2   force =    -0.00000173   -0.00000100    0.00128847
     The Hubbard contrib.    to forces
     atom    1 type  1   force =     0.00000000    0.00000000    0.00000000
     atom    2 type  1   force =     0.00000000    0.00000000    0.00000000
     atom    3 type  2   force =     0.00000000    0.00000000    0.00000000
     atom    4 type  2   force =     0.00000000    0.00000000    0.00000000
     atom    5 type  1   force =     0.00000000    0.00000000    0.00000000
     atom    6 type  1   force =     0.00000000    0.00000000    0.00000000
     atom    7 type  2   force =     0.00000000    0.00000000    0.00000000
     atom    8 type  2   force =     0.00000000    0.00000000    0.00000000
     atom    9 type  1   force =     0.00000000    0.00000000    0.00000000
     atom   10 type  1   force =     0.00000000    0.00000000    0.00000000
     atom   11 type  2   force =     0.00000000    0.00000000    0.00000000
     atom   12 type  2   force =     0.00000000    0.00000000    0.00000000
     atom   13 type  1   force =     0.00000000    0.00000000    0.00000000
     atom   14 type  1   force =     0.00000000    0.00000000    0.00000000
     atom   15 type  2   force =     0.00000000    0.00000000    0.00000000
     atom   16 type  2   force =     0.00000000    0.00000000    0.00000000
     atom   17 type  1   force =     0.00000000    0.00000000    0.00000000
     atom   18 type  1   force =     0.00000000    0.00000000    0.00000000
     atom   19 type  2   force =     0.00000000    0.00000000    0.00000000
     atom   20 type  2   force =     0.00000000    0.00000000    0.00000000
     atom   21 type  1   force =     0.00000000    0.00000000    0.00000000
     atom   22 type  1   force =     0.00000000    0.00000000    0.00000000
     atom   23 type  2   force =     0.00000000    0.00000000    0.00000000
     atom   24 type  2   force =     0.00000000    0.00000000    0.00000000
     atom   25 type  1   force =     0.00000000    0.00000000    0.00000000
     atom   26 type  1   force =     0.00000000    0.00000000    0.00000000
     atom   27 type  2   force =     0.00000000    0.00000000    0.00000000
     atom   28 type  2   force =     0.00000000    0.00000000    0.00000000
     atom   29 type  1   force =     0.00000000    0.00000000    0.00000000
     atom   30 type  1   force =     0.00000000    0.00000000    0.00000000
     atom   31 type  2   force =     0.00000000    0.00000000    0.00000000
     atom   32 type  2   force =     0.00000000    0.00000000    0.00000000
     atom   33 type  1   force =     0.00000000    0.00000000    0.00000000
     atom   34 type  1   force =     0.00000000    0.00000000    0.00000000
     atom   35 type  2   force =     0.00000000    0.00000000    0.00000000
     atom   36 type  2   force =     0.00000000    0.00000000    0.00000000
     The SCF correction term to forces
     atom    1 type  1   force =    -0.00000199   -0.00000115    0.00000564
     atom    2 type  1   force =    -0.00000826   -0.00000477   -0.00000696
     atom    3 type  2   force =    -0.00000175   -0.00000101    0.00000263
     atom    4 type  2   force =    -0.00000331   -0.00000191   -0.00000508
     atom    5 type  1   force =    -0.00001196   -0.00000690    0.00000269
     atom    6 type  1   force =    -0.00000393   -0.00000227    0.00001126
     atom    7 type  2   force =    -0.00000386   -0.00000223    0.00000060
     atom    8 type  2   force =    -0.00000503   -0.00000291    0.00000194
     atom    9 type  1   force =    -0.00001172   -0.00000677    0.00001071
     atom   10 type  1   force =    -0.00001120   -0.00000647    0.00000689
     atom   11 type  2   force =    -0.00000513   -0.00000296   -0.00000405
     atom   12 type  2   force =    -0.00000729   -0.00000421    0.00000286
     atom   13 type  1   force =     0.00000252    0.00000145   -0.00000024
     atom   14 type  1   force =    -0.00000045   -0.00000026   -0.00000086
     atom   15 type  2   force =     0.00000220    0.00000127    0.00000370
     atom   16 type  2   force =    -0.00000040   -0.00000023   -0.00000301
     atom   17 type  1   force =     0.00001593    0.00000920    0.00000852
     atom   18 type  1   force =    -0.00000262   -0.00000151    0.00000350
     atom   19 type  2   force =     0.00000742    0.00000429    0.00000208
     atom   20 type  2   force =     0.00000237    0.00000137    0.00000156
     atom   21 type  1   force =     0.00000916    0.00000529    0.00000035
     atom   22 type  1   force =     0.00001039    0.00000600    0.00000752
     atom   23 type  2   force =     0.00000360    0.00000208   -0.00000491
     atom   24 type  2   force =     0.00000420    0.00000243    0.00000004
     atom   25 type  1   force =     0.00000410    0.00000237   -0.00000342
     atom   26 type  1   force =     0.00000550    0.00000317   -0.00000401
     atom   27 type  2   force =     0.00000164    0.00000095    0.00000445
     atom   28 type  2   force =     0.00000211    0.00000122   -0.00000564
     atom   29 type  1   force =    -0.00000066   -0.00000038    0.00000343
     atom   30 type  1   force =     0.00000099    0.00000057    0.00001590
     atom   31 type  2   force =    -0.00000175   -0.00000101    0.00000174
     atom   32 type  2   force =     0.00000105    0.00000060    0.00000569
     atom   33 type  1   force =     0.00000411    0.00000237    0.00000070
     atom   34 type  1   force =    -0.00000226   -0.00000131    0.00000453
     atom   35 type  2   force =     0.00000276    0.00000160   -0.00000522
     atom   36 type  2   force =     0.00000160    0.00000092   -0.00000173

     Total force =     0.580876     Total SCF correction =     0.000053

     General routines

     Parallel routines

   This run was terminated on:  20: 0: 8  31Aug2025

   JOB DONE.
Note: The following floating-point exceptions are signalling: IEEE_DENORMAL
Note: The following floating-point exceptions are signalling: IEEE_DENORMAL
Note: The following floating-point exceptions are signalling: IEEE_DENORMAL
Note: The following floating-point exceptions are signalling: IEEE_DENORMAL
Note: The following floating-point exceptions are signalling: IEEE_INVALID_FLAG
Note: The following floating-point exceptions are signalling: IEEE_INVALID_FLAG
Note: The following floating-point exceptions are signalling: IEEE_INVALID_FLAG
Note: The following floating-point exceptions are signalling: IEEE_INVALID_FLAG