     Program PWSCF v.7.2 starts on  2Sep2025 at 18:47:53

     Reading input from /home/jvc/QEspresso7.2/ZnO_database/scripts/cell313.in/ZnO-3.47-1.58-313.in
Warning: card &CELL ignored
Warning: card / ignored
Warning: card &FCP ignored
Warning: card / ignored
Warning: card &RISM ignored
Warning: card / ignored

     Current dimensions of program PWSCF are:
     Max number of different atomic species (ntypx) = 10
     Max number of k-points (npk) =  40000
     Max angular momentum in pseudopotentials (lmaxx) =  4
     file Zn.upf: wavefunction(s)  3D renormalized
     Found identity + (  0.0000  0.0000  0.3333) symmetry
     This is a supercell, fractional translations are disabled
     Message from routine setup:
     using ibrav=0 with symmetry is DISCOURAGED, use correct ibrav instead

     K-points division:     npool     =      17
     R & G space division:  proc/nbgrp/npool/nimage =       3
     Subspace diagonalization in iterative solution of the eigenvalue problem:
     a serial algorithm will be used

     Using Slab Decomposition

     bravais-lattice index     =            0
     lattice parameter (alat)  =      19.6488  a.u.
     unit-cell volume          =    3464.4999 (a.u.)^3
     number of atoms/cell      =           36
     number of atomic types    =            2
     number of electrons       =       324.00
     number of Kohn-Sham states=          162
     kinetic-energy cutoff     =      50.0000  Ry
     charge density cutoff     =     400.0000  Ry
     scf convergence threshold =      1.0E-08
     mixing beta               =       0.3000
     number of iterations used =            8  plain     mixing
     Exchange-correlation= PBE
                           (   1   4   3   4   0   0   0)

     celldm(1)=  19.648756  celldm(2)=   0.000000  celldm(3)=   0.000000
     celldm(4)=   0.000000  celldm(5)=   0.000000  celldm(6)=   0.000000

     crystal axes: (cart. coord. in units of alat)
               a(1) = (   1.000000   0.000000   0.000000 )
               a(2) = (  -0.166667   0.288675   0.000000 )
               a(3) = (   0.000000   0.000000   1.582071 )

     reciprocal axes: (cart. coord. in units 2 pi/alat)
               b(1) = (  1.000000  0.577350 -0.000000 )
               b(2) = (  0.000000  3.464102  0.000000 )
               b(3) = (  0.000000 -0.000000  0.632083 )

     PseudoPot. # 1 for Zn read from file:
     /home/jvc/QEspresso7.2/ZnO_database/pseudos/Zn.upf
     MD5 check sum: 7f56cabf9682ed8c977c2f7d0c5985c5
     Pseudo is Ultrasoft + core correction, Zval = 12.0
     Generated using &quot;atomic&quot; code by A. Dal Corso  v.6.2.2
     Using radial grid of 1201 points,  6 beta functions with:
                l(1) =   0
                l(2) =   0
                l(3) =   1
                l(4) =   1
                l(5) =   2
                l(6) =   2
     Q(r) pseudized with 0 coefficients

     PseudoPot. # 2 for O  read from file:
     /home/jvc/QEspresso7.2/ZnO_database/pseudos/O.upf
     MD5 check sum: 91400c9766925bcf19f520983a725ff0
     Pseudo is Ultrasoft + core correction, Zval =  6.0
     Generated using &quot;atomic&quot; code by A. Dal Corso  v.6.3MaX
     Using radial grid of 1095 points,  4 beta functions with:
                l(1) =   0
                l(2) =   0
                l(3) =   1
                l(4) =   1
     Q(r) pseudized with 0 coefficients

     atomic species   valence    mass     pseudopotential
        Zn            12.00    65.38000     Zn( 1.00)
        O              6.00    15.99900     O ( 1.00)

      2 Sym. Ops. (no inversion) found

                                    s                        frac. trans.

      isym =  1     identity

 cryst.   s( 1) = (     1          0          0      )
                  (     0          1          0      )
                  (     0          0          1      )

 cart.    s( 1) = (  1.0000000  0.0000000  0.0000000 )
                  (  0.0000000  1.0000000  0.0000000 )
                  (  0.0000000  0.0000000  1.0000000 )

      isym =  2     inv. 180 deg rotation - cryst. axis [0,1,0]

 cryst.   s( 2) = (     1          3          0      )
                  (     0         -1          0      )
                  (     0          0          1      )

 cart.    s( 2) = (  0.5000000  0.8660254  0.0000000 )
                  (  0.8660254 -0.5000000  0.0000000 )
                  (  0.0000000  0.0000000  1.0000000 )

   Cartesian axes

     site n.     atom                  positions (alat units)
         1           Zn  tau(   1) = (   0.1666667   0.0962250   0.2640127  )
         2           Zn  tau(   2) = (  -0.0000000   0.1924501   0.0003341  )
         3           O   tau(   3) = (   0.1666667   0.0962250   0.4639036  )
         4           O   tau(   4) = (  -0.0000000   0.1924501   0.2002250  )
         5           Zn  tau(   5) = (   0.1666667   0.0962250   0.7913697  )
         6           Zn  tau(   6) = (  -0.0000000   0.1924501   0.5276912  )
         7           O   tau(   7) = (   0.1666667   0.0962250   0.9912606  )
         8           O   tau(   8) = (  -0.0000000   0.1924501   0.7275821  )
         9           Zn  tau(   9) = (   0.1666667   0.0962250   1.3187268  )
        10           Zn  tau(  10) = (  -0.0000000   0.1924501   1.0550483  )
        11           O   tau(  11) = (   0.1666667   0.0962250   1.5186177  )
        12           O   tau(  12) = (  -0.0000000   0.1924501   1.2549392  )
        13           Zn  tau(  13) = (   0.5000000   0.0962250   0.2640127  )
        14           Zn  tau(  14) = (   0.3333333   0.1924501   0.0003341  )
        15           O   tau(  15) = (   0.5000000   0.0962250   0.4639036  )
        16           O   tau(  16) = (   0.3333333   0.1924501   0.2002250  )
        17           Zn  tau(  17) = (   0.5000000   0.0962250   0.7913697  )
        18           Zn  tau(  18) = (   0.3333333   0.1924501   0.5276912  )
        19           O   tau(  19) = (   0.5000000   0.0962250   0.9912606  )
        20           O   tau(  20) = (   0.3333333   0.1924501   0.7275821  )
        21           Zn  tau(  21) = (   0.5000000   0.0962250   1.3187268  )
        22           Zn  tau(  22) = (   0.3333333   0.1924501   1.0550483  )
        23           O   tau(  23) = (   0.5000000   0.0962250   1.5186177  )
        24           O   tau(  24) = (   0.3333333   0.1924501   1.2549392  )
        25           Zn  tau(  25) = (   0.8333333   0.0962250   0.2640127  )
        26           Zn  tau(  26) = (   0.6666667   0.1924501   0.0003341  )
        27           O   tau(  27) = (   0.8333333   0.0962250   0.4639036  )
        28           O   tau(  28) = (   0.6666667   0.1924501   0.2002250  )
        29           Zn  tau(  29) = (   0.8333333   0.0962250   0.7913697  )
        30           Zn  tau(  30) = (   0.6666667   0.1924501   0.5276912  )
        31           O   tau(  31) = (   0.8333333   0.0962250   0.9912606  )
        32           O   tau(  32) = (   0.6666667   0.1924501   0.7275821  )
        33           Zn  tau(  33) = (   0.8333333   0.0962250   1.3187268  )
        34           Zn  tau(  34) = (   0.6666667   0.1924501   1.0550483  )
        35           O   tau(  35) = (   0.8333333   0.0962250   1.5186177  )
        36           O   tau(  36) = (   0.6666667   0.1924501   1.2549392  )

   Crystallographic axes

     site n.     atom                  positions (cryst. coord.)
         1           Zn  tau(   1) = (  0.2222222  0.3333333  0.1668779  )
         2           Zn  tau(   2) = (  0.1111111  0.6666667  0.0002112  )
         3           O   tau(   3) = (  0.2222222  0.3333333  0.2932255  )
         4           O   tau(   4) = (  0.1111111  0.6666667  0.1265588  )
         5           Zn  tau(   5) = (  0.2222222  0.3333333  0.5002112  )
         6           Zn  tau(   6) = (  0.1111111  0.6666667  0.3335445  )
         7           O   tau(   7) = (  0.2222222  0.3333333  0.6265588  )
         8           O   tau(   8) = (  0.1111111  0.6666667  0.4598921  )
         9           Zn  tau(   9) = (  0.2222222  0.3333333  0.8335445  )
        10           Zn  tau(  10) = (  0.1111111  0.6666667  0.6668779  )
        11           O   tau(  11) = (  0.2222222  0.3333333  0.9598921  )
        12           O   tau(  12) = (  0.1111111  0.6666667  0.7932255  )
        13           Zn  tau(  13) = (  0.5555556  0.3333333  0.1668779  )
        14           Zn  tau(  14) = (  0.4444444  0.6666667  0.0002112  )
        15           O   tau(  15) = (  0.5555556  0.3333333  0.2932255  )
        16           O   tau(  16) = (  0.4444444  0.6666667  0.1265588  )
        17           Zn  tau(  17) = (  0.5555556  0.3333333  0.5002112  )
        18           Zn  tau(  18) = (  0.4444444  0.6666667  0.3335445  )
        19           O   tau(  19) = (  0.5555556  0.3333333  0.6265588  )
        20           O   tau(  20) = (  0.4444444  0.6666667  0.4598921  )
        21           Zn  tau(  21) = (  0.5555556  0.3333333  0.8335445  )
        22           Zn  tau(  22) = (  0.4444444  0.6666667  0.6668779  )
        23           O   tau(  23) = (  0.5555556  0.3333333  0.9598921  )
        24           O   tau(  24) = (  0.4444444  0.6666667  0.7932255  )
        25           Zn  tau(  25) = (  0.8888889  0.3333333  0.1668779  )
        26           Zn  tau(  26) = (  0.7777778  0.6666667  0.0002112  )
        27           O   tau(  27) = (  0.8888889  0.3333333  0.2932255  )
        28           O   tau(  28) = (  0.7777778  0.6666667  0.1265588  )
        29           Zn  tau(  29) = (  0.8888889  0.3333333  0.5002112  )
        30           Zn  tau(  30) = (  0.7777778  0.6666667  0.3335445  )
        31           O   tau(  31) = (  0.8888889  0.3333333  0.6265588  )
        32           O   tau(  32) = (  0.7777778  0.6666667  0.4598921  )
        33           Zn  tau(  33) = (  0.8888889  0.3333333  0.8335445  )
        34           Zn  tau(  34) = (  0.7777778  0.6666667  0.6668779  )
        35           O   tau(  35) = (  0.8888889  0.3333333  0.9598921  )
        36           O   tau(  36) = (  0.7777778  0.6666667  0.7932255  )

     number of k points=    68
                       cart. coord. in units 2pi/alat
        k(    1) = (   0.0000000   0.0000000   0.0000000), wk =   0.0092593
        k(    2) = (   0.0000000   0.0000000   0.1053471), wk =   0.0185185
        k(    3) = (   0.0000000   0.0000000   0.2106943), wk =   0.0185185
        k(    4) = (   0.0000000   0.0000000  -0.3160414), wk =   0.0092593
        k(    5) = (   0.0000000   0.5773503   0.0000000), wk =   0.0370370
        k(    6) = (   0.0000000   0.5773503   0.1053471), wk =   0.0370370
        k(    7) = (   0.0000000   0.5773503   0.2106943), wk =   0.0370370
        k(    8) = (   0.0000000   0.5773503  -0.3160414), wk =   0.0370370
        k(    9) = (   0.0000000   1.1547005   0.0000000), wk =   0.0185185
        k(   10) = (   0.0000000   1.1547005   0.1053471), wk =   0.0370370
        k(   11) = (   0.0000000   1.1547005   0.2106943), wk =   0.0370370
        k(   12) = (   0.0000000   1.1547005  -0.3160414), wk =   0.0185185
        k(   13) = (   0.0000000  -1.7320508   0.0000000), wk =   0.0185185
[...]
     atom   19 type  2   force =    -0.00020304   -0.00011723   -0.04453944
     atom   20 type  2   force =     0.00020093    0.00011601   -0.04453173
     atom   21 type  1   force =     0.00001371    0.00000791   -0.05787913
     atom   22 type  1   force =    -0.00001254   -0.00000724   -0.05787463
     atom   23 type  2   force =    -0.00020397   -0.00011777   -0.04454433
     atom   24 type  2   force =     0.00020200    0.00011663   -0.04454675
     atom   25 type  1   force =     0.00000276    0.00000160   -0.05788062
     atom   26 type  1   force =    -0.00000272   -0.00000157   -0.05786865
     atom   27 type  2   force =    -0.00020041   -0.00011570   -0.04453497
     atom   28 type  2   force =     0.00020367    0.00011759   -0.04454098
     atom   29 type  1   force =     0.00000539    0.00000311   -0.05787835
     atom   30 type  1   force =    -0.00001227   -0.00000709   -0.05788457
     atom   31 type  2   force =    -0.00020262   -0.00011698   -0.04453973
     atom   32 type  2   force =     0.00020281    0.00011709   -0.04453418
     atom   33 type  1   force =     0.00000401    0.00000231   -0.05787037
     atom   34 type  1   force =    -0.00000483   -0.00000279   -0.05787298
     atom   35 type  2   force =    -0.00020190   -0.00011657   -0.04454613
     atom   36 type  2   force =     0.00020204    0.00011665   -0.04454804
     The ionic contribution  to forces
     atom    1 type  1   force =     0.00000001    0.00000001   -0.31882414
     atom    2 type  1   force =     0.00000001    0.00000000   -0.31882410
     atom    3 type  2   force =     0.00000000    0.00000000    0.31882413
     atom    4 type  2   force =     0.00000000    0.00000000    0.31882412
     atom    5 type  1   force =     0.00000001    0.00000001   -0.31882410
     atom    6 type  1   force =     0.00000001    0.00000000   -0.31882414
     atom    7 type  2   force =     0.00000000    0.00000000    0.31882412
     atom    8 type  2   force =     0.00000000    0.00000000    0.31882414
     atom    9 type  1   force =     0.00000001    0.00000001   -0.31882414
     atom   10 type  1   force =     0.00000001    0.00000000   -0.31882414
     atom   11 type  2   force =     0.00000000    0.00000000    0.31882414
     atom   12 type  2   force =     0.00000000    0.00000000    0.31882413
     atom   13 type  1   force =    -0.00000001    0.00000000   -0.31882414
     atom   14 type  1   force =     0.00000001   -0.00000000   -0.31882411
     atom   15 type  2   force =    -0.00000001    0.00000000    0.31882413
     atom   16 type  2   force =     0.00000001   -0.00000000    0.31882412
     atom   17 type  1   force =    -0.00000001    0.00000000   -0.31882411
     atom   18 type  1   force =     0.00000001   -0.00000000   -0.31882414
     atom   19 type  2   force =    -0.00000001    0.00000000    0.31882412
     atom   20 type  2   force =     0.00000001   -0.00000000    0.31882414
     atom   21 type  1   force =    -0.00000001    0.00000000   -0.31882414
     atom   22 type  1   force =     0.00000001   -0.00000000   -0.31882414
     atom   23 type  2   force =    -0.00000001    0.00000000    0.31882414
     atom   24 type  2   force =     0.00000001   -0.00000000    0.31882413
     atom   25 type  1   force =    -0.00000001   -0.00000000   -0.31882414
     atom   26 type  1   force =    -0.00000001   -0.00000001   -0.31882410
     atom   27 type  2   force =    -0.00000000   -0.00000000    0.31882413
     atom   28 type  2   force =    -0.00000000   -0.00000000    0.31882412
     atom   29 type  1   force =    -0.00000001   -0.00000000   -0.31882410
     atom   30 type  1   force =    -0.00000001   -0.00000001   -0.31882414
     atom   31 type  2   force =    -0.00000000   -0.00000000    0.31882412
     atom   32 type  2   force =    -0.00000000   -0.00000000    0.31882414
     atom   33 type  1   force =    -0.00000001   -0.00000000   -0.31882414
     atom   34 type  1   force =    -0.00000001   -0.00000001   -0.31882414
     atom   35 type  2   force =    -0.00000000   -0.00000000    0.31882414
     atom   36 type  2   force =    -0.00000000   -0.00000000    0.31882413
     The local contribution  to forces
     atom    1 type  1   force =    -0.00000556   -0.00000321    0.37141708
     atom    2 type  1   force =     0.00000950    0.00000543    0.37141535
     atom    3 type  2   force =     0.00019754    0.00011405   -0.27310267
     atom    4 type  2   force =    -0.00019548   -0.00011287   -0.27309964
     atom    5 type  1   force =    -0.00000464   -0.00000268    0.37141891
     atom    6 type  1   force =     0.00000263    0.00000146    0.37142400
     atom    7 type  2   force =     0.00019525    0.00011273   -0.27310474
     atom    8 type  2   force =    -0.00019627   -0.00011333   -0.27309899
     atom    9 type  1   force =    -0.00000271   -0.00000156    0.37140424
     atom   10 type  1   force =     0.00000221    0.00000122    0.37141594
     atom   11 type  2   force =     0.00019773    0.00011416   -0.27309733
     atom   12 type  2   force =    -0.00019994   -0.00011545   -0.27310331
     atom   13 type  1   force =    -0.00000751   -0.00000423    0.37141764
     atom   14 type  1   force =     0.00000413    0.00000228    0.37140423
     atom   15 type  2   force =     0.00019604    0.00011321   -0.27310406
     atom   16 type  2   force =    -0.00019641   -0.00011343   -0.27309802
     atom   17 type  1   force =    -0.00000481   -0.00000267    0.37142619
     atom   18 type  1   force =    -0.00000211   -0.00000132    0.37142287
     atom   19 type  2   force =     0.00019786    0.00011426   -0.27310290
     atom   20 type  2   force =    -0.00019867   -0.00011473   -0.27310210
     atom   21 type  1   force =    -0.00000804   -0.00000454    0.37141372
     atom   22 type  1   force =     0.00000547    0.00000305    0.37141167
     atom   23 type  2   force =     0.00019820    0.00011446   -0.27310181
     atom   24 type  2   force =    -0.00019785   -0.00011425   -0.27309991
     atom   25 type  1   force =     0.00000491    0.00000289    0.37141972
     atom   26 type  1   force =    -0.00000562   -0.00000324    0.37140438
     atom   27 type  2   force =     0.00019608    0.00011322   -0.27310306
     atom   28 type  2   force =    -0.00019855   -0.00011463   -0.27310065
     atom   29 type  1   force =     0.00000284    0.00000170    0.37141939
     atom   30 type  1   force =     0.00000618    0.00000357    0.37142173
     atom   31 type  2   force =     0.00019782    0.00011423   -0.27310252
     atom   32 type  2   force =    -0.00019567   -0.00011297   -0.27310086
     atom   33 type  1   force =     0.00000349    0.00000207    0.37140080
     atom   34 type  1   force =    -0.00000130   -0.00000075    0.37140988
     atom   35 type  2   force =     0.00019447    0.00011229   -0.27309976
     atom   36 type  2   force =    -0.00019499   -0.00011258   -0.27310172
     The core correction contribution to forces
     atom    1 type  1   force =    -0.00000605   -0.00000344    0.00374232
     atom    2 type  1   force =     0.00000579    0.00000341    0.00374540
     atom    3 type  2   force =     0.00000231    0.00000134    0.00036327
     atom    4 type  2   force =    -0.00000232   -0.00000134    0.00036485
     atom    5 type  1   force =    -0.00000600   -0.00000341    0.00374517
     atom    6 type  1   force =     0.00000567    0.00000335    0.00374364
     atom    7 type  2   force =     0.00000228    0.00000132    0.00036483
     atom    8 type  2   force =    -0.00000230   -0.00000133    0.00036246
     atom    9 type  1   force =    -0.00000597   -0.00000339    0.00374360
     atom   10 type  1   force =     0.00000563    0.00000332    0.00374240
     atom   11 type  2   force =     0.00000229    0.00000133    0.00036261
     atom   12 type  2   force =    -0.00000232   -0.00000134    0.00036341
     atom   13 type  1   force =    -0.00000614   -0.00000353    0.00374234
     atom   14 type  1   force =     0.00000613    0.00000352    0.00374516
     atom   15 type  2   force =     0.00000227    0.00000131    0.00036324
     atom   16 type  2   force =    -0.00000224   -0.00000129    0.00036488
     atom   17 type  1   force =    -0.00000604   -0.00000347    0.00374537
     atom   18 type  1   force =     0.00000596    0.00000342    0.00374360
     atom   19 type  2   force =     0.00000227    0.00000131    0.00036484
     atom   20 type  2   force =    -0.00000225   -0.00000130    0.00036241
     atom   21 type  1   force =    -0.00000615   -0.00000354    0.00374376
     atom   22 type  1   force =     0.00000621    0.00000357    0.00374225
     atom   23 type  2   force =     0.00000229    0.00000132    0.00036259
     atom   24 type  2   force =    -0.00000226   -0.00000131    0.00036341
     atom   25 type  1   force =    -0.00000549   -0.00000324    0.00374236
     atom   26 type  1   force =     0.00000577    0.00000328    0.00374512
     atom   27 type  2   force =     0.00000227    0.00000131    0.00036324
     atom   28 type  2   force =    -0.00000233   -0.00000135    0.00036487
     atom   29 type  1   force =    -0.00000557   -0.00000329    0.00374518
     atom   30 type  1   force =     0.00000601    0.00000342    0.00374358
     atom   31 type  2   force =     0.00000231    0.00000133    0.00036485
     atom   32 type  2   force =    -0.00000231   -0.00000134    0.00036245
     atom   33 type  1   force =    -0.00000550   -0.00000325    0.00374348
     atom   34 type  1   force =     0.00000577    0.00000327    0.00374220
     atom   35 type  2   force =     0.00000229    0.00000132    0.00036262
     atom   36 type  2   force =    -0.00000230   -0.00000133    0.00036342
     The Hubbard contrib.    to forces
     atom    1 type  1   force =     0.00000000    0.00000000    0.00000000
     atom    2 type  1   force =     0.00000000    0.00000000    0.00000000
     atom    3 type  2   force =     0.00000000    0.00000000    0.00000000
     atom    4 type  2   force =     0.00000000    0.00000000    0.00000000
     atom    5 type  1   force =     0.00000000    0.00000000    0.00000000
     atom    6 type  1   force =     0.00000000    0.00000000    0.00000000
     atom    7 type  2   force =     0.00000000    0.00000000    0.00000000
     atom    8 type  2   force =     0.00000000    0.00000000    0.00000000
     atom    9 type  1   force =     0.00000000    0.00000000    0.00000000
     atom   10 type  1   force =     0.00000000    0.00000000    0.00000000
     atom   11 type  2   force =     0.00000000    0.00000000    0.00000000
     atom   12 type  2   force =     0.00000000    0.00000000    0.00000000
     atom   13 type  1   force =     0.00000000    0.00000000    0.00000000
     atom   14 type  1   force =     0.00000000    0.00000000    0.00000000
     atom   15 type  2   force =     0.00000000    0.00000000    0.00000000
     atom   16 type  2   force =     0.00000000    0.00000000    0.00000000
     atom   17 type  1   force =     0.00000000    0.00000000    0.00000000
     atom   18 type  1   force =     0.00000000    0.00000000    0.00000000
     atom   19 type  2   force =     0.00000000    0.00000000    0.00000000
     atom   20 type  2   force =     0.00000000    0.00000000    0.00000000
     atom   21 type  1   force =     0.00000000    0.00000000    0.00000000
     atom   22 type  1   force =     0.00000000    0.00000000    0.00000000
     atom   23 type  2   force =     0.00000000    0.00000000    0.00000000
     atom   24 type  2   force =     0.00000000    0.00000000    0.00000000
     atom   25 type  1   force =     0.00000000    0.00000000    0.00000000
     atom   26 type  1   force =     0.00000000    0.00000000    0.00000000
     atom   27 type  2   force =     0.00000000    0.00000000    0.00000000
     atom   28 type  2   force =     0.00000000    0.00000000    0.00000000
     atom   29 type  1   force =     0.00000000    0.00000000    0.00000000
     atom   30 type  1   force =     0.00000000    0.00000000    0.00000000
     atom   31 type  2   force =     0.00000000    0.00000000    0.00000000
     atom   32 type  2   force =     0.00000000    0.00000000    0.00000000
     atom   33 type  1   force =     0.00000000    0.00000000    0.00000000
     atom   34 type  1   force =     0.00000000    0.00000000    0.00000000
     atom   35 type  2   force =     0.00000000    0.00000000    0.00000000
     atom   36 type  2   force =     0.00000000    0.00000000    0.00000000
     The SCF correction term to forces
     atom    1 type  1   force =    -0.00000010   -0.00000006   -0.00000772
     atom    2 type  1   force =    -0.00000273   -0.00000157   -0.00000623
     atom    3 type  2   force =    -0.00000138   -0.00000080   -0.00000074
     atom    4 type  2   force =    -0.00000119   -0.00000069   -0.00000338
     atom    5 type  1   force =     0.00000059    0.00000034   -0.00000779
     atom    6 type  1   force =     0.00000046    0.00000026   -0.00000583
     atom    7 type  2   force =     0.00000040    0.00000023    0.00000118
     atom    8 type  2   force =    -0.00000057   -0.00000033   -0.00000459
     atom    9 type  1   force =     0.00000042    0.00000024    0.00000082
     atom   10 type  1   force =     0.00000214    0.00000124   -0.00000395
     atom   11 type  2   force =    -0.00000152   -0.00000087   -0.00000239
     atom   12 type  2   force =     0.00000367    0.00000212    0.00000248
     atom   13 type  1   force =     0.00000114    0.00000066   -0.00000928
     atom   14 type  1   force =    -0.00000065   -0.00000037   -0.00000103
     atom   15 type  2   force =    -0.00000034   -0.00000020   -0.00000008
     atom   16 type  2   force =     0.00000084    0.00000049   -0.00000467
     atom   17 type  1   force =     0.00000201    0.00000116   -0.00000790
     atom   18 type  1   force =     0.00000225    0.00000130   -0.00000444
     atom   19 type  2   force =    -0.00000112   -0.00000065   -0.00000075
     atom   20 type  2   force =     0.00000358    0.00000206   -0.00000202
     atom   21 type  1   force =     0.00000035    0.00000020   -0.00000709
     atom   22 type  1   force =     0.00000160    0.00000092   -0.00000391
     atom   23 type  2   force =    -0.00000188   -0.00000109    0.00000094
     atom   24 type  2   force =     0.00000133    0.00000077   -0.00000094
     atom   25 type  1   force =    -0.00000166   -0.00000096   -0.00000687
     atom   26 type  1   force =     0.00000349    0.00000202    0.00000093
     atom   27 type  2   force =    -0.00000030   -0.00000018   -0.00000133
     atom   28 type  2   force =     0.00000209    0.00000121   -0.00000152
     atom   29 type  1   force =    -0.00000406   -0.00000234   -0.00000791
     atom   30 type  1   force =     0.00000032    0.00000018   -0.00000325
     atom   31 type  2   force =    -0.00000188   -0.00000109   -0.00000139
     atom   32 type  2   force =    -0.00000062   -0.00000036   -0.00000208
     atom   33 type  1   force =    -0.00000213   -0.00000123    0.00000227
     atom   34 type  1   force =    -0.00000124   -0.00000072   -0.00000490
     atom   35 type  2   force =     0.00000168    0.00000097    0.00000033
     atom   36 type  2   force =    -0.00000125   -0.00000072    0.00000066

     Total force =     0.009278     Total SCF correction =     0.000029

     General routines

     Parallel routines

   This run was terminated on:  19:49:38   2Sep2025

   JOB DONE.
Note: The following floating-point exceptions are signalling: IEEE_INVALID_FLAG
Note: The following floating-point exceptions are signalling: IEEE_INVALID_FLAG
Note: The following floating-point exceptions are signalling: IEEE_INVALID_FLAG
Note: The following floating-point exceptions are signalling: IEEE_INVALID_FLAG
Note: The following floating-point exceptions are signalling: IEEE_INVALID_FLAG
Note: The following floating-point exceptions are signalling: IEEE_INVALID_FLAG
Note: The following floating-point exceptions are signalling: IEEE_INVALID_FLAG
Note: The following floating-point exceptions are signalling: IEEE_INVALID_FLAG
Note: The following floating-point exceptions are signalling: IEEE_INVALID_FLAG
Note: The following floating-point exceptions are signalling: IEEE_INVALID_FLAG
Note: The following floating-point exceptions are signalling: IEEE_INVALID_FLAG
Note: The following floating-point exceptions are signalling: IEEE_INVALID_FLAG
Note: The following floating-point exceptions are signalling: IEEE_INVALID_FLAG
Note: The following floating-point exceptions are signalling: IEEE_INVALID_FLAG
Note: The following floating-point exceptions are signalling: IEEE_INVALID_FLAG
Note: The following floating-point exceptions are signalling: IEEE_INVALID_FLAG
Note: The following floating-point exceptions are signalling: IEEE_INVALID_FLAG