     Program PWSCF v.7.2 starts on  3Sep2025 at  2:11: 3

     Reading input from /home/jvc/QEspresso7.2/ZnO_database/scripts/cell313.in/ZnO-3.47-1.74-313.in
Warning: card &CELL ignored
Warning: card / ignored
Warning: card &FCP ignored
Warning: card / ignored
Warning: card &RISM ignored
Warning: card / ignored

     Current dimensions of program PWSCF are:
     Max number of different atomic species (ntypx) = 10
     Max number of k-points (npk) =  40000
     Max angular momentum in pseudopotentials (lmaxx) =  4
     file Zn.upf: wavefunction(s)  3D renormalized
     Found identity + (  0.0000  0.0000  0.3333) symmetry
     This is a supercell, fractional translations are disabled
     Message from routine setup:
     using ibrav=0 with symmetry is DISCOURAGED, use correct ibrav instead

     K-points division:     npool     =      17
     R & G space division:  proc/nbgrp/npool/nimage =       3
     Subspace diagonalization in iterative solution of the eigenvalue problem:
     a serial algorithm will be used

     Using Slab Decomposition

     bravais-lattice index     =            0
     lattice parameter (alat)  =      19.6488  a.u.
     unit-cell volume          =    3818.0203 (a.u.)^3
     number of atoms/cell      =           36
     number of atomic types    =            2
     number of electrons       =       324.00
     number of Kohn-Sham states=          162
     kinetic-energy cutoff     =      50.0000  Ry
     charge density cutoff     =     400.0000  Ry
     scf convergence threshold =      1.0E-08
     mixing beta               =       0.3000
     number of iterations used =            8  plain     mixing
     Exchange-correlation= PBE
                           (   1   4   3   4   0   0   0)

     celldm(1)=  19.648756  celldm(2)=   0.000000  celldm(3)=   0.000000
     celldm(4)=   0.000000  celldm(5)=   0.000000  celldm(6)=   0.000000

     crystal axes: (cart. coord. in units of alat)
               a(1) = (   1.000000   0.000000   0.000000 )
               a(2) = (  -0.166667   0.288675   0.000000 )
               a(3) = (   0.000000   0.000000   1.743507 )

     reciprocal axes: (cart. coord. in units 2 pi/alat)
               b(1) = (  1.000000  0.577350 -0.000000 )
               b(2) = (  0.000000  3.464102  0.000000 )
               b(3) = (  0.000000 -0.000000  0.573557 )

     PseudoPot. # 1 for Zn read from file:
     /home/jvc/QEspresso7.2/ZnO_database/pseudos/Zn.upf
     MD5 check sum: 7f56cabf9682ed8c977c2f7d0c5985c5
     Pseudo is Ultrasoft + core correction, Zval = 12.0
     Generated using &quot;atomic&quot; code by A. Dal Corso  v.6.2.2
     Using radial grid of 1201 points,  6 beta functions with:
                l(1) =   0
                l(2) =   0
                l(3) =   1
                l(4) =   1
                l(5) =   2
                l(6) =   2
     Q(r) pseudized with 0 coefficients

     PseudoPot. # 2 for O  read from file:
     /home/jvc/QEspresso7.2/ZnO_database/pseudos/O.upf
     MD5 check sum: 91400c9766925bcf19f520983a725ff0
     Pseudo is Ultrasoft + core correction, Zval =  6.0
     Generated using &quot;atomic&quot; code by A. Dal Corso  v.6.3MaX
     Using radial grid of 1095 points,  4 beta functions with:
                l(1) =   0
                l(2) =   0
                l(3) =   1
                l(4) =   1
     Q(r) pseudized with 0 coefficients

     atomic species   valence    mass     pseudopotential
        Zn            12.00    65.38000     Zn( 1.00)
        O              6.00    15.99900     O ( 1.00)

      2 Sym. Ops. (no inversion) found

                                    s                        frac. trans.

      isym =  1     identity

 cryst.   s( 1) = (     1          0          0      )
                  (     0          1          0      )
                  (     0          0          1      )

 cart.    s( 1) = (  1.0000000  0.0000000  0.0000000 )
                  (  0.0000000  1.0000000  0.0000000 )
                  (  0.0000000  0.0000000  1.0000000 )

      isym =  2     inv. 180 deg rotation - cryst. axis [0,1,0]

 cryst.   s( 2) = (     1          3          0      )
                  (     0         -1          0      )
                  (     0          0          1      )

 cart.    s( 2) = (  0.5000000  0.8660254  0.0000000 )
                  (  0.8660254 -0.5000000  0.0000000 )
                  (  0.0000000  0.0000000  1.0000000 )

   Cartesian axes

     site n.     atom                  positions (alat units)
         1           Zn  tau(   1) = (   0.1666667   0.0962250   0.2909527  )
         2           Zn  tau(   2) = (  -0.0000000   0.1924501   0.0003682  )
         3           O   tau(   3) = (   0.1666667   0.0962250   0.5112407  )
         4           O   tau(   4) = (  -0.0000000   0.1924501   0.2206562  )
         5           Zn  tau(   5) = (   0.1666667   0.0962250   0.8721217  )
         6           Zn  tau(   6) = (  -0.0000000   0.1924501   0.5815372  )
         7           O   tau(   7) = (   0.1666667   0.0962250   1.0924097  )
         8           O   tau(   8) = (  -0.0000000   0.1924501   0.8018252  )
         9           Zn  tau(   9) = (   0.1666667   0.0962250   1.4532907  )
        10           Zn  tau(  10) = (  -0.0000000   0.1924501   1.1627062  )
        11           O   tau(  11) = (   0.1666667   0.0962250   1.6735787  )
        12           O   tau(  12) = (  -0.0000000   0.1924501   1.3829942  )
        13           Zn  tau(  13) = (   0.5000000   0.0962250   0.2909527  )
        14           Zn  tau(  14) = (   0.3333333   0.1924501   0.0003682  )
        15           O   tau(  15) = (   0.5000000   0.0962250   0.5112407  )
        16           O   tau(  16) = (   0.3333333   0.1924501   0.2206562  )
        17           Zn  tau(  17) = (   0.5000000   0.0962250   0.8721217  )
        18           Zn  tau(  18) = (   0.3333333   0.1924501   0.5815372  )
        19           O   tau(  19) = (   0.5000000   0.0962250   1.0924097  )
        20           O   tau(  20) = (   0.3333333   0.1924501   0.8018252  )
        21           Zn  tau(  21) = (   0.5000000   0.0962250   1.4532907  )
        22           Zn  tau(  22) = (   0.3333333   0.1924501   1.1627062  )
        23           O   tau(  23) = (   0.5000000   0.0962250   1.6735787  )
        24           O   tau(  24) = (   0.3333333   0.1924501   1.3829942  )
        25           Zn  tau(  25) = (   0.8333333   0.0962250   0.2909527  )
        26           Zn  tau(  26) = (   0.6666667   0.1924501   0.0003682  )
        27           O   tau(  27) = (   0.8333333   0.0962250   0.5112407  )
        28           O   tau(  28) = (   0.6666667   0.1924501   0.2206562  )
        29           Zn  tau(  29) = (   0.8333333   0.0962250   0.8721217  )
        30           Zn  tau(  30) = (   0.6666667   0.1924501   0.5815372  )
        31           O   tau(  31) = (   0.8333333   0.0962250   1.0924097  )
        32           O   tau(  32) = (   0.6666667   0.1924501   0.8018252  )
        33           Zn  tau(  33) = (   0.8333333   0.0962250   1.4532907  )
        34           Zn  tau(  34) = (   0.6666667   0.1924501   1.1627062  )
        35           O   tau(  35) = (   0.8333333   0.0962250   1.6735787  )
        36           O   tau(  36) = (   0.6666667   0.1924501   1.3829942  )

   Crystallographic axes

     site n.     atom                  positions (cryst. coord.)
         1           Zn  tau(   1) = (  0.2222222  0.3333333  0.1668779  )
         2           Zn  tau(   2) = (  0.1111111  0.6666667  0.0002112  )
         3           O   tau(   3) = (  0.2222222  0.3333333  0.2932255  )
         4           O   tau(   4) = (  0.1111111  0.6666667  0.1265588  )
         5           Zn  tau(   5) = (  0.2222222  0.3333333  0.5002112  )
         6           Zn  tau(   6) = (  0.1111111  0.6666667  0.3335445  )
         7           O   tau(   7) = (  0.2222222  0.3333333  0.6265588  )
         8           O   tau(   8) = (  0.1111111  0.6666667  0.4598921  )
         9           Zn  tau(   9) = (  0.2222222  0.3333333  0.8335445  )
        10           Zn  tau(  10) = (  0.1111111  0.6666667  0.6668779  )
        11           O   tau(  11) = (  0.2222222  0.3333333  0.9598921  )
        12           O   tau(  12) = (  0.1111111  0.6666667  0.7932255  )
        13           Zn  tau(  13) = (  0.5555556  0.3333333  0.1668779  )
        14           Zn  tau(  14) = (  0.4444444  0.6666667  0.0002112  )
        15           O   tau(  15) = (  0.5555556  0.3333333  0.2932255  )
        16           O   tau(  16) = (  0.4444444  0.6666667  0.1265588  )
        17           Zn  tau(  17) = (  0.5555556  0.3333333  0.5002112  )
        18           Zn  tau(  18) = (  0.4444444  0.6666667  0.3335445  )
        19           O   tau(  19) = (  0.5555556  0.3333333  0.6265588  )
        20           O   tau(  20) = (  0.4444444  0.6666667  0.4598921  )
        21           Zn  tau(  21) = (  0.5555556  0.3333333  0.8335445  )
        22           Zn  tau(  22) = (  0.4444444  0.6666667  0.6668779  )
        23           O   tau(  23) = (  0.5555556  0.3333333  0.9598921  )
        24           O   tau(  24) = (  0.4444444  0.6666667  0.7932255  )
        25           Zn  tau(  25) = (  0.8888889  0.3333333  0.1668779  )
        26           Zn  tau(  26) = (  0.7777778  0.6666667  0.0002112  )
        27           O   tau(  27) = (  0.8888889  0.3333333  0.2932255  )
        28           O   tau(  28) = (  0.7777778  0.6666667  0.1265588  )
        29           Zn  tau(  29) = (  0.8888889  0.3333333  0.5002112  )
        30           Zn  tau(  30) = (  0.7777778  0.6666667  0.3335445  )
        31           O   tau(  31) = (  0.8888889  0.3333333  0.6265588  )
        32           O   tau(  32) = (  0.7777778  0.6666667  0.4598921  )
        33           Zn  tau(  33) = (  0.8888889  0.3333333  0.8335445  )
        34           Zn  tau(  34) = (  0.7777778  0.6666667  0.6668779  )
        35           O   tau(  35) = (  0.8888889  0.3333333  0.9598921  )
        36           O   tau(  36) = (  0.7777778  0.6666667  0.7932255  )

     number of k points=    68
                       cart. coord. in units 2pi/alat
        k(    1) = (   0.0000000   0.0000000   0.0000000), wk =   0.0092593
        k(    2) = (   0.0000000   0.0000000   0.0955928), wk =   0.0185185
        k(    3) = (   0.0000000   0.0000000   0.1911855), wk =   0.0185185
        k(    4) = (   0.0000000   0.0000000  -0.2867783), wk =   0.0092593
        k(    5) = (   0.0000000   0.5773503   0.0000000), wk =   0.0370370
        k(    6) = (   0.0000000   0.5773503   0.0955928), wk =   0.0370370
        k(    7) = (   0.0000000   0.5773503   0.1911855), wk =   0.0370370
        k(    8) = (   0.0000000   0.5773503  -0.2867783), wk =   0.0370370
        k(    9) = (   0.0000000   1.1547005   0.0000000), wk =   0.0185185
        k(   10) = (   0.0000000   1.1547005   0.0955928), wk =   0.0370370
        k(   11) = (   0.0000000   1.1547005   0.1911855), wk =   0.0370370
        k(   12) = (   0.0000000   1.1547005  -0.2867783), wk =   0.0185185
        k(   13) = (   0.0000000  -1.7320508   0.0000000), wk =   0.0185185
[...]
     atom   19 type  2   force =    -0.00022720   -0.00013117    0.20751050
     atom   20 type  2   force =     0.00022872    0.00013205    0.20752389
     atom   21 type  1   force =     0.00002948    0.00001702    0.18040811
     atom   22 type  1   force =    -0.00002644   -0.00001527    0.18038580
     atom   23 type  2   force =    -0.00022469   -0.00012973    0.20751041
     atom   24 type  2   force =     0.00022219    0.00012828    0.20749870
     atom   25 type  1   force =     0.00003344    0.00001930    0.18035927
     atom   26 type  1   force =    -0.00002822   -0.00001629    0.18037569
     atom   27 type  2   force =    -0.00022698   -0.00013105    0.20753004
     atom   28 type  2   force =     0.00022278    0.00012862    0.20752476
     atom   29 type  1   force =     0.00003538    0.00002043    0.18036774
     atom   30 type  1   force =    -0.00002230   -0.00001287    0.18035106
     atom   31 type  2   force =    -0.00022571   -0.00013032    0.20751530
     atom   32 type  2   force =     0.00022142    0.00012783    0.20752300
     atom   33 type  1   force =     0.00002452    0.00001416    0.18040549
     atom   34 type  1   force =    -0.00002253   -0.00001301    0.18038131
     atom   35 type  2   force =    -0.00022442   -0.00012957    0.20750974
     atom   36 type  2   force =     0.00022534    0.00013010    0.20750398
     The ionic contribution  to forces
     atom    1 type  1   force =     0.00000001    0.00000000    1.40004231
     atom    2 type  1   force =     0.00000001    0.00000000    1.40004234
     atom    3 type  2   force =     0.00000000    0.00000000   -1.40004232
     atom    4 type  2   force =     0.00000000    0.00000000   -1.40004233
     atom    5 type  1   force =     0.00000001    0.00000000    1.40004234
     atom    6 type  1   force =     0.00000001    0.00000000    1.40004231
     atom    7 type  2   force =     0.00000000    0.00000000   -1.40004233
     atom    8 type  2   force =     0.00000000    0.00000000   -1.40004231
     atom    9 type  1   force =     0.00000001    0.00000000    1.40004231
     atom   10 type  1   force =     0.00000001    0.00000000    1.40004231
     atom   11 type  2   force =     0.00000000    0.00000000   -1.40004231
     atom   12 type  2   force =     0.00000000    0.00000000   -1.40004232
     atom   13 type  1   force =    -0.00000001    0.00000000    1.40004231
     atom   14 type  1   force =     0.00000001   -0.00000000    1.40004234
     atom   15 type  2   force =    -0.00000001    0.00000000   -1.40004232
     atom   16 type  2   force =     0.00000001   -0.00000000   -1.40004233
     atom   17 type  1   force =    -0.00000001    0.00000000    1.40004234
     atom   18 type  1   force =     0.00000001   -0.00000000    1.40004231
     atom   19 type  2   force =    -0.00000001    0.00000000   -1.40004233
     atom   20 type  2   force =     0.00000001   -0.00000000   -1.40004231
     atom   21 type  1   force =    -0.00000001    0.00000000    1.40004231
     atom   22 type  1   force =     0.00000001   -0.00000000    1.40004231
     atom   23 type  2   force =    -0.00000001    0.00000000   -1.40004231
     atom   24 type  2   force =     0.00000001   -0.00000000   -1.40004232
     atom   25 type  1   force =    -0.00000001   -0.00000000    1.40004231
     atom   26 type  1   force =    -0.00000001   -0.00000000    1.40004234
     atom   27 type  2   force =    -0.00000000   -0.00000000   -1.40004232
     atom   28 type  2   force =    -0.00000000   -0.00000000   -1.40004233
     atom   29 type  1   force =    -0.00000001   -0.00000000    1.40004234
     atom   30 type  1   force =    -0.00000001   -0.00000000    1.40004231
     atom   31 type  2   force =    -0.00000000   -0.00000000   -1.40004233
     atom   32 type  2   force =    -0.00000000   -0.00000000   -1.40004231
     atom   33 type  1   force =    -0.00000001   -0.00000000    1.40004231
     atom   34 type  1   force =    -0.00000001   -0.00000000    1.40004231
     atom   35 type  2   force =    -0.00000000   -0.00000000   -1.40004231
     atom   36 type  2   force =    -0.00000000   -0.00000000   -1.40004232
     The local contribution  to forces
     atom    1 type  1   force =    -0.00001833   -0.00001058   -1.57793776
     atom    2 type  1   force =     0.00002557    0.00001471   -1.57802604
     atom    3 type  2   force =     0.00021367    0.00012336    1.20250908
     atom    4 type  2   force =    -0.00021130   -0.00012201    1.20251056
     atom    5 type  1   force =    -0.00001253   -0.00000723   -1.57797126
     atom    6 type  1   force =     0.00004168    0.00002401   -1.57796834
     atom    7 type  2   force =     0.00021632    0.00012489    1.20248733
     atom    8 type  2   force =    -0.00021008   -0.00012131    1.20250215
     atom    9 type  1   force =    -0.00003480   -0.00002009   -1.57808884
     atom   10 type  1   force =     0.00004708    0.00002713   -1.57800695
     atom   11 type  2   force =     0.00021109    0.00012187    1.20248783
     atom   12 type  2   force =    -0.00020966   -0.00012106    1.20246978
     atom   13 type  1   force =    -0.00001894   -0.00001083   -1.57795093
     atom   14 type  1   force =     0.00002773    0.00001591   -1.57800944
     atom   15 type  2   force =     0.00021184    0.00012233    1.20251166
     atom   16 type  2   force =    -0.00021002   -0.00012128    1.20251260
     atom   17 type  1   force =    -0.00002101   -0.00001202   -1.57797739
     atom   18 type  1   force =     0.00003101    0.00001780   -1.57796834
     atom   19 type  2   force =     0.00020971    0.00012110    1.20248370
     atom   20 type  2   force =    -0.00020945   -0.00012096    1.20250502
     atom   21 type  1   force =    -0.00003263   -0.00001873   -1.57808624
     atom   22 type  1   force =     0.00002838    0.00001628   -1.57803746
     atom   23 type  2   force =     0.00021247    0.00012270    1.20248948
     atom   24 type  2   force =    -0.00021297   -0.00012299    1.20247063
     atom   25 type  1   force =    -0.00004710   -0.00002714   -1.57796756
     atom   26 type  1   force =     0.00003106    0.00001793   -1.57799768
     atom   27 type  2   force =     0.00020949    0.00012096    1.20251149
     atom   28 type  2   force =    -0.00021369   -0.00012337    1.20251111
     atom   29 type  1   force =    -0.00005108   -0.00002944   -1.57799378
     atom   30 type  1   force =     0.00001160    0.00000670   -1.57794858
     atom   31 type  2   force =     0.00020769    0.00011993    1.20248620
     atom   32 type  2   force =    -0.00021567   -0.00012451    1.20250124
     atom   33 type  1   force =    -0.00001668   -0.00000958   -1.57807884
     atom   34 type  1   force =     0.00000839    0.00000484   -1.57802403
     atom   35 type  2   force =     0.00021129    0.00012200    1.20248725
     atom   36 type  2   force =    -0.00021082   -0.00012172    1.20246935
     The core correction contribution to forces
     atom    1 type  1   force =    -0.00000966   -0.00000552   -0.01047521
     atom    2 type  1   force =     0.00000939    0.00000547   -0.01047348
     atom    3 type  2   force =     0.00000250    0.00000144   -0.00190900
     atom    4 type  2   force =    -0.00000252   -0.00000146   -0.00190894
     atom    5 type  1   force =    -0.00000977   -0.00000558   -0.01047496
     atom    6 type  1   force =     0.00000917    0.00000535   -0.01047321
     atom    7 type  2   force =     0.00000250    0.00000144   -0.00190887
     atom    8 type  2   force =    -0.00000253   -0.00000147   -0.00190889
     atom    9 type  1   force =    -0.00000938   -0.00000536   -0.01047419
     atom   10 type  1   force =     0.00000917    0.00000535   -0.01047335
     atom   11 type  2   force =     0.00000256    0.00000147   -0.00190868
     atom   12 type  2   force =    -0.00000255   -0.00000147   -0.00190861
     atom   13 type  1   force =    -0.00000985   -0.00000566   -0.01047509
     atom   14 type  1   force =     0.00000980    0.00000563   -0.01047368
     atom   15 type  2   force =     0.00000253    0.00000146   -0.00190900
     atom   16 type  2   force =    -0.00000255   -0.00000147   -0.00190897
     atom   17 type  1   force =    -0.00000973   -0.00000559   -0.01047490
     atom   18 type  1   force =     0.00000961    0.00000552   -0.01047339
     atom   19 type  2   force =     0.00000254    0.00000147   -0.00190881
     atom   20 type  2   force =    -0.00000256   -0.00000148   -0.00190890
     atom   21 type  1   force =    -0.00000958   -0.00000551   -0.01047423
     atom   22 type  1   force =     0.00000947    0.00000545   -0.01047303
     atom   23 type  2   force =     0.00000251    0.00000145   -0.00190876
     atom   24 type  2   force =    -0.00000248   -0.00000143   -0.00190857
     atom   25 type  1   force =    -0.00000905   -0.00000528   -0.01047482
     atom   26 type  1   force =     0.00000939    0.00000537   -0.01047377
     atom   27 type  2   force =     0.00000256    0.00000148   -0.00190903
     atom   28 type  2   force =    -0.00000252   -0.00000145   -0.00190889
     atom   29 type  1   force =    -0.00000908   -0.00000530   -0.01047452
     atom   30 type  1   force =     0.00000978    0.00000559   -0.01047366
     atom   31 type  2   force =     0.00000254    0.00000147   -0.00190885
     atom   32 type  2   force =    -0.00000250   -0.00000144   -0.00190888
     atom   33 type  1   force =    -0.00000960   -0.00000560   -0.01047429
     atom   34 type  1   force =     0.00000993    0.00000568   -0.01047318
     atom   35 type  2   force =     0.00000252    0.00000146   -0.00190876
     atom   36 type  2   force =    -0.00000255   -0.00000147   -0.00190863
     The Hubbard contrib.    to forces
     atom    1 type  1   force =     0.00000000    0.00000000    0.00000000
     atom    2 type  1   force =     0.00000000    0.00000000    0.00000000
     atom    3 type  2   force =     0.00000000    0.00000000    0.00000000
     atom    4 type  2   force =     0.00000000    0.00000000    0.00000000
     atom    5 type  1   force =     0.00000000    0.00000000    0.00000000
     atom    6 type  1   force =     0.00000000    0.00000000    0.00000000
     atom    7 type  2   force =     0.00000000    0.00000000    0.00000000
     atom    8 type  2   force =     0.00000000    0.00000000    0.00000000
     atom    9 type  1   force =     0.00000000    0.00000000    0.00000000
     atom   10 type  1   force =     0.00000000    0.00000000    0.00000000
     atom   11 type  2   force =     0.00000000    0.00000000    0.00000000
     atom   12 type  2   force =     0.00000000    0.00000000    0.00000000
     atom   13 type  1   force =     0.00000000    0.00000000    0.00000000
     atom   14 type  1   force =     0.00000000    0.00000000    0.00000000
     atom   15 type  2   force =     0.00000000    0.00000000    0.00000000
     atom   16 type  2   force =     0.00000000    0.00000000    0.00000000
     atom   17 type  1   force =     0.00000000    0.00000000    0.00000000
     atom   18 type  1   force =     0.00000000    0.00000000    0.00000000
     atom   19 type  2   force =     0.00000000    0.00000000    0.00000000
     atom   20 type  2   force =     0.00000000    0.00000000    0.00000000
     atom   21 type  1   force =     0.00000000    0.00000000    0.00000000
     atom   22 type  1   force =     0.00000000    0.00000000    0.00000000
     atom   23 type  2   force =     0.00000000    0.00000000    0.00000000
     atom   24 type  2   force =     0.00000000    0.00000000    0.00000000
     atom   25 type  1   force =     0.00000000    0.00000000    0.00000000
     atom   26 type  1   force =     0.00000000    0.00000000    0.00000000
     atom   27 type  2   force =     0.00000000    0.00000000    0.00000000
     atom   28 type  2   force =     0.00000000    0.00000000    0.00000000
     atom   29 type  1   force =     0.00000000    0.00000000    0.00000000
     atom   30 type  1   force =     0.00000000    0.00000000    0.00000000
     atom   31 type  2   force =     0.00000000    0.00000000    0.00000000
     atom   32 type  2   force =     0.00000000    0.00000000    0.00000000
     atom   33 type  1   force =     0.00000000    0.00000000    0.00000000
     atom   34 type  1   force =     0.00000000    0.00000000    0.00000000
     atom   35 type  2   force =     0.00000000    0.00000000    0.00000000
     atom   36 type  2   force =     0.00000000    0.00000000    0.00000000
     The SCF correction term to forces
     atom    1 type  1   force =    -0.00001294   -0.00000747   -0.00007879
     atom    2 type  1   force =     0.00000188    0.00000108    0.00002565
     atom    3 type  2   force =    -0.00000541   -0.00000312   -0.00002565
     atom    4 type  2   force =     0.00000052    0.00000030   -0.00002670
     atom    5 type  1   force =    -0.00001955   -0.00001129   -0.00003872
     atom    6 type  1   force =    -0.00001679   -0.00000969   -0.00003923
     atom    7 type  2   force =    -0.00000866   -0.00000500    0.00000732
     atom    8 type  2   force =    -0.00000160   -0.00000092   -0.00001403
     atom    9 type  1   force =     0.00000925    0.00000534    0.00010346
     atom   10 type  1   force =    -0.00002429   -0.00001403    0.00000444
     atom   11 type  2   force =     0.00000104    0.00000060    0.00001949
     atom   12 type  2   force =    -0.00000310   -0.00000179    0.00003985
     atom   13 type  1   force =    -0.00001151   -0.00000665   -0.00006295
     atom   14 type  1   force =     0.00000112    0.00000065    0.00000418
     atom   15 type  2   force =     0.00000098    0.00000056   -0.00002777
     atom   16 type  2   force =    -0.00000435   -0.00000251   -0.00003051
     atom   17 type  1   force =    -0.00000919   -0.00000531   -0.00003195
     atom   18 type  1   force =    -0.00000378   -0.00000218   -0.00004029
     atom   19 type  2   force =     0.00000395    0.00000228    0.00001631
     atom   20 type  2   force =    -0.00000552   -0.00000319   -0.00001771
     atom   21 type  1   force =     0.00000587    0.00000339    0.00009980
     atom   22 type  1   force =    -0.00000240   -0.00000139    0.00004506
     atom   23 type  2   force =    -0.00000119   -0.00000068    0.00001267
     atom   24 type  2   force =     0.00000405    0.00000234    0.00004133
     atom   25 type  1   force =     0.00002443    0.00001411   -0.00004132
     atom   26 type  1   force =    -0.00000352   -0.00000203   -0.00001072
     atom   27 type  2   force =     0.00000400    0.00000231   -0.00002935
     atom   28 type  2   force =     0.00000418    0.00000241   -0.00002408
     atom   29 type  1   force =     0.00002953    0.00001705   -0.00000856
     atom   30 type  1   force =     0.00002025    0.00001169   -0.00006527
     atom   31 type  2   force =     0.00000478    0.00000276    0.00000999
     atom   32 type  2   force =     0.00000759    0.00000438   -0.00001369
     atom   33 type  1   force =    -0.00001490   -0.00000860    0.00009041
     atom   34 type  1   force =     0.00002680    0.00001548    0.00002761
     atom   35 type  2   force =    -0.00000017   -0.00000010    0.00001518
     atom   36 type  2   force =    -0.00000113   -0.00000065    0.00003790

     Total force =     0.048365     Total SCF correction =     0.000268

     General routines

     Parallel routines

   This run was terminated on:   3:53:33   3Sep2025

   JOB DONE.
Note: The following floating-point exceptions are signalling: IEEE_INVALID_FLAG
Note: The following floating-point exceptions are signalling: IEEE_INVALID_FLAG
Note: The following floating-point exceptions are signalling: IEEE_INVALID_FLAG
Note: The following floating-point exceptions are signalling: IEEE_INVALID_FLAG
Note: The following floating-point exceptions are signalling: IEEE_INVALID_FLAG
Note: The following floating-point exceptions are signalling: IEEE_INVALID_FLAG
Note: The following floating-point exceptions are signalling: IEEE_INVALID_FLAG
Note: The following floating-point exceptions are signalling: IEEE_INVALID_FLAG
Note: The following floating-point exceptions are signalling: IEEE_INVALID_FLAG
Note: The following floating-point exceptions are signalling: IEEE_INVALID_FLAG
Note: The following floating-point exceptions are signalling: IEEE_INVALID_FLAG
Note: The following floating-point exceptions are signalling: IEEE_INVALID_FLAG
Note: The following floating-point exceptions are signalling: IEEE_INVALID_FLAG
Note: The following floating-point exceptions are signalling: IEEE_INVALID_FLAG
Note: The following floating-point exceptions are signalling: IEEE_INVALID_FLAG
Note: The following floating-point exceptions are signalling: IEEE_INVALID_FLAG
Note: The following floating-point exceptions are signalling: IEEE_INVALID_FLAG