     Program PWSCF v.7.2 starts on 30Jul2025 at 21:55:14

     Reading input from /home/jvc/QEspresso7.2/ZnO_database/scripts/cell331.in/ZnO-3.34-1.52-331.in
Warning: card &CELL ignored
Warning: card / ignored
Warning: card &FCP ignored
Warning: card / ignored
Warning: card &RISM ignored
Warning: card / ignored

     Current dimensions of program PWSCF are:
     Max number of different atomic species (ntypx) = 10
     Max number of k-points (npk) =  40000
     Max angular momentum in pseudopotentials (lmaxx) =  4
     file Zn.upf: wavefunction(s)  3D renormalized
     Found identity + ( -0.0000  0.3333  0.0000) symmetry
     This is a supercell, fractional translations are disabled
     Message from routine setup:
     using ibrav=0 with symmetry is DISCOURAGED, use correct ibrav instead

     K-points division:     npool     =       8
     R & G space division:  proc/nbgrp/npool/nimage =       4
     Subspace diagonalization in iterative solution of the eigenvalue problem:
     one sub-group per band group will be used

     Using Slab Decomposition

     bravais-lattice index     =            0
     lattice parameter (alat)  =      18.5365  a.u.
     unit-cell volume          =    2968.1791 (a.u.)^3
     number of atoms/cell      =           36
     number of atomic types    =            2
     number of electrons       =       324.00
     number of Kohn-Sham states=          162
     kinetic-energy cutoff     =      50.0000  Ry
     charge density cutoff     =     400.0000  Ry
     scf convergence threshold =      1.0E-08
     mixing beta               =       0.3000
     number of iterations used =            8  plain     mixing
     Exchange-correlation= PBE
                           (   1   4   3   4   0   0   0)

     celldm(1)=  18.536466  celldm(2)=   0.000000  celldm(3)=   0.000000
     celldm(4)=   0.000000  celldm(5)=   0.000000  celldm(6)=   0.000000

     crystal axes: (cart. coord. in units of alat)
               a(1) = (   1.000000   0.000000   0.000000 )
               a(2) = (  -0.500000   0.866025   0.000000 )
               a(3) = (   0.000000   0.000000   0.538119 )

     reciprocal axes: (cart. coord. in units 2 pi/alat)
               b(1) = (  1.000000  0.577350 -0.000000 )
               b(2) = (  0.000000  1.154701  0.000000 )
               b(3) = (  0.000000 -0.000000  1.858323 )

     PseudoPot. # 1 for Zn read from file:
     /home/jvc/QEspresso7.2/ZnO_database/pseudos/Zn.upf
     MD5 check sum: 7f56cabf9682ed8c977c2f7d0c5985c5
     Pseudo is Ultrasoft + core correction, Zval = 12.0
     Generated using &quot;atomic&quot; code by A. Dal Corso  v.6.2.2
     Using radial grid of 1201 points,  6 beta functions with:
                l(1) =   0
                l(2) =   0
                l(3) =   1
                l(4) =   1
                l(5) =   2
                l(6) =   2
     Q(r) pseudized with 0 coefficients

     PseudoPot. # 2 for O  read from file:
     /home/jvc/QEspresso7.2/ZnO_database/pseudos/O.upf
     MD5 check sum: 91400c9766925bcf19f520983a725ff0
     Pseudo is Ultrasoft + core correction, Zval =  6.0
     Generated using &quot;atomic&quot; code by A. Dal Corso  v.6.3MaX
     Using radial grid of 1095 points,  4 beta functions with:
                l(1) =   0
                l(2) =   0
                l(3) =   1
                l(4) =   1
     Q(r) pseudized with 0 coefficients

     atomic species   valence    mass     pseudopotential
        Zn            12.00    65.38000     Zn( 1.00)
        O              6.00    15.99900     O ( 1.00)

      6 Sym. Ops. (no inversion) found

                                    s                        frac. trans.

      isym =  1     identity

 cryst.   s( 1) = (     1          0          0      )
                  (     0          1          0      )
                  (     0          0          1      )

 cart.    s( 1) = (  1.0000000  0.0000000  0.0000000 )
                  (  0.0000000  1.0000000  0.0000000 )
                  (  0.0000000  0.0000000  1.0000000 )

      isym =  2     120 deg rotation - cryst. axis [0,0,1]

[...]

      isym =  3     120 deg rotation - cryst. axis [0,0,-1]

[...]

      isym =  4     inv. 180 deg rotation - cart. axis [1,0,0]

[...]

      isym =  5     inv. 180 deg rotation - cryst. axis [0,1,0]

[...]

      isym =  6     inv. 180 deg rotation - cryst. axis [1,1,0]

 cryst.   s( 6) = (     0         -1          0      )
                  (    -1          0          0      )
                  (     0          0          1      )

 cart.    s( 6) = (  0.5000000 -0.8660254  0.0000000 )
                  ( -0.8660254 -0.5000000  0.0000000 )
                  (  0.0000000  0.0000000  1.0000000 )

   Cartesian axes

     site n.     atom                  positions (alat units)
         1           Zn  tau(   1) = (   0.1666667   0.0962250   0.2694007  )
         2           Zn  tau(   2) = (   0.0000000   0.1924501   0.0003409  )
         3           O   tau(   3) = (   0.1666667   0.0962250   0.4733710  )
         4           O   tau(   4) = (   0.0000000   0.1924501   0.2043113  )
         5           Zn  tau(   5) = (   0.0000000   0.3849002   0.2694007  )
         6           Zn  tau(   6) = (  -0.1666667   0.4811252   0.0003409  )
         7           O   tau(   7) = (   0.0000000   0.3849002   0.4733710  )
         8           O   tau(   8) = (  -0.1666667   0.4811252   0.2043113  )
         9           Zn  tau(   9) = (  -0.1666667   0.6735753   0.2694007  )
        10           Zn  tau(  10) = (  -0.3333333   0.7698004   0.0003409  )
        11           O   tau(  11) = (  -0.1666667   0.6735753   0.4733710  )
        12           O   tau(  12) = (  -0.3333333   0.7698004   0.2043113  )
        13           Zn  tau(  13) = (   0.5000000   0.0962250   0.2694007  )
        14           Zn  tau(  14) = (   0.3333333   0.1924501   0.0003409  )
        15           O   tau(  15) = (   0.5000000   0.0962250   0.4733710  )
        16           O   tau(  16) = (   0.3333333   0.1924501   0.2043113  )
        17           Zn  tau(  17) = (   0.3333333   0.3849002   0.2694007  )
        18           Zn  tau(  18) = (   0.1666667   0.4811252   0.0003409  )
        19           O   tau(  19) = (   0.3333333   0.3849002   0.4733710  )
        20           O   tau(  20) = (   0.1666667   0.4811252   0.2043113  )
        21           Zn  tau(  21) = (   0.1666667   0.6735753   0.2694007  )
        22           Zn  tau(  22) = (   0.0000000   0.7698004   0.0003409  )
        23           O   tau(  23) = (   0.1666667   0.6735753   0.4733710  )
        24           O   tau(  24) = (   0.0000000   0.7698004   0.2043113  )
        25           Zn  tau(  25) = (   0.8333333   0.0962250   0.2694007  )
        26           Zn  tau(  26) = (   0.6666667   0.1924501   0.0003409  )
        27           O   tau(  27) = (   0.8333333   0.0962250   0.4733710  )
        28           O   tau(  28) = (   0.6666667   0.1924501   0.2043113  )
        29           Zn  tau(  29) = (   0.6666667   0.3849002   0.2694007  )
        30           Zn  tau(  30) = (   0.5000000   0.4811252   0.0003409  )
        31           O   tau(  31) = (   0.6666667   0.3849002   0.4733710  )
        32           O   tau(  32) = (   0.5000000   0.4811252   0.2043113  )
        33           Zn  tau(  33) = (   0.5000000   0.6735753   0.2694007  )
        34           Zn  tau(  34) = (   0.3333333   0.7698004   0.0003409  )
        35           O   tau(  35) = (   0.5000000   0.6735753   0.4733710  )
        36           O   tau(  36) = (   0.3333333   0.7698004   0.2043113  )

   Crystallographic axes

     site n.     atom                  positions (cryst. coord.)
         1           Zn  tau(   1) = (  0.2222222  0.1111111  0.5006336  )
         2           Zn  tau(   2) = (  0.1111111  0.2222222  0.0006336  )
         3           O   tau(   3) = (  0.2222222  0.1111111  0.8796764  )
         4           O   tau(   4) = (  0.1111111  0.2222222  0.3796764  )
         5           Zn  tau(   5) = (  0.2222222  0.4444444  0.5006336  )
         6           Zn  tau(   6) = (  0.1111111  0.5555556  0.0006336  )
         7           O   tau(   7) = (  0.2222222  0.4444444  0.8796764  )
         8           O   tau(   8) = (  0.1111111  0.5555556  0.3796764  )
         9           Zn  tau(   9) = (  0.2222222  0.7777778  0.5006336  )
        10           Zn  tau(  10) = (  0.1111111  0.8888889  0.0006336  )
        11           O   tau(  11) = (  0.2222222  0.7777778  0.8796764  )
        12           O   tau(  12) = (  0.1111111  0.8888889  0.3796764  )
        13           Zn  tau(  13) = (  0.5555556  0.1111111  0.5006336  )
        14           Zn  tau(  14) = (  0.4444444  0.2222222  0.0006336  )
        15           O   tau(  15) = (  0.5555556  0.1111111  0.8796764  )
        16           O   tau(  16) = (  0.4444444  0.2222222  0.3796764  )
        17           Zn  tau(  17) = (  0.5555556  0.4444444  0.5006336  )
        18           Zn  tau(  18) = (  0.4444444  0.5555556  0.0006336  )
        19           O   tau(  19) = (  0.5555556  0.4444444  0.8796764  )
        20           O   tau(  20) = (  0.4444444  0.5555556  0.3796764  )
        21           Zn  tau(  21) = (  0.5555556  0.7777778  0.5006336  )
        22           Zn  tau(  22) = (  0.4444444  0.8888889  0.0006336  )
        23           O   tau(  23) = (  0.5555556  0.7777778  0.8796764  )
        24           O   tau(  24) = (  0.4444444  0.8888889  0.3796764  )
        25           Zn  tau(  25) = (  0.8888889  0.1111111  0.5006336  )
        26           Zn  tau(  26) = (  0.7777778  0.2222222  0.0006336  )
        27           O   tau(  27) = (  0.8888889  0.1111111  0.8796764  )
        28           O   tau(  28) = (  0.7777778  0.2222222  0.3796764  )
        29           Zn  tau(  29) = (  0.8888889  0.4444444  0.5006336  )
        30           Zn  tau(  30) = (  0.7777778  0.5555556  0.0006336  )
        31           O   tau(  31) = (  0.8888889  0.4444444  0.8796764  )
        32           O   tau(  32) = (  0.7777778  0.5555556  0.3796764  )
        33           Zn  tau(  33) = (  0.8888889  0.7777778  0.5006336  )
        34           Zn  tau(  34) = (  0.7777778  0.8888889  0.0006336  )
        35           O   tau(  35) = (  0.8888889  0.7777778  0.8796764  )
        36           O   tau(  36) = (  0.7777778  0.8888889  0.3796764  )

     number of k points=     8
                       cart. coord. in units 2pi/alat
        k(    1) = (   0.0000000   0.0000000   0.0000000), wk =   0.0833333
        k(    2) = (   0.0000000   0.0000000   0.3097206), wk =   0.1666667
        k(    3) = (   0.0000000   0.0000000   0.6194412), wk =   0.1666667
        k(    4) = (   0.0000000   0.0000000  -0.9291617), wk =   0.0833333
        k(    5) = (   0.0000000  -0.5773503   0.0000000), wk =   0.2500000
        k(    6) = (   0.0000000  -0.5773503   0.3097206), wk =   0.5000000
        k(    7) = (   0.0000000  -0.5773503   0.6194412), wk =   0.5000000
        k(    8) = (   0.0000000  -0.5773503  -0.9291617), wk =   0.2500000

                       cryst. coord.
        k(    1) = (   0.0000000   0.0000000   0.0000000), wk =   0.0833333
[...]
     atom   19 type  2   force =     0.00000272   -0.00000157    0.00575245
     atom   20 type  2   force =     0.00000328   -0.00000189    0.00575268
     atom   21 type  1   force =    -0.00000563   -0.00000325   -0.00483092
     atom   22 type  1   force =     0.00000000   -0.00000372   -0.00483522
     atom   23 type  2   force =     0.00000126    0.00000073    0.00575272
     atom   24 type  2   force =     0.00000000    0.00000378    0.00575268
     atom   25 type  1   force =     0.00000538   -0.00000310   -0.00482793
     atom   26 type  1   force =     0.00000469   -0.00000271   -0.00483751
     atom   27 type  2   force =    -0.00000479    0.00000277    0.00575126
     atom   28 type  2   force =    -0.00000185    0.00000107    0.00575266
     atom   29 type  1   force =     0.00000655    0.00000378   -0.00482748
     atom   30 type  1   force =     0.00000000    0.00000542   -0.00483751
     atom   31 type  2   force =    -0.00000272   -0.00000157    0.00575245
     atom   32 type  2   force =     0.00000000   -0.00000214    0.00575266
     atom   33 type  1   force =     0.00000000    0.00000621   -0.00482793
     atom   34 type  1   force =     0.00000640    0.00000370   -0.00483748
     atom   35 type  2   force =     0.00000000   -0.00000553    0.00575126
     atom   36 type  2   force =    -0.00000079   -0.00000046    0.00575438
     The ionic contribution  to forces
     atom    1 type  1   force =     0.00000001    0.00000001    0.06271747
     atom    2 type  1   force =     0.00000000    0.00000002    0.06271747
     atom    3 type  2   force =     0.00000001    0.00000000   -0.06271747
     atom    4 type  2   force =    -0.00000000    0.00000001   -0.06271747
     atom    5 type  1   force =     0.00000001    0.00000001    0.06271747
     atom    6 type  1   force =     0.00000001   -0.00000000    0.06271747
     atom    7 type  2   force =     0.00000000    0.00000000   -0.06271747
     atom    8 type  2   force =     0.00000001    0.00000000   -0.06271747
     atom    9 type  1   force =     0.00000001   -0.00000001    0.06271747
     atom   10 type  1   force =     0.00000000   -0.00000000    0.06271747
     atom   11 type  2   force =     0.00000001   -0.00000000   -0.06271747
     atom   12 type  2   force =    -0.00000000    0.00000000   -0.06271747
     atom   13 type  1   force =    -0.00000001    0.00000001    0.06271747
     atom   14 type  1   force =     0.00000001    0.00000001    0.06271747
     atom   15 type  2   force =    -0.00000000    0.00000001   -0.06271747
     atom   16 type  2   force =     0.00000000    0.00000000   -0.06271747
     atom   17 type  1   force =    -0.00000001    0.00000001    0.06271747
     atom   18 type  1   force =     0.00000001   -0.00000001    0.06271747
     atom   19 type  2   force =    -0.00000001    0.00000001   -0.06271747
     atom   20 type  2   force =     0.00000001   -0.00000001   -0.06271747
     atom   21 type  1   force =    -0.00000001   -0.00000001    0.06271747
     atom   22 type  1   force =     0.00000001   -0.00000001    0.06271747
     atom   23 type  2   force =    -0.00000000   -0.00000000   -0.06271747
     atom   24 type  2   force =     0.00000000   -0.00000001   -0.06271747
     atom   25 type  1   force =    -0.00000000    0.00000000    0.06271747
     atom   26 type  1   force =    -0.00000001    0.00000001    0.06271747
     atom   27 type  2   force =     0.00000000   -0.00000000   -0.06271747
     atom   28 type  2   force =    -0.00000001    0.00000000   -0.06271747
     atom   29 type  1   force =    -0.00000001    0.00000000    0.06271747
     atom   30 type  1   force =    -0.00000001   -0.00000001    0.06271747
     atom   31 type  2   force =    -0.00000001   -0.00000000   -0.06271747
     atom   32 type  2   force =    -0.00000000   -0.00000000   -0.06271747
     atom   33 type  1   force =    -0.00000000   -0.00000002    0.06271747
     atom   34 type  1   force =    -0.00000001   -0.00000001    0.06271747
     atom   35 type  2   force =     0.00000000   -0.00000001   -0.06271747
     atom   36 type  2   force =    -0.00000001   -0.00000000   -0.06271747
     The local contribution  to forces
     atom    1 type  1   force =     0.00001657    0.00000957   -0.05830953
     atom    2 type  1   force =     0.00000000    0.00002034   -0.05826969
     atom    3 type  2   force =     0.00000492    0.00000284    0.05696892
     atom    4 type  2   force =     0.00000000    0.00000152    0.05696256
     atom    5 type  1   force =    -0.00000000   -0.00001781   -0.05829493
     atom    6 type  1   force =    -0.00000816   -0.00000486   -0.05828015
     atom    7 type  2   force =    -0.00000000   -0.00000354    0.05696906
     atom    8 type  2   force =    -0.00000520   -0.00000304    0.05696273
     atom    9 type  1   force =    -0.00001543    0.00000891   -0.05829493
     atom   10 type  1   force =     0.00001762   -0.00001017   -0.05826969
     atom   11 type  2   force =    -0.00000307    0.00000177    0.05696906
     atom   12 type  2   force =     0.00000132   -0.00000076    0.05696256
     atom   13 type  1   force =    -0.00000013    0.00002472   -0.05830583
     atom   14 type  1   force =     0.00001420    0.00000820   -0.05826548
     atom   15 type  2   force =    -0.00000004    0.00000580    0.05696984
     atom   16 type  2   force =     0.00000432    0.00000249    0.05696461
     atom   17 type  1   force =     0.00002122   -0.00001225   -0.05830583
     atom   18 type  1   force =     0.00000842   -0.00000486   -0.05828015
     atom   19 type  2   force =     0.00000497   -0.00000287    0.05696984
     atom   20 type  2   force =     0.00000527   -0.00000304    0.05696273
     atom   21 type  1   force =     0.00001542    0.00000891   -0.05829493
     atom   22 type  1   force =     0.00000013    0.00000950   -0.05828015
     atom   23 type  2   force =     0.00000306    0.00000177    0.05696906
     atom   24 type  2   force =     0.00000004    0.00000603    0.05696273
     atom   25 type  1   force =    -0.00001657    0.00000957   -0.05830953
     atom   26 type  1   force =    -0.00001420    0.00000820   -0.05826548
     atom   27 type  2   force =    -0.00000493    0.00000284    0.05696892
     atom   28 type  2   force =    -0.00000432    0.00000249    0.05696461
     atom   29 type  1   force =    -0.00002148   -0.00001225   -0.05830583
     atom   30 type  1   force =     0.00000000   -0.00001640   -0.05826548
     atom   31 type  2   force =    -0.00000504   -0.00000287    0.05696984
     atom   32 type  2   force =     0.00000000   -0.00000499    0.05696461
     atom   33 type  1   force =    -0.00000000   -0.00001913   -0.05830953
     atom   34 type  1   force =    -0.00001762   -0.00001017   -0.05826969
     atom   35 type  2   force =    -0.00000000   -0.00000569    0.05696892
     atom   36 type  2   force =    -0.00000132   -0.00000076    0.05696256
     The core correction contribution to forces
     atom    1 type  1   force =    -0.00000022   -0.00000013    0.00046471
     atom    2 type  1   force =     0.00000000   -0.00000017    0.00046357
     atom    3 type  2   force =    -0.00000006   -0.00000003   -0.00006499
     atom    4 type  2   force =     0.00000000   -0.00000002   -0.00006504
     atom    5 type  1   force =    -0.00000000    0.00000011    0.00046415
     atom    6 type  1   force =     0.00000002   -0.00000001    0.00046397
     atom    7 type  2   force =    -0.00000000    0.00000002   -0.00006501
     atom    8 type  2   force =     0.00000004    0.00000002   -0.00006502
     atom    9 type  1   force =     0.00000010   -0.00000006    0.00046415
     atom   10 type  1   force =    -0.00000015    0.00000009    0.00046357
     atom   11 type  2   force =     0.00000001   -0.00000001   -0.00006501
     atom   12 type  2   force =    -0.00000001    0.00000001   -0.00006504
     atom   13 type  1   force =    -0.00000002   -0.00000048    0.00046443
     atom   14 type  1   force =    -0.00000024   -0.00000014    0.00046339
     atom   15 type  2   force =     0.00000000   -0.00000003   -0.00006500
     atom   16 type  2   force =    -0.00000002   -0.00000001   -0.00006501
     atom   17 type  1   force =    -0.00000044    0.00000026    0.00046443
     atom   18 type  1   force =     0.00000002   -0.00000001    0.00046397
     atom   19 type  2   force =    -0.00000003    0.00000002   -0.00006500
     atom   20 type  2   force =    -0.00000004    0.00000002   -0.00006502
     atom   21 type  1   force =    -0.00000010   -0.00000006    0.00046415
     atom   22 type  1   force =     0.00000002   -0.00000001    0.00046397
     atom   23 type  2   force =    -0.00000001   -0.00000001   -0.00006501
     atom   24 type  2   force =    -0.00000000   -0.00000004   -0.00006502
     atom   25 type  1   force =     0.00000022   -0.00000013    0.00046471
     atom   26 type  1   force =     0.00000024   -0.00000014    0.00046339
     atom   27 type  2   force =     0.00000006   -0.00000003   -0.00006499
     atom   28 type  2   force =     0.00000002   -0.00000001   -0.00006501
     atom   29 type  1   force =     0.00000041    0.00000026    0.00046443
     atom   30 type  1   force =     0.00000000    0.00000028    0.00046339
     atom   31 type  2   force =     0.00000003    0.00000002   -0.00006500
     atom   32 type  2   force =     0.00000000    0.00000002   -0.00006501
     atom   33 type  1   force =    -0.00000000    0.00000025    0.00046471
     atom   34 type  1   force =     0.00000015    0.00000009    0.00046357
     atom   35 type  2   force =    -0.00000000    0.00000007   -0.00006499
     atom   36 type  2   force =     0.00000001    0.00000001   -0.00006504
     The Hubbard contrib.    to forces
     atom    1 type  1   force =     0.00000000    0.00000000    0.00000000
     atom    2 type  1   force =     0.00000000    0.00000000    0.00000000
     atom    3 type  2   force =     0.00000000    0.00000000    0.00000000
     atom    4 type  2   force =     0.00000000    0.00000000    0.00000000
     atom    5 type  1   force =     0.00000000    0.00000000    0.00000000
     atom    6 type  1   force =     0.00000000    0.00000000    0.00000000
     atom    7 type  2   force =     0.00000000    0.00000000    0.00000000
     atom    8 type  2   force =     0.00000000    0.00000000    0.00000000
     atom    9 type  1   force =     0.00000000    0.00000000    0.00000000
     atom   10 type  1   force =     0.00000000    0.00000000    0.00000000
     atom   11 type  2   force =     0.00000000    0.00000000    0.00000000
     atom   12 type  2   force =     0.00000000    0.00000000    0.00000000
     atom   13 type  1   force =     0.00000000    0.00000000    0.00000000
     atom   14 type  1   force =     0.00000000    0.00000000    0.00000000
     atom   15 type  2   force =     0.00000000    0.00000000    0.00000000
     atom   16 type  2   force =     0.00000000    0.00000000    0.00000000
     atom   17 type  1   force =     0.00000000    0.00000000    0.00000000
     atom   18 type  1   force =     0.00000000    0.00000000    0.00000000
     atom   19 type  2   force =     0.00000000    0.00000000    0.00000000
     atom   20 type  2   force =     0.00000000    0.00000000    0.00000000
     atom   21 type  1   force =     0.00000000    0.00000000    0.00000000
     atom   22 type  1   force =     0.00000000    0.00000000    0.00000000
     atom   23 type  2   force =     0.00000000    0.00000000    0.00000000
     atom   24 type  2   force =     0.00000000    0.00000000    0.00000000
     atom   25 type  1   force =     0.00000000    0.00000000    0.00000000
     atom   26 type  1   force =     0.00000000    0.00000000    0.00000000
     atom   27 type  2   force =     0.00000000    0.00000000    0.00000000
     atom   28 type  2   force =     0.00000000    0.00000000    0.00000000
     atom   29 type  1   force =     0.00000000    0.00000000    0.00000000
     atom   30 type  1   force =     0.00000000    0.00000000    0.00000000
     atom   31 type  2   force =     0.00000000    0.00000000    0.00000000
     atom   32 type  2   force =     0.00000000    0.00000000    0.00000000
     atom   33 type  1   force =     0.00000000    0.00000000    0.00000000
     atom   34 type  1   force =     0.00000000    0.00000000    0.00000000
     atom   35 type  2   force =     0.00000000    0.00000000    0.00000000
     atom   36 type  2   force =     0.00000000    0.00000000    0.00000000
     The SCF correction term to forces
     atom    1 type  1   force =    -0.00002154   -0.00001243    0.00002491
     atom    2 type  1   force =     0.00000000   -0.00002522   -0.00002459
     atom    3 type  2   force =    -0.00000917   -0.00000529   -0.00000158
     atom    4 type  2   force =     0.00000000   -0.00000263    0.00000245
     atom    5 type  1   force =     0.00000000    0.00002297    0.00000825
     atom    6 type  1   force =     0.00001196    0.00000690   -0.00001278
     atom    7 type  2   force =    -0.00000000    0.00000541   -0.00000272
     atom    8 type  2   force =     0.00000865    0.00000500    0.00000376
     atom    9 type  1   force =     0.00001989   -0.00001148    0.00000825
     atom   10 type  1   force =    -0.00002184    0.00001261   -0.00002459
     atom   11 type  2   force =     0.00000468   -0.00000270   -0.00000272
     atom   12 type  2   force =    -0.00000228    0.00000131    0.00000245
     atom   13 type  1   force =    -0.00000000   -0.00002960    0.00001932
     atom   14 type  1   force =    -0.00001717   -0.00000992   -0.00003182
     atom   15 type  2   force =    -0.00000000   -0.00000846   -0.00000360
     atom   16 type  2   force =    -0.00000591   -0.00000341    0.00000209
     atom   17 type  1   force =    -0.00002563    0.00001480    0.00001932
     atom   18 type  1   force =    -0.00001196    0.00000690   -0.00001278
     atom   19 type  2   force =    -0.00000733    0.00000423   -0.00000360
     atom   20 type  2   force =    -0.00000865    0.00000500    0.00000376
     atom   21 type  1   force =    -0.00001989   -0.00001148    0.00000825
     atom   22 type  1   force =     0.00000000   -0.00001381   -0.00001278
     atom   23 type  2   force =    -0.00000468   -0.00000270   -0.00000272
     atom   24 type  2   force =     0.00000000   -0.00000999    0.00000376
     atom   25 type  1   force =     0.00002154   -0.00001243    0.00002491
     atom   26 type  1   force =     0.00001717   -0.00000992   -0.00003182
     atom   27 type  2   force =     0.00000917   -0.00000529   -0.00000158
     atom   28 type  2   force =     0.00000591   -0.00000341    0.00000209
     atom   29 type  1   force =     0.00002563    0.00001480    0.00001932
     atom   30 type  1   force =    -0.00000000    0.00001983   -0.00003182
     atom   31 type  2   force =     0.00000733    0.00000423   -0.00000360
     atom   32 type  2   force =     0.00000000    0.00000682    0.00000209
     atom   33 type  1   force =    -0.00000000    0.00002487    0.00002491
     atom   34 type  1   force =     0.00002184    0.00001261   -0.00002459
     atom   35 type  2   force =    -0.00000000    0.00001059   -0.00000158
     atom   36 type  2   force =     0.00000228    0.00000131    0.00000245

     Total force =     0.000371     Total SCF correction =     0.000140
     SCF correction compared to forces is large: reduce conv_thr to get better values

     General routines

     Parallel routines

   This run was terminated on:  22: 3:16  30Jul2025

   JOB DONE.
Note: The following floating-point exceptions are signalling: IEEE_DENORMAL
Note: The following floating-point exceptions are signalling: IEEE_DENORMAL
Note: The following floating-point exceptions are signalling: IEEE_DENORMAL
Note: The following floating-point exceptions are signalling: IEEE_DENORMAL
Note: The following floating-point exceptions are signalling: IEEE_DENORMAL
Note: The following floating-point exceptions are signalling: IEEE_DENORMAL
Note: The following floating-point exceptions are signalling: IEEE_INVALID_FLAG
Note: The following floating-point exceptions are signalling: IEEE_INVALID_FLAG
Note: The following floating-point exceptions are signalling: IEEE_INVALID_FLAG
Note: The following floating-point exceptions are signalling: IEEE_DENORMAL
Note: The following floating-point exceptions are signalling: IEEE_DENORMAL
Note: The following floating-point exceptions are signalling: IEEE_INVALID_FLAG
Note: The following floating-point exceptions are signalling: IEEE_INVALID_FLAG
Note: The following floating-point exceptions are signalling: IEEE_INVALID_FLAG
Note: The following floating-point exceptions are signalling: IEEE_INVALID_FLAG
Note: The following floating-point exceptions are signalling: IEEE_INVALID_FLAG