     Program PWSCF v.7.2 starts on 31Jul2025 at  2:33:16

     Reading input from /home/jvc/QEspresso7.2/ZnO_database/scripts/cell331.in/ZnO-3.53-1.52-331.in
Warning: card &CELL ignored
Warning: card / ignored
Warning: card &FCP ignored
Warning: card / ignored
Warning: card &RISM ignored
Warning: card / ignored

     Current dimensions of program PWSCF are:
     Max number of different atomic species (ntypx) = 10
     Max number of k-points (npk) =  40000
     Max angular momentum in pseudopotentials (lmaxx) =  4
     file Zn.upf: wavefunction(s)  3D renormalized
     Found identity + ( -0.0000  0.3333  0.0000) symmetry
     This is a supercell, fractional translations are disabled
     Message from routine setup:
     using ibrav=0 with symmetry is DISCOURAGED, use correct ibrav instead

     K-points division:     npool     =       8
     R & G space division:  proc/nbgrp/npool/nimage =       4
     Subspace diagonalization in iterative solution of the eigenvalue problem:
     one sub-group per band group will be used

     Using Slab Decomposition

     bravais-lattice index     =            0
     lattice parameter (alat)  =      18.5365  a.u.
     unit-cell volume          =    2968.1791 (a.u.)^3
     number of atoms/cell      =           36
     number of atomic types    =            2
     number of electrons       =       324.00
     number of Kohn-Sham states=          162
     kinetic-energy cutoff     =      50.0000  Ry
     charge density cutoff     =     400.0000  Ry
     scf convergence threshold =      1.0E-08
     mixing beta               =       0.3000
     number of iterations used =            8  plain     mixing
     Exchange-correlation= PBE
                           (   1   4   3   4   0   0   0)

     celldm(1)=  18.536466  celldm(2)=   0.000000  celldm(3)=   0.000000
     celldm(4)=   0.000000  celldm(5)=   0.000000  celldm(6)=   0.000000

     crystal axes: (cart. coord. in units of alat)
               a(1) = (   1.000000   0.000000   0.000000 )
               a(2) = (  -0.500000   0.866025   0.000000 )
               a(3) = (   0.000000   0.000000   0.538119 )

     reciprocal axes: (cart. coord. in units 2 pi/alat)
               b(1) = (  1.000000  0.577350 -0.000000 )
               b(2) = (  0.000000  1.154701  0.000000 )
               b(3) = (  0.000000 -0.000000  1.858323 )

     PseudoPot. # 1 for Zn read from file:
     /home/jvc/QEspresso7.2/ZnO_database/pseudos/Zn.upf
     MD5 check sum: 7f56cabf9682ed8c977c2f7d0c5985c5
     Pseudo is Ultrasoft + core correction, Zval = 12.0
     Generated using &quot;atomic&quot; code by A. Dal Corso  v.6.2.2
     Using radial grid of 1201 points,  6 beta functions with:
                l(1) =   0
                l(2) =   0
                l(3) =   1
                l(4) =   1
                l(5) =   2
                l(6) =   2
     Q(r) pseudized with 0 coefficients

     PseudoPot. # 2 for O  read from file:
     /home/jvc/QEspresso7.2/ZnO_database/pseudos/O.upf
     MD5 check sum: 91400c9766925bcf19f520983a725ff0
     Pseudo is Ultrasoft + core correction, Zval =  6.0
     Generated using &quot;atomic&quot; code by A. Dal Corso  v.6.3MaX
     Using radial grid of 1095 points,  4 beta functions with:
                l(1) =   0
                l(2) =   0
                l(3) =   1
                l(4) =   1
     Q(r) pseudized with 0 coefficients

     atomic species   valence    mass     pseudopotential
        Zn            12.00    65.38000     Zn( 1.00)
        O              6.00    15.99900     O ( 1.00)

      6 Sym. Ops. (no inversion) found

                                    s                        frac. trans.

      isym =  1     identity

 cryst.   s( 1) = (     1          0          0      )
                  (     0          1          0      )
                  (     0          0          1      )

 cart.    s( 1) = (  1.0000000  0.0000000  0.0000000 )
                  (  0.0000000  1.0000000  0.0000000 )
                  (  0.0000000  0.0000000  1.0000000 )

      isym =  2     120 deg rotation - cryst. axis [0,0,1]

[...]

      isym =  3     120 deg rotation - cryst. axis [0,0,-1]

[...]

      isym =  4     inv. 180 deg rotation - cart. axis [1,0,0]

[...]

      isym =  5     inv. 180 deg rotation - cryst. axis [0,1,0]

[...]

      isym =  6     inv. 180 deg rotation - cryst. axis [1,1,0]

 cryst.   s( 6) = (     0         -1          0      )
                  (    -1          0          0      )
                  (     0          0          1      )

 cart.    s( 6) = (  0.5000000 -0.8660254  0.0000000 )
                  ( -0.8660254 -0.5000000  0.0000000 )
                  (  0.0000000  0.0000000  1.0000000 )

   Cartesian axes

     site n.     atom                  positions (alat units)
         1           Zn  tau(   1) = (   0.1666667   0.0962250   0.2694007  )
         2           Zn  tau(   2) = (   0.0000000   0.1924501   0.0003409  )
         3           O   tau(   3) = (   0.1666667   0.0962250   0.4733710  )
         4           O   tau(   4) = (   0.0000000   0.1924501   0.2043113  )
         5           Zn  tau(   5) = (   0.0000000   0.3849002   0.2694007  )
         6           Zn  tau(   6) = (  -0.1666667   0.4811252   0.0003409  )
         7           O   tau(   7) = (   0.0000000   0.3849002   0.4733710  )
         8           O   tau(   8) = (  -0.1666667   0.4811252   0.2043113  )
         9           Zn  tau(   9) = (  -0.1666667   0.6735753   0.2694007  )
        10           Zn  tau(  10) = (  -0.3333333   0.7698004   0.0003409  )
        11           O   tau(  11) = (  -0.1666667   0.6735753   0.4733710  )
        12           O   tau(  12) = (  -0.3333333   0.7698004   0.2043113  )
        13           Zn  tau(  13) = (   0.5000000   0.0962250   0.2694007  )
        14           Zn  tau(  14) = (   0.3333333   0.1924501   0.0003409  )
        15           O   tau(  15) = (   0.5000000   0.0962250   0.4733710  )
        16           O   tau(  16) = (   0.3333333   0.1924501   0.2043113  )
        17           Zn  tau(  17) = (   0.3333333   0.3849002   0.2694007  )
        18           Zn  tau(  18) = (   0.1666667   0.4811252   0.0003409  )
        19           O   tau(  19) = (   0.3333333   0.3849002   0.4733710  )
        20           O   tau(  20) = (   0.1666667   0.4811252   0.2043113  )
        21           Zn  tau(  21) = (   0.1666667   0.6735753   0.2694007  )
        22           Zn  tau(  22) = (   0.0000000   0.7698004   0.0003409  )
        23           O   tau(  23) = (   0.1666667   0.6735753   0.4733710  )
        24           O   tau(  24) = (   0.0000000   0.7698004   0.2043113  )
        25           Zn  tau(  25) = (   0.8333333   0.0962250   0.2694007  )
        26           Zn  tau(  26) = (   0.6666667   0.1924501   0.0003409  )
        27           O   tau(  27) = (   0.8333333   0.0962250   0.4733710  )
        28           O   tau(  28) = (   0.6666667   0.1924501   0.2043113  )
        29           Zn  tau(  29) = (   0.6666667   0.3849002   0.2694007  )
        30           Zn  tau(  30) = (   0.5000000   0.4811252   0.0003409  )
        31           O   tau(  31) = (   0.6666667   0.3849002   0.4733710  )
        32           O   tau(  32) = (   0.5000000   0.4811252   0.2043113  )
        33           Zn  tau(  33) = (   0.5000000   0.6735753   0.2694007  )
        34           Zn  tau(  34) = (   0.3333333   0.7698004   0.0003409  )
        35           O   tau(  35) = (   0.5000000   0.6735753   0.4733710  )
        36           O   tau(  36) = (   0.3333333   0.7698004   0.2043113  )

   Crystallographic axes

     site n.     atom                  positions (cryst. coord.)
         1           Zn  tau(   1) = (  0.2222222  0.1111111  0.5006336  )
         2           Zn  tau(   2) = (  0.1111111  0.2222222  0.0006336  )
         3           O   tau(   3) = (  0.2222222  0.1111111  0.8796764  )
         4           O   tau(   4) = (  0.1111111  0.2222222  0.3796764  )
         5           Zn  tau(   5) = (  0.2222222  0.4444444  0.5006336  )
         6           Zn  tau(   6) = (  0.1111111  0.5555556  0.0006336  )
         7           O   tau(   7) = (  0.2222222  0.4444444  0.8796764  )
         8           O   tau(   8) = (  0.1111111  0.5555556  0.3796764  )
         9           Zn  tau(   9) = (  0.2222222  0.7777778  0.5006336  )
        10           Zn  tau(  10) = (  0.1111111  0.8888889  0.0006336  )
        11           O   tau(  11) = (  0.2222222  0.7777778  0.8796764  )
        12           O   tau(  12) = (  0.1111111  0.8888889  0.3796764  )
        13           Zn  tau(  13) = (  0.5555556  0.1111111  0.5006336  )
        14           Zn  tau(  14) = (  0.4444444  0.2222222  0.0006336  )
        15           O   tau(  15) = (  0.5555556  0.1111111  0.8796764  )
        16           O   tau(  16) = (  0.4444444  0.2222222  0.3796764  )
        17           Zn  tau(  17) = (  0.5555556  0.4444444  0.5006336  )
        18           Zn  tau(  18) = (  0.4444444  0.5555556  0.0006336  )
        19           O   tau(  19) = (  0.5555556  0.4444444  0.8796764  )
        20           O   tau(  20) = (  0.4444444  0.5555556  0.3796764  )
        21           Zn  tau(  21) = (  0.5555556  0.7777778  0.5006336  )
        22           Zn  tau(  22) = (  0.4444444  0.8888889  0.0006336  )
        23           O   tau(  23) = (  0.5555556  0.7777778  0.8796764  )
        24           O   tau(  24) = (  0.4444444  0.8888889  0.3796764  )
        25           Zn  tau(  25) = (  0.8888889  0.1111111  0.5006336  )
        26           Zn  tau(  26) = (  0.7777778  0.2222222  0.0006336  )
        27           O   tau(  27) = (  0.8888889  0.1111111  0.8796764  )
        28           O   tau(  28) = (  0.7777778  0.2222222  0.3796764  )
        29           Zn  tau(  29) = (  0.8888889  0.4444444  0.5006336  )
        30           Zn  tau(  30) = (  0.7777778  0.5555556  0.0006336  )
        31           O   tau(  31) = (  0.8888889  0.4444444  0.8796764  )
        32           O   tau(  32) = (  0.7777778  0.5555556  0.3796764  )
        33           Zn  tau(  33) = (  0.8888889  0.7777778  0.5006336  )
        34           Zn  tau(  34) = (  0.7777778  0.8888889  0.0006336  )
        35           O   tau(  35) = (  0.8888889  0.7777778  0.8796764  )
        36           O   tau(  36) = (  0.7777778  0.8888889  0.3796764  )

     number of k points=     8
                       cart. coord. in units 2pi/alat
        k(    1) = (   0.0000000   0.0000000   0.0000000), wk =   0.0833333
        k(    2) = (   0.0000000   0.0000000   0.3097206), wk =   0.1666667
        k(    3) = (   0.0000000   0.0000000   0.6194412), wk =   0.1666667
        k(    4) = (   0.0000000   0.0000000  -0.9291617), wk =   0.0833333
        k(    5) = (   0.0000000  -0.5773503   0.0000000), wk =   0.2500000
        k(    6) = (   0.0000000  -0.5773503   0.3097206), wk =   0.5000000
        k(    7) = (   0.0000000  -0.5773503   0.6194412), wk =   0.5000000
        k(    8) = (   0.0000000  -0.5773503  -0.9291617), wk =   0.2500000

                       cryst. coord.
        k(    1) = (   0.0000000   0.0000000   0.0000000), wk =   0.0833333
[...]
     atom   19 type  2   force =     0.00000119   -0.00000069    0.00575294
     atom   20 type  2   force =     0.00000006   -0.00000003    0.00575426
     atom   21 type  1   force =    -0.00000064   -0.00000037   -0.00483118
     atom   22 type  1   force =     0.00000000   -0.00000022   -0.00483406
     atom   23 type  2   force =    -0.00000038   -0.00000022    0.00575206
     atom   24 type  2   force =     0.00000000    0.00000007    0.00575426
     atom   25 type  1   force =     0.00000123   -0.00000071   -0.00482997
     atom   26 type  1   force =     0.00000305   -0.00000176   -0.00483542
     atom   27 type  2   force =    -0.00000163    0.00000094    0.00575224
     atom   28 type  2   force =    -0.00000091    0.00000052    0.00575347
     atom   29 type  1   force =     0.00000316    0.00000182   -0.00482925
     atom   30 type  1   force =     0.00000000    0.00000352   -0.00483542
     atom   31 type  2   force =    -0.00000119   -0.00000069    0.00575294
     atom   32 type  2   force =     0.00000000   -0.00000105    0.00575347
     atom   33 type  1   force =     0.00000000    0.00000142   -0.00482997
     atom   34 type  1   force =     0.00000246    0.00000142   -0.00483616
     atom   35 type  2   force =    -0.00000000   -0.00000188    0.00575224
     atom   36 type  2   force =    -0.00000041   -0.00000024    0.00575467
     The ionic contribution  to forces
     atom    1 type  1   force =     0.00000001    0.00000001    0.06271747
     atom    2 type  1   force =     0.00000000    0.00000002    0.06271747
     atom    3 type  2   force =     0.00000001    0.00000000   -0.06271747
     atom    4 type  2   force =    -0.00000000    0.00000001   -0.06271747
     atom    5 type  1   force =     0.00000001    0.00000001    0.06271747
     atom    6 type  1   force =     0.00000001   -0.00000000    0.06271747
     atom    7 type  2   force =     0.00000000    0.00000000   -0.06271747
     atom    8 type  2   force =     0.00000001    0.00000000   -0.06271747
     atom    9 type  1   force =     0.00000001   -0.00000001    0.06271747
     atom   10 type  1   force =     0.00000000   -0.00000000    0.06271747
     atom   11 type  2   force =     0.00000001   -0.00000000   -0.06271747
     atom   12 type  2   force =    -0.00000000    0.00000000   -0.06271747
     atom   13 type  1   force =    -0.00000001    0.00000001    0.06271747
     atom   14 type  1   force =     0.00000001    0.00000001    0.06271747
     atom   15 type  2   force =    -0.00000000    0.00000001   -0.06271747
     atom   16 type  2   force =     0.00000000    0.00000000   -0.06271747
     atom   17 type  1   force =    -0.00000001    0.00000001    0.06271747
     atom   18 type  1   force =     0.00000001   -0.00000001    0.06271747
     atom   19 type  2   force =    -0.00000001    0.00000001   -0.06271747
     atom   20 type  2   force =     0.00000001   -0.00000001   -0.06271747
     atom   21 type  1   force =    -0.00000001   -0.00000001    0.06271747
     atom   22 type  1   force =     0.00000001   -0.00000001    0.06271747
     atom   23 type  2   force =    -0.00000000   -0.00000000   -0.06271747
     atom   24 type  2   force =     0.00000000   -0.00000001   -0.06271747
     atom   25 type  1   force =    -0.00000000    0.00000000    0.06271747
     atom   26 type  1   force =    -0.00000001    0.00000001    0.06271747
     atom   27 type  2   force =     0.00000000   -0.00000000   -0.06271747
     atom   28 type  2   force =    -0.00000001    0.00000000   -0.06271747
     atom   29 type  1   force =    -0.00000001    0.00000000    0.06271747
     atom   30 type  1   force =    -0.00000001   -0.00000001    0.06271747
     atom   31 type  2   force =    -0.00000001   -0.00000000   -0.06271747
     atom   32 type  2   force =    -0.00000000   -0.00000000   -0.06271747
     atom   33 type  1   force =    -0.00000000   -0.00000002    0.06271747
     atom   34 type  1   force =    -0.00000001   -0.00000001    0.06271747
     atom   35 type  2   force =     0.00000000   -0.00000001   -0.06271747
     atom   36 type  2   force =    -0.00000001   -0.00000000   -0.06271747
     The local contribution  to forces
     atom    1 type  1   force =     0.00000741    0.00000428   -0.05830442
     atom    2 type  1   force =     0.00000000    0.00001108   -0.05827397
     atom    3 type  2   force =     0.00000249    0.00000144    0.05696910
     atom    4 type  2   force =     0.00000000    0.00000118    0.05696176
     atom    5 type  1   force =    -0.00000000   -0.00000639   -0.05829451
     atom    6 type  1   force =    -0.00000159   -0.00000107   -0.05828263
     atom    7 type  2   force =    -0.00000000   -0.00000014    0.05696888
     atom    8 type  2   force =    -0.00000276   -0.00000164    0.05696322
     atom    9 type  1   force =    -0.00000554    0.00000320   -0.05829451
     atom   10 type  1   force =     0.00000960   -0.00000554   -0.05827397
     atom   11 type  2   force =    -0.00000012    0.00000007    0.05696888
     atom   12 type  2   force =     0.00000102   -0.00000059    0.05696176
     atom   13 type  1   force =    -0.00000013    0.00001356   -0.05830226
     atom   14 type  1   force =     0.00000965    0.00000557   -0.05827200
     atom   15 type  2   force =    -0.00000004    0.00000307    0.05696951
     atom   16 type  2   force =     0.00000287    0.00000165    0.05696261
     atom   17 type  1   force =     0.00001155   -0.00000667   -0.05830226
     atom   18 type  1   force =     0.00000185   -0.00000107   -0.05828263
     atom   19 type  2   force =     0.00000261   -0.00000151    0.05696951
     atom   20 type  2   force =     0.00000283   -0.00000164    0.05696322
     atom   21 type  1   force =     0.00000554    0.00000320   -0.05829451
     atom   22 type  1   force =     0.00000013    0.00000191   -0.05828263
     atom   23 type  2   force =     0.00000012    0.00000007    0.05696888
     atom   24 type  2   force =     0.00000004    0.00000321    0.05696322
     atom   25 type  1   force =    -0.00000742    0.00000428   -0.05830442
     atom   26 type  1   force =    -0.00000964    0.00000557   -0.05827200
     atom   27 type  2   force =    -0.00000249    0.00000144    0.05696910
     atom   28 type  2   force =    -0.00000287    0.00000165    0.05696261
     atom   29 type  1   force =    -0.00001181   -0.00000667   -0.05830226
     atom   30 type  1   force =     0.00000000   -0.00001114   -0.05827200
     atom   31 type  2   force =    -0.00000268   -0.00000151    0.05696951
     atom   32 type  2   force =     0.00000000   -0.00000331    0.05696261
     atom   33 type  1   force =    -0.00000000   -0.00000856   -0.05830442
     atom   34 type  1   force =    -0.00000959   -0.00000554   -0.05827397
     atom   35 type  2   force =    -0.00000000   -0.00000287    0.05696910
     atom   36 type  2   force =    -0.00000102   -0.00000059    0.05696176
     The core correction contribution to forces
     atom    1 type  1   force =    -0.00000015   -0.00000009    0.00046460
     atom    2 type  1   force =     0.00000000   -0.00000022    0.00046362
     atom    3 type  2   force =    -0.00000002   -0.00000001   -0.00006500
     atom    4 type  2   force =     0.00000000   -0.00000001   -0.00006504
     atom    5 type  1   force =    -0.00000000    0.00000014    0.00046414
     atom    6 type  1   force =     0.00000001   -0.00000001    0.00046389
     atom    7 type  2   force =    -0.00000000    0.00000000   -0.00006500
     atom    8 type  2   force =    -0.00000000   -0.00000000   -0.00006503
     atom    9 type  1   force =     0.00000012   -0.00000007    0.00046414
     atom   10 type  1   force =    -0.00000019    0.00000011    0.00046362
     atom   11 type  2   force =     0.00000000   -0.00000000   -0.00006500
     atom   12 type  2   force =    -0.00000001    0.00000000   -0.00006504
     atom   13 type  1   force =    -0.00000002   -0.00000029    0.00046434
     atom   14 type  1   force =    -0.00000016   -0.00000009    0.00046349
     atom   15 type  2   force =     0.00000000   -0.00000001   -0.00006501
     atom   16 type  2   force =    -0.00000001   -0.00000000   -0.00006502
     atom   17 type  1   force =    -0.00000028    0.00000016    0.00046434
     atom   18 type  1   force =     0.00000003   -0.00000001    0.00046389
     atom   19 type  2   force =    -0.00000001    0.00000001   -0.00006501
     atom   20 type  2   force =     0.00000000   -0.00000000   -0.00006503
     atom   21 type  1   force =    -0.00000012   -0.00000007    0.00046414
     atom   22 type  1   force =     0.00000002    0.00000000    0.00046389
     atom   23 type  2   force =    -0.00000000   -0.00000000   -0.00006500
     atom   24 type  2   force =    -0.00000000    0.00000000   -0.00006503
     atom   25 type  1   force =     0.00000015   -0.00000009    0.00046460
     atom   26 type  1   force =     0.00000016   -0.00000009    0.00046349
     atom   27 type  2   force =     0.00000002   -0.00000001   -0.00006500
     atom   28 type  2   force =     0.00000001   -0.00000000   -0.00006502
     atom   29 type  1   force =     0.00000024    0.00000016    0.00046434
     atom   30 type  1   force =     0.00000000    0.00000018    0.00046349
     atom   31 type  2   force =     0.00000001    0.00000001   -0.00006501
     atom   32 type  2   force =     0.00000000    0.00000001   -0.00006502
     atom   33 type  1   force =    -0.00000000    0.00000018    0.00046460
     atom   34 type  1   force =     0.00000019    0.00000011    0.00046362
     atom   35 type  2   force =    -0.00000000    0.00000003   -0.00006500
     atom   36 type  2   force =     0.00000001    0.00000000   -0.00006504
     The Hubbard contrib.    to forces
     atom    1 type  1   force =     0.00000000    0.00000000    0.00000000
     atom    2 type  1   force =     0.00000000    0.00000000    0.00000000
     atom    3 type  2   force =     0.00000000    0.00000000    0.00000000
     atom    4 type  2   force =     0.00000000    0.00000000    0.00000000
     atom    5 type  1   force =     0.00000000    0.00000000    0.00000000
     atom    6 type  1   force =     0.00000000    0.00000000    0.00000000
     atom    7 type  2   force =     0.00000000    0.00000000    0.00000000
     atom    8 type  2   force =     0.00000000    0.00000000    0.00000000
     atom    9 type  1   force =     0.00000000    0.00000000    0.00000000
     atom   10 type  1   force =     0.00000000    0.00000000    0.00000000
     atom   11 type  2   force =     0.00000000    0.00000000    0.00000000
     atom   12 type  2   force =     0.00000000    0.00000000    0.00000000
     atom   13 type  1   force =     0.00000000    0.00000000    0.00000000
     atom   14 type  1   force =     0.00000000    0.00000000    0.00000000
     atom   15 type  2   force =     0.00000000    0.00000000    0.00000000
     atom   16 type  2   force =     0.00000000    0.00000000    0.00000000
     atom   17 type  1   force =     0.00000000    0.00000000    0.00000000
     atom   18 type  1   force =     0.00000000    0.00000000    0.00000000
     atom   19 type  2   force =     0.00000000    0.00000000    0.00000000
     atom   20 type  2   force =     0.00000000    0.00000000    0.00000000
     atom   21 type  1   force =     0.00000000    0.00000000    0.00000000
     atom   22 type  1   force =     0.00000000    0.00000000    0.00000000
     atom   23 type  2   force =     0.00000000    0.00000000    0.00000000
     atom   24 type  2   force =     0.00000000    0.00000000    0.00000000
     atom   25 type  1   force =     0.00000000    0.00000000    0.00000000
     atom   26 type  1   force =     0.00000000    0.00000000    0.00000000
     atom   27 type  2   force =     0.00000000    0.00000000    0.00000000
     atom   28 type  2   force =     0.00000000    0.00000000    0.00000000
     atom   29 type  1   force =     0.00000000    0.00000000    0.00000000
     atom   30 type  1   force =     0.00000000    0.00000000    0.00000000
     atom   31 type  2   force =     0.00000000    0.00000000    0.00000000
     atom   32 type  2   force =     0.00000000    0.00000000    0.00000000
     atom   33 type  1   force =     0.00000000    0.00000000    0.00000000
     atom   34 type  1   force =     0.00000000    0.00000000    0.00000000
     atom   35 type  2   force =     0.00000000    0.00000000    0.00000000
     atom   36 type  2   force =     0.00000000    0.00000000    0.00000000
     The SCF correction term to forces
     atom    1 type  1   force =    -0.00001247   -0.00000720    0.00002034
     atom    2 type  1   force =     0.00000000   -0.00001500   -0.00001936
     atom    3 type  2   force =    -0.00000412   -0.00000238   -0.00000216
     atom    4 type  2   force =     0.00000000   -0.00000232    0.00000337
     atom    5 type  1   force =     0.00000000    0.00001158    0.00000790
     atom    6 type  1   force =     0.00000447    0.00000258   -0.00000905
     atom    7 type  2   force =     0.00000000    0.00000082   -0.00000190
     atom    8 type  2   force =     0.00000350    0.00000202    0.00000233
     atom    9 type  1   force =     0.00001003   -0.00000579    0.00000790
     atom   10 type  1   force =    -0.00001299    0.00000750   -0.00001936
     atom   11 type  2   force =     0.00000071   -0.00000041   -0.00000190
     atom   12 type  2   force =    -0.00000201    0.00000116    0.00000337
     atom   13 type  1   force =    -0.00000000   -0.00001777    0.00001777
     atom   14 type  1   force =    -0.00001225   -0.00000707   -0.00002458
     atom   15 type  2   force =    -0.00000000   -0.00000445   -0.00000331
     atom   16 type  2   force =    -0.00000370   -0.00000214    0.00000347
     atom   17 type  1   force =    -0.00001539    0.00000888    0.00001777
     atom   18 type  1   force =    -0.00000447    0.00000258   -0.00000905
     atom   19 type  2   force =    -0.00000386    0.00000223   -0.00000331
     atom   20 type  2   force =    -0.00000350    0.00000202    0.00000233
     atom   21 type  1   force =    -0.00001003   -0.00000579    0.00000790
     atom   22 type  1   force =     0.00000000   -0.00000516   -0.00000905
     atom   23 type  2   force =    -0.00000071   -0.00000041   -0.00000190
     atom   24 type  2   force =     0.00000000   -0.00000405    0.00000233
     atom   25 type  1   force =     0.00001247   -0.00000720    0.00002034
     atom   26 type  1   force =     0.00001225   -0.00000707   -0.00002458
     atom   27 type  2   force =     0.00000412   -0.00000238   -0.00000216
     atom   28 type  2   force =     0.00000370   -0.00000214    0.00000347
     atom   29 type  1   force =     0.00001539    0.00000888    0.00001777
     atom   30 type  1   force =    -0.00000000    0.00001414   -0.00002458
     atom   31 type  2   force =     0.00000386    0.00000223   -0.00000331
     atom   32 type  2   force =     0.00000000    0.00000428    0.00000347
     atom   33 type  1   force =    -0.00000000    0.00001440    0.00002034
     atom   34 type  1   force =     0.00001299    0.00000750   -0.00001936
     atom   35 type  2   force =    -0.00000000    0.00000475   -0.00000216
     atom   36 type  2   force =     0.00000201    0.00000116    0.00000337

     Total force =     0.000370     Total SCF correction =     0.000096
     SCF correction compared to forces is large: reduce conv_thr to get better values

     General routines

     Parallel routines

   This run was terminated on:   2:41:16  31Jul2025

   JOB DONE.
Note: The following floating-point exceptions are signalling: IEEE_DENORMAL
Note: The following floating-point exceptions are signalling: IEEE_DENORMAL
Note: The following floating-point exceptions are signalling: IEEE_INVALID_FLAG
Note: The following floating-point exceptions are signalling: IEEE_DENORMAL
Note: The following floating-point exceptions are signalling: IEEE_DENORMAL
Note: The following floating-point exceptions are signalling: IEEE_INVALID_FLAG
Note: The following floating-point exceptions are signalling: IEEE_INVALID_FLAG
Note: The following floating-point exceptions are signalling: IEEE_INVALID_FLAG
Note: The following floating-point exceptions are signalling: IEEE_DENORMAL
Note: The following floating-point exceptions are signalling: IEEE_INVALID_FLAG
Note: The following floating-point exceptions are signalling: IEEE_INVALID_FLAG
Note: The following floating-point exceptions are signalling: IEEE_INVALID_FLAG
Note: The following floating-point exceptions are signalling: IEEE_INVALID_FLAG
Note: The following floating-point exceptions are signalling: IEEE_DENORMAL
Note: The following floating-point exceptions are signalling: IEEE_DENORMAL
Note: The following floating-point exceptions are signalling: IEEE_DENORMAL