     Program PWSCF v.7.2 starts on 30Jul2025 at 17:58:20

     Reading input from /home/jvc/QEspresso7.2/ZnO_database/scripts/cell331.in/ZnO-3.14-1.68-331.in
Warning: card &CELL ignored
Warning: card / ignored
Warning: card &FCP ignored
Warning: card / ignored
Warning: card &RISM ignored
Warning: card / ignored

     Current dimensions of program PWSCF are:
     Max number of different atomic species (ntypx) = 10
     Max number of k-points (npk) =  40000
     Max angular momentum in pseudopotentials (lmaxx) =  4
     file Zn.upf: wavefunction(s)  3D renormalized
     Found identity + ( -0.0000  0.3333  0.0000) symmetry
     This is a supercell, fractional translations are disabled
     Message from routine setup:
     using ibrav=0 with symmetry is DISCOURAGED, use correct ibrav instead

     K-points division:     npool     =       8
     R & G space division:  proc/nbgrp/npool/nimage =       4
     Subspace diagonalization in iterative solution of the eigenvalue problem:
     one sub-group per band group will be used

     Using Slab Decomposition

     bravais-lattice index     =            0
     lattice parameter (alat)  =      18.5365  a.u.
     unit-cell volume          =    2968.1791 (a.u.)^3
     number of atoms/cell      =           36
     number of atomic types    =            2
     number of electrons       =       324.00
     number of Kohn-Sham states=          162
     kinetic-energy cutoff     =      50.0000  Ry
     charge density cutoff     =     400.0000  Ry
     scf convergence threshold =      1.0E-08
     mixing beta               =       0.3000
     number of iterations used =            8  plain     mixing
     Exchange-correlation= PBE
                           (   1   4   3   4   0   0   0)

     celldm(1)=  18.536466  celldm(2)=   0.000000  celldm(3)=   0.000000
     celldm(4)=   0.000000  celldm(5)=   0.000000  celldm(6)=   0.000000

     crystal axes: (cart. coord. in units of alat)
               a(1) = (   1.000000   0.000000   0.000000 )
               a(2) = (  -0.500000   0.866025   0.000000 )
               a(3) = (   0.000000   0.000000   0.538119 )

     reciprocal axes: (cart. coord. in units 2 pi/alat)
               b(1) = (  1.000000  0.577350 -0.000000 )
               b(2) = (  0.000000  1.154701  0.000000 )
               b(3) = (  0.000000 -0.000000  1.858323 )

     PseudoPot. # 1 for Zn read from file:
     /home/jvc/QEspresso7.2/ZnO_database/pseudos/Zn.upf
     MD5 check sum: 7f56cabf9682ed8c977c2f7d0c5985c5
     Pseudo is Ultrasoft + core correction, Zval = 12.0
     Generated using &quot;atomic&quot; code by A. Dal Corso  v.6.2.2
     Using radial grid of 1201 points,  6 beta functions with:
                l(1) =   0
                l(2) =   0
                l(3) =   1
                l(4) =   1
                l(5) =   2
                l(6) =   2
     Q(r) pseudized with 0 coefficients

     PseudoPot. # 2 for O  read from file:
     /home/jvc/QEspresso7.2/ZnO_database/pseudos/O.upf
     MD5 check sum: 91400c9766925bcf19f520983a725ff0
     Pseudo is Ultrasoft + core correction, Zval =  6.0
     Generated using &quot;atomic&quot; code by A. Dal Corso  v.6.3MaX
     Using radial grid of 1095 points,  4 beta functions with:
                l(1) =   0
                l(2) =   0
                l(3) =   1
                l(4) =   1
     Q(r) pseudized with 0 coefficients

     atomic species   valence    mass     pseudopotential
        Zn            12.00    65.38000     Zn( 1.00)
        O              6.00    15.99900     O ( 1.00)

      6 Sym. Ops. (no inversion) found

                                    s                        frac. trans.

      isym =  1     identity

 cryst.   s( 1) = (     1          0          0      )
                  (     0          1          0      )
                  (     0          0          1      )

 cart.    s( 1) = (  1.0000000  0.0000000  0.0000000 )
                  (  0.0000000  1.0000000  0.0000000 )
                  (  0.0000000  0.0000000  1.0000000 )

      isym =  2     120 deg rotation - cryst. axis [0,0,1]

[...]

      isym =  3     120 deg rotation - cryst. axis [0,0,-1]

[...]

      isym =  4     inv. 180 deg rotation - cart. axis [1,0,0]

[...]

      isym =  5     inv. 180 deg rotation - cryst. axis [0,1,0]

[...]

      isym =  6     inv. 180 deg rotation - cryst. axis [1,1,0]

 cryst.   s( 6) = (     0         -1          0      )
                  (    -1          0          0      )
                  (     0          0          1      )

 cart.    s( 6) = (  0.5000000 -0.8660254  0.0000000 )
                  ( -0.8660254 -0.5000000  0.0000000 )
                  (  0.0000000  0.0000000  1.0000000 )

   Cartesian axes

     site n.     atom                  positions (alat units)
         1           Zn  tau(   1) = (   0.1666667   0.0962250   0.2694007  )
         2           Zn  tau(   2) = (   0.0000000   0.1924501   0.0003409  )
         3           O   tau(   3) = (   0.1666667   0.0962250   0.4733710  )
         4           O   tau(   4) = (   0.0000000   0.1924501   0.2043113  )
         5           Zn  tau(   5) = (   0.0000000   0.3849002   0.2694007  )
         6           Zn  tau(   6) = (  -0.1666667   0.4811252   0.0003409  )
         7           O   tau(   7) = (   0.0000000   0.3849002   0.4733710  )
         8           O   tau(   8) = (  -0.1666667   0.4811252   0.2043113  )
         9           Zn  tau(   9) = (  -0.1666667   0.6735753   0.2694007  )
        10           Zn  tau(  10) = (  -0.3333333   0.7698004   0.0003409  )
        11           O   tau(  11) = (  -0.1666667   0.6735753   0.4733710  )
        12           O   tau(  12) = (  -0.3333333   0.7698004   0.2043113  )
        13           Zn  tau(  13) = (   0.5000000   0.0962250   0.2694007  )
        14           Zn  tau(  14) = (   0.3333333   0.1924501   0.0003409  )
        15           O   tau(  15) = (   0.5000000   0.0962250   0.4733710  )
        16           O   tau(  16) = (   0.3333333   0.1924501   0.2043113  )
        17           Zn  tau(  17) = (   0.3333333   0.3849002   0.2694007  )
        18           Zn  tau(  18) = (   0.1666667   0.4811252   0.0003409  )
        19           O   tau(  19) = (   0.3333333   0.3849002   0.4733710  )
        20           O   tau(  20) = (   0.1666667   0.4811252   0.2043113  )
        21           Zn  tau(  21) = (   0.1666667   0.6735753   0.2694007  )
        22           Zn  tau(  22) = (   0.0000000   0.7698004   0.0003409  )
        23           O   tau(  23) = (   0.1666667   0.6735753   0.4733710  )
        24           O   tau(  24) = (   0.0000000   0.7698004   0.2043113  )
        25           Zn  tau(  25) = (   0.8333333   0.0962250   0.2694007  )
        26           Zn  tau(  26) = (   0.6666667   0.1924501   0.0003409  )
        27           O   tau(  27) = (   0.8333333   0.0962250   0.4733710  )
        28           O   tau(  28) = (   0.6666667   0.1924501   0.2043113  )
        29           Zn  tau(  29) = (   0.6666667   0.3849002   0.2694007  )
        30           Zn  tau(  30) = (   0.5000000   0.4811252   0.0003409  )
        31           O   tau(  31) = (   0.6666667   0.3849002   0.4733710  )
        32           O   tau(  32) = (   0.5000000   0.4811252   0.2043113  )
        33           Zn  tau(  33) = (   0.5000000   0.6735753   0.2694007  )
        34           Zn  tau(  34) = (   0.3333333   0.7698004   0.0003409  )
        35           O   tau(  35) = (   0.5000000   0.6735753   0.4733710  )
        36           O   tau(  36) = (   0.3333333   0.7698004   0.2043113  )

   Crystallographic axes

     site n.     atom                  positions (cryst. coord.)
         1           Zn  tau(   1) = (  0.2222222  0.1111111  0.5006336  )
         2           Zn  tau(   2) = (  0.1111111  0.2222222  0.0006336  )
         3           O   tau(   3) = (  0.2222222  0.1111111  0.8796764  )
         4           O   tau(   4) = (  0.1111111  0.2222222  0.3796764  )
         5           Zn  tau(   5) = (  0.2222222  0.4444444  0.5006336  )
         6           Zn  tau(   6) = (  0.1111111  0.5555556  0.0006336  )
         7           O   tau(   7) = (  0.2222222  0.4444444  0.8796764  )
         8           O   tau(   8) = (  0.1111111  0.5555556  0.3796764  )
         9           Zn  tau(   9) = (  0.2222222  0.7777778  0.5006336  )
        10           Zn  tau(  10) = (  0.1111111  0.8888889  0.0006336  )
        11           O   tau(  11) = (  0.2222222  0.7777778  0.8796764  )
        12           O   tau(  12) = (  0.1111111  0.8888889  0.3796764  )
        13           Zn  tau(  13) = (  0.5555556  0.1111111  0.5006336  )
        14           Zn  tau(  14) = (  0.4444444  0.2222222  0.0006336  )
        15           O   tau(  15) = (  0.5555556  0.1111111  0.8796764  )
        16           O   tau(  16) = (  0.4444444  0.2222222  0.3796764  )
        17           Zn  tau(  17) = (  0.5555556  0.4444444  0.5006336  )
        18           Zn  tau(  18) = (  0.4444444  0.5555556  0.0006336  )
        19           O   tau(  19) = (  0.5555556  0.4444444  0.8796764  )
        20           O   tau(  20) = (  0.4444444  0.5555556  0.3796764  )
        21           Zn  tau(  21) = (  0.5555556  0.7777778  0.5006336  )
        22           Zn  tau(  22) = (  0.4444444  0.8888889  0.0006336  )
        23           O   tau(  23) = (  0.5555556  0.7777778  0.8796764  )
        24           O   tau(  24) = (  0.4444444  0.8888889  0.3796764  )
        25           Zn  tau(  25) = (  0.8888889  0.1111111  0.5006336  )
        26           Zn  tau(  26) = (  0.7777778  0.2222222  0.0006336  )
        27           O   tau(  27) = (  0.8888889  0.1111111  0.8796764  )
        28           O   tau(  28) = (  0.7777778  0.2222222  0.3796764  )
        29           Zn  tau(  29) = (  0.8888889  0.4444444  0.5006336  )
        30           Zn  tau(  30) = (  0.7777778  0.5555556  0.0006336  )
        31           O   tau(  31) = (  0.8888889  0.4444444  0.8796764  )
        32           O   tau(  32) = (  0.7777778  0.5555556  0.3796764  )
        33           Zn  tau(  33) = (  0.8888889  0.7777778  0.5006336  )
        34           Zn  tau(  34) = (  0.7777778  0.8888889  0.0006336  )
        35           O   tau(  35) = (  0.8888889  0.7777778  0.8796764  )
        36           O   tau(  36) = (  0.7777778  0.8888889  0.3796764  )

     number of k points=     8
                       cart. coord. in units 2pi/alat
        k(    1) = (   0.0000000   0.0000000   0.0000000), wk =   0.0833333
        k(    2) = (   0.0000000   0.0000000   0.3097206), wk =   0.1666667
        k(    3) = (   0.0000000   0.0000000   0.6194412), wk =   0.1666667
        k(    4) = (   0.0000000   0.0000000  -0.9291617), wk =   0.0833333
        k(    5) = (   0.0000000  -0.5773503   0.0000000), wk =   0.2500000
        k(    6) = (   0.0000000  -0.5773503   0.3097206), wk =   0.5000000
        k(    7) = (   0.0000000  -0.5773503   0.6194412), wk =   0.5000000
        k(    8) = (   0.0000000  -0.5773503  -0.9291617), wk =   0.2500000

                       cryst. coord.
        k(    1) = (   0.0000000   0.0000000   0.0000000), wk =   0.0833333
[...]
     atom   17 type  1   force =     0.00000076   -0.00000044   -0.00483237
     atom   18 type  1   force =    -0.00000005    0.00000003   -0.00483189
     atom   19 type  2   force =    -0.00000038    0.00000022    0.00575443
     atom   20 type  2   force =    -0.00000063    0.00000036    0.00575424
     atom   21 type  1   force =     0.00000019    0.00000011   -0.00483253
     atom   22 type  1   force =     0.00000000   -0.00000006   -0.00483189
     atom   23 type  2   force =    -0.00000119   -0.00000068    0.00575441
     atom   24 type  2   force =     0.00000000   -0.00000073    0.00575424
     atom   25 type  1   force =    -0.00000043    0.00000025   -0.00483243
     atom   26 type  1   force =    -0.00000045    0.00000026   -0.00483372
     atom   27 type  2   force =     0.00000061   -0.00000035    0.00575420
     atom   28 type  2   force =    -0.00000042    0.00000025    0.00575386
     atom   29 type  1   force =    -0.00000076   -0.00000044   -0.00483237
     atom   30 type  1   force =    -0.00000000   -0.00000052   -0.00483372
     atom   31 type  2   force =     0.00000038    0.00000022    0.00575443
     atom   32 type  2   force =     0.00000000   -0.00000049    0.00575386
     atom   33 type  1   force =     0.00000000   -0.00000049   -0.00483243
     atom   34 type  1   force =    -0.00000099   -0.00000057   -0.00483228
     atom   35 type  2   force =    -0.00000000    0.00000071    0.00575420
     atom   36 type  2   force =     0.00000077    0.00000045    0.00575414
     The ionic contribution  to forces
     atom    1 type  1   force =     0.00000001    0.00000001    0.06271747
     atom    2 type  1   force =     0.00000000    0.00000002    0.06271747
     atom    3 type  2   force =     0.00000001    0.00000000   -0.06271747
     atom    4 type  2   force =    -0.00000000    0.00000001   -0.06271747
     atom    5 type  1   force =     0.00000001    0.00000001    0.06271747
     atom    6 type  1   force =     0.00000001   -0.00000000    0.06271747
     atom    7 type  2   force =     0.00000000    0.00000000   -0.06271747
     atom    8 type  2   force =     0.00000001    0.00000000   -0.06271747
     atom    9 type  1   force =     0.00000001   -0.00000001    0.06271747
     atom   10 type  1   force =     0.00000000   -0.00000000    0.06271747
     atom   11 type  2   force =     0.00000001   -0.00000000   -0.06271747
     atom   12 type  2   force =    -0.00000000    0.00000000   -0.06271747
     atom   13 type  1   force =    -0.00000001    0.00000001    0.06271747
     atom   14 type  1   force =     0.00000001    0.00000001    0.06271747
     atom   15 type  2   force =    -0.00000000    0.00000001   -0.06271747
     atom   16 type  2   force =     0.00000000    0.00000000   -0.06271747
     atom   17 type  1   force =    -0.00000001    0.00000001    0.06271747
     atom   18 type  1   force =     0.00000001   -0.00000001    0.06271747
     atom   19 type  2   force =    -0.00000001    0.00000001   -0.06271747
     atom   20 type  2   force =     0.00000001   -0.00000001   -0.06271747
     atom   21 type  1   force =    -0.00000001   -0.00000001    0.06271747
     atom   22 type  1   force =     0.00000001   -0.00000001    0.06271747
     atom   23 type  2   force =    -0.00000000   -0.00000000   -0.06271747
     atom   24 type  2   force =     0.00000000   -0.00000001   -0.06271747
     atom   25 type  1   force =    -0.00000000    0.00000000    0.06271747
     atom   26 type  1   force =    -0.00000001    0.00000001    0.06271747
     atom   27 type  2   force =     0.00000000   -0.00000000   -0.06271747
     atom   28 type  2   force =    -0.00000001    0.00000000   -0.06271747
     atom   29 type  1   force =    -0.00000001    0.00000000    0.06271747
     atom   30 type  1   force =    -0.00000001   -0.00000001    0.06271747
     atom   31 type  2   force =    -0.00000001   -0.00000000   -0.06271747
     atom   32 type  2   force =    -0.00000000   -0.00000000   -0.06271747
     atom   33 type  1   force =    -0.00000000   -0.00000002    0.06271747
     atom   34 type  1   force =    -0.00000001   -0.00000001    0.06271747
     atom   35 type  2   force =     0.00000000   -0.00000001   -0.06271747
     atom   36 type  2   force =    -0.00000001   -0.00000000   -0.06271747
     The local contribution  to forces
     atom    1 type  1   force =    -0.00000272   -0.00000157   -0.05828588
     atom    2 type  1   force =     0.00000000   -0.00000382   -0.05829168
     atom    3 type  2   force =    -0.00000169   -0.00000097    0.05696625
     atom    4 type  2   force =     0.00000000   -0.00000012    0.05696619
     atom    5 type  1   force =    -0.00000000    0.00000175   -0.05828812
     atom    6 type  1   force =     0.00000018   -0.00000005   -0.05829054
     atom    7 type  2   force =    -0.00000000   -0.00000045    0.05696548
     atom    8 type  2   force =     0.00000042    0.00000020    0.05696639
     atom    9 type  1   force =     0.00000151   -0.00000087   -0.05828812
     atom   10 type  1   force =    -0.00000330    0.00000191   -0.05829168
     atom   11 type  2   force =    -0.00000039    0.00000023    0.05696548
     atom   12 type  2   force =    -0.00000010    0.00000006    0.05696619
     atom   13 type  1   force =    -0.00000013   -0.00000404   -0.05828642
     atom   14 type  1   force =    -0.00000156   -0.00000091   -0.05829096
     atom   15 type  2   force =    -0.00000004   -0.00000099    0.05696597
     atom   16 type  2   force =    -0.00000100   -0.00000058    0.05696597
     atom   17 type  1   force =    -0.00000369    0.00000213   -0.05828642
     atom   18 type  1   force =     0.00000008   -0.00000005   -0.05829054
     atom   19 type  2   force =    -0.00000091    0.00000053    0.05696597
     atom   20 type  2   force =    -0.00000035    0.00000020    0.05696639
     atom   21 type  1   force =    -0.00000152   -0.00000087   -0.05828812
     atom   22 type  1   force =     0.00000013   -0.00000014   -0.05829054
     atom   23 type  2   force =     0.00000039    0.00000023    0.05696548
     atom   24 type  2   force =     0.00000004   -0.00000046    0.05696639
     atom   25 type  1   force =     0.00000272   -0.00000157   -0.05828588
     atom   26 type  1   force =     0.00000157   -0.00000091   -0.05829096
     atom   27 type  2   force =     0.00000169   -0.00000097    0.05696625
     atom   28 type  2   force =     0.00000100   -0.00000058    0.05696597
     atom   29 type  1   force =     0.00000343    0.00000213   -0.05828642
     atom   30 type  1   force =     0.00000000    0.00000181   -0.05829096
     atom   31 type  2   force =     0.00000084    0.00000053    0.05696597
     atom   32 type  2   force =     0.00000000    0.00000115    0.05696597
     atom   33 type  1   force =    -0.00000000    0.00000314   -0.05828588
     atom   34 type  1   force =     0.00000331    0.00000191   -0.05829168
     atom   35 type  2   force =    -0.00000000    0.00000195    0.05696625
     atom   36 type  2   force =     0.00000010    0.00000006    0.05696619
     The core correction contribution to forces
     atom    1 type  1   force =     0.00000006    0.00000003    0.00046384
     atom    2 type  1   force =     0.00000000    0.00000004    0.00046408
     atom    3 type  2   force =     0.00000000    0.00000000   -0.00006503
     atom    4 type  2   force =     0.00000000    0.00000001   -0.00006503
     atom    5 type  1   force =    -0.00000000   -0.00000006    0.00046394
     atom    6 type  1   force =     0.00000002   -0.00000001    0.00046399
     atom    7 type  2   force =    -0.00000000   -0.00000002   -0.00006503
     atom    8 type  2   force =    -0.00000001   -0.00000000   -0.00006503
     atom    9 type  1   force =    -0.00000005    0.00000003    0.00046394
     atom   10 type  1   force =     0.00000004   -0.00000002    0.00046408
     atom   11 type  2   force =    -0.00000002    0.00000001   -0.00006503
     atom   12 type  2   force =     0.00000001   -0.00000001   -0.00006503
     atom   13 type  1   force =    -0.00000002    0.00000011    0.00046386
     atom   14 type  1   force =     0.00000003    0.00000002    0.00046417
     atom   15 type  2   force =     0.00000000    0.00000000   -0.00006503
     atom   16 type  2   force =    -0.00000001   -0.00000000   -0.00006502
     atom   17 type  1   force =     0.00000007   -0.00000004    0.00046386
     atom   18 type  1   force =     0.00000002   -0.00000001    0.00046399
     atom   19 type  2   force =     0.00000000   -0.00000000   -0.00006503
     atom   20 type  2   force =     0.00000001   -0.00000000   -0.00006503
     atom   21 type  1   force =     0.00000005    0.00000003    0.00046394
     atom   22 type  1   force =     0.00000002   -0.00000001    0.00046399
     atom   23 type  2   force =     0.00000002    0.00000001   -0.00006503
     atom   24 type  2   force =    -0.00000000    0.00000001   -0.00006503
     atom   25 type  1   force =    -0.00000006    0.00000003    0.00046384
     atom   26 type  1   force =    -0.00000003    0.00000002    0.00046417
     atom   27 type  2   force =    -0.00000000    0.00000000   -0.00006503
     atom   28 type  2   force =     0.00000001   -0.00000000   -0.00006502
     atom   29 type  1   force =    -0.00000010   -0.00000004    0.00046386
     atom   30 type  1   force =     0.00000000   -0.00000003    0.00046417
     atom   31 type  2   force =    -0.00000000   -0.00000000   -0.00006503
     atom   32 type  2   force =     0.00000000    0.00000001   -0.00006502
     atom   33 type  1   force =    -0.00000000   -0.00000007    0.00046384
     atom   34 type  1   force =    -0.00000004   -0.00000002    0.00046408
     atom   35 type  2   force =    -0.00000000   -0.00000000   -0.00006503
     atom   36 type  2   force =    -0.00000001   -0.00000001   -0.00006503
     The Hubbard contrib.    to forces
     atom    1 type  1   force =     0.00000000    0.00000000    0.00000000
     atom    2 type  1   force =     0.00000000    0.00000000    0.00000000
     atom    3 type  2   force =     0.00000000    0.00000000    0.00000000
     atom    4 type  2   force =     0.00000000    0.00000000    0.00000000
     atom    5 type  1   force =     0.00000000    0.00000000    0.00000000
     atom    6 type  1   force =     0.00000000    0.00000000    0.00000000
     atom    7 type  2   force =     0.00000000    0.00000000    0.00000000
     atom    8 type  2   force =     0.00000000    0.00000000    0.00000000
     atom    9 type  1   force =     0.00000000    0.00000000    0.00000000
     atom   10 type  1   force =     0.00000000    0.00000000    0.00000000
     atom   11 type  2   force =     0.00000000    0.00000000    0.00000000
     atom   12 type  2   force =     0.00000000    0.00000000    0.00000000
     atom   13 type  1   force =     0.00000000    0.00000000    0.00000000
     atom   14 type  1   force =     0.00000000    0.00000000    0.00000000
     atom   15 type  2   force =     0.00000000    0.00000000    0.00000000
     atom   16 type  2   force =     0.00000000    0.00000000    0.00000000
     atom   17 type  1   force =     0.00000000    0.00000000    0.00000000
     atom   18 type  1   force =     0.00000000    0.00000000    0.00000000
     atom   19 type  2   force =     0.00000000    0.00000000    0.00000000
     atom   20 type  2   force =     0.00000000    0.00000000    0.00000000
     atom   21 type  1   force =     0.00000000    0.00000000    0.00000000
     atom   22 type  1   force =     0.00000000    0.00000000    0.00000000
     atom   23 type  2   force =     0.00000000    0.00000000    0.00000000
     atom   24 type  2   force =     0.00000000    0.00000000    0.00000000
     atom   25 type  1   force =     0.00000000    0.00000000    0.00000000
     atom   26 type  1   force =     0.00000000    0.00000000    0.00000000
     atom   27 type  2   force =     0.00000000    0.00000000    0.00000000
     atom   28 type  2   force =     0.00000000    0.00000000    0.00000000
     atom   29 type  1   force =     0.00000000    0.00000000    0.00000000
     atom   30 type  1   force =     0.00000000    0.00000000    0.00000000
     atom   31 type  2   force =     0.00000000    0.00000000    0.00000000
     atom   32 type  2   force =     0.00000000    0.00000000    0.00000000
     atom   33 type  1   force =     0.00000000    0.00000000    0.00000000
     atom   34 type  1   force =     0.00000000    0.00000000    0.00000000
     atom   35 type  2   force =     0.00000000    0.00000000    0.00000000
     atom   36 type  2   force =     0.00000000    0.00000000    0.00000000
     The SCF correction term to forces
     atom    1 type  1   force =     0.00000430    0.00000248   -0.00000466
     atom    2 type  1   force =    -0.00000000    0.00000478    0.00000462
     atom    3 type  2   force =     0.00000221    0.00000128   -0.00000022
     atom    4 type  2   force =    -0.00000000    0.00000091   -0.00000061
     atom    5 type  1   force =    -0.00000000   -0.00000260   -0.00000110
     atom    6 type  1   force =    -0.00000028   -0.00000016    0.00000229
     atom    7 type  2   force =     0.00000000   -0.00000089    0.00000014
     atom    8 type  2   force =    -0.00000107   -0.00000062   -0.00000109
     atom    9 type  1   force =    -0.00000225    0.00000130   -0.00000110
     atom   10 type  1   force =     0.00000414   -0.00000239    0.00000462
     atom   11 type  2   force =    -0.00000077    0.00000044    0.00000014
     atom   12 type  2   force =     0.00000079   -0.00000046   -0.00000061
     atom   13 type  1   force =     0.00000000    0.00000602   -0.00000427
     atom   14 type  1   force =     0.00000199    0.00000115    0.00000522
     atom   15 type  2   force =     0.00000000    0.00000151    0.00000002
     atom   16 type  2   force =     0.00000072    0.00000041   -0.00000030
     atom   17 type  1   force =     0.00000521   -0.00000301   -0.00000427
     atom   18 type  1   force =     0.00000028   -0.00000016    0.00000229
     atom   19 type  2   force =     0.00000131   -0.00000076    0.00000002
     atom   20 type  2   force =     0.00000107   -0.00000062   -0.00000109
     atom   21 type  1   force =     0.00000225    0.00000130   -0.00000110
     atom   22 type  1   force =    -0.00000000    0.00000032    0.00000229
     atom   23 type  2   force =     0.00000077    0.00000044    0.00000014
     atom   24 type  2   force =    -0.00000000    0.00000124   -0.00000109
     atom   25 type  1   force =    -0.00000430    0.00000248   -0.00000466
     atom   26 type  1   force =    -0.00000199    0.00000115    0.00000522
     atom   27 type  2   force =    -0.00000221    0.00000128   -0.00000022
     atom   28 type  2   force =    -0.00000072    0.00000041   -0.00000030
     atom   29 type  1   force =    -0.00000521   -0.00000301   -0.00000427
     atom   30 type  1   force =     0.00000000   -0.00000230    0.00000522
     atom   31 type  2   force =    -0.00000131   -0.00000076    0.00000002
     atom   32 type  2   force =    -0.00000000   -0.00000083   -0.00000030
     atom   33 type  1   force =     0.00000000   -0.00000497   -0.00000466
     atom   34 type  1   force =    -0.00000414   -0.00000239    0.00000462
     atom   35 type  2   force =     0.00000000   -0.00000256   -0.00000022
     atom   36 type  2   force =    -0.00000079   -0.00000046   -0.00000061

     Total force =     0.000369     Total SCF correction =     0.000025

     General routines

     Parallel routines

   This run was terminated on:  18: 6:47  30Jul2025

   JOB DONE.
Note: The following floating-point exceptions are signalling: IEEE_DENORMAL
Note: The following floating-point exceptions are signalling: IEEE_INVALID_FLAG
Note: The following floating-point exceptions are signalling: IEEE_INVALID_FLAG
Note: The following floating-point exceptions are signalling: IEEE_INVALID_FLAG
Note: The following floating-point exceptions are signalling: IEEE_INVALID_FLAG
Note: The following floating-point exceptions are signalling: IEEE_INVALID_FLAG
Note: The following floating-point exceptions are signalling: IEEE_DENORMAL
Note: The following floating-point exceptions are signalling: IEEE_DENORMAL
Note: The following floating-point exceptions are signalling: IEEE_INVALID_FLAG
Note: The following floating-point exceptions are signalling: IEEE_INVALID_FLAG
Note: The following floating-point exceptions are signalling: IEEE_DENORMAL
Note: The following floating-point exceptions are signalling: IEEE_DENORMAL
Note: The following floating-point exceptions are signalling: IEEE_DENORMAL
Note: The following floating-point exceptions are signalling: IEEE_INVALID_FLAG
Note: The following floating-point exceptions are signalling: IEEE_DENORMAL