     Program PWSCF v.7.2 starts on 18Jul2025 at 23: 9:43

     Reading input from /home/jvc/QEspresso7.2/ZnO_database/scripts/cell221.in/ZnO-3.60-1.71-221.in
Warning: card &CELL ignored
Warning: card / ignored
Warning: card &FCP ignored
Warning: card / ignored
Warning: card &RISM ignored
Warning: card / ignored

     Current dimensions of program PWSCF are:
     Max number of different atomic species (ntypx) = 10
     Max number of k-points (npk) =  40000
     Max angular momentum in pseudopotentials (lmaxx) =  4
     file Zn.upf: wavefunction(s)  3D renormalized
     Found identity + ( -0.0000  0.5000  0.0000) symmetry
     This is a supercell, fractional translations are disabled
     Message from routine setup:
     using ibrav=0 with symmetry is DISCOURAGED, use correct ibrav instead

     K-points division:     npool     =       8
     R & G space division:  proc/nbgrp/npool/nimage =       4
     Subspace diagonalization in iterative solution of the eigenvalue problem:
     a serial algorithm will be used

     Using Slab Decomposition

     bravais-lattice index     =            0
     lattice parameter (alat)  =      12.3576  a.u.
     unit-cell volume          =    1319.1907 (a.u.)^3
     number of atoms/cell      =           16
     number of atomic types    =            2
     number of electrons       =       144.00
     number of Kohn-Sham states=           72
     kinetic-energy cutoff     =      50.0000  Ry
     charge density cutoff     =     400.0000  Ry
     scf convergence threshold =      1.0E-08
     mixing beta               =       0.3000
     number of iterations used =            8  plain     mixing
     Exchange-correlation= PBE
                           (   1   4   3   4   0   0   0)

     celldm(1)=  12.357644  celldm(2)=   0.000000  celldm(3)=   0.000000
     celldm(4)=   0.000000  celldm(5)=   0.000000  celldm(6)=   0.000000

     crystal axes: (cart. coord. in units of alat)
               a(1) = (   1.000000   0.000000   0.000000 )
               a(2) = (  -0.500000   0.866025   0.000000 )
               a(3) = (   0.000000   0.000000   0.807179 )

     reciprocal axes: (cart. coord. in units 2 pi/alat)
               b(1) = (  1.000000  0.577350 -0.000000 )
               b(2) = (  0.000000  1.154701  0.000000 )
               b(3) = (  0.000000 -0.000000  1.238882 )

     PseudoPot. # 1 for Zn read from file:
     /home/jvc/QEspresso7.2/ZnO_database/pseudos/Zn.upf
     MD5 check sum: 7f56cabf9682ed8c977c2f7d0c5985c5
     Pseudo is Ultrasoft + core correction, Zval = 12.0
     Generated using &quot;atomic&quot; code by A. Dal Corso  v.6.2.2
     Using radial grid of 1201 points,  6 beta functions with:
                l(1) =   0
                l(2) =   0
                l(3) =   1
                l(4) =   1
                l(5) =   2
                l(6) =   2
     Q(r) pseudized with 0 coefficients

     PseudoPot. # 2 for O  read from file:
     /home/jvc/QEspresso7.2/ZnO_database/pseudos/O.upf
     MD5 check sum: 91400c9766925bcf19f520983a725ff0
     Pseudo is Ultrasoft + core correction, Zval =  6.0
     Generated using &quot;atomic&quot; code by A. Dal Corso  v.6.3MaX
     Using radial grid of 1095 points,  4 beta functions with:
                l(1) =   0
                l(2) =   0
                l(3) =   1
                l(4) =   1
     Q(r) pseudized with 0 coefficients

     atomic species   valence    mass     pseudopotential
        Zn            12.00    65.38000     Zn( 1.00)
        O              6.00    15.99900     O ( 1.00)

      6 Sym. Ops. (no inversion) found

                                    s                        frac. trans.

      isym =  1     identity

 cryst.   s( 1) = (     1          0          0      )
                  (     0          1          0      )
                  (     0          0          1      )

 cart.    s( 1) = (  1.0000000 -0.0000000  0.0000000 )
                  (  0.0000000  1.0000000  0.0000000 )
                  (  0.0000000  0.0000000  1.0000000 )

      isym =  2     120 deg rotation - cryst. axis [0,0,1]

[...]

      isym =  3     120 deg rotation - cryst. axis [0,0,-1]

[...]

      isym =  4     inv. 180 deg rotation - cart. axis [1,0,0]

[...]

      isym =  5     inv. 180 deg rotation - cryst. axis [0,1,0]

[...]

      isym =  6     inv. 180 deg rotation - cryst. axis [1,1,0]

 cryst.   s( 6) = (     0         -1          0      )
                  (    -1          0          0      )
                  (     0          0          1      )

 cart.    s( 6) = (  0.5000000 -0.8660254  0.0000000 )
                  ( -0.8660254 -0.5000000  0.0000000 )
                  (  0.0000000  0.0000000  1.0000000 )

   Cartesian axes

     site n.     atom                  positions (alat units)
         1           Zn  tau(   1) = (   0.2500000   0.1443376   0.4041010  )
         2           Zn  tau(   2) = (   0.0000000   0.2886751   0.0005114  )
         3           O   tau(   3) = (   0.2500000   0.1443376   0.7100565  )
         4           O   tau(   4) = (   0.0000000   0.2886751   0.3064669  )
         5           Zn  tau(   5) = (   0.0000000   0.5773503   0.4041010  )
         6           Zn  tau(   6) = (  -0.2500000   0.7216878   0.0005114  )
         7           O   tau(   7) = (   0.0000000   0.5773503   0.7100565  )
         8           O   tau(   8) = (  -0.2500000   0.7216878   0.3064669  )
         9           Zn  tau(   9) = (   0.7500000   0.1443376   0.4041010  )
        10           Zn  tau(  10) = (   0.5000000   0.2886751   0.0005114  )
        11           O   tau(  11) = (   0.7500000   0.1443376   0.7100565  )
        12           O   tau(  12) = (   0.5000000   0.2886751   0.3064669  )
        13           Zn  tau(  13) = (   0.5000000   0.5773503   0.4041010  )
        14           Zn  tau(  14) = (   0.2500000   0.7216878   0.0005114  )
        15           O   tau(  15) = (   0.5000000   0.5773503   0.7100565  )
        16           O   tau(  16) = (   0.2500000   0.7216878   0.3064669  )

   Crystallographic axes

     site n.     atom                  positions (cryst. coord.)
         1           Zn  tau(   1) = (  0.3333333  0.1666667  0.5006336  )
         2           Zn  tau(   2) = (  0.1666667  0.3333333  0.0006336  )
         3           O   tau(   3) = (  0.3333333  0.1666667  0.8796764  )
         4           O   tau(   4) = (  0.1666667  0.3333333  0.3796764  )
         5           Zn  tau(   5) = (  0.3333333  0.6666667  0.5006336  )
         6           Zn  tau(   6) = (  0.1666667  0.8333333  0.0006336  )
         7           O   tau(   7) = (  0.3333333  0.6666667  0.8796764  )
         8           O   tau(   8) = (  0.1666667  0.8333333  0.3796764  )
         9           Zn  tau(   9) = (  0.8333333  0.1666667  0.5006336  )
        10           Zn  tau(  10) = (  0.6666667  0.3333333  0.0006336  )
        11           O   tau(  11) = (  0.8333333  0.1666667  0.8796764  )
        12           O   tau(  12) = (  0.6666667  0.3333333  0.3796764  )
        13           Zn  tau(  13) = (  0.8333333  0.6666667  0.5006336  )
        14           Zn  tau(  14) = (  0.6666667  0.8333333  0.0006336  )
        15           O   tau(  15) = (  0.8333333  0.6666667  0.8796764  )
        16           O   tau(  16) = (  0.6666667  0.8333333  0.3796764  )

     number of k points=    14
                       cart. coord. in units 2pi/alat
        k(    1) = (   0.0000000   0.0000000   0.0000000), wk =   0.0370370
        k(    2) = (   0.0000000   0.0000000   0.2064804), wk =   0.0740741
        k(    3) = (   0.0000000   0.0000000   0.4129608), wk =   0.0740741
        k(    4) = (   0.0000000   0.0000000  -0.6194412), wk =   0.0370370
        k(    5) = (   0.0000000   0.3849002   0.0000000), wk =   0.2222222
        k(    6) = (   0.0000000   0.3849002   0.2064804), wk =   0.2222222
        k(    7) = (   0.0000000   0.3849002   0.4129608), wk =   0.2222222
        k(    8) = (   0.0000000   0.3849002  -0.6194412), wk =   0.2222222
        k(    9) = (   0.3333333   0.5773503   0.0000000), wk =   0.0740741
        k(   10) = (   0.3333333   0.5773503   0.2064804), wk =   0.1481481
        k(   11) = (   0.3333333   0.5773503   0.4129608), wk =   0.1481481
        k(   12) = (   0.3333333   0.5773503  -0.6194412), wk =   0.0740741
        k(   13) = (   0.0000000  -0.3849002   0.2064804), wk =   0.2222222
        k(   14) = (   0.0000000  -0.3849002   0.4129608), wk =   0.2222222

                       cryst. coord.
        k(    1) = (   0.0000000   0.0000000   0.0000000), wk =   0.0370370
        k(    2) = (   0.0000000   0.0000000   0.1666667), wk =   0.0740741
        k(    3) = (   0.0000000   0.0000000   0.3333333), wk =   0.0740741
        k(    4) = (   0.0000000   0.0000000  -0.5000000), wk =   0.0370370
        k(    5) = (   0.0000000   0.3333333   0.0000000), wk =   0.2222222
        k(    6) = (   0.0000000   0.3333333   0.1666667), wk =   0.2222222
        k(    7) = (   0.0000000   0.3333333   0.3333333), wk =   0.2222222
        k(    8) = (   0.0000000   0.3333333  -0.5000000), wk =   0.2222222
        k(    9) = (   0.3333333   0.3333333   0.0000000), wk =   0.0740741
        k(   10) = (   0.3333333   0.3333333   0.1666667), wk =   0.1481481
        k(   11) = (   0.3333333   0.3333333   0.3333333), wk =   0.1481481
        k(   12) = (   0.3333333   0.3333333  -0.5000000), wk =   0.0740741
        k(   13) = (   0.0000000  -0.3333333   0.1666667), wk =   0.2222222
        k(   14) = (   0.0000000  -0.3333333   0.3333333), wk =   0.2222222

     Check: negative core charge=   -0.000002

     Initial potential from superposition of free atoms

     starting charge     143.9702, renormalised to     144.0000
     Starting wfcs are  104 randomized atomic wfcs

     Self-consistent Calculation

     iteration #  1     ecut=    50.00 Ry     beta= 0.30
     Davidson diagonalization with overlap

     ethr =  1.00E-02,  avg # of iterations =  2.0

     total energy              =   -1445.91735360 Ry
     estimated scf accuracy    <       2.76690298 Ry

[...]

     total energy              =   -1446.54755151 Ry
     estimated scf accuracy    <       0.00000009 Ry

     iteration # 31     ecut=    50.00 Ry     beta= 0.30
     Davidson diagonalization with overlap

     ethr =  6.03E-11,  avg # of iterations =  7.1

     End of self-consistent calculation

          k = 0.0000 0.0000 0.0000 (  7823 PWs)   bands (ev):

   -10.9986 -10.3495 -10.3494 -10.3494 -10.3184 -10.1409 -10.1409 -10.1409
     1.1141   1.1141   1.1141   1.3159   1.3159   1.3229   1.3229   1.3229
     1.3565   1.4391   1.5014   1.5014   1.5609   1.5609   1.5609   1.9413
     1.9413   1.9413   1.9538   1.9538   1.9538   2.0753   2.0753   2.0753
     2.4283   2.4283   2.4642   2.4642   2.4642   2.5909   2.5909   2.5909
     2.6249   2.6249   2.6706   2.6706   2.6706   2.7418   2.7418   2.7418
     2.8918   3.2047   3.2047   3.2047   3.4268   3.4268   3.4268   4.1405
     4.1405   4.1405   4.7138   4.7138   4.7138   5.6401   5.6401   5.6401
     6.0829   6.0829   6.0829   6.1250   6.1250   6.8048   6.8872   6.8872

     occupation numbers
     1.0000   1.0000   1.0000   1.0000   1.0000   1.0000   1.0000   1.0000
     1.0000   1.0000   1.0000   1.0000   1.0000   1.0000   1.0000   1.0000
     1.0000   1.0000   1.0000   1.0000   1.0000   1.0000   1.0000   1.0000
     1.0000   1.0000   1.0000   1.0000   1.0000   1.0000   1.0000   1.0000
     1.0000   1.0000   1.0000   1.0000   1.0000   1.0000   1.0000   1.0000
     1.0000   1.0000   1.0000   1.0000   1.0000   1.0000   1.0000   1.0000
     1.0000   1.0000   1.0000   1.0000   1.0000   1.0000   1.0000   1.0000
     1.0000   1.0000   1.0000   1.0000   1.0000   1.0000   1.0000   1.0000
     1.0000   1.0000   1.0000   1.0000   1.0000   1.0000   1.0000   1.0000

[...]

          k = 0.0000-0.3849 0.4130 (  7885 PWs)   bands (ev):

   -10.7129 -10.4473 -10.4122 -10.2963 -10.2963 -10.2521 -10.1860 -10.1860
     0.9558   1.0820   1.0906   1.1038   1.1038   1.1442   1.1967   1.1967
     1.4331   1.4425   1.5220   1.5437   1.5839   1.5839   1.5967   1.6673
     1.7338   1.7338   1.7583   1.7846   1.8904   1.8904   1.9133   1.9133
     2.4696   2.4787   2.4885   2.4958   2.4958   2.5339   2.5677   2.5677
     2.5935   2.6097   2.6172   2.6820   2.6914   2.6914   2.8117   2.8117
     3.2568   3.2568   3.5916   3.5916   3.6415   3.9342   4.0473   4.5349
     4.5349   4.9083   5.0816   5.0816   5.1228   5.3812   5.3812   5.4184
     5.5973   5.8446   5.8446   5.9792   6.0153   6.0233   6.2836   6.4799

     occupation numbers
     1.0000   1.0000   1.0000   1.0000   1.0000   1.0000   1.0000   1.0000
     1.0000   1.0000   1.0000   1.0000   1.0000   1.0000   1.0000   1.0000
     1.0000   1.0000   1.0000   1.0000   1.0000   1.0000   1.0000   1.0000
     1.0000   1.0000   1.0000   1.0000   1.0000   1.0000   1.0000   1.0000
     1.0000   1.0000   1.0000   1.0000   1.0000   1.0000   1.0000   1.0000
     1.0000   1.0000   1.0000   1.0000   1.0000   1.0000   1.0000   1.0000
     1.0000   1.0000   1.0000   1.0000   1.0000   1.0000   1.0000   1.0000
     1.0000   1.0000   1.0000   1.0000   1.0000   1.0000   1.0000   1.0000
     1.0000   1.0000   1.0000   1.0000   1.0000   1.0000   1.0000   1.0000

     highest occupied level (ev):     6.8872

!    total energy              =   -1446.54755157 Ry
     estimated scf accuracy    <          5.2E-09 Ry

     The total energy is the sum of the following terms:
     one-electron contribution =    -618.10071511 Ry
     hartree contribution      =     473.15650113 Ry
     xc contribution           =    -438.18440964 Ry
     ewald contribution        =    -863.41892795 Ry

     convergence has been achieved in  31 iterations

     Forces acting on atoms (cartesian axes, Ry/au):

     atom    1 type  1   force =    -0.00000032   -0.00000018    0.00005941
     atom    2 type  1   force =    -0.00000000   -0.00000340    0.00006257
     atom    3 type  2   force =     0.00000012    0.00000007   -0.00006054
     atom    4 type  2   force =    -0.00000000    0.00000024   -0.00006027
     atom    5 type  1   force =     0.00000000   -0.00000000    0.00005679
     atom    6 type  1   force =    -0.00000294    0.00000170    0.00006257
     atom    7 type  2   force =     0.00000000    0.00000000   -0.00006082
     atom    8 type  2   force =     0.00000021   -0.00000012   -0.00006027
     atom    9 type  1   force =     0.00000032   -0.00000018    0.00005941
     atom   10 type  1   force =     0.00000000    0.00000000    0.00006189
     atom   11 type  2   force =    -0.00000012    0.00000007   -0.00006054
     atom   12 type  2   force =     0.00000000    0.00000000   -0.00006138
     atom   13 type  1   force =     0.00000000    0.00000037    0.00005941
     atom   14 type  1   force =     0.00000294    0.00000170    0.00006257
     atom   15 type  2   force =    -0.00000000   -0.00000014   -0.00006054
     atom   16 type  2   force =    -0.00000021   -0.00000012   -0.00006027
     The non-local contrib.  to forces
     atom    1 type  1   force =     0.00000001    0.00000000   -0.00483113
     atom    2 type  1   force =     0.00000000   -0.00000188   -0.00483523
     atom    3 type  2   force =    -0.00000007   -0.00000004    0.00575149
     atom    4 type  2   force =    -0.00000000    0.00000002    0.00574944
     atom    5 type  1   force =     0.00000000   -0.00000000   -0.00483171
     atom    6 type  1   force =    -0.00000163    0.00000094   -0.00483523
     atom    7 type  2   force =     0.00000000   -0.00000000    0.00575390
     atom    8 type  2   force =     0.00000001   -0.00000001    0.00574944
     atom    9 type  1   force =    -0.00000001    0.00000000   -0.00483113
     atom   10 type  1   force =     0.00000000    0.00000000   -0.00483498
     atom   11 type  2   force =     0.00000007   -0.00000004    0.00575149
     atom   12 type  2   force =     0.00000000   -0.00000000    0.00574953
     atom   13 type  1   force =     0.00000000   -0.00000001   -0.00483113
     atom   14 type  1   force =     0.00000163    0.00000094   -0.00483523
     atom   15 type  2   force =    -0.00000000    0.00000008    0.00575149
     atom   16 type  2   force =    -0.00000001   -0.00000001    0.00574944
     The ionic contribution  to forces
     atom    1 type  1   force =    -0.00000000    0.00000001    0.06271747
     atom    2 type  1   force =     0.00000000    0.00000001    0.06271747
     atom    3 type  2   force =    -0.00000000    0.00000001   -0.06271747
     atom    4 type  2   force =     0.00000000    0.00000000   -0.06271747
     atom    5 type  1   force =     0.00000000   -0.00000000    0.06271747
     atom    6 type  1   force =    -0.00000000   -0.00000002    0.06271747
     atom    7 type  2   force =     0.00000000   -0.00000000   -0.06271747
     atom    8 type  2   force =    -0.00000000   -0.00000001   -0.06271747
     atom    9 type  1   force =    -0.00000000    0.00000001    0.06271747
     atom   10 type  1   force =     0.00000000    0.00000001    0.06271747
     atom   11 type  2   force =    -0.00000000    0.00000001   -0.06271747
     atom   12 type  2   force =     0.00000000    0.00000000   -0.06271747
     atom   13 type  1   force =     0.00000000   -0.00000000    0.06271747
     atom   14 type  1   force =    -0.00000000   -0.00000002    0.06271747
     atom   15 type  2   force =     0.00000000   -0.00000000   -0.06271747
     atom   16 type  2   force =    -0.00000000   -0.00000001   -0.06271747
     The local contribution  to forces
     atom    1 type  1   force =     0.00000121    0.00000080   -0.05828880
     atom    2 type  1   force =     0.00000009    0.00000471   -0.05828831
     atom    3 type  2   force =    -0.00000075   -0.00000040    0.05697301
     atom    4 type  2   force =     0.00000002   -0.00000081    0.05696837
     atom    5 type  1   force =    -0.00000000    0.00000010   -0.05828472
     atom    6 type  1   force =     0.00000404   -0.00000243   -0.05828831
     atom    7 type  2   force =    -0.00000000    0.00000003    0.05696797
     atom    8 type  2   force =    -0.00000071    0.00000039    0.05696837
     atom    9 type  1   force =    -0.00000121    0.00000080   -0.05828880
     atom   10 type  1   force =     0.00000009    0.00000005   -0.05828646
     atom   11 type  2   force =     0.00000075   -0.00000040    0.05697301
     atom   12 type  2   force =     0.00000002    0.00000001    0.05696934
     atom   13 type  1   force =    -0.00000000   -0.00000130   -0.05828880
     atom   14 type  1   force =    -0.00000403   -0.00000243   -0.05828831
     atom   15 type  2   force =    -0.00000000    0.00000089    0.05697301
     atom   16 type  2   force =     0.00000071    0.00000039    0.05696837
     The core correction contribution to forces
     atom    1 type  1   force =    -0.00000007   -0.00000003    0.00046399
     atom    2 type  1   force =     0.00000001   -0.00000004    0.00046423
     atom    3 type  2   force =    -0.00000000   -0.00000000   -0.00006498
     atom    4 type  2   force =    -0.00000000   -0.00000001   -0.00006496
     atom    5 type  1   force =     0.00000000    0.00000001    0.00046386
     atom    6 type  1   force =    -0.00000004    0.00000001    0.00046423
     atom    7 type  2   force =     0.00000000   -0.00000000   -0.00006502
     atom    8 type  2   force =    -0.00000001    0.00000000   -0.00006496
     atom    9 type  1   force =     0.00000007   -0.00000003    0.00046399
     atom   10 type  1   force =     0.00000001    0.00000001    0.00046414
     atom   11 type  2   force =     0.00000000   -0.00000000   -0.00006498
     atom   12 type  2   force =    -0.00000000   -0.00000000   -0.00006496
     atom   13 type  1   force =     0.00000000    0.00000010    0.00046399
     atom   14 type  1   force =     0.00000004    0.00000001    0.00046423
     atom   15 type  2   force =     0.00000000    0.00000000   -0.00006498
     atom   16 type  2   force =     0.00000001    0.00000000   -0.00006496
     The Hubbard contrib.    to forces
     atom    1 type  1   force =     0.00000000    0.00000000    0.00000000
     atom    2 type  1   force =     0.00000000    0.00000000    0.00000000
     atom    3 type  2   force =     0.00000000    0.00000000    0.00000000
     atom    4 type  2   force =     0.00000000    0.00000000    0.00000000
     atom    5 type  1   force =     0.00000000    0.00000000    0.00000000
     atom    6 type  1   force =     0.00000000    0.00000000    0.00000000
     atom    7 type  2   force =     0.00000000    0.00000000    0.00000000
     atom    8 type  2   force =     0.00000000    0.00000000    0.00000000
     atom    9 type  1   force =     0.00000000    0.00000000    0.00000000
     atom   10 type  1   force =     0.00000000    0.00000000    0.00000000
     atom   11 type  2   force =     0.00000000    0.00000000    0.00000000
     atom   12 type  2   force =     0.00000000    0.00000000    0.00000000
     atom   13 type  1   force =     0.00000000    0.00000000    0.00000000
     atom   14 type  1   force =     0.00000000    0.00000000    0.00000000
     atom   15 type  2   force =     0.00000000    0.00000000    0.00000000
     atom   16 type  2   force =     0.00000000    0.00000000    0.00000000
     The SCF correction term to forces
     atom    1 type  1   force =    -0.00000147   -0.00000085   -0.00000479
     atom    2 type  1   force =    -0.00000000   -0.00000619    0.00000173
     atom    3 type  2   force =     0.00000094    0.00000054   -0.00000526
     atom    4 type  2   force =    -0.00000000    0.00000104    0.00000169
     atom    5 type  1   force =    -0.00000000   -0.00000000   -0.00001077
     atom    6 type  1   force =    -0.00000536    0.00000310    0.00000173
     atom    7 type  2   force =    -0.00000000   -0.00000000   -0.00000286
     atom    8 type  2   force =     0.00000090   -0.00000052    0.00000169
     atom    9 type  1   force =     0.00000147   -0.00000085   -0.00000479
     atom   10 type  1   force =    -0.00000000   -0.00000000   -0.00000094
     atom   11 type  2   force =    -0.00000094    0.00000054   -0.00000526
     atom   12 type  2   force =    -0.00000000   -0.00000000   -0.00000049
     atom   13 type  1   force =     0.00000000    0.00000170   -0.00000479
     atom   14 type  1   force =     0.00000536    0.00000310    0.00000173
     atom   15 type  2   force =    -0.00000000   -0.00000109   -0.00000526
     atom   16 type  2   force =    -0.00000090   -0.00000052    0.00000169

     Total force =     0.000242     Total SCF correction =     0.000021

     General routines

     Parallel routines

   This run was terminated on:  23:11:25  18Jul2025

   JOB DONE.
Note: The following floating-point exceptions are signalling: IEEE_INVALID_FLAG
Note: The following floating-point exceptions are signalling: IEEE_INVALID_FLAG
Note: The following floating-point exceptions are signalling: IEEE_INVALID_FLAG
Note: The following floating-point exceptions are signalling: IEEE_INVALID_FLAG
Note: The following floating-point exceptions are signalling: IEEE_INVALID_FLAG
Note: The following floating-point exceptions are signalling: IEEE_INVALID_FLAG
Note: The following floating-point exceptions are signalling: IEEE_INVALID_FLAG
Note: The following floating-point exceptions are signalling: IEEE_INVALID_FLAG