     Program PWSCF v.7.2 starts on 22Jul2025 at 14:41:34

     Reading input from ZnO-2.94-1.45-231.in
Warning: card &CELL ignored
Warning: card / ignored
Warning: card &FCP ignored
Warning: card / ignored
Warning: card &RISM ignored
Warning: card / ignored

     Current dimensions of program PWSCF are:
     Max number of different atomic species (ntypx) = 10
     Max number of k-points (npk) =  40000
     Max angular momentum in pseudopotentials (lmaxx) =  4
     file Zn.upf: wavefunction(s)  3D renormalized
     Found identity + (  0.0000  0.3333  0.0000) symmetry
     This is a supercell, fractional translations are disabled

     K-points division:     npool     =       2
     R & G space division:  proc/nbgrp/npool/nimage =      12
     Subspace diagonalization in iterative solution of the eigenvalue problem:
     a serial algorithm will be used

     Using Slab Decomposition

     bravais-lattice index     =            0
     lattice parameter (alat)  =      12.3576  a.u.
     unit-cell volume          =    1978.7861 (a.u.)^3
     number of atoms/cell      =           24
     number of atomic types    =            2
     number of electrons       =       216.00
     number of Kohn-Sham states=          108
     kinetic-energy cutoff     =      50.0000  Ry
     charge density cutoff     =     400.0000  Ry
     scf convergence threshold =      1.0E-08
     mixing beta               =       0.3000
     number of iterations used =            8  plain     mixing
     Exchange-correlation= PBE
                           (   1   4   3   4   0   0   0)

     celldm(1)=  12.357644  celldm(2)=   0.000000  celldm(3)=   0.000000
     celldm(4)=   0.000000  celldm(5)=   0.000000  celldm(6)=   0.000000

     crystal axes: (cart. coord. in units of alat)
               a(1) = (   1.000000   0.000000   0.000000 )
               a(2) = (  -0.750000   1.299038   0.000000 )
               a(3) = (   0.000000   0.000000   0.807179 )

     reciprocal axes: (cart. coord. in units 2 pi/alat)
               b(1) = (  1.000000  0.577350 -0.000000 )
               b(2) = (  0.000000  0.769800  0.000000 )
               b(3) = (  0.000000 -0.000000  1.238882 )

     PseudoPot. # 1 for Zn read from file:
     /home/jvc/QEspresso7.2/ZnO_database/pseudos/Zn.upf
     MD5 check sum: 7f56cabf9682ed8c977c2f7d0c5985c5
     Pseudo is Ultrasoft + core correction, Zval = 12.0
     Generated using &quot;atomic&quot; code by A. Dal Corso  v.6.2.2
     Using radial grid of 1201 points,  6 beta functions with:
                l(1) =   0
                l(2) =   0
                l(3) =   1
                l(4) =   1
                l(5) =   2
                l(6) =   2
     Q(r) pseudized with 0 coefficients

     PseudoPot. # 2 for O  read from file:
     /home/jvc/QEspresso7.2/ZnO_database/pseudos/O.upf
     MD5 check sum: 91400c9766925bcf19f520983a725ff0
     Pseudo is Ultrasoft + core correction, Zval =  6.0
     Generated using &quot;atomic&quot; code by A. Dal Corso  v.6.3MaX
     Using radial grid of 1095 points,  4 beta functions with:
                l(1) =   0
                l(2) =   0
                l(3) =   1
                l(4) =   1
     Q(r) pseudized with 0 coefficients

     atomic species   valence    mass     pseudopotential
        Zn            12.00    65.38000     Zn( 1.00)
        O              6.00    15.99900     O ( 1.00)

     No symmetry found

                                    s                        frac. trans.

      isym =  1     identity

 cryst.   s( 1) = (     1          0          0      )
                  (     0          1          0      )
                  (     0          0          1      )

 cart.    s( 1) = (  1.0000000  0.0000000  0.0000000 )
                  (  0.0000000  1.0000000  0.0000000 )
                  (  0.0000000  0.0000000  1.0000000 )

   Cartesian axes

     site n.     atom                  positions (alat units)
         1           Zn  tau(   1) = (   0.2500000   0.1443376   0.4041010  )
         2           Zn  tau(   2) = (   0.0000000   0.2886751   0.0005114  )
         3           O   tau(   3) = (   0.2500000   0.1443376   0.7100565  )
         4           O   tau(   4) = (   0.0000000   0.2886751   0.3064669  )
         5           Zn  tau(   5) = (   0.0000000   0.5773503   0.4041010  )
         6           Zn  tau(   6) = (  -0.2500000   0.7216878   0.0005114  )
         7           O   tau(   7) = (   0.0000000   0.5773503   0.7100565  )
         8           O   tau(   8) = (  -0.2500000   0.7216878   0.3064669  )
         9           Zn  tau(   9) = (  -0.2500000   1.0103630   0.4041010  )
        10           Zn  tau(  10) = (  -0.5000000   1.1547005   0.0005114  )
        11           O   tau(  11) = (  -0.2500000   1.0103630   0.7100565  )
        12           O   tau(  12) = (  -0.5000000   1.1547005   0.3064669  )
        13           Zn  tau(  13) = (   0.7500000   0.1443376   0.4041010  )
        14           Zn  tau(  14) = (   0.5000000   0.2886751   0.0005114  )
        15           O   tau(  15) = (   0.7500000   0.1443376   0.7100565  )
        16           O   tau(  16) = (   0.5000000   0.2886751   0.3064669  )
        17           Zn  tau(  17) = (   0.5000000   0.5773503   0.4041010  )
        18           Zn  tau(  18) = (   0.2500000   0.7216878   0.0005114  )
        19           O   tau(  19) = (   0.5000000   0.5773503   0.7100565  )
        20           O   tau(  20) = (   0.2500000   0.7216878   0.3064669  )
        21           Zn  tau(  21) = (   0.2500000   1.0103630   0.4041010  )
        22           Zn  tau(  22) = (   0.0000000   1.1547005   0.0005114  )
        23           O   tau(  23) = (   0.2500000   1.0103630   0.7100565  )
        24           O   tau(  24) = (   0.0000000   1.1547005   0.3064669  )

   Crystallographic axes

     site n.     atom                  positions (cryst. coord.)
         1           Zn  tau(   1) = (  0.3333333  0.1111111  0.5006336  )
         2           Zn  tau(   2) = (  0.1666667  0.2222222  0.0006336  )
         3           O   tau(   3) = (  0.3333333  0.1111111  0.8796764  )
         4           O   tau(   4) = (  0.1666667  0.2222222  0.3796764  )
         5           Zn  tau(   5) = (  0.3333333  0.4444444  0.5006336  )
         6           Zn  tau(   6) = (  0.1666667  0.5555556  0.0006336  )
         7           O   tau(   7) = (  0.3333333  0.4444444  0.8796764  )
         8           O   tau(   8) = (  0.1666667  0.5555556  0.3796764  )
         9           Zn  tau(   9) = (  0.3333333  0.7777778  0.5006336  )
        10           Zn  tau(  10) = (  0.1666667  0.8888889  0.0006336  )
        11           O   tau(  11) = (  0.3333333  0.7777778  0.8796764  )
        12           O   tau(  12) = (  0.1666667  0.8888889  0.3796764  )
        13           Zn  tau(  13) = (  0.8333333  0.1111111  0.5006336  )
        14           Zn  tau(  14) = (  0.6666667  0.2222222  0.0006336  )
        15           O   tau(  15) = (  0.8333333  0.1111111  0.8796764  )
        16           O   tau(  16) = (  0.6666667  0.2222222  0.3796764  )
        17           Zn  tau(  17) = (  0.8333333  0.4444444  0.5006336  )
        18           Zn  tau(  18) = (  0.6666667  0.5555556  0.0006336  )
        19           O   tau(  19) = (  0.8333333  0.4444444  0.8796764  )
        20           O   tau(  20) = (  0.6666667  0.5555556  0.3796764  )
        21           Zn  tau(  21) = (  0.8333333  0.7777778  0.5006336  )
        22           Zn  tau(  22) = (  0.6666667  0.8888889  0.0006336  )
        23           O   tau(  23) = (  0.8333333  0.7777778  0.8796764  )
        24           O   tau(  24) = (  0.6666667  0.8888889  0.3796764  )

     number of k points=    20
                       cart. coord. in units 2pi/alat
        k(    1) = (   0.0000000   0.0000000   0.0000000), wk =   0.0555556
        k(    2) = (   0.0000000   0.0000000   0.2064804), wk =   0.1111111
        k(    3) = (   0.0000000   0.0000000   0.4129608), wk =   0.1111111
        k(    4) = (   0.0000000   0.0000000  -0.6194412), wk =   0.0555556
        k(    5) = (   0.0000000  -0.3849002   0.0000000), wk =   0.0555556
        k(    6) = (   0.0000000  -0.3849002   0.2064804), wk =   0.1111111
        k(    7) = (   0.0000000  -0.3849002   0.4129608), wk =   0.1111111
        k(    8) = (   0.0000000  -0.3849002  -0.6194412), wk =   0.0555556
        k(    9) = (   0.3333333   0.1924501   0.0000000), wk =   0.1111111
        k(   10) = (   0.3333333   0.1924501   0.2064804), wk =   0.1111111
        k(   11) = (   0.3333333   0.1924501   0.4129608), wk =   0.1111111
        k(   12) = (   0.3333333   0.1924501  -0.6194412), wk =   0.1111111
        k(   13) = (   0.3333333  -0.1924501   0.0000000), wk =   0.1111111
        k(   14) = (   0.3333333  -0.1924501   0.2064804), wk =   0.1111111
        k(   15) = (   0.3333333  -0.1924501   0.4129608), wk =   0.1111111
        k(   16) = (   0.3333333  -0.1924501  -0.6194412), wk =   0.1111111
        k(   17) = (  -0.3333333  -0.1924501   0.2064804), wk =   0.1111111
        k(   18) = (  -0.3333333  -0.1924501   0.4129608), wk =   0.1111111
        k(   19) = (  -0.3333333   0.1924501   0.2064804), wk =   0.1111111
        k(   20) = (  -0.3333333   0.1924501   0.4129608), wk =   0.1111111

                       cryst. coord.
        k(    1) = (   0.0000000   0.0000000   0.0000000), wk =   0.0555556
        k(    2) = (   0.0000000   0.0000000   0.1666667), wk =   0.1111111
        k(    3) = (   0.0000000   0.0000000   0.3333333), wk =   0.1111111
        k(    4) = (   0.0000000   0.0000000  -0.5000000), wk =   0.0555556
        k(    5) = (   0.0000000  -0.5000000   0.0000000), wk =   0.0555556
        k(    6) = (   0.0000000  -0.5000000   0.1666667), wk =   0.1111111
        k(    7) = (   0.0000000  -0.5000000   0.3333333), wk =   0.1111111
        k(    8) = (   0.0000000  -0.5000000  -0.5000000), wk =   0.0555556
        k(    9) = (   0.3333333   0.0000000   0.0000000), wk =   0.1111111
        k(   10) = (   0.3333333   0.0000000   0.1666667), wk =   0.1111111
        k(   11) = (   0.3333333   0.0000000   0.3333333), wk =   0.1111111
        k(   12) = (   0.3333333   0.0000000  -0.5000000), wk =   0.1111111
        k(   13) = (   0.3333333  -0.5000000   0.0000000), wk =   0.1111111
        k(   14) = (   0.3333333  -0.5000000   0.1666667), wk =   0.1111111
        k(   15) = (   0.3333333  -0.5000000   0.3333333), wk =   0.1111111
        k(   16) = (   0.3333333  -0.5000000  -0.5000000), wk =   0.1111111
        k(   17) = (  -0.3333333  -0.0000000   0.1666667), wk =   0.1111111
        k(   18) = (  -0.3333333  -0.0000000   0.3333333), wk =   0.1111111
        k(   19) = (  -0.3333333   0.5000000   0.1666667), wk =   0.1111111
        k(   20) = (  -0.3333333   0.5000000   0.3333333), wk =   0.1111111

     Check: negative core charge=   -0.000002

     Initial potential from superposition of free atoms

     starting charge     215.9553, renormalised to     216.0000
     Starting wfcs are  156 randomized atomic wfcs

     Self-consistent Calculation

     iteration #  1     ecut=    50.00 Ry     beta= 0.30
[...]
     1.0000   1.0000   1.0000   1.0000   1.0000   1.0000   1.0000   1.0000
     1.0000   1.0000   1.0000   1.0000   1.0000   1.0000   1.0000   1.0000
     1.0000   1.0000   1.0000   1.0000   1.0000   1.0000   1.0000   1.0000
     1.0000   1.0000   1.0000   1.0000   1.0000   1.0000   1.0000   1.0000
     1.0000   1.0000   1.0000   1.0000   1.0000   1.0000   1.0000   1.0000
     1.0000   1.0000   1.0000   1.0000   1.0000   1.0000   1.0000   1.0000
     1.0000   1.0000   1.0000   1.0000

[...]

          k = 0.3333-0.1925-0.6194 ( 11824 PWs)   bands (ev):

[...]

          k =-0.3333-0.1925 0.2065 ( 11784 PWs)   bands (ev):

[...]

          k =-0.3333 0.1925 0.4130 ( 11825 PWs)   bands (ev):

   -10.7129 -10.5180 -10.5179 -10.4121 -10.2963 -10.2962 -10.2962 -10.2906
   -10.2905 -10.1860 -10.1859 -10.1859   1.0368   1.0368   1.0820   1.1038
     1.1038   1.1038   1.1268   1.1268   1.1443   1.1968   1.1968   1.1968
     1.4331   1.4425   1.5169   1.5169   1.5220   1.5381   1.5381   1.5437
     1.5839   1.5839   1.5839   1.6853   1.6853   1.7338   1.7338   1.7338
     1.7417   1.7417   1.8904   1.8904   1.8904   1.9133   1.9133   1.9133
     2.4609   2.4609   2.4696   2.4884   2.4958   2.4958   2.4958   2.5183
     2.5184   2.5677   2.5677   2.5677   2.5935   2.6056   2.6056   2.6172
     2.6725   2.6725   2.6913   2.6913   2.6913   2.8116   2.8116   2.8117
     3.2568   3.2568   3.2568   3.5916   3.5916   3.5916   3.8659   3.8659
     3.9342   4.4657   4.4657   4.5349   4.5349   4.5350   4.9824   4.9825
     5.0816   5.0817   5.0817   5.1229   5.3663   5.3663   5.3813   5.3813
     5.3813   5.5974   5.8446   5.8447   5.8447   5.9569   5.9569   6.0234
     6.0903   6.0904   6.2837   6.4800

     occupation numbers
     1.0000   1.0000   1.0000   1.0000   1.0000   1.0000   1.0000   1.0000
     1.0000   1.0000   1.0000   1.0000   1.0000   1.0000   1.0000   1.0000
     1.0000   1.0000   1.0000   1.0000   1.0000   1.0000   1.0000   1.0000
     1.0000   1.0000   1.0000   1.0000   1.0000   1.0000   1.0000   1.0000
     1.0000   1.0000   1.0000   1.0000   1.0000   1.0000   1.0000   1.0000
     1.0000   1.0000   1.0000   1.0000   1.0000   1.0000   1.0000   1.0000
     1.0000   1.0000   1.0000   1.0000   1.0000   1.0000   1.0000   1.0000
     1.0000   1.0000   1.0000   1.0000   1.0000   1.0000   1.0000   1.0000
     1.0000   1.0000   1.0000   1.0000   1.0000   1.0000   1.0000   1.0000
     1.0000   1.0000   1.0000   1.0000   1.0000   1.0000   1.0000   1.0000
     1.0000   1.0000   1.0000   1.0000   1.0000   1.0000   1.0000   1.0000
     1.0000   1.0000   1.0000   1.0000   1.0000   1.0000   1.0000   1.0000
     1.0000   1.0000   1.0000   1.0000   1.0000   1.0000   1.0000   1.0000
     1.0000   1.0000   1.0000   1.0000

     highest occupied level (ev):     6.8873

!    total energy              =   -2169.82132740 Ry
     estimated scf accuracy    <          4.3E-09 Ry

     The total energy is the sum of the following terms:
     one-electron contribution =    -927.15116174 Ry
     hartree contribution      =     709.73485143 Ry
     xc contribution           =    -657.27662516 Ry
     ewald contribution        =   -1295.12839192 Ry

     convergence has been achieved in  32 iterations

     Forces acting on atoms (cartesian axes, Ry/au):

     atom    1 type  1   force =     0.00001210    0.00000481    0.00006215
     atom    2 type  1   force =     0.00000352    0.00000878    0.00004603
     atom    3 type  2   force =    -0.00000138    0.00000209   -0.00005825
     atom    4 type  2   force =    -0.00000070    0.00000047   -0.00005868
     atom    5 type  1   force =     0.00000098    0.00000177    0.00006938
     atom    6 type  1   force =     0.00000546   -0.00001022    0.00005505
     atom    7 type  2   force =    -0.00000010   -0.00000068   -0.00005845
     atom    8 type  2   force =    -0.00000050    0.00000029   -0.00005844
     atom    9 type  1   force =     0.00000174    0.00000239    0.00005467
     atom   10 type  1   force =     0.00001084    0.00000845    0.00006276
     atom   11 type  2   force =    -0.00000037   -0.00000000   -0.00005947
     atom   12 type  2   force =    -0.00000073   -0.00000009   -0.00005918
     atom   13 type  1   force =    -0.00001297    0.00000647    0.00006401
     atom   14 type  1   force =     0.00000000    0.00000140    0.00005785
     atom   15 type  2   force =     0.00000015    0.00000177   -0.00005993
     atom   16 type  2   force =    -0.00000040    0.00000034   -0.00005878
     atom   17 type  1   force =    -0.00000041   -0.00000922    0.00005644
     atom   18 type  1   force =    -0.00000211   -0.00001909    0.00006060
     atom   19 type  2   force =    -0.00000037   -0.00000069   -0.00005816
     atom   20 type  2   force =    -0.00000017   -0.00000004   -0.00005874
     atom   21 type  1   force =    -0.00000224   -0.00000325    0.00004953
     atom   22 type  1   force =    -0.00001166    0.00000609    0.00006643
     atom   23 type  2   force =     0.00000035    0.00000005   -0.00005850
     atom   24 type  2   force =    -0.00000105   -0.00000189   -0.00005834
     The non-local contrib.  to forces
     atom    1 type  1   force =     0.00000487    0.00000194   -0.00483133
     atom    2 type  1   force =     0.00000034    0.00000537   -0.00483676
     atom    3 type  2   force =    -0.00000258   -0.00000204    0.00575685
     atom    4 type  2   force =    -0.00000123   -0.00000061    0.00575743
     atom    5 type  1   force =    -0.00000006   -0.00000085   -0.00483045
     atom    6 type  1   force =     0.00000124   -0.00000364   -0.00483314
     atom    7 type  2   force =     0.00000091    0.00000140    0.00575786
     atom    8 type  2   force =    -0.00000043    0.00000120    0.00575763
     atom    9 type  1   force =     0.00000007    0.00000181   -0.00483381
     atom   10 type  1   force =     0.00000535    0.00000315   -0.00483119
     atom   11 type  2   force =     0.00000041    0.00000096    0.00575688
     atom   12 type  2   force =    -0.00000296   -0.00000158    0.00575609
     atom   13 type  1   force =    -0.00000525    0.00000196   -0.00483132
     atom   14 type  1   force =     0.00000026    0.00000173   -0.00483513
     atom   15 type  2   force =     0.00000241   -0.00000338    0.00575656
     atom   16 type  2   force =     0.00000001   -0.00000035    0.00575714
     atom   17 type  1   force =    -0.00000062   -0.00000462   -0.00483301
     atom   18 type  1   force =    -0.00000067   -0.00000701   -0.00483164
     atom   19 type  2   force =    -0.00000041    0.00000302    0.00575790
     atom   20 type  2   force =     0.00000039    0.00000289    0.00575626
     atom   21 type  1   force =    -0.00000086   -0.00000112   -0.00483433
     atom   22 type  1   force =    -0.00000537    0.00000234   -0.00483020
     atom   23 type  2   force =    -0.00000005    0.00000085    0.00575798
     atom   24 type  2   force =     0.00000169   -0.00000249    0.00575585
     The ionic contribution  to forces
     atom    1 type  1   force =    -0.00000000    0.00000000    0.06271747
     atom    2 type  1   force =    -0.00000000    0.00000001    0.06271747
     atom    3 type  2   force =    -0.00000000    0.00000000   -0.06271747
     atom    4 type  2   force =    -0.00000000    0.00000000   -0.06271747
     atom    5 type  1   force =    -0.00000001   -0.00000000    0.06271747
     atom    6 type  1   force =    -0.00000001   -0.00000001    0.06271747
     atom    7 type  2   force =    -0.00000001   -0.00000000   -0.06271747
     atom    8 type  2   force =    -0.00000000   -0.00000000   -0.06271747
     atom    9 type  1   force =    -0.00000001   -0.00000002    0.06271748
     atom   10 type  1   force =    -0.00000001   -0.00000001    0.06271747
     atom   11 type  2   force =    -0.00000001   -0.00000001   -0.06271748
     atom   12 type  2   force =    -0.00000001   -0.00000001   -0.06271747
     atom   13 type  1   force =     0.00000001    0.00000001    0.06271747
     atom   14 type  1   force =    -0.00000001    0.00000002    0.06271747
     atom   15 type  2   force =     0.00000000    0.00000000   -0.06271747
     atom   16 type  2   force =    -0.00000000    0.00000001   -0.06271747
     atom   17 type  1   force =    -0.00000001    0.00000001    0.06271747
     atom   18 type  1   force =     0.00000003   -0.00000000    0.06271747
     atom   19 type  2   force =    -0.00000001    0.00000001   -0.06271747
     atom   20 type  2   force =     0.00000002   -0.00000000   -0.06271747
     atom   21 type  1   force =     0.00000002   -0.00000001    0.06271747
     atom   22 type  1   force =     0.00000001    0.00000000    0.06271747
     atom   23 type  2   force =     0.00000001   -0.00000000   -0.06271747
     atom   24 type  2   force =     0.00000001    0.00000000   -0.06271747
     The local contribution  to forces
     atom    1 type  1   force =    -0.00001798   -0.00000372   -0.05829518
     atom    2 type  1   force =    -0.00000323   -0.00001344   -0.05826915
     atom    3 type  2   force =    -0.00000335   -0.00000664    0.05696314
     atom    4 type  2   force =     0.00000126   -0.00000418    0.05695849
     atom    5 type  1   force =     0.00000020   -0.00000366   -0.05830025
     atom    6 type  1   force =    -0.00000736    0.00001310   -0.05828491
     atom    7 type  2   force =     0.00000015    0.00000430    0.05696499
     atom    8 type  2   force =     0.00000010    0.00000263    0.05695973
     atom    9 type  1   force =    -0.00000176   -0.00000450   -0.05828259
     atom   10 type  1   force =    -0.00001763   -0.00001581   -0.05829344
     atom   11 type  2   force =     0.00000193    0.00000140    0.05696300
     atom   12 type  2   force =    -0.00000282   -0.00000166    0.05696276
     atom   13 type  1   force =     0.00001859   -0.00000276   -0.05829336
     atom   14 type  1   force =     0.00000162   -0.00000038   -0.05828399
     atom   15 type  2   force =     0.00000375   -0.00000866    0.05696417
     atom   16 type  2   force =     0.00000105   -0.00000158    0.05696154
     atom   17 type  1   force =     0.00000033    0.00001248   -0.05828530
     atom   18 type  1   force =     0.00000561    0.00002762   -0.05829062
     atom   19 type  2   force =     0.00000039    0.00000768    0.05695866
     atom   20 type  2   force =    -0.00000085    0.00000359    0.05696190
     atom   21 type  1   force =     0.00000307    0.00000178   -0.05827364
     atom   22 type  1   force =     0.00001820   -0.00001193   -0.05829763
     atom   23 type  2   force =    -0.00000209    0.00000435    0.05696089
     atom   24 type  2   force =     0.00000448    0.00000192    0.05696214
     The core correction contribution to forces
     atom    1 type  1   force =     0.00000032   -0.00000009    0.00046429
     atom    2 type  1   force =     0.00000005    0.00000006    0.00046363
     atom    3 type  2   force =     0.00000003    0.00000001   -0.00006507
     atom    4 type  2   force =     0.00000002    0.00000000   -0.00006508
     atom    5 type  1   force =    -0.00000002    0.00000028    0.00046434
     atom    6 type  1   force =     0.00000014   -0.00000018    0.00046403
     atom    7 type  2   force =    -0.00000001   -0.00000001   -0.00006507
     atom    8 type  2   force =     0.00000001   -0.00000002   -0.00006508
     atom    9 type  1   force =     0.00000010    0.00000003    0.00046395
     atom   10 type  1   force =     0.00000026    0.00000043    0.00046416
     atom   11 type  2   force =     0.00000000   -0.00000000   -0.00006506
     atom   12 type  2   force =     0.00000004    0.00000002   -0.00006506
     atom   13 type  1   force =    -0.00000028   -0.00000019    0.00046413
     atom   14 type  1   force =    -0.00000014   -0.00000016    0.00046410
     atom   15 type  2   force =    -0.00000003    0.00000002   -0.00006506
     atom   16 type  2   force =     0.00000000   -0.00000000   -0.00006507
     atom   17 type  1   force =     0.00000003   -0.00000008    0.00046399
     atom   18 type  1   force =    -0.00000022   -0.00000052    0.00046411
     atom   19 type  2   force =     0.00000000   -0.00000002   -0.00006509
     atom   20 type  2   force =    -0.00000001   -0.00000004   -0.00006506
     atom   21 type  1   force =    -0.00000004    0.00000008    0.00046354
     atom   22 type  1   force =    -0.00000026    0.00000033    0.00046425
     atom   23 type  2   force =    -0.00000001    0.00000000   -0.00006509
     atom   24 type  2   force =    -0.00000001    0.00000004   -0.00006506
     The Hubbard contrib.    to forces
     atom    1 type  1   force =     0.00000000    0.00000000    0.00000000
     atom    2 type  1   force =     0.00000000    0.00000000    0.00000000
     atom    3 type  2   force =     0.00000000    0.00000000    0.00000000
     atom    4 type  2   force =     0.00000000    0.00000000    0.00000000
     atom    5 type  1   force =     0.00000000    0.00000000    0.00000000
     atom    6 type  1   force =     0.00000000    0.00000000    0.00000000
     atom    7 type  2   force =     0.00000000    0.00000000    0.00000000
     atom    8 type  2   force =     0.00000000    0.00000000    0.00000000
     atom    9 type  1   force =     0.00000000    0.00000000    0.00000000
     atom   10 type  1   force =     0.00000000    0.00000000    0.00000000
     atom   11 type  2   force =     0.00000000    0.00000000    0.00000000
     atom   12 type  2   force =     0.00000000    0.00000000    0.00000000
     atom   13 type  1   force =     0.00000000    0.00000000    0.00000000
     atom   14 type  1   force =     0.00000000    0.00000000    0.00000000
     atom   15 type  2   force =     0.00000000    0.00000000    0.00000000
     atom   16 type  2   force =     0.00000000    0.00000000    0.00000000
     atom   17 type  1   force =     0.00000000    0.00000000    0.00000000
     atom   18 type  1   force =     0.00000000    0.00000000    0.00000000
     atom   19 type  2   force =     0.00000000    0.00000000    0.00000000
     atom   20 type  2   force =     0.00000000    0.00000000    0.00000000
     atom   21 type  1   force =     0.00000000    0.00000000    0.00000000
     atom   22 type  1   force =     0.00000000    0.00000000    0.00000000
     atom   23 type  2   force =     0.00000000    0.00000000    0.00000000
     atom   24 type  2   force =     0.00000000    0.00000000    0.00000000
     The SCF correction term to forces
     atom    1 type  1   force =     0.00002509    0.00000664    0.00000449
     atom    2 type  1   force =     0.00000657    0.00001676   -0.00003157
     atom    3 type  2   force =     0.00000473    0.00001072    0.00000189
     atom    4 type  2   force =    -0.00000055    0.00000523    0.00000555
     atom    5 type  1   force =     0.00000107    0.00000596    0.00001586
     atom    6 type  1   force =     0.00001165   -0.00001953   -0.00001082
     atom    7 type  2   force =    -0.00000094   -0.00000640   -0.00000117
     atom    8 type  2   force =     0.00000003   -0.00000356    0.00000434
     atom    9 type  1   force =     0.00000355    0.00000503   -0.00001276
     atom   10 type  1   force =     0.00002307    0.00002065    0.00000335
     atom   11 type  2   force =    -0.00000250   -0.00000238    0.00000079
     atom   12 type  2   force =     0.00000522    0.00000311    0.00000209
     atom   13 type  1   force =    -0.00002583    0.00000742    0.00000467
     atom   14 type  1   force =    -0.00000153    0.00000015   -0.00000701
     atom   15 type  2   force =    -0.00000578    0.00001376   -0.00000054
     atom   16 type  2   force =    -0.00000125    0.00000222    0.00000268
     atom   17 type  1   force =     0.00000006   -0.00001704   -0.00000912
     atom   18 type  1   force =    -0.00000665   -0.00003921   -0.00000112
     atom   19 type  2   force =    -0.00000015   -0.00001140    0.00000542
     atom   20 type  2   force =     0.00000049   -0.00000651    0.00000322
     atom   21 type  1   force =    -0.00000422   -0.00000401   -0.00002592
     atom   22 type  1   force =    -0.00002403    0.00001531    0.00001013
     atom   23 type  2   force =     0.00000268   -0.00000519    0.00000277
     atom   24 type  2   force =    -0.00000701   -0.00000140    0.00000379

     Total force =     0.000291     Total SCF correction =     0.000097
     SCF correction compared to forces is large: reduce conv_thr to get better values

     General routines

     Parallel routines

   This run was terminated on:  15:27:13  22Jul2025

   JOB DONE.
Note: The following floating-point exceptions are signalling: IEEE_INVALID_FLAG
Note: The following floating-point exceptions are signalling: IEEE_INVALID_FLAG