     Program PWSCF v.7.2 starts on 22Jul2025 at  0: 5: 9

     Reading input from /home/jvc/QEspresso7.2/ZnO_database/scripts/cell231.in/ZnO-3.53-1.58-231.in
Warning: card &CELL ignored
Warning: card / ignored
Warning: card &FCP ignored
Warning: card / ignored
Warning: card &RISM ignored
Warning: card / ignored

     Current dimensions of program PWSCF are:
     Max number of different atomic species (ntypx) = 10
     Max number of k-points (npk) =  40000
     Max angular momentum in pseudopotentials (lmaxx) =  4
     file Zn.upf: wavefunction(s)  3D renormalized
     Found identity + (  0.0000  0.3333  0.0000) symmetry
     This is a supercell, fractional translations are disabled

     K-points division:     npool     =       8
     R & G space division:  proc/nbgrp/npool/nimage =       4
     Subspace diagonalization in iterative solution of the eigenvalue problem:
     a serial algorithm will be used

     Using Slab Decomposition

     bravais-lattice index     =            0
     lattice parameter (alat)  =      12.3576  a.u.
     unit-cell volume          =    1978.7861 (a.u.)^3
     number of atoms/cell      =           24
     number of atomic types    =            2
     number of electrons       =       216.00
     number of Kohn-Sham states=          108
     kinetic-energy cutoff     =      50.0000  Ry
     charge density cutoff     =     400.0000  Ry
     scf convergence threshold =      1.0E-08
     mixing beta               =       0.3000
     number of iterations used =            8  plain     mixing
     Exchange-correlation= PBE
                           (   1   4   3   4   0   0   0)

     celldm(1)=  12.357644  celldm(2)=   0.000000  celldm(3)=   0.000000
     celldm(4)=   0.000000  celldm(5)=   0.000000  celldm(6)=   0.000000

     crystal axes: (cart. coord. in units of alat)
               a(1) = (   1.000000   0.000000   0.000000 )
               a(2) = (  -0.750000   1.299038   0.000000 )
               a(3) = (   0.000000   0.000000   0.807179 )

     reciprocal axes: (cart. coord. in units 2 pi/alat)
               b(1) = (  1.000000  0.577350 -0.000000 )
               b(2) = (  0.000000  0.769800  0.000000 )
               b(3) = (  0.000000 -0.000000  1.238882 )

     PseudoPot. # 1 for Zn read from file:
     /home/jvc/QEspresso7.2/ZnO_database/pseudos/Zn.upf
     MD5 check sum: 7f56cabf9682ed8c977c2f7d0c5985c5
     Pseudo is Ultrasoft + core correction, Zval = 12.0
     Generated using &quot;atomic&quot; code by A. Dal Corso  v.6.2.2
     Using radial grid of 1201 points,  6 beta functions with:
                l(1) =   0
                l(2) =   0
                l(3) =   1
                l(4) =   1
                l(5) =   2
                l(6) =   2
     Q(r) pseudized with 0 coefficients

     PseudoPot. # 2 for O  read from file:
     /home/jvc/QEspresso7.2/ZnO_database/pseudos/O.upf
     MD5 check sum: 91400c9766925bcf19f520983a725ff0
     Pseudo is Ultrasoft + core correction, Zval =  6.0
     Generated using &quot;atomic&quot; code by A. Dal Corso  v.6.3MaX
     Using radial grid of 1095 points,  4 beta functions with:
                l(1) =   0
                l(2) =   0
                l(3) =   1
                l(4) =   1
     Q(r) pseudized with 0 coefficients

     atomic species   valence    mass     pseudopotential
        Zn            12.00    65.38000     Zn( 1.00)
        O              6.00    15.99900     O ( 1.00)

     No symmetry found

                                    s                        frac. trans.

      isym =  1     identity

 cryst.   s( 1) = (     1          0          0      )
                  (     0          1          0      )
                  (     0          0          1      )

 cart.    s( 1) = (  1.0000000  0.0000000  0.0000000 )
                  (  0.0000000  1.0000000  0.0000000 )
                  (  0.0000000  0.0000000  1.0000000 )

   Cartesian axes

     site n.     atom                  positions (alat units)
         1           Zn  tau(   1) = (   0.2500000   0.1443376   0.4041010  )
         2           Zn  tau(   2) = (   0.0000000   0.2886751   0.0005114  )
         3           O   tau(   3) = (   0.2500000   0.1443376   0.7100565  )
         4           O   tau(   4) = (   0.0000000   0.2886751   0.3064669  )
         5           Zn  tau(   5) = (   0.0000000   0.5773503   0.4041010  )
         6           Zn  tau(   6) = (  -0.2500000   0.7216878   0.0005114  )
         7           O   tau(   7) = (   0.0000000   0.5773503   0.7100565  )
         8           O   tau(   8) = (  -0.2500000   0.7216878   0.3064669  )
         9           Zn  tau(   9) = (  -0.2500000   1.0103630   0.4041010  )
        10           Zn  tau(  10) = (  -0.5000000   1.1547005   0.0005114  )
        11           O   tau(  11) = (  -0.2500000   1.0103630   0.7100565  )
        12           O   tau(  12) = (  -0.5000000   1.1547005   0.3064669  )
        13           Zn  tau(  13) = (   0.7500000   0.1443376   0.4041010  )
        14           Zn  tau(  14) = (   0.5000000   0.2886751   0.0005114  )
        15           O   tau(  15) = (   0.7500000   0.1443376   0.7100565  )
        16           O   tau(  16) = (   0.5000000   0.2886751   0.3064669  )
        17           Zn  tau(  17) = (   0.5000000   0.5773503   0.4041010  )
        18           Zn  tau(  18) = (   0.2500000   0.7216878   0.0005114  )
        19           O   tau(  19) = (   0.5000000   0.5773503   0.7100565  )
        20           O   tau(  20) = (   0.2500000   0.7216878   0.3064669  )
        21           Zn  tau(  21) = (   0.2500000   1.0103630   0.4041010  )
        22           Zn  tau(  22) = (   0.0000000   1.1547005   0.0005114  )
        23           O   tau(  23) = (   0.2500000   1.0103630   0.7100565  )
        24           O   tau(  24) = (   0.0000000   1.1547005   0.3064669  )

   Crystallographic axes

     site n.     atom                  positions (cryst. coord.)
         1           Zn  tau(   1) = (  0.3333333  0.1111111  0.5006336  )
         2           Zn  tau(   2) = (  0.1666667  0.2222222  0.0006336  )
         3           O   tau(   3) = (  0.3333333  0.1111111  0.8796764  )
         4           O   tau(   4) = (  0.1666667  0.2222222  0.3796764  )
         5           Zn  tau(   5) = (  0.3333333  0.4444444  0.5006336  )
         6           Zn  tau(   6) = (  0.1666667  0.5555556  0.0006336  )
         7           O   tau(   7) = (  0.3333333  0.4444444  0.8796764  )
         8           O   tau(   8) = (  0.1666667  0.5555556  0.3796764  )
         9           Zn  tau(   9) = (  0.3333333  0.7777778  0.5006336  )
        10           Zn  tau(  10) = (  0.1666667  0.8888889  0.0006336  )
        11           O   tau(  11) = (  0.3333333  0.7777778  0.8796764  )
        12           O   tau(  12) = (  0.1666667  0.8888889  0.3796764  )
        13           Zn  tau(  13) = (  0.8333333  0.1111111  0.5006336  )
        14           Zn  tau(  14) = (  0.6666667  0.2222222  0.0006336  )
        15           O   tau(  15) = (  0.8333333  0.1111111  0.8796764  )
        16           O   tau(  16) = (  0.6666667  0.2222222  0.3796764  )
        17           Zn  tau(  17) = (  0.8333333  0.4444444  0.5006336  )
        18           Zn  tau(  18) = (  0.6666667  0.5555556  0.0006336  )
        19           O   tau(  19) = (  0.8333333  0.4444444  0.8796764  )
        20           O   tau(  20) = (  0.6666667  0.5555556  0.3796764  )
        21           Zn  tau(  21) = (  0.8333333  0.7777778  0.5006336  )
        22           Zn  tau(  22) = (  0.6666667  0.8888889  0.0006336  )
        23           O   tau(  23) = (  0.8333333  0.7777778  0.8796764  )
        24           O   tau(  24) = (  0.6666667  0.8888889  0.3796764  )

     number of k points=    20
                       cart. coord. in units 2pi/alat
        k(    1) = (   0.0000000   0.0000000   0.0000000), wk =   0.0555556
        k(    2) = (   0.0000000   0.0000000   0.2064804), wk =   0.1111111
        k(    3) = (   0.0000000   0.0000000   0.4129608), wk =   0.1111111
        k(    4) = (   0.0000000   0.0000000  -0.6194412), wk =   0.0555556
        k(    5) = (   0.0000000  -0.3849002   0.0000000), wk =   0.0555556
        k(    6) = (   0.0000000  -0.3849002   0.2064804), wk =   0.1111111
        k(    7) = (   0.0000000  -0.3849002   0.4129608), wk =   0.1111111
        k(    8) = (   0.0000000  -0.3849002  -0.6194412), wk =   0.0555556
        k(    9) = (   0.3333333   0.1924501   0.0000000), wk =   0.1111111
        k(   10) = (   0.3333333   0.1924501   0.2064804), wk =   0.1111111
        k(   11) = (   0.3333333   0.1924501   0.4129608), wk =   0.1111111
        k(   12) = (   0.3333333   0.1924501  -0.6194412), wk =   0.1111111
        k(   13) = (   0.3333333  -0.1924501   0.0000000), wk =   0.1111111
        k(   14) = (   0.3333333  -0.1924501   0.2064804), wk =   0.1111111
        k(   15) = (   0.3333333  -0.1924501   0.4129608), wk =   0.1111111
        k(   16) = (   0.3333333  -0.1924501  -0.6194412), wk =   0.1111111
        k(   17) = (  -0.3333333  -0.1924501   0.2064804), wk =   0.1111111
        k(   18) = (  -0.3333333  -0.1924501   0.4129608), wk =   0.1111111
        k(   19) = (  -0.3333333   0.1924501   0.2064804), wk =   0.1111111
        k(   20) = (  -0.3333333   0.1924501   0.4129608), wk =   0.1111111

                       cryst. coord.
        k(    1) = (   0.0000000   0.0000000   0.0000000), wk =   0.0555556
        k(    2) = (   0.0000000   0.0000000   0.1666667), wk =   0.1111111
        k(    3) = (   0.0000000   0.0000000   0.3333333), wk =   0.1111111
        k(    4) = (   0.0000000   0.0000000  -0.5000000), wk =   0.0555556
        k(    5) = (   0.0000000  -0.5000000   0.0000000), wk =   0.0555556
        k(    6) = (   0.0000000  -0.5000000   0.1666667), wk =   0.1111111
        k(    7) = (   0.0000000  -0.5000000   0.3333333), wk =   0.1111111
        k(    8) = (   0.0000000  -0.5000000  -0.5000000), wk =   0.0555556
        k(    9) = (   0.3333333   0.0000000   0.0000000), wk =   0.1111111
        k(   10) = (   0.3333333   0.0000000   0.1666667), wk =   0.1111111
        k(   11) = (   0.3333333   0.0000000   0.3333333), wk =   0.1111111
        k(   12) = (   0.3333333   0.0000000  -0.5000000), wk =   0.1111111
        k(   13) = (   0.3333333  -0.5000000   0.0000000), wk =   0.1111111
        k(   14) = (   0.3333333  -0.5000000   0.1666667), wk =   0.1111111
        k(   15) = (   0.3333333  -0.5000000   0.3333333), wk =   0.1111111
        k(   16) = (   0.3333333  -0.5000000  -0.5000000), wk =   0.1111111
        k(   17) = (  -0.3333333  -0.0000000   0.1666667), wk =   0.1111111
        k(   18) = (  -0.3333333  -0.0000000   0.3333333), wk =   0.1111111
        k(   19) = (  -0.3333333   0.5000000   0.1666667), wk =   0.1111111
        k(   20) = (  -0.3333333   0.5000000   0.3333333), wk =   0.1111111

     Check: negative core charge=   -0.000002

     Initial potential from superposition of free atoms

     starting charge     215.9553, renormalised to     216.0000
     Starting wfcs are  156 randomized atomic wfcs

     Self-consistent Calculation

[...]
     1.0000   1.0000   1.0000   1.0000

[...]

          k = 0.3333-0.1925-0.6194 ( 11824 PWs)   bands (ev):

[...]

          k =-0.3333-0.1925 0.2065 ( 11784 PWs)   bands (ev):

[...]

          k =-0.3333 0.1925 0.4130 ( 11825 PWs)   bands (ev):

   -10.7127 -10.5178 -10.5178 -10.4120 -10.2961 -10.2961 -10.2961 -10.2904
   -10.2904 -10.1858 -10.1858 -10.1858   1.0368   1.0368   1.0820   1.1038
     1.1038   1.1038   1.1268   1.1268   1.1443   1.1968   1.1968   1.1968
     1.4331   1.4425   1.5169   1.5169   1.5220   1.5381   1.5381   1.5437
     1.5839   1.5839   1.5839   1.6852   1.6852   1.7338   1.7338   1.7338
     1.7417   1.7417   1.8903   1.8903   1.8903   1.9133   1.9133   1.9133
     2.4608   2.4608   2.4695   2.4884   2.4957   2.4957   2.4957   2.5183
     2.5183   2.5676   2.5676   2.5676   2.5934   2.6055   2.6055   2.6171
     2.6724   2.6724   2.6913   2.6913   2.6913   2.8116   2.8116   2.8116
     3.2567   3.2567   3.2567   3.5916   3.5916   3.5916   3.8659   3.8659
     3.9342   4.4657   4.4657   4.5350   4.5350   4.5350   4.9825   4.9825
     5.0817   5.0817   5.0817   5.1229   5.3664   5.3664   5.3813   5.3813
     5.3814   5.5974   5.8448   5.8448   5.8448   5.9570   5.9570   6.0234
     6.0904   6.0904   6.2837   6.4801

     occupation numbers
     1.0000   1.0000   1.0000   1.0000   1.0000   1.0000   1.0000   1.0000
     1.0000   1.0000   1.0000   1.0000   1.0000   1.0000   1.0000   1.0000
     1.0000   1.0000   1.0000   1.0000   1.0000   1.0000   1.0000   1.0000
     1.0000   1.0000   1.0000   1.0000   1.0000   1.0000   1.0000   1.0000
     1.0000   1.0000   1.0000   1.0000   1.0000   1.0000   1.0000   1.0000
     1.0000   1.0000   1.0000   1.0000   1.0000   1.0000   1.0000   1.0000
     1.0000   1.0000   1.0000   1.0000   1.0000   1.0000   1.0000   1.0000
     1.0000   1.0000   1.0000   1.0000   1.0000   1.0000   1.0000   1.0000
     1.0000   1.0000   1.0000   1.0000   1.0000   1.0000   1.0000   1.0000
     1.0000   1.0000   1.0000   1.0000   1.0000   1.0000   1.0000   1.0000
     1.0000   1.0000   1.0000   1.0000   1.0000   1.0000   1.0000   1.0000
     1.0000   1.0000   1.0000   1.0000   1.0000   1.0000   1.0000   1.0000
     1.0000   1.0000   1.0000   1.0000   1.0000   1.0000   1.0000   1.0000
     1.0000   1.0000   1.0000   1.0000

     highest occupied level (ev):     6.8874

!    total energy              =   -2169.82132734 Ry
     estimated scf accuracy    <          4.0E-09 Ry

     The total energy is the sum of the following terms:
     one-electron contribution =    -927.15164561 Ry
     hartree contribution      =     709.73549723 Ry
     xc contribution           =    -657.27678705 Ry
     ewald contribution        =   -1295.12839192 Ry

     convergence has been achieved in  35 iterations

     Forces acting on atoms (cartesian axes, Ry/au):

     atom    1 type  1   force =    -0.00000969   -0.00000633    0.00006625
     atom    2 type  1   force =    -0.00000172   -0.00001504    0.00005715
     atom    3 type  2   force =    -0.00000046   -0.00000079   -0.00006160
     atom    4 type  2   force =    -0.00000041    0.00000004   -0.00006142
     atom    5 type  1   force =     0.00000331    0.00001026    0.00007025
     atom    6 type  1   force =     0.00000320    0.00000193    0.00006274
     atom    7 type  2   force =    -0.00000089   -0.00000110   -0.00006060
     atom    8 type  2   force =    -0.00000114   -0.00000086   -0.00006221
     atom    9 type  1   force =    -0.00000337    0.00000044    0.00005430
     atom   10 type  1   force =    -0.00000079    0.00000871    0.00006322
     atom   11 type  2   force =     0.00000025    0.00000141   -0.00006243
     atom   12 type  2   force =    -0.00000026   -0.00000165   -0.00006241
     atom   13 type  1   force =     0.00000667   -0.00000762    0.00006213
     atom   14 type  1   force =     0.00000151   -0.00000865    0.00006119
     atom   15 type  2   force =    -0.00000037   -0.00000025   -0.00006179
     atom   16 type  2   force =     0.00000024    0.00000148   -0.00006154
     atom   17 type  1   force =    -0.00000826    0.00001055    0.00005886
     atom   18 type  1   force =     0.00000214    0.00000111    0.00006606
     atom   19 type  2   force =    -0.00000007   -0.00000146   -0.00006108
     atom   20 type  2   force =     0.00000047   -0.00000081   -0.00006245
     atom   21 type  1   force =     0.00000265    0.00000084    0.00005564
     atom   22 type  1   force =     0.00000726    0.00000766    0.00006513
     atom   23 type  2   force =    -0.00000017    0.00000097   -0.00006229
     atom   24 type  2   force =    -0.00000011   -0.00000083   -0.00006311
     The non-local contrib.  to forces
     atom    1 type  1   force =     0.00000172   -0.00000237   -0.00483246
     atom    2 type  1   force =    -0.00000223   -0.00000891   -0.00483601
     atom    3 type  2   force =     0.00000031    0.00000064    0.00575478
     atom    4 type  2   force =    -0.00000047    0.00000729    0.00575139
     atom    5 type  1   force =     0.00000508    0.00000822   -0.00482776
     atom    6 type  1   force =     0.00000077    0.00000579   -0.00483216
     atom    7 type  2   force =    -0.00000235   -0.00000277    0.00575472
     atom    8 type  2   force =     0.00000016   -0.00000454    0.00575171
     atom    9 type  1   force =     0.00000170    0.00000164   -0.00482984
     atom   10 type  1   force =    -0.00000078   -0.00000037   -0.00483229
     atom   11 type  2   force =     0.00000025   -0.00000095    0.00575348
     atom   12 type  2   force =     0.00000174   -0.00000054    0.00575093
     atom   13 type  1   force =    -0.00000146   -0.00000700   -0.00483167
     atom   14 type  1   force =     0.00000267   -0.00000645   -0.00482697
     atom   15 type  2   force =     0.00000168    0.00000237    0.00575432
     atom   16 type  2   force =     0.00000054    0.00000451    0.00575388
     atom   17 type  1   force =    -0.00000540    0.00000252   -0.00483431
     atom   18 type  1   force =    -0.00000042    0.00000381   -0.00483024
     atom   19 type  2   force =     0.00000343   -0.00000128    0.00575340
     atom   20 type  2   force =    -0.00000156   -0.00000358    0.00575243
     atom   21 type  1   force =    -0.00000221   -0.00000012   -0.00483357
     atom   22 type  1   force =     0.00000100    0.00000402   -0.00482984
     atom   23 type  2   force =     0.00000081    0.00000040    0.00575314
     atom   24 type  2   force =    -0.00000163   -0.00000131    0.00575203
     The ionic contribution  to forces
     atom    1 type  1   force =    -0.00000000    0.00000000    0.06271747
     atom    2 type  1   force =    -0.00000000    0.00000001    0.06271747
     atom    3 type  2   force =    -0.00000000    0.00000000   -0.06271747
     atom    4 type  2   force =    -0.00000000    0.00000000   -0.06271747
     atom    5 type  1   force =    -0.00000001   -0.00000000    0.06271747
     atom    6 type  1   force =    -0.00000001   -0.00000001    0.06271747
     atom    7 type  2   force =    -0.00000001   -0.00000000   -0.06271747
     atom    8 type  2   force =    -0.00000000   -0.00000000   -0.06271747
     atom    9 type  1   force =    -0.00000001   -0.00000002    0.06271748
     atom   10 type  1   force =    -0.00000001   -0.00000001    0.06271747
     atom   11 type  2   force =    -0.00000001   -0.00000001   -0.06271748
     atom   12 type  2   force =    -0.00000001   -0.00000001   -0.06271747
     atom   13 type  1   force =     0.00000001    0.00000001    0.06271747
     atom   14 type  1   force =    -0.00000001    0.00000002    0.06271747
     atom   15 type  2   force =     0.00000000    0.00000000   -0.06271747
     atom   16 type  2   force =    -0.00000000    0.00000001   -0.06271747
     atom   17 type  1   force =    -0.00000001    0.00000001    0.06271747
     atom   18 type  1   force =     0.00000003   -0.00000000    0.06271747
     atom   19 type  2   force =    -0.00000001    0.00000001   -0.06271747
     atom   20 type  2   force =     0.00000002   -0.00000000   -0.06271747
     atom   21 type  1   force =     0.00000002   -0.00000001    0.06271747
     atom   22 type  1   force =     0.00000001    0.00000000    0.06271747
     atom   23 type  2   force =     0.00000001   -0.00000000   -0.06271747
     atom   24 type  2   force =     0.00000001    0.00000000   -0.06271747
     The local contribution  to forces
     atom    1 type  1   force =    -0.00000512    0.00000596   -0.05828882
     atom    2 type  1   force =     0.00000812    0.00002225   -0.05827774
     atom    3 type  2   force =     0.00000842    0.00001600    0.05696451
     atom    4 type  2   force =    -0.00000120    0.00001402    0.05696377
     atom    5 type  1   force =    -0.00001289   -0.00002183   -0.05829852
     atom    6 type  1   force =    -0.00000446   -0.00001166   -0.05828923
     atom    7 type  2   force =    -0.00000249   -0.00000771    0.05696333
     atom    8 type  2   force =    -0.00000020   -0.00001173    0.05696357
     atom    9 type  1   force =    -0.00000388   -0.00000413   -0.05828852
     atom   10 type  1   force =     0.00000123   -0.00000339   -0.05828846
     atom   11 type  2   force =     0.00000110   -0.00000305    0.05696824
     atom   12 type  2   force =    -0.00000003   -0.00000142    0.05696700
     atom   13 type  1   force =     0.00000538    0.00001657   -0.05829333
     atom   14 type  1   force =    -0.00000842    0.00001791   -0.05830019
     atom   15 type  2   force =    -0.00000676    0.00000866    0.05695605
     atom   16 type  2   force =     0.00000683    0.00000849    0.05696650
     atom   17 type  1   force =     0.00001493   -0.00000678   -0.05828068
     atom   18 type  1   force =     0.00000121   -0.00000772   -0.05829756
     atom   19 type  2   force =     0.00000757   -0.00001120    0.05696604
     atom   20 type  2   force =     0.00000116   -0.00001621    0.05696654
     atom   21 type  1   force =     0.00000463    0.00000327   -0.05828155
     atom   22 type  1   force =    -0.00000408   -0.00001407   -0.05829405
     atom   23 type  2   force =     0.00000082    0.00000033    0.05696534
     atom   24 type  2   force =     0.00000228    0.00000274    0.05696217
     The core correction contribution to forces
     atom    1 type  1   force =     0.00000053    0.00000008    0.00046387
     atom    2 type  1   force =    -0.00000031   -0.00000004    0.00046368
     atom    3 type  2   force =     0.00000002    0.00000005   -0.00006505
     atom    4 type  2   force =     0.00000001   -0.00000005   -0.00006500
     atom    5 type  1   force =     0.00000026    0.00000023    0.00046383
     atom    6 type  1   force =     0.00000004    0.00000012    0.00046396
     atom    7 type  2   force =     0.00000002    0.00000000   -0.00006506
     atom    8 type  2   force =    -0.00000001    0.00000001   -0.00006501
     atom    9 type  1   force =     0.00000023    0.00000012    0.00046403
     atom   10 type  1   force =    -0.00000001   -0.00000007    0.00046392
     atom   11 type  2   force =    -0.00000001   -0.00000001   -0.00006502
     atom   12 type  2   force =    -0.00000003    0.00000001   -0.00006498
     atom   13 type  1   force =    -0.00000048   -0.00000014    0.00046425
     atom   14 type  1   force =     0.00000026   -0.00000023    0.00046427
     atom   15 type  2   force =    -0.00000003    0.00000001   -0.00006508
     atom   16 type  2   force =     0.00000002   -0.00000002   -0.00006502
     atom   17 type  1   force =    -0.00000022   -0.00000024    0.00046369
     atom   18 type  1   force =    -0.00000013    0.00000007    0.00046426
     atom   19 type  2   force =    -0.00000001   -0.00000002   -0.00006503
     atom   20 type  2   force =     0.00000003   -0.00000002   -0.00006501
     atom   21 type  1   force =    -0.00000022   -0.00000023    0.00046386
     atom   22 type  1   force =    -0.00000009    0.00000030    0.00046401
     atom   23 type  2   force =     0.00000001    0.00000000   -0.00006502
     atom   24 type  2   force =     0.00000004    0.00000003   -0.00006503
     The Hubbard contrib.    to forces
     atom    1 type  1   force =     0.00000000    0.00000000    0.00000000
     atom    2 type  1   force =     0.00000000    0.00000000    0.00000000
     atom    3 type  2   force =     0.00000000    0.00000000    0.00000000
     atom    4 type  2   force =     0.00000000    0.00000000    0.00000000
     atom    5 type  1   force =     0.00000000    0.00000000    0.00000000
     atom    6 type  1   force =     0.00000000    0.00000000    0.00000000
     atom    7 type  2   force =     0.00000000    0.00000000    0.00000000
     atom    8 type  2   force =     0.00000000    0.00000000    0.00000000
     atom    9 type  1   force =     0.00000000    0.00000000    0.00000000
     atom   10 type  1   force =     0.00000000    0.00000000    0.00000000
     atom   11 type  2   force =     0.00000000    0.00000000    0.00000000
     atom   12 type  2   force =     0.00000000    0.00000000    0.00000000
     atom   13 type  1   force =     0.00000000    0.00000000    0.00000000
     atom   14 type  1   force =     0.00000000    0.00000000    0.00000000
     atom   15 type  2   force =     0.00000000    0.00000000    0.00000000
     atom   16 type  2   force =     0.00000000    0.00000000    0.00000000
     atom   17 type  1   force =     0.00000000    0.00000000    0.00000000
     atom   18 type  1   force =     0.00000000    0.00000000    0.00000000
     atom   19 type  2   force =     0.00000000    0.00000000    0.00000000
     atom   20 type  2   force =     0.00000000    0.00000000    0.00000000
     atom   21 type  1   force =     0.00000000    0.00000000    0.00000000
     atom   22 type  1   force =     0.00000000    0.00000000    0.00000000
     atom   23 type  2   force =     0.00000000    0.00000000    0.00000000
     atom   24 type  2   force =     0.00000000    0.00000000    0.00000000
     The SCF correction term to forces
     atom    1 type  1   force =    -0.00000637   -0.00000977    0.00000537
     atom    2 type  1   force =    -0.00000683   -0.00002811   -0.00001107
     atom    3 type  2   force =    -0.00000875   -0.00001725    0.00000081
     atom    4 type  2   force =     0.00000171   -0.00002098    0.00000507
     atom    5 type  1   force =     0.00001134    0.00002388    0.00001442
     atom    6 type  1   force =     0.00000732    0.00000792    0.00000188
     atom    7 type  2   force =     0.00000440    0.00000962    0.00000306
     atom    8 type  2   force =    -0.00000062    0.00001566    0.00000418
     atom    9 type  1   force =    -0.00000094    0.00000306   -0.00000967
     atom   10 type  1   force =    -0.00000075    0.00001279    0.00000176
     atom   11 type  2   force =    -0.00000062    0.00000566   -0.00000248
     atom   12 type  2   force =    -0.00000147    0.00000055    0.00000130
     atom   13 type  1   force =     0.00000369   -0.00001682    0.00000459
     atom   14 type  1   force =     0.00000748   -0.00001965    0.00000580
     atom   15 type  2   force =     0.00000521   -0.00001105    0.00000958
     atom   16 type  2   force =    -0.00000667   -0.00001127   -0.00000025
     atom   17 type  1   force =    -0.00001710    0.00001527   -0.00000813
     atom   18 type  1   force =     0.00000192    0.00000520    0.00001132
     atom   19 type  2   force =    -0.00001058    0.00001128    0.00000116
     atom   20 type  2   force =     0.00000129    0.00001923    0.00000024
     atom   21 type  1   force =     0.00000090   -0.00000183   -0.00001139
     atom   22 type  1   force =     0.00001089    0.00001765    0.00000672
     atom   23 type  2   force =    -0.00000136    0.00000048    0.00000090
     atom   24 type  2   force =    -0.00000034   -0.00000205    0.00000437

     Total force =     0.000305     Total SCF correction =     0.000083
     SCF correction compared to forces is large: reduce conv_thr to get better values

     General routines

     Parallel routines

   This run was terminated on:   0:11:58  22Jul2025

   JOB DONE.
Note: The following floating-point exceptions are signalling: IEEE_INVALID_FLAG
Note: The following floating-point exceptions are signalling: IEEE_INVALID_FLAG
Note: The following floating-point exceptions are signalling: IEEE_INVALID_FLAG
Note: The following floating-point exceptions are signalling: IEEE_INVALID_FLAG
Note: The following floating-point exceptions are signalling: IEEE_INVALID_FLAG
Note: The following floating-point exceptions are signalling: IEEE_INVALID_FLAG
Note: The following floating-point exceptions are signalling: IEEE_INVALID_FLAG
Note: The following floating-point exceptions are signalling: IEEE_INVALID_FLAG