     Program PWSCF v.7.2 starts on  3Jul2025 at 13:38:44

     Reading input from ZnO-222.in
Warning: card &CELL ignored
Warning: card / ignored
Warning: card &FCP ignored
Warning: card / ignored
Warning: card &RISM ignored
Warning: card / ignored

     Current dimensions of program PWSCF are:
     Max number of different atomic species (ntypx) = 10
     Max number of k-points (npk) =  40000
     Max angular momentum in pseudopotentials (lmaxx) =  4
     file Zn.upf: wavefunction(s)  3D renormalized
     Found identity + (  0.0000  0.0000 -0.5000) symmetry
     This is a supercell, fractional translations are disabled
     Message from routine setup:
     using ibrav=0 with symmetry is DISCOURAGED, use correct ibrav instead

     K-points division:     npool     =       2
     R & G space division:  proc/nbgrp/npool/nimage =       8
     Subspace diagonalization in iterative solution of the eigenvalue problem:
     a serial algorithm will be used

     Using Slab Decomposition

     bravais-lattice index     =            0
     lattice parameter (alat)  =      12.2832  a.u.
     unit-cell volume          =    2567.9543 (a.u.)^3
     number of atoms/cell      =           32
     number of atomic types    =            2
     number of electrons       =       288.00
     number of Kohn-Sham states=          144
     kinetic-energy cutoff     =      50.0000  Ry
     charge density cutoff     =     400.0000  Ry
     scf convergence threshold =      1.0E-08
     mixing beta               =       0.3000
     number of iterations used =            8  plain     mixing
     Exchange-correlation= PBE
                           (   1   4   3   4   0   0   0)

     celldm(1)=  12.283220  celldm(2)=   0.000000  celldm(3)=   0.000000
     celldm(4)=   0.000000  celldm(5)=   0.000000  celldm(6)=   0.000000

     crystal axes: (cart. coord. in units of alat)
               a(1) = (   1.000000   0.000000   0.000000 )
               a(2) = (  -0.500000   0.866025   0.000000 )
               a(3) = (   0.000000   0.000000   1.600000 )

     reciprocal axes: (cart. coord. in units 2 pi/alat)
               b(1) = (  1.000000  0.577350 -0.000000 )
               b(2) = (  0.000000  1.154701  0.000000 )
               b(3) = (  0.000000 -0.000000  0.625000 )

     PseudoPot. # 1 for Zn read from file:
     ../pseudos/Zn.upf
     MD5 check sum: 7f56cabf9682ed8c977c2f7d0c5985c5
     Pseudo is Ultrasoft + core correction, Zval = 12.0
     Generated using &quot;atomic&quot; code by A. Dal Corso  v.6.2.2
     Using radial grid of 1201 points,  6 beta functions with:
                l(1) =   0
                l(2) =   0
                l(3) =   1
                l(4) =   1
                l(5) =   2
                l(6) =   2
     Q(r) pseudized with 0 coefficients

     PseudoPot. # 2 for O  read from file:
     ../pseudos/O.upf
     MD5 check sum: 91400c9766925bcf19f520983a725ff0
     Pseudo is Ultrasoft + core correction, Zval =  6.0
     Generated using &quot;atomic&quot; code by A. Dal Corso  v.6.3MaX
     Using radial grid of 1095 points,  4 beta functions with:
                l(1) =   0
                l(2) =   0
                l(3) =   1
                l(4) =   1
     Q(r) pseudized with 0 coefficients

     atomic species   valence    mass     pseudopotential
        Zn            12.00    65.38000     Zn( 1.00)
        O              6.00    15.99900     O ( 1.00)

      6 Sym. Ops. (no inversion) found

   Cartesian axes

     site n.     atom                  positions (alat units)
         1           Zn  tau(   1) = (   0.0000000   0.0000000   0.0000000  )
         2           O   tau(   2) = (   0.0000000   0.2886751   0.0958333  )
         3           Zn  tau(   3) = (   0.0000000   0.2886751   0.4000000  )
         4           O   tau(   4) = (   0.0000000   0.0000000   0.4958333  )
         5           Zn  tau(   5) = (   0.0000000   0.0000000   0.8000000  )
         6           O   tau(   6) = (   0.0000000   0.2886751   0.8958333  )
         7           Zn  tau(   7) = (   0.0000000   0.2886751   1.2000000  )
         8           O   tau(   8) = (   0.0000000   0.0000000   1.2958333  )
         9           Zn  tau(   9) = (  -0.2500000   0.4330127   0.0000000  )
        10           O   tau(  10) = (  -0.2500000   0.7216878   0.0958333  )
        11           Zn  tau(  11) = (  -0.2500000   0.7216878   0.4000000  )
        12           O   tau(  12) = (  -0.2500000   0.4330127   0.4958333  )
        13           Zn  tau(  13) = (  -0.2500000   0.4330127   0.8000000  )
        14           O   tau(  14) = (  -0.2500000   0.7216878   0.8958333  )
        15           Zn  tau(  15) = (  -0.2500000   0.7216878   1.2000000  )
        16           O   tau(  16) = (  -0.2500000   0.4330127   1.2958333  )
        17           Zn  tau(  17) = (   0.5000000   0.0000000   0.0000000  )
        18           O   tau(  18) = (   0.5000000   0.2886751   0.0958333  )
        19           Zn  tau(  19) = (   0.5000000   0.2886751   0.4000000  )
        20           O   tau(  20) = (   0.5000000   0.0000000   0.4958333  )
        21           Zn  tau(  21) = (   0.5000000   0.0000000   0.8000000  )
        22           O   tau(  22) = (   0.5000000   0.2886751   0.8958333  )
        23           Zn  tau(  23) = (   0.5000000   0.2886751   1.2000000  )
        24           O   tau(  24) = (   0.5000000   0.0000000   1.2958333  )
        25           Zn  tau(  25) = (   0.2500000   0.4330127   0.0000000  )
        26           O   tau(  26) = (   0.2500000   0.7216878   0.0958333  )
        27           Zn  tau(  27) = (   0.2500000   0.7216878   0.4000000  )
        28           O   tau(  28) = (   0.2500000   0.4330127   0.4958333  )
        29           Zn  tau(  29) = (   0.2500000   0.4330127   0.8000000  )
        30           O   tau(  30) = (   0.2500000   0.7216878   0.8958333  )
        31           Zn  tau(  31) = (   0.2500000   0.7216878   1.2000000  )
        32           O   tau(  32) = (   0.2500000   0.4330127   1.2958333  )

     number of k points=    34
                       cart. coord. in units 2pi/alat
        k(    1) = (   0.0000000   0.0000000   0.0000000), wk =   0.0092593
        k(    2) = (   0.0000000   0.0000000   0.1041667), wk =   0.0185185
        k(    3) = (   0.0000000   0.0000000   0.2083333), wk =   0.0185185
        k(    4) = (   0.0000000   0.0000000  -0.3125000), wk =   0.0092593
        k(    5) = (   0.0000000   0.1924501   0.0000000), wk =   0.0555556
        k(    6) = (   0.0000000   0.1924501   0.1041667), wk =   0.0555556
        k(    7) = (   0.0000000   0.1924501   0.2083333), wk =   0.0555556
        k(    8) = (   0.0000000   0.1924501  -0.3125000), wk =   0.0555556
        k(    9) = (   0.0000000   0.3849002   0.0000000), wk =   0.0555556
        k(   10) = (   0.0000000   0.3849002   0.1041667), wk =   0.0555556
        k(   11) = (   0.0000000   0.3849002   0.2083333), wk =   0.0555556
        k(   12) = (   0.0000000   0.3849002  -0.3125000), wk =   0.0555556
        k(   13) = (   0.0000000  -0.5773503   0.0000000), wk =   0.0277778
        k(   14) = (   0.0000000  -0.5773503   0.1041667), wk =   0.0555556
        k(   15) = (   0.0000000  -0.5773503   0.2083333), wk =   0.0555556
        k(   16) = (   0.0000000  -0.5773503  -0.3125000), wk =   0.0277778
        k(   17) = (   0.1666667   0.2886751   0.0000000), wk =   0.0555556
        k(   18) = (   0.1666667   0.2886751   0.1041667), wk =   0.1111111
        k(   19) = (   0.1666667   0.2886751   0.2083333), wk =   0.1111111
        k(   20) = (   0.1666667   0.2886751  -0.3125000), wk =   0.0555556
        k(   21) = (   0.1666667   0.4811252   0.0000000), wk =   0.1111111
        k(   22) = (   0.1666667   0.4811252   0.1041667), wk =   0.1111111
        k(   23) = (   0.1666667   0.4811252   0.2083333), wk =   0.1111111
        k(   24) = (   0.1666667   0.4811252  -0.3125000), wk =   0.1111111
        k(   25) = (   0.3333333   0.5773503   0.0000000), wk =   0.0185185
        k(   26) = (   0.3333333   0.5773503   0.1041667), wk =   0.0370370
        k(   27) = (   0.3333333   0.5773503   0.2083333), wk =   0.0370370
        k(   28) = (   0.3333333   0.5773503  -0.3125000), wk =   0.0185185
        k(   29) = (   0.0000000  -0.1924501   0.1041667), wk =   0.0555556
        k(   30) = (   0.0000000  -0.1924501   0.2083333), wk =   0.0555556
        k(   31) = (   0.0000000  -0.3849002   0.1041667), wk =   0.0555556
        k(   32) = (   0.0000000  -0.3849002   0.2083333), wk =   0.0555556
        k(   33) = (  -0.1666667  -0.4811252   0.1041667), wk =   0.1111111
        k(   34) = (  -0.1666667  -0.4811252   0.2083333), wk =   0.1111111

     Check: negative core charge=   -0.000002

     Initial potential from superposition of free atoms

     starting charge     287.9404, renormalised to     288.0000
     Starting wfcs are  208 randomized atomic wfcs

     Self-consistent Calculation

     iteration #  1     ecut=    50.00 Ry     beta= 0.30
     Davidson diagonalization with overlap
     ethr =  1.00E-02,  avg # of iterations =  2.0

     total energy              =   -2891.85086158 Ry
     estimated scf accuracy    <       5.46880302 Ry

[...]

     iteration #  6     ecut=    50.00 Ry     beta= 0.30
     Davidson diagonalization with overlap
     c_bands:  1 eigenvalues not converged
     ethr =  1.62E-04,  avg # of iterations = 12.7

[...]

     iteration # 15     ecut=    50.00 Ry     beta= 0.30
     Davidson diagonalization with overlap
     c_bands:  1 eigenvalues not converged
     c_bands:  1 eigenvalues not converged
     c_bands:  1 eigenvalues not converged
     ethr =  2.60E-08,  avg # of iterations = 15.2

[...]

     total energy              =   -2893.08044682 Ry
     estimated scf accuracy    <       0.00000004 Ry

     iteration # 32     ecut=    50.00 Ry     beta= 0.30
     Davidson diagonalization with overlap
     ethr =  1.45E-11,  avg # of iterations =  4.1

     End of self-consistent calculation

          k = 0.0000 0.0000 0.0000 ( 15291 PWs)   bands (ev):

   -10.8122 -10.4554 -10.4554 -10.1285 -10.1285 -10.1285 -10.0784 -10.0064
   -10.0064 -10.0064 -10.0064 -10.0064 -10.0064  -9.9031  -9.9031  -9.9031
     1.1690   1.1690   1.1690   1.1690   1.1690   1.1690   1.3608   1.3608
     1.3608   1.3791   1.3791   1.5539   1.5539   1.5539   1.5898   1.5898
     1.6489   1.6605   1.6605   1.6605   1.6605   1.6613   1.7838   1.7838
     1.8501   1.8501   1.8501   2.0799   2.0799   2.0799   2.0799   2.0799
     2.0799   2.1388   2.1388   2.1388   2.1388   2.1388   2.1388   2.2159
     2.2159   2.2159   2.2619   2.2619   2.2619   2.3906   2.3906   2.3906
     2.7802   2.7802   2.8189   2.8189   2.8189   2.9113   2.9113   2.9113
     2.9113   2.9527   2.9527   2.9527   2.9784   2.9784   2.9784   2.9784
     2.9784   2.9784   2.9954   2.9954   3.0440   3.0440   3.0440   3.0679
     3.0679   3.0679   3.0679   3.0679   3.0679   3.1150   3.1150   3.1150
     3.2691   3.5438   3.5438   3.5438   3.5438   3.5438   3.5438   3.5892
     3.5892   3.5892   3.7364   3.7364   3.7364   4.4653   4.4653   4.4653
     4.9988   4.9988   4.9988   5.0645   5.0645   5.7669   5.7669   5.7669
[...]
     atom   11 type  1   force =     0.00000059   -0.00000034    0.00157063
     atom   12 type  2   force =     0.00000064    0.00000037   -0.00157819
     atom   13 type  1   force =     0.00000136    0.00000079    0.00157241
     atom   14 type  2   force =     0.00000107   -0.00000062   -0.00157326
     atom   15 type  1   force =     0.00000001   -0.00000001    0.00157932
     atom   16 type  2   force =    -0.00000022   -0.00000012   -0.00157373
     atom   17 type  1   force =     0.00000000   -0.00000014    0.00157924
     atom   18 type  2   force =     0.00000000    0.00000000   -0.00157660
     atom   19 type  1   force =     0.00000000    0.00000000    0.00156990
     atom   20 type  2   force =     0.00000000   -0.00000074   -0.00157819
     atom   21 type  1   force =     0.00000000   -0.00000157    0.00157241
     atom   22 type  2   force =     0.00000000    0.00000000   -0.00157324
     atom   23 type  1   force =     0.00000000    0.00000000    0.00158014
     atom   24 type  2   force =    -0.00000000    0.00000025   -0.00157373
     atom   25 type  1   force =    -0.00000012    0.00000007    0.00157924
     atom   26 type  2   force =     0.00000024    0.00000014   -0.00157654
     atom   27 type  1   force =    -0.00000059   -0.00000034    0.00157063
     atom   28 type  2   force =    -0.00000064    0.00000037   -0.00157819
     atom   29 type  1   force =    -0.00000136    0.00000079    0.00157241
     atom   30 type  2   force =    -0.00000107   -0.00000062   -0.00157326
     atom   31 type  1   force =    -0.00000001   -0.00000001    0.00157932
     atom   32 type  2   force =     0.00000022   -0.00000012   -0.00157373
     The non-local contrib.  to forces
     atom    1 type  1   force =     0.00000000    0.00000000    0.02430124
     atom    2 type  2   force =     0.00000000   -0.00000014    0.01078978
     atom    3 type  1   force =     0.00000000    0.00000007    0.02429046
     atom    4 type  2   force =     0.00000000    0.00000000    0.01079065
     atom    5 type  1   force =     0.00000000   -0.00000000    0.02429414
     atom    6 type  2   force =     0.00000000    0.00000078    0.01079601
     atom    7 type  1   force =     0.00000000   -0.00000013    0.02430695
     atom    8 type  2   force =     0.00000000    0.00000000    0.01079495
     atom    9 type  1   force =     0.00000028    0.00000016    0.02430184
     atom   10 type  2   force =    -0.00000012    0.00000007    0.01078978
     atom   11 type  1   force =     0.00000006   -0.00000003    0.02429046
     atom   12 type  2   force =     0.00000034    0.00000019    0.01078985
     atom   13 type  1   force =    -0.00000092   -0.00000053    0.02429372
     atom   14 type  2   force =     0.00000067   -0.00000039    0.01079601
     atom   15 type  1   force =    -0.00000012    0.00000007    0.02430695
     atom   16 type  2   force =     0.00000004    0.00000002    0.01079570
     atom   17 type  1   force =     0.00000000   -0.00000032    0.02430184
     atom   18 type  2   force =     0.00000000    0.00000000    0.01079008
     atom   19 type  1   force =     0.00000000    0.00000000    0.02429075
     atom   20 type  2   force =     0.00000000   -0.00000039    0.01078985
     atom   21 type  1   force =     0.00000000    0.00000106    0.02429372
     atom   22 type  2   force =     0.00000000    0.00000000    0.01079570
     atom   23 type  1   force =     0.00000000    0.00000000    0.02430567
     atom   24 type  2   force =     0.00000000   -0.00000004    0.01079570
     atom   25 type  1   force =    -0.00000028    0.00000016    0.02430184
     atom   26 type  2   force =     0.00000012    0.00000007    0.01078978
     atom   27 type  1   force =    -0.00000006   -0.00000003    0.02429046
     atom   28 type  2   force =    -0.00000034    0.00000019    0.01078985
     atom   29 type  1   force =     0.00000092   -0.00000053    0.02429372
     atom   30 type  2   force =    -0.00000067   -0.00000039    0.01079601
     atom   31 type  1   force =     0.00000012    0.00000007    0.02430695
     atom   32 type  2   force =    -0.00000004    0.00000002    0.01079570
     The ionic contribution  to forces
     atom    1 type  1   force =    -0.00000000    0.00000000    0.07991262
     atom    2 type  2   force =    -0.00000000   -0.00000000   -0.07991262
     atom    3 type  1   force =     0.00000000   -0.00000000    0.07991262
     atom    4 type  2   force =     0.00000000    0.00000000   -0.07991262
     atom    5 type  1   force =    -0.00000000    0.00000000    0.07991262
     atom    6 type  2   force =    -0.00000000   -0.00000000   -0.07991262
     atom    7 type  1   force =     0.00000000   -0.00000000    0.07991262
     atom    8 type  2   force =    -0.00000000    0.00000000   -0.07991262
     atom    9 type  1   force =    -0.00000000    0.00000000    0.07991262
     atom   10 type  2   force =     0.00000000   -0.00000000   -0.07991262
     atom   11 type  1   force =     0.00000000   -0.00000000    0.07991262
     atom   12 type  2   force =     0.00000000    0.00000000   -0.07991262
     atom   13 type  1   force =    -0.00000000    0.00000000    0.07991262
     atom   14 type  2   force =     0.00000000   -0.00000000   -0.07991262
     atom   15 type  1   force =     0.00000000   -0.00000000    0.07991262
     atom   16 type  2   force =     0.00000000    0.00000000   -0.07991262
     atom   17 type  1   force =     0.00000000    0.00000000    0.07991262
     atom   18 type  2   force =    -0.00000000   -0.00000000   -0.07991262
     atom   19 type  1   force =    -0.00000000   -0.00000000    0.07991262
     atom   20 type  2   force =    -0.00000000    0.00000000   -0.07991262
     atom   21 type  1   force =    -0.00000000    0.00000000    0.07991262
     atom   22 type  2   force =    -0.00000000   -0.00000000   -0.07991262
     atom   23 type  1   force =     0.00000000   -0.00000000    0.07991262
     atom   24 type  2   force =    -0.00000000    0.00000000   -0.07991262
     atom   25 type  1   force =     0.00000000    0.00000000    0.07991262
     atom   26 type  2   force =     0.00000000   -0.00000000   -0.07991262
     atom   27 type  1   force =     0.00000000   -0.00000000    0.07991262
     atom   28 type  2   force =     0.00000000    0.00000000   -0.07991262
     atom   29 type  1   force =    -0.00000000    0.00000000    0.07991262
     atom   30 type  2   force =     0.00000000   -0.00000000   -0.07991262
     atom   31 type  1   force =     0.00000000   -0.00000000    0.07991262
     atom   32 type  2   force =     0.00000000    0.00000000   -0.07991262
     The local contribution  to forces
     atom    1 type  1   force =    -0.00000000   -0.00000000   -0.10073165
     atom    2 type  2   force =     0.00000000   -0.00000079    0.06760851
     atom    3 type  1   force =     0.00000000   -0.00000065   -0.10073042
     atom    4 type  2   force =     0.00000000   -0.00000000    0.06760365
     atom    5 type  1   force =    -0.00000000   -0.00000000   -0.10073826
     atom    6 type  2   force =    -0.00000000    0.00000014    0.06760403
     atom    7 type  1   force =     0.00000000    0.00000029   -0.10074051
     atom    8 type  2   force =    -0.00000000    0.00000000    0.06760633
     atom    9 type  1   force =    -0.00000057   -0.00000033   -0.10073263
     atom   10 type  2   force =    -0.00000069    0.00000039    0.06760851
     atom   11 type  1   force =    -0.00000055    0.00000031   -0.10073042
     atom   12 type  2   force =    -0.00000036   -0.00000021    0.06760434
     atom   13 type  1   force =     0.00000044    0.00000026   -0.10073686
     atom   14 type  2   force =     0.00000012   -0.00000007    0.06760403
     atom   15 type  1   force =     0.00000026   -0.00000016   -0.10074051
     atom   16 type  2   force =    -0.00000096   -0.00000055    0.06760428
     atom   17 type  1   force =    -0.00000000    0.00000066   -0.10073263
     atom   18 type  2   force =    -0.00000000   -0.00000000    0.06760810
     atom   19 type  1   force =    -0.00000000   -0.00000001   -0.10073066
     atom   20 type  2   force =    -0.00000000    0.00000042    0.06760434
     atom   21 type  1   force =    -0.00000000   -0.00000051   -0.10073686
     atom   22 type  2   force =    -0.00000000   -0.00000000    0.06760415
     atom   23 type  1   force =    -0.00000000   -0.00000001   -0.10073898
     atom   24 type  2   force =    -0.00000000    0.00000110    0.06760428
     atom   25 type  1   force =     0.00000057   -0.00000033   -0.10073263
     atom   26 type  2   force =     0.00000069    0.00000039    0.06760851
     atom   27 type  1   force =     0.00000055    0.00000031   -0.10073042
     atom   28 type  2   force =     0.00000036   -0.00000021    0.06760434
     atom   29 type  1   force =    -0.00000044    0.00000026   -0.10073686
     atom   30 type  2   force =    -0.00000012   -0.00000007    0.06760403
     atom   31 type  1   force =    -0.00000026   -0.00000016   -0.10074051
     atom   32 type  2   force =     0.00000096   -0.00000055    0.06760428
     The core correction contribution to forces
     atom    1 type  1   force =     0.00000000    0.00000000   -0.00190107
     atom    2 type  2   force =     0.00000000    0.00000000   -0.00006211
     atom    3 type  1   force =     0.00000000    0.00000000   -0.00189712
     atom    4 type  2   force =    -0.00000000    0.00000000   -0.00005993
     atom    5 type  1   force =     0.00000000   -0.00000000   -0.00189809
     atom    6 type  2   force =     0.00000000   -0.00000001   -0.00006234
     atom    7 type  1   force =    -0.00000000   -0.00000001   -0.00190200
     atom    8 type  2   force =     0.00000000   -0.00000000   -0.00006449
     atom    9 type  1   force =     0.00000001    0.00000001   -0.00190109
     atom   10 type  2   force =     0.00000000   -0.00000000   -0.00006211
     atom   11 type  1   force =     0.00000000   -0.00000000   -0.00189712
     atom   12 type  2   force =    -0.00000000   -0.00000000   -0.00005992
     atom   13 type  1   force =    -0.00000001   -0.00000000   -0.00189806
     atom   14 type  2   force =    -0.00000001    0.00000000   -0.00006234
     atom   15 type  1   force =    -0.00000001    0.00000000   -0.00190200
     atom   16 type  2   force =    -0.00000000   -0.00000000   -0.00006450
     atom   17 type  1   force =    -0.00000000   -0.00000002   -0.00190109
     atom   18 type  2   force =    -0.00000000    0.00000000   -0.00006212
     atom   19 type  1   force =    -0.00000000   -0.00000000   -0.00189711
     atom   20 type  2   force =     0.00000000    0.00000000   -0.00005992
     atom   21 type  1   force =    -0.00000000    0.00000001   -0.00189806
     atom   22 type  2   force =     0.00000000    0.00000000   -0.00006234
     atom   23 type  1   force =    -0.00000000   -0.00000000   -0.00190201
     atom   24 type  2   force =    -0.00000000    0.00000000   -0.00006450
     atom   25 type  1   force =    -0.00000001    0.00000001   -0.00190109
     atom   26 type  2   force =    -0.00000000   -0.00000000   -0.00006211
     atom   27 type  1   force =    -0.00000000   -0.00000000   -0.00189712
     atom   28 type  2   force =     0.00000000   -0.00000000   -0.00005992
     atom   29 type  1   force =     0.00000001   -0.00000000   -0.00189806
     atom   30 type  2   force =     0.00000001    0.00000000   -0.00006234
     atom   31 type  1   force =     0.00000001    0.00000000   -0.00190200
     atom   32 type  2   force =     0.00000000   -0.00000000   -0.00006450
     The Hubbard contrib.    to forces
     atom    1 type  1   force =     0.00000000    0.00000000    0.00000000
     atom    2 type  2   force =     0.00000000    0.00000000    0.00000000
     atom    3 type  1   force =     0.00000000    0.00000000    0.00000000
     atom    4 type  2   force =     0.00000000    0.00000000    0.00000000
     atom    5 type  1   force =     0.00000000    0.00000000    0.00000000
     atom    6 type  2   force =     0.00000000    0.00000000    0.00000000
     atom    7 type  1   force =     0.00000000    0.00000000    0.00000000
     atom    8 type  2   force =     0.00000000    0.00000000    0.00000000
     atom    9 type  1   force =     0.00000000    0.00000000    0.00000000
     atom   10 type  2   force =     0.00000000    0.00000000    0.00000000
     atom   11 type  1   force =     0.00000000    0.00000000    0.00000000
     atom   12 type  2   force =     0.00000000    0.00000000    0.00000000
     atom   13 type  1   force =     0.00000000    0.00000000    0.00000000
     atom   14 type  2   force =     0.00000000    0.00000000    0.00000000
     atom   15 type  1   force =     0.00000000    0.00000000    0.00000000
     atom   16 type  2   force =     0.00000000    0.00000000    0.00000000
     atom   17 type  1   force =     0.00000000    0.00000000    0.00000000
     atom   18 type  2   force =     0.00000000    0.00000000    0.00000000
     atom   19 type  1   force =     0.00000000    0.00000000    0.00000000
     atom   20 type  2   force =     0.00000000    0.00000000    0.00000000
     atom   21 type  1   force =     0.00000000    0.00000000    0.00000000
     atom   22 type  2   force =     0.00000000    0.00000000    0.00000000
     atom   23 type  1   force =     0.00000000    0.00000000    0.00000000
     atom   24 type  2   force =     0.00000000    0.00000000    0.00000000
     atom   25 type  1   force =     0.00000000    0.00000000    0.00000000
     atom   26 type  2   force =     0.00000000    0.00000000    0.00000000
     atom   27 type  1   force =     0.00000000    0.00000000    0.00000000
     atom   28 type  2   force =     0.00000000    0.00000000    0.00000000
     atom   29 type  1   force =     0.00000000    0.00000000    0.00000000
     atom   30 type  2   force =     0.00000000    0.00000000    0.00000000
     atom   31 type  1   force =     0.00000000    0.00000000    0.00000000
     atom   32 type  2   force =     0.00000000    0.00000000    0.00000000
     The SCF correction term to forces
     atom    1 type  1   force =     0.00000000   -0.00000000   -0.00000322
     atom    2 type  2   force =     0.00000000    0.00000065   -0.00000043
     atom    3 type  1   force =     0.00000000    0.00000125   -0.00000523
     atom    4 type  2   force =     0.00000000   -0.00000000   -0.00000018
     atom    5 type  1   force =     0.00000000   -0.00000000    0.00000284
     atom    6 type  2   force =     0.00000000    0.00000033    0.00000134
     atom    7 type  1   force =     0.00000000   -0.00000014    0.00000195
     atom    8 type  2   force =     0.00000000   -0.00000000    0.00000201
     atom    9 type  1   force =     0.00000040    0.00000023   -0.00000180
     atom   10 type  2   force =     0.00000057   -0.00000033   -0.00000043
     atom   11 type  1   force =     0.00000108   -0.00000062   -0.00000523
     atom   12 type  2   force =     0.00000067    0.00000039   -0.00000015
     atom   13 type  1   force =     0.00000185    0.00000107    0.00000069
     atom   14 type  2   force =     0.00000029   -0.00000017    0.00000134
     atom   15 type  1   force =    -0.00000013    0.00000007    0.00000195
     atom   16 type  2   force =     0.00000071    0.00000041    0.00000308
     atom   17 type  1   force =    -0.00000000   -0.00000046   -0.00000180
     atom   18 type  2   force =     0.00000000   -0.00000000   -0.00000037
     atom   19 type  1   force =     0.00000000   -0.00000000   -0.00000602
     atom   20 type  2   force =     0.00000000   -0.00000077   -0.00000015
     atom   21 type  1   force =     0.00000000   -0.00000214    0.00000069
     atom   22 type  2   force =     0.00000000   -0.00000000    0.00000154
     atom   23 type  1   force =     0.00000000   -0.00000000    0.00000253
     atom   24 type  2   force =     0.00000000   -0.00000081    0.00000308
     atom   25 type  1   force =    -0.00000040    0.00000023   -0.00000180
     atom   26 type  2   force =    -0.00000057   -0.00000033   -0.00000043
     atom   27 type  1   force =    -0.00000108   -0.00000062   -0.00000523
     atom   28 type  2   force =    -0.00000067    0.00000039   -0.00000015
     atom   29 type  1   force =    -0.00000185    0.00000107    0.00000069
     atom   30 type  2   force =    -0.00000029   -0.00000017    0.00000134
     atom   31 type  1   force =     0.00000013    0.00000007    0.00000195
     atom   32 type  2   force =    -0.00000071    0.00000041    0.00000308

     Total force =     0.008912     Total SCF correction =     0.000015

     Writing all to output data dir ./ZnO_supercells.save/

     General routines

     Parallel routines

   This run was terminated on:  14:13: 8   3Jul2025

   JOB DONE.