     Program PWSCF v.7.0 starts on 26Aug2025 at 13: 8:11

     K-points division:     npool     =       4
     band groups division:  nbgrp     =       4

     Reading input from /home/jvc/QEspresso7.2/ZnO_database/scripts/cell112.in/ZnO-2.94-1.58-112.in
Warning: card &CELL ignored
Warning: card / ignored
Warning: card &FCP ignored
Warning: card / ignored
Warning: card &RISM ignored
Warning: card / ignored

     Current dimensions of program PWSCF are:
     Max number of different atomic species (ntypx) = 10
     Max number of k-points (npk) =  40000
     Max angular momentum in pseudopotentials (lmaxx) =  4
     file Zn.upf: wavefunction(s)  3D renormalized
     Found identity + (  0.0000  0.0000  0.5000) symmetry
     This is a supercell, fractional translations are disabled
     Message from routine setup:
     using ibrav=0 with symmetry is DISCOURAGED, use correct ibrav instead

     Subspace diagonalization in iterative solution of the eigenvalue problem:
     a serial algorithm will be used

     Using Slab Decomposition

     bravais-lattice index     =            0
     lattice parameter (alat)  =       5.5610  a.u.
     unit-cell volume          =     471.2355 (a.u.)^3
     number of atoms/cell      =            8
     number of atomic types    =            2
     number of electrons       =        72.00
     number of Kohn-Sham states=           36
     kinetic-energy cutoff     =      50.0000  Ry
     charge density cutoff     =     400.0000  Ry
     scf convergence threshold =      1.0E-08
     mixing beta               =       0.3000
     number of iterations used =            8  plain     mixing
     Exchange-correlation= PBE
                           (   1   4   3   4   0   0   0)

     celldm(1)=   5.560969  celldm(2)=   0.000000  celldm(3)=   0.000000
     celldm(4)=   0.000000  celldm(5)=   0.000000  celldm(6)=   0.000000

     crystal axes: (cart. coord. in units of alat)
               a(1) = (   1.000000   0.000000   0.000000 )
               a(2) = (  -0.500000   0.866025   0.000000 )
               a(3) = (   0.000000   0.000000   3.164142 )

     reciprocal axes: (cart. coord. in units 2 pi/alat)
               b(1) = (  1.000000  0.577350 -0.000000 )
               b(2) = (  0.000000  1.154701  0.000000 )
               b(3) = (  0.000000 -0.000000  0.316041 )

     PseudoPot. # 1 for Zn read from file:
     /home/jvc/QEspresso7.2/ZnO_database/pseudos/Zn.upf
     MD5 check sum: 7f56cabf9682ed8c977c2f7d0c5985c5
     Pseudo is Ultrasoft + core correction, Zval = 12.0
     Generated using &quot;atomic&quot; code by A. Dal Corso  v.6.2.2
     Using radial grid of 1201 points,  6 beta functions with:
                l(1) =   0
                l(2) =   0
                l(3) =   1
                l(4) =   1
                l(5) =   2
                l(6) =   2
     Q(r) pseudized with 0 coefficients

     PseudoPot. # 2 for O  read from file:
     /home/jvc/QEspresso7.2/ZnO_database/pseudos/O.upf
     MD5 check sum: 91400c9766925bcf19f520983a725ff0
     Pseudo is Ultrasoft + core correction, Zval =  6.0
     Generated using &quot;atomic&quot; code by A. Dal Corso  v.6.3MaX
     Using radial grid of 1095 points,  4 beta functions with:
                l(1) =   0
                l(2) =   0
                l(3) =   1
                l(4) =   1
     Q(r) pseudized with 0 coefficients

     atomic species   valence    mass     pseudopotential
        Zn            12.00    65.38000     Zn( 1.00)
        O              6.00    15.99900     O ( 1.00)

      6 Sym. Ops. (no inversion) found

                                    s                        frac. trans.

      isym =  1     identity

 cryst.   s( 1) = (     1          0          0      )
                  (     0          1          0      )
                  (     0          0          1      )

 cart.    s( 1) = (  1.0000000  0.0000000  0.0000000 )
                  (  0.0000000  1.0000000  0.0000000 )
                  (  0.0000000  0.0000000  1.0000000 )

      isym =  2     120 deg rotation - cryst. axis [0,0,1]

[...]

      isym =  3     120 deg rotation - cryst. axis [0,0,-1]

[...]

      isym =  4     inv. 180 deg rotation - cart. axis [1,0,0]

[...]

      isym =  5     inv. 180 deg rotation - cryst. axis [0,1,0]

[...]

      isym =  6     inv. 180 deg rotation - cryst. axis [1,1,0]

 cryst.   s( 6) = (     0         -1          0      )
                  (    -1          0          0      )
                  (     0          0          1      )

 cart.    s( 6) = (  0.5000000 -0.8660254  0.0000000 )
                  ( -0.8660254 -0.5000000  0.0000000 )
                  (  0.0000000  0.0000000  1.0000000 )

   Cartesian axes

     site n.     atom                  positions (alat units)
         1           Zn  tau(   1) = (   0.5000000   0.2886751   0.7920380  )
         2           Zn  tau(   2) = (  -0.0000000   0.5773503   0.0010024  )
         3           O   tau(   3) = (   0.5000000   0.2886751   1.3917107  )
         4           O   tau(   4) = (  -0.0000000   0.5773503   0.6006751  )
         5           Zn  tau(   5) = (   0.5000000   0.2886751   2.3741092  )
         6           Zn  tau(   6) = (  -0.0000000   0.5773503   1.5830736  )
         7           O   tau(   7) = (   0.5000000   0.2886751   2.9737819  )
         8           O   tau(   8) = (  -0.0000000   0.5773503   2.1827463  )

   Crystallographic axes

     site n.     atom                  positions (cryst. coord.)
         1           Zn  tau(   1) = (  0.6666667  0.3333333  0.2503168  )
         2           Zn  tau(   2) = (  0.3333333  0.6666667  0.0003168  )
         3           O   tau(   3) = (  0.6666667  0.3333333  0.4398382  )
         4           O   tau(   4) = (  0.3333333  0.6666667  0.1898382  )
         5           Zn  tau(   5) = (  0.6666667  0.3333333  0.7503168  )
         6           Zn  tau(   6) = (  0.3333333  0.6666667  0.5003168  )
         7           O   tau(   7) = (  0.6666667  0.3333333  0.9398382  )
         8           O   tau(   8) = (  0.3333333  0.6666667  0.6898382  )

     number of k points=    34
                       cart. coord. in units 2pi/alat
        k(    1) = (   0.0000000   0.0000000   0.0000000), wk =   0.0092593
        k(    2) = (   0.0000000   0.0000000   0.0526736), wk =   0.0185185
        k(    3) = (   0.0000000   0.0000000   0.1053471), wk =   0.0185185
        k(    4) = (   0.0000000   0.0000000  -0.1580207), wk =   0.0092593
        k(    5) = (   0.0000000   0.1924501   0.0000000), wk =   0.0555556
        k(    6) = (   0.0000000   0.1924501   0.0526736), wk =   0.0555556
        k(    7) = (   0.0000000   0.1924501   0.1053471), wk =   0.0555556
        k(    8) = (   0.0000000   0.1924501  -0.1580207), wk =   0.0555556
        k(    9) = (   0.0000000   0.3849002   0.0000000), wk =   0.0555556
        k(   10) = (   0.0000000   0.3849002   0.0526736), wk =   0.0555556
        k(   11) = (   0.0000000   0.3849002   0.1053471), wk =   0.0555556
        k(   12) = (   0.0000000   0.3849002  -0.1580207), wk =   0.0555556
        k(   13) = (   0.0000000  -0.5773503   0.0000000), wk =   0.0277778
        k(   14) = (   0.0000000  -0.5773503   0.0526736), wk =   0.0555556
        k(   15) = (   0.0000000  -0.5773503   0.1053471), wk =   0.0555556
        k(   16) = (   0.0000000  -0.5773503  -0.1580207), wk =   0.0277778
        k(   17) = (   0.1666667   0.2886751   0.0000000), wk =   0.0555556
        k(   18) = (   0.1666667   0.2886751   0.0526736), wk =   0.1111111
        k(   19) = (   0.1666667   0.2886751   0.1053471), wk =   0.1111111
        k(   20) = (   0.1666667   0.2886751  -0.1580207), wk =   0.0555556
        k(   21) = (   0.1666667   0.4811252   0.0000000), wk =   0.1111111
        k(   22) = (   0.1666667   0.4811252   0.0526736), wk =   0.1111111
        k(   23) = (   0.1666667   0.4811252   0.1053471), wk =   0.1111111
        k(   24) = (   0.1666667   0.4811252  -0.1580207), wk =   0.1111111
        k(   25) = (   0.3333333   0.5773503   0.0000000), wk =   0.0185185
        k(   26) = (   0.3333333   0.5773503   0.0526736), wk =   0.0370370
        k(   27) = (   0.3333333   0.5773503   0.1053471), wk =   0.0370370
        k(   28) = (   0.3333333   0.5773503  -0.1580207), wk =   0.0185185
        k(   29) = (   0.0000000  -0.1924501   0.0526736), wk =   0.0555556
        k(   30) = (   0.0000000  -0.1924501   0.1053471), wk =   0.0555556
        k(   31) = (   0.0000000  -0.3849002   0.0526736), wk =   0.0555556
        k(   32) = (   0.0000000  -0.3849002   0.1053471), wk =   0.0555556
        k(   33) = (  -0.1666667  -0.4811252   0.0526736), wk =   0.1111111
        k(   34) = (  -0.1666667  -0.4811252   0.1053471), wk =   0.1111111

                       cryst. coord.
        k(    1) = (   0.0000000   0.0000000   0.0000000), wk =   0.0092593
        k(    2) = (   0.0000000   0.0000000   0.1666667), wk =   0.0185185
        k(    3) = (   0.0000000   0.0000000   0.3333333), wk =   0.0185185
        k(    4) = (   0.0000000   0.0000000  -0.5000000), wk =   0.0092593
        k(    5) = (   0.0000000   0.1666667   0.0000000), wk =   0.0555556
        k(    6) = (   0.0000000   0.1666667   0.1666667), wk =   0.0555556
        k(    7) = (   0.0000000   0.1666667   0.3333333), wk =   0.0555556
        k(    8) = (   0.0000000   0.1666667  -0.5000000), wk =   0.0555556
        k(    9) = (   0.0000000   0.3333333   0.0000000), wk =   0.0555556
        k(   10) = (   0.0000000   0.3333333   0.1666667), wk =   0.0555556
        k(   11) = (   0.0000000   0.3333333   0.3333333), wk =   0.0555556
        k(   12) = (   0.0000000   0.3333333  -0.5000000), wk =   0.0555556
        k(   13) = (   0.0000000  -0.5000000   0.0000000), wk =   0.0277778
        k(   14) = (   0.0000000  -0.5000000   0.1666667), wk =   0.0555556
        k(   15) = (   0.0000000  -0.5000000   0.3333333), wk =   0.0555556
        k(   16) = (   0.0000000  -0.5000000  -0.5000000), wk =   0.0277778
        k(   17) = (   0.1666667   0.1666667   0.0000000), wk =   0.0555556
        k(   18) = (   0.1666667   0.1666667   0.1666667), wk =   0.1111111
        k(   19) = (   0.1666667   0.1666667   0.3333333), wk =   0.1111111
        k(   20) = (   0.1666667   0.1666667  -0.5000000), wk =   0.0555556
        k(   21) = (   0.1666667   0.3333333   0.0000000), wk =   0.1111111
        k(   22) = (   0.1666667   0.3333333   0.1666667), wk =   0.1111111
        k(   23) = (   0.1666667   0.3333333   0.3333333), wk =   0.1111111
        k(   24) = (   0.1666667   0.3333333  -0.5000000), wk =   0.1111111
        k(   25) = (   0.3333333   0.3333333   0.0000000), wk =   0.0185185
        k(   26) = (   0.3333333   0.3333333   0.1666667), wk =   0.0370370
        k(   27) = (   0.3333333   0.3333333   0.3333333), wk =   0.0370370
        k(   28) = (   0.3333333   0.3333333  -0.5000000), wk =   0.0185185
        k(   29) = (   0.0000000  -0.1666667   0.1666667), wk =   0.0555556
        k(   30) = (   0.0000000  -0.1666667   0.3333333), wk =   0.0555556
        k(   31) = (   0.0000000  -0.3333333   0.1666667), wk =   0.0555556
        k(   32) = (   0.0000000  -0.3333333   0.3333333), wk =   0.0555556
        k(   33) = (  -0.1666667  -0.3333333   0.1666667), wk =   0.1111111
        k(   34) = (  -0.1666667  -0.3333333   0.3333333), wk =   0.1111111

     Check: negative core charge=   -0.000001

     Initial potential from superposition of free atoms

     starting charge      71.9851, renormalised to      72.0000
     Starting wfcs are   52 randomized atomic wfcs

     Self-consistent Calculation

     iteration #  1     ecut=    50.00 Ry     beta= 0.30
     Davidson diagonalization with overlap

     ethr =  1.00E-02,  avg # of iterations =  2.3

     total energy              =    -722.55098723 Ry
     estimated scf accuracy    <       1.37583450 Ry

[...]

     total energy              =    -722.80318078 Ry
     estimated scf accuracy    <       0.00000008 Ry

     iteration # 29     ecut=    50.00 Ry     beta= 0.30
     Davidson diagonalization with overlap

     ethr =  4.15E-11,  avg # of iterations =  5.7

     End of self-consistent calculation

          k = 0.0000 0.0000 0.0000 (  2823 PWs)   bands (ev):

    -8.3410  -7.6901  -7.6901  -6.9800   4.3377   4.4285   4.4286   5.0200
     5.0200   5.1077   5.1294   5.1294   5.1295   5.1295   5.3410   5.3410
     7.3032   7.3032   7.5787   7.5787   7.5787   7.5787   7.7438   7.7438
     8.1958  10.4153  10.4153  11.5798  11.5798  12.2189  12.2189  12.2190
    12.2190  12.6917  12.8594  12.8594

     occupation numbers
     1.0000   1.0000   1.0000   1.0000   1.0000   1.0000   1.0000   1.0000
     1.0000   1.0000   1.0000   1.0000   1.0000   1.0000   1.0000   1.0000
     1.0000   1.0000   1.0000   1.0000   1.0000   1.0000   1.0000   1.0000
     1.0000   1.0000   1.0000   1.0000   1.0000   1.0000   1.0000   1.0000
     1.0000   1.0000   1.0000   1.0000

[...]

          k = 0.0000-0.3849 0.1053 (  2818 PWs)   bands (ev):

[...]

          k =-0.1667-0.4811 0.0527 (  2818 PWs)   bands (ev):

[...]

          k =-0.1667-0.4811 0.1053 (  2817 PWs)   bands (ev):

    -7.0923  -6.9970  -6.7722  -6.7054   4.2270   4.3056   4.4072   4.6011
     5.2837   5.2962   5.4077   5.4682   5.9016   5.9931   5.9979   6.1497
     7.2304   7.4027   7.5204   7.5982   7.8311   7.8371   7.9711   8.0409
     8.1919   8.3289   8.8166   8.8360   9.0837   9.4541   9.6823  10.1867
    10.6707  10.9293  11.2603  11.2933

     occupation numbers
     1.0000   1.0000   1.0000   1.0000   1.0000   1.0000   1.0000   1.0000
     1.0000   1.0000   1.0000   1.0000   1.0000   1.0000   1.0000   1.0000
     1.0000   1.0000   1.0000   1.0000   1.0000   1.0000   1.0000   1.0000
     1.0000   1.0000   1.0000   1.0000   1.0000   1.0000   1.0000   1.0000
     1.0000   1.0000   1.0000   1.0000

     highest occupied level (ev):    12.8594

!    total energy              =    -722.80318080 Ry
     estimated scf accuracy    <          2.1E-09 Ry

     The total energy is the sum of the following terms:
     one-electron contribution =    -228.43443332 Ry
     hartree contribution      =     209.21212756 Ry
     xc contribution           =    -220.78398552 Ry
     ewald contribution        =    -482.79688952 Ry

     convergence has been achieved in  29 iterations

     Forces acting on atoms (cartesian axes, Ry/au):

     atom    1 type  1   force =     0.00000000   -0.00000000   -0.02578981
     atom    2 type  1   force =     0.00000000    0.00000000   -0.02574612
     atom    3 type  2   force =     0.00000000    0.00000000    0.02576695
     atom    4 type  2   force =     0.00000000    0.00000000    0.02576817
     atom    5 type  1   force =     0.00000000    0.00000000   -0.02576852
     atom    6 type  1   force =     0.00000000    0.00000000   -0.02575726
     atom    7 type  2   force =     0.00000000    0.00000000    0.02576432
     atom    8 type  2   force =     0.00000000    0.00000000    0.02576228
     The non-local contrib.  to forces
     atom    1 type  1   force =     0.00000000    0.00000000   -0.07590776
     atom    2 type  1   force =     0.00000000    0.00000000   -0.07589073
     atom    3 type  2   force =     0.00000000    0.00000000   -0.04156344
     atom    4 type  2   force =     0.00000000    0.00000000   -0.04155375
     atom    5 type  1   force =     0.00000000    0.00000000   -0.07588816
     atom    6 type  1   force =     0.00000000   -0.00000000   -0.07589801
     atom    7 type  2   force =     0.00000000    0.00000000   -0.04156462
     atom    8 type  2   force =     0.00000000    0.00000000   -0.04157290
     The ionic contribution  to forces
     atom    1 type  1   force =    -0.00000000    0.00000000   -0.44226023
     atom    2 type  1   force =     0.00000000   -0.00000000   -0.44226023
     atom    3 type  2   force =    -0.00000000    0.00000000    0.44226023
     atom    4 type  2   force =     0.00000000   -0.00000000    0.44226023
     atom    5 type  1   force =    -0.00000000    0.00000000   -0.44226023
     atom    6 type  1   force =     0.00000000   -0.00000000   -0.44226023
     atom    7 type  2   force =    -0.00000000    0.00000000    0.44226023
     atom    8 type  2   force =     0.00000000   -0.00000000    0.44226023
     The local contribution  to forces
     atom    1 type  1   force =    -0.00000004    0.00000002    0.48443325
     atom    2 type  1   force =     0.00000004   -0.00000002    0.48438697
     atom    3 type  2   force =    -0.00000001    0.00000001   -0.37512207
     atom    4 type  2   force =     0.00000001   -0.00000001   -0.37512432
     atom    5 type  1   force =    -0.00000004    0.00000002    0.48438787
     atom    6 type  1   force =     0.00000004   -0.00000002    0.48439266
     atom    7 type  2   force =    -0.00000001    0.00000001   -0.37515703
     atom    8 type  2   force =     0.00000001   -0.00000001   -0.37515358
     The core correction contribution to forces
     atom    1 type  1   force =    -0.00000001    0.00000000    0.00798919
     atom    2 type  1   force =     0.00000001   -0.00000000    0.00798878
     atom    3 type  2   force =     0.00000000   -0.00000000    0.00020919
     atom    4 type  2   force =    -0.00000000    0.00000000    0.00020903
     atom    5 type  1   force =    -0.00000001    0.00000000    0.00798940
     atom    6 type  1   force =     0.00000001   -0.00000000    0.00798964
     atom    7 type  2   force =     0.00000000   -0.00000000    0.00020911
     atom    8 type  2   force =    -0.00000000    0.00000000    0.00020922
     The Hubbard contrib.    to forces
     atom    1 type  1   force =     0.00000000    0.00000000    0.00000000
     atom    2 type  1   force =     0.00000000    0.00000000    0.00000000
     atom    3 type  2   force =     0.00000000    0.00000000    0.00000000
     atom    4 type  2   force =     0.00000000    0.00000000    0.00000000
     atom    5 type  1   force =     0.00000000    0.00000000    0.00000000
     atom    6 type  1   force =     0.00000000    0.00000000    0.00000000
     atom    7 type  2   force =     0.00000000    0.00000000    0.00000000
     atom    8 type  2   force =     0.00000000    0.00000000    0.00000000
     The SCF correction term to forces
     atom    1 type  1   force =    -0.00000000    0.00000000   -0.00004429
     atom    2 type  1   force =     0.00000000   -0.00000000    0.00002907
     atom    3 type  2   force =    -0.00000000    0.00000000   -0.00001699
     atom    4 type  2   force =     0.00000000   -0.00000000   -0.00002304
     atom    5 type  1   force =    -0.00000000    0.00000000    0.00000257
     atom    6 type  1   force =     0.00000000   -0.00000000    0.00001866
     atom    7 type  2   force =    -0.00000000    0.00000000    0.00001660
     atom    8 type  2   force =     0.00000000   -0.00000000    0.00001927

     Total force =     0.072876     Total SCF correction =     0.000068

     General routines

     Parallel routines

   This run was terminated on:  13:10:40  26Aug2025

   JOB DONE.