     Program PWSCF v.7.0 starts on 26Aug2025 at 13:34: 4

     K-points division:     npool     =       4
     band groups division:  nbgrp     =       4

     Reading input from /home/jvc/QEspresso7.2/ZnO_database/scripts/cell112.in/ZnO-3.01-1.65-112.in
Warning: card &CELL ignored
Warning: card / ignored
Warning: card &FCP ignored
Warning: card / ignored
Warning: card &RISM ignored
Warning: card / ignored

     Current dimensions of program PWSCF are:
     Max number of different atomic species (ntypx) = 10
     Max number of k-points (npk) =  40000
     Max angular momentum in pseudopotentials (lmaxx) =  4
     file Zn.upf: wavefunction(s)  3D renormalized
     Found identity + (  0.0000  0.0000  0.5000) symmetry
     This is a supercell, fractional translations are disabled
     Message from routine setup:
     using ibrav=0 with symmetry is DISCOURAGED, use correct ibrav instead

     Subspace diagonalization in iterative solution of the eigenvalue problem:
     a serial algorithm will be used

     Using Slab Decomposition

     bravais-lattice index     =            0
     lattice parameter (alat)  =       5.6845  a.u.
     unit-cell volume          =     523.8995 (a.u.)^3
     number of atoms/cell      =            8
     number of atomic types    =            2
     number of electrons       =        72.00
     number of Kohn-Sham states=           36
     kinetic-energy cutoff     =      50.0000  Ry
     charge density cutoff     =     400.0000  Ry
     scf convergence threshold =      1.0E-08
     mixing beta               =       0.3000
     number of iterations used =            8  plain     mixing
     Exchange-correlation= PBE
                           (   1   4   3   4   0   0   0)

     celldm(1)=   5.684546  celldm(2)=   0.000000  celldm(3)=   0.000000
     celldm(4)=   0.000000  celldm(5)=   0.000000  celldm(6)=   0.000000

     crystal axes: (cart. coord. in units of alat)
               a(1) = (   1.000000   0.000000   0.000000 )
               a(2) = (  -0.500000   0.866025   0.000000 )
               a(3) = (   0.000000   0.000000   3.293291 )

     reciprocal axes: (cart. coord. in units 2 pi/alat)
               b(1) = (  1.000000  0.577350 -0.000000 )
               b(2) = (  0.000000  1.154701  0.000000 )
               b(3) = (  0.000000 -0.000000  0.303648 )

     PseudoPot. # 1 for Zn read from file:
     /home/jvc/QEspresso7.2/ZnO_database/pseudos/Zn.upf
     MD5 check sum: 7f56cabf9682ed8c977c2f7d0c5985c5
     Pseudo is Ultrasoft + core correction, Zval = 12.0
     Generated using &quot;atomic&quot; code by A. Dal Corso  v.6.2.2
     Using radial grid of 1201 points,  6 beta functions with:
                l(1) =   0
                l(2) =   0
                l(3) =   1
                l(4) =   1
                l(5) =   2
                l(6) =   2
     Q(r) pseudized with 0 coefficients

     PseudoPot. # 2 for O  read from file:
     /home/jvc/QEspresso7.2/ZnO_database/pseudos/O.upf
     MD5 check sum: 91400c9766925bcf19f520983a725ff0
     Pseudo is Ultrasoft + core correction, Zval =  6.0
     Generated using &quot;atomic&quot; code by A. Dal Corso  v.6.3MaX
     Using radial grid of 1095 points,  4 beta functions with:
                l(1) =   0
                l(2) =   0
                l(3) =   1
                l(4) =   1
     Q(r) pseudized with 0 coefficients

     atomic species   valence    mass     pseudopotential
        Zn            12.00    65.38000     Zn( 1.00)
        O              6.00    15.99900     O ( 1.00)

      6 Sym. Ops. (no inversion) found

                                    s                        frac. trans.

      isym =  1     identity

 cryst.   s( 1) = (     1          0          0      )
                  (     0          1          0      )
                  (     0          0          1      )

 cart.    s( 1) = (  1.0000000  0.0000000  0.0000000 )
                  (  0.0000000  1.0000000  0.0000000 )
                  (  0.0000000  0.0000000  1.0000000 )

      isym =  2     120 deg rotation - cryst. axis [0,0,1]

[...]

      isym =  3     120 deg rotation - cryst. axis [0,0,-1]

[...]

      isym =  4     inv. 180 deg rotation - cart. axis [1,0,0]

[...]

      isym =  5     inv. 180 deg rotation - cryst. axis [0,1,0]

[...]

      isym =  6     inv. 180 deg rotation - cryst. axis [1,1,0]

 cryst.   s( 6) = (     0         -1          0      )
                  (    -1          0          0      )
                  (     0          0          1      )

 cart.    s( 6) = (  0.5000000 -0.8660254  0.0000000 )
                  ( -0.8660254 -0.5000000  0.0000000 )
                  (  0.0000000  0.0000000  1.0000000 )

   Cartesian axes

     site n.     atom                  positions (alat units)
         1           Zn  tau(   1) = (   0.5000000   0.2886751   0.8243661  )
         2           Zn  tau(   2) = (  -0.0000000   0.5773503   0.0010433  )
         3           O   tau(   3) = (   0.5000000   0.2886751   1.4485152  )
         4           O   tau(   4) = (  -0.0000000   0.5773503   0.6251925  )
         5           Zn  tau(   5) = (   0.5000000   0.2886751   2.4710116  )
         6           Zn  tau(   6) = (  -0.0000000   0.5773503   1.6476888  )
         7           O   tau(   7) = (   0.5000000   0.2886751   3.0951608  )
         8           O   tau(   8) = (  -0.0000000   0.5773503   2.2718380  )

   Crystallographic axes

     site n.     atom                  positions (cryst. coord.)
         1           Zn  tau(   1) = (  0.6666667  0.3333333  0.2503168  )
         2           Zn  tau(   2) = (  0.3333333  0.6666667  0.0003168  )
         3           O   tau(   3) = (  0.6666667  0.3333333  0.4398382  )
         4           O   tau(   4) = (  0.3333333  0.6666667  0.1898382  )
         5           Zn  tau(   5) = (  0.6666667  0.3333333  0.7503168  )
         6           Zn  tau(   6) = (  0.3333333  0.6666667  0.5003168  )
         7           O   tau(   7) = (  0.6666667  0.3333333  0.9398382  )
         8           O   tau(   8) = (  0.3333333  0.6666667  0.6898382  )

     number of k points=    34
                       cart. coord. in units 2pi/alat
        k(    1) = (   0.0000000   0.0000000   0.0000000), wk =   0.0092593
        k(    2) = (   0.0000000   0.0000000   0.0506079), wk =   0.0185185
        k(    3) = (   0.0000000   0.0000000   0.1012159), wk =   0.0185185
        k(    4) = (   0.0000000   0.0000000  -0.1518238), wk =   0.0092593
        k(    5) = (   0.0000000   0.1924501   0.0000000), wk =   0.0555556
        k(    6) = (   0.0000000   0.1924501   0.0506079), wk =   0.0555556
        k(    7) = (   0.0000000   0.1924501   0.1012159), wk =   0.0555556
        k(    8) = (   0.0000000   0.1924501  -0.1518238), wk =   0.0555556
        k(    9) = (   0.0000000   0.3849002   0.0000000), wk =   0.0555556
        k(   10) = (   0.0000000   0.3849002   0.0506079), wk =   0.0555556
        k(   11) = (   0.0000000   0.3849002   0.1012159), wk =   0.0555556
        k(   12) = (   0.0000000   0.3849002  -0.1518238), wk =   0.0555556
        k(   13) = (   0.0000000  -0.5773503   0.0000000), wk =   0.0277778
        k(   14) = (   0.0000000  -0.5773503   0.0506079), wk =   0.0555556
        k(   15) = (   0.0000000  -0.5773503   0.1012159), wk =   0.0555556
        k(   16) = (   0.0000000  -0.5773503  -0.1518238), wk =   0.0277778
        k(   17) = (   0.1666667   0.2886751   0.0000000), wk =   0.0555556
        k(   18) = (   0.1666667   0.2886751   0.0506079), wk =   0.1111111
        k(   19) = (   0.1666667   0.2886751   0.1012159), wk =   0.1111111
        k(   20) = (   0.1666667   0.2886751  -0.1518238), wk =   0.0555556
        k(   21) = (   0.1666667   0.4811252   0.0000000), wk =   0.1111111
        k(   22) = (   0.1666667   0.4811252   0.0506079), wk =   0.1111111
        k(   23) = (   0.1666667   0.4811252   0.1012159), wk =   0.1111111
        k(   24) = (   0.1666667   0.4811252  -0.1518238), wk =   0.1111111
        k(   25) = (   0.3333333   0.5773503   0.0000000), wk =   0.0185185
        k(   26) = (   0.3333333   0.5773503   0.0506079), wk =   0.0370370
        k(   27) = (   0.3333333   0.5773503   0.1012159), wk =   0.0370370
        k(   28) = (   0.3333333   0.5773503  -0.1518238), wk =   0.0185185
        k(   29) = (   0.0000000  -0.1924501   0.0506079), wk =   0.0555556
        k(   30) = (   0.0000000  -0.1924501   0.1012159), wk =   0.0555556
        k(   31) = (   0.0000000  -0.3849002   0.0506079), wk =   0.0555556
        k(   32) = (   0.0000000  -0.3849002   0.1012159), wk =   0.0555556
        k(   33) = (  -0.1666667  -0.4811252   0.0506079), wk =   0.1111111
        k(   34) = (  -0.1666667  -0.4811252   0.1012159), wk =   0.1111111

                       cryst. coord.
        k(    1) = (   0.0000000   0.0000000   0.0000000), wk =   0.0092593
        k(    2) = (   0.0000000   0.0000000   0.1666667), wk =   0.0185185
        k(    3) = (   0.0000000   0.0000000   0.3333333), wk =   0.0185185
        k(    4) = (   0.0000000   0.0000000  -0.5000000), wk =   0.0092593
        k(    5) = (   0.0000000   0.1666667   0.0000000), wk =   0.0555556
        k(    6) = (   0.0000000   0.1666667   0.1666667), wk =   0.0555556
        k(    7) = (   0.0000000   0.1666667   0.3333333), wk =   0.0555556
        k(    8) = (   0.0000000   0.1666667  -0.5000000), wk =   0.0555556
        k(    9) = (   0.0000000   0.3333333   0.0000000), wk =   0.0555556
        k(   10) = (   0.0000000   0.3333333   0.1666667), wk =   0.0555556
        k(   11) = (   0.0000000   0.3333333   0.3333333), wk =   0.0555556
        k(   12) = (   0.0000000   0.3333333  -0.5000000), wk =   0.0555556
        k(   13) = (   0.0000000  -0.5000000   0.0000000), wk =   0.0277778
        k(   14) = (   0.0000000  -0.5000000   0.1666667), wk =   0.0555556
        k(   15) = (   0.0000000  -0.5000000   0.3333333), wk =   0.0555556
        k(   16) = (   0.0000000  -0.5000000  -0.5000000), wk =   0.0277778
        k(   17) = (   0.1666667   0.1666667   0.0000000), wk =   0.0555556
        k(   18) = (   0.1666667   0.1666667   0.1666667), wk =   0.1111111
        k(   19) = (   0.1666667   0.1666667   0.3333333), wk =   0.1111111
        k(   20) = (   0.1666667   0.1666667  -0.5000000), wk =   0.0555556
        k(   21) = (   0.1666667   0.3333333   0.0000000), wk =   0.1111111
        k(   22) = (   0.1666667   0.3333333   0.1666667), wk =   0.1111111
        k(   23) = (   0.1666667   0.3333333   0.3333333), wk =   0.1111111
        k(   24) = (   0.1666667   0.3333333  -0.5000000), wk =   0.1111111
        k(   25) = (   0.3333333   0.3333333   0.0000000), wk =   0.0185185
        k(   26) = (   0.3333333   0.3333333   0.1666667), wk =   0.0370370
        k(   27) = (   0.3333333   0.3333333   0.3333333), wk =   0.0370370
        k(   28) = (   0.3333333   0.3333333  -0.5000000), wk =   0.0185185
        k(   29) = (   0.0000000  -0.1666667   0.1666667), wk =   0.0555556
        k(   30) = (   0.0000000  -0.1666667   0.3333333), wk =   0.0555556
        k(   31) = (   0.0000000  -0.3333333   0.1666667), wk =   0.0555556
        k(   32) = (   0.0000000  -0.3333333   0.3333333), wk =   0.0555556
        k(   33) = (  -0.1666667  -0.3333333   0.1666667), wk =   0.1111111
        k(   34) = (  -0.1666667  -0.3333333   0.3333333), wk =   0.1111111

     Check: negative core charge=   -0.000001

     Initial potential from superposition of free atoms

     starting charge      71.9851, renormalised to      72.0000
     Starting wfcs are   52 randomized atomic wfcs

     Self-consistent Calculation

     iteration #  1     ecut=    50.00 Ry     beta= 0.30
     Davidson diagonalization with overlap

     ethr =  1.00E-02,  avg # of iterations =  2.0

     total energy              =    -722.79759071 Ry
     estimated scf accuracy    <       1.34990333 Ry

[...]

     c_bands:  1 eigenvalues not converged
     ethr =  1.56E-10,  avg # of iterations = 12.2

[...]

     total energy              =    -723.06565782 Ry
     estimated scf accuracy    <       0.00000046 Ry

     iteration # 19     ecut=    50.00 Ry     beta= 0.30
     Davidson diagonalization with overlap

     ethr =  2.85E-11,  avg # of iterations =  9.4

     End of self-consistent calculation

          k = 0.0000 0.0000 0.0000 (  3127 PWs)   bands (ev):

    -9.2644  -8.7676  -8.7676  -8.2272   3.2243   3.3228   3.3228   3.7539
     3.7539   3.8295   3.8488   3.8488   3.8489   3.8489   4.0041   4.0041
     5.6719   5.6719   5.8575   5.8575   5.8575   5.8575   5.9850   5.9850
     6.3844   8.2695   8.2695   9.7871   9.7871  10.2854  10.2854  10.2854
    10.2854  10.5455  10.7827  10.7827

     occupation numbers
     1.0000   1.0000   1.0000   1.0000   1.0000   1.0000   1.0000   1.0000
     1.0000   1.0000   1.0000   1.0000   1.0000   1.0000   1.0000   1.0000
     1.0000   1.0000   1.0000   1.0000   1.0000   1.0000   1.0000   1.0000
     1.0000   1.0000   1.0000   1.0000   1.0000   1.0000   1.0000   1.0000
     1.0000   1.0000   1.0000   1.0000

[...]

          k = 0.0000-0.3849 0.1012 (  3131 PWs)   bands (ev):

[...]

          k =-0.1667-0.4811 0.0506 (  3114 PWs)   bands (ev):

[...]

          k =-0.1667-0.4811 0.1012 (  3120 PWs)   bands (ev):

    -8.2080  -8.1395  -7.9704  -7.9160   3.1867   3.2707   3.3102   3.4982
     4.0451   4.0628   4.1991   4.2638   4.5671   4.6203   4.6420   4.7370
     5.5955   5.7343   5.8289   5.8907   6.0709   6.0772   6.2544   6.2651
     6.3921   6.5416   6.9874   7.0772   7.2938   7.7201   7.8365   8.2640
     8.7765   8.9888   9.2541   9.2810

     occupation numbers
     1.0000   1.0000   1.0000   1.0000   1.0000   1.0000   1.0000   1.0000
     1.0000   1.0000   1.0000   1.0000   1.0000   1.0000   1.0000   1.0000
     1.0000   1.0000   1.0000   1.0000   1.0000   1.0000   1.0000   1.0000
     1.0000   1.0000   1.0000   1.0000   1.0000   1.0000   1.0000   1.0000
     1.0000   1.0000   1.0000   1.0000

     highest occupied level (ev):    10.7827

!    total energy              =    -723.06565791 Ry
     estimated scf accuracy    <          7.8E-10 Ry

     The total energy is the sum of the following terms:
     one-electron contribution =    -254.42283348 Ry
     hartree contribution      =     217.70457280 Ry
     xc contribution           =    -220.17213629 Ry
     ewald contribution        =    -466.17526094 Ry

     convergence has been achieved in  19 iterations

     Forces acting on atoms (cartesian axes, Ry/au):

     atom    1 type  1   force =     0.00000000   -0.00000000    0.01854926
     atom    2 type  1   force =     0.00000000    0.00000000    0.01851751
     atom    3 type  2   force =     0.00000000    0.00000000   -0.01853022
     atom    4 type  2   force =     0.00000000   -0.00000000   -0.01852823
     atom    5 type  1   force =     0.00000000   -0.00000000    0.01851253
     atom    6 type  1   force =     0.00000000    0.00000000    0.01853772
     atom    7 type  2   force =     0.00000000   -0.00000000   -0.01852966
     atom    8 type  2   force =     0.00000000    0.00000000   -0.01852892
     The non-local contrib.  to forces
     atom    1 type  1   force =    -0.00000000   -0.00000000    0.05662875
     atom    2 type  1   force =     0.00000000    0.00000000    0.05661164
     atom    3 type  2   force =     0.00000000    0.00000000    0.04509336
     atom    4 type  2   force =     0.00000000   -0.00000000    0.04509508
     atom    5 type  1   force =     0.00000000   -0.00000000    0.05660848
     atom    6 type  1   force =     0.00000000   -0.00000000    0.05662504
     atom    7 type  2   force =     0.00000000    0.00000000    0.04510079
     atom    8 type  2   force =     0.00000000   -0.00000000    0.04510332
     The ionic contribution  to forces
     atom    1 type  1   force =    -0.00000000    0.00000000    0.54943326
     atom    2 type  1   force =     0.00000000   -0.00000000    0.54943326
     atom    3 type  2   force =    -0.00000000    0.00000000   -0.54943326
     atom    4 type  2   force =     0.00000000   -0.00000000   -0.54943326
     atom    5 type  1   force =    -0.00000000    0.00000000    0.54943326
     atom    6 type  1   force =     0.00000000   -0.00000000    0.54943326
     atom    7 type  2   force =    -0.00000000    0.00000000   -0.54943326
     atom    8 type  2   force =     0.00000000   -0.00000000   -0.54943326
     The local contribution  to forces
     atom    1 type  1   force =    -0.00000004    0.00000002   -0.58279598
     atom    2 type  1   force =     0.00000004   -0.00000002   -0.58274825
     atom    3 type  2   force =    -0.00000001    0.00000001    0.48609457
     atom    4 type  2   force =     0.00000001   -0.00000001    0.48609752
     atom    5 type  1   force =    -0.00000004    0.00000002   -0.58274031
     atom    6 type  1   force =     0.00000004   -0.00000002   -0.58277854
     atom    7 type  2   force =    -0.00000001    0.00000001    0.48611266
     atom    8 type  2   force =     0.00000001   -0.00000001    0.48612205
     The core correction contribution to forces
     atom    1 type  1   force =    -0.00000001    0.00000000   -0.00475993
     atom    2 type  1   force =     0.00000001   -0.00000000   -0.00476043
     atom    3 type  2   force =     0.00000000   -0.00000000   -0.00029379
     atom    4 type  2   force =    -0.00000000    0.00000000   -0.00029378
     atom    5 type  1   force =    -0.00000001    0.00000000   -0.00476041
     atom    6 type  1   force =     0.00000001   -0.00000000   -0.00476044
     atom    7 type  2   force =     0.00000000   -0.00000000   -0.00029383
     atom    8 type  2   force =    -0.00000000    0.00000000   -0.00029384
     The Hubbard contrib.    to forces
     atom    1 type  1   force =     0.00000000    0.00000000    0.00000000
     atom    2 type  1   force =     0.00000000    0.00000000    0.00000000
     atom    3 type  2   force =     0.00000000    0.00000000    0.00000000
     atom    4 type  2   force =     0.00000000    0.00000000    0.00000000
     atom    5 type  1   force =     0.00000000    0.00000000    0.00000000
     atom    6 type  1   force =     0.00000000    0.00000000    0.00000000
     atom    7 type  2   force =     0.00000000    0.00000000    0.00000000
     atom    8 type  2   force =     0.00000000    0.00000000    0.00000000
     The SCF correction term to forces
     atom    1 type  1   force =     0.00000000   -0.00000000    0.00004687
     atom    2 type  1   force =    -0.00000000    0.00000000   -0.00001500
     atom    3 type  2   force =     0.00000000   -0.00000000    0.00001261
     atom    4 type  2   force =    -0.00000000    0.00000000    0.00000992
     atom    5 type  1   force =     0.00000000   -0.00000000   -0.00002477
     atom    6 type  1   force =    -0.00000000    0.00000000    0.00002212
     atom    7 type  2   force =     0.00000000   -0.00000000   -0.00001230
     atom    8 type  2   force =    -0.00000000    0.00000000   -0.00002347

     Total force =     0.052409     Total SCF correction =     0.000067

     General routines

     Parallel routines

   This run was terminated on:  13:36:26  26Aug2025

   JOB DONE.