     Program PWSCF v.7.0 starts on 26Aug2025 at 19:57:22

     K-points division:     npool     =       4
     band groups division:  nbgrp     =       4

     Reading input from /home/jvc/QEspresso7.2/ZnO_database/scripts/cell112.in/ZnO-3.60-1.45-112.in
Warning: card &CELL ignored
Warning: card / ignored
Warning: card &FCP ignored
Warning: card / ignored
Warning: card &RISM ignored
Warning: card / ignored

     Current dimensions of program PWSCF are:
     Max number of different atomic species (ntypx) = 10
     Max number of k-points (npk) =  40000
     Max angular momentum in pseudopotentials (lmaxx) =  4
     file Zn.upf: wavefunction(s)  3D renormalized
     Found identity + (  0.0000  0.0000 -0.5000) symmetry
     This is a supercell, fractional translations are disabled
     Message from routine setup:
     using ibrav=0 with symmetry is DISCOURAGED, use correct ibrav instead

     Subspace diagonalization in iterative solution of the eigenvalue problem:
     a serial algorithm will be used

     Using Slab Decomposition

     bravais-lattice index     =            0
     lattice parameter (alat)  =       6.7967  a.u.
     unit-cell volume          =     790.1416 (a.u.)^3
     number of atoms/cell      =            8
     number of atomic types    =            2
     number of electrons       =        72.00
     number of Kohn-Sham states=           36
     kinetic-energy cutoff     =      50.0000  Ry
     charge density cutoff     =     400.0000  Ry
     scf convergence threshold =      1.0E-08
     mixing beta               =       0.3000
     number of iterations used =            8  plain     mixing
     Exchange-correlation= PBE
                           (   1   4   3   4   0   0   0)

     celldm(1)=   6.796739  celldm(2)=   0.000000  celldm(3)=   0.000000
     celldm(4)=   0.000000  celldm(5)=   0.000000  celldm(6)=   0.000000

     crystal axes: (cart. coord. in units of alat)
               a(1) = (   1.000000   0.000000   0.000000 )
               a(2) = (  -0.500000   0.866025   0.000000 )
               a(3) = (   0.000000   0.000000   2.905845 )

     reciprocal axes: (cart. coord. in units 2 pi/alat)
               b(1) = (  1.000000  0.577350 -0.000000 )
               b(2) = (  0.000000  1.154701  0.000000 )
               b(3) = (  0.000000 -0.000000  0.344134 )

     PseudoPot. # 1 for Zn read from file:
     /home/jvc/QEspresso7.2/ZnO_database/pseudos/Zn.upf
     MD5 check sum: 7f56cabf9682ed8c977c2f7d0c5985c5
     Pseudo is Ultrasoft + core correction, Zval = 12.0
     Generated using &quot;atomic&quot; code by A. Dal Corso  v.6.2.2
     Using radial grid of 1201 points,  6 beta functions with:
                l(1) =   0
                l(2) =   0
                l(3) =   1
                l(4) =   1
                l(5) =   2
                l(6) =   2
     Q(r) pseudized with 0 coefficients

     PseudoPot. # 2 for O  read from file:
     /home/jvc/QEspresso7.2/ZnO_database/pseudos/O.upf
     MD5 check sum: 91400c9766925bcf19f520983a725ff0
     Pseudo is Ultrasoft + core correction, Zval =  6.0
     Generated using &quot;atomic&quot; code by A. Dal Corso  v.6.3MaX
     Using radial grid of 1095 points,  4 beta functions with:
                l(1) =   0
                l(2) =   0
                l(3) =   1
                l(4) =   1
     Q(r) pseudized with 0 coefficients

     atomic species   valence    mass     pseudopotential
        Zn            12.00    65.38000     Zn( 1.00)
        O              6.00    15.99900     O ( 1.00)

      6 Sym. Ops. (no inversion) found

                                    s                        frac. trans.

      isym =  1     identity

 cryst.   s( 1) = (     1          0          0      )
                  (     0          1          0      )
                  (     0          0          1      )

 cart.    s( 1) = (  1.0000000  0.0000000  0.0000000 )
                  (  0.0000000  1.0000000  0.0000000 )
                  (  0.0000000  0.0000000  1.0000000 )

      isym =  2     120 deg rotation - cryst. axis [0,0,1]

[...]

      isym =  3     120 deg rotation - cryst. axis [0,0,-1]

[...]

      isym =  4     inv. 180 deg rotation - cart. axis [1,0,0]

[...]

      isym =  5     inv. 180 deg rotation - cryst. axis [0,1,0]

[...]

      isym =  6     inv. 180 deg rotation - cryst. axis [1,1,0]

 cryst.   s( 6) = (     0         -1          0      )
                  (    -1          0          0      )
                  (     0          0          1      )

 cart.    s( 6) = (  0.5000000 -0.8660254  0.0000000 )
                  ( -0.8660254 -0.5000000  0.0000000 )
                  (  0.0000000  0.0000000  1.0000000 )

   Cartesian axes

     site n.     atom                  positions (alat units)
         1           Zn  tau(   1) = (   0.5000000   0.2886751   0.7273818  )
         2           Zn  tau(   2) = (  -0.0000000   0.5773503   0.0009206  )
         3           O   tau(   3) = (   0.5000000   0.2886751   1.2781017  )
         4           O   tau(   4) = (  -0.0000000   0.5773503   0.5516404  )
         5           Zn  tau(   5) = (   0.5000000   0.2886751   2.1803043  )
         6           Zn  tau(   6) = (  -0.0000000   0.5773503   1.4538431  )
         7           O   tau(   7) = (   0.5000000   0.2886751   2.7310242  )
         8           O   tau(   8) = (  -0.0000000   0.5773503   2.0045629  )

   Crystallographic axes

     site n.     atom                  positions (cryst. coord.)
         1           Zn  tau(   1) = (  0.6666667  0.3333333  0.2503168  )
         2           Zn  tau(   2) = (  0.3333333  0.6666667  0.0003168  )
         3           O   tau(   3) = (  0.6666667  0.3333333  0.4398382  )
         4           O   tau(   4) = (  0.3333333  0.6666667  0.1898382  )
         5           Zn  tau(   5) = (  0.6666667  0.3333333  0.7503168  )
         6           Zn  tau(   6) = (  0.3333333  0.6666667  0.5003168  )
         7           O   tau(   7) = (  0.6666667  0.3333333  0.9398382  )
         8           O   tau(   8) = (  0.3333333  0.6666667  0.6898382  )

     number of k points=    34
                       cart. coord. in units 2pi/alat
        k(    1) = (   0.0000000   0.0000000   0.0000000), wk =   0.0092593
        k(    2) = (   0.0000000   0.0000000   0.0573557), wk =   0.0185185
        k(    3) = (   0.0000000   0.0000000   0.1147113), wk =   0.0185185
        k(    4) = (   0.0000000   0.0000000  -0.1720670), wk =   0.0092593
        k(    5) = (   0.0000000   0.1924501   0.0000000), wk =   0.0555556
        k(    6) = (   0.0000000   0.1924501   0.0573557), wk =   0.0555556
        k(    7) = (   0.0000000   0.1924501   0.1147113), wk =   0.0555556
        k(    8) = (   0.0000000   0.1924501  -0.1720670), wk =   0.0555556
        k(    9) = (   0.0000000   0.3849002   0.0000000), wk =   0.0555556
        k(   10) = (   0.0000000   0.3849002   0.0573557), wk =   0.0555556
        k(   11) = (   0.0000000   0.3849002   0.1147113), wk =   0.0555556
        k(   12) = (   0.0000000   0.3849002  -0.1720670), wk =   0.0555556
        k(   13) = (   0.0000000  -0.5773503   0.0000000), wk =   0.0277778
        k(   14) = (   0.0000000  -0.5773503   0.0573557), wk =   0.0555556
        k(   15) = (   0.0000000  -0.5773503   0.1147113), wk =   0.0555556
        k(   16) = (   0.0000000  -0.5773503  -0.1720670), wk =   0.0277778
        k(   17) = (   0.1666667   0.2886751   0.0000000), wk =   0.0555556
        k(   18) = (   0.1666667   0.2886751   0.0573557), wk =   0.1111111
        k(   19) = (   0.1666667   0.2886751   0.1147113), wk =   0.1111111
        k(   20) = (   0.1666667   0.2886751  -0.1720670), wk =   0.0555556
        k(   21) = (   0.1666667   0.4811252   0.0000000), wk =   0.1111111
        k(   22) = (   0.1666667   0.4811252   0.0573557), wk =   0.1111111
        k(   23) = (   0.1666667   0.4811252   0.1147113), wk =   0.1111111
        k(   24) = (   0.1666667   0.4811252  -0.1720670), wk =   0.1111111
        k(   25) = (   0.3333333   0.5773503   0.0000000), wk =   0.0185185
        k(   26) = (   0.3333333   0.5773503   0.0573557), wk =   0.0370370
        k(   27) = (   0.3333333   0.5773503   0.1147113), wk =   0.0370370
        k(   28) = (   0.3333333   0.5773503  -0.1720670), wk =   0.0185185
        k(   29) = (   0.0000000  -0.1924501   0.0573557), wk =   0.0555556
        k(   30) = (   0.0000000  -0.1924501   0.1147113), wk =   0.0555556
        k(   31) = (   0.0000000  -0.3849002   0.0573557), wk =   0.0555556
        k(   32) = (   0.0000000  -0.3849002   0.1147113), wk =   0.0555556
        k(   33) = (  -0.1666667  -0.4811252   0.0573557), wk =   0.1111111
        k(   34) = (  -0.1666667  -0.4811252   0.1147113), wk =   0.1111111

                       cryst. coord.
        k(    1) = (   0.0000000   0.0000000   0.0000000), wk =   0.0092593
        k(    2) = (   0.0000000   0.0000000   0.1666667), wk =   0.0185185
        k(    3) = (   0.0000000   0.0000000   0.3333333), wk =   0.0185185
        k(    4) = (   0.0000000   0.0000000  -0.5000000), wk =   0.0092593
        k(    5) = (   0.0000000   0.1666667   0.0000000), wk =   0.0555556
        k(    6) = (   0.0000000   0.1666667   0.1666667), wk =   0.0555556
        k(    7) = (   0.0000000   0.1666667   0.3333333), wk =   0.0555556
        k(    8) = (   0.0000000   0.1666667  -0.5000000), wk =   0.0555556
        k(    9) = (   0.0000000   0.3333333   0.0000000), wk =   0.0555556
        k(   10) = (   0.0000000   0.3333333   0.1666667), wk =   0.0555556
        k(   11) = (   0.0000000   0.3333333   0.3333333), wk =   0.0555556
        k(   12) = (   0.0000000   0.3333333  -0.5000000), wk =   0.0555556
        k(   13) = (   0.0000000  -0.5000000   0.0000000), wk =   0.0277778
        k(   14) = (   0.0000000  -0.5000000   0.1666667), wk =   0.0555556
        k(   15) = (   0.0000000  -0.5000000   0.3333333), wk =   0.0555556
        k(   16) = (   0.0000000  -0.5000000  -0.5000000), wk =   0.0277778
        k(   17) = (   0.1666667   0.1666667   0.0000000), wk =   0.0555556
        k(   18) = (   0.1666667   0.1666667   0.1666667), wk =   0.1111111
        k(   19) = (   0.1666667   0.1666667   0.3333333), wk =   0.1111111
        k(   20) = (   0.1666667   0.1666667  -0.5000000), wk =   0.0555556
        k(   21) = (   0.1666667   0.3333333   0.0000000), wk =   0.1111111
        k(   22) = (   0.1666667   0.3333333   0.1666667), wk =   0.1111111
        k(   23) = (   0.1666667   0.3333333   0.3333333), wk =   0.1111111
        k(   24) = (   0.1666667   0.3333333  -0.5000000), wk =   0.1111111
        k(   25) = (   0.3333333   0.3333333   0.0000000), wk =   0.0185185
        k(   26) = (   0.3333333   0.3333333   0.1666667), wk =   0.0370370
        k(   27) = (   0.3333333   0.3333333   0.3333333), wk =   0.0370370
        k(   28) = (   0.3333333   0.3333333  -0.5000000), wk =   0.0185185
        k(   29) = (   0.0000000  -0.1666667   0.1666667), wk =   0.0555556
        k(   30) = (   0.0000000  -0.1666667   0.3333333), wk =   0.0555556
        k(   31) = (   0.0000000  -0.3333333   0.1666667), wk =   0.0555556
        k(   32) = (   0.0000000  -0.3333333   0.3333333), wk =   0.0555556
        k(   33) = (  -0.1666667  -0.3333333   0.1666667), wk =   0.1111111
        k(   34) = (  -0.1666667  -0.3333333   0.3333333), wk =   0.1111111

     Check: negative core charge=   -0.000002

     Initial potential from superposition of free atoms

     starting charge      71.9851, renormalised to      72.0000
     Starting wfcs are   52 randomized atomic wfcs

     Self-consistent Calculation

     iteration #  1     ecut=    50.00 Ry     beta= 0.30
     Davidson diagonalization with overlap

     ethr =  1.00E-02,  avg # of iterations =  1.6

     total energy              =    -722.80121690 Ry
     estimated scf accuracy    <       1.57973449 Ry

[...]

     c_bands:  1 eigenvalues not converged
     ethr =  1.29E-06,  avg # of iterations = 11.5

[...]

     c_bands:  1 eigenvalues not converged
[barbara][[27566,1],3][../../../../../../opal/mca/btl/tcp/btl_tcp.c:559:mca_btl_tcp_recv_blocking] recv(18) failed: Connection reset by peer (104)
     ethr =  5.92E-07,  avg # of iterations = 11.5

[...]

     c_bands:  1 eigenvalues not converged
     ethr =  2.26E-08,  avg # of iterations =  9.9

[...]

     total energy              =    -723.17769776 Ry
     estimated scf accuracy    <       0.00000009 Ry

     iteration # 33     ecut=    50.00 Ry     beta= 0.30
     Davidson diagonalization with overlap

     ethr =  1.30E-10,  avg # of iterations =  4.7

     End of self-consistent calculation

          k = 0.0000 0.0000 0.0000 (  4755 PWs)   bands (ev):

   -12.1919 -11.9114 -11.9114 -11.6283  -0.5810  -0.5810  -0.4681  -0.4337
    -0.4337  -0.3867  -0.3867  -0.3867  -0.3867  -0.2616  -0.2616   0.1599
     0.1599   0.2786   0.2786   0.2786   0.2786   0.3343   0.3343   0.4023
     0.5050   2.5544   2.5544   3.6675   3.6675   4.0799   4.0799   4.0799
     4.0799   4.4634   4.4634   4.5166

     occupation numbers
     1.0000   1.0000   1.0000   1.0000   1.0000   1.0000   1.0000   1.0000
     1.0000   1.0000   1.0000   1.0000   1.0000   1.0000   1.0000   1.0000
     1.0000   1.0000   1.0000   1.0000   1.0000   1.0000   1.0000   1.0000
     1.0000   1.0000   1.0000   1.0000   1.0000   1.0000   1.0000   1.0000
     1.0000   1.0000   1.0000   1.0000

[...]

          k = 0.0000-0.3849 0.1147 (  4715 PWs)   bands (ev):

[...]

          k =-0.1667-0.4811 0.0574 (  4711 PWs)   bands (ev):

[...]

          k =-0.1667-0.4811 0.1147 (  4716 PWs)   bands (ev):

   -11.7803 -11.7416 -11.6493 -11.6209  -0.5504  -0.4835  -0.4574  -0.3573
    -0.2768  -0.2349  -0.1550  -0.1299  -0.0837  -0.0327   0.0028   0.0848
     0.2062   0.2411   0.2601   0.2713   0.3645   0.3752   0.4376   0.4610
     1.2435   1.2873   1.5739   1.7286   2.3075   2.5923   2.7910   3.3262
     3.4145   3.6564   3.7442   3.9291

     occupation numbers
     1.0000   1.0000   1.0000   1.0000   1.0000   1.0000   1.0000   1.0000
     1.0000   1.0000   1.0000   1.0000   1.0000   1.0000   1.0000   1.0000
     1.0000   1.0000   1.0000   1.0000   1.0000   1.0000   1.0000   1.0000
     1.0000   1.0000   1.0000   1.0000   1.0000   1.0000   1.0000   1.0000
     1.0000   1.0000   1.0000   1.0000

     highest occupied level (ev):     4.5166

!    total energy              =    -723.17769778 Ry
     estimated scf accuracy    <          2.7E-09 Ry

     The total energy is the sum of the following terms:
     one-electron contribution =    -352.36078901 Ry
     hartree contribution      =     252.65142635 Ry
     xc contribution           =    -218.45258890 Ry
     ewald contribution        =    -405.01574622 Ry

     convergence has been achieved in  33 iterations

     Forces acting on atoms (cartesian axes, Ry/au):

     atom    1 type  1   force =     0.00000000    0.00000000   -0.01337994
     atom    2 type  1   force =     0.00000000    0.00000000   -0.01338725
     atom    3 type  2   force =     0.00000000   -0.00000000    0.01338242
     atom    4 type  2   force =     0.00000000   -0.00000000    0.01338158
     atom    5 type  1   force =     0.00000000    0.00000000   -0.01338483
     atom    6 type  1   force =     0.00000000    0.00000000   -0.01337842
     atom    7 type  2   force =     0.00000000    0.00000000    0.01338280
     atom    8 type  2   force =     0.00000000    0.00000000    0.01338364
     The non-local contrib.  to forces
     atom    1 type  1   force =     0.00000000    0.00000000   -0.28595545
     atom    2 type  1   force =     0.00000000   -0.00000000   -0.28595861
     atom    3 type  2   force =     0.00000000   -0.00000000   -0.25083092
     atom    4 type  2   force =     0.00000000   -0.00000000   -0.25083348
     atom    5 type  1   force =     0.00000000   -0.00000000   -0.28595585
     atom    6 type  1   force =     0.00000000    0.00000000   -0.28595641
     atom    7 type  2   force =     0.00000000    0.00000000   -0.25082484
     atom    8 type  2   force =     0.00000000   -0.00000000   -0.25081818
     The ionic contribution  to forces
     atom    1 type  1   force =    -0.00000000    0.00000000   -1.86792559
     atom    2 type  1   force =     0.00000000   -0.00000000   -1.86792559
     atom    3 type  2   force =    -0.00000000    0.00000000    1.86792559
     atom    4 type  2   force =     0.00000000   -0.00000000    1.86792559
     atom    5 type  1   force =    -0.00000000    0.00000000   -1.86792559
     atom    6 type  1   force =     0.00000000   -0.00000000   -1.86792559
     atom    7 type  2   force =    -0.00000000    0.00000000    1.86792559
     atom    8 type  2   force =     0.00000000   -0.00000000    1.86792559
     The local contribution  to forces
     atom    1 type  1   force =    -0.00000005    0.00000003    2.12210410
     atom    2 type  1   force =     0.00000005   -0.00000003    2.12211548
     atom    3 type  2   force =    -0.00000001    0.00000001   -1.60579530
     atom    4 type  2   force =     0.00000001   -0.00000001   -1.60580322
     atom    5 type  1   force =    -0.00000005    0.00000003    2.12212901
     atom    6 type  1   force =     0.00000005   -0.00000003    2.12212036
     atom    7 type  2   force =    -0.00000001    0.00000001   -1.60579187
     atom    8 type  2   force =     0.00000001   -0.00000001   -1.60578926
     The core correction contribution to forces
     atom    1 type  1   force =    -0.00000001    0.00000000    0.01838068
     atom    2 type  1   force =     0.00000001   -0.00000000    0.01837981
     atom    3 type  2   force =     0.00000000   -0.00000000    0.00209724
     atom    4 type  2   force =    -0.00000000    0.00000000    0.00209972
     atom    5 type  1   force =    -0.00000001    0.00000000    0.01837643
     atom    6 type  1   force =     0.00000001   -0.00000000    0.01837753
     atom    7 type  2   force =     0.00000000   -0.00000000    0.00209712
     atom    8 type  2   force =    -0.00000000    0.00000000    0.00209457
     The Hubbard contrib.    to forces
     atom    1 type  1   force =     0.00000000    0.00000000    0.00000000
     atom    2 type  1   force =     0.00000000    0.00000000    0.00000000
     atom    3 type  2   force =     0.00000000    0.00000000    0.00000000
     atom    4 type  2   force =     0.00000000    0.00000000    0.00000000
     atom    5 type  1   force =     0.00000000    0.00000000    0.00000000
     atom    6 type  1   force =     0.00000000    0.00000000    0.00000000
     atom    7 type  2   force =     0.00000000    0.00000000    0.00000000
     atom    8 type  2   force =     0.00000000    0.00000000    0.00000000
     The SCF correction term to forces
     atom    1 type  1   force =    -0.00000000    0.00000000    0.00002033
     atom    2 type  1   force =     0.00000000   -0.00000000    0.00000567
     atom    3 type  2   force =     0.00000000   -0.00000000   -0.00001018
     atom    4 type  2   force =    -0.00000000    0.00000000   -0.00000302
     atom    5 type  1   force =    -0.00000000    0.00000000   -0.00000482
     atom    6 type  1   force =     0.00000000   -0.00000000    0.00000970
     atom    7 type  2   force =     0.00000000   -0.00000000   -0.00001920
     atom    8 type  2   force =    -0.00000000    0.00000000   -0.00002506

     Total force =     0.037852     Total SCF correction =     0.000041

     General routines

     Parallel routines

   This run was terminated on:  20: 3:14  26Aug2025

   JOB DONE.