     Program PWSCF v.7.0 starts on 26Aug2025 at 19:51:48

     K-points division:     npool     =       4
     band groups division:  nbgrp     =       4

     Reading input from /home/jvc/QEspresso7.2/ZnO_database/scripts/cell112.in/ZnO-3.53-1.78-112.in
Warning: card &CELL ignored
Warning: card / ignored
Warning: card &FCP ignored
Warning: card / ignored
Warning: card &RISM ignored
Warning: card / ignored

     Current dimensions of program PWSCF are:
     Max number of different atomic species (ntypx) = 10
     Max number of k-points (npk) =  40000
     Max angular momentum in pseudopotentials (lmaxx) =  4
     file Zn.upf: wavefunction(s)  3D renormalized
     Found identity + (  0.0000  0.0000  0.5000) symmetry
     This is a supercell, fractional translations are disabled
     Message from routine setup:
     using ibrav=0 with symmetry is DISCOURAGED, use correct ibrav instead

     Subspace diagonalization in iterative solution of the eigenvalue problem:
     a serial algorithm will be used

     Using Slab Decomposition

     bravais-lattice index     =            0
     lattice parameter (alat)  =       6.6732  a.u.
     unit-cell volume          =     914.0045 (a.u.)^3
     number of atoms/cell      =            8
     number of atomic types    =            2
     number of electrons       =        72.00
     number of Kohn-Sham states=           36
     kinetic-energy cutoff     =      50.0000  Ry
     charge density cutoff     =     400.0000  Ry
     scf convergence threshold =      1.0E-08
     mixing beta               =       0.3000
     number of iterations used =            8  plain     mixing
     Exchange-correlation= PBE
                           (   1   4   3   4   0   0   0)

     celldm(1)=   6.673162  celldm(2)=   0.000000  celldm(3)=   0.000000
     celldm(4)=   0.000000  celldm(5)=   0.000000  celldm(6)=   0.000000

     crystal axes: (cart. coord. in units of alat)
               a(1) = (   1.000000   0.000000   0.000000 )
               a(2) = (  -0.500000   0.866025   0.000000 )
               a(3) = (   0.000000   0.000000   3.551588 )

     reciprocal axes: (cart. coord. in units 2 pi/alat)
               b(1) = (  1.000000  0.577350 -0.000000 )
               b(2) = (  0.000000  1.154701  0.000000 )
               b(3) = (  0.000000 -0.000000  0.281564 )

     PseudoPot. # 1 for Zn read from file:
     /home/jvc/QEspresso7.2/ZnO_database/pseudos/Zn.upf
     MD5 check sum: 7f56cabf9682ed8c977c2f7d0c5985c5
     Pseudo is Ultrasoft + core correction, Zval = 12.0
     Generated using &quot;atomic&quot; code by A. Dal Corso  v.6.2.2
     Using radial grid of 1201 points,  6 beta functions with:
                l(1) =   0
                l(2) =   0
                l(3) =   1
                l(4) =   1
                l(5) =   2
                l(6) =   2
     Q(r) pseudized with 0 coefficients

     PseudoPot. # 2 for O  read from file:
     /home/jvc/QEspresso7.2/ZnO_database/pseudos/O.upf
     MD5 check sum: 91400c9766925bcf19f520983a725ff0
     Pseudo is Ultrasoft + core correction, Zval =  6.0
     Generated using &quot;atomic&quot; code by A. Dal Corso  v.6.3MaX
     Using radial grid of 1095 points,  4 beta functions with:
                l(1) =   0
                l(2) =   0
                l(3) =   1
                l(4) =   1
     Q(r) pseudized with 0 coefficients

     atomic species   valence    mass     pseudopotential
        Zn            12.00    65.38000     Zn( 1.00)
        O              6.00    15.99900     O ( 1.00)

      6 Sym. Ops. (no inversion) found

                                    s                        frac. trans.

      isym =  1     identity

 cryst.   s( 1) = (     1          0          0      )
                  (     0          1          0      )
                  (     0          0          1      )

 cart.    s( 1) = (  1.0000000  0.0000000  0.0000000 )
                  (  0.0000000  1.0000000  0.0000000 )
                  (  0.0000000  0.0000000  1.0000000 )

      isym =  2     120 deg rotation - cryst. axis [0,0,1]

[...]

      isym =  3     120 deg rotation - cryst. axis [0,0,-1]

[...]

      isym =  4     inv. 180 deg rotation - cart. axis [1,0,0]

[...]

      isym =  5     inv. 180 deg rotation - cryst. axis [0,1,0]

[...]

      isym =  6     inv. 180 deg rotation - cryst. axis [1,1,0]

 cryst.   s( 6) = (     0         -1          0      )
                  (    -1          0          0      )
                  (     0          0          1      )

 cart.    s( 6) = (  0.5000000 -0.8660254  0.0000000 )
                  ( -0.8660254 -0.5000000  0.0000000 )
                  (  0.0000000  0.0000000  1.0000000 )

   Cartesian axes

     site n.     atom                  positions (alat units)
         1           Zn  tau(   1) = (   0.5000000   0.2886751   0.8890222  )
         2           Zn  tau(   2) = (  -0.0000000   0.5773503   0.0011251  )
         3           O   tau(   3) = (   0.5000000   0.2886751   1.5621243  )
         4           O   tau(   4) = (  -0.0000000   0.5773503   0.6742272  )
         5           Zn  tau(   5) = (   0.5000000   0.2886751   2.6648164  )
         6           Zn  tau(   6) = (  -0.0000000   0.5773503   1.7769193  )
         7           O   tau(   7) = (   0.5000000   0.2886751   3.3379185  )
         8           O   tau(   8) = (  -0.0000000   0.5773503   2.4500214  )

   Crystallographic axes

     site n.     atom                  positions (cryst. coord.)
         1           Zn  tau(   1) = (  0.6666667  0.3333333  0.2503168  )
         2           Zn  tau(   2) = (  0.3333333  0.6666667  0.0003168  )
         3           O   tau(   3) = (  0.6666667  0.3333333  0.4398382  )
         4           O   tau(   4) = (  0.3333333  0.6666667  0.1898382  )
         5           Zn  tau(   5) = (  0.6666667  0.3333333  0.7503168  )
         6           Zn  tau(   6) = (  0.3333333  0.6666667  0.5003168  )
         7           O   tau(   7) = (  0.6666667  0.3333333  0.9398382  )
         8           O   tau(   8) = (  0.3333333  0.6666667  0.6898382  )

     number of k points=    34
                       cart. coord. in units 2pi/alat
        k(    1) = (   0.0000000   0.0000000   0.0000000), wk =   0.0092593
        k(    2) = (   0.0000000   0.0000000   0.0469274), wk =   0.0185185
        k(    3) = (   0.0000000   0.0000000   0.0938547), wk =   0.0185185
        k(    4) = (   0.0000000   0.0000000  -0.1407821), wk =   0.0092593
        k(    5) = (   0.0000000   0.1924501   0.0000000), wk =   0.0555556
        k(    6) = (   0.0000000   0.1924501   0.0469274), wk =   0.0555556
        k(    7) = (   0.0000000   0.1924501   0.0938547), wk =   0.0555556
        k(    8) = (   0.0000000   0.1924501  -0.1407821), wk =   0.0555556
        k(    9) = (   0.0000000   0.3849002   0.0000000), wk =   0.0555556
        k(   10) = (   0.0000000   0.3849002   0.0469274), wk =   0.0555556
        k(   11) = (   0.0000000   0.3849002   0.0938547), wk =   0.0555556
        k(   12) = (   0.0000000   0.3849002  -0.1407821), wk =   0.0555556
        k(   13) = (   0.0000000  -0.5773503   0.0000000), wk =   0.0277778
        k(   14) = (   0.0000000  -0.5773503   0.0469274), wk =   0.0555556
        k(   15) = (   0.0000000  -0.5773503   0.0938547), wk =   0.0555556
        k(   16) = (   0.0000000  -0.5773503  -0.1407821), wk =   0.0277778
        k(   17) = (   0.1666667   0.2886751   0.0000000), wk =   0.0555556
        k(   18) = (   0.1666667   0.2886751   0.0469274), wk =   0.1111111
        k(   19) = (   0.1666667   0.2886751   0.0938547), wk =   0.1111111
        k(   20) = (   0.1666667   0.2886751  -0.1407821), wk =   0.0555556
        k(   21) = (   0.1666667   0.4811252   0.0000000), wk =   0.1111111
        k(   22) = (   0.1666667   0.4811252   0.0469274), wk =   0.1111111
        k(   23) = (   0.1666667   0.4811252   0.0938547), wk =   0.1111111
        k(   24) = (   0.1666667   0.4811252  -0.1407821), wk =   0.1111111
        k(   25) = (   0.3333333   0.5773503   0.0000000), wk =   0.0185185
        k(   26) = (   0.3333333   0.5773503   0.0469274), wk =   0.0370370
        k(   27) = (   0.3333333   0.5773503   0.0938547), wk =   0.0370370
        k(   28) = (   0.3333333   0.5773503  -0.1407821), wk =   0.0185185
        k(   29) = (   0.0000000  -0.1924501   0.0469274), wk =   0.0555556
        k(   30) = (   0.0000000  -0.1924501   0.0938547), wk =   0.0555556
        k(   31) = (   0.0000000  -0.3849002   0.0469274), wk =   0.0555556
        k(   32) = (   0.0000000  -0.3849002   0.0938547), wk =   0.0555556
        k(   33) = (  -0.1666667  -0.4811252   0.0469274), wk =   0.1111111
        k(   34) = (  -0.1666667  -0.4811252   0.0938547), wk =   0.1111111

                       cryst. coord.
        k(    1) = (   0.0000000   0.0000000   0.0000000), wk =   0.0092593
        k(    2) = (   0.0000000   0.0000000   0.1666667), wk =   0.0185185
        k(    3) = (   0.0000000   0.0000000   0.3333333), wk =   0.0185185
        k(    4) = (   0.0000000   0.0000000  -0.5000000), wk =   0.0092593
        k(    5) = (   0.0000000   0.1666667   0.0000000), wk =   0.0555556
        k(    6) = (   0.0000000   0.1666667   0.1666667), wk =   0.0555556
        k(    7) = (   0.0000000   0.1666667   0.3333333), wk =   0.0555556
        k(    8) = (   0.0000000   0.1666667  -0.5000000), wk =   0.0555556
        k(    9) = (   0.0000000   0.3333333   0.0000000), wk =   0.0555556
        k(   10) = (   0.0000000   0.3333333   0.1666667), wk =   0.0555556
        k(   11) = (   0.0000000   0.3333333   0.3333333), wk =   0.0555556
        k(   12) = (   0.0000000   0.3333333  -0.5000000), wk =   0.0555556
        k(   13) = (   0.0000000  -0.5000000   0.0000000), wk =   0.0277778
        k(   14) = (   0.0000000  -0.5000000   0.1666667), wk =   0.0555556
        k(   15) = (   0.0000000  -0.5000000   0.3333333), wk =   0.0555556
        k(   16) = (   0.0000000  -0.5000000  -0.5000000), wk =   0.0277778
        k(   17) = (   0.1666667   0.1666667   0.0000000), wk =   0.0555556
        k(   18) = (   0.1666667   0.1666667   0.1666667), wk =   0.1111111
        k(   19) = (   0.1666667   0.1666667   0.3333333), wk =   0.1111111
        k(   20) = (   0.1666667   0.1666667  -0.5000000), wk =   0.0555556
        k(   21) = (   0.1666667   0.3333333   0.0000000), wk =   0.1111111
        k(   22) = (   0.1666667   0.3333333   0.1666667), wk =   0.1111111
        k(   23) = (   0.1666667   0.3333333   0.3333333), wk =   0.1111111
        k(   24) = (   0.1666667   0.3333333  -0.5000000), wk =   0.1111111
        k(   25) = (   0.3333333   0.3333333   0.0000000), wk =   0.0185185
        k(   26) = (   0.3333333   0.3333333   0.1666667), wk =   0.0370370
        k(   27) = (   0.3333333   0.3333333   0.3333333), wk =   0.0370370
        k(   28) = (   0.3333333   0.3333333  -0.5000000), wk =   0.0185185
        k(   29) = (   0.0000000  -0.1666667   0.1666667), wk =   0.0555556
        k(   30) = (   0.0000000  -0.1666667   0.3333333), wk =   0.0555556
        k(   31) = (   0.0000000  -0.3333333   0.1666667), wk =   0.0555556
        k(   32) = (   0.0000000  -0.3333333   0.3333333), wk =   0.0555556
        k(   33) = (  -0.1666667  -0.3333333   0.1666667), wk =   0.1111111
        k(   34) = (  -0.1666667  -0.3333333   0.3333333), wk =   0.1111111

     Check: negative core charge=   -0.000002

     Initial potential from superposition of free atoms

     starting charge      71.9851, renormalised to      72.0000
     Starting wfcs are   52 randomized atomic wfcs

     Self-consistent Calculation

     iteration #  1     ecut=    50.00 Ry     beta= 0.30
     Davidson diagonalization with overlap

     ethr =  1.00E-02,  avg # of iterations =  1.2

     total energy              =    -722.60071098 Ry
     estimated scf accuracy    <       1.79005031 Ry

[...]

     c_bands:  1 eigenvalues not converged
     ethr =  7.15E-06,  avg # of iterations =  6.9

[...]

     c_bands:  1 eigenvalues not converged
     c_bands:  1 eigenvalues not converged
     c_bands:  1 eigenvalues not converged
     c_bands:  1 eigenvalues not converged
     c_bands:  1 eigenvalues not converged
     ethr =  2.45E-10,  avg # of iterations = 15.3

[...]

     total energy              =    -723.03982332 Ry
     estimated scf accuracy    <       0.00000004 Ry

     iteration # 33     ecut=    50.00 Ry     beta= 0.30
     Davidson diagonalization with overlap

     ethr =  4.97E-11,  avg # of iterations =  5.6

     End of self-consistent calculation

          k = 0.0000 0.0000 0.0000 (  5471 PWs)   bands (ev):

   -13.0292 -12.9105 -12.9104 -12.7883  -1.8559  -1.8559  -1.8271  -1.8271
    -1.8270  -1.8270  -1.8212  -1.7896  -1.7896  -1.7547  -1.7547  -1.4347
    -1.4048  -1.4048  -1.3726  -1.3726  -1.3726  -1.3726  -1.3462  -1.3462
    -0.3016   0.8997   0.8998   2.7066   2.7066   2.7467   2.8658   2.8658
     2.8659   2.8659   3.0246   3.0246

     occupation numbers
     1.0000   1.0000   1.0000   1.0000   1.0000   1.0000   1.0000   1.0000
     1.0000   1.0000   1.0000   1.0000   1.0000   1.0000   1.0000   1.0000
     1.0000   1.0000   1.0000   1.0000   1.0000   1.0000   1.0000   1.0000
     1.0000   1.0000   1.0000   1.0000   1.0000   1.0000   1.0000   1.0000
     1.0000   1.0000   1.0000   1.0000

[...]

          k = 0.0000-0.3849 0.0939 (  5473 PWs)   bands (ev):

[...]

          k =-0.1667-0.4811 0.0469 (  5437 PWs)   bands (ev):

[...]

          k =-0.1667-0.4811 0.0939 (  5434 PWs)   bands (ev):

   -12.7002 -12.6858 -12.6477 -12.6342  -1.7980  -1.7774  -1.7085  -1.6933
    -1.6573  -1.6288  -1.5878  -1.5551  -1.5068  -1.4995  -1.4989  -1.4808
    -1.4036  -1.3747  -1.3497  -1.3421  -1.2849  -1.2792  -1.2383  -1.2151
     0.0913   0.0966   0.2451   0.3449   1.3579   1.5500   1.6234   1.8343
     1.9898   2.1047   2.2880   2.2989

     occupation numbers
     1.0000   1.0000   1.0000   1.0000   1.0000   1.0000   1.0000   1.0000
     1.0000   1.0000   1.0000   1.0000   1.0000   1.0000   1.0000   1.0000
     1.0000   1.0000   1.0000   1.0000   1.0000   1.0000   1.0000   1.0000
     1.0000   1.0000   1.0000   1.0000   1.0000   1.0000   1.0000   1.0000
     1.0000   1.0000   1.0000   1.0000

     highest occupied level (ev):     3.0246

!    total energy              =    -723.03982333 Ry
     estimated scf accuracy    <          2.3E-09 Ry

     The total energy is the sum of the following terms:
     one-electron contribution =    -382.01338350 Ry
     hartree contribution      =     263.51438791 Ry
     xc contribution           =    -217.98862509 Ry
     ewald contribution        =    -386.55220265 Ry

     convergence has been achieved in  33 iterations

     Forces acting on atoms (cartesian axes, Ry/au):

     atom    1 type  1   force =     0.00000000    0.00000000   -0.01605999
     atom    2 type  1   force =     0.00000000    0.00000000   -0.01607990
     atom    3 type  2   force =     0.00000000    0.00000000    0.01609111
     atom    4 type  2   force =     0.00000000    0.00000000    0.01609407
     atom    5 type  1   force =     0.00000000    0.00000000   -0.01608994
     atom    6 type  1   force =     0.00000000    0.00000000   -0.01614192
     atom    7 type  2   force =     0.00000000   -0.00000000    0.01609276
     atom    8 type  2   force =     0.00000000    0.00000000    0.01609382
     The non-local contrib.  to forces
     atom    1 type  1   force =     0.00000000   -0.00000000    0.21282316
     atom    2 type  1   force =     0.00000000    0.00000000    0.21280982
     atom    3 type  2   force =     0.00000000   -0.00000000    0.25863571
     atom    4 type  2   force =    -0.00000000    0.00000000    0.25861895
     atom    5 type  1   force =     0.00000000   -0.00000000    0.21280238
     atom    6 type  1   force =     0.00000000    0.00000000    0.21277578
     atom    7 type  2   force =     0.00000000    0.00000000    0.25861868
     atom    8 type  2   force =     0.00000000    0.00000000    0.25862981
     The ionic contribution  to forces
     atom    1 type  1   force =    -0.00000000    0.00000000    1.64023929
     atom    2 type  1   force =     0.00000000   -0.00000000    1.64023929
     atom    3 type  2   force =    -0.00000000    0.00000000   -1.64023929
     atom    4 type  2   force =     0.00000000   -0.00000000   -1.64023929
     atom    5 type  1   force =    -0.00000000    0.00000000    1.64023929
     atom    6 type  1   force =     0.00000000   -0.00000000    1.64023929
     atom    7 type  2   force =    -0.00000000    0.00000000   -1.64023929
     atom    8 type  2   force =     0.00000000   -0.00000000   -1.64023929
     The local contribution  to forces
     atom    1 type  1   force =    -0.00000005    0.00000003   -1.85752964
     atom    2 type  1   force =     0.00000005   -0.00000003   -1.85749835
     atom    3 type  2   force =    -0.00000001    0.00000001    1.40018081
     atom    4 type  2   force =     0.00000001   -0.00000001    1.40013737
     atom    5 type  1   force =    -0.00000005    0.00000003   -1.85749045
     atom    6 type  1   force =     0.00000005   -0.00000003   -1.85741146
     atom    7 type  2   force =    -0.00000001    0.00000001    1.40014466
     atom    8 type  2   force =     0.00000001   -0.00000001    1.40016066
     The core correction contribution to forces
     atom    1 type  1   force =    -0.00000001    0.00000000   -0.01165441
     atom    2 type  1   force =     0.00000001   -0.00000000   -0.01165467
     atom    3 type  2   force =     0.00000000   -0.00000000   -0.00244801
     atom    4 type  2   force =    -0.00000000    0.00000000   -0.00244784
     atom    5 type  1   force =    -0.00000001    0.00000000   -0.01165418
     atom    6 type  1   force =     0.00000001   -0.00000000   -0.01165530
     atom    7 type  2   force =     0.00000000   -0.00000000   -0.00244784
     atom    8 type  2   force =    -0.00000000    0.00000000   -0.00244796
     The Hubbard contrib.    to forces
     atom    1 type  1   force =     0.00000000    0.00000000    0.00000000
     atom    2 type  1   force =     0.00000000    0.00000000    0.00000000
     atom    3 type  2   force =     0.00000000    0.00000000    0.00000000
     atom    4 type  2   force =     0.00000000    0.00000000    0.00000000
     atom    5 type  1   force =     0.00000000    0.00000000    0.00000000
     atom    6 type  1   force =     0.00000000    0.00000000    0.00000000
     atom    7 type  2   force =     0.00000000    0.00000000    0.00000000
     atom    8 type  2   force =     0.00000000    0.00000000    0.00000000
     The SCF correction term to forces
     atom    1 type  1   force =    -0.00000000    0.00000000    0.00006296
     atom    2 type  1   force =     0.00000000   -0.00000000    0.00002536
     atom    3 type  2   force =    -0.00000000    0.00000000   -0.00003676
     atom    4 type  2   force =     0.00000000   -0.00000000    0.00002623
     atom    5 type  1   force =    -0.00000000    0.00000000    0.00001436
     atom    6 type  1   force =     0.00000000   -0.00000000   -0.00008889
     atom    7 type  2   force =    -0.00000000    0.00000000    0.00001791
     atom    8 type  2   force =     0.00000000   -0.00000000   -0.00000804

     Total force =     0.045518     Total SCF correction =     0.000123

     General routines

     Parallel routines

   This run was terminated on:  19:57:21  26Aug2025

   JOB DONE.