     Program PWSCF v.7.0 starts on 26Aug2025 at 14: 3:17

     K-points division:     npool     =       4
     band groups division:  nbgrp     =       4

     Reading input from /home/jvc/QEspresso7.2/ZnO_database/scripts/cell112.in/ZnO-3.07-1.68-112.in
Warning: card &CELL ignored
Warning: card / ignored
Warning: card &FCP ignored
Warning: card / ignored
Warning: card &RISM ignored
Warning: card / ignored

     Current dimensions of program PWSCF are:
     Max number of different atomic species (ntypx) = 10
     Max number of k-points (npk) =  40000
     Max angular momentum in pseudopotentials (lmaxx) =  4
     file Zn.upf: wavefunction(s)  3D renormalized
     Found identity + (  0.0000  0.0000  0.5000) symmetry
     This is a supercell, fractional translations are disabled
     Message from routine setup:
     using ibrav=0 with symmetry is DISCOURAGED, use correct ibrav instead

     Subspace diagonalization in iterative solution of the eigenvalue problem:
     a serial algorithm will be used

     Using Slab Decomposition

     bravais-lattice index     =            0
     lattice parameter (alat)  =       5.8081  a.u.
     unit-cell volume          =     569.7722 (a.u.)^3
     number of atoms/cell      =            8
     number of atomic types    =            2
     number of electrons       =        72.00
     number of Kohn-Sham states=           36
     kinetic-energy cutoff     =      50.0000  Ry
     charge density cutoff     =     400.0000  Ry
     scf convergence threshold =      1.0E-08
     mixing beta               =       0.3000
     number of iterations used =            8  plain     mixing
     Exchange-correlation= PBE
                           (   1   4   3   4   0   0   0)

     celldm(1)=   5.808123  celldm(2)=   0.000000  celldm(3)=   0.000000
     celldm(4)=   0.000000  celldm(5)=   0.000000  celldm(6)=   0.000000

     crystal axes: (cart. coord. in units of alat)
               a(1) = (   1.000000   0.000000   0.000000 )
               a(2) = (  -0.500000   0.866025   0.000000 )
               a(3) = (   0.000000   0.000000   3.357865 )

     reciprocal axes: (cart. coord. in units 2 pi/alat)
               b(1) = (  1.000000  0.577350 -0.000000 )
               b(2) = (  0.000000  1.154701  0.000000 )
               b(3) = (  0.000000 -0.000000  0.297808 )

     PseudoPot. # 1 for Zn read from file:
     /home/jvc/QEspresso7.2/ZnO_database/pseudos/Zn.upf
     MD5 check sum: 7f56cabf9682ed8c977c2f7d0c5985c5
     Pseudo is Ultrasoft + core correction, Zval = 12.0
     Generated using &quot;atomic&quot; code by A. Dal Corso  v.6.2.2
     Using radial grid of 1201 points,  6 beta functions with:
                l(1) =   0
                l(2) =   0
                l(3) =   1
                l(4) =   1
                l(5) =   2
                l(6) =   2
     Q(r) pseudized with 0 coefficients

     PseudoPot. # 2 for O  read from file:
     /home/jvc/QEspresso7.2/ZnO_database/pseudos/O.upf
     MD5 check sum: 91400c9766925bcf19f520983a725ff0
     Pseudo is Ultrasoft + core correction, Zval =  6.0
     Generated using &quot;atomic&quot; code by A. Dal Corso  v.6.3MaX
     Using radial grid of 1095 points,  4 beta functions with:
                l(1) =   0
                l(2) =   0
                l(3) =   1
                l(4) =   1
     Q(r) pseudized with 0 coefficients

     atomic species   valence    mass     pseudopotential
        Zn            12.00    65.38000     Zn( 1.00)
        O              6.00    15.99900     O ( 1.00)

      6 Sym. Ops. (no inversion) found

                                    s                        frac. trans.

      isym =  1     identity

 cryst.   s( 1) = (     1          0          0      )
                  (     0          1          0      )
                  (     0          0          1      )

 cart.    s( 1) = (  1.0000000  0.0000000  0.0000000 )
                  (  0.0000000  1.0000000  0.0000000 )
                  (  0.0000000  0.0000000  1.0000000 )

      isym =  2     120 deg rotation - cryst. axis [0,0,1]

[...]

      isym =  3     120 deg rotation - cryst. axis [0,0,-1]

[...]

      isym =  4     inv. 180 deg rotation - cart. axis [1,0,0]

[...]

      isym =  5     inv. 180 deg rotation - cryst. axis [0,1,0]

[...]

      isym =  6     inv. 180 deg rotation - cryst. axis [1,1,0]

 cryst.   s( 6) = (     0         -1          0      )
                  (    -1          0          0      )
                  (     0          0          1      )

 cart.    s( 6) = (  0.5000000 -0.8660254  0.0000000 )
                  ( -0.8660254 -0.5000000  0.0000000 )
                  (  0.0000000  0.0000000  1.0000000 )

   Cartesian axes

     site n.     atom                  positions (alat units)
         1           Zn  tau(   1) = (   0.5000000   0.2886751   0.8405301  )
         2           Zn  tau(   2) = (  -0.0000000   0.5773503   0.0010637  )
         3           O   tau(   3) = (   0.5000000   0.2886751   1.4769175  )
         4           O   tau(   4) = (  -0.0000000   0.5773503   0.6374511  )
         5           Zn  tau(   5) = (   0.5000000   0.2886751   2.5194628  )
         6           Zn  tau(   6) = (  -0.0000000   0.5773503   1.6799964  )
         7           O   tau(   7) = (   0.5000000   0.2886751   3.1558502  )
         8           O   tau(   8) = (  -0.0000000   0.5773503   2.3163838  )

   Crystallographic axes

     site n.     atom                  positions (cryst. coord.)
         1           Zn  tau(   1) = (  0.6666667  0.3333333  0.2503168  )
         2           Zn  tau(   2) = (  0.3333333  0.6666667  0.0003168  )
         3           O   tau(   3) = (  0.6666667  0.3333333  0.4398382  )
         4           O   tau(   4) = (  0.3333333  0.6666667  0.1898382  )
         5           Zn  tau(   5) = (  0.6666667  0.3333333  0.7503168  )
         6           Zn  tau(   6) = (  0.3333333  0.6666667  0.5003168  )
         7           O   tau(   7) = (  0.6666667  0.3333333  0.9398382  )
         8           O   tau(   8) = (  0.3333333  0.6666667  0.6898382  )

     number of k points=    34
                       cart. coord. in units 2pi/alat
        k(    1) = (   0.0000000   0.0000000   0.0000000), wk =   0.0092593
        k(    2) = (   0.0000000   0.0000000   0.0496347), wk =   0.0185185
        k(    3) = (   0.0000000   0.0000000   0.0992694), wk =   0.0185185
        k(    4) = (   0.0000000   0.0000000  -0.1489041), wk =   0.0092593
        k(    5) = (   0.0000000   0.1924501   0.0000000), wk =   0.0555556
        k(    6) = (   0.0000000   0.1924501   0.0496347), wk =   0.0555556
        k(    7) = (   0.0000000   0.1924501   0.0992694), wk =   0.0555556
        k(    8) = (   0.0000000   0.1924501  -0.1489041), wk =   0.0555556
        k(    9) = (   0.0000000   0.3849002   0.0000000), wk =   0.0555556
        k(   10) = (   0.0000000   0.3849002   0.0496347), wk =   0.0555556
        k(   11) = (   0.0000000   0.3849002   0.0992694), wk =   0.0555556
        k(   12) = (   0.0000000   0.3849002  -0.1489041), wk =   0.0555556
        k(   13) = (   0.0000000  -0.5773503   0.0000000), wk =   0.0277778
        k(   14) = (   0.0000000  -0.5773503   0.0496347), wk =   0.0555556
        k(   15) = (   0.0000000  -0.5773503   0.0992694), wk =   0.0555556
        k(   16) = (   0.0000000  -0.5773503  -0.1489041), wk =   0.0277778
        k(   17) = (   0.1666667   0.2886751   0.0000000), wk =   0.0555556
        k(   18) = (   0.1666667   0.2886751   0.0496347), wk =   0.1111111
        k(   19) = (   0.1666667   0.2886751   0.0992694), wk =   0.1111111
        k(   20) = (   0.1666667   0.2886751  -0.1489041), wk =   0.0555556
        k(   21) = (   0.1666667   0.4811252   0.0000000), wk =   0.1111111
        k(   22) = (   0.1666667   0.4811252   0.0496347), wk =   0.1111111
        k(   23) = (   0.1666667   0.4811252   0.0992694), wk =   0.1111111
        k(   24) = (   0.1666667   0.4811252  -0.1489041), wk =   0.1111111
        k(   25) = (   0.3333333   0.5773503   0.0000000), wk =   0.0185185
        k(   26) = (   0.3333333   0.5773503   0.0496347), wk =   0.0370370
        k(   27) = (   0.3333333   0.5773503   0.0992694), wk =   0.0370370
        k(   28) = (   0.3333333   0.5773503  -0.1489041), wk =   0.0185185
        k(   29) = (   0.0000000  -0.1924501   0.0496347), wk =   0.0555556
        k(   30) = (   0.0000000  -0.1924501   0.0992694), wk =   0.0555556
        k(   31) = (   0.0000000  -0.3849002   0.0496347), wk =   0.0555556
        k(   32) = (   0.0000000  -0.3849002   0.0992694), wk =   0.0555556
        k(   33) = (  -0.1666667  -0.4811252   0.0496347), wk =   0.1111111
        k(   34) = (  -0.1666667  -0.4811252   0.0992694), wk =   0.1111111

                       cryst. coord.
        k(    1) = (   0.0000000   0.0000000   0.0000000), wk =   0.0092593
        k(    2) = (   0.0000000   0.0000000   0.1666667), wk =   0.0185185
        k(    3) = (   0.0000000   0.0000000   0.3333333), wk =   0.0185185
        k(    4) = (   0.0000000   0.0000000  -0.5000000), wk =   0.0092593
        k(    5) = (   0.0000000   0.1666667   0.0000000), wk =   0.0555556
        k(    6) = (   0.0000000   0.1666667   0.1666667), wk =   0.0555556
        k(    7) = (   0.0000000   0.1666667   0.3333333), wk =   0.0555556
        k(    8) = (   0.0000000   0.1666667  -0.5000000), wk =   0.0555556
        k(    9) = (   0.0000000   0.3333333   0.0000000), wk =   0.0555556
        k(   10) = (   0.0000000   0.3333333   0.1666667), wk =   0.0555556
        k(   11) = (   0.0000000   0.3333333   0.3333333), wk =   0.0555556
        k(   12) = (   0.0000000   0.3333333  -0.5000000), wk =   0.0555556
        k(   13) = (   0.0000000  -0.5000000   0.0000000), wk =   0.0277778
        k(   14) = (   0.0000000  -0.5000000   0.1666667), wk =   0.0555556
        k(   15) = (   0.0000000  -0.5000000   0.3333333), wk =   0.0555556
        k(   16) = (   0.0000000  -0.5000000  -0.5000000), wk =   0.0277778
        k(   17) = (   0.1666667   0.1666667   0.0000000), wk =   0.0555556
        k(   18) = (   0.1666667   0.1666667   0.1666667), wk =   0.1111111
        k(   19) = (   0.1666667   0.1666667   0.3333333), wk =   0.1111111
        k(   20) = (   0.1666667   0.1666667  -0.5000000), wk =   0.0555556
        k(   21) = (   0.1666667   0.3333333   0.0000000), wk =   0.1111111
        k(   22) = (   0.1666667   0.3333333   0.1666667), wk =   0.1111111
        k(   23) = (   0.1666667   0.3333333   0.3333333), wk =   0.1111111
        k(   24) = (   0.1666667   0.3333333  -0.5000000), wk =   0.1111111
        k(   25) = (   0.3333333   0.3333333   0.0000000), wk =   0.0185185
        k(   26) = (   0.3333333   0.3333333   0.1666667), wk =   0.0370370
        k(   27) = (   0.3333333   0.3333333   0.3333333), wk =   0.0370370
        k(   28) = (   0.3333333   0.3333333  -0.5000000), wk =   0.0185185
        k(   29) = (   0.0000000  -0.1666667   0.1666667), wk =   0.0555556
        k(   30) = (   0.0000000  -0.1666667   0.3333333), wk =   0.0555556
        k(   31) = (   0.0000000  -0.3333333   0.1666667), wk =   0.0555556
        k(   32) = (   0.0000000  -0.3333333   0.3333333), wk =   0.0555556
        k(   33) = (  -0.1666667  -0.3333333   0.1666667), wk =   0.1111111
        k(   34) = (  -0.1666667  -0.3333333   0.3333333), wk =   0.1111111

     Check: negative core charge=   -0.000002

     Initial potential from superposition of free atoms

     starting charge      71.9851, renormalised to      72.0000
     Starting wfcs are   52 randomized atomic wfcs

     Self-consistent Calculation

     iteration #  1     ecut=    50.00 Ry     beta= 0.30
     Davidson diagonalization with overlap

     ethr =  1.00E-02,  avg # of iterations =  2.0

     total energy              =    -722.90196011 Ry
     estimated scf accuracy    <       1.34394089 Ry

[...]

     total energy              =    -723.18572615 Ry
     estimated scf accuracy    <       0.00000001 Ry

     iteration # 26     ecut=    50.00 Ry     beta= 0.30
     Davidson diagonalization with overlap

     ethr =  1.86E-11,  avg # of iterations =  4.8

     End of self-consistent calculation

          k = 0.0000 0.0000 0.0000 (  3415 PWs)   bands (ev):

    -9.9411  -9.5352  -9.5352  -9.0973   2.4655   2.4984   2.4984   2.8115
     2.8115   2.8835   2.8943   2.8943   2.8943   2.8943   3.0199   3.0199
     4.4411   4.4411   4.5832   4.5832   4.5832   4.5832   4.6852   4.6852
     5.0502   6.7747   6.7747   8.4433   8.4433   8.8619   8.8619   8.8620
     8.8620   9.0226   9.2782   9.2782

     occupation numbers
     1.0000   1.0000   1.0000   1.0000   1.0000   1.0000   1.0000   1.0000
     1.0000   1.0000   1.0000   1.0000   1.0000   1.0000   1.0000   1.0000
     1.0000   1.0000   1.0000   1.0000   1.0000   1.0000   1.0000   1.0000
     1.0000   1.0000   1.0000   1.0000   1.0000   1.0000   1.0000   1.0000
     1.0000   1.0000   1.0000   1.0000

[...]

          k = 0.0000-0.3849 0.0993 (  3401 PWs)   bands (ev):

[...]

          k =-0.1667-0.4811 0.0496 (  3388 PWs)   bands (ev):

[...]

          k =-0.1667-0.4811 0.0993 (  3395 PWs)   bands (ev):

    -9.0298  -8.9757  -8.8392  -8.7939   2.4044   2.4906   2.4951   2.6785
     3.1086   3.1297   3.2811   3.3496   3.5604   3.5883   3.6364   3.6841
     4.3771   4.4918   4.5708   4.6195   4.7688   4.7756   4.9295   5.0068
     5.0642   5.2479   5.6447   5.7348   6.1005   6.4812   6.5435   6.9431
     7.4280   7.6194   7.8458   7.8840

     occupation numbers
     1.0000   1.0000   1.0000   1.0000   1.0000   1.0000   1.0000   1.0000
     1.0000   1.0000   1.0000   1.0000   1.0000   1.0000   1.0000   1.0000
     1.0000   1.0000   1.0000   1.0000   1.0000   1.0000   1.0000   1.0000
     1.0000   1.0000   1.0000   1.0000   1.0000   1.0000   1.0000   1.0000
     1.0000   1.0000   1.0000   1.0000

     highest occupied level (ev):     9.2782

!    total energy              =    -723.18572615 Ry
     estimated scf accuracy    <          9.3E-10 Ry

     The total energy is the sum of the following terms:
     one-electron contribution =    -274.83250258 Ry
     hartree contribution      =     224.62904016 Ry
     xc contribution           =    -219.74559351 Ry
     ewald contribution        =    -453.23667022 Ry

     convergence has been achieved in  26 iterations

     Forces acting on atoms (cartesian axes, Ry/au):

     atom    1 type  1   force =     0.00000000    0.00000000    0.02390522
     atom    2 type  1   force =     0.00000000    0.00000000    0.02390560
     atom    3 type  2   force =     0.00000000    0.00000000   -0.02390825
     atom    4 type  2   force =     0.00000000   -0.00000000   -0.02391025
     atom    5 type  1   force =     0.00000000    0.00000000    0.02390537
     atom    6 type  1   force =     0.00000000    0.00000000    0.02391312
     atom    7 type  2   force =     0.00000000    0.00000000   -0.02390708
     atom    8 type  2   force =     0.00000000    0.00000000   -0.02390373
     The non-local contrib.  to forces
     atom    1 type  1   force =    -0.00000000    0.00000000    0.11320484
     atom    2 type  1   force =     0.00000000    0.00000000    0.11320697
     atom    3 type  2   force =     0.00000000    0.00000000    0.09441987
     atom    4 type  2   force =     0.00000000    0.00000000    0.09442126
     atom    5 type  1   force =     0.00000000    0.00000000    0.11321407
     atom    6 type  1   force =     0.00000000    0.00000000    0.11321712
     atom    7 type  2   force =     0.00000000   -0.00000000    0.09442725
     atom    8 type  2   force =     0.00000000   -0.00000000    0.09442945
     The ionic contribution  to forces
     atom    1 type  1   force =    -0.00000000    0.00000000    0.96206593
     atom    2 type  1   force =     0.00000000   -0.00000000    0.96206593
     atom    3 type  2   force =    -0.00000000    0.00000000   -0.96206593
     atom    4 type  2   force =     0.00000000   -0.00000000   -0.96206593
     atom    5 type  1   force =    -0.00000000    0.00000000    0.96206593
     atom    6 type  1   force =     0.00000000   -0.00000000    0.96206593
     atom    7 type  2   force =    -0.00000000    0.00000000   -0.96206593
     atom    8 type  2   force =     0.00000000   -0.00000000   -0.96206593
     The local contribution  to forces
     atom    1 type  1   force =    -0.00000004    0.00000002   -1.04224802
     atom    2 type  1   force =     0.00000004   -0.00000002   -1.04226118
     atom    3 type  2   force =    -0.00000001    0.00000001    0.84441547
     atom    4 type  2   force =     0.00000001   -0.00000001    0.84441312
     atom    5 type  1   force =    -0.00000004    0.00000002   -1.04225113
     atom    6 type  1   force =     0.00000004   -0.00000002   -1.04225380
     atom    7 type  2   force =    -0.00000001    0.00000001    0.84440978
     atom    8 type  2   force =     0.00000001   -0.00000001    0.84441496
     The core correction contribution to forces
     atom    1 type  1   force =    -0.00000001    0.00000000   -0.00911825
     atom    2 type  1   force =     0.00000001   -0.00000000   -0.00911745
     atom    3 type  2   force =     0.00000000   -0.00000000   -0.00067799
     atom    4 type  2   force =    -0.00000000    0.00000000   -0.00067671
     atom    5 type  1   force =    -0.00000001    0.00000000   -0.00912216
     atom    6 type  1   force =     0.00000001   -0.00000000   -0.00912273
     atom    7 type  2   force =     0.00000000   -0.00000000   -0.00067917
     atom    8 type  2   force =    -0.00000000    0.00000000   -0.00068050
     The Hubbard contrib.    to forces
     atom    1 type  1   force =     0.00000000    0.00000000    0.00000000
     atom    2 type  1   force =     0.00000000    0.00000000    0.00000000
     atom    3 type  2   force =     0.00000000    0.00000000    0.00000000
     atom    4 type  2   force =     0.00000000    0.00000000    0.00000000
     atom    5 type  1   force =     0.00000000    0.00000000    0.00000000
     atom    6 type  1   force =     0.00000000    0.00000000    0.00000000
     atom    7 type  2   force =     0.00000000    0.00000000    0.00000000
     atom    8 type  2   force =     0.00000000    0.00000000    0.00000000
     The SCF correction term to forces
     atom    1 type  1   force =     0.00000000   -0.00000000    0.00000287
     atom    2 type  1   force =    -0.00000000    0.00000000    0.00001349
     atom    3 type  2   force =     0.00000000   -0.00000000    0.00000249
     atom    4 type  2   force =    -0.00000000    0.00000000    0.00000017
     atom    5 type  1   force =     0.00000000   -0.00000000    0.00000081
     atom    6 type  1   force =    -0.00000000    0.00000000    0.00000876
     atom    7 type  2   force =     0.00000000   -0.00000000    0.00000315
     atom    8 type  2   force =    -0.00000000    0.00000000    0.00000044

     Total force =     0.067620     Total SCF correction =     0.000017

     General routines

     Parallel routines

   This run was terminated on:  14: 6: 4  26Aug2025

   JOB DONE.