     Program PWSCF v.7.0 starts on 26Aug2025 at 13: 6:34

     K-points division:     npool     =       4
     band groups division:  nbgrp     =       4

     Reading input from /home/jvc/QEspresso7.2/ZnO_database/scripts/cell112.in/ZnO-2.94-1.55-112.in
Warning: card &CELL ignored
Warning: card / ignored
Warning: card &FCP ignored
Warning: card / ignored
Warning: card &RISM ignored
Warning: card / ignored

     Current dimensions of program PWSCF are:
     Max number of different atomic species (ntypx) = 10
     Max number of k-points (npk) =  40000
     Max angular momentum in pseudopotentials (lmaxx) =  4
     file Zn.upf: wavefunction(s)  3D renormalized
     Found identity + (  0.0000  0.0000  0.5000) symmetry
     This is a supercell, fractional translations are disabled
     Message from routine setup:
     using ibrav=0 with symmetry is DISCOURAGED, use correct ibrav instead

     Subspace diagonalization in iterative solution of the eigenvalue problem:
     a serial algorithm will be used

     Using Slab Decomposition

     bravais-lattice index     =            0
     lattice parameter (alat)  =       5.5610  a.u.
     unit-cell volume          =     461.6184 (a.u.)^3
     number of atoms/cell      =            8
     number of atomic types    =            2
     number of electrons       =        72.00
     number of Kohn-Sham states=           36
     kinetic-energy cutoff     =      50.0000  Ry
     charge density cutoff     =     400.0000  Ry
     scf convergence threshold =      1.0E-08
     mixing beta               =       0.3000
     number of iterations used =            8  plain     mixing
     Exchange-correlation= PBE
                           (   1   4   3   4   0   0   0)

     celldm(1)=   5.560969  celldm(2)=   0.000000  celldm(3)=   0.000000
     celldm(4)=   0.000000  celldm(5)=   0.000000  celldm(6)=   0.000000

     crystal axes: (cart. coord. in units of alat)
               a(1) = (   1.000000   0.000000   0.000000 )
               a(2) = (  -0.500000   0.866025   0.000000 )
               a(3) = (   0.000000   0.000000   3.099568 )

     reciprocal axes: (cart. coord. in units 2 pi/alat)
               b(1) = (  1.000000  0.577350 -0.000000 )
               b(2) = (  0.000000  1.154701  0.000000 )
               b(3) = (  0.000000 -0.000000  0.322626 )

     PseudoPot. # 1 for Zn read from file:
     /home/jvc/QEspresso7.2/ZnO_database/pseudos/Zn.upf
     MD5 check sum: 7f56cabf9682ed8c977c2f7d0c5985c5
     Pseudo is Ultrasoft + core correction, Zval = 12.0
     Generated using &quot;atomic&quot; code by A. Dal Corso  v.6.2.2
     Using radial grid of 1201 points,  6 beta functions with:
                l(1) =   0
                l(2) =   0
                l(3) =   1
                l(4) =   1
                l(5) =   2
                l(6) =   2
     Q(r) pseudized with 0 coefficients

     PseudoPot. # 2 for O  read from file:
     /home/jvc/QEspresso7.2/ZnO_database/pseudos/O.upf
     MD5 check sum: 91400c9766925bcf19f520983a725ff0
     Pseudo is Ultrasoft + core correction, Zval =  6.0
     Generated using &quot;atomic&quot; code by A. Dal Corso  v.6.3MaX
     Using radial grid of 1095 points,  4 beta functions with:
                l(1) =   0
                l(2) =   0
                l(3) =   1
                l(4) =   1
     Q(r) pseudized with 0 coefficients

     atomic species   valence    mass     pseudopotential
        Zn            12.00    65.38000     Zn( 1.00)
        O              6.00    15.99900     O ( 1.00)

      6 Sym. Ops. (no inversion) found

                                    s                        frac. trans.

      isym =  1     identity

 cryst.   s( 1) = (     1          0          0      )
                  (     0          1          0      )
                  (     0          0          1      )

 cart.    s( 1) = (  1.0000000  0.0000000  0.0000000 )
                  (  0.0000000  1.0000000  0.0000000 )
                  (  0.0000000  0.0000000  1.0000000 )

      isym =  2     120 deg rotation - cryst. axis [0,0,1]

[...]

      isym =  3     120 deg rotation - cryst. axis [0,0,-1]

[...]

      isym =  4     inv. 180 deg rotation - cart. axis [1,0,0]

[...]

      isym =  5     inv. 180 deg rotation - cryst. axis [0,1,0]

[...]

      isym =  6     inv. 180 deg rotation - cryst. axis [1,1,0]

 cryst.   s( 6) = (     0         -1          0      )
                  (    -1          0          0      )
                  (     0          0          1      )

 cart.    s( 6) = (  0.5000000 -0.8660254  0.0000000 )
                  ( -0.8660254 -0.5000000  0.0000000 )
                  (  0.0000000  0.0000000  1.0000000 )

   Cartesian axes

     site n.     atom                  positions (alat units)
         1           Zn  tau(   1) = (   0.5000000   0.2886751   0.7758739  )
         2           Zn  tau(   2) = (  -0.0000000   0.5773503   0.0009819  )
         3           O   tau(   3) = (   0.5000000   0.2886751   1.3633085  )
         4           O   tau(   4) = (  -0.0000000   0.5773503   0.5884164  )
         5           Zn  tau(   5) = (   0.5000000   0.2886751   2.3256580  )
         6           Zn  tau(   6) = (  -0.0000000   0.5773503   1.5507659  )
         7           O   tau(   7) = (   0.5000000   0.2886751   2.9130925  )
         8           O   tau(   8) = (  -0.0000000   0.5773503   2.1382005  )

   Crystallographic axes

     site n.     atom                  positions (cryst. coord.)
         1           Zn  tau(   1) = (  0.6666667  0.3333333  0.2503168  )
         2           Zn  tau(   2) = (  0.3333333  0.6666667  0.0003168  )
         3           O   tau(   3) = (  0.6666667  0.3333333  0.4398382  )
         4           O   tau(   4) = (  0.3333333  0.6666667  0.1898382  )
         5           Zn  tau(   5) = (  0.6666667  0.3333333  0.7503168  )
         6           Zn  tau(   6) = (  0.3333333  0.6666667  0.5003168  )
         7           O   tau(   7) = (  0.6666667  0.3333333  0.9398382  )
         8           O   tau(   8) = (  0.3333333  0.6666667  0.6898382  )

     number of k points=    34
                       cart. coord. in units 2pi/alat
        k(    1) = (   0.0000000   0.0000000   0.0000000), wk =   0.0092593
        k(    2) = (   0.0000000   0.0000000   0.0537709), wk =   0.0185185
        k(    3) = (   0.0000000   0.0000000   0.1075419), wk =   0.0185185
        k(    4) = (   0.0000000   0.0000000  -0.1613128), wk =   0.0092593
        k(    5) = (   0.0000000   0.1924501   0.0000000), wk =   0.0555556
        k(    6) = (   0.0000000   0.1924501   0.0537709), wk =   0.0555556
        k(    7) = (   0.0000000   0.1924501   0.1075419), wk =   0.0555556
        k(    8) = (   0.0000000   0.1924501  -0.1613128), wk =   0.0555556
        k(    9) = (   0.0000000   0.3849002   0.0000000), wk =   0.0555556
        k(   10) = (   0.0000000   0.3849002   0.0537709), wk =   0.0555556
        k(   11) = (   0.0000000   0.3849002   0.1075419), wk =   0.0555556
        k(   12) = (   0.0000000   0.3849002  -0.1613128), wk =   0.0555556
        k(   13) = (   0.0000000  -0.5773503   0.0000000), wk =   0.0277778
        k(   14) = (   0.0000000  -0.5773503   0.0537709), wk =   0.0555556
        k(   15) = (   0.0000000  -0.5773503   0.1075419), wk =   0.0555556
        k(   16) = (   0.0000000  -0.5773503  -0.1613128), wk =   0.0277778
        k(   17) = (   0.1666667   0.2886751   0.0000000), wk =   0.0555556
        k(   18) = (   0.1666667   0.2886751   0.0537709), wk =   0.1111111
        k(   19) = (   0.1666667   0.2886751   0.1075419), wk =   0.1111111
        k(   20) = (   0.1666667   0.2886751  -0.1613128), wk =   0.0555556
        k(   21) = (   0.1666667   0.4811252   0.0000000), wk =   0.1111111
        k(   22) = (   0.1666667   0.4811252   0.0537709), wk =   0.1111111
        k(   23) = (   0.1666667   0.4811252   0.1075419), wk =   0.1111111
        k(   24) = (   0.1666667   0.4811252  -0.1613128), wk =   0.1111111
        k(   25) = (   0.3333333   0.5773503   0.0000000), wk =   0.0185185
        k(   26) = (   0.3333333   0.5773503   0.0537709), wk =   0.0370370
        k(   27) = (   0.3333333   0.5773503   0.1075419), wk =   0.0370370
        k(   28) = (   0.3333333   0.5773503  -0.1613128), wk =   0.0185185
        k(   29) = (   0.0000000  -0.1924501   0.0537709), wk =   0.0555556
        k(   30) = (   0.0000000  -0.1924501   0.1075419), wk =   0.0555556
        k(   31) = (   0.0000000  -0.3849002   0.0537709), wk =   0.0555556
        k(   32) = (   0.0000000  -0.3849002   0.1075419), wk =   0.0555556
        k(   33) = (  -0.1666667  -0.4811252   0.0537709), wk =   0.1111111
        k(   34) = (  -0.1666667  -0.4811252   0.1075419), wk =   0.1111111

                       cryst. coord.
        k(    1) = (   0.0000000   0.0000000   0.0000000), wk =   0.0092593
        k(    2) = (   0.0000000   0.0000000   0.1666667), wk =   0.0185185
        k(    3) = (   0.0000000   0.0000000   0.3333333), wk =   0.0185185
        k(    4) = (   0.0000000   0.0000000  -0.5000000), wk =   0.0092593
        k(    5) = (   0.0000000   0.1666667   0.0000000), wk =   0.0555556
        k(    6) = (   0.0000000   0.1666667   0.1666667), wk =   0.0555556
        k(    7) = (   0.0000000   0.1666667   0.3333333), wk =   0.0555556
        k(    8) = (   0.0000000   0.1666667  -0.5000000), wk =   0.0555556
        k(    9) = (   0.0000000   0.3333333   0.0000000), wk =   0.0555556
        k(   10) = (   0.0000000   0.3333333   0.1666667), wk =   0.0555556
        k(   11) = (   0.0000000   0.3333333   0.3333333), wk =   0.0555556
        k(   12) = (   0.0000000   0.3333333  -0.5000000), wk =   0.0555556
        k(   13) = (   0.0000000  -0.5000000   0.0000000), wk =   0.0277778
        k(   14) = (   0.0000000  -0.5000000   0.1666667), wk =   0.0555556
        k(   15) = (   0.0000000  -0.5000000   0.3333333), wk =   0.0555556
        k(   16) = (   0.0000000  -0.5000000  -0.5000000), wk =   0.0277778
        k(   17) = (   0.1666667   0.1666667   0.0000000), wk =   0.0555556
        k(   18) = (   0.1666667   0.1666667   0.1666667), wk =   0.1111111
        k(   19) = (   0.1666667   0.1666667   0.3333333), wk =   0.1111111
        k(   20) = (   0.1666667   0.1666667  -0.5000000), wk =   0.0555556
        k(   21) = (   0.1666667   0.3333333   0.0000000), wk =   0.1111111
        k(   22) = (   0.1666667   0.3333333   0.1666667), wk =   0.1111111
        k(   23) = (   0.1666667   0.3333333   0.3333333), wk =   0.1111111
        k(   24) = (   0.1666667   0.3333333  -0.5000000), wk =   0.1111111
        k(   25) = (   0.3333333   0.3333333   0.0000000), wk =   0.0185185
        k(   26) = (   0.3333333   0.3333333   0.1666667), wk =   0.0370370
        k(   27) = (   0.3333333   0.3333333   0.3333333), wk =   0.0370370
        k(   28) = (   0.3333333   0.3333333  -0.5000000), wk =   0.0185185
        k(   29) = (   0.0000000  -0.1666667   0.1666667), wk =   0.0555556
        k(   30) = (   0.0000000  -0.1666667   0.3333333), wk =   0.0555556
        k(   31) = (   0.0000000  -0.3333333   0.1666667), wk =   0.0555556
        k(   32) = (   0.0000000  -0.3333333   0.3333333), wk =   0.0555556
        k(   33) = (  -0.1666667  -0.3333333   0.1666667), wk =   0.1111111
        k(   34) = (  -0.1666667  -0.3333333   0.3333333), wk =   0.1111111

     Check: negative core charge=   -0.000001

     Initial potential from superposition of free atoms

     starting charge      71.9851, renormalised to      72.0000
     Starting wfcs are   52 randomized atomic wfcs

     Self-consistent Calculation

     iteration #  1     ecut=    50.00 Ry     beta= 0.30
     Davidson diagonalization with overlap

     ethr =  1.00E-02,  avg # of iterations =  2.3

     total energy              =    -722.47711419 Ry
     estimated scf accuracy    <       1.38922213 Ry

[...]

     total energy              =    -722.72687079 Ry
     estimated scf accuracy    <       0.00000003 Ry

     iteration # 16     ecut=    50.00 Ry     beta= 0.30
     Davidson diagonalization with overlap

     ethr =  4.78E-11,  avg # of iterations =  7.9

     End of self-consistent calculation

          k = 0.0000 0.0000 0.0000 (  2787 PWs)   bands (ev):

    -8.1559  -7.4543  -7.4542  -6.6929   4.6137   4.6439   4.6439   5.2815
     5.2815   5.3708   5.3922   5.3922   5.3922   5.3922   5.6282   5.6282
     7.6179   7.6179   7.9308   7.9308   7.9308   7.9308   8.1030   8.1030
     8.5597  10.9111  10.9111  11.8885  11.8885  12.5801  12.5801  12.5801
    12.5801  13.1553  13.2715  13.2715

     occupation numbers
     1.0000   1.0000   1.0000   1.0000   1.0000   1.0000   1.0000   1.0000
     1.0000   1.0000   1.0000   1.0000   1.0000   1.0000   1.0000   1.0000
     1.0000   1.0000   1.0000   1.0000   1.0000   1.0000   1.0000   1.0000
     1.0000   1.0000   1.0000   1.0000   1.0000   1.0000   1.0000   1.0000
     1.0000   1.0000   1.0000   1.0000

[...]

          k = 0.0000-0.3849 0.1075 (  2773 PWs)   bands (ev):

[...]

          k =-0.1667-0.4811 0.0538 (  2758 PWs)   bands (ev):

[...]

          k =-0.1667-0.4811 0.1075 (  2752 PWs)   bands (ev):

    -6.8774  -6.7721  -6.5292  -6.4599   4.4249   4.4996   4.6291   4.8224
     5.5251   5.5369   5.6397   5.7000   6.1606   6.2637   6.2749   6.4394
     7.5619   7.7403   7.8631   7.9413   8.1900   8.1972   8.3192   8.4030
     8.5551   8.7079   9.1382   9.2231   9.4908   9.8043  10.0833  10.6365
    11.0743  11.3504  11.6942  11.7716

     occupation numbers
     1.0000   1.0000   1.0000   1.0000   1.0000   1.0000   1.0000   1.0000
     1.0000   1.0000   1.0000   1.0000   1.0000   1.0000   1.0000   1.0000
     1.0000   1.0000   1.0000   1.0000   1.0000   1.0000   1.0000   1.0000
     1.0000   1.0000   1.0000   1.0000   1.0000   1.0000   1.0000   1.0000
     1.0000   1.0000   1.0000   1.0000

     highest occupied level (ev):    13.2715

!    total energy              =    -722.72687087 Ry
     estimated scf accuracy    <          7.9E-09 Ry

     The total energy is the sum of the following terms:
     one-electron contribution =    -223.66896381 Ry
     hartree contribution      =     207.75848953 Ry
     xc contribution           =    -220.91910207 Ry
     ewald contribution        =    -485.89729452 Ry

     convergence has been achieved in  16 iterations

     Forces acting on atoms (cartesian axes, Ry/au):

     atom    1 type  1   force =     0.00000000    0.00000000   -0.06006444
     atom    2 type  1   force =     0.00000000    0.00000000   -0.06006935
     atom    3 type  2   force =     0.00000000    0.00000000    0.06005313
     atom    4 type  2   force =     0.00000000    0.00000000    0.06005839
     atom    5 type  1   force =     0.00000000    0.00000000   -0.06001420
     atom    6 type  1   force =     0.00000000    0.00000000   -0.06007361
     atom    7 type  2   force =     0.00000000    0.00000000    0.06005410
     atom    8 type  2   force =     0.00000000    0.00000000    0.06005598
     The non-local contrib.  to forces
     atom    1 type  1   force =     0.00000000    0.00000000   -0.14776908
     atom    2 type  1   force =     0.00000000    0.00000000   -0.14776477
     atom    3 type  2   force =     0.00000000   -0.00000000   -0.08030725
     atom    4 type  2   force =     0.00000000   -0.00000000   -0.08030151
     atom    5 type  1   force =     0.00000000    0.00000000   -0.14774106
     atom    6 type  1   force =     0.00000000    0.00000000   -0.14776973
     atom    7 type  2   force =     0.00000000    0.00000000   -0.08031149
     atom    8 type  2   force =     0.00000000   -0.00000000   -0.08031950
     The ionic contribution  to forces
     atom    1 type  1   force =    -0.00000000    0.00000000   -0.98676529
     atom    2 type  1   force =     0.00000000   -0.00000000   -0.98676529
     atom    3 type  2   force =    -0.00000000    0.00000000    0.98676529
     atom    4 type  2   force =     0.00000000   -0.00000000    0.98676529
     atom    5 type  1   force =    -0.00000000    0.00000000   -0.98676529
     atom    6 type  1   force =     0.00000000   -0.00000000   -0.98676529
     atom    7 type  2   force =    -0.00000000    0.00000000    0.98676529
     atom    8 type  2   force =     0.00000000   -0.00000000    0.98676529
     The local contribution  to forces
     atom    1 type  1   force =    -0.00000004    0.00000002    1.05891293
     atom    2 type  1   force =     0.00000004   -0.00000002    1.05891032
     atom    3 type  2   force =    -0.00000001    0.00000001   -0.84676299
     atom    4 type  2   force =     0.00000001   -0.00000001   -0.84677006
     atom    5 type  1   force =    -0.00000004    0.00000002    1.05883768
     atom    6 type  1   force =     0.00000004   -0.00000002    1.05891186
     atom    7 type  2   force =    -0.00000001    0.00000001   -0.84677865
     atom    8 type  2   force =     0.00000001   -0.00000001   -0.84680622
     The core correction contribution to forces
     atom    1 type  1   force =    -0.00000001    0.00000000    0.01558604
     atom    2 type  1   force =     0.00000001   -0.00000000    0.01558576
     atom    3 type  2   force =     0.00000000   -0.00000000    0.00036877
     atom    4 type  2   force =    -0.00000000    0.00000000    0.00036868
     atom    5 type  1   force =    -0.00000001    0.00000000    0.01558627
     atom    6 type  1   force =     0.00000001   -0.00000000    0.01558640
     atom    7 type  2   force =     0.00000000   -0.00000000    0.00036878
     atom    8 type  2   force =    -0.00000000    0.00000000    0.00036886
     The Hubbard contrib.    to forces
     atom    1 type  1   force =     0.00000000    0.00000000    0.00000000
     atom    2 type  1   force =     0.00000000    0.00000000    0.00000000
     atom    3 type  2   force =     0.00000000    0.00000000    0.00000000
     atom    4 type  2   force =     0.00000000    0.00000000    0.00000000
     atom    5 type  1   force =     0.00000000    0.00000000    0.00000000
     atom    6 type  1   force =     0.00000000    0.00000000    0.00000000
     atom    7 type  2   force =     0.00000000    0.00000000    0.00000000
     atom    8 type  2   force =     0.00000000    0.00000000    0.00000000
     The SCF correction term to forces
     atom    1 type  1   force =     0.00000000   -0.00000000   -0.00003584
     atom    2 type  1   force =    -0.00000000    0.00000000   -0.00004217
     atom    3 type  2   force =     0.00000000   -0.00000000   -0.00001751
     atom    4 type  2   force =    -0.00000000    0.00000000   -0.00001081
     atom    5 type  1   force =     0.00000000   -0.00000000    0.00006140
     atom    6 type  1   force =    -0.00000000    0.00000000   -0.00004366
     atom    7 type  2   force =     0.00000000   -0.00000000    0.00000336
     atom    8 type  2   force =    -0.00000000    0.00000000    0.00004074

     Total force =     0.169862     Total SCF correction =     0.000104

     General routines

     Parallel routines

   This run was terminated on:  13: 8:10  26Aug2025

   JOB DONE.
Note: The following floating-point exceptions are signalling: IEEE_DENORMAL
Note: The following floating-point exceptions are signalling: IEEE_DENORMAL
Note: The following floating-point exceptions are signalling: IEEE_DENORMAL
Note: The following floating-point exceptions are signalling: IEEE_DENORMAL