     Program PWSCF v.7.0 starts on 26Aug2025 at 14:33: 2

     K-points division:     npool     =       4
     band groups division:  nbgrp     =       4

     Reading input from /home/jvc/QEspresso7.2/ZnO_database/scripts/cell112.in/ZnO-3.14-1.65-112.in
Warning: card &CELL ignored
Warning: card / ignored
Warning: card &FCP ignored
Warning: card / ignored
Warning: card &RISM ignored
Warning: card / ignored

     Current dimensions of program PWSCF are:
     Max number of different atomic species (ntypx) = 10
     Max number of k-points (npk) =  40000
     Max angular momentum in pseudopotentials (lmaxx) =  4
     file Zn.upf: wavefunction(s)  3D renormalized
     Found identity + (  0.0000  0.0000  0.5000) symmetry
     This is a supercell, fractional translations are disabled
     Message from routine setup:
     using ibrav=0 with symmetry is DISCOURAGED, use correct ibrav instead

     Subspace diagonalization in iterative solution of the eigenvalue problem:
     a serial algorithm will be used

     Using Slab Decomposition

     bravais-lattice index     =            0
     lattice parameter (alat)  =       5.9317  a.u.
     unit-cell volume          =     595.2484 (a.u.)^3
     number of atoms/cell      =            8
     number of atomic types    =            2
     number of electrons       =        72.00
     number of Kohn-Sham states=           36
     kinetic-energy cutoff     =      50.0000  Ry
     charge density cutoff     =     400.0000  Ry
     scf convergence threshold =      1.0E-08
     mixing beta               =       0.3000
     number of iterations used =            8  plain     mixing
     Exchange-correlation= PBE
                           (   1   4   3   4   0   0   0)

     celldm(1)=   5.931700  celldm(2)=   0.000000  celldm(3)=   0.000000
     celldm(4)=   0.000000  celldm(5)=   0.000000  celldm(6)=   0.000000

     crystal axes: (cart. coord. in units of alat)
               a(1) = (   1.000000   0.000000   0.000000 )
               a(2) = (  -0.500000   0.866025   0.000000 )
               a(3) = (   0.000000   0.000000   3.293291 )

     reciprocal axes: (cart. coord. in units 2 pi/alat)
               b(1) = (  1.000000  0.577350 -0.000000 )
               b(2) = (  0.000000  1.154701  0.000000 )
               b(3) = (  0.000000 -0.000000  0.303648 )

     PseudoPot. # 1 for Zn read from file:
     /home/jvc/QEspresso7.2/ZnO_database/pseudos/Zn.upf
     MD5 check sum: 7f56cabf9682ed8c977c2f7d0c5985c5
     Pseudo is Ultrasoft + core correction, Zval = 12.0
     Generated using &quot;atomic&quot; code by A. Dal Corso  v.6.2.2
     Using radial grid of 1201 points,  6 beta functions with:
                l(1) =   0
                l(2) =   0
                l(3) =   1
                l(4) =   1
                l(5) =   2
                l(6) =   2
     Q(r) pseudized with 0 coefficients

     PseudoPot. # 2 for O  read from file:
     /home/jvc/QEspresso7.2/ZnO_database/pseudos/O.upf
     MD5 check sum: 91400c9766925bcf19f520983a725ff0
     Pseudo is Ultrasoft + core correction, Zval =  6.0
     Generated using &quot;atomic&quot; code by A. Dal Corso  v.6.3MaX
     Using radial grid of 1095 points,  4 beta functions with:
                l(1) =   0
                l(2) =   0
                l(3) =   1
                l(4) =   1
     Q(r) pseudized with 0 coefficients

     atomic species   valence    mass     pseudopotential
        Zn            12.00    65.38000     Zn( 1.00)
        O              6.00    15.99900     O ( 1.00)

      6 Sym. Ops. (no inversion) found

                                    s                        frac. trans.

      isym =  1     identity

 cryst.   s( 1) = (     1          0          0      )
                  (     0          1          0      )
                  (     0          0          1      )

 cart.    s( 1) = (  1.0000000  0.0000000  0.0000000 )
                  (  0.0000000  1.0000000  0.0000000 )
                  (  0.0000000  0.0000000  1.0000000 )

      isym =  2     120 deg rotation - cryst. axis [0,0,1]

[...]

      isym =  3     120 deg rotation - cryst. axis [0,0,-1]

[...]

      isym =  4     inv. 180 deg rotation - cart. axis [1,0,0]

[...]

      isym =  5     inv. 180 deg rotation - cryst. axis [0,1,0]

[...]

      isym =  6     inv. 180 deg rotation - cryst. axis [1,1,0]

 cryst.   s( 6) = (     0         -1          0      )
                  (    -1          0          0      )
                  (     0          0          1      )

 cart.    s( 6) = (  0.5000000 -0.8660254  0.0000000 )
                  ( -0.8660254 -0.5000000  0.0000000 )
                  (  0.0000000  0.0000000  1.0000000 )

   Cartesian axes

     site n.     atom                  positions (alat units)
         1           Zn  tau(   1) = (   0.5000000   0.2886751   0.8243661  )
         2           Zn  tau(   2) = (  -0.0000000   0.5773503   0.0010433  )
         3           O   tau(   3) = (   0.5000000   0.2886751   1.4485152  )
         4           O   tau(   4) = (  -0.0000000   0.5773503   0.6251925  )
         5           Zn  tau(   5) = (   0.5000000   0.2886751   2.4710116  )
         6           Zn  tau(   6) = (  -0.0000000   0.5773503   1.6476888  )
         7           O   tau(   7) = (   0.5000000   0.2886751   3.0951608  )
         8           O   tau(   8) = (  -0.0000000   0.5773503   2.2718380  )

   Crystallographic axes

     site n.     atom                  positions (cryst. coord.)
         1           Zn  tau(   1) = (  0.6666667  0.3333333  0.2503168  )
         2           Zn  tau(   2) = (  0.3333333  0.6666667  0.0003168  )
         3           O   tau(   3) = (  0.6666667  0.3333333  0.4398382  )
         4           O   tau(   4) = (  0.3333333  0.6666667  0.1898382  )
         5           Zn  tau(   5) = (  0.6666667  0.3333333  0.7503168  )
         6           Zn  tau(   6) = (  0.3333333  0.6666667  0.5003168  )
         7           O   tau(   7) = (  0.6666667  0.3333333  0.9398382  )
         8           O   tau(   8) = (  0.3333333  0.6666667  0.6898382  )

     number of k points=    34
                       cart. coord. in units 2pi/alat
        k(    1) = (   0.0000000   0.0000000   0.0000000), wk =   0.0092593
        k(    2) = (   0.0000000   0.0000000   0.0506079), wk =   0.0185185
        k(    3) = (   0.0000000   0.0000000   0.1012159), wk =   0.0185185
        k(    4) = (   0.0000000   0.0000000  -0.1518238), wk =   0.0092593
        k(    5) = (   0.0000000   0.1924501   0.0000000), wk =   0.0555556
        k(    6) = (   0.0000000   0.1924501   0.0506079), wk =   0.0555556
        k(    7) = (   0.0000000   0.1924501   0.1012159), wk =   0.0555556
        k(    8) = (   0.0000000   0.1924501  -0.1518238), wk =   0.0555556
        k(    9) = (   0.0000000   0.3849002   0.0000000), wk =   0.0555556
        k(   10) = (   0.0000000   0.3849002   0.0506079), wk =   0.0555556
        k(   11) = (   0.0000000   0.3849002   0.1012159), wk =   0.0555556
        k(   12) = (   0.0000000   0.3849002  -0.1518238), wk =   0.0555556
        k(   13) = (   0.0000000  -0.5773503   0.0000000), wk =   0.0277778
        k(   14) = (   0.0000000  -0.5773503   0.0506079), wk =   0.0555556
        k(   15) = (   0.0000000  -0.5773503   0.1012159), wk =   0.0555556
        k(   16) = (   0.0000000  -0.5773503  -0.1518238), wk =   0.0277778
        k(   17) = (   0.1666667   0.2886751   0.0000000), wk =   0.0555556
        k(   18) = (   0.1666667   0.2886751   0.0506079), wk =   0.1111111
        k(   19) = (   0.1666667   0.2886751   0.1012159), wk =   0.1111111
        k(   20) = (   0.1666667   0.2886751  -0.1518238), wk =   0.0555556
        k(   21) = (   0.1666667   0.4811252   0.0000000), wk =   0.1111111
        k(   22) = (   0.1666667   0.4811252   0.0506079), wk =   0.1111111
        k(   23) = (   0.1666667   0.4811252   0.1012159), wk =   0.1111111
        k(   24) = (   0.1666667   0.4811252  -0.1518238), wk =   0.1111111
        k(   25) = (   0.3333333   0.5773503   0.0000000), wk =   0.0185185
        k(   26) = (   0.3333333   0.5773503   0.0506079), wk =   0.0370370
        k(   27) = (   0.3333333   0.5773503   0.1012159), wk =   0.0370370
        k(   28) = (   0.3333333   0.5773503  -0.1518238), wk =   0.0185185
        k(   29) = (   0.0000000  -0.1924501   0.0506079), wk =   0.0555556
        k(   30) = (   0.0000000  -0.1924501   0.1012159), wk =   0.0555556
        k(   31) = (   0.0000000  -0.3849002   0.0506079), wk =   0.0555556
        k(   32) = (   0.0000000  -0.3849002   0.1012159), wk =   0.0555556
        k(   33) = (  -0.1666667  -0.4811252   0.0506079), wk =   0.1111111
        k(   34) = (  -0.1666667  -0.4811252   0.1012159), wk =   0.1111111

                       cryst. coord.
        k(    1) = (   0.0000000   0.0000000   0.0000000), wk =   0.0092593
        k(    2) = (   0.0000000   0.0000000   0.1666667), wk =   0.0185185
        k(    3) = (   0.0000000   0.0000000   0.3333333), wk =   0.0185185
        k(    4) = (   0.0000000   0.0000000  -0.5000000), wk =   0.0092593
        k(    5) = (   0.0000000   0.1666667   0.0000000), wk =   0.0555556
        k(    6) = (   0.0000000   0.1666667   0.1666667), wk =   0.0555556
        k(    7) = (   0.0000000   0.1666667   0.3333333), wk =   0.0555556
        k(    8) = (   0.0000000   0.1666667  -0.5000000), wk =   0.0555556
        k(    9) = (   0.0000000   0.3333333   0.0000000), wk =   0.0555556
        k(   10) = (   0.0000000   0.3333333   0.1666667), wk =   0.0555556
        k(   11) = (   0.0000000   0.3333333   0.3333333), wk =   0.0555556
        k(   12) = (   0.0000000   0.3333333  -0.5000000), wk =   0.0555556
        k(   13) = (   0.0000000  -0.5000000   0.0000000), wk =   0.0277778
        k(   14) = (   0.0000000  -0.5000000   0.1666667), wk =   0.0555556
        k(   15) = (   0.0000000  -0.5000000   0.3333333), wk =   0.0555556
        k(   16) = (   0.0000000  -0.5000000  -0.5000000), wk =   0.0277778
        k(   17) = (   0.1666667   0.1666667   0.0000000), wk =   0.0555556
        k(   18) = (   0.1666667   0.1666667   0.1666667), wk =   0.1111111
        k(   19) = (   0.1666667   0.1666667   0.3333333), wk =   0.1111111
        k(   20) = (   0.1666667   0.1666667  -0.5000000), wk =   0.0555556
        k(   21) = (   0.1666667   0.3333333   0.0000000), wk =   0.1111111
        k(   22) = (   0.1666667   0.3333333   0.1666667), wk =   0.1111111
        k(   23) = (   0.1666667   0.3333333   0.3333333), wk =   0.1111111
        k(   24) = (   0.1666667   0.3333333  -0.5000000), wk =   0.1111111
        k(   25) = (   0.3333333   0.3333333   0.0000000), wk =   0.0185185
        k(   26) = (   0.3333333   0.3333333   0.1666667), wk =   0.0370370
        k(   27) = (   0.3333333   0.3333333   0.3333333), wk =   0.0370370
        k(   28) = (   0.3333333   0.3333333  -0.5000000), wk =   0.0185185
        k(   29) = (   0.0000000  -0.1666667   0.1666667), wk =   0.0555556
        k(   30) = (   0.0000000  -0.1666667   0.3333333), wk =   0.0555556
        k(   31) = (   0.0000000  -0.3333333   0.1666667), wk =   0.0555556
        k(   32) = (   0.0000000  -0.3333333   0.3333333), wk =   0.0555556
        k(   33) = (  -0.1666667  -0.3333333   0.1666667), wk =   0.1111111
        k(   34) = (  -0.1666667  -0.3333333   0.3333333), wk =   0.1111111

     Check: negative core charge=   -0.000002

     Initial potential from superposition of free atoms

     starting charge      71.9851, renormalised to      72.0000
     Starting wfcs are   52 randomized atomic wfcs

     Self-consistent Calculation

     iteration #  1     ecut=    50.00 Ry     beta= 0.30
     Davidson diagonalization with overlap

     ethr =  1.00E-02,  avg # of iterations =  2.0

     total energy              =    -722.93996635 Ry
     estimated scf accuracy    <       1.34343197 Ry

[...]

     total energy              =    -723.23179210 Ry
     estimated scf accuracy    <       0.00000003 Ry

     iteration # 36     ecut=    50.00 Ry     beta= 0.30
     Davidson diagonalization with overlap

     ethr =  2.43E-11,  avg # of iterations =  3.9

     End of self-consistent calculation

          k = 0.0000 0.0000 0.0000 (  3559 PWs)   bands (ev):

   -10.2676  -9.8779  -9.8778  -9.4604   2.0807   2.0808   2.1624   2.3616
     2.3616   2.4238   2.4408   2.4408   2.4409   2.4409   2.5685   2.5685
     3.8179   3.8179   3.9569   3.9569   3.9569   3.9569   4.0539   4.0539
     4.3770   6.1311   6.1312   7.6780   7.6780   8.0967   8.0967   8.0969
     8.0969   8.3368   8.5103   8.5103

     occupation numbers
     1.0000   1.0000   1.0000   1.0000   1.0000   1.0000   1.0000   1.0000
     1.0000   1.0000   1.0000   1.0000   1.0000   1.0000   1.0000   1.0000
     1.0000   1.0000   1.0000   1.0000   1.0000   1.0000   1.0000   1.0000
     1.0000   1.0000   1.0000   1.0000   1.0000   1.0000   1.0000   1.0000
     1.0000   1.0000   1.0000   1.0000

[...]

          k = 0.0000-0.3849 0.1012 (  3539 PWs)   bands (ev):

[...]

          k =-0.1667-0.4811 0.0506 (  3557 PWs)   bands (ev):

[...]

          k =-0.1667-0.4811 0.1012 (  3552 PWs)   bands (ev):

    -9.4425  -9.3903  -9.2594  -9.2163   2.0082   2.0944   2.1018   2.2894
     2.6355   2.6594   2.8081   2.8645   3.0487   3.0791   3.1348   3.1891
     3.7771   3.8805   3.9452   3.9865   4.1241   4.1326   4.2786   4.3522
     4.4443   4.6249   5.0033   5.1003   5.4890   5.8547   5.9227   6.3644
     6.7777   6.9848   7.2266   7.2271

     occupation numbers
     1.0000   1.0000   1.0000   1.0000   1.0000   1.0000   1.0000   1.0000
     1.0000   1.0000   1.0000   1.0000   1.0000   1.0000   1.0000   1.0000
     1.0000   1.0000   1.0000   1.0000   1.0000   1.0000   1.0000   1.0000
     1.0000   1.0000   1.0000   1.0000   1.0000   1.0000   1.0000   1.0000
     1.0000   1.0000   1.0000   1.0000

     highest occupied level (ev):     8.5103

!    total energy              =    -723.23179210 Ry
     estimated scf accuracy    <          9.0E-09 Ry

     The total energy is the sum of the following terms:
     one-electron contribution =    -285.10437316 Ry
     hartree contribution      =     228.16084370 Ry
     xc contribution           =    -219.53697090 Ry
     ewald contribution        =    -446.75129173 Ry

     convergence has been achieved in  36 iterations

     Forces acting on atoms (cartesian axes, Ry/au):

     atom    1 type  1   force =     0.00000000   -0.00000000    0.01036598
     atom    2 type  1   force =     0.00000000    0.00000000    0.01047179
     atom    3 type  2   force =     0.00000000    0.00000000   -0.01042864
     atom    4 type  2   force =     0.00000000    0.00000000   -0.01043266
     atom    5 type  1   force =     0.00000000    0.00000000    0.01046486
     atom    6 type  1   force =     0.00000000    0.00000000    0.01039382
     atom    7 type  2   force =     0.00000000   -0.00000000   -0.01042058
     atom    8 type  2   force =     0.00000000   -0.00000000   -0.01041457
     The non-local contrib.  to forces
     atom    1 type  1   force =     0.00000000   -0.00000000    0.05370374
     atom    2 type  1   force =     0.00000000    0.00000000    0.05375718
     atom    3 type  2   force =     0.00000000    0.00000000    0.05078532
     atom    4 type  2   force =     0.00000000   -0.00000000    0.05077270
     atom    5 type  1   force =     0.00000000    0.00000000    0.05375696
     atom    6 type  1   force =     0.00000000    0.00000000    0.05372284
     atom    7 type  2   force =     0.00000000   -0.00000000    0.05075598
     atom    8 type  2   force =     0.00000000    0.00000000    0.05076089
     The ionic contribution  to forces
     atom    1 type  1   force =    -0.00000000    0.00000000    0.50460103
     atom    2 type  1   force =     0.00000000   -0.00000000    0.50460103
     atom    3 type  2   force =    -0.00000000    0.00000000   -0.50460103
     atom    4 type  2   force =     0.00000000   -0.00000000   -0.50460103
     atom    5 type  1   force =    -0.00000000    0.00000000    0.50460103
     atom    6 type  1   force =     0.00000000   -0.00000000    0.50460103
     atom    7 type  2   force =    -0.00000000    0.00000000   -0.50460103
     atom    8 type  2   force =     0.00000000   -0.00000000   -0.50460103
     The local contribution  to forces
     atom    1 type  1   force =    -0.00000004    0.00000002   -0.54371172
     atom    2 type  1   force =     0.00000004   -0.00000002   -0.54388057
     atom    3 type  2   force =    -0.00000001    0.00000001    0.44381617
     atom    4 type  2   force =     0.00000001   -0.00000001    0.44381615
     atom    5 type  1   force =    -0.00000004    0.00000002   -0.54385445
     atom    6 type  1   force =     0.00000004   -0.00000002   -0.54376451
     atom    7 type  2   force =    -0.00000001    0.00000001    0.44376101
     atom    8 type  2   force =     0.00000001   -0.00000001    0.44377722
     The core correction contribution to forces
     atom    1 type  1   force =    -0.00000001    0.00000000   -0.00409986
     atom    2 type  1   force =     0.00000001   -0.00000000   -0.00409781
     atom    3 type  2   force =     0.00000000   -0.00000000   -0.00038621
     atom    4 type  2   force =    -0.00000000    0.00000000   -0.00038458
     atom    5 type  1   force =    -0.00000001    0.00000000   -0.00410187
     atom    6 type  1   force =     0.00000001   -0.00000000   -0.00410216
     atom    7 type  2   force =     0.00000000   -0.00000000   -0.00038686
     atom    8 type  2   force =    -0.00000000    0.00000000   -0.00038837
     The Hubbard contrib.    to forces
     atom    1 type  1   force =     0.00000000    0.00000000    0.00000000
     atom    2 type  1   force =     0.00000000    0.00000000    0.00000000
     atom    3 type  2   force =     0.00000000    0.00000000    0.00000000
     atom    4 type  2   force =     0.00000000    0.00000000    0.00000000
     atom    5 type  1   force =     0.00000000    0.00000000    0.00000000
     atom    6 type  1   force =     0.00000000    0.00000000    0.00000000
     atom    7 type  2   force =     0.00000000    0.00000000    0.00000000
     atom    8 type  2   force =     0.00000000    0.00000000    0.00000000
     The SCF correction term to forces
     atom    1 type  1   force =     0.00000000   -0.00000000   -0.00012683
     atom    2 type  1   force =    -0.00000000    0.00000000    0.00009233
     atom    3 type  2   force =    -0.00000000    0.00000000   -0.00004252
     atom    4 type  2   force =     0.00000000   -0.00000000   -0.00003553
     atom    5 type  1   force =     0.00000000   -0.00000000    0.00006357
     atom    6 type  1   force =    -0.00000000    0.00000000   -0.00006300
     atom    7 type  2   force =    -0.00000000    0.00000000    0.00005070
     atom    8 type  2   force =     0.00000000   -0.00000000    0.00003708

     Total force =     0.029484     Total SCF correction =     0.000199

     General routines

     Parallel routines

   This run was terminated on:  14:37: 1  26Aug2025

   JOB DONE.