     Program PWSCF v.7.0 starts on 26Aug2025 at 17:59:49

     K-points division:     npool     =       4
     band groups division:  nbgrp     =       4

     Reading input from /home/jvc/QEspresso7.2/ZnO_database/scripts/cell112.in/ZnO-3.47-1.45-112.in
Warning: card &CELL ignored
Warning: card / ignored
Warning: card &FCP ignored
Warning: card / ignored
Warning: card &RISM ignored
Warning: card / ignored

     Current dimensions of program PWSCF are:
     Max number of different atomic species (ntypx) = 10
     Max number of k-points (npk) =  40000
     Max angular momentum in pseudopotentials (lmaxx) =  4
     file Zn.upf: wavefunction(s)  3D renormalized
     Found identity + (  0.0000  0.0000  0.5000) symmetry
     This is a supercell, fractional translations are disabled
     Message from routine setup:
     using ibrav=0 with symmetry is DISCOURAGED, use correct ibrav instead

     Subspace diagonalization in iterative solution of the eigenvalue problem:
     a serial algorithm will be used

     Using Slab Decomposition

     bravais-lattice index     =            0
     lattice parameter (alat)  =       6.5496  a.u.
     unit-cell volume          =     707.0408 (a.u.)^3
     number of atoms/cell      =            8
     number of atomic types    =            2
     number of electrons       =        72.00
     number of Kohn-Sham states=           36
     kinetic-energy cutoff     =      50.0000  Ry
     charge density cutoff     =     400.0000  Ry
     scf convergence threshold =      1.0E-08
     mixing beta               =       0.3000
     number of iterations used =            8  plain     mixing
     Exchange-correlation= PBE
                           (   1   4   3   4   0   0   0)

     celldm(1)=   6.549585  celldm(2)=   0.000000  celldm(3)=   0.000000
     celldm(4)=   0.000000  celldm(5)=   0.000000  celldm(6)=   0.000000

     crystal axes: (cart. coord. in units of alat)
               a(1) = (   1.000000   0.000000   0.000000 )
               a(2) = (  -0.500000   0.866025   0.000000 )
               a(3) = (   0.000000   0.000000   2.905845 )

     reciprocal axes: (cart. coord. in units 2 pi/alat)
               b(1) = (  1.000000  0.577350 -0.000000 )
               b(2) = (  0.000000  1.154701  0.000000 )
               b(3) = (  0.000000 -0.000000  0.344134 )

     PseudoPot. # 1 for Zn read from file:
     /home/jvc/QEspresso7.2/ZnO_database/pseudos/Zn.upf
     MD5 check sum: 7f56cabf9682ed8c977c2f7d0c5985c5
     Pseudo is Ultrasoft + core correction, Zval = 12.0
     Generated using &quot;atomic&quot; code by A. Dal Corso  v.6.2.2
     Using radial grid of 1201 points,  6 beta functions with:
                l(1) =   0
                l(2) =   0
                l(3) =   1
                l(4) =   1
                l(5) =   2
                l(6) =   2
     Q(r) pseudized with 0 coefficients

     PseudoPot. # 2 for O  read from file:
     /home/jvc/QEspresso7.2/ZnO_database/pseudos/O.upf
     MD5 check sum: 91400c9766925bcf19f520983a725ff0
     Pseudo is Ultrasoft + core correction, Zval =  6.0
     Generated using &quot;atomic&quot; code by A. Dal Corso  v.6.3MaX
     Using radial grid of 1095 points,  4 beta functions with:
                l(1) =   0
                l(2) =   0
                l(3) =   1
                l(4) =   1
     Q(r) pseudized with 0 coefficients

     atomic species   valence    mass     pseudopotential
        Zn            12.00    65.38000     Zn( 1.00)
        O              6.00    15.99900     O ( 1.00)

      6 Sym. Ops. (no inversion) found

                                    s                        frac. trans.

      isym =  1     identity

 cryst.   s( 1) = (     1          0          0      )
                  (     0          1          0      )
                  (     0          0          1      )

 cart.    s( 1) = (  1.0000000  0.0000000  0.0000000 )
                  (  0.0000000  1.0000000  0.0000000 )
                  (  0.0000000  0.0000000  1.0000000 )

      isym =  2     120 deg rotation - cryst. axis [0,0,1]

[...]

      isym =  3     120 deg rotation - cryst. axis [0,0,-1]

[...]

      isym =  4     inv. 180 deg rotation - cart. axis [1,0,0]

[...]

      isym =  5     inv. 180 deg rotation - cryst. axis [0,1,0]

[...]

      isym =  6     inv. 180 deg rotation - cryst. axis [1,1,0]

 cryst.   s( 6) = (     0         -1          0      )
                  (    -1          0          0      )
                  (     0          0          1      )

 cart.    s( 6) = (  0.5000000 -0.8660254  0.0000000 )
                  ( -0.8660254 -0.5000000  0.0000000 )
                  (  0.0000000  0.0000000  1.0000000 )

   Cartesian axes

     site n.     atom                  positions (alat units)
         1           Zn  tau(   1) = (   0.5000000   0.2886751   0.7273818  )
         2           Zn  tau(   2) = (  -0.0000000   0.5773503   0.0009206  )
         3           O   tau(   3) = (   0.5000000   0.2886751   1.2781017  )
         4           O   tau(   4) = (  -0.0000000   0.5773503   0.5516404  )
         5           Zn  tau(   5) = (   0.5000000   0.2886751   2.1803043  )
         6           Zn  tau(   6) = (  -0.0000000   0.5773503   1.4538431  )
         7           O   tau(   7) = (   0.5000000   0.2886751   2.7310242  )
         8           O   tau(   8) = (  -0.0000000   0.5773503   2.0045629  )

   Crystallographic axes

     site n.     atom                  positions (cryst. coord.)
         1           Zn  tau(   1) = (  0.6666667  0.3333333  0.2503168  )
         2           Zn  tau(   2) = (  0.3333333  0.6666667  0.0003168  )
         3           O   tau(   3) = (  0.6666667  0.3333333  0.4398382  )
         4           O   tau(   4) = (  0.3333333  0.6666667  0.1898382  )
         5           Zn  tau(   5) = (  0.6666667  0.3333333  0.7503168  )
         6           Zn  tau(   6) = (  0.3333333  0.6666667  0.5003168  )
         7           O   tau(   7) = (  0.6666667  0.3333333  0.9398382  )
         8           O   tau(   8) = (  0.3333333  0.6666667  0.6898382  )

     number of k points=    34
                       cart. coord. in units 2pi/alat
        k(    1) = (   0.0000000   0.0000000   0.0000000), wk =   0.0092593
        k(    2) = (   0.0000000   0.0000000   0.0573557), wk =   0.0185185
        k(    3) = (   0.0000000   0.0000000   0.1147113), wk =   0.0185185
        k(    4) = (   0.0000000   0.0000000  -0.1720670), wk =   0.0092593
        k(    5) = (   0.0000000   0.1924501   0.0000000), wk =   0.0555556
        k(    6) = (   0.0000000   0.1924501   0.0573557), wk =   0.0555556
        k(    7) = (   0.0000000   0.1924501   0.1147113), wk =   0.0555556
        k(    8) = (   0.0000000   0.1924501  -0.1720670), wk =   0.0555556
        k(    9) = (   0.0000000   0.3849002   0.0000000), wk =   0.0555556
        k(   10) = (   0.0000000   0.3849002   0.0573557), wk =   0.0555556
        k(   11) = (   0.0000000   0.3849002   0.1147113), wk =   0.0555556
        k(   12) = (   0.0000000   0.3849002  -0.1720670), wk =   0.0555556
        k(   13) = (   0.0000000  -0.5773503   0.0000000), wk =   0.0277778
        k(   14) = (   0.0000000  -0.5773503   0.0573557), wk =   0.0555556
        k(   15) = (   0.0000000  -0.5773503   0.1147113), wk =   0.0555556
        k(   16) = (   0.0000000  -0.5773503  -0.1720670), wk =   0.0277778
        k(   17) = (   0.1666667   0.2886751   0.0000000), wk =   0.0555556
        k(   18) = (   0.1666667   0.2886751   0.0573557), wk =   0.1111111
        k(   19) = (   0.1666667   0.2886751   0.1147113), wk =   0.1111111
        k(   20) = (   0.1666667   0.2886751  -0.1720670), wk =   0.0555556
        k(   21) = (   0.1666667   0.4811252   0.0000000), wk =   0.1111111
        k(   22) = (   0.1666667   0.4811252   0.0573557), wk =   0.1111111
        k(   23) = (   0.1666667   0.4811252   0.1147113), wk =   0.1111111
        k(   24) = (   0.1666667   0.4811252  -0.1720670), wk =   0.1111111
        k(   25) = (   0.3333333   0.5773503   0.0000000), wk =   0.0185185
        k(   26) = (   0.3333333   0.5773503   0.0573557), wk =   0.0370370
        k(   27) = (   0.3333333   0.5773503   0.1147113), wk =   0.0370370
        k(   28) = (   0.3333333   0.5773503  -0.1720670), wk =   0.0185185
        k(   29) = (   0.0000000  -0.1924501   0.0573557), wk =   0.0555556
        k(   30) = (   0.0000000  -0.1924501   0.1147113), wk =   0.0555556
        k(   31) = (   0.0000000  -0.3849002   0.0573557), wk =   0.0555556
        k(   32) = (   0.0000000  -0.3849002   0.1147113), wk =   0.0555556
        k(   33) = (  -0.1666667  -0.4811252   0.0573557), wk =   0.1111111
        k(   34) = (  -0.1666667  -0.4811252   0.1147113), wk =   0.1111111

                       cryst. coord.
        k(    1) = (   0.0000000   0.0000000   0.0000000), wk =   0.0092593
        k(    2) = (   0.0000000   0.0000000   0.1666667), wk =   0.0185185
        k(    3) = (   0.0000000   0.0000000   0.3333333), wk =   0.0185185
        k(    4) = (   0.0000000   0.0000000  -0.5000000), wk =   0.0092593
        k(    5) = (   0.0000000   0.1666667   0.0000000), wk =   0.0555556
        k(    6) = (   0.0000000   0.1666667   0.1666667), wk =   0.0555556
        k(    7) = (   0.0000000   0.1666667   0.3333333), wk =   0.0555556
        k(    8) = (   0.0000000   0.1666667  -0.5000000), wk =   0.0555556
        k(    9) = (   0.0000000   0.3333333   0.0000000), wk =   0.0555556
        k(   10) = (   0.0000000   0.3333333   0.1666667), wk =   0.0555556
        k(   11) = (   0.0000000   0.3333333   0.3333333), wk =   0.0555556
        k(   12) = (   0.0000000   0.3333333  -0.5000000), wk =   0.0555556
        k(   13) = (   0.0000000  -0.5000000   0.0000000), wk =   0.0277778
        k(   14) = (   0.0000000  -0.5000000   0.1666667), wk =   0.0555556
        k(   15) = (   0.0000000  -0.5000000   0.3333333), wk =   0.0555556
        k(   16) = (   0.0000000  -0.5000000  -0.5000000), wk =   0.0277778
        k(   17) = (   0.1666667   0.1666667   0.0000000), wk =   0.0555556
        k(   18) = (   0.1666667   0.1666667   0.1666667), wk =   0.1111111
        k(   19) = (   0.1666667   0.1666667   0.3333333), wk =   0.1111111
        k(   20) = (   0.1666667   0.1666667  -0.5000000), wk =   0.0555556
        k(   21) = (   0.1666667   0.3333333   0.0000000), wk =   0.1111111
        k(   22) = (   0.1666667   0.3333333   0.1666667), wk =   0.1111111
        k(   23) = (   0.1666667   0.3333333   0.3333333), wk =   0.1111111
        k(   24) = (   0.1666667   0.3333333  -0.5000000), wk =   0.1111111
        k(   25) = (   0.3333333   0.3333333   0.0000000), wk =   0.0185185
        k(   26) = (   0.3333333   0.3333333   0.1666667), wk =   0.0370370
        k(   27) = (   0.3333333   0.3333333   0.3333333), wk =   0.0370370
        k(   28) = (   0.3333333   0.3333333  -0.5000000), wk =   0.0185185
        k(   29) = (   0.0000000  -0.1666667   0.1666667), wk =   0.0555556
        k(   30) = (   0.0000000  -0.1666667   0.3333333), wk =   0.0555556
        k(   31) = (   0.0000000  -0.3333333   0.1666667), wk =   0.0555556
        k(   32) = (   0.0000000  -0.3333333   0.3333333), wk =   0.0555556
        k(   33) = (  -0.1666667  -0.3333333   0.1666667), wk =   0.1111111
        k(   34) = (  -0.1666667  -0.3333333   0.3333333), wk =   0.1111111

     Check: negative core charge=   -0.000002

     Initial potential from superposition of free atoms

     starting charge      71.9851, renormalised to      72.0000
     Starting wfcs are   52 randomized atomic wfcs

     Self-consistent Calculation

     iteration #  1     ecut=    50.00 Ry     beta= 0.30
     Davidson diagonalization with overlap

     ethr =  1.00E-02,  avg # of iterations =  1.8

     total energy              =    -722.89041554 Ry
     estimated scf accuracy    <       1.46885922 Ry

[...]

     c_bands:  1 eigenvalues not converged
     c_bands:  2 eigenvalues not converged
     ethr =  4.84E-07,  avg # of iterations = 13.6

[...]

     c_bands:  1 eigenvalues not converged
     c_bands:  1 eigenvalues not converged
     ethr =  5.68E-11,  avg # of iterations = 14.0

[...]

     total energy              =    -723.23317071 Ry
     estimated scf accuracy    <       0.00000018 Ry

     iteration # 39     ecut=    50.00 Ry     beta= 0.30
     Davidson diagonalization with overlap

     ethr =  5.68E-11,  avg # of iterations =  6.9

     End of self-consistent calculation

          k = 0.0000 0.0000 0.0000 (  4225 PWs)   bands (ev):

   -11.4987 -11.1408 -11.1405 -10.7763   0.3831   0.3832   0.6192   0.6516
     0.6516   0.7092   0.7092   0.7093   0.7093   0.8677   0.8677   1.1576
     1.4881   1.4881   1.6427   1.6427   1.6427   1.6427   1.7133   1.7133
     1.8740   3.9216   3.9217   4.9043   4.9043   5.3895   5.3895   5.3896
     5.3896   5.8399   5.8399   5.9196

     occupation numbers
     1.0000   1.0000   1.0000   1.0000   1.0000   1.0000   1.0000   1.0000
     1.0000   1.0000   1.0000   1.0000   1.0000   1.0000   1.0000   1.0000
     1.0000   1.0000   1.0000   1.0000   1.0000   1.0000   1.0000   1.0000
     1.0000   1.0000   1.0000   1.0000   1.0000   1.0000   1.0000   1.0000
     1.0000   1.0000   1.0000   1.0000

[...]

          k = 0.0000-0.3849 0.1147 (  4220 PWs)   bands (ev):

[...]

          k =-0.1667-0.4811 0.0574 (  4217 PWs)   bands (ev):

[...]

          k =-0.1667-0.4811 0.1147 (  4217 PWs)   bands (ev):

   -10.9668 -10.9162 -10.7975 -10.7620   0.3996   0.4932   0.5139   0.7029
     0.8289   0.8352   0.9514   0.9791   1.0688   1.1510   1.1819   1.3063
     1.5295   1.5860   1.6179   1.6336   1.7518   1.7639   1.8471   1.8768
     2.3515   2.4674   2.7868   2.8993   3.3349   3.6627   3.9148   4.5024
     4.6202   4.8821   5.0112   5.2111

     occupation numbers
     1.0000   1.0000   1.0000   1.0000   1.0000   1.0000   1.0000   1.0000
     1.0000   1.0000   1.0000   1.0000   1.0000   1.0000   1.0000   1.0000
     1.0000   1.0000   1.0000   1.0000   1.0000   1.0000   1.0000   1.0000
     1.0000   1.0000   1.0000   1.0000   1.0000   1.0000   1.0000   1.0000
     1.0000   1.0000   1.0000   1.0000

     highest occupied level (ev):     5.9196

!    total energy              =    -723.23317075 Ry
     estimated scf accuracy    <          8.1E-09 Ry

     The total energy is the sum of the following terms:
     one-electron contribution =    -327.78490660 Ry
     hartree contribution      =     243.70263951 Ry
     xc contribution           =    -218.85154438 Ry
     ewald contribution        =    -420.29935928 Ry

     convergence has been achieved in  39 iterations

     Forces acting on atoms (cartesian axes, Ry/au):

     atom    1 type  1   force =     0.00000000    0.00000000   -0.03296580
     atom    2 type  1   force =     0.00000000    0.00000000   -0.03299318
     atom    3 type  2   force =     0.00000000   -0.00000000    0.03300559
     atom    4 type  2   force =     0.00000000    0.00000000    0.03300454
     atom    5 type  1   force =     0.00000000    0.00000000   -0.03301736
     atom    6 type  1   force =     0.00000000   -0.00000000   -0.03305127
     atom    7 type  2   force =     0.00000000   -0.00000000    0.03300630
     atom    8 type  2   force =     0.00000000    0.00000000    0.03301119
     The non-local contrib.  to forces
     atom    1 type  1   force =     0.00000000    0.00000000   -0.30252304
     atom    2 type  1   force =     0.00000000   -0.00000000   -0.30253977
     atom    3 type  2   force =     0.00000000   -0.00000000   -0.24121634
     atom    4 type  2   force =     0.00000000    0.00000000   -0.24123508
     atom    5 type  1   force =     0.00000000    0.00000000   -0.30255744
     atom    6 type  1   force =     0.00000000    0.00000000   -0.30256489
     atom    7 type  2   force =     0.00000000    0.00000000   -0.24123132
     atom    8 type  2   force =     0.00000000    0.00000000   -0.24120493
     The ionic contribution  to forces
     atom    1 type  1   force =    -0.00000000    0.00000000   -2.01156103
     atom    2 type  1   force =     0.00000000   -0.00000000   -2.01156103
     atom    3 type  2   force =    -0.00000000    0.00000000    2.01156103
     atom    4 type  2   force =     0.00000000   -0.00000000    2.01156103
     atom    5 type  1   force =    -0.00000000    0.00000000   -2.01156103
     atom    6 type  1   force =     0.00000000   -0.00000000   -2.01156103
     atom    7 type  2   force =    -0.00000000    0.00000000    2.01156103
     atom    8 type  2   force =     0.00000000   -0.00000000    2.01156103
     The local contribution  to forces
     atom    1 type  1   force =    -0.00000005    0.00000003    2.25949263
     atom    2 type  1   force =     0.00000005   -0.00000003    2.25953784
     atom    3 type  2   force =    -0.00000001    0.00000001   -1.73919723
     atom    4 type  2   force =     0.00000001   -0.00000001   -1.73921360
     atom    5 type  1   force =    -0.00000005    0.00000003    2.25957212
     atom    6 type  1   force =     0.00000005   -0.00000003    2.25964781
     atom    7 type  2   force =    -0.00000001    0.00000001   -1.73921344
     atom    8 type  2   force =     0.00000001   -0.00000001   -1.73920281
     The core correction contribution to forces
     atom    1 type  1   force =    -0.00000001    0.00000000    0.02153546
     atom    2 type  1   force =     0.00000001   -0.00000000    0.02153729
     atom    3 type  2   force =     0.00000000   -0.00000000    0.00187023
     atom    4 type  2   force =    -0.00000000    0.00000000    0.00186954
     atom    5 type  1   force =    -0.00000001    0.00000000    0.02153593
     atom    6 type  1   force =     0.00000001   -0.00000000    0.02153022
     atom    7 type  2   force =     0.00000000   -0.00000000    0.00186799
     atom    8 type  2   force =    -0.00000000    0.00000000    0.00186861
     The Hubbard contrib.    to forces
     atom    1 type  1   force =     0.00000000    0.00000000    0.00000000
     atom    2 type  1   force =     0.00000000    0.00000000    0.00000000
     atom    3 type  2   force =     0.00000000    0.00000000    0.00000000
     atom    4 type  2   force =     0.00000000    0.00000000    0.00000000
     atom    5 type  1   force =     0.00000000    0.00000000    0.00000000
     atom    6 type  1   force =     0.00000000    0.00000000    0.00000000
     atom    7 type  2   force =     0.00000000    0.00000000    0.00000000
     atom    8 type  2   force =     0.00000000    0.00000000    0.00000000
     The SCF correction term to forces
     atom    1 type  1   force =     0.00000000   -0.00000000    0.00009036
     atom    2 type  1   force =    -0.00000000    0.00000000    0.00003268
     atom    3 type  2   force =    -0.00000000   -0.00000000   -0.00001190
     atom    4 type  2   force =    -0.00000000    0.00000000    0.00002285
     atom    5 type  1   force =     0.00000000   -0.00000000   -0.00000675
     atom    6 type  1   force =    -0.00000000    0.00000000   -0.00010320
     atom    7 type  2   force =     0.00000000   -0.00000000    0.00002223
     atom    8 type  2   force =    -0.00000000    0.00000000   -0.00001051

     Total force =     0.093358     Total SCF correction =     0.000146

     General routines

     Parallel routines

   This run was terminated on:  18: 6: 4  26Aug2025

   JOB DONE.