     Program PWSCF v.7.0 starts on 26Aug2025 at 13: 4:15

     K-points division:     npool     =       4
     band groups division:  nbgrp     =       4

     Reading input from /home/jvc/QEspresso7.2/ZnO_database/scripts/cell112.in/ZnO-2.94-1.49-112.in
Warning: card &CELL ignored
Warning: card / ignored
Warning: card &FCP ignored
Warning: card / ignored
Warning: card &RISM ignored
Warning: card / ignored

     Current dimensions of program PWSCF are:
     Max number of different atomic species (ntypx) = 10
     Max number of k-points (npk) =  40000
     Max angular momentum in pseudopotentials (lmaxx) =  4
     file Zn.upf: wavefunction(s)  3D renormalized
     Found identity + (  0.0000  0.0000 -0.5000) symmetry
     This is a supercell, fractional translations are disabled
     Message from routine setup:
     using ibrav=0 with symmetry is DISCOURAGED, use correct ibrav instead

     Subspace diagonalization in iterative solution of the eigenvalue problem:
     a serial algorithm will be used

     Using Slab Decomposition

     bravais-lattice index     =            0
     lattice parameter (alat)  =       5.5610  a.u.
     unit-cell volume          =     442.3843 (a.u.)^3
     number of atoms/cell      =            8
     number of atomic types    =            2
     number of electrons       =        72.00
     number of Kohn-Sham states=           36
     kinetic-energy cutoff     =      50.0000  Ry
     charge density cutoff     =     400.0000  Ry
     scf convergence threshold =      1.0E-08
     mixing beta               =       0.3000
     number of iterations used =            8  plain     mixing
     Exchange-correlation= PBE
                           (   1   4   3   4   0   0   0)

     celldm(1)=   5.560969  celldm(2)=   0.000000  celldm(3)=   0.000000
     celldm(4)=   0.000000  celldm(5)=   0.000000  celldm(6)=   0.000000

     crystal axes: (cart. coord. in units of alat)
               a(1) = (   1.000000   0.000000   0.000000 )
               a(2) = (  -0.500000   0.866025   0.000000 )
               a(3) = (   0.000000   0.000000   2.970419 )

     reciprocal axes: (cart. coord. in units 2 pi/alat)
               b(1) = (  1.000000  0.577350 -0.000000 )
               b(2) = (  0.000000  1.154701  0.000000 )
               b(3) = (  0.000000 -0.000000  0.336653 )

     PseudoPot. # 1 for Zn read from file:
     /home/jvc/QEspresso7.2/ZnO_database/pseudos/Zn.upf
     MD5 check sum: 7f56cabf9682ed8c977c2f7d0c5985c5
     Pseudo is Ultrasoft + core correction, Zval = 12.0
     Generated using &quot;atomic&quot; code by A. Dal Corso  v.6.2.2
     Using radial grid of 1201 points,  6 beta functions with:
                l(1) =   0
                l(2) =   0
                l(3) =   1
                l(4) =   1
                l(5) =   2
                l(6) =   2
     Q(r) pseudized with 0 coefficients

     PseudoPot. # 2 for O  read from file:
     /home/jvc/QEspresso7.2/ZnO_database/pseudos/O.upf
     MD5 check sum: 91400c9766925bcf19f520983a725ff0
     Pseudo is Ultrasoft + core correction, Zval =  6.0
     Generated using &quot;atomic&quot; code by A. Dal Corso  v.6.3MaX
     Using radial grid of 1095 points,  4 beta functions with:
                l(1) =   0
                l(2) =   0
                l(3) =   1
                l(4) =   1
     Q(r) pseudized with 0 coefficients

     atomic species   valence    mass     pseudopotential
        Zn            12.00    65.38000     Zn( 1.00)
        O              6.00    15.99900     O ( 1.00)

      6 Sym. Ops. (no inversion) found

                                    s                        frac. trans.

      isym =  1     identity

 cryst.   s( 1) = (     1          0          0      )
                  (     0          1          0      )
                  (     0          0          1      )

 cart.    s( 1) = (  1.0000000  0.0000000  0.0000000 )
                  (  0.0000000  1.0000000  0.0000000 )
                  (  0.0000000  0.0000000  1.0000000 )

      isym =  2     120 deg rotation - cryst. axis [0,0,1]

[...]

      isym =  3     120 deg rotation - cryst. axis [0,0,-1]

[...]

      isym =  4     inv. 180 deg rotation - cart. axis [1,0,0]

[...]

      isym =  5     inv. 180 deg rotation - cryst. axis [0,1,0]

[...]

      isym =  6     inv. 180 deg rotation - cryst. axis [1,1,0]

 cryst.   s( 6) = (     0         -1          0      )
                  (    -1          0          0      )
                  (     0          0          1      )

 cart.    s( 6) = (  0.5000000 -0.8660254  0.0000000 )
                  ( -0.8660254 -0.5000000  0.0000000 )
                  (  0.0000000  0.0000000  1.0000000 )

   Cartesian axes

     site n.     atom                  positions (alat units)
         1           Zn  tau(   1) = (   0.5000000   0.2886751   0.7435459  )
         2           Zn  tau(   2) = (  -0.0000000   0.5773503   0.0009410  )
         3           O   tau(   3) = (   0.5000000   0.2886751   1.3065039  )
         4           O   tau(   4) = (  -0.0000000   0.5773503   0.5638991  )
         5           Zn  tau(   5) = (   0.5000000   0.2886751   2.2287555  )
         6           Zn  tau(   6) = (  -0.0000000   0.5773503   1.4861507  )
         7           O   tau(   7) = (   0.5000000   0.2886751   2.7917136  )
         8           O   tau(   8) = (  -0.0000000   0.5773503   2.0491088  )

   Crystallographic axes

     site n.     atom                  positions (cryst. coord.)
         1           Zn  tau(   1) = (  0.6666667  0.3333333  0.2503168  )
         2           Zn  tau(   2) = (  0.3333333  0.6666667  0.0003168  )
         3           O   tau(   3) = (  0.6666667  0.3333333  0.4398382  )
         4           O   tau(   4) = (  0.3333333  0.6666667  0.1898382  )
         5           Zn  tau(   5) = (  0.6666667  0.3333333  0.7503168  )
         6           Zn  tau(   6) = (  0.3333333  0.6666667  0.5003168  )
         7           O   tau(   7) = (  0.6666667  0.3333333  0.9398382  )
         8           O   tau(   8) = (  0.3333333  0.6666667  0.6898382  )

     number of k points=    34
                       cart. coord. in units 2pi/alat
        k(    1) = (   0.0000000   0.0000000   0.0000000), wk =   0.0092593
        k(    2) = (   0.0000000   0.0000000   0.0561088), wk =   0.0185185
        k(    3) = (   0.0000000   0.0000000   0.1122176), wk =   0.0185185
        k(    4) = (   0.0000000   0.0000000  -0.1683264), wk =   0.0092593
        k(    5) = (   0.0000000   0.1924501   0.0000000), wk =   0.0555556
        k(    6) = (   0.0000000   0.1924501   0.0561088), wk =   0.0555556
        k(    7) = (   0.0000000   0.1924501   0.1122176), wk =   0.0555556
        k(    8) = (   0.0000000   0.1924501  -0.1683264), wk =   0.0555556
        k(    9) = (   0.0000000   0.3849002   0.0000000), wk =   0.0555556
        k(   10) = (   0.0000000   0.3849002   0.0561088), wk =   0.0555556
        k(   11) = (   0.0000000   0.3849002   0.1122176), wk =   0.0555556
        k(   12) = (   0.0000000   0.3849002  -0.1683264), wk =   0.0555556
        k(   13) = (   0.0000000  -0.5773503   0.0000000), wk =   0.0277778
        k(   14) = (   0.0000000  -0.5773503   0.0561088), wk =   0.0555556
        k(   15) = (   0.0000000  -0.5773503   0.1122176), wk =   0.0555556
        k(   16) = (   0.0000000  -0.5773503  -0.1683264), wk =   0.0277778
        k(   17) = (   0.1666667   0.2886751   0.0000000), wk =   0.0555556
        k(   18) = (   0.1666667   0.2886751   0.0561088), wk =   0.1111111
        k(   19) = (   0.1666667   0.2886751   0.1122176), wk =   0.1111111
        k(   20) = (   0.1666667   0.2886751  -0.1683264), wk =   0.0555556
        k(   21) = (   0.1666667   0.4811252   0.0000000), wk =   0.1111111
        k(   22) = (   0.1666667   0.4811252   0.0561088), wk =   0.1111111
        k(   23) = (   0.1666667   0.4811252   0.1122176), wk =   0.1111111
        k(   24) = (   0.1666667   0.4811252  -0.1683264), wk =   0.1111111
        k(   25) = (   0.3333333   0.5773503   0.0000000), wk =   0.0185185
        k(   26) = (   0.3333333   0.5773503   0.0561088), wk =   0.0370370
        k(   27) = (   0.3333333   0.5773503   0.1122176), wk =   0.0370370
        k(   28) = (   0.3333333   0.5773503  -0.1683264), wk =   0.0185185
        k(   29) = (   0.0000000  -0.1924501   0.0561088), wk =   0.0555556
        k(   30) = (   0.0000000  -0.1924501   0.1122176), wk =   0.0555556
        k(   31) = (   0.0000000  -0.3849002   0.0561088), wk =   0.0555556
        k(   32) = (   0.0000000  -0.3849002   0.1122176), wk =   0.0555556
        k(   33) = (  -0.1666667  -0.4811252   0.0561088), wk =   0.1111111
        k(   34) = (  -0.1666667  -0.4811252   0.1122176), wk =   0.1111111

                       cryst. coord.
        k(    1) = (   0.0000000   0.0000000   0.0000000), wk =   0.0092593
        k(    2) = (   0.0000000   0.0000000   0.1666667), wk =   0.0185185
        k(    3) = (   0.0000000   0.0000000   0.3333333), wk =   0.0185185
        k(    4) = (   0.0000000   0.0000000  -0.5000000), wk =   0.0092593
        k(    5) = (   0.0000000   0.1666667   0.0000000), wk =   0.0555556
        k(    6) = (   0.0000000   0.1666667   0.1666667), wk =   0.0555556
        k(    7) = (   0.0000000   0.1666667   0.3333333), wk =   0.0555556
        k(    8) = (   0.0000000   0.1666667  -0.5000000), wk =   0.0555556
        k(    9) = (   0.0000000   0.3333333   0.0000000), wk =   0.0555556
        k(   10) = (   0.0000000   0.3333333   0.1666667), wk =   0.0555556
        k(   11) = (   0.0000000   0.3333333   0.3333333), wk =   0.0555556
        k(   12) = (   0.0000000   0.3333333  -0.5000000), wk =   0.0555556
        k(   13) = (   0.0000000  -0.5000000   0.0000000), wk =   0.0277778
        k(   14) = (   0.0000000  -0.5000000   0.1666667), wk =   0.0555556
        k(   15) = (   0.0000000  -0.5000000   0.3333333), wk =   0.0555556
        k(   16) = (   0.0000000  -0.5000000  -0.5000000), wk =   0.0277778
        k(   17) = (   0.1666667   0.1666667   0.0000000), wk =   0.0555556
        k(   18) = (   0.1666667   0.1666667   0.1666667), wk =   0.1111111
        k(   19) = (   0.1666667   0.1666667   0.3333333), wk =   0.1111111
        k(   20) = (   0.1666667   0.1666667  -0.5000000), wk =   0.0555556
        k(   21) = (   0.1666667   0.3333333   0.0000000), wk =   0.1111111
        k(   22) = (   0.1666667   0.3333333   0.1666667), wk =   0.1111111
        k(   23) = (   0.1666667   0.3333333   0.3333333), wk =   0.1111111
        k(   24) = (   0.1666667   0.3333333  -0.5000000), wk =   0.1111111
        k(   25) = (   0.3333333   0.3333333   0.0000000), wk =   0.0185185
        k(   26) = (   0.3333333   0.3333333   0.1666667), wk =   0.0370370
        k(   27) = (   0.3333333   0.3333333   0.3333333), wk =   0.0370370
        k(   28) = (   0.3333333   0.3333333  -0.5000000), wk =   0.0185185
        k(   29) = (   0.0000000  -0.1666667   0.1666667), wk =   0.0555556
        k(   30) = (   0.0000000  -0.1666667   0.3333333), wk =   0.0555556
        k(   31) = (   0.0000000  -0.3333333   0.1666667), wk =   0.0555556
        k(   32) = (   0.0000000  -0.3333333   0.3333333), wk =   0.0555556
        k(   33) = (  -0.1666667  -0.3333333   0.1666667), wk =   0.1111111
        k(   34) = (  -0.1666667  -0.3333333   0.3333333), wk =   0.1111111

     Initial potential from superposition of free atoms

     starting charge      71.9851, renormalised to      72.0000
     Starting wfcs are   52 randomized atomic wfcs

     Self-consistent Calculation

     iteration #  1     ecut=    50.00 Ry     beta= 0.30
     Davidson diagonalization with overlap

     ethr =  1.00E-02,  avg # of iterations =  2.3

     total energy              =    -722.27353314 Ry
     estimated scf accuracy    <       1.43832379 Ry

[...]

     c_bands:  1 eigenvalues not converged
     ethr =  1.10E-08,  avg # of iterations = 11.8

[...]

     total energy              =    -722.52409619 Ry
     estimated scf accuracy    <       0.00000013 Ry

     iteration # 15     ecut=    50.00 Ry     beta= 0.30
     Davidson diagonalization with overlap

     ethr =  4.34E-11,  avg # of iterations =  6.9

     End of self-consistent calculation

          k = 0.0000 0.0000 0.0000 (  2677 PWs)   bands (ev):

    -7.7741  -6.9605  -6.9605  -6.0938   5.0815   5.0815   5.2188   5.8206
     5.8206   5.9137   5.9271   5.9271   5.9271   5.9271   6.2226   6.2226
     8.2681   8.2681   8.6677   8.6677   8.6677   8.6677   8.8502   8.8502
     9.3300  11.9700  11.9700  12.5443  12.5443  13.3498  13.3498  13.3498
    13.3498  14.1313  14.1507  14.1507

     occupation numbers
     1.0000   1.0000   1.0000   1.0000   1.0000   1.0000   1.0000   1.0000
     1.0000   1.0000   1.0000   1.0000   1.0000   1.0000   1.0000   1.0000
     1.0000   1.0000   1.0000   1.0000   1.0000   1.0000   1.0000   1.0000
     1.0000   1.0000   1.0000   1.0000   1.0000   1.0000   1.0000   1.0000
     1.0000   1.0000   1.0000   1.0000

[...]

          k = 0.0000-0.3849 0.1122 (  2646 PWs)   bands (ev):

[...]

          k =-0.1667-0.4811 0.0561 (  2637 PWs)   bands (ev):

[...]

          k =-0.1667-0.4811 0.1122 (  2646 PWs)   bands (ev):

    -6.4342  -6.3052  -6.0235  -5.9518   4.8269   4.8940   5.0803   5.2732
     6.0210   6.0284   6.1168   6.1887   6.6900   6.8102   6.8538   7.0269
     8.2496   8.4395   8.5818   8.6571   8.9439   8.9551   9.0564   9.1576
     9.3156   9.5169   9.8199  10.0433  10.3471  10.5505  10.9735  11.6069
    11.9630  12.2490  12.6403  12.8187

     occupation numbers
     1.0000   1.0000   1.0000   1.0000   1.0000   1.0000   1.0000   1.0000
     1.0000   1.0000   1.0000   1.0000   1.0000   1.0000   1.0000   1.0000
     1.0000   1.0000   1.0000   1.0000   1.0000   1.0000   1.0000   1.0000
     1.0000   1.0000   1.0000   1.0000   1.0000   1.0000   1.0000   1.0000
     1.0000   1.0000   1.0000   1.0000

     highest occupied level (ev):    14.1507

!    total energy              =    -722.52409623 Ry
     estimated scf accuracy    <          4.4E-09 Ry

     The total energy is the sum of the following terms:
     one-electron contribution =    -214.35661409 Ry
     hartree contribution      =     205.06857399 Ry
     xc contribution           =    -221.22209919 Ry
     ewald contribution        =    -492.01395693 Ry

     convergence has been achieved in  15 iterations

     Forces acting on atoms (cartesian axes, Ry/au):

     atom    1 type  1   force =     0.00000000    0.00000000   -0.15377149
     atom    2 type  1   force =     0.00000000    0.00000000   -0.15377635
     atom    3 type  2   force =     0.00000000    0.00000000    0.15377327
     atom    4 type  2   force =     0.00000000   -0.00000000    0.15377541
     atom    5 type  1   force =     0.00000000    0.00000000   -0.15376892
     atom    6 type  1   force =     0.00000000   -0.00000000   -0.15378008
     atom    7 type  2   force =     0.00000000    0.00000000    0.15377281
     atom    8 type  2   force =     0.00000000    0.00000000    0.15377535
     The non-local contrib.  to forces
     atom    1 type  1   force =     0.00000000    0.00000000   -0.30126087
     atom    2 type  1   force =     0.00000000    0.00000000   -0.30126274
     atom    3 type  2   force =     0.00000000   -0.00000000   -0.15062429
     atom    4 type  2   force =     0.00000000   -0.00000000   -0.15062514
     atom    5 type  1   force =     0.00000000    0.00000000   -0.30126215
     atom    6 type  1   force =     0.00000000   -0.00000000   -0.30126457
     atom    7 type  2   force =     0.00000000    0.00000000   -0.15062520
     atom    8 type  2   force =     0.00000000    0.00000000   -0.15062575
     The ionic contribution  to forces
     atom    1 type  1   force =    -0.00000000    0.00000000   -2.15847727
     atom    2 type  1   force =     0.00000000   -0.00000000   -2.15847727
     atom    3 type  2   force =    -0.00000000    0.00000000    2.15847727
     atom    4 type  2   force =     0.00000000   -0.00000000    2.15847727
     atom    5 type  1   force =    -0.00000000    0.00000000   -2.15847727
     atom    6 type  1   force =     0.00000000   -0.00000000   -2.15847727
     atom    7 type  2   force =    -0.00000000    0.00000000    2.15847727
     atom    8 type  2   force =     0.00000000   -0.00000000    2.15847727
     The local contribution  to forces
     atom    1 type  1   force =    -0.00000004    0.00000002    2.27274217
     atom    2 type  1   force =     0.00000004   -0.00000002    2.27274611
     atom    3 type  2   force =    -0.00000001    0.00000001   -1.85461465
     atom    4 type  2   force =     0.00000001   -0.00000001   -1.85461778
     atom    5 type  1   force =    -0.00000004    0.00000002    2.27274331
     atom    6 type  1   force =     0.00000004   -0.00000002    2.27275146
     atom    7 type  2   force =    -0.00000001    0.00000001   -1.85461904
     atom    8 type  2   force =     0.00000001   -0.00000001   -1.85461692
     The core correction contribution to forces
     atom    1 type  1   force =    -0.00000001    0.00000000    0.03324617
     atom    2 type  1   force =     0.00000001   -0.00000000    0.03324628
     atom    3 type  2   force =     0.00000000   -0.00000000    0.00053467
     atom    4 type  2   force =    -0.00000000    0.00000000    0.00053468
     atom    5 type  1   force =    -0.00000001    0.00000000    0.03324616
     atom    6 type  1   force =     0.00000001   -0.00000000    0.03324627
     atom    7 type  2   force =     0.00000000   -0.00000000    0.00053467
     atom    8 type  2   force =    -0.00000000    0.00000000    0.00053469
     The Hubbard contrib.    to forces
     atom    1 type  1   force =     0.00000000    0.00000000    0.00000000
     atom    2 type  1   force =     0.00000000    0.00000000    0.00000000
     atom    3 type  2   force =     0.00000000    0.00000000    0.00000000
     atom    4 type  2   force =     0.00000000    0.00000000    0.00000000
     atom    5 type  1   force =     0.00000000    0.00000000    0.00000000
     atom    6 type  1   force =     0.00000000    0.00000000    0.00000000
     atom    7 type  2   force =     0.00000000    0.00000000    0.00000000
     atom    8 type  2   force =     0.00000000    0.00000000    0.00000000
     The SCF correction term to forces
     atom    1 type  1   force =     0.00000000   -0.00000000   -0.00003222
     atom    2 type  1   force =    -0.00000000    0.00000000   -0.00003926
     atom    3 type  2   force =     0.00000000   -0.00000000   -0.00001026
     atom    4 type  2   force =    -0.00000000    0.00000000   -0.00000416
     atom    5 type  1   force =     0.00000000   -0.00000000   -0.00002952
     atom    6 type  1   force =    -0.00000000    0.00000000   -0.00004651
     atom    7 type  2   force =     0.00000000   -0.00000000   -0.00000543
     atom    8 type  2   force =    -0.00000000    0.00000000   -0.00000448

     Total force =     0.434939     Total SCF correction =     0.000076

     General routines

     Parallel routines

   This run was terminated on:  13: 5:19  26Aug2025

   JOB DONE.