     Program PWSCF v.7.0 starts on 27Aug2025 at 10:39:19

     K-points division:     npool     =       4
     band groups division:  nbgrp     =       4

     Reading input from ZnO-3.40-1.58-112.in
Warning: card &CELL ignored
Warning: card / ignored
Warning: card &FCP ignored
Warning: card / ignored
Warning: card &RISM ignored
Warning: card / ignored

     Current dimensions of program PWSCF are:
     Max number of different atomic species (ntypx) = 10
     Max number of k-points (npk) =  40000
     Max angular momentum in pseudopotentials (lmaxx) =  4
     file Zn.upf: wavefunction(s)  3D renormalized
     Found identity + (  0.0000  0.0000  0.5000) symmetry
     This is a supercell, fractional translations are disabled
     Message from routine setup:
     using ibrav=0 with symmetry is DISCOURAGED, use correct ibrav instead

     Subspace diagonalization in iterative solution of the eigenvalue problem:
     a serial algorithm will be used

     Using Slab Decomposition

     bravais-lattice index     =            0
     lattice parameter (alat)  =       6.4260  a.u.
     unit-cell volume          =     727.1273 (a.u.)^3
     number of atoms/cell      =            8
     number of atomic types    =            2
     number of electrons       =        72.00
     number of Kohn-Sham states=           36
     kinetic-energy cutoff     =      50.0000  Ry
     charge density cutoff     =     400.0000  Ry
     scf convergence threshold =      1.0E-08
     mixing beta               =       0.3000
     number of iterations used =            8  plain     mixing
     Exchange-correlation= PBE
                           (   1   4   3   4   0   0   0)

     celldm(1)=   6.426008  celldm(2)=   0.000000  celldm(3)=   0.000000
     celldm(4)=   0.000000  celldm(5)=   0.000000  celldm(6)=   0.000000

     crystal axes: (cart. coord. in units of alat)
               a(1) = (   1.000000   0.000000   0.000000 )
               a(2) = (  -0.500000   0.866025   0.000000 )
               a(3) = (   0.000000   0.000000   3.164142 )

     reciprocal axes: (cart. coord. in units 2 pi/alat)
               b(1) = (  1.000000  0.577350 -0.000000 )
               b(2) = (  0.000000  1.154701  0.000000 )
               b(3) = (  0.000000 -0.000000  0.316041 )

     PseudoPot. # 1 for Zn read from file:
     /home/jvc/QEspresso7.2/ZnO_database/pseudos/Zn.upf
     MD5 check sum: 7f56cabf9682ed8c977c2f7d0c5985c5
     Pseudo is Ultrasoft + core correction, Zval = 12.0
     Generated using &quot;atomic&quot; code by A. Dal Corso  v.6.2.2
     Using radial grid of 1201 points,  6 beta functions with:
                l(1) =   0
                l(2) =   0
                l(3) =   1
                l(4) =   1
                l(5) =   2
                l(6) =   2
     Q(r) pseudized with 0 coefficients

     PseudoPot. # 2 for O  read from file:
     /home/jvc/QEspresso7.2/ZnO_database/pseudos/O.upf
     MD5 check sum: 91400c9766925bcf19f520983a725ff0
     Pseudo is Ultrasoft + core correction, Zval =  6.0
     Generated using &quot;atomic&quot; code by A. Dal Corso  v.6.3MaX
     Using radial grid of 1095 points,  4 beta functions with:
                l(1) =   0
                l(2) =   0
                l(3) =   1
                l(4) =   1
     Q(r) pseudized with 0 coefficients

     atomic species   valence    mass     pseudopotential
        Zn            12.00    65.38000     Zn( 1.00)
        O              6.00    15.99900     O ( 1.00)

      6 Sym. Ops. (no inversion) found

                                    s                        frac. trans.

      isym =  1     identity

 cryst.   s( 1) = (     1          0          0      )
                  (     0          1          0      )
                  (     0          0          1      )

 cart.    s( 1) = (  1.0000000  0.0000000  0.0000000 )
                  (  0.0000000  1.0000000  0.0000000 )
                  (  0.0000000  0.0000000  1.0000000 )

      isym =  2     120 deg rotation - cryst. axis [0,0,1]

[...]

      isym =  3     120 deg rotation - cryst. axis [0,0,-1]

[...]

      isym =  4     inv. 180 deg rotation - cart. axis [1,0,0]

[...]

      isym =  5     inv. 180 deg rotation - cryst. axis [0,1,0]

[...]

      isym =  6     inv. 180 deg rotation - cryst. axis [1,1,0]

 cryst.   s( 6) = (     0         -1          0      )
                  (    -1          0          0      )
                  (     0          0          1      )

 cart.    s( 6) = (  0.5000000 -0.8660254  0.0000000 )
                  ( -0.8660254 -0.5000000  0.0000000 )
                  (  0.0000000  0.0000000  1.0000000 )

   Cartesian axes

     site n.     atom                  positions (alat units)
         1           Zn  tau(   1) = (   0.5000000   0.2886751   0.7920380  )
         2           Zn  tau(   2) = (  -0.0000000   0.5773503   0.0010024  )
         3           O   tau(   3) = (   0.5000000   0.2886751   1.3917107  )
         4           O   tau(   4) = (  -0.0000000   0.5773503   0.6006751  )
         5           Zn  tau(   5) = (   0.5000000   0.2886751   2.3741092  )
         6           Zn  tau(   6) = (  -0.0000000   0.5773503   1.5830736  )
         7           O   tau(   7) = (   0.5000000   0.2886751   2.9737819  )
         8           O   tau(   8) = (  -0.0000000   0.5773503   2.1827463  )

   Crystallographic axes

     site n.     atom                  positions (cryst. coord.)
         1           Zn  tau(   1) = (  0.6666667  0.3333333  0.2503168  )
         2           Zn  tau(   2) = (  0.3333333  0.6666667  0.0003168  )
         3           O   tau(   3) = (  0.6666667  0.3333333  0.4398382  )
         4           O   tau(   4) = (  0.3333333  0.6666667  0.1898382  )
         5           Zn  tau(   5) = (  0.6666667  0.3333333  0.7503168  )
         6           Zn  tau(   6) = (  0.3333333  0.6666667  0.5003168  )
         7           O   tau(   7) = (  0.6666667  0.3333333  0.9398382  )
         8           O   tau(   8) = (  0.3333333  0.6666667  0.6898382  )

     number of k points=    34
                       cart. coord. in units 2pi/alat
        k(    1) = (   0.0000000   0.0000000   0.0000000), wk =   0.0092593
        k(    2) = (   0.0000000   0.0000000   0.0526736), wk =   0.0185185
        k(    3) = (   0.0000000   0.0000000   0.1053471), wk =   0.0185185
        k(    4) = (   0.0000000   0.0000000  -0.1580207), wk =   0.0092593
        k(    5) = (   0.0000000   0.1924501   0.0000000), wk =   0.0555556
        k(    6) = (   0.0000000   0.1924501   0.0526736), wk =   0.0555556
        k(    7) = (   0.0000000   0.1924501   0.1053471), wk =   0.0555556
        k(    8) = (   0.0000000   0.1924501  -0.1580207), wk =   0.0555556
        k(    9) = (   0.0000000   0.3849002   0.0000000), wk =   0.0555556
        k(   10) = (   0.0000000   0.3849002   0.0526736), wk =   0.0555556
        k(   11) = (   0.0000000   0.3849002   0.1053471), wk =   0.0555556
        k(   12) = (   0.0000000   0.3849002  -0.1580207), wk =   0.0555556
        k(   13) = (   0.0000000  -0.5773503   0.0000000), wk =   0.0277778
        k(   14) = (   0.0000000  -0.5773503   0.0526736), wk =   0.0555556
        k(   15) = (   0.0000000  -0.5773503   0.1053471), wk =   0.0555556
        k(   16) = (   0.0000000  -0.5773503  -0.1580207), wk =   0.0277778
        k(   17) = (   0.1666667   0.2886751   0.0000000), wk =   0.0555556
        k(   18) = (   0.1666667   0.2886751   0.0526736), wk =   0.1111111
        k(   19) = (   0.1666667   0.2886751   0.1053471), wk =   0.1111111
        k(   20) = (   0.1666667   0.2886751  -0.1580207), wk =   0.0555556
        k(   21) = (   0.1666667   0.4811252   0.0000000), wk =   0.1111111
        k(   22) = (   0.1666667   0.4811252   0.0526736), wk =   0.1111111
        k(   23) = (   0.1666667   0.4811252   0.1053471), wk =   0.1111111
        k(   24) = (   0.1666667   0.4811252  -0.1580207), wk =   0.1111111
        k(   25) = (   0.3333333   0.5773503   0.0000000), wk =   0.0185185
        k(   26) = (   0.3333333   0.5773503   0.0526736), wk =   0.0370370
        k(   27) = (   0.3333333   0.5773503   0.1053471), wk =   0.0370370
        k(   28) = (   0.3333333   0.5773503  -0.1580207), wk =   0.0185185
        k(   29) = (   0.0000000  -0.1924501   0.0526736), wk =   0.0555556
        k(   30) = (   0.0000000  -0.1924501   0.1053471), wk =   0.0555556
        k(   31) = (   0.0000000  -0.3849002   0.0526736), wk =   0.0555556
        k(   32) = (   0.0000000  -0.3849002   0.1053471), wk =   0.0555556
        k(   33) = (  -0.1666667  -0.4811252   0.0526736), wk =   0.1111111
        k(   34) = (  -0.1666667  -0.4811252   0.1053471), wk =   0.1111111

                       cryst. coord.
        k(    1) = (   0.0000000   0.0000000   0.0000000), wk =   0.0092593
        k(    2) = (   0.0000000   0.0000000   0.1666667), wk =   0.0185185
        k(    3) = (   0.0000000   0.0000000   0.3333333), wk =   0.0185185
        k(    4) = (   0.0000000   0.0000000  -0.5000000), wk =   0.0092593
        k(    5) = (   0.0000000   0.1666667   0.0000000), wk =   0.0555556
        k(    6) = (   0.0000000   0.1666667   0.1666667), wk =   0.0555556
        k(    7) = (   0.0000000   0.1666667   0.3333333), wk =   0.0555556
        k(    8) = (   0.0000000   0.1666667  -0.5000000), wk =   0.0555556
        k(    9) = (   0.0000000   0.3333333   0.0000000), wk =   0.0555556
        k(   10) = (   0.0000000   0.3333333   0.1666667), wk =   0.0555556
        k(   11) = (   0.0000000   0.3333333   0.3333333), wk =   0.0555556
        k(   12) = (   0.0000000   0.3333333  -0.5000000), wk =   0.0555556
        k(   13) = (   0.0000000  -0.5000000   0.0000000), wk =   0.0277778
        k(   14) = (   0.0000000  -0.5000000   0.1666667), wk =   0.0555556
        k(   15) = (   0.0000000  -0.5000000   0.3333333), wk =   0.0555556
        k(   16) = (   0.0000000  -0.5000000  -0.5000000), wk =   0.0277778
        k(   17) = (   0.1666667   0.1666667   0.0000000), wk =   0.0555556
        k(   18) = (   0.1666667   0.1666667   0.1666667), wk =   0.1111111
        k(   19) = (   0.1666667   0.1666667   0.3333333), wk =   0.1111111
        k(   20) = (   0.1666667   0.1666667  -0.5000000), wk =   0.0555556
        k(   21) = (   0.1666667   0.3333333   0.0000000), wk =   0.1111111
        k(   22) = (   0.1666667   0.3333333   0.1666667), wk =   0.1111111
        k(   23) = (   0.1666667   0.3333333   0.3333333), wk =   0.1111111
        k(   24) = (   0.1666667   0.3333333  -0.5000000), wk =   0.1111111
        k(   25) = (   0.3333333   0.3333333   0.0000000), wk =   0.0185185
        k(   26) = (   0.3333333   0.3333333   0.1666667), wk =   0.0370370
        k(   27) = (   0.3333333   0.3333333   0.3333333), wk =   0.0370370
        k(   28) = (   0.3333333   0.3333333  -0.5000000), wk =   0.0185185
        k(   29) = (   0.0000000  -0.1666667   0.1666667), wk =   0.0555556
        k(   30) = (   0.0000000  -0.1666667   0.3333333), wk =   0.0555556
        k(   31) = (   0.0000000  -0.3333333   0.1666667), wk =   0.0555556
        k(   32) = (   0.0000000  -0.3333333   0.3333333), wk =   0.0555556
        k(   33) = (  -0.1666667  -0.3333333   0.1666667), wk =   0.1111111
        k(   34) = (  -0.1666667  -0.3333333   0.3333333), wk =   0.1111111

     Check: negative core charge=   -0.000002

     Initial potential from superposition of free atoms

     starting charge      71.9851, renormalised to      72.0000
     Starting wfcs are   52 randomized atomic wfcs

     Self-consistent Calculation

     iteration #  1     ecut=    50.00 Ry     beta= 0.30
     Davidson diagonalization with overlap

     ethr =  1.00E-02,  avg # of iterations =  1.7

     total energy              =    -722.90991419 Ry
     estimated scf accuracy    <       1.46169778 Ry

[...]

     c_bands:  1 eigenvalues not converged
     ethr =  4.70E-06,  avg # of iterations = 10.4

[...]

     c_bands:  1 eigenvalues not converged
     ethr =  4.27E-10,  avg # of iterations =  9.6

[...]

     total energy              =    -723.25201129 Ry
     estimated scf accuracy    <       0.00000002 Ry

     iteration # 50     ecut=    50.00 Ry     beta= 0.30
     Davidson diagonalization with overlap

     ethr =  2.31E-11,  avg # of iterations =  1.9

     End of self-consistent calculation

          k = 0.0000 0.0000 0.0000 (  4335 PWs)   bands (ev):

   -11.6444 -11.3633 -11.3633 -11.0709   0.2470   0.2470   0.3553   0.3553
     0.3739   0.4141   0.4141   0.4141   0.4141   0.5191   0.5191   0.8012
     1.1881   1.1881   1.2908   1.2908   1.2908   1.2908   1.3550   1.3550
     1.5935   3.4149   3.4149   4.8227   4.8227   5.1792   5.1792   5.1792
     5.1792   5.5070   5.5240   5.5240

     occupation numbers
     1.0000   1.0000   1.0000   1.0000   1.0000   1.0000   1.0000   1.0000
     1.0000   1.0000   1.0000   1.0000   1.0000   1.0000   1.0000   1.0000
     1.0000   1.0000   1.0000   1.0000   1.0000   1.0000   1.0000   1.0000
     1.0000   1.0000   1.0000   1.0000   1.0000   1.0000   1.0000   1.0000
     1.0000   1.0000   1.0000   1.0000

[...]

          k = 0.0000-0.3849 0.1053 (  4342 PWs)   bands (ev):

[...]

          k =-0.1667-0.4811 0.0527 (  4343 PWs)   bands (ev):

[...]

          k =-0.1667-0.4811 0.1053 (  4345 PWs)   bands (ev):

   -11.1203 -11.0832 -10.9902 -10.9595   0.2525   0.3028   0.3514   0.4841
     0.5891   0.5987   0.7358   0.7610   0.8321   0.8475   0.9160   0.9585
     1.1986   1.2566   1.2854   1.3050   1.3987   1.4108   1.5055   1.5473
     2.0199   2.1089   2.4088   2.5292   3.1550   3.4457   3.5492   4.0138
     4.2213   4.4388   4.6035   4.6850

     occupation numbers
     1.0000   1.0000   1.0000   1.0000   1.0000   1.0000   1.0000   1.0000
     1.0000   1.0000   1.0000   1.0000   1.0000   1.0000   1.0000   1.0000
     1.0000   1.0000   1.0000   1.0000   1.0000   1.0000   1.0000   1.0000
     1.0000   1.0000   1.0000   1.0000   1.0000   1.0000   1.0000   1.0000
     1.0000   1.0000   1.0000   1.0000

     highest occupied level (ev):     5.5240

!    total energy              =    -723.25201077 Ry
     estimated scf accuracy    <          5.9E-09 Ry

     The total energy is the sum of the following terms:
     one-electron contribution =    -331.34050360 Ry
     hartree contribution      =     244.61004031 Ry
     xc contribution           =    -218.71654693 Ry
     ewald contribution        =    -417.80500055 Ry

     convergence has been achieved in  50 iterations

     Forces acting on atoms (cartesian axes, Ry/au):

     atom    1 type  1   force =     0.00000000    0.00000000   -0.00318840
     atom    2 type  1   force =     0.00000000    0.00000000   -0.00318734
     atom    3 type  2   force =     0.00000000   -0.00000000    0.00319245
     atom    4 type  2   force =     0.00000000    0.00000000    0.00318716
     atom    5 type  1   force =     0.00000000    0.00000000   -0.00319470
     atom    6 type  1   force =     0.00000000   -0.00000000   -0.00319794
     atom    7 type  2   force =     0.00000000    0.00000000    0.00319423
     atom    8 type  2   force =     0.00000000   -0.00000000    0.00319456
     The non-local contrib.  to forces
     atom    1 type  1   force =     0.00000000    0.00000000   -0.05961554
     atom    2 type  1   force =     0.00000000    0.00000000   -0.05962162
     atom    3 type  2   force =     0.00000000    0.00000000   -0.04380718
     atom    4 type  2   force =     0.00000000    0.00000000   -0.04381544
     atom    5 type  1   force =     0.00000000   -0.00000000   -0.05963110
     atom    6 type  1   force =     0.00000000   -0.00000000   -0.05962723
     atom    7 type  2   force =     0.00000000    0.00000000   -0.04381533
     atom    8 type  2   force =     0.00000000   -0.00000000   -0.04381338
     The ionic contribution  to forces
     atom    1 type  1   force =    -0.00000000    0.00000000   -0.33120450
     atom    2 type  1   force =     0.00000000   -0.00000000   -0.33120450
     atom    3 type  2   force =    -0.00000000    0.00000000    0.33120450
     atom    4 type  2   force =     0.00000000   -0.00000000    0.33120450
     atom    5 type  1   force =    -0.00000000    0.00000000   -0.33120450
     atom    6 type  1   force =     0.00000000   -0.00000000   -0.33120450
     atom    7 type  2   force =    -0.00000000    0.00000000    0.33120450
     atom    8 type  2   force =     0.00000000   -0.00000000    0.33120450
     The local contribution  to forces
     atom    1 type  1   force =    -0.00000004    0.00000003    0.38355664
     atom    2 type  1   force =     0.00000004   -0.00000003    0.38356290
     atom    3 type  2   force =    -0.00000001    0.00000001   -0.28454468
     atom    4 type  2   force =     0.00000001   -0.00000001   -0.28454757
     atom    5 type  1   force =    -0.00000004    0.00000003    0.38357317
     atom    6 type  1   force =     0.00000004   -0.00000003    0.38357220
     atom    7 type  2   force =    -0.00000001    0.00000001   -0.28453877
     atom    8 type  2   force =     0.00000001   -0.00000001   -0.28453681
     The core correction contribution to forces
     atom    1 type  1   force =    -0.00000001    0.00000000    0.00406854
     atom    2 type  1   force =     0.00000001   -0.00000000    0.00406543
     atom    3 type  2   force =     0.00000000   -0.00000000    0.00034505
     atom    4 type  2   force =    -0.00000000    0.00000000    0.00034625
     atom    5 type  1   force =    -0.00000001    0.00000000    0.00406635
     atom    6 type  1   force =     0.00000001   -0.00000000    0.00406936
     atom    7 type  2   force =     0.00000000   -0.00000000    0.00034535
     atom    8 type  2   force =    -0.00000000    0.00000000    0.00034424
     The Hubbard contrib.    to forces
     atom    1 type  1   force =     0.00000000    0.00000000    0.00000000
     atom    2 type  1   force =     0.00000000    0.00000000    0.00000000
     atom    3 type  2   force =     0.00000000    0.00000000    0.00000000
     atom    4 type  2   force =     0.00000000    0.00000000    0.00000000
     atom    5 type  1   force =     0.00000000    0.00000000    0.00000000
     atom    6 type  1   force =     0.00000000    0.00000000    0.00000000
     atom    7 type  2   force =     0.00000000    0.00000000    0.00000000
     atom    8 type  2   force =     0.00000000    0.00000000    0.00000000
     The SCF correction term to forces
     atom    1 type  1   force =     0.00000000   -0.00000000    0.00000752
     atom    2 type  1   force =    -0.00000000    0.00000000    0.00001151
     atom    3 type  2   force =    -0.00000000    0.00000000   -0.00000418
     atom    4 type  2   force =     0.00000000   -0.00000000    0.00000049
     atom    5 type  1   force =     0.00000000   -0.00000000    0.00000246
     atom    6 type  1   force =    -0.00000000    0.00000000   -0.00000671
     atom    7 type  2   force =    -0.00000000    0.00000000   -0.00000045
     atom    8 type  2   force =     0.00000000   -0.00000000   -0.00000293

     Total force =     0.009029     Total SCF correction =     0.000016

     General routines

     Parallel routines

   This run was terminated on:  10:43:10  27Aug2025

   JOB DONE.