     Program PWSCF v.7.0 starts on 26Aug2025 at 14: 6: 5

     K-points division:     npool     =       4
     band groups division:  nbgrp     =       4

     Reading input from /home/jvc/QEspresso7.2/ZnO_database/scripts/cell112.in/ZnO-3.07-1.71-112.in
Warning: card &CELL ignored
Warning: card / ignored
Warning: card &FCP ignored
Warning: card / ignored
Warning: card &RISM ignored
Warning: card / ignored

     Current dimensions of program PWSCF are:
     Max number of different atomic species (ntypx) = 10
     Max number of k-points (npk) =  40000
     Max angular momentum in pseudopotentials (lmaxx) =  4
     file Zn.upf: wavefunction(s)  3D renormalized
     Found identity + (  0.0000  0.0000 -0.5000) symmetry
     This is a supercell, fractional translations are disabled
     Message from routine setup:
     using ibrav=0 with symmetry is DISCOURAGED, use correct ibrav instead

     Subspace diagonalization in iterative solution of the eigenvalue problem:
     a serial algorithm will be used

     Using Slab Decomposition

     bravais-lattice index     =            0
     lattice parameter (alat)  =       5.8081  a.u.
     unit-cell volume          =     580.7294 (a.u.)^3
     number of atoms/cell      =            8
     number of atomic types    =            2
     number of electrons       =        72.00
     number of Kohn-Sham states=           36
     kinetic-energy cutoff     =      50.0000  Ry
     charge density cutoff     =     400.0000  Ry
     scf convergence threshold =      1.0E-08
     mixing beta               =       0.3000
     number of iterations used =            8  plain     mixing
     Exchange-correlation= PBE
                           (   1   4   3   4   0   0   0)

     celldm(1)=   5.808123  celldm(2)=   0.000000  celldm(3)=   0.000000
     celldm(4)=   0.000000  celldm(5)=   0.000000  celldm(6)=   0.000000

     crystal axes: (cart. coord. in units of alat)
               a(1) = (   1.000000   0.000000   0.000000 )
               a(2) = (  -0.500000   0.866025   0.000000 )
               a(3) = (   0.000000   0.000000   3.422440 )

     reciprocal axes: (cart. coord. in units 2 pi/alat)
               b(1) = (  1.000000  0.577350 -0.000000 )
               b(2) = (  0.000000  1.154701  0.000000 )
               b(3) = (  0.000000 -0.000000  0.292189 )

     PseudoPot. # 1 for Zn read from file:
     /home/jvc/QEspresso7.2/ZnO_database/pseudos/Zn.upf
     MD5 check sum: 7f56cabf9682ed8c977c2f7d0c5985c5
     Pseudo is Ultrasoft + core correction, Zval = 12.0
     Generated using &quot;atomic&quot; code by A. Dal Corso  v.6.2.2
     Using radial grid of 1201 points,  6 beta functions with:
                l(1) =   0
                l(2) =   0
                l(3) =   1
                l(4) =   1
                l(5) =   2
                l(6) =   2
     Q(r) pseudized with 0 coefficients

     PseudoPot. # 2 for O  read from file:
     /home/jvc/QEspresso7.2/ZnO_database/pseudos/O.upf
     MD5 check sum: 91400c9766925bcf19f520983a725ff0
     Pseudo is Ultrasoft + core correction, Zval =  6.0
     Generated using &quot;atomic&quot; code by A. Dal Corso  v.6.3MaX
     Using radial grid of 1095 points,  4 beta functions with:
                l(1) =   0
                l(2) =   0
                l(3) =   1
                l(4) =   1
     Q(r) pseudized with 0 coefficients

     atomic species   valence    mass     pseudopotential
        Zn            12.00    65.38000     Zn( 1.00)
        O              6.00    15.99900     O ( 1.00)

      6 Sym. Ops. (no inversion) found

                                    s                        frac. trans.

      isym =  1     identity

 cryst.   s( 1) = (     1          0          0      )
                  (     0          1          0      )
                  (     0          0          1      )

 cart.    s( 1) = (  1.0000000  0.0000000  0.0000000 )
                  (  0.0000000  1.0000000  0.0000000 )
                  (  0.0000000  0.0000000  1.0000000 )

      isym =  2     120 deg rotation - cryst. axis [0,0,1]

[...]

      isym =  3     120 deg rotation - cryst. axis [0,0,-1]

[...]

      isym =  4     inv. 180 deg rotation - cart. axis [1,0,0]

[...]

      isym =  5     inv. 180 deg rotation - cryst. axis [0,1,0]

[...]

      isym =  6     inv. 180 deg rotation - cryst. axis [1,1,0]

 cryst.   s( 6) = (     0         -1          0      )
                  (    -1          0          0      )
                  (     0          0          1      )

 cart.    s( 6) = (  0.5000000 -0.8660254  0.0000000 )
                  ( -0.8660254 -0.5000000  0.0000000 )
                  (  0.0000000  0.0000000  1.0000000 )

   Cartesian axes

     site n.     atom                  positions (alat units)
         1           Zn  tau(   1) = (   0.5000000   0.2886751   0.8566941  )
         2           Zn  tau(   2) = (  -0.0000000   0.5773503   0.0010842  )
         3           O   tau(   3) = (   0.5000000   0.2886751   1.5053197  )
         4           O   tau(   4) = (  -0.0000000   0.5773503   0.6497098  )
         5           Zn  tau(   5) = (   0.5000000   0.2886751   2.5679140  )
         6           Zn  tau(   6) = (  -0.0000000   0.5773503   1.7123041  )
         7           O   tau(   7) = (   0.5000000   0.2886751   3.2165396  )
         8           O   tau(   8) = (  -0.0000000   0.5773503   2.3609297  )

   Crystallographic axes

     site n.     atom                  positions (cryst. coord.)
         1           Zn  tau(   1) = (  0.6666667  0.3333333  0.2503168  )
         2           Zn  tau(   2) = (  0.3333333  0.6666667  0.0003168  )
         3           O   tau(   3) = (  0.6666667  0.3333333  0.4398382  )
         4           O   tau(   4) = (  0.3333333  0.6666667  0.1898382  )
         5           Zn  tau(   5) = (  0.6666667  0.3333333  0.7503168  )
         6           Zn  tau(   6) = (  0.3333333  0.6666667  0.5003168  )
         7           O   tau(   7) = (  0.6666667  0.3333333  0.9398382  )
         8           O   tau(   8) = (  0.3333333  0.6666667  0.6898382  )

     number of k points=    34
                       cart. coord. in units 2pi/alat
        k(    1) = (   0.0000000   0.0000000   0.0000000), wk =   0.0092593
        k(    2) = (   0.0000000   0.0000000   0.0486982), wk =   0.0185185
        k(    3) = (   0.0000000   0.0000000   0.0973964), wk =   0.0185185
        k(    4) = (   0.0000000   0.0000000  -0.1460946), wk =   0.0092593
        k(    5) = (   0.0000000   0.1924501   0.0000000), wk =   0.0555556
        k(    6) = (   0.0000000   0.1924501   0.0486982), wk =   0.0555556
        k(    7) = (   0.0000000   0.1924501   0.0973964), wk =   0.0555556
        k(    8) = (   0.0000000   0.1924501  -0.1460946), wk =   0.0555556
        k(    9) = (   0.0000000   0.3849002   0.0000000), wk =   0.0555556
        k(   10) = (   0.0000000   0.3849002   0.0486982), wk =   0.0555556
        k(   11) = (   0.0000000   0.3849002   0.0973964), wk =   0.0555556
        k(   12) = (   0.0000000   0.3849002  -0.1460946), wk =   0.0555556
        k(   13) = (   0.0000000  -0.5773503   0.0000000), wk =   0.0277778
        k(   14) = (   0.0000000  -0.5773503   0.0486982), wk =   0.0555556
        k(   15) = (   0.0000000  -0.5773503   0.0973964), wk =   0.0555556
        k(   16) = (   0.0000000  -0.5773503  -0.1460946), wk =   0.0277778
        k(   17) = (   0.1666667   0.2886751   0.0000000), wk =   0.0555556
        k(   18) = (   0.1666667   0.2886751   0.0486982), wk =   0.1111111
        k(   19) = (   0.1666667   0.2886751   0.0973964), wk =   0.1111111
        k(   20) = (   0.1666667   0.2886751  -0.1460946), wk =   0.0555556
        k(   21) = (   0.1666667   0.4811252   0.0000000), wk =   0.1111111
        k(   22) = (   0.1666667   0.4811252   0.0486982), wk =   0.1111111
        k(   23) = (   0.1666667   0.4811252   0.0973964), wk =   0.1111111
        k(   24) = (   0.1666667   0.4811252  -0.1460946), wk =   0.1111111
        k(   25) = (   0.3333333   0.5773503   0.0000000), wk =   0.0185185
        k(   26) = (   0.3333333   0.5773503   0.0486982), wk =   0.0370370
        k(   27) = (   0.3333333   0.5773503   0.0973964), wk =   0.0370370
        k(   28) = (   0.3333333   0.5773503  -0.1460946), wk =   0.0185185
        k(   29) = (   0.0000000  -0.1924501   0.0486982), wk =   0.0555556
        k(   30) = (   0.0000000  -0.1924501   0.0973964), wk =   0.0555556
        k(   31) = (   0.0000000  -0.3849002   0.0486982), wk =   0.0555556
        k(   32) = (   0.0000000  -0.3849002   0.0973964), wk =   0.0555556
        k(   33) = (  -0.1666667  -0.4811252   0.0486982), wk =   0.1111111
        k(   34) = (  -0.1666667  -0.4811252   0.0973964), wk =   0.1111111

                       cryst. coord.
        k(    1) = (   0.0000000   0.0000000   0.0000000), wk =   0.0092593
        k(    2) = (   0.0000000   0.0000000   0.1666667), wk =   0.0185185
        k(    3) = (   0.0000000   0.0000000   0.3333333), wk =   0.0185185
        k(    4) = (   0.0000000   0.0000000  -0.5000000), wk =   0.0092593
        k(    5) = (   0.0000000   0.1666667   0.0000000), wk =   0.0555556
        k(    6) = (   0.0000000   0.1666667   0.1666667), wk =   0.0555556
        k(    7) = (   0.0000000   0.1666667   0.3333333), wk =   0.0555556
        k(    8) = (   0.0000000   0.1666667  -0.5000000), wk =   0.0555556
        k(    9) = (   0.0000000   0.3333333   0.0000000), wk =   0.0555556
        k(   10) = (   0.0000000   0.3333333   0.1666667), wk =   0.0555556
        k(   11) = (   0.0000000   0.3333333   0.3333333), wk =   0.0555556
        k(   12) = (   0.0000000   0.3333333  -0.5000000), wk =   0.0555556
        k(   13) = (   0.0000000  -0.5000000   0.0000000), wk =   0.0277778
        k(   14) = (   0.0000000  -0.5000000   0.1666667), wk =   0.0555556
        k(   15) = (   0.0000000  -0.5000000   0.3333333), wk =   0.0555556
        k(   16) = (   0.0000000  -0.5000000  -0.5000000), wk =   0.0277778
        k(   17) = (   0.1666667   0.1666667   0.0000000), wk =   0.0555556
        k(   18) = (   0.1666667   0.1666667   0.1666667), wk =   0.1111111
        k(   19) = (   0.1666667   0.1666667   0.3333333), wk =   0.1111111
        k(   20) = (   0.1666667   0.1666667  -0.5000000), wk =   0.0555556
        k(   21) = (   0.1666667   0.3333333   0.0000000), wk =   0.1111111
        k(   22) = (   0.1666667   0.3333333   0.1666667), wk =   0.1111111
        k(   23) = (   0.1666667   0.3333333   0.3333333), wk =   0.1111111
        k(   24) = (   0.1666667   0.3333333  -0.5000000), wk =   0.1111111
        k(   25) = (   0.3333333   0.3333333   0.0000000), wk =   0.0185185
        k(   26) = (   0.3333333   0.3333333   0.1666667), wk =   0.0370370
        k(   27) = (   0.3333333   0.3333333   0.3333333), wk =   0.0370370
        k(   28) = (   0.3333333   0.3333333  -0.5000000), wk =   0.0185185
        k(   29) = (   0.0000000  -0.1666667   0.1666667), wk =   0.0555556
        k(   30) = (   0.0000000  -0.1666667   0.3333333), wk =   0.0555556
        k(   31) = (   0.0000000  -0.3333333   0.1666667), wk =   0.0555556
        k(   32) = (   0.0000000  -0.3333333   0.3333333), wk =   0.0555556
        k(   33) = (  -0.1666667  -0.3333333   0.1666667), wk =   0.1111111
        k(   34) = (  -0.1666667  -0.3333333   0.3333333), wk =   0.1111111

     Check: negative core charge=   -0.000002

     Initial potential from superposition of free atoms

     starting charge      71.9851, renormalised to      72.0000
     Starting wfcs are   52 randomized atomic wfcs

     Self-consistent Calculation

     iteration #  1     ecut=    50.00 Ry     beta= 0.30
     Davidson diagonalization with overlap

     ethr =  1.00E-02,  avg # of iterations =  2.0

     total energy              =    -722.91055557 Ry
     estimated scf accuracy    <       1.34893071 Ry

[...]

     c_bands:  1 eigenvalues not converged
     ethr =  1.26E-08,  avg # of iterations = 12.9

[...]

     c_bands:  1 eigenvalues not converged
     ethr =  2.87E-11,  avg # of iterations = 11.4

[...]

     total energy              =    -723.19785582 Ry
     estimated scf accuracy    <       0.00000005 Ry

     iteration # 17     ecut=    50.00 Ry     beta= 0.30
     Davidson diagonalization with overlap

     ethr =  2.87E-11,  avg # of iterations =  6.9

     End of self-consistent calculation

          k = 0.0000 0.0000 0.0000 (  3513 PWs)   bands (ev):

   -10.0940  -9.7204  -9.7204  -9.3176   2.2683   2.3158   2.3158   2.5893
     2.5893   2.6638   2.6677   2.6677   2.6677   2.6677   2.7806   2.7806
     4.1725   4.1725   4.2967   4.2967   4.2967   4.2967   4.3911   4.3911
     4.7653   6.4122   6.4122   8.2103   8.2103   8.5934   8.5934   8.5934
     8.5934   8.6649   8.9751   8.9751

     occupation numbers
     1.0000   1.0000   1.0000   1.0000   1.0000   1.0000   1.0000   1.0000
     1.0000   1.0000   1.0000   1.0000   1.0000   1.0000   1.0000   1.0000
     1.0000   1.0000   1.0000   1.0000   1.0000   1.0000   1.0000   1.0000
     1.0000   1.0000   1.0000   1.0000   1.0000   1.0000   1.0000   1.0000
     1.0000   1.0000   1.0000   1.0000

[...]

          k = 0.0000-0.3849 0.0974 (  3459 PWs)   bands (ev):

[...]

          k =-0.1667-0.4811 0.0487 (  3456 PWs)   bands (ev):

[...]

          k =-0.1667-0.4811 0.0974 (  3459 PWs)   bands (ev):

    -9.2049  -9.1559  -9.0310  -8.9888   2.2297   2.3033   2.3175   2.4836
     2.8998   2.9206   3.0798   3.1566   3.3362   3.3564   3.4096   3.4330
     4.1021   4.2114   4.2916   4.3382   4.4808   4.4873   4.6321   4.7301
     4.7727   4.9628   5.3446   5.4289   5.8649   6.2300   6.2773   6.6398
     7.1396   7.3138   7.5188   7.5782

     occupation numbers
     1.0000   1.0000   1.0000   1.0000   1.0000   1.0000   1.0000   1.0000
     1.0000   1.0000   1.0000   1.0000   1.0000   1.0000   1.0000   1.0000
     1.0000   1.0000   1.0000   1.0000   1.0000   1.0000   1.0000   1.0000
     1.0000   1.0000   1.0000   1.0000   1.0000   1.0000   1.0000   1.0000
     1.0000   1.0000   1.0000   1.0000

     highest occupied level (ev):     8.9751

!    total energy              =    -723.19785583 Ry
     estimated scf accuracy    <          6.7E-09 Ry

     The total energy is the sum of the following terms:
     one-electron contribution =    -279.65056715 Ry
     hartree contribution      =     226.31660556 Ry
     xc contribution           =    -219.65776709 Ry
     ewald contribution        =    -450.20612715 Ry

     convergence has been achieved in  17 iterations

     Forces acting on atoms (cartesian axes, Ry/au):

     atom    1 type  1   force =     0.00000000    0.00000000    0.03073320
     atom    2 type  1   force =     0.00000000    0.00000000    0.03074092
     atom    3 type  2   force =     0.00000000    0.00000000   -0.03073937
     atom    4 type  2   force =     0.00000000   -0.00000000   -0.03074017
     atom    5 type  1   force =     0.00000000    0.00000000    0.03074579
     atom    6 type  1   force =     0.00000000    0.00000000    0.03073883
     atom    7 type  2   force =     0.00000000    0.00000000   -0.03073974
     atom    8 type  2   force =     0.00000000    0.00000000   -0.03073947
     The non-local contrib.  to forces
     atom    1 type  1   force =     0.00000000   -0.00000000    0.16814712
     atom    2 type  1   force =     0.00000000    0.00000000    0.16814986
     atom    3 type  2   force =     0.00000000    0.00000000    0.14123210
     atom    4 type  2   force =     0.00000000   -0.00000000    0.14123215
     atom    5 type  1   force =     0.00000000    0.00000000    0.16815193
     atom    6 type  1   force =     0.00000000   -0.00000000    0.16814692
     atom    7 type  2   force =     0.00000000    0.00000000    0.14123038
     atom    8 type  2   force =     0.00000000   -0.00000000    0.14123066
     The ionic contribution  to forces
     atom    1 type  1   force =    -0.00000000    0.00000000    1.37965181
     atom    2 type  1   force =     0.00000000   -0.00000000    1.37965181
     atom    3 type  2   force =    -0.00000000    0.00000000   -1.37965181
     atom    4 type  2   force =     0.00000000   -0.00000000   -1.37965181
     atom    5 type  1   force =    -0.00000000    0.00000000    1.37965181
     atom    6 type  1   force =     0.00000000   -0.00000000    1.37965181
     atom    7 type  2   force =    -0.00000000    0.00000000   -1.37965181
     atom    8 type  2   force =     0.00000000   -0.00000000   -1.37965181
     The local contribution  to forces
     atom    1 type  1   force =    -0.00000004    0.00000002   -1.50367010
     atom    2 type  1   force =     0.00000004   -0.00000002   -1.50367964
     atom    3 type  2   force =    -0.00000001    0.00000001    1.20872452
     atom    4 type  2   force =     0.00000001   -0.00000001    1.20872488
     atom    5 type  1   force =    -0.00000004    0.00000002   -1.50368460
     atom    6 type  1   force =     0.00000004   -0.00000002   -1.50367316
     atom    7 type  2   force =    -0.00000001    0.00000001    1.20872256
     atom    8 type  2   force =     0.00000001   -0.00000001    1.20872087
     The core correction contribution to forces
     atom    1 type  1   force =    -0.00000001    0.00000000   -0.01337816
     atom    2 type  1   force =     0.00000001   -0.00000000   -0.01337812
     atom    3 type  2   force =     0.00000000   -0.00000000   -0.00103501
     atom    4 type  2   force =    -0.00000000    0.00000000   -0.00103501
     atom    5 type  1   force =    -0.00000001    0.00000000   -0.01337811
     atom    6 type  1   force =     0.00000001   -0.00000000   -0.01337815
     atom    7 type  2   force =     0.00000000   -0.00000000   -0.00103498
     atom    8 type  2   force =    -0.00000000    0.00000000   -0.00103499
     The Hubbard contrib.    to forces
     atom    1 type  1   force =     0.00000000    0.00000000    0.00000000
     atom    2 type  1   force =     0.00000000    0.00000000    0.00000000
     atom    3 type  2   force =     0.00000000    0.00000000    0.00000000
     atom    4 type  2   force =     0.00000000    0.00000000    0.00000000
     atom    5 type  1   force =     0.00000000    0.00000000    0.00000000
     atom    6 type  1   force =     0.00000000    0.00000000    0.00000000
     atom    7 type  2   force =     0.00000000    0.00000000    0.00000000
     atom    8 type  2   force =     0.00000000    0.00000000    0.00000000
     The SCF correction term to forces
     atom    1 type  1   force =    -0.00000000    0.00000000   -0.00002073
     atom    2 type  1   force =     0.00000000   -0.00000000   -0.00000625
     atom    3 type  2   force =    -0.00000000    0.00000000   -0.00001243
     atom    4 type  2   force =     0.00000000   -0.00000000   -0.00001364
     atom    5 type  1   force =    -0.00000000    0.00000000    0.00000151
     atom    6 type  1   force =     0.00000000   -0.00000000   -0.00001185
     atom    7 type  2   force =    -0.00000000    0.00000000   -0.00000914
     atom    8 type  2   force =     0.00000000   -0.00000000   -0.00000746

     Total force =     0.086945     Total SCF correction =     0.000033

     General routines

     Parallel routines

   This run was terminated on:  14: 8:46  26Aug2025

   JOB DONE.