     Program PWSCF v.7.0 starts on 26Aug2025 at 13: 5:20

     K-points division:     npool     =       4
     band groups division:  nbgrp     =       4

     Reading input from /home/jvc/QEspresso7.2/ZnO_database/scripts/cell112.in/ZnO-2.94-1.52-112.in
Warning: card &CELL ignored
Warning: card / ignored
Warning: card &FCP ignored
Warning: card / ignored
Warning: card &RISM ignored
Warning: card / ignored

     Current dimensions of program PWSCF are:
     Max number of different atomic species (ntypx) = 10
     Max number of k-points (npk) =  40000
     Max angular momentum in pseudopotentials (lmaxx) =  4
     file Zn.upf: wavefunction(s)  3D renormalized
     Found identity + (  0.0000  0.0000 -0.5000) symmetry
     This is a supercell, fractional translations are disabled
     Message from routine setup:
     using ibrav=0 with symmetry is DISCOURAGED, use correct ibrav instead

     Subspace diagonalization in iterative solution of the eigenvalue problem:
     a serial algorithm will be used

     Using Slab Decomposition

     bravais-lattice index     =            0
     lattice parameter (alat)  =       5.5610  a.u.
     unit-cell volume          =     452.0014 (a.u.)^3
     number of atoms/cell      =            8
     number of atomic types    =            2
     number of electrons       =        72.00
     number of Kohn-Sham states=           36
     kinetic-energy cutoff     =      50.0000  Ry
     charge density cutoff     =     400.0000  Ry
     scf convergence threshold =      1.0E-08
     mixing beta               =       0.3000
     number of iterations used =            8  plain     mixing
     Exchange-correlation= PBE
                           (   1   4   3   4   0   0   0)

     celldm(1)=   5.560969  celldm(2)=   0.000000  celldm(3)=   0.000000
     celldm(4)=   0.000000  celldm(5)=   0.000000  celldm(6)=   0.000000

     crystal axes: (cart. coord. in units of alat)
               a(1) = (   1.000000   0.000000   0.000000 )
               a(2) = (  -0.500000   0.866025   0.000000 )
               a(3) = (   0.000000   0.000000   3.034994 )

     reciprocal axes: (cart. coord. in units 2 pi/alat)
               b(1) = (  1.000000  0.577350 -0.000000 )
               b(2) = (  0.000000  1.154701  0.000000 )
               b(3) = (  0.000000 -0.000000  0.329490 )

     PseudoPot. # 1 for Zn read from file:
     /home/jvc/QEspresso7.2/ZnO_database/pseudos/Zn.upf
     MD5 check sum: 7f56cabf9682ed8c977c2f7d0c5985c5
     Pseudo is Ultrasoft + core correction, Zval = 12.0
     Generated using &quot;atomic&quot; code by A. Dal Corso  v.6.2.2
     Using radial grid of 1201 points,  6 beta functions with:
                l(1) =   0
                l(2) =   0
                l(3) =   1
                l(4) =   1
                l(5) =   2
                l(6) =   2
     Q(r) pseudized with 0 coefficients

     PseudoPot. # 2 for O  read from file:
     /home/jvc/QEspresso7.2/ZnO_database/pseudos/O.upf
     MD5 check sum: 91400c9766925bcf19f520983a725ff0
     Pseudo is Ultrasoft + core correction, Zval =  6.0
     Generated using &quot;atomic&quot; code by A. Dal Corso  v.6.3MaX
     Using radial grid of 1095 points,  4 beta functions with:
                l(1) =   0
                l(2) =   0
                l(3) =   1
                l(4) =   1
     Q(r) pseudized with 0 coefficients

     atomic species   valence    mass     pseudopotential
        Zn            12.00    65.38000     Zn( 1.00)
        O              6.00    15.99900     O ( 1.00)

      6 Sym. Ops. (no inversion) found

                                    s                        frac. trans.

      isym =  1     identity

 cryst.   s( 1) = (     1          0          0      )
                  (     0          1          0      )
                  (     0          0          1      )

 cart.    s( 1) = (  1.0000000  0.0000000  0.0000000 )
                  (  0.0000000  1.0000000  0.0000000 )
                  (  0.0000000  0.0000000  1.0000000 )

      isym =  2     120 deg rotation - cryst. axis [0,0,1]

[...]

      isym =  3     120 deg rotation - cryst. axis [0,0,-1]

[...]

      isym =  4     inv. 180 deg rotation - cart. axis [1,0,0]

[...]

      isym =  5     inv. 180 deg rotation - cryst. axis [0,1,0]

[...]

      isym =  6     inv. 180 deg rotation - cryst. axis [1,1,0]

 cryst.   s( 6) = (     0         -1          0      )
                  (    -1          0          0      )
                  (     0          0          1      )

 cart.    s( 6) = (  0.5000000 -0.8660254  0.0000000 )
                  ( -0.8660254 -0.5000000  0.0000000 )
                  (  0.0000000  0.0000000  1.0000000 )

   Cartesian axes

     site n.     atom                  positions (alat units)
         1           Zn  tau(   1) = (   0.5000000   0.2886751   0.7597099  )
         2           Zn  tau(   2) = (  -0.0000000   0.5773503   0.0009615  )
         3           O   tau(   3) = (   0.5000000   0.2886751   1.3349062  )
         4           O   tau(   4) = (  -0.0000000   0.5773503   0.5761578  )
         5           Zn  tau(   5) = (   0.5000000   0.2886751   2.2772067  )
         6           Zn  tau(   6) = (  -0.0000000   0.5773503   1.5184583  )
         7           O   tau(   7) = (   0.5000000   0.2886751   2.8524030  )
         8           O   tau(   8) = (  -0.0000000   0.5773503   2.0936546  )

   Crystallographic axes

     site n.     atom                  positions (cryst. coord.)
         1           Zn  tau(   1) = (  0.6666667  0.3333333  0.2503168  )
         2           Zn  tau(   2) = (  0.3333333  0.6666667  0.0003168  )
         3           O   tau(   3) = (  0.6666667  0.3333333  0.4398382  )
         4           O   tau(   4) = (  0.3333333  0.6666667  0.1898382  )
         5           Zn  tau(   5) = (  0.6666667  0.3333333  0.7503168  )
         6           Zn  tau(   6) = (  0.3333333  0.6666667  0.5003168  )
         7           O   tau(   7) = (  0.6666667  0.3333333  0.9398382  )
         8           O   tau(   8) = (  0.3333333  0.6666667  0.6898382  )

     number of k points=    34
                       cart. coord. in units 2pi/alat
        k(    1) = (   0.0000000   0.0000000   0.0000000), wk =   0.0092593
        k(    2) = (   0.0000000   0.0000000   0.0549150), wk =   0.0185185
        k(    3) = (   0.0000000   0.0000000   0.1098300), wk =   0.0185185
        k(    4) = (   0.0000000   0.0000000  -0.1647450), wk =   0.0092593
        k(    5) = (   0.0000000   0.1924501   0.0000000), wk =   0.0555556
        k(    6) = (   0.0000000   0.1924501   0.0549150), wk =   0.0555556
        k(    7) = (   0.0000000   0.1924501   0.1098300), wk =   0.0555556
        k(    8) = (   0.0000000   0.1924501  -0.1647450), wk =   0.0555556
        k(    9) = (   0.0000000   0.3849002   0.0000000), wk =   0.0555556
        k(   10) = (   0.0000000   0.3849002   0.0549150), wk =   0.0555556
        k(   11) = (   0.0000000   0.3849002   0.1098300), wk =   0.0555556
        k(   12) = (   0.0000000   0.3849002  -0.1647450), wk =   0.0555556
        k(   13) = (   0.0000000  -0.5773503   0.0000000), wk =   0.0277778
        k(   14) = (   0.0000000  -0.5773503   0.0549150), wk =   0.0555556
        k(   15) = (   0.0000000  -0.5773503   0.1098300), wk =   0.0555556
        k(   16) = (   0.0000000  -0.5773503  -0.1647450), wk =   0.0277778
        k(   17) = (   0.1666667   0.2886751   0.0000000), wk =   0.0555556
        k(   18) = (   0.1666667   0.2886751   0.0549150), wk =   0.1111111
        k(   19) = (   0.1666667   0.2886751   0.1098300), wk =   0.1111111
        k(   20) = (   0.1666667   0.2886751  -0.1647450), wk =   0.0555556
        k(   21) = (   0.1666667   0.4811252   0.0000000), wk =   0.1111111
        k(   22) = (   0.1666667   0.4811252   0.0549150), wk =   0.1111111
        k(   23) = (   0.1666667   0.4811252   0.1098300), wk =   0.1111111
        k(   24) = (   0.1666667   0.4811252  -0.1647450), wk =   0.1111111
        k(   25) = (   0.3333333   0.5773503   0.0000000), wk =   0.0185185
        k(   26) = (   0.3333333   0.5773503   0.0549150), wk =   0.0370370
        k(   27) = (   0.3333333   0.5773503   0.1098300), wk =   0.0370370
        k(   28) = (   0.3333333   0.5773503  -0.1647450), wk =   0.0185185
        k(   29) = (   0.0000000  -0.1924501   0.0549150), wk =   0.0555556
        k(   30) = (   0.0000000  -0.1924501   0.1098300), wk =   0.0555556
        k(   31) = (   0.0000000  -0.3849002   0.0549150), wk =   0.0555556
        k(   32) = (   0.0000000  -0.3849002   0.1098300), wk =   0.0555556
        k(   33) = (  -0.1666667  -0.4811252   0.0549150), wk =   0.1111111
        k(   34) = (  -0.1666667  -0.4811252   0.1098300), wk =   0.1111111

                       cryst. coord.
        k(    1) = (   0.0000000   0.0000000   0.0000000), wk =   0.0092593
        k(    2) = (   0.0000000   0.0000000   0.1666667), wk =   0.0185185
        k(    3) = (   0.0000000   0.0000000   0.3333333), wk =   0.0185185
        k(    4) = (   0.0000000   0.0000000  -0.5000000), wk =   0.0092593
        k(    5) = (   0.0000000   0.1666667   0.0000000), wk =   0.0555556
        k(    6) = (   0.0000000   0.1666667   0.1666667), wk =   0.0555556
        k(    7) = (   0.0000000   0.1666667   0.3333333), wk =   0.0555556
        k(    8) = (   0.0000000   0.1666667  -0.5000000), wk =   0.0555556
        k(    9) = (   0.0000000   0.3333333   0.0000000), wk =   0.0555556
        k(   10) = (   0.0000000   0.3333333   0.1666667), wk =   0.0555556
        k(   11) = (   0.0000000   0.3333333   0.3333333), wk =   0.0555556
        k(   12) = (   0.0000000   0.3333333  -0.5000000), wk =   0.0555556
        k(   13) = (   0.0000000  -0.5000000   0.0000000), wk =   0.0277778
        k(   14) = (   0.0000000  -0.5000000   0.1666667), wk =   0.0555556
        k(   15) = (   0.0000000  -0.5000000   0.3333333), wk =   0.0555556
        k(   16) = (   0.0000000  -0.5000000  -0.5000000), wk =   0.0277778
        k(   17) = (   0.1666667   0.1666667   0.0000000), wk =   0.0555556
        k(   18) = (   0.1666667   0.1666667   0.1666667), wk =   0.1111111
        k(   19) = (   0.1666667   0.1666667   0.3333333), wk =   0.1111111
        k(   20) = (   0.1666667   0.1666667  -0.5000000), wk =   0.0555556
        k(   21) = (   0.1666667   0.3333333   0.0000000), wk =   0.1111111
        k(   22) = (   0.1666667   0.3333333   0.1666667), wk =   0.1111111
        k(   23) = (   0.1666667   0.3333333   0.3333333), wk =   0.1111111
        k(   24) = (   0.1666667   0.3333333  -0.5000000), wk =   0.1111111
        k(   25) = (   0.3333333   0.3333333   0.0000000), wk =   0.0185185
        k(   26) = (   0.3333333   0.3333333   0.1666667), wk =   0.0370370
        k(   27) = (   0.3333333   0.3333333   0.3333333), wk =   0.0370370
        k(   28) = (   0.3333333   0.3333333  -0.5000000), wk =   0.0185185
        k(   29) = (   0.0000000  -0.1666667   0.1666667), wk =   0.0555556
        k(   30) = (   0.0000000  -0.1666667   0.3333333), wk =   0.0555556
        k(   31) = (   0.0000000  -0.3333333   0.1666667), wk =   0.0555556
        k(   32) = (   0.0000000  -0.3333333   0.3333333), wk =   0.0555556
        k(   33) = (  -0.1666667  -0.3333333   0.1666667), wk =   0.1111111
        k(   34) = (  -0.1666667  -0.3333333   0.3333333), wk =   0.1111111

     Initial potential from superposition of free atoms

     starting charge      71.9851, renormalised to      72.0000
     Starting wfcs are   52 randomized atomic wfcs

     Self-consistent Calculation

     iteration #  1     ecut=    50.00 Ry     beta= 0.30
     Davidson diagonalization with overlap

     ethr =  1.00E-02,  avg # of iterations =  2.3

     total energy              =    -722.38582415 Ry
     estimated scf accuracy    <       1.40788321 Ry

[...]

     total energy              =    -722.63477389 Ry
     estimated scf accuracy    <       0.00000002 Ry

     iteration # 17     ecut=    50.00 Ry     beta= 0.30
     Davidson diagonalization with overlap

     ethr =  2.31E-11,  avg # of iterations =  2.0

     End of self-consistent calculation

          k = 0.0000 0.0000 0.0000 (  2725 PWs)   bands (ev):

    -7.9671  -7.2112  -7.2112  -6.3973   4.8621   4.8621   4.9067   5.5484
     5.5484   5.6401   5.6584   5.6584   5.6585   5.6585   5.9221   5.9221
     7.9396   7.9396   8.2935   8.2935   8.2935   8.2935   8.4716   8.4716
     8.9383  11.4291  11.4292  12.2096  12.2096  12.9566  12.9566  12.9566
    12.9566  13.6350  13.7016  13.7016

     occupation numbers
     1.0000   1.0000   1.0000   1.0000   1.0000   1.0000   1.0000   1.0000
     1.0000   1.0000   1.0000   1.0000   1.0000   1.0000   1.0000   1.0000
     1.0000   1.0000   1.0000   1.0000   1.0000   1.0000   1.0000   1.0000
     1.0000   1.0000   1.0000   1.0000   1.0000   1.0000   1.0000   1.0000
     1.0000   1.0000   1.0000   1.0000

[...]

          k = 0.0000-0.3849 0.1098 (  2707 PWs)   bands (ev):

[...]

          k =-0.1667-0.4811 0.0549 (  2698 PWs)   bands (ev):

[...]

          k =-0.1667-0.4811 0.1098 (  2697 PWs)   bands (ev):

    -6.6581  -6.5416  -6.2798  -6.2087   4.6248   4.6955   4.8535   5.0464
     5.7710   5.7809   5.8761   5.9400   6.4236   6.5365   6.5602   6.7321
     7.9017   8.0857   8.2169   8.2939   8.5610   8.5696   8.6809   8.7750
     8.9294   9.1035   9.4714   9.6250   9.9129  10.1692  10.5127  11.1108
    11.5028  11.7900  12.1535  12.2795

     occupation numbers
     1.0000   1.0000   1.0000   1.0000   1.0000   1.0000   1.0000   1.0000
     1.0000   1.0000   1.0000   1.0000   1.0000   1.0000   1.0000   1.0000
     1.0000   1.0000   1.0000   1.0000   1.0000   1.0000   1.0000   1.0000
     1.0000   1.0000   1.0000   1.0000   1.0000   1.0000   1.0000   1.0000
     1.0000   1.0000   1.0000   1.0000

     highest occupied level (ev):    13.7016

!    total energy              =    -722.63477389 Ry
     estimated scf accuracy    <          4.3E-09 Ry

     The total energy is the sum of the following terms:
     one-electron contribution =    -218.97414741 Ry
     hartree contribution      =     206.37550048 Ry
     xc contribution           =    -221.06476364 Ry
     ewald contribution        =    -488.97136332 Ry

     convergence has been achieved in  17 iterations

     Forces acting on atoms (cartesian axes, Ry/au):

     atom    1 type  1   force =     0.00000000    0.00000000   -0.10226208
     atom    2 type  1   force =     0.00000000    0.00000000   -0.10223161
     atom    3 type  2   force =     0.00000000   -0.00000000    0.10223362
     atom    4 type  2   force =     0.00000000    0.00000000    0.10223871
     atom    5 type  1   force =     0.00000000    0.00000000   -0.10223728
     atom    6 type  1   force =     0.00000000    0.00000000   -0.10223931
     atom    7 type  2   force =     0.00000000    0.00000000    0.10224849
     atom    8 type  2   force =     0.00000000    0.00000000    0.10224947
     The non-local contrib.  to forces
     atom    1 type  1   force =     0.00000000    0.00000000   -0.22293325
     atom    2 type  1   force =     0.00000000    0.00000000   -0.22292993
     atom    3 type  2   force =     0.00000000    0.00000000   -0.11677147
     atom    4 type  2   force =     0.00000000   -0.00000000   -0.11676818
     atom    5 type  1   force =     0.00000000    0.00000000   -0.22293395
     atom    6 type  1   force =     0.00000000    0.00000000   -0.22292574
     atom    7 type  2   force =     0.00000000    0.00000000   -0.11677550
     atom    8 type  2   force =     0.00000000    0.00000000   -0.11677065
     The ionic contribution  to forces
     atom    1 type  1   force =    -0.00000000    0.00000000   -1.55809773
     atom    2 type  1   force =     0.00000000   -0.00000000   -1.55809773
     atom    3 type  2   force =    -0.00000000    0.00000000    1.55809773
     atom    4 type  2   force =     0.00000000   -0.00000000    1.55809773
     atom    5 type  1   force =    -0.00000000    0.00000000   -1.55809773
     atom    6 type  1   force =     0.00000000   -0.00000000   -1.55809773
     atom    7 type  2   force =    -0.00000000    0.00000000    1.55809773
     atom    8 type  2   force =     0.00000000   -0.00000000    1.55809773
     The local contribution  to forces
     atom    1 type  1   force =    -0.00000004    0.00000002    1.65482117
     atom    2 type  1   force =     0.00000004   -0.00000002    1.65479969
     atom    3 type  2   force =    -0.00000001    0.00000001   -1.33957167
     atom    4 type  2   force =     0.00000001   -0.00000001   -1.33956151
     atom    5 type  1   force =    -0.00000004    0.00000002    1.65481137
     atom    6 type  1   force =     0.00000004   -0.00000002    1.65479638
     atom    7 type  2   force =    -0.00000001    0.00000001   -1.33956095
     atom    8 type  2   force =     0.00000001   -0.00000001   -1.33955795
     The core correction contribution to forces
     atom    1 type  1   force =    -0.00000001    0.00000000    0.02398221
     atom    2 type  1   force =     0.00000001   -0.00000000    0.02398214
     atom    3 type  2   force =     0.00000000   -0.00000000    0.00047981
     atom    4 type  2   force =    -0.00000000    0.00000000    0.00047977
     atom    5 type  1   force =    -0.00000001    0.00000000    0.02398218
     atom    6 type  1   force =     0.00000001   -0.00000000    0.02398204
     atom    7 type  2   force =     0.00000000   -0.00000000    0.00047986
     atom    8 type  2   force =    -0.00000000    0.00000000    0.00047981
     The Hubbard contrib.    to forces
     atom    1 type  1   force =     0.00000000    0.00000000    0.00000000
     atom    2 type  1   force =     0.00000000    0.00000000    0.00000000
     atom    3 type  2   force =     0.00000000    0.00000000    0.00000000
     atom    4 type  2   force =     0.00000000    0.00000000    0.00000000
     atom    5 type  1   force =     0.00000000    0.00000000    0.00000000
     atom    6 type  1   force =     0.00000000    0.00000000    0.00000000
     atom    7 type  2   force =     0.00000000    0.00000000    0.00000000
     atom    8 type  2   force =     0.00000000    0.00000000    0.00000000
     The SCF correction term to forces
     atom    1 type  1   force =     0.00000000   -0.00000000   -0.00003408
     atom    2 type  1   force =    -0.00000000    0.00000000    0.00001462
     atom    3 type  2   force =    -0.00000000    0.00000000   -0.00000037
     atom    4 type  2   force =     0.00000000   -0.00000000   -0.00000870
     atom    5 type  1   force =     0.00000000   -0.00000000    0.00000125
     atom    6 type  1   force =    -0.00000000    0.00000000    0.00000613
     atom    7 type  2   force =    -0.00000000    0.00000000    0.00000775
     atom    8 type  2   force =     0.00000000   -0.00000000    0.00000093

     Total force =     0.289186     Total SCF correction =     0.000039

     General routines

     Parallel routines

   This run was terminated on:  13: 6:33  26Aug2025

   JOB DONE.