     Program PWSCF v.7.0 starts on 26Aug2025 at 15: 6:50

     K-points division:     npool     =       4
     band groups division:  nbgrp     =       4

     Reading input from /home/jvc/QEspresso7.2/ZnO_database/scripts/cell112.in/ZnO-3.20-1.61-112.in
Warning: card &CELL ignored
Warning: card / ignored
Warning: card &FCP ignored
Warning: card / ignored
Warning: card &RISM ignored
Warning: card / ignored

     Current dimensions of program PWSCF are:
     Max number of different atomic species (ntypx) = 10
     Max number of k-points (npk) =  40000
     Max angular momentum in pseudopotentials (lmaxx) =  4
     file Zn.upf: wavefunction(s)  3D renormalized
     Found identity + (  0.0000  0.0000  0.5000) symmetry
     This is a supercell, fractional translations are disabled
     Message from routine setup:
     using ibrav=0 with symmetry is DISCOURAGED, use correct ibrav instead

     Subspace diagonalization in iterative solution of the eigenvalue problem:
     a serial algorithm will be used

     Using Slab Decomposition

     bravais-lattice index     =            0
     lattice parameter (alat)  =       6.0553  a.u.
     unit-cell volume          =     620.8156 (a.u.)^3
     number of atoms/cell      =            8
     number of atomic types    =            2
     number of electrons       =        72.00
     number of Kohn-Sham states=           36
     kinetic-energy cutoff     =      50.0000  Ry
     charge density cutoff     =     400.0000  Ry
     scf convergence threshold =      1.0E-08
     mixing beta               =       0.3000
     number of iterations used =            8  plain     mixing
     Exchange-correlation= PBE
                           (   1   4   3   4   0   0   0)

     celldm(1)=   6.055277  celldm(2)=   0.000000  celldm(3)=   0.000000
     celldm(4)=   0.000000  celldm(5)=   0.000000  celldm(6)=   0.000000

     crystal axes: (cart. coord. in units of alat)
               a(1) = (   1.000000   0.000000   0.000000 )
               a(2) = (  -0.500000   0.866025   0.000000 )
               a(3) = (   0.000000   0.000000   3.228717 )

     reciprocal axes: (cart. coord. in units 2 pi/alat)
               b(1) = (  1.000000  0.577350 -0.000000 )
               b(2) = (  0.000000  1.154701  0.000000 )
               b(3) = (  0.000000 -0.000000  0.309721 )

     PseudoPot. # 1 for Zn read from file:
     /home/jvc/QEspresso7.2/ZnO_database/pseudos/Zn.upf
     MD5 check sum: 7f56cabf9682ed8c977c2f7d0c5985c5
     Pseudo is Ultrasoft + core correction, Zval = 12.0
     Generated using &quot;atomic&quot; code by A. Dal Corso  v.6.2.2
     Using radial grid of 1201 points,  6 beta functions with:
                l(1) =   0
                l(2) =   0
                l(3) =   1
                l(4) =   1
                l(5) =   2
                l(6) =   2
     Q(r) pseudized with 0 coefficients

     PseudoPot. # 2 for O  read from file:
     /home/jvc/QEspresso7.2/ZnO_database/pseudos/O.upf
     MD5 check sum: 91400c9766925bcf19f520983a725ff0
     Pseudo is Ultrasoft + core correction, Zval =  6.0
     Generated using &quot;atomic&quot; code by A. Dal Corso  v.6.3MaX
     Using radial grid of 1095 points,  4 beta functions with:
                l(1) =   0
                l(2) =   0
                l(3) =   1
                l(4) =   1
     Q(r) pseudized with 0 coefficients

     atomic species   valence    mass     pseudopotential
        Zn            12.00    65.38000     Zn( 1.00)
        O              6.00    15.99900     O ( 1.00)

      6 Sym. Ops. (no inversion) found

                                    s                        frac. trans.

      isym =  1     identity

 cryst.   s( 1) = (     1          0          0      )
                  (     0          1          0      )
                  (     0          0          1      )

 cart.    s( 1) = (  1.0000000  0.0000000  0.0000000 )
                  (  0.0000000  1.0000000  0.0000000 )
                  (  0.0000000  0.0000000  1.0000000 )

      isym =  2     120 deg rotation - cryst. axis [0,0,1]

[...]

      isym =  3     120 deg rotation - cryst. axis [0,0,-1]

[...]

      isym =  4     inv. 180 deg rotation - cart. axis [1,0,0]

[...]

      isym =  5     inv. 180 deg rotation - cryst. axis [0,1,0]

[...]

      isym =  6     inv. 180 deg rotation - cryst. axis [1,1,0]

 cryst.   s( 6) = (     0         -1          0      )
                  (    -1          0          0      )
                  (     0          0          1      )

 cart.    s( 6) = (  0.5000000 -0.8660254  0.0000000 )
                  ( -0.8660254 -0.5000000  0.0000000 )
                  (  0.0000000  0.0000000  1.0000000 )

   Cartesian axes

     site n.     atom                  positions (alat units)
         1           Zn  tau(   1) = (   0.5000000   0.2886751   0.8082020  )
         2           Zn  tau(   2) = (  -0.0000000   0.5773503   0.0010228  )
         3           O   tau(   3) = (   0.5000000   0.2886751   1.4201130  )
         4           O   tau(   4) = (  -0.0000000   0.5773503   0.6129338  )
         5           Zn  tau(   5) = (   0.5000000   0.2886751   2.4225604  )
         6           Zn  tau(   6) = (  -0.0000000   0.5773503   1.6153812  )
         7           O   tau(   7) = (   0.5000000   0.2886751   3.0344713  )
         8           O   tau(   8) = (  -0.0000000   0.5773503   2.2272921  )

   Crystallographic axes

     site n.     atom                  positions (cryst. coord.)
         1           Zn  tau(   1) = (  0.6666667  0.3333333  0.2503168  )
         2           Zn  tau(   2) = (  0.3333333  0.6666667  0.0003168  )
         3           O   tau(   3) = (  0.6666667  0.3333333  0.4398382  )
         4           O   tau(   4) = (  0.3333333  0.6666667  0.1898382  )
         5           Zn  tau(   5) = (  0.6666667  0.3333333  0.7503168  )
         6           Zn  tau(   6) = (  0.3333333  0.6666667  0.5003168  )
         7           O   tau(   7) = (  0.6666667  0.3333333  0.9398382  )
         8           O   tau(   8) = (  0.3333333  0.6666667  0.6898382  )

     number of k points=    34
                       cart. coord. in units 2pi/alat
        k(    1) = (   0.0000000   0.0000000   0.0000000), wk =   0.0092593
        k(    2) = (   0.0000000   0.0000000   0.0516201), wk =   0.0185185
        k(    3) = (   0.0000000   0.0000000   0.1032402), wk =   0.0185185
        k(    4) = (   0.0000000   0.0000000  -0.1548603), wk =   0.0092593
        k(    5) = (   0.0000000   0.1924501   0.0000000), wk =   0.0555556
        k(    6) = (   0.0000000   0.1924501   0.0516201), wk =   0.0555556
        k(    7) = (   0.0000000   0.1924501   0.1032402), wk =   0.0555556
        k(    8) = (   0.0000000   0.1924501  -0.1548603), wk =   0.0555556
        k(    9) = (   0.0000000   0.3849002   0.0000000), wk =   0.0555556
        k(   10) = (   0.0000000   0.3849002   0.0516201), wk =   0.0555556
        k(   11) = (   0.0000000   0.3849002   0.1032402), wk =   0.0555556
        k(   12) = (   0.0000000   0.3849002  -0.1548603), wk =   0.0555556
        k(   13) = (   0.0000000  -0.5773503   0.0000000), wk =   0.0277778
        k(   14) = (   0.0000000  -0.5773503   0.0516201), wk =   0.0555556
        k(   15) = (   0.0000000  -0.5773503   0.1032402), wk =   0.0555556
        k(   16) = (   0.0000000  -0.5773503  -0.1548603), wk =   0.0277778
        k(   17) = (   0.1666667   0.2886751   0.0000000), wk =   0.0555556
        k(   18) = (   0.1666667   0.2886751   0.0516201), wk =   0.1111111
        k(   19) = (   0.1666667   0.2886751   0.1032402), wk =   0.1111111
        k(   20) = (   0.1666667   0.2886751  -0.1548603), wk =   0.0555556
        k(   21) = (   0.1666667   0.4811252   0.0000000), wk =   0.1111111
        k(   22) = (   0.1666667   0.4811252   0.0516201), wk =   0.1111111
        k(   23) = (   0.1666667   0.4811252   0.1032402), wk =   0.1111111
        k(   24) = (   0.1666667   0.4811252  -0.1548603), wk =   0.1111111
        k(   25) = (   0.3333333   0.5773503   0.0000000), wk =   0.0185185
        k(   26) = (   0.3333333   0.5773503   0.0516201), wk =   0.0370370
        k(   27) = (   0.3333333   0.5773503   0.1032402), wk =   0.0370370
        k(   28) = (   0.3333333   0.5773503  -0.1548603), wk =   0.0185185
        k(   29) = (   0.0000000  -0.1924501   0.0516201), wk =   0.0555556
        k(   30) = (   0.0000000  -0.1924501   0.1032402), wk =   0.0555556
        k(   31) = (   0.0000000  -0.3849002   0.0516201), wk =   0.0555556
        k(   32) = (   0.0000000  -0.3849002   0.1032402), wk =   0.0555556
        k(   33) = (  -0.1666667  -0.4811252   0.0516201), wk =   0.1111111
        k(   34) = (  -0.1666667  -0.4811252   0.1032402), wk =   0.1111111

                       cryst. coord.
        k(    1) = (   0.0000000   0.0000000   0.0000000), wk =   0.0092593
        k(    2) = (   0.0000000   0.0000000   0.1666667), wk =   0.0185185
        k(    3) = (   0.0000000   0.0000000   0.3333333), wk =   0.0185185
        k(    4) = (   0.0000000   0.0000000  -0.5000000), wk =   0.0092593
        k(    5) = (   0.0000000   0.1666667   0.0000000), wk =   0.0555556
        k(    6) = (   0.0000000   0.1666667   0.1666667), wk =   0.0555556
        k(    7) = (   0.0000000   0.1666667   0.3333333), wk =   0.0555556
        k(    8) = (   0.0000000   0.1666667  -0.5000000), wk =   0.0555556
        k(    9) = (   0.0000000   0.3333333   0.0000000), wk =   0.0555556
        k(   10) = (   0.0000000   0.3333333   0.1666667), wk =   0.0555556
        k(   11) = (   0.0000000   0.3333333   0.3333333), wk =   0.0555556
        k(   12) = (   0.0000000   0.3333333  -0.5000000), wk =   0.0555556
        k(   13) = (   0.0000000  -0.5000000   0.0000000), wk =   0.0277778
        k(   14) = (   0.0000000  -0.5000000   0.1666667), wk =   0.0555556
        k(   15) = (   0.0000000  -0.5000000   0.3333333), wk =   0.0555556
        k(   16) = (   0.0000000  -0.5000000  -0.5000000), wk =   0.0277778
        k(   17) = (   0.1666667   0.1666667   0.0000000), wk =   0.0555556
        k(   18) = (   0.1666667   0.1666667   0.1666667), wk =   0.1111111
        k(   19) = (   0.1666667   0.1666667   0.3333333), wk =   0.1111111
        k(   20) = (   0.1666667   0.1666667  -0.5000000), wk =   0.0555556
        k(   21) = (   0.1666667   0.3333333   0.0000000), wk =   0.1111111
        k(   22) = (   0.1666667   0.3333333   0.1666667), wk =   0.1111111
        k(   23) = (   0.1666667   0.3333333   0.3333333), wk =   0.1111111
        k(   24) = (   0.1666667   0.3333333  -0.5000000), wk =   0.1111111
        k(   25) = (   0.3333333   0.3333333   0.0000000), wk =   0.0185185
        k(   26) = (   0.3333333   0.3333333   0.1666667), wk =   0.0370370
        k(   27) = (   0.3333333   0.3333333   0.3333333), wk =   0.0370370
        k(   28) = (   0.3333333   0.3333333  -0.5000000), wk =   0.0185185
        k(   29) = (   0.0000000  -0.1666667   0.1666667), wk =   0.0555556
        k(   30) = (   0.0000000  -0.1666667   0.3333333), wk =   0.0555556
        k(   31) = (   0.0000000  -0.3333333   0.1666667), wk =   0.0555556
        k(   32) = (   0.0000000  -0.3333333   0.3333333), wk =   0.0555556
        k(   33) = (  -0.1666667  -0.3333333   0.1666667), wk =   0.1111111
        k(   34) = (  -0.1666667  -0.3333333   0.3333333), wk =   0.1111111

     Check: negative core charge=   -0.000002

     Initial potential from superposition of free atoms

     starting charge      71.9851, renormalised to      72.0000
     Starting wfcs are   52 randomized atomic wfcs

     Self-consistent Calculation

     iteration #  1     ecut=    50.00 Ry     beta= 0.30
     Davidson diagonalization with overlap

     ethr =  1.00E-02,  avg # of iterations =  2.0

     total energy              =    -722.95893487 Ry
     estimated scf accuracy    <       1.35434979 Ry

[...]

     total energy              =    -723.25876000 Ry
     estimated scf accuracy    <       0.00000001 Ry

     iteration # 40     ecut=    50.00 Ry     beta= 0.30
     Davidson diagonalization with overlap

     ethr =  1.47E-11,  avg # of iterations =  6.2

     End of self-consistent calculation

          k = 0.0000 0.0000 0.0000 (  3669 PWs)   bands (ev):

   -10.5732 -10.1983 -10.1982  -9.7999   1.6807   1.6808   1.8838   1.9364
     1.9364   1.9849   2.0120   2.0120   2.0120   2.0120   2.1413   2.1413
     3.2336   3.2336   3.3703   3.3703   3.3704   3.3704   3.4616   3.4616
     3.7473   5.5382   5.5383   6.9760   6.9760   7.3964   7.3964   7.3965
     7.3965   7.7058   7.8083   7.8083

     occupation numbers
     1.0000   1.0000   1.0000   1.0000   1.0000   1.0000   1.0000   1.0000
     1.0000   1.0000   1.0000   1.0000   1.0000   1.0000   1.0000   1.0000
     1.0000   1.0000   1.0000   1.0000   1.0000   1.0000   1.0000   1.0000
     1.0000   1.0000   1.0000   1.0000   1.0000   1.0000   1.0000   1.0000
     1.0000   1.0000   1.0000   1.0000

[...]

          k = 0.0000-0.3849 0.1032 (  3706 PWs)   bands (ev):

[...]

          k =-0.1667-0.4811 0.0516 (  3710 PWs)   bands (ev):

[...]

          k =-0.1667-0.4811 0.1032 (  3714 PWs)   bands (ev):

    -9.8254  -9.7749  -9.6493  -9.6083   1.6300   1.7176   1.7247   1.9190
     2.1890   2.2132   2.3586   2.4034   2.5642   2.5989   2.6574   2.7217
     3.2124   3.3049   3.3582   3.3931   3.5213   3.5314   3.6673   3.7309
     3.8826   4.0510   4.4120   4.5134   4.9272   5.2791   5.3668   5.8431
     6.1867   6.4074   6.6285   6.6661

     occupation numbers
     1.0000   1.0000   1.0000   1.0000   1.0000   1.0000   1.0000   1.0000
     1.0000   1.0000   1.0000   1.0000   1.0000   1.0000   1.0000   1.0000
     1.0000   1.0000   1.0000   1.0000   1.0000   1.0000   1.0000   1.0000
     1.0000   1.0000   1.0000   1.0000   1.0000   1.0000   1.0000   1.0000
     1.0000   1.0000   1.0000   1.0000

     highest occupied level (ev):     7.8083

!    total energy              =    -723.25875913 Ry
     estimated scf accuracy    <          1.8E-09 Ry

     The total energy is the sum of the following terms:
     one-electron contribution =    -295.02439113 Ry
     hartree contribution      =     231.63161963 Ry
     xc contribution           =    -219.34841648 Ry
     ewald contribution        =    -440.51757114 Ry

     convergence has been achieved in  40 iterations

     Forces acting on atoms (cartesian axes, Ry/au):

     atom    1 type  1   force =     0.00000000    0.00000000    0.00027414
     atom    2 type  1   force =     0.00000000    0.00000000    0.00025627
     atom    3 type  2   force =     0.00000000   -0.00000000   -0.00023179
     atom    4 type  2   force =     0.00000000   -0.00000000   -0.00022025
     atom    5 type  1   force =     0.00000000    0.00000000    0.00016555
     atom    6 type  1   force =     0.00000000    0.00000000    0.00021311
     atom    7 type  2   force =     0.00000000    0.00000000   -0.00022750
     atom    8 type  2   force =     0.00000000    0.00000000   -0.00022953
     The non-local contrib.  to forces
     atom    1 type  1   force =     0.00000000    0.00000000   -0.00504657
     atom    2 type  1   force =     0.00000000   -0.00000000   -0.00505764
     atom    3 type  2   force =     0.00000000    0.00000000    0.00502227
     atom    4 type  2   force =     0.00000000    0.00000000    0.00499782
     atom    5 type  1   force =     0.00000000    0.00000000   -0.00509150
     atom    6 type  1   force =     0.00000000    0.00000000   -0.00507216
     atom    7 type  2   force =     0.00000000    0.00000000    0.00501760
     atom    8 type  2   force =     0.00000000    0.00000000    0.00503942
     The ionic contribution  to forces
     atom    1 type  1   force =    -0.00000000    0.00000000    0.06530281
     atom    2 type  1   force =     0.00000000   -0.00000000    0.06530281
     atom    3 type  2   force =    -0.00000000    0.00000000   -0.06530281
     atom    4 type  2   force =     0.00000000   -0.00000000   -0.06530281
     atom    5 type  1   force =    -0.00000000    0.00000000    0.06530281
     atom    6 type  1   force =     0.00000000   -0.00000000    0.06530281
     atom    7 type  2   force =    -0.00000000    0.00000000   -0.06530281
     atom    8 type  2   force =     0.00000000   -0.00000000   -0.06530281
     The local contribution  to forces
     atom    1 type  1   force =    -0.00000004    0.00000002   -0.06061230
     atom    2 type  1   force =     0.00000004   -0.00000002   -0.06060471
     atom    3 type  2   force =    -0.00000001    0.00000001    0.06012577
     atom    4 type  2   force =     0.00000001   -0.00000001    0.06006939
     atom    5 type  1   force =    -0.00000004    0.00000002   -0.06047673
     atom    6 type  1   force =     0.00000004   -0.00000002   -0.06052091
     atom    7 type  2   force =    -0.00000001    0.00000001    0.06011192
     atom    8 type  2   force =     0.00000001   -0.00000001    0.06015628
     The core correction contribution to forces
     atom    1 type  1   force =    -0.00000001    0.00000000    0.00054388
     atom    2 type  1   force =     0.00000001   -0.00000000    0.00054521
     atom    3 type  2   force =     0.00000000   -0.00000000   -0.00005778
     atom    4 type  2   force =    -0.00000000    0.00000000   -0.00005613
     atom    5 type  1   force =    -0.00000001    0.00000000    0.00054031
     atom    6 type  1   force =     0.00000001   -0.00000000    0.00053972
     atom    7 type  2   force =     0.00000000   -0.00000000   -0.00005875
     atom    8 type  2   force =    -0.00000000    0.00000000   -0.00006039
     The Hubbard contrib.    to forces
     atom    1 type  1   force =     0.00000000    0.00000000    0.00000000
     atom    2 type  1   force =     0.00000000    0.00000000    0.00000000
     atom    3 type  2   force =     0.00000000    0.00000000    0.00000000
     atom    4 type  2   force =     0.00000000    0.00000000    0.00000000
     atom    5 type  1   force =     0.00000000    0.00000000    0.00000000
     atom    6 type  1   force =     0.00000000    0.00000000    0.00000000
     atom    7 type  2   force =     0.00000000    0.00000000    0.00000000
     atom    8 type  2   force =     0.00000000    0.00000000    0.00000000
     The SCF correction term to forces
     atom    1 type  1   force =     0.00000000   -0.00000000    0.00008759
     atom    2 type  1   force =    -0.00000000    0.00000000    0.00007186
     atom    3 type  2   force =     0.00000000   -0.00000000   -0.00001797
     atom    4 type  2   force =     0.00000000    0.00000000    0.00007274
     atom    5 type  1   force =     0.00000000   -0.00000000   -0.00010808
     atom    6 type  1   force =    -0.00000000    0.00000000   -0.00003509
     atom    7 type  2   force =     0.00000000   -0.00000000    0.00000582
     atom    8 type  2   force =    -0.00000000    0.00000000   -0.00006076

     Total force =     0.000648     Total SCF correction =     0.000187
     SCF correction compared to forces is large: reduce conv_thr to get better values

     General routines

     Parallel routines

   This run was terminated on:  15:11:14  26Aug2025

   JOB DONE.