     Program PWSCF v.7.0 starts on 26Aug2025 at 14:37: 2

     K-points division:     npool     =       4
     band groups division:  nbgrp     =       4

     Reading input from /home/jvc/QEspresso7.2/ZnO_database/scripts/cell112.in/ZnO-3.14-1.68-112.in
Warning: card &CELL ignored
Warning: card / ignored
Warning: card &FCP ignored
Warning: card / ignored
Warning: card &RISM ignored
Warning: card / ignored

     Current dimensions of program PWSCF are:
     Max number of different atomic species (ntypx) = 10
     Max number of k-points (npk) =  40000
     Max angular momentum in pseudopotentials (lmaxx) =  4
     file Zn.upf: wavefunction(s)  3D renormalized
     Found identity + (  0.0000  0.0000  0.5000) symmetry
     This is a supercell, fractional translations are disabled
     Message from routine setup:
     using ibrav=0 with symmetry is DISCOURAGED, use correct ibrav instead

     Subspace diagonalization in iterative solution of the eigenvalue problem:
     a serial algorithm will be used

     Using Slab Decomposition

     bravais-lattice index     =            0
     lattice parameter (alat)  =       5.9317  a.u.
     unit-cell volume          =     606.9199 (a.u.)^3
     number of atoms/cell      =            8
     number of atomic types    =            2
     number of electrons       =        72.00
     number of Kohn-Sham states=           36
     kinetic-energy cutoff     =      50.0000  Ry
     charge density cutoff     =     400.0000  Ry
     scf convergence threshold =      1.0E-08
     mixing beta               =       0.3000
     number of iterations used =            8  plain     mixing
     Exchange-correlation= PBE
                           (   1   4   3   4   0   0   0)

     celldm(1)=   5.931700  celldm(2)=   0.000000  celldm(3)=   0.000000
     celldm(4)=   0.000000  celldm(5)=   0.000000  celldm(6)=   0.000000

     crystal axes: (cart. coord. in units of alat)
               a(1) = (   1.000000   0.000000   0.000000 )
               a(2) = (  -0.500000   0.866025   0.000000 )
               a(3) = (   0.000000   0.000000   3.357865 )

     reciprocal axes: (cart. coord. in units 2 pi/alat)
               b(1) = (  1.000000  0.577350 -0.000000 )
               b(2) = (  0.000000  1.154701  0.000000 )
               b(3) = (  0.000000 -0.000000  0.297808 )

     PseudoPot. # 1 for Zn read from file:
     /home/jvc/QEspresso7.2/ZnO_database/pseudos/Zn.upf
     MD5 check sum: 7f56cabf9682ed8c977c2f7d0c5985c5
     Pseudo is Ultrasoft + core correction, Zval = 12.0
     Generated using &quot;atomic&quot; code by A. Dal Corso  v.6.2.2
     Using radial grid of 1201 points,  6 beta functions with:
                l(1) =   0
                l(2) =   0
                l(3) =   1
                l(4) =   1
                l(5) =   2
                l(6) =   2
     Q(r) pseudized with 0 coefficients

     PseudoPot. # 2 for O  read from file:
     /home/jvc/QEspresso7.2/ZnO_database/pseudos/O.upf
     MD5 check sum: 91400c9766925bcf19f520983a725ff0
     Pseudo is Ultrasoft + core correction, Zval =  6.0
     Generated using &quot;atomic&quot; code by A. Dal Corso  v.6.3MaX
     Using radial grid of 1095 points,  4 beta functions with:
                l(1) =   0
                l(2) =   0
                l(3) =   1
                l(4) =   1
     Q(r) pseudized with 0 coefficients

     atomic species   valence    mass     pseudopotential
        Zn            12.00    65.38000     Zn( 1.00)
        O              6.00    15.99900     O ( 1.00)

      6 Sym. Ops. (no inversion) found

                                    s                        frac. trans.

      isym =  1     identity

 cryst.   s( 1) = (     1          0          0      )
                  (     0          1          0      )
                  (     0          0          1      )

 cart.    s( 1) = (  1.0000000  0.0000000  0.0000000 )
                  (  0.0000000  1.0000000  0.0000000 )
                  (  0.0000000  0.0000000  1.0000000 )

      isym =  2     120 deg rotation - cryst. axis [0,0,1]

[...]

      isym =  3     120 deg rotation - cryst. axis [0,0,-1]

[...]

      isym =  4     inv. 180 deg rotation - cart. axis [1,0,0]

[...]

      isym =  5     inv. 180 deg rotation - cryst. axis [0,1,0]

[...]

      isym =  6     inv. 180 deg rotation - cryst. axis [1,1,0]

 cryst.   s( 6) = (     0         -1          0      )
                  (    -1          0          0      )
                  (     0          0          1      )

 cart.    s( 6) = (  0.5000000 -0.8660254  0.0000000 )
                  ( -0.8660254 -0.5000000  0.0000000 )
                  (  0.0000000  0.0000000  1.0000000 )

   Cartesian axes

     site n.     atom                  positions (alat units)
         1           Zn  tau(   1) = (   0.5000000   0.2886751   0.8405301  )
         2           Zn  tau(   2) = (  -0.0000000   0.5773503   0.0010637  )
         3           O   tau(   3) = (   0.5000000   0.2886751   1.4769175  )
         4           O   tau(   4) = (  -0.0000000   0.5773503   0.6374511  )
         5           Zn  tau(   5) = (   0.5000000   0.2886751   2.5194628  )
         6           Zn  tau(   6) = (  -0.0000000   0.5773503   1.6799964  )
         7           O   tau(   7) = (   0.5000000   0.2886751   3.1558502  )
         8           O   tau(   8) = (  -0.0000000   0.5773503   2.3163838  )

   Crystallographic axes

     site n.     atom                  positions (cryst. coord.)
         1           Zn  tau(   1) = (  0.6666667  0.3333333  0.2503168  )
         2           Zn  tau(   2) = (  0.3333333  0.6666667  0.0003168  )
         3           O   tau(   3) = (  0.6666667  0.3333333  0.4398382  )
         4           O   tau(   4) = (  0.3333333  0.6666667  0.1898382  )
         5           Zn  tau(   5) = (  0.6666667  0.3333333  0.7503168  )
         6           Zn  tau(   6) = (  0.3333333  0.6666667  0.5003168  )
         7           O   tau(   7) = (  0.6666667  0.3333333  0.9398382  )
         8           O   tau(   8) = (  0.3333333  0.6666667  0.6898382  )

     number of k points=    34
                       cart. coord. in units 2pi/alat
        k(    1) = (   0.0000000   0.0000000   0.0000000), wk =   0.0092593
        k(    2) = (   0.0000000   0.0000000   0.0496347), wk =   0.0185185
        k(    3) = (   0.0000000   0.0000000   0.0992694), wk =   0.0185185
        k(    4) = (   0.0000000   0.0000000  -0.1489041), wk =   0.0092593
        k(    5) = (   0.0000000   0.1924501   0.0000000), wk =   0.0555556
        k(    6) = (   0.0000000   0.1924501   0.0496347), wk =   0.0555556
        k(    7) = (   0.0000000   0.1924501   0.0992694), wk =   0.0555556
        k(    8) = (   0.0000000   0.1924501  -0.1489041), wk =   0.0555556
        k(    9) = (   0.0000000   0.3849002   0.0000000), wk =   0.0555556
        k(   10) = (   0.0000000   0.3849002   0.0496347), wk =   0.0555556
        k(   11) = (   0.0000000   0.3849002   0.0992694), wk =   0.0555556
        k(   12) = (   0.0000000   0.3849002  -0.1489041), wk =   0.0555556
        k(   13) = (   0.0000000  -0.5773503   0.0000000), wk =   0.0277778
        k(   14) = (   0.0000000  -0.5773503   0.0496347), wk =   0.0555556
        k(   15) = (   0.0000000  -0.5773503   0.0992694), wk =   0.0555556
        k(   16) = (   0.0000000  -0.5773503  -0.1489041), wk =   0.0277778
        k(   17) = (   0.1666667   0.2886751   0.0000000), wk =   0.0555556
        k(   18) = (   0.1666667   0.2886751   0.0496347), wk =   0.1111111
        k(   19) = (   0.1666667   0.2886751   0.0992694), wk =   0.1111111
        k(   20) = (   0.1666667   0.2886751  -0.1489041), wk =   0.0555556
        k(   21) = (   0.1666667   0.4811252   0.0000000), wk =   0.1111111
        k(   22) = (   0.1666667   0.4811252   0.0496347), wk =   0.1111111
        k(   23) = (   0.1666667   0.4811252   0.0992694), wk =   0.1111111
        k(   24) = (   0.1666667   0.4811252  -0.1489041), wk =   0.1111111
        k(   25) = (   0.3333333   0.5773503   0.0000000), wk =   0.0185185
        k(   26) = (   0.3333333   0.5773503   0.0496347), wk =   0.0370370
        k(   27) = (   0.3333333   0.5773503   0.0992694), wk =   0.0370370
        k(   28) = (   0.3333333   0.5773503  -0.1489041), wk =   0.0185185
        k(   29) = (   0.0000000  -0.1924501   0.0496347), wk =   0.0555556
        k(   30) = (   0.0000000  -0.1924501   0.0992694), wk =   0.0555556
        k(   31) = (   0.0000000  -0.3849002   0.0496347), wk =   0.0555556
        k(   32) = (   0.0000000  -0.3849002   0.0992694), wk =   0.0555556
        k(   33) = (  -0.1666667  -0.4811252   0.0496347), wk =   0.1111111
        k(   34) = (  -0.1666667  -0.4811252   0.0992694), wk =   0.1111111

                       cryst. coord.
        k(    1) = (   0.0000000   0.0000000   0.0000000), wk =   0.0092593
        k(    2) = (   0.0000000   0.0000000   0.1666667), wk =   0.0185185
        k(    3) = (   0.0000000   0.0000000   0.3333333), wk =   0.0185185
        k(    4) = (   0.0000000   0.0000000  -0.5000000), wk =   0.0092593
        k(    5) = (   0.0000000   0.1666667   0.0000000), wk =   0.0555556
        k(    6) = (   0.0000000   0.1666667   0.1666667), wk =   0.0555556
        k(    7) = (   0.0000000   0.1666667   0.3333333), wk =   0.0555556
        k(    8) = (   0.0000000   0.1666667  -0.5000000), wk =   0.0555556
        k(    9) = (   0.0000000   0.3333333   0.0000000), wk =   0.0555556
        k(   10) = (   0.0000000   0.3333333   0.1666667), wk =   0.0555556
        k(   11) = (   0.0000000   0.3333333   0.3333333), wk =   0.0555556
        k(   12) = (   0.0000000   0.3333333  -0.5000000), wk =   0.0555556
        k(   13) = (   0.0000000  -0.5000000   0.0000000), wk =   0.0277778
        k(   14) = (   0.0000000  -0.5000000   0.1666667), wk =   0.0555556
        k(   15) = (   0.0000000  -0.5000000   0.3333333), wk =   0.0555556
        k(   16) = (   0.0000000  -0.5000000  -0.5000000), wk =   0.0277778
        k(   17) = (   0.1666667   0.1666667   0.0000000), wk =   0.0555556
        k(   18) = (   0.1666667   0.1666667   0.1666667), wk =   0.1111111
        k(   19) = (   0.1666667   0.1666667   0.3333333), wk =   0.1111111
        k(   20) = (   0.1666667   0.1666667  -0.5000000), wk =   0.0555556
        k(   21) = (   0.1666667   0.3333333   0.0000000), wk =   0.1111111
        k(   22) = (   0.1666667   0.3333333   0.1666667), wk =   0.1111111
        k(   23) = (   0.1666667   0.3333333   0.3333333), wk =   0.1111111
        k(   24) = (   0.1666667   0.3333333  -0.5000000), wk =   0.1111111
        k(   25) = (   0.3333333   0.3333333   0.0000000), wk =   0.0185185
        k(   26) = (   0.3333333   0.3333333   0.1666667), wk =   0.0370370
        k(   27) = (   0.3333333   0.3333333   0.3333333), wk =   0.0370370
        k(   28) = (   0.3333333   0.3333333  -0.5000000), wk =   0.0185185
        k(   29) = (   0.0000000  -0.1666667   0.1666667), wk =   0.0555556
        k(   30) = (   0.0000000  -0.1666667   0.3333333), wk =   0.0555556
        k(   31) = (   0.0000000  -0.3333333   0.1666667), wk =   0.0555556
        k(   32) = (   0.0000000  -0.3333333   0.3333333), wk =   0.0555556
        k(   33) = (  -0.1666667  -0.3333333   0.1666667), wk =   0.1111111
        k(   34) = (  -0.1666667  -0.3333333   0.3333333), wk =   0.1111111

     Check: negative core charge=   -0.000002

     Initial potential from superposition of free atoms

     starting charge      71.9851, renormalised to      72.0000
     Starting wfcs are   52 randomized atomic wfcs

     Self-consistent Calculation

     iteration #  1     ecut=    50.00 Ry     beta= 0.30
     Davidson diagonalization with overlap

     ethr =  1.00E-02,  avg # of iterations =  2.0

     total energy              =    -722.94462946 Ry
     estimated scf accuracy    <       1.35107047 Ry

[...]

     total energy              =    -723.24072655 Ry
     estimated scf accuracy    <       0.00000007 Ry

     iteration # 31     ecut=    50.00 Ry     beta= 0.30
     Davidson diagonalization with overlap

     ethr =  3.43E-11,  avg # of iterations =  6.9

     End of self-consistent calculation

          k = 0.0000 0.0000 0.0000 (  3669 PWs)   bands (ev):

   -10.4159 -10.0578 -10.0577  -9.6742   1.9035   1.9035   1.9685   2.1416
     2.1416   2.2080   2.2168   2.2168   2.2169   2.2169   2.3308   2.3308
     3.5537   3.5537   3.6753   3.6753   3.6753   3.6753   3.7648   3.7648
     4.0994   5.7785   5.7785   7.4537   7.4537   7.8364   7.8364   7.8364
     7.8364   7.9916   8.2155   8.2155

     occupation numbers
     1.0000   1.0000   1.0000   1.0000   1.0000   1.0000   1.0000   1.0000
     1.0000   1.0000   1.0000   1.0000   1.0000   1.0000   1.0000   1.0000
     1.0000   1.0000   1.0000   1.0000   1.0000   1.0000   1.0000   1.0000
     1.0000   1.0000   1.0000   1.0000   1.0000   1.0000   1.0000   1.0000
     1.0000   1.0000   1.0000   1.0000

[...]

          k = 0.0000-0.3849 0.0993 (  3617 PWs)   bands (ev):

[...]

          k =-0.1667-0.4811 0.0496 (  3621 PWs)   bands (ev):

[...]

          k =-0.1667-0.4811 0.0993 (  3624 PWs)   bands (ev):

    -9.6123  -9.5652  -9.4455  -9.4054   1.8382   1.9136   1.9264   2.0984
     2.4285   2.4520   2.6092   2.6730   2.8281   2.8473   2.9117   2.9380
     3.5063   3.6050   3.6702   3.7099   3.8403   3.8483   3.9873   4.0708
     4.1696   4.3456   4.7106   4.8042   5.2640   5.6157   5.6617   6.0646
     6.4961   6.6862   6.9044   6.9274

     occupation numbers
     1.0000   1.0000   1.0000   1.0000   1.0000   1.0000   1.0000   1.0000
     1.0000   1.0000   1.0000   1.0000   1.0000   1.0000   1.0000   1.0000
     1.0000   1.0000   1.0000   1.0000   1.0000   1.0000   1.0000   1.0000
     1.0000   1.0000   1.0000   1.0000   1.0000   1.0000   1.0000   1.0000
     1.0000   1.0000   1.0000   1.0000

     highest occupied level (ev):     8.2155

!    total energy              =    -723.24072657 Ry
     estimated scf accuracy    <          4.3E-09 Ry

     The total energy is the sum of the following terms:
     one-electron contribution =    -289.79659696 Ry
     hartree contribution      =     229.80064774 Ry
     xc contribution           =    -219.45053777 Ry
     ewald contribution        =    -443.79423959 Ry

     convergence has been achieved in  31 iterations

     Forces acting on atoms (cartesian axes, Ry/au):

     atom    1 type  1   force =     0.00000000    0.00000000    0.01735707
     atom    2 type  1   force =     0.00000000    0.00000000    0.01739541
     atom    3 type  2   force =     0.00000000    0.00000000   -0.01737533
     atom    4 type  2   force =     0.00000000    0.00000000   -0.01737484
     atom    5 type  1   force =     0.00000000   -0.00000000    0.01740969
     atom    6 type  1   force =     0.00000000    0.00000000    0.01733966
     atom    7 type  2   force =     0.00000000   -0.00000000   -0.01737768
     atom    8 type  2   force =     0.00000000    0.00000000   -0.01737397
     The non-local contrib.  to forces
     atom    1 type  1   force =     0.00000000   -0.00000000    0.10979736
     atom    2 type  1   force =     0.00000000    0.00000000    0.10982394
     atom    3 type  2   force =     0.00000000    0.00000000    0.09810215
     atom    4 type  2   force =     0.00000000    0.00000000    0.09810253
     atom    5 type  1   force =    -0.00000000    0.00000000    0.10982368
     atom    6 type  1   force =     0.00000000   -0.00000000    0.10978788
     atom    7 type  2   force =     0.00000000    0.00000000    0.09808232
     atom    8 type  2   force =     0.00000000   -0.00000000    0.09808832
     The ionic contribution  to forces
     atom    1 type  1   force =    -0.00000000    0.00000000    0.92239742
     atom    2 type  1   force =     0.00000000   -0.00000000    0.92239742
     atom    3 type  2   force =    -0.00000000    0.00000000   -0.92239742
     atom    4 type  2   force =     0.00000000   -0.00000000   -0.92239742
     atom    5 type  1   force =    -0.00000000    0.00000000    0.92239742
     atom    6 type  1   force =     0.00000000   -0.00000000    0.92239742
     atom    7 type  2   force =    -0.00000000    0.00000000   -0.92239742
     atom    8 type  2   force =     0.00000000   -0.00000000   -0.92239742
     The local contribution  to forces
     atom    1 type  1   force =    -0.00000004    0.00000002   -1.00641112
     atom    2 type  1   force =     0.00000004   -0.00000002   -1.00646300
     atom    3 type  2   force =    -0.00000001    0.00000001    0.80769424
     atom    4 type  2   force =     0.00000001   -0.00000001    0.80769151
     atom    5 type  1   force =    -0.00000004    0.00000002   -1.00647922
     atom    6 type  1   force =     0.00000004   -0.00000002   -1.00638223
     atom    7 type  2   force =    -0.00000001    0.00000001    0.80764610
     atom    8 type  2   force =     0.00000001   -0.00000001    0.80764634
     The core correction contribution to forces
     atom    1 type  1   force =    -0.00000001    0.00000000   -0.00839668
     atom    2 type  1   force =     0.00000001   -0.00000000   -0.00839725
     atom    3 type  2   force =     0.00000000   -0.00000000   -0.00074740
     atom    4 type  2   force =    -0.00000000    0.00000000   -0.00074739
     atom    5 type  1   force =    -0.00000001    0.00000000   -0.00839648
     atom    6 type  1   force =     0.00000001   -0.00000000   -0.00839705
     atom    7 type  2   force =     0.00000000   -0.00000000   -0.00074722
     atom    8 type  2   force =    -0.00000000    0.00000000   -0.00074728
     The Hubbard contrib.    to forces
     atom    1 type  1   force =     0.00000000    0.00000000    0.00000000
     atom    2 type  1   force =     0.00000000    0.00000000    0.00000000
     atom    3 type  2   force =     0.00000000    0.00000000    0.00000000
     atom    4 type  2   force =     0.00000000    0.00000000    0.00000000
     atom    5 type  1   force =     0.00000000    0.00000000    0.00000000
     atom    6 type  1   force =     0.00000000    0.00000000    0.00000000
     atom    7 type  2   force =     0.00000000    0.00000000    0.00000000
     atom    8 type  2   force =     0.00000000    0.00000000    0.00000000
     The SCF correction term to forces
     atom    1 type  1   force =    -0.00000000    0.00000000   -0.00003149
     atom    2 type  1   force =     0.00000000   -0.00000000    0.00003272
     atom    3 type  2   force =    -0.00000000    0.00000000   -0.00002849
     atom    4 type  2   force =     0.00000000   -0.00000000   -0.00002566
     atom    5 type  1   force =    -0.00000000    0.00000000    0.00006272
     atom    6 type  1   force =     0.00000000   -0.00000000   -0.00006794
     atom    7 type  2   force =    -0.00000000    0.00000000    0.00003696
     atom    8 type  2   force =     0.00000000   -0.00000000    0.00003449

     Total force =     0.049145     Total SCF correction =     0.000121

     General routines

     Parallel routines

   This run was terminated on:  14:40:44  26Aug2025

   JOB DONE.