     Program PWSCF v.7.0 starts on 26Aug2025 at 19: 2:20

     K-points division:     npool     =       4
     band groups division:  nbgrp     =       4

     Reading input from /home/jvc/QEspresso7.2/ZnO_database/scripts/cell112.in/ZnO-3.53-1.49-112.in
Warning: card &CELL ignored
Warning: card / ignored
Warning: card &FCP ignored
Warning: card / ignored
Warning: card &RISM ignored
Warning: card / ignored

     Current dimensions of program PWSCF are:
     Max number of different atomic species (ntypx) = 10
     Max number of k-points (npk) =  40000
     Max angular momentum in pseudopotentials (lmaxx) =  4
     file Zn.upf: wavefunction(s)  3D renormalized
     Found identity + (  0.0000  0.0000  0.5000) symmetry
     This is a supercell, fractional translations are disabled
     Message from routine setup:
     using ibrav=0 with symmetry is DISCOURAGED, use correct ibrav instead

     Subspace diagonalization in iterative solution of the eigenvalue problem:
     a serial algorithm will be used

     Using Slab Decomposition

     bravais-lattice index     =            0
     lattice parameter (alat)  =       6.6732  a.u.
     unit-cell volume          =     764.4401 (a.u.)^3
     number of atoms/cell      =            8
     number of atomic types    =            2
     number of electrons       =        72.00
     number of Kohn-Sham states=           36
     kinetic-energy cutoff     =      50.0000  Ry
     charge density cutoff     =     400.0000  Ry
     scf convergence threshold =      1.0E-08
     mixing beta               =       0.3000
     number of iterations used =            8  plain     mixing
     Exchange-correlation= PBE
                           (   1   4   3   4   0   0   0)

     celldm(1)=   6.673162  celldm(2)=   0.000000  celldm(3)=   0.000000
     celldm(4)=   0.000000  celldm(5)=   0.000000  celldm(6)=   0.000000

     crystal axes: (cart. coord. in units of alat)
               a(1) = (   1.000000   0.000000   0.000000 )
               a(2) = (  -0.500000   0.866025   0.000000 )
               a(3) = (   0.000000   0.000000   2.970419 )

     reciprocal axes: (cart. coord. in units 2 pi/alat)
               b(1) = (  1.000000  0.577350 -0.000000 )
               b(2) = (  0.000000  1.154701  0.000000 )
               b(3) = (  0.000000 -0.000000  0.336653 )

     PseudoPot. # 1 for Zn read from file:
     /home/jvc/QEspresso7.2/ZnO_database/pseudos/Zn.upf
     MD5 check sum: 7f56cabf9682ed8c977c2f7d0c5985c5
     Pseudo is Ultrasoft + core correction, Zval = 12.0
     Generated using &quot;atomic&quot; code by A. Dal Corso  v.6.2.2
     Using radial grid of 1201 points,  6 beta functions with:
                l(1) =   0
                l(2) =   0
                l(3) =   1
                l(4) =   1
                l(5) =   2
                l(6) =   2
     Q(r) pseudized with 0 coefficients

     PseudoPot. # 2 for O  read from file:
     /home/jvc/QEspresso7.2/ZnO_database/pseudos/O.upf
     MD5 check sum: 91400c9766925bcf19f520983a725ff0
     Pseudo is Ultrasoft + core correction, Zval =  6.0
     Generated using &quot;atomic&quot; code by A. Dal Corso  v.6.3MaX
     Using radial grid of 1095 points,  4 beta functions with:
                l(1) =   0
                l(2) =   0
                l(3) =   1
                l(4) =   1
     Q(r) pseudized with 0 coefficients

     atomic species   valence    mass     pseudopotential
        Zn            12.00    65.38000     Zn( 1.00)
        O              6.00    15.99900     O ( 1.00)

      6 Sym. Ops. (no inversion) found

                                    s                        frac. trans.

      isym =  1     identity

 cryst.   s( 1) = (     1          0          0      )
                  (     0          1          0      )
                  (     0          0          1      )

 cart.    s( 1) = (  1.0000000  0.0000000  0.0000000 )
                  (  0.0000000  1.0000000  0.0000000 )
                  (  0.0000000  0.0000000  1.0000000 )

      isym =  2     120 deg rotation - cryst. axis [0,0,1]

[...]

      isym =  3     120 deg rotation - cryst. axis [0,0,-1]

[...]

      isym =  4     inv. 180 deg rotation - cart. axis [1,0,0]

[...]

      isym =  5     inv. 180 deg rotation - cryst. axis [0,1,0]

[...]

      isym =  6     inv. 180 deg rotation - cryst. axis [1,1,0]

 cryst.   s( 6) = (     0         -1          0      )
                  (    -1          0          0      )
                  (     0          0          1      )

 cart.    s( 6) = (  0.5000000 -0.8660254  0.0000000 )
                  ( -0.8660254 -0.5000000  0.0000000 )
                  (  0.0000000  0.0000000  1.0000000 )

   Cartesian axes

     site n.     atom                  positions (alat units)
         1           Zn  tau(   1) = (   0.5000000   0.2886751   0.7435459  )
         2           Zn  tau(   2) = (  -0.0000000   0.5773503   0.0009410  )
         3           O   tau(   3) = (   0.5000000   0.2886751   1.3065039  )
         4           O   tau(   4) = (  -0.0000000   0.5773503   0.5638991  )
         5           Zn  tau(   5) = (   0.5000000   0.2886751   2.2287555  )
         6           Zn  tau(   6) = (  -0.0000000   0.5773503   1.4861507  )
         7           O   tau(   7) = (   0.5000000   0.2886751   2.7917136  )
         8           O   tau(   8) = (  -0.0000000   0.5773503   2.0491088  )

   Crystallographic axes

     site n.     atom                  positions (cryst. coord.)
         1           Zn  tau(   1) = (  0.6666667  0.3333333  0.2503168  )
         2           Zn  tau(   2) = (  0.3333333  0.6666667  0.0003168  )
         3           O   tau(   3) = (  0.6666667  0.3333333  0.4398382  )
         4           O   tau(   4) = (  0.3333333  0.6666667  0.1898382  )
         5           Zn  tau(   5) = (  0.6666667  0.3333333  0.7503168  )
         6           Zn  tau(   6) = (  0.3333333  0.6666667  0.5003168  )
         7           O   tau(   7) = (  0.6666667  0.3333333  0.9398382  )
         8           O   tau(   8) = (  0.3333333  0.6666667  0.6898382  )

     number of k points=    34
                       cart. coord. in units 2pi/alat
        k(    1) = (   0.0000000   0.0000000   0.0000000), wk =   0.0092593
        k(    2) = (   0.0000000   0.0000000   0.0561088), wk =   0.0185185
        k(    3) = (   0.0000000   0.0000000   0.1122176), wk =   0.0185185
        k(    4) = (   0.0000000   0.0000000  -0.1683264), wk =   0.0092593
        k(    5) = (   0.0000000   0.1924501   0.0000000), wk =   0.0555556
        k(    6) = (   0.0000000   0.1924501   0.0561088), wk =   0.0555556
        k(    7) = (   0.0000000   0.1924501   0.1122176), wk =   0.0555556
        k(    8) = (   0.0000000   0.1924501  -0.1683264), wk =   0.0555556
        k(    9) = (   0.0000000   0.3849002   0.0000000), wk =   0.0555556
        k(   10) = (   0.0000000   0.3849002   0.0561088), wk =   0.0555556
        k(   11) = (   0.0000000   0.3849002   0.1122176), wk =   0.0555556
        k(   12) = (   0.0000000   0.3849002  -0.1683264), wk =   0.0555556
        k(   13) = (   0.0000000  -0.5773503   0.0000000), wk =   0.0277778
        k(   14) = (   0.0000000  -0.5773503   0.0561088), wk =   0.0555556
        k(   15) = (   0.0000000  -0.5773503   0.1122176), wk =   0.0555556
        k(   16) = (   0.0000000  -0.5773503  -0.1683264), wk =   0.0277778
        k(   17) = (   0.1666667   0.2886751   0.0000000), wk =   0.0555556
        k(   18) = (   0.1666667   0.2886751   0.0561088), wk =   0.1111111
        k(   19) = (   0.1666667   0.2886751   0.1122176), wk =   0.1111111
        k(   20) = (   0.1666667   0.2886751  -0.1683264), wk =   0.0555556
        k(   21) = (   0.1666667   0.4811252   0.0000000), wk =   0.1111111
        k(   22) = (   0.1666667   0.4811252   0.0561088), wk =   0.1111111
        k(   23) = (   0.1666667   0.4811252   0.1122176), wk =   0.1111111
        k(   24) = (   0.1666667   0.4811252  -0.1683264), wk =   0.1111111
        k(   25) = (   0.3333333   0.5773503   0.0000000), wk =   0.0185185
        k(   26) = (   0.3333333   0.5773503   0.0561088), wk =   0.0370370
        k(   27) = (   0.3333333   0.5773503   0.1122176), wk =   0.0370370
        k(   28) = (   0.3333333   0.5773503  -0.1683264), wk =   0.0185185
        k(   29) = (   0.0000000  -0.1924501   0.0561088), wk =   0.0555556
        k(   30) = (   0.0000000  -0.1924501   0.1122176), wk =   0.0555556
        k(   31) = (   0.0000000  -0.3849002   0.0561088), wk =   0.0555556
        k(   32) = (   0.0000000  -0.3849002   0.1122176), wk =   0.0555556
        k(   33) = (  -0.1666667  -0.4811252   0.0561088), wk =   0.1111111
        k(   34) = (  -0.1666667  -0.4811252   0.1122176), wk =   0.1111111

                       cryst. coord.
        k(    1) = (   0.0000000   0.0000000   0.0000000), wk =   0.0092593
        k(    2) = (   0.0000000   0.0000000   0.1666667), wk =   0.0185185
        k(    3) = (   0.0000000   0.0000000   0.3333333), wk =   0.0185185
        k(    4) = (   0.0000000   0.0000000  -0.5000000), wk =   0.0092593
        k(    5) = (   0.0000000   0.1666667   0.0000000), wk =   0.0555556
        k(    6) = (   0.0000000   0.1666667   0.1666667), wk =   0.0555556
        k(    7) = (   0.0000000   0.1666667   0.3333333), wk =   0.0555556
        k(    8) = (   0.0000000   0.1666667  -0.5000000), wk =   0.0555556
        k(    9) = (   0.0000000   0.3333333   0.0000000), wk =   0.0555556
        k(   10) = (   0.0000000   0.3333333   0.1666667), wk =   0.0555556
        k(   11) = (   0.0000000   0.3333333   0.3333333), wk =   0.0555556
        k(   12) = (   0.0000000   0.3333333  -0.5000000), wk =   0.0555556
        k(   13) = (   0.0000000  -0.5000000   0.0000000), wk =   0.0277778
        k(   14) = (   0.0000000  -0.5000000   0.1666667), wk =   0.0555556
        k(   15) = (   0.0000000  -0.5000000   0.3333333), wk =   0.0555556
        k(   16) = (   0.0000000  -0.5000000  -0.5000000), wk =   0.0277778
        k(   17) = (   0.1666667   0.1666667   0.0000000), wk =   0.0555556
        k(   18) = (   0.1666667   0.1666667   0.1666667), wk =   0.1111111
        k(   19) = (   0.1666667   0.1666667   0.3333333), wk =   0.1111111
        k(   20) = (   0.1666667   0.1666667  -0.5000000), wk =   0.0555556
        k(   21) = (   0.1666667   0.3333333   0.0000000), wk =   0.1111111
        k(   22) = (   0.1666667   0.3333333   0.1666667), wk =   0.1111111
        k(   23) = (   0.1666667   0.3333333   0.3333333), wk =   0.1111111
        k(   24) = (   0.1666667   0.3333333  -0.5000000), wk =   0.1111111
        k(   25) = (   0.3333333   0.3333333   0.0000000), wk =   0.0185185
        k(   26) = (   0.3333333   0.3333333   0.1666667), wk =   0.0370370
        k(   27) = (   0.3333333   0.3333333   0.3333333), wk =   0.0370370
        k(   28) = (   0.3333333   0.3333333  -0.5000000), wk =   0.0185185
        k(   29) = (   0.0000000  -0.1666667   0.1666667), wk =   0.0555556
        k(   30) = (   0.0000000  -0.1666667   0.3333333), wk =   0.0555556
        k(   31) = (   0.0000000  -0.3333333   0.1666667), wk =   0.0555556
        k(   32) = (   0.0000000  -0.3333333   0.3333333), wk =   0.0555556
        k(   33) = (  -0.1666667  -0.3333333   0.1666667), wk =   0.1111111
        k(   34) = (  -0.1666667  -0.3333333   0.3333333), wk =   0.1111111

     Check: negative core charge=   -0.000002

     Initial potential from superposition of free atoms

     starting charge      71.9851, renormalised to      72.0000
     Starting wfcs are   52 randomized atomic wfcs

     Self-consistent Calculation

     iteration #  1     ecut=    50.00 Ry     beta= 0.30
     Davidson diagonalization with overlap

     ethr =  1.00E-02,  avg # of iterations =  1.6

     total energy              =    -722.84682068 Ry
     estimated scf accuracy    <       1.52928025 Ry

[...]

     c_bands:  1 eigenvalues not converged
     c_bands:  1 eigenvalues not converged
     ethr =  1.36E-07,  avg # of iterations = 12.9

[...]

     c_bands:  1 eigenvalues not converged
     ethr =  6.93E-10,  avg # of iterations = 12.5

[...]

     total energy              =    -723.20918405 Ry
     estimated scf accuracy    <       0.00000004 Ry

     iteration # 30     ecut=    50.00 Ry     beta= 0.30
     Davidson diagonalization with overlap

     ethr =  5.08E-11,  avg # of iterations =  4.9

     End of self-consistent calculation

          k = 0.0000 0.0000 0.0000 (  4551 PWs)   bands (ev):

   -11.9778 -11.6889 -11.6889 -11.3944  -0.2622  -0.2622  -0.1366  -0.1150
    -0.1150  -0.0630  -0.0630  -0.0630  -0.0630   0.0599   0.0599   0.5583
     0.5583   0.5977   0.6762   0.6762   0.6762   0.6762   0.7364   0.7364
     0.9034   2.9097   2.9097   4.0752   4.0752   4.4801   4.4801   4.4801
     4.4801   4.8609   4.8609   4.9157

     occupation numbers
     1.0000   1.0000   1.0000   1.0000   1.0000   1.0000   1.0000   1.0000
     1.0000   1.0000   1.0000   1.0000   1.0000   1.0000   1.0000   1.0000
     1.0000   1.0000   1.0000   1.0000   1.0000   1.0000   1.0000   1.0000
     1.0000   1.0000   1.0000   1.0000   1.0000   1.0000   1.0000   1.0000
     1.0000   1.0000   1.0000   1.0000

[...]

          k = 0.0000-0.3849 0.1122 (  4569 PWs)   bands (ev):

[...]

          k =-0.1667-0.4811 0.0561 (  4545 PWs)   bands (ev):

[...]

          k =-0.1667-0.4811 0.1122 (  4551 PWs)   bands (ev):

   -11.5277 -11.4882 -11.3929 -11.3629  -0.2374  -0.1703  -0.1408  -0.0240
     0.0641   0.1015   0.1917   0.2142   0.2730   0.3197   0.3617   0.4416
     0.5952   0.6386   0.6606   0.6743   0.7692   0.7814   0.8547   0.8825
     1.5397   1.6035   1.8975   2.0382   2.6159   2.9058   3.0864   3.6139
     3.7286   3.9700   4.0829   4.2445

     occupation numbers
     1.0000   1.0000   1.0000   1.0000   1.0000   1.0000   1.0000   1.0000
     1.0000   1.0000   1.0000   1.0000   1.0000   1.0000   1.0000   1.0000
     1.0000   1.0000   1.0000   1.0000   1.0000   1.0000   1.0000   1.0000
     1.0000   1.0000   1.0000   1.0000   1.0000   1.0000   1.0000   1.0000
     1.0000   1.0000   1.0000   1.0000

     highest occupied level (ev):     4.9157

!    total energy              =    -723.20918407 Ry
     estimated scf accuracy    <          9.6E-10 Ry

     The total energy is the sum of the following terms:
     one-electron contribution =    -344.15593025 Ry
     hartree contribution      =     249.51389420 Ry
     xc contribution           =    -218.55551723 Ry
     ewald contribution        =    -410.01163078 Ry

     convergence has been achieved in  30 iterations

     Forces acting on atoms (cartesian axes, Ry/au):

     atom    1 type  1   force =     0.00000000    0.00000000   -0.01250695
     atom    2 type  1   force =     0.00000000   -0.00000000   -0.01249002
     atom    3 type  2   force =     0.00000000    0.00000000    0.01248938
     atom    4 type  2   force =     0.00000000    0.00000000    0.01248700
     atom    5 type  1   force =     0.00000000    0.00000000   -0.01247316
     atom    6 type  1   force =     0.00000000    0.00000000   -0.01248294
     atom    7 type  2   force =     0.00000000    0.00000000    0.01248648
     atom    8 type  2   force =     0.00000000    0.00000000    0.01249021
     The non-local contrib.  to forces
     atom    1 type  1   force =     0.00000000    0.00000000   -0.22992343
     atom    2 type  1   force =     0.00000000    0.00000000   -0.22991290
     atom    3 type  2   force =     0.00000000    0.00000000   -0.19764598
     atom    4 type  2   force =     0.00000000   -0.00000000   -0.19764434
     atom    5 type  1   force =     0.00000000   -0.00000000   -0.22991058
     atom    6 type  1   force =     0.00000000    0.00000000   -0.22991882
     atom    7 type  2   force =     0.00000000   -0.00000000   -0.19765355
     atom    8 type  2   force =     0.00000000   -0.00000000   -0.19764947
     The ionic contribution  to forces
     atom    1 type  1   force =    -0.00000000    0.00000000   -1.49894255
     atom    2 type  1   force =     0.00000000   -0.00000000   -1.49894255
     atom    3 type  2   force =    -0.00000000    0.00000000    1.49894255
     atom    4 type  2   force =     0.00000000   -0.00000000    1.49894255
     atom    5 type  1   force =    -0.00000000    0.00000000   -1.49894255
     atom    6 type  1   force =     0.00000000   -0.00000000   -1.49894255
     atom    7 type  2   force =    -0.00000000    0.00000000    1.49894255
     atom    8 type  2   force =     0.00000000   -0.00000000    1.49894255
     The local contribution  to forces
     atom    1 type  1   force =    -0.00000005    0.00000003    1.70127771
     atom    2 type  1   force =     0.00000005   -0.00000003    1.70125049
     atom    3 type  2   force =    -0.00000001    0.00000001   -1.29044407
     atom    4 type  2   force =     0.00000001   -0.00000001   -1.29043045
     atom    5 type  1   force =    -0.00000005    0.00000003    1.70123650
     atom    6 type  1   force =     0.00000005   -0.00000003    1.70125513
     atom    7 type  2   force =    -0.00000001    0.00000001   -1.29043706
     atom    8 type  2   force =     0.00000001   -0.00000001   -1.29045347
     The core correction contribution to forces
     atom    1 type  1   force =    -0.00000001    0.00000000    0.01511882
     atom    2 type  1   force =     0.00000001   -0.00000000    0.01511896
     atom    3 type  2   force =     0.00000000   -0.00000000    0.00163158
     atom    4 type  2   force =    -0.00000000    0.00000000    0.00163158
     atom    5 type  1   force =    -0.00000001    0.00000000    0.01511913
     atom    6 type  1   force =     0.00000001   -0.00000000    0.01511901
     atom    7 type  2   force =     0.00000000   -0.00000000    0.00163170
     atom    8 type  2   force =    -0.00000000    0.00000000    0.00163160
     The Hubbard contrib.    to forces
     atom    1 type  1   force =     0.00000000    0.00000000    0.00000000
     atom    2 type  1   force =     0.00000000    0.00000000    0.00000000
     atom    3 type  2   force =     0.00000000    0.00000000    0.00000000
     atom    4 type  2   force =     0.00000000    0.00000000    0.00000000
     atom    5 type  1   force =     0.00000000    0.00000000    0.00000000
     atom    6 type  1   force =     0.00000000    0.00000000    0.00000000
     atom    7 type  2   force =     0.00000000    0.00000000    0.00000000
     atom    8 type  2   force =     0.00000000    0.00000000    0.00000000
     The SCF correction term to forces
     atom    1 type  1   force =     0.00000000   -0.00000000   -0.00004131
     atom    2 type  1   force =    -0.00000000    0.00000000   -0.00000784
     atom    3 type  2   force =     0.00000000   -0.00000000    0.00000148
     atom    4 type  2   force =    -0.00000000    0.00000000   -0.00001616
     atom    5 type  1   force =     0.00000000   -0.00000000    0.00002052
     atom    6 type  1   force =    -0.00000000    0.00000000    0.00000046
     atom    7 type  2   force =     0.00000000   -0.00000000   -0.00000098
     atom    8 type  2   force =    -0.00000000    0.00000000    0.00001518

     Total force =     0.035322     Total SCF correction =     0.000052

     General routines

     Parallel routines

   This run was terminated on:  19: 7: 1  26Aug2025

   JOB DONE.