     Program PWSCF v.7.0 starts on 26Aug2025 at 14: 8:47

     K-points division:     npool     =       4
     band groups division:  nbgrp     =       4

     Reading input from /home/jvc/QEspresso7.2/ZnO_database/scripts/cell112.in/ZnO-3.07-1.74-112.in
Warning: card &CELL ignored
Warning: card / ignored
Warning: card &FCP ignored
Warning: card / ignored
Warning: card &RISM ignored
Warning: card / ignored

     Current dimensions of program PWSCF are:
     Max number of different atomic species (ntypx) = 10
     Max number of k-points (npk) =  40000
     Max angular momentum in pseudopotentials (lmaxx) =  4
     file Zn.upf: wavefunction(s)  3D renormalized
     Found identity + (  0.0000  0.0000  0.5000) symmetry
     This is a supercell, fractional translations are disabled
     Message from routine setup:
     using ibrav=0 with symmetry is DISCOURAGED, use correct ibrav instead

     Subspace diagonalization in iterative solution of the eigenvalue problem:
     a serial algorithm will be used

     Using Slab Decomposition

     bravais-lattice index     =            0
     lattice parameter (alat)  =       5.8081  a.u.
     unit-cell volume          =     591.6865 (a.u.)^3
     number of atoms/cell      =            8
     number of atomic types    =            2
     number of electrons       =        72.00
     number of Kohn-Sham states=           36
     kinetic-energy cutoff     =      50.0000  Ry
     charge density cutoff     =     400.0000  Ry
     scf convergence threshold =      1.0E-08
     mixing beta               =       0.3000
     number of iterations used =            8  plain     mixing
     Exchange-correlation= PBE
                           (   1   4   3   4   0   0   0)

     celldm(1)=   5.808123  celldm(2)=   0.000000  celldm(3)=   0.000000
     celldm(4)=   0.000000  celldm(5)=   0.000000  celldm(6)=   0.000000

     crystal axes: (cart. coord. in units of alat)
               a(1) = (   1.000000   0.000000   0.000000 )
               a(2) = (  -0.500000   0.866025   0.000000 )
               a(3) = (   0.000000   0.000000   3.487014 )

     reciprocal axes: (cart. coord. in units 2 pi/alat)
               b(1) = (  1.000000  0.577350 -0.000000 )
               b(2) = (  0.000000  1.154701  0.000000 )
               b(3) = (  0.000000 -0.000000  0.286778 )

     PseudoPot. # 1 for Zn read from file:
     /home/jvc/QEspresso7.2/ZnO_database/pseudos/Zn.upf
     MD5 check sum: 7f56cabf9682ed8c977c2f7d0c5985c5
     Pseudo is Ultrasoft + core correction, Zval = 12.0
     Generated using &quot;atomic&quot; code by A. Dal Corso  v.6.2.2
     Using radial grid of 1201 points,  6 beta functions with:
                l(1) =   0
                l(2) =   0
                l(3) =   1
                l(4) =   1
                l(5) =   2
                l(6) =   2
     Q(r) pseudized with 0 coefficients

     PseudoPot. # 2 for O  read from file:
     /home/jvc/QEspresso7.2/ZnO_database/pseudos/O.upf
     MD5 check sum: 91400c9766925bcf19f520983a725ff0
     Pseudo is Ultrasoft + core correction, Zval =  6.0
     Generated using &quot;atomic&quot; code by A. Dal Corso  v.6.3MaX
     Using radial grid of 1095 points,  4 beta functions with:
                l(1) =   0
                l(2) =   0
                l(3) =   1
                l(4) =   1
     Q(r) pseudized with 0 coefficients

     atomic species   valence    mass     pseudopotential
        Zn            12.00    65.38000     Zn( 1.00)
        O              6.00    15.99900     O ( 1.00)

      6 Sym. Ops. (no inversion) found

                                    s                        frac. trans.

      isym =  1     identity

 cryst.   s( 1) = (     1          0          0      )
                  (     0          1          0      )
                  (     0          0          1      )

 cart.    s( 1) = (  1.0000000  0.0000000  0.0000000 )
                  (  0.0000000  1.0000000  0.0000000 )
                  (  0.0000000  0.0000000  1.0000000 )

      isym =  2     120 deg rotation - cryst. axis [0,0,1]

[...]

      isym =  3     120 deg rotation - cryst. axis [0,0,-1]

[...]

      isym =  4     inv. 180 deg rotation - cart. axis [1,0,0]

[...]

      isym =  5     inv. 180 deg rotation - cryst. axis [0,1,0]

[...]

      isym =  6     inv. 180 deg rotation - cryst. axis [1,1,0]

 cryst.   s( 6) = (     0         -1          0      )
                  (    -1          0          0      )
                  (     0          0          1      )

 cart.    s( 6) = (  0.5000000 -0.8660254  0.0000000 )
                  ( -0.8660254 -0.5000000  0.0000000 )
                  (  0.0000000  0.0000000  1.0000000 )

   Cartesian axes

     site n.     atom                  positions (alat units)
         1           Zn  tau(   1) = (   0.5000000   0.2886751   0.8728582  )
         2           Zn  tau(   2) = (  -0.0000000   0.5773503   0.0011047  )
         3           O   tau(   3) = (   0.5000000   0.2886751   1.5337220  )
         4           O   tau(   4) = (  -0.0000000   0.5773503   0.6619685  )
         5           Zn  tau(   5) = (   0.5000000   0.2886751   2.6163652  )
         6           Zn  tau(   6) = (  -0.0000000   0.5773503   1.7446117  )
         7           O   tau(   7) = (   0.5000000   0.2886751   3.2772290  )
         8           O   tau(   8) = (  -0.0000000   0.5773503   2.4054755  )

   Crystallographic axes

     site n.     atom                  positions (cryst. coord.)
         1           Zn  tau(   1) = (  0.6666667  0.3333333  0.2503168  )
         2           Zn  tau(   2) = (  0.3333333  0.6666667  0.0003168  )
         3           O   tau(   3) = (  0.6666667  0.3333333  0.4398382  )
         4           O   tau(   4) = (  0.3333333  0.6666667  0.1898382  )
         5           Zn  tau(   5) = (  0.6666667  0.3333333  0.7503168  )
         6           Zn  tau(   6) = (  0.3333333  0.6666667  0.5003168  )
         7           O   tau(   7) = (  0.6666667  0.3333333  0.9398382  )
         8           O   tau(   8) = (  0.3333333  0.6666667  0.6898382  )

     number of k points=    34
                       cart. coord. in units 2pi/alat
        k(    1) = (   0.0000000   0.0000000   0.0000000), wk =   0.0092593
        k(    2) = (   0.0000000   0.0000000   0.0477964), wk =   0.0185185
        k(    3) = (   0.0000000   0.0000000   0.0955928), wk =   0.0185185
        k(    4) = (   0.0000000   0.0000000  -0.1433892), wk =   0.0092593
        k(    5) = (   0.0000000   0.1924501   0.0000000), wk =   0.0555556
        k(    6) = (   0.0000000   0.1924501   0.0477964), wk =   0.0555556
        k(    7) = (   0.0000000   0.1924501   0.0955928), wk =   0.0555556
        k(    8) = (   0.0000000   0.1924501  -0.1433892), wk =   0.0555556
        k(    9) = (   0.0000000   0.3849002   0.0000000), wk =   0.0555556
        k(   10) = (   0.0000000   0.3849002   0.0477964), wk =   0.0555556
        k(   11) = (   0.0000000   0.3849002   0.0955928), wk =   0.0555556
        k(   12) = (   0.0000000   0.3849002  -0.1433892), wk =   0.0555556
        k(   13) = (   0.0000000  -0.5773503   0.0000000), wk =   0.0277778
        k(   14) = (   0.0000000  -0.5773503   0.0477964), wk =   0.0555556
        k(   15) = (   0.0000000  -0.5773503   0.0955928), wk =   0.0555556
        k(   16) = (   0.0000000  -0.5773503  -0.1433892), wk =   0.0277778
        k(   17) = (   0.1666667   0.2886751   0.0000000), wk =   0.0555556
        k(   18) = (   0.1666667   0.2886751   0.0477964), wk =   0.1111111
        k(   19) = (   0.1666667   0.2886751   0.0955928), wk =   0.1111111
        k(   20) = (   0.1666667   0.2886751  -0.1433892), wk =   0.0555556
        k(   21) = (   0.1666667   0.4811252   0.0000000), wk =   0.1111111
        k(   22) = (   0.1666667   0.4811252   0.0477964), wk =   0.1111111
        k(   23) = (   0.1666667   0.4811252   0.0955928), wk =   0.1111111
        k(   24) = (   0.1666667   0.4811252  -0.1433892), wk =   0.1111111
        k(   25) = (   0.3333333   0.5773503   0.0000000), wk =   0.0185185
        k(   26) = (   0.3333333   0.5773503   0.0477964), wk =   0.0370370
        k(   27) = (   0.3333333   0.5773503   0.0955928), wk =   0.0370370
        k(   28) = (   0.3333333   0.5773503  -0.1433892), wk =   0.0185185
        k(   29) = (   0.0000000  -0.1924501   0.0477964), wk =   0.0555556
        k(   30) = (   0.0000000  -0.1924501   0.0955928), wk =   0.0555556
        k(   31) = (   0.0000000  -0.3849002   0.0477964), wk =   0.0555556
        k(   32) = (   0.0000000  -0.3849002   0.0955928), wk =   0.0555556
        k(   33) = (  -0.1666667  -0.4811252   0.0477964), wk =   0.1111111
        k(   34) = (  -0.1666667  -0.4811252   0.0955928), wk =   0.1111111

                       cryst. coord.
        k(    1) = (   0.0000000   0.0000000   0.0000000), wk =   0.0092593
        k(    2) = (   0.0000000   0.0000000   0.1666667), wk =   0.0185185
        k(    3) = (   0.0000000   0.0000000   0.3333333), wk =   0.0185185
        k(    4) = (   0.0000000   0.0000000  -0.5000000), wk =   0.0092593
        k(    5) = (   0.0000000   0.1666667   0.0000000), wk =   0.0555556
        k(    6) = (   0.0000000   0.1666667   0.1666667), wk =   0.0555556
        k(    7) = (   0.0000000   0.1666667   0.3333333), wk =   0.0555556
        k(    8) = (   0.0000000   0.1666667  -0.5000000), wk =   0.0555556
        k(    9) = (   0.0000000   0.3333333   0.0000000), wk =   0.0555556
        k(   10) = (   0.0000000   0.3333333   0.1666667), wk =   0.0555556
        k(   11) = (   0.0000000   0.3333333   0.3333333), wk =   0.0555556
        k(   12) = (   0.0000000   0.3333333  -0.5000000), wk =   0.0555556
        k(   13) = (   0.0000000  -0.5000000   0.0000000), wk =   0.0277778
        k(   14) = (   0.0000000  -0.5000000   0.1666667), wk =   0.0555556
        k(   15) = (   0.0000000  -0.5000000   0.3333333), wk =   0.0555556
        k(   16) = (   0.0000000  -0.5000000  -0.5000000), wk =   0.0277778
        k(   17) = (   0.1666667   0.1666667   0.0000000), wk =   0.0555556
        k(   18) = (   0.1666667   0.1666667   0.1666667), wk =   0.1111111
        k(   19) = (   0.1666667   0.1666667   0.3333333), wk =   0.1111111
        k(   20) = (   0.1666667   0.1666667  -0.5000000), wk =   0.0555556
        k(   21) = (   0.1666667   0.3333333   0.0000000), wk =   0.1111111
        k(   22) = (   0.1666667   0.3333333   0.1666667), wk =   0.1111111
        k(   23) = (   0.1666667   0.3333333   0.3333333), wk =   0.1111111
        k(   24) = (   0.1666667   0.3333333  -0.5000000), wk =   0.1111111
        k(   25) = (   0.3333333   0.3333333   0.0000000), wk =   0.0185185
        k(   26) = (   0.3333333   0.3333333   0.1666667), wk =   0.0370370
        k(   27) = (   0.3333333   0.3333333   0.3333333), wk =   0.0370370
        k(   28) = (   0.3333333   0.3333333  -0.5000000), wk =   0.0185185
        k(   29) = (   0.0000000  -0.1666667   0.1666667), wk =   0.0555556
        k(   30) = (   0.0000000  -0.1666667   0.3333333), wk =   0.0555556
        k(   31) = (   0.0000000  -0.3333333   0.1666667), wk =   0.0555556
        k(   32) = (   0.0000000  -0.3333333   0.3333333), wk =   0.0555556
        k(   33) = (  -0.1666667  -0.3333333   0.1666667), wk =   0.1111111
        k(   34) = (  -0.1666667  -0.3333333   0.3333333), wk =   0.1111111

     Check: negative core charge=   -0.000002

     Initial potential from superposition of free atoms

     starting charge      71.9851, renormalised to      72.0000
     Starting wfcs are   52 randomized atomic wfcs

     Self-consistent Calculation

     iteration #  1     ecut=    50.00 Ry     beta= 0.30
     Davidson diagonalization with overlap

     ethr =  1.00E-02,  avg # of iterations =  2.0

     total energy              =    -722.91199399 Ry
     estimated scf accuracy    <       1.35727641 Ry

[...]

     c_bands:  1 eigenvalues not converged
     ethr =  2.13E-11,  avg # of iterations =  9.9

[...]

     total energy              =    -723.20505123 Ry
     estimated scf accuracy    <       0.00000001 Ry

     iteration # 22     ecut=    50.00 Ry     beta= 0.30
     Davidson diagonalization with overlap

     ethr =  1.69E-11,  avg # of iterations =  1.7

     End of self-consistent calculation

          k = 0.0000 0.0000 0.0000 (  3621 PWs)   bands (ev):

   -10.2446  -9.9010  -9.9010  -9.5311   2.0777   2.1353   2.1353   2.3721
     2.3721   2.4462   2.4462   2.4462   2.4462   2.4488   2.5473   2.5473
     3.9094   3.9094   4.0187   4.0187   4.0187   4.0187   4.1035   4.1035
     4.4897   6.0649   6.0649   7.9842   7.9842   8.3172   8.3344   8.3344
     8.3344   8.3344   8.6839   8.6839

     occupation numbers
     1.0000   1.0000   1.0000   1.0000   1.0000   1.0000   1.0000   1.0000
     1.0000   1.0000   1.0000   1.0000   1.0000   1.0000   1.0000   1.0000
     1.0000   1.0000   1.0000   1.0000   1.0000   1.0000   1.0000   1.0000
     1.0000   1.0000   1.0000   1.0000   1.0000   1.0000   1.0000   1.0000
     1.0000   1.0000   1.0000   1.0000

[...]

          k = 0.0000-0.3849 0.0956 (  3531 PWs)   bands (ev):

[...]

          k =-0.1667-0.4811 0.0478 (  3523 PWs)   bands (ev):

[...]

          k =-0.1667-0.4811 0.0956 (  3516 PWs)   bands (ev):

    -9.3767  -9.3324  -9.2181  -9.1790   2.0556   2.1140   2.1441   2.2905
     2.6944   2.7148   2.8802   2.9657   3.1122   3.1350   3.1782   3.1977
     3.8343   3.9381   4.0202   4.0640   4.2016   4.2075   4.3421   4.4483
     4.5033   4.6893   5.0551   5.1341   5.6375   5.9872   6.0285   6.3555
     6.8638   7.0220   7.2099   7.2865

     occupation numbers
     1.0000   1.0000   1.0000   1.0000   1.0000   1.0000   1.0000   1.0000
     1.0000   1.0000   1.0000   1.0000   1.0000   1.0000   1.0000   1.0000
     1.0000   1.0000   1.0000   1.0000   1.0000   1.0000   1.0000   1.0000
     1.0000   1.0000   1.0000   1.0000   1.0000   1.0000   1.0000   1.0000
     1.0000   1.0000   1.0000   1.0000

     highest occupied level (ev):     8.6839

!    total energy              =    -723.20505122 Ry
     estimated scf accuracy    <          9.1E-09 Ry

     The total energy is the sum of the following terms:
     one-electron contribution =    -284.51169570 Ry
     hartree contribution      =     228.04984527 Ry
     xc contribution           =    -219.57549494 Ry
     ewald contribution        =    -447.16770585 Ry

     convergence has been achieved in  22 iterations

     Forces acting on atoms (cartesian axes, Ry/au):

     atom    1 type  1   force =     0.00000000    0.00000000    0.03512270
     atom    2 type  1   force =     0.00000000    0.00000000    0.03508602
     atom    3 type  2   force =     0.00000000    0.00000000   -0.03511218
     atom    4 type  2   force =     0.00000000    0.00000000   -0.03511252
     atom    5 type  1   force =     0.00000000    0.00000000    0.03510535
     atom    6 type  1   force =     0.00000000    0.00000000    0.03513565
     atom    7 type  2   force =     0.00000000    0.00000000   -0.03511314
     atom    8 type  2   force =     0.00000000    0.00000000   -0.03511188
     The non-local contrib.  to forces
     atom    1 type  1   force =     0.00000000   -0.00000000    0.22019898
     atom    2 type  1   force =     0.00000000    0.00000000    0.22018053
     atom    3 type  2   force =     0.00000000    0.00000000    0.18834974
     atom    4 type  2   force =     0.00000000    0.00000000    0.18835510
     atom    5 type  1   force =     0.00000000   -0.00000000    0.22019075
     atom    6 type  1   force =     0.00000000    0.00000000    0.22020691
     atom    7 type  2   force =     0.00000000   -0.00000000    0.18835808
     atom    8 type  2   force =     0.00000000   -0.00000000    0.18835529
     The ionic contribution  to forces
     atom    1 type  1   force =    -0.00000000    0.00000000    1.78031638
     atom    2 type  1   force =     0.00000000   -0.00000000    1.78031638
     atom    3 type  2   force =    -0.00000000    0.00000000   -1.78031638
     atom    4 type  2   force =     0.00000000   -0.00000000   -1.78031638
     atom    5 type  1   force =    -0.00000000    0.00000000    1.78031638
     atom    6 type  1   force =     0.00000000   -0.00000000    1.78031638
     atom    7 type  2   force =    -0.00000000    0.00000000   -1.78031638
     atom    8 type  2   force =     0.00000000   -0.00000000   -1.78031638
     The local contribution  to forces
     atom    1 type  1   force =    -0.00000004    0.00000002   -1.94817388
     atom    2 type  1   force =     0.00000004   -0.00000002   -1.94812636
     atom    3 type  2   force =    -0.00000001    0.00000001    1.55822944
     atom    4 type  2   force =     0.00000001   -0.00000001    1.55824267
     atom    5 type  1   force =    -0.00000004    0.00000002   -1.94816243
     atom    6 type  1   force =     0.00000004   -0.00000002   -1.94820087
     atom    7 type  2   force =    -0.00000001    0.00000001    1.55827273
     atom    8 type  2   force =     0.00000001   -0.00000001    1.55825958
     The core correction contribution to forces
     atom    1 type  1   force =    -0.00000001    0.00000000   -0.01724522
     atom    2 type  1   force =     0.00000001   -0.00000000   -0.01724805
     atom    3 type  2   force =     0.00000000   -0.00000000   -0.00140920
     atom    4 type  2   force =    -0.00000000    0.00000000   -0.00140823
     atom    5 type  1   force =    -0.00000001    0.00000000   -0.01724645
     atom    6 type  1   force =     0.00000001   -0.00000000   -0.01724384
     atom    7 type  2   force =     0.00000000   -0.00000000   -0.00140922
     atom    8 type  2   force =    -0.00000000    0.00000000   -0.00141023
     The Hubbard contrib.    to forces
     atom    1 type  1   force =     0.00000000    0.00000000    0.00000000
     atom    2 type  1   force =     0.00000000    0.00000000    0.00000000
     atom    3 type  2   force =     0.00000000    0.00000000    0.00000000
     atom    4 type  2   force =     0.00000000    0.00000000    0.00000000
     atom    5 type  1   force =     0.00000000    0.00000000    0.00000000
     atom    6 type  1   force =     0.00000000    0.00000000    0.00000000
     atom    7 type  2   force =     0.00000000    0.00000000    0.00000000
     atom    8 type  2   force =     0.00000000    0.00000000    0.00000000
     The SCF correction term to forces
     atom    1 type  1   force =    -0.00000000    0.00000000    0.00002822
     atom    2 type  1   force =     0.00000000   -0.00000000   -0.00003470
     atom    3 type  2   force =     0.00000000   -0.00000000    0.00003599
     atom    4 type  2   force =    -0.00000000    0.00000000    0.00001609
     atom    5 type  1   force =    -0.00000000    0.00000000    0.00000887
     atom    6 type  1   force =     0.00000000   -0.00000000    0.00005884
     atom    7 type  2   force =     0.00000000   -0.00000000   -0.00001657
     atom    8 type  2   force =    -0.00000000    0.00000000    0.00000163

     Total force =     0.099313     Total SCF correction =     0.000086

     General routines

     Parallel routines

   This run was terminated on:  14:11: 5  26Aug2025

   JOB DONE.