     Program PWSCF v.7.0 starts on 26Aug2025 at 14:59:59

     K-points division:     npool     =       4
     band groups division:  nbgrp     =       4

     Reading input from /home/jvc/QEspresso7.2/ZnO_database/scripts/cell112.in/ZnO-3.20-1.55-112.in
Warning: card &CELL ignored
Warning: card / ignored
Warning: card &FCP ignored
Warning: card / ignored
Warning: card &RISM ignored
Warning: card / ignored

     Current dimensions of program PWSCF are:
     Max number of different atomic species (ntypx) = 10
     Max number of k-points (npk) =  40000
     Max angular momentum in pseudopotentials (lmaxx) =  4
     file Zn.upf: wavefunction(s)  3D renormalized
     Found identity + (  0.0000  0.0000  0.5000) symmetry
     This is a supercell, fractional translations are disabled
     Message from routine setup:
     using ibrav=0 with symmetry is DISCOURAGED, use correct ibrav instead

     Subspace diagonalization in iterative solution of the eigenvalue problem:
     a serial algorithm will be used

     Using Slab Decomposition

     bravais-lattice index     =            0
     lattice parameter (alat)  =       6.0553  a.u.
     unit-cell volume          =     595.9829 (a.u.)^3
     number of atoms/cell      =            8
     number of atomic types    =            2
     number of electrons       =        72.00
     number of Kohn-Sham states=           36
     kinetic-energy cutoff     =      50.0000  Ry
     charge density cutoff     =     400.0000  Ry
     scf convergence threshold =      1.0E-08
     mixing beta               =       0.3000
     number of iterations used =            8  plain     mixing
     Exchange-correlation= PBE
                           (   1   4   3   4   0   0   0)

     celldm(1)=   6.055277  celldm(2)=   0.000000  celldm(3)=   0.000000
     celldm(4)=   0.000000  celldm(5)=   0.000000  celldm(6)=   0.000000

     crystal axes: (cart. coord. in units of alat)
               a(1) = (   1.000000   0.000000   0.000000 )
               a(2) = (  -0.500000   0.866025   0.000000 )
               a(3) = (   0.000000   0.000000   3.099568 )

     reciprocal axes: (cart. coord. in units 2 pi/alat)
               b(1) = (  1.000000  0.577350 -0.000000 )
               b(2) = (  0.000000  1.154701  0.000000 )
               b(3) = (  0.000000 -0.000000  0.322626 )

     PseudoPot. # 1 for Zn read from file:
     /home/jvc/QEspresso7.2/ZnO_database/pseudos/Zn.upf
     MD5 check sum: 7f56cabf9682ed8c977c2f7d0c5985c5
     Pseudo is Ultrasoft + core correction, Zval = 12.0
     Generated using &quot;atomic&quot; code by A. Dal Corso  v.6.2.2
     Using radial grid of 1201 points,  6 beta functions with:
                l(1) =   0
                l(2) =   0
                l(3) =   1
                l(4) =   1
                l(5) =   2
                l(6) =   2
     Q(r) pseudized with 0 coefficients

     PseudoPot. # 2 for O  read from file:
     /home/jvc/QEspresso7.2/ZnO_database/pseudos/O.upf
     MD5 check sum: 91400c9766925bcf19f520983a725ff0
     Pseudo is Ultrasoft + core correction, Zval =  6.0
     Generated using &quot;atomic&quot; code by A. Dal Corso  v.6.3MaX
     Using radial grid of 1095 points,  4 beta functions with:
                l(1) =   0
                l(2) =   0
                l(3) =   1
                l(4) =   1
     Q(r) pseudized with 0 coefficients

     atomic species   valence    mass     pseudopotential
        Zn            12.00    65.38000     Zn( 1.00)
        O              6.00    15.99900     O ( 1.00)

      6 Sym. Ops. (no inversion) found

                                    s                        frac. trans.

      isym =  1     identity

 cryst.   s( 1) = (     1          0          0      )
                  (     0          1          0      )
                  (     0          0          1      )

 cart.    s( 1) = (  1.0000000  0.0000000  0.0000000 )
                  (  0.0000000  1.0000000  0.0000000 )
                  (  0.0000000  0.0000000  1.0000000 )

      isym =  2     120 deg rotation - cryst. axis [0,0,1]

[...]

      isym =  3     120 deg rotation - cryst. axis [0,0,-1]

[...]

      isym =  4     inv. 180 deg rotation - cart. axis [1,0,0]

[...]

      isym =  5     inv. 180 deg rotation - cryst. axis [0,1,0]

[...]

      isym =  6     inv. 180 deg rotation - cryst. axis [1,1,0]

 cryst.   s( 6) = (     0         -1          0      )
                  (    -1          0          0      )
                  (     0          0          1      )

 cart.    s( 6) = (  0.5000000 -0.8660254  0.0000000 )
                  ( -0.8660254 -0.5000000  0.0000000 )
                  (  0.0000000  0.0000000  1.0000000 )

   Cartesian axes

     site n.     atom                  positions (alat units)
         1           Zn  tau(   1) = (   0.5000000   0.2886751   0.7758739  )
         2           Zn  tau(   2) = (  -0.0000000   0.5773503   0.0009819  )
         3           O   tau(   3) = (   0.5000000   0.2886751   1.3633085  )
         4           O   tau(   4) = (  -0.0000000   0.5773503   0.5884164  )
         5           Zn  tau(   5) = (   0.5000000   0.2886751   2.3256580  )
         6           Zn  tau(   6) = (  -0.0000000   0.5773503   1.5507659  )
         7           O   tau(   7) = (   0.5000000   0.2886751   2.9130925  )
         8           O   tau(   8) = (  -0.0000000   0.5773503   2.1382005  )

   Crystallographic axes

     site n.     atom                  positions (cryst. coord.)
         1           Zn  tau(   1) = (  0.6666667  0.3333333  0.2503168  )
         2           Zn  tau(   2) = (  0.3333333  0.6666667  0.0003168  )
         3           O   tau(   3) = (  0.6666667  0.3333333  0.4398382  )
         4           O   tau(   4) = (  0.3333333  0.6666667  0.1898382  )
         5           Zn  tau(   5) = (  0.6666667  0.3333333  0.7503168  )
         6           Zn  tau(   6) = (  0.3333333  0.6666667  0.5003168  )
         7           O   tau(   7) = (  0.6666667  0.3333333  0.9398382  )
         8           O   tau(   8) = (  0.3333333  0.6666667  0.6898382  )

     number of k points=    34
                       cart. coord. in units 2pi/alat
        k(    1) = (   0.0000000   0.0000000   0.0000000), wk =   0.0092593
        k(    2) = (   0.0000000   0.0000000   0.0537709), wk =   0.0185185
        k(    3) = (   0.0000000   0.0000000   0.1075419), wk =   0.0185185
        k(    4) = (   0.0000000   0.0000000  -0.1613128), wk =   0.0092593
        k(    5) = (   0.0000000   0.1924501   0.0000000), wk =   0.0555556
        k(    6) = (   0.0000000   0.1924501   0.0537709), wk =   0.0555556
        k(    7) = (   0.0000000   0.1924501   0.1075419), wk =   0.0555556
        k(    8) = (   0.0000000   0.1924501  -0.1613128), wk =   0.0555556
        k(    9) = (   0.0000000   0.3849002   0.0000000), wk =   0.0555556
        k(   10) = (   0.0000000   0.3849002   0.0537709), wk =   0.0555556
        k(   11) = (   0.0000000   0.3849002   0.1075419), wk =   0.0555556
        k(   12) = (   0.0000000   0.3849002  -0.1613128), wk =   0.0555556
        k(   13) = (   0.0000000  -0.5773503   0.0000000), wk =   0.0277778
        k(   14) = (   0.0000000  -0.5773503   0.0537709), wk =   0.0555556
        k(   15) = (   0.0000000  -0.5773503   0.1075419), wk =   0.0555556
        k(   16) = (   0.0000000  -0.5773503  -0.1613128), wk =   0.0277778
        k(   17) = (   0.1666667   0.2886751   0.0000000), wk =   0.0555556
        k(   18) = (   0.1666667   0.2886751   0.0537709), wk =   0.1111111
        k(   19) = (   0.1666667   0.2886751   0.1075419), wk =   0.1111111
        k(   20) = (   0.1666667   0.2886751  -0.1613128), wk =   0.0555556
        k(   21) = (   0.1666667   0.4811252   0.0000000), wk =   0.1111111
        k(   22) = (   0.1666667   0.4811252   0.0537709), wk =   0.1111111
        k(   23) = (   0.1666667   0.4811252   0.1075419), wk =   0.1111111
        k(   24) = (   0.1666667   0.4811252  -0.1613128), wk =   0.1111111
        k(   25) = (   0.3333333   0.5773503   0.0000000), wk =   0.0185185
        k(   26) = (   0.3333333   0.5773503   0.0537709), wk =   0.0370370
        k(   27) = (   0.3333333   0.5773503   0.1075419), wk =   0.0370370
        k(   28) = (   0.3333333   0.5773503  -0.1613128), wk =   0.0185185
        k(   29) = (   0.0000000  -0.1924501   0.0537709), wk =   0.0555556
        k(   30) = (   0.0000000  -0.1924501   0.1075419), wk =   0.0555556
        k(   31) = (   0.0000000  -0.3849002   0.0537709), wk =   0.0555556
        k(   32) = (   0.0000000  -0.3849002   0.1075419), wk =   0.0555556
        k(   33) = (  -0.1666667  -0.4811252   0.0537709), wk =   0.1111111
        k(   34) = (  -0.1666667  -0.4811252   0.1075419), wk =   0.1111111

                       cryst. coord.
        k(    1) = (   0.0000000   0.0000000   0.0000000), wk =   0.0092593
        k(    2) = (   0.0000000   0.0000000   0.1666667), wk =   0.0185185
        k(    3) = (   0.0000000   0.0000000   0.3333333), wk =   0.0185185
        k(    4) = (   0.0000000   0.0000000  -0.5000000), wk =   0.0092593
        k(    5) = (   0.0000000   0.1666667   0.0000000), wk =   0.0555556
        k(    6) = (   0.0000000   0.1666667   0.1666667), wk =   0.0555556
        k(    7) = (   0.0000000   0.1666667   0.3333333), wk =   0.0555556
        k(    8) = (   0.0000000   0.1666667  -0.5000000), wk =   0.0555556
        k(    9) = (   0.0000000   0.3333333   0.0000000), wk =   0.0555556
        k(   10) = (   0.0000000   0.3333333   0.1666667), wk =   0.0555556
        k(   11) = (   0.0000000   0.3333333   0.3333333), wk =   0.0555556
        k(   12) = (   0.0000000   0.3333333  -0.5000000), wk =   0.0555556
        k(   13) = (   0.0000000  -0.5000000   0.0000000), wk =   0.0277778
        k(   14) = (   0.0000000  -0.5000000   0.1666667), wk =   0.0555556
        k(   15) = (   0.0000000  -0.5000000   0.3333333), wk =   0.0555556
        k(   16) = (   0.0000000  -0.5000000  -0.5000000), wk =   0.0277778
        k(   17) = (   0.1666667   0.1666667   0.0000000), wk =   0.0555556
        k(   18) = (   0.1666667   0.1666667   0.1666667), wk =   0.1111111
        k(   19) = (   0.1666667   0.1666667   0.3333333), wk =   0.1111111
        k(   20) = (   0.1666667   0.1666667  -0.5000000), wk =   0.0555556
        k(   21) = (   0.1666667   0.3333333   0.0000000), wk =   0.1111111
        k(   22) = (   0.1666667   0.3333333   0.1666667), wk =   0.1111111
        k(   23) = (   0.1666667   0.3333333   0.3333333), wk =   0.1111111
        k(   24) = (   0.1666667   0.3333333  -0.5000000), wk =   0.1111111
        k(   25) = (   0.3333333   0.3333333   0.0000000), wk =   0.0185185
        k(   26) = (   0.3333333   0.3333333   0.1666667), wk =   0.0370370
        k(   27) = (   0.3333333   0.3333333   0.3333333), wk =   0.0370370
        k(   28) = (   0.3333333   0.3333333  -0.5000000), wk =   0.0185185
        k(   29) = (   0.0000000  -0.1666667   0.1666667), wk =   0.0555556
        k(   30) = (   0.0000000  -0.1666667   0.3333333), wk =   0.0555556
        k(   31) = (   0.0000000  -0.3333333   0.1666667), wk =   0.0555556
        k(   32) = (   0.0000000  -0.3333333   0.3333333), wk =   0.0555556
        k(   33) = (  -0.1666667  -0.3333333   0.1666667), wk =   0.1111111
        k(   34) = (  -0.1666667  -0.3333333   0.3333333), wk =   0.1111111

     Check: negative core charge=   -0.000002

     Initial potential from superposition of free atoms

     starting charge      71.9851, renormalised to      72.0000
     Starting wfcs are   52 randomized atomic wfcs

     Self-consistent Calculation

     iteration #  1     ecut=    50.00 Ry     beta= 0.30
     Davidson diagonalization with overlap

     ethr =  1.00E-02,  avg # of iterations =  2.0

     total energy              =    -722.93394164 Ry
     estimated scf accuracy    <       1.35648883 Ry

[...]

     total energy              =    -723.22758008 Ry
     estimated scf accuracy    <       0.00000010 Ry

     iteration # 26     ecut=    50.00 Ry     beta= 0.30
     Davidson diagonalization with overlap

     ethr =  2.18E-11,  avg # of iterations =  6.2

     End of self-consistent calculation

          k = 0.0000 0.0000 0.0000 (  3571 PWs)   bands (ev):

   -10.2800  -9.8358  -9.8357  -9.3659   2.0269   2.0269   2.2875   2.3866
     2.3866   2.4193   2.4670   2.4670   2.4670   2.4670   2.6304   2.6304
     3.7715   3.7715   3.9503   3.9503   3.9504   3.9504   4.0538   4.0538
     4.3240   6.2736   6.2736   7.4316   7.4316   7.9350   7.9350   7.9351
     7.9351   8.4036   8.4228   8.4228

     occupation numbers
     1.0000   1.0000   1.0000   1.0000   1.0000   1.0000   1.0000   1.0000
     1.0000   1.0000   1.0000   1.0000   1.0000   1.0000   1.0000   1.0000
     1.0000   1.0000   1.0000   1.0000   1.0000   1.0000   1.0000   1.0000
     1.0000   1.0000   1.0000   1.0000   1.0000   1.0000   1.0000   1.0000
     1.0000   1.0000   1.0000   1.0000

[...]

          k = 0.0000-0.3849 0.1075 (  3569 PWs)   bands (ev):

[...]

          k =-0.1667-0.4811 0.0538 (  3558 PWs)   bands (ev):

[...]

          k =-0.1667-0.4811 0.1075 (  3568 PWs)   bands (ev):

    -9.4870  -9.4249  -9.2750  -9.2285   1.9604   2.0403   2.0987   2.2951
     2.6085   2.6335   2.7617   2.7981   3.0054   3.0763   3.1125   3.2330
     3.7676   3.8679   3.9255   3.9611   4.1096   4.1205   4.2622   4.3076
     4.4537   4.6383   5.0195   5.1123   5.3934   5.7696   5.9430   6.4956
     6.7846   7.0381   7.2638   7.3631

     occupation numbers
     1.0000   1.0000   1.0000   1.0000   1.0000   1.0000   1.0000   1.0000
     1.0000   1.0000   1.0000   1.0000   1.0000   1.0000   1.0000   1.0000
     1.0000   1.0000   1.0000   1.0000   1.0000   1.0000   1.0000   1.0000
     1.0000   1.0000   1.0000   1.0000   1.0000   1.0000   1.0000   1.0000
     1.0000   1.0000   1.0000   1.0000

     highest occupied level (ev):     8.4228

!    total energy              =    -723.22758008 Ry
     estimated scf accuracy    <          6.6E-09 Ry

     The total energy is the sum of the following terms:
     one-electron contribution =    -286.07640670 Ry
     hartree contribution      =     228.62045755 Ry
     xc contribution           =    -219.53942169 Ry
     ewald contribution        =    -446.23220925 Ry

     convergence has been achieved in  26 iterations

     Forces acting on atoms (cartesian axes, Ry/au):

     atom    1 type  1   force =     0.00000000    0.00000000   -0.02408026
     atom    2 type  1   force =     0.00000000    0.00000000   -0.02405596
     atom    3 type  2   force =     0.00000000    0.00000000    0.02406965
     atom    4 type  2   force =     0.00000000    0.00000000    0.02406811
     atom    5 type  1   force =     0.00000000    0.00000000   -0.02405090
     atom    6 type  1   force =     0.00000000    0.00000000   -0.02408775
     atom    7 type  2   force =     0.00000000   -0.00000000    0.02406682
     atom    8 type  2   force =     0.00000000   -0.00000000    0.02407029
     The non-local contrib.  to forces
     atom    1 type  1   force =    -0.00000000    0.00000000   -0.12909734
     atom    2 type  1   force =     0.00000000   -0.00000000   -0.12907820
     atom    3 type  2   force =     0.00000000    0.00000000   -0.08795931
     atom    4 type  2   force =     0.00000000   -0.00000000   -0.08796126
     atom    5 type  1   force =     0.00000000    0.00000000   -0.12908463
     atom    6 type  1   force =     0.00000000   -0.00000000   -0.12910361
     atom    7 type  2   force =     0.00000000    0.00000000   -0.08797759
     atom    8 type  2   force =     0.00000000   -0.00000000   -0.08796298
     The ionic contribution  to forces
     atom    1 type  1   force =    -0.00000000    0.00000000   -0.83223645
     atom    2 type  1   force =     0.00000000   -0.00000000   -0.83223645
     atom    3 type  2   force =    -0.00000000    0.00000000    0.83223645
     atom    4 type  2   force =     0.00000000   -0.00000000    0.83223645
     atom    5 type  1   force =    -0.00000000    0.00000000   -0.83223645
     atom    6 type  1   force =     0.00000000   -0.00000000   -0.83223645
     atom    7 type  2   force =    -0.00000000    0.00000000    0.83223645
     atom    8 type  2   force =     0.00000000   -0.00000000    0.83223645
     The local contribution  to forces
     atom    1 type  1   force =    -0.00000004    0.00000002    0.92664086
     atom    2 type  1   force =     0.00000004   -0.00000002    0.92660281
     atom    3 type  2   force =    -0.00000001    0.00000001   -0.72081732
     atom    4 type  2   force =     0.00000001   -0.00000001   -0.72081365
     atom    5 type  1   force =    -0.00000004    0.00000002    0.92659705
     atom    6 type  1   force =     0.00000004   -0.00000002    0.92666129
     atom    7 type  2   force =    -0.00000001    0.00000001   -0.72083688
     atom    8 type  2   force =     0.00000001   -0.00000001   -0.72082139
     The core correction contribution to forces
     atom    1 type  1   force =    -0.00000001    0.00000000    0.01064609
     atom    2 type  1   force =     0.00000001   -0.00000000    0.01064584
     atom    3 type  2   force =     0.00000000   -0.00000000    0.00059252
     atom    4 type  2   force =    -0.00000000    0.00000000    0.00059256
     atom    5 type  1   force =    -0.00000001    0.00000000    0.01064699
     atom    6 type  1   force =     0.00000001   -0.00000000    0.01064557
     atom    7 type  2   force =     0.00000000   -0.00000000    0.00059273
     atom    8 type  2   force =    -0.00000000    0.00000000    0.00059258
     The Hubbard contrib.    to forces
     atom    1 type  1   force =     0.00000000    0.00000000    0.00000000
     atom    2 type  1   force =     0.00000000    0.00000000    0.00000000
     atom    3 type  2   force =     0.00000000    0.00000000    0.00000000
     atom    4 type  2   force =     0.00000000    0.00000000    0.00000000
     atom    5 type  1   force =     0.00000000    0.00000000    0.00000000
     atom    6 type  1   force =     0.00000000    0.00000000    0.00000000
     atom    7 type  2   force =     0.00000000    0.00000000    0.00000000
     atom    8 type  2   force =     0.00000000    0.00000000    0.00000000
     The SCF correction term to forces
     atom    1 type  1   force =    -0.00000000    0.00000000   -0.00003637
     atom    2 type  1   force =     0.00000000   -0.00000000    0.00000709
     atom    3 type  2   force =    -0.00000000    0.00000000    0.00001438
     atom    4 type  2   force =     0.00000000   -0.00000000    0.00001108
     atom    5 type  1   force =    -0.00000000    0.00000000    0.00002320
     atom    6 type  1   force =     0.00000000   -0.00000000   -0.00005749
     atom    7 type  2   force =    -0.00000000    0.00000000    0.00004917
     atom    8 type  2   force =     0.00000000   -0.00000000    0.00002269

     Total force =     0.068077     Total SCF correction =     0.000092

     General routines

     Parallel routines

   This run was terminated on:  15: 2:46  26Aug2025

   JOB DONE.