     Program PWSCF v.7.0 starts on 26Aug2025 at 16: 4:17

     K-points division:     npool     =       4
     band groups division:  nbgrp     =       4

     Reading input from /home/jvc/QEspresso7.2/ZnO_database/scripts/cell112.in/ZnO-3.27-1.74-112.in
Warning: card &CELL ignored
Warning: card / ignored
Warning: card &FCP ignored
Warning: card / ignored
Warning: card &RISM ignored
Warning: card / ignored

     Current dimensions of program PWSCF are:
     Max number of different atomic species (ntypx) = 10
     Max number of k-points (npk) =  40000
     Max angular momentum in pseudopotentials (lmaxx) =  4
     file Zn.upf: wavefunction(s)  3D renormalized
     Found identity + (  0.0000  0.0000  0.5000) symmetry
     This is a supercell, fractional translations are disabled
     Message from routine setup:
     using ibrav=0 with symmetry is DISCOURAGED, use correct ibrav instead

     Subspace diagonalization in iterative solution of the eigenvalue problem:
     a serial algorithm will be used

     Using Slab Decomposition

     bravais-lattice index     =            0
     lattice parameter (alat)  =       6.1789  a.u.
     unit-cell volume          =     712.3741 (a.u.)^3
     number of atoms/cell      =            8
     number of atomic types    =            2
     number of electrons       =        72.00
     number of Kohn-Sham states=           36
     kinetic-energy cutoff     =      50.0000  Ry
     charge density cutoff     =     400.0000  Ry
     scf convergence threshold =      1.0E-08
     mixing beta               =       0.3000
     number of iterations used =            8  plain     mixing
     Exchange-correlation= PBE
                           (   1   4   3   4   0   0   0)

     celldm(1)=   6.178854  celldm(2)=   0.000000  celldm(3)=   0.000000
     celldm(4)=   0.000000  celldm(5)=   0.000000  celldm(6)=   0.000000

     crystal axes: (cart. coord. in units of alat)
               a(1) = (   1.000000   0.000000   0.000000 )
               a(2) = (  -0.500000   0.866025   0.000000 )
               a(3) = (   0.000000   0.000000   3.487014 )

     reciprocal axes: (cart. coord. in units 2 pi/alat)
               b(1) = (  1.000000  0.577350 -0.000000 )
               b(2) = (  0.000000  1.154701  0.000000 )
               b(3) = (  0.000000 -0.000000  0.286778 )

     PseudoPot. # 1 for Zn read from file:
     /home/jvc/QEspresso7.2/ZnO_database/pseudos/Zn.upf
     MD5 check sum: 7f56cabf9682ed8c977c2f7d0c5985c5
     Pseudo is Ultrasoft + core correction, Zval = 12.0
     Generated using &quot;atomic&quot; code by A. Dal Corso  v.6.2.2
     Using radial grid of 1201 points,  6 beta functions with:
                l(1) =   0
                l(2) =   0
                l(3) =   1
                l(4) =   1
                l(5) =   2
                l(6) =   2
     Q(r) pseudized with 0 coefficients

     PseudoPot. # 2 for O  read from file:
     /home/jvc/QEspresso7.2/ZnO_database/pseudos/O.upf
     MD5 check sum: 91400c9766925bcf19f520983a725ff0
     Pseudo is Ultrasoft + core correction, Zval =  6.0
     Generated using &quot;atomic&quot; code by A. Dal Corso  v.6.3MaX
     Using radial grid of 1095 points,  4 beta functions with:
                l(1) =   0
                l(2) =   0
                l(3) =   1
                l(4) =   1
     Q(r) pseudized with 0 coefficients

     atomic species   valence    mass     pseudopotential
        Zn            12.00    65.38000     Zn( 1.00)
        O              6.00    15.99900     O ( 1.00)

      6 Sym. Ops. (no inversion) found

                                    s                        frac. trans.

      isym =  1     identity

 cryst.   s( 1) = (     1          0          0      )
                  (     0          1          0      )
                  (     0          0          1      )

 cart.    s( 1) = (  1.0000000  0.0000000  0.0000000 )
                  (  0.0000000  1.0000000  0.0000000 )
                  (  0.0000000  0.0000000  1.0000000 )

      isym =  2     120 deg rotation - cryst. axis [0,0,1]

[...]

      isym =  3     120 deg rotation - cryst. axis [0,0,-1]

[...]

      isym =  4     inv. 180 deg rotation - cart. axis [1,0,0]

[...]

      isym =  5     inv. 180 deg rotation - cryst. axis [0,1,0]

[...]

      isym =  6     inv. 180 deg rotation - cryst. axis [1,1,0]

 cryst.   s( 6) = (     0         -1          0      )
                  (    -1          0          0      )
                  (     0          0          1      )

 cart.    s( 6) = (  0.5000000 -0.8660254  0.0000000 )
                  ( -0.8660254 -0.5000000  0.0000000 )
                  (  0.0000000  0.0000000  1.0000000 )

   Cartesian axes

     site n.     atom                  positions (alat units)
         1           Zn  tau(   1) = (   0.5000000   0.2886751   0.8728582  )
         2           Zn  tau(   2) = (  -0.0000000   0.5773503   0.0011047  )
         3           O   tau(   3) = (   0.5000000   0.2886751   1.5337220  )
         4           O   tau(   4) = (  -0.0000000   0.5773503   0.6619685  )
         5           Zn  tau(   5) = (   0.5000000   0.2886751   2.6163652  )
         6           Zn  tau(   6) = (  -0.0000000   0.5773503   1.7446117  )
         7           O   tau(   7) = (   0.5000000   0.2886751   3.2772290  )
         8           O   tau(   8) = (  -0.0000000   0.5773503   2.4054755  )

   Crystallographic axes

     site n.     atom                  positions (cryst. coord.)
         1           Zn  tau(   1) = (  0.6666667  0.3333333  0.2503168  )
         2           Zn  tau(   2) = (  0.3333333  0.6666667  0.0003168  )
         3           O   tau(   3) = (  0.6666667  0.3333333  0.4398382  )
         4           O   tau(   4) = (  0.3333333  0.6666667  0.1898382  )
         5           Zn  tau(   5) = (  0.6666667  0.3333333  0.7503168  )
         6           Zn  tau(   6) = (  0.3333333  0.6666667  0.5003168  )
         7           O   tau(   7) = (  0.6666667  0.3333333  0.9398382  )
         8           O   tau(   8) = (  0.3333333  0.6666667  0.6898382  )

     number of k points=    34
                       cart. coord. in units 2pi/alat
        k(    1) = (   0.0000000   0.0000000   0.0000000), wk =   0.0092593
        k(    2) = (   0.0000000   0.0000000   0.0477964), wk =   0.0185185
        k(    3) = (   0.0000000   0.0000000   0.0955928), wk =   0.0185185
        k(    4) = (   0.0000000   0.0000000  -0.1433892), wk =   0.0092593
        k(    5) = (   0.0000000   0.1924501   0.0000000), wk =   0.0555556
        k(    6) = (   0.0000000   0.1924501   0.0477964), wk =   0.0555556
        k(    7) = (   0.0000000   0.1924501   0.0955928), wk =   0.0555556
        k(    8) = (   0.0000000   0.1924501  -0.1433892), wk =   0.0555556
        k(    9) = (   0.0000000   0.3849002   0.0000000), wk =   0.0555556
        k(   10) = (   0.0000000   0.3849002   0.0477964), wk =   0.0555556
        k(   11) = (   0.0000000   0.3849002   0.0955928), wk =   0.0555556
        k(   12) = (   0.0000000   0.3849002  -0.1433892), wk =   0.0555556
        k(   13) = (   0.0000000  -0.5773503   0.0000000), wk =   0.0277778
        k(   14) = (   0.0000000  -0.5773503   0.0477964), wk =   0.0555556
        k(   15) = (   0.0000000  -0.5773503   0.0955928), wk =   0.0555556
        k(   16) = (   0.0000000  -0.5773503  -0.1433892), wk =   0.0277778
        k(   17) = (   0.1666667   0.2886751   0.0000000), wk =   0.0555556
        k(   18) = (   0.1666667   0.2886751   0.0477964), wk =   0.1111111
        k(   19) = (   0.1666667   0.2886751   0.0955928), wk =   0.1111111
        k(   20) = (   0.1666667   0.2886751  -0.1433892), wk =   0.0555556
        k(   21) = (   0.1666667   0.4811252   0.0000000), wk =   0.1111111
        k(   22) = (   0.1666667   0.4811252   0.0477964), wk =   0.1111111
        k(   23) = (   0.1666667   0.4811252   0.0955928), wk =   0.1111111
        k(   24) = (   0.1666667   0.4811252  -0.1433892), wk =   0.1111111
        k(   25) = (   0.3333333   0.5773503   0.0000000), wk =   0.0185185
        k(   26) = (   0.3333333   0.5773503   0.0477964), wk =   0.0370370
        k(   27) = (   0.3333333   0.5773503   0.0955928), wk =   0.0370370
        k(   28) = (   0.3333333   0.5773503  -0.1433892), wk =   0.0185185
        k(   29) = (   0.0000000  -0.1924501   0.0477964), wk =   0.0555556
        k(   30) = (   0.0000000  -0.1924501   0.0955928), wk =   0.0555556
        k(   31) = (   0.0000000  -0.3849002   0.0477964), wk =   0.0555556
        k(   32) = (   0.0000000  -0.3849002   0.0955928), wk =   0.0555556
        k(   33) = (  -0.1666667  -0.4811252   0.0477964), wk =   0.1111111
        k(   34) = (  -0.1666667  -0.4811252   0.0955928), wk =   0.1111111

                       cryst. coord.
        k(    1) = (   0.0000000   0.0000000   0.0000000), wk =   0.0092593
        k(    2) = (   0.0000000   0.0000000   0.1666667), wk =   0.0185185
        k(    3) = (   0.0000000   0.0000000   0.3333333), wk =   0.0185185
        k(    4) = (   0.0000000   0.0000000  -0.5000000), wk =   0.0092593
        k(    5) = (   0.0000000   0.1666667   0.0000000), wk =   0.0555556
        k(    6) = (   0.0000000   0.1666667   0.1666667), wk =   0.0555556
        k(    7) = (   0.0000000   0.1666667   0.3333333), wk =   0.0555556
        k(    8) = (   0.0000000   0.1666667  -0.5000000), wk =   0.0555556
        k(    9) = (   0.0000000   0.3333333   0.0000000), wk =   0.0555556
        k(   10) = (   0.0000000   0.3333333   0.1666667), wk =   0.0555556
        k(   11) = (   0.0000000   0.3333333   0.3333333), wk =   0.0555556
        k(   12) = (   0.0000000   0.3333333  -0.5000000), wk =   0.0555556
        k(   13) = (   0.0000000  -0.5000000   0.0000000), wk =   0.0277778
        k(   14) = (   0.0000000  -0.5000000   0.1666667), wk =   0.0555556
        k(   15) = (   0.0000000  -0.5000000   0.3333333), wk =   0.0555556
        k(   16) = (   0.0000000  -0.5000000  -0.5000000), wk =   0.0277778
        k(   17) = (   0.1666667   0.1666667   0.0000000), wk =   0.0555556
        k(   18) = (   0.1666667   0.1666667   0.1666667), wk =   0.1111111
        k(   19) = (   0.1666667   0.1666667   0.3333333), wk =   0.1111111
        k(   20) = (   0.1666667   0.1666667  -0.5000000), wk =   0.0555556
        k(   21) = (   0.1666667   0.3333333   0.0000000), wk =   0.1111111
        k(   22) = (   0.1666667   0.3333333   0.1666667), wk =   0.1111111
        k(   23) = (   0.1666667   0.3333333   0.3333333), wk =   0.1111111
        k(   24) = (   0.1666667   0.3333333  -0.5000000), wk =   0.1111111
        k(   25) = (   0.3333333   0.3333333   0.0000000), wk =   0.0185185
        k(   26) = (   0.3333333   0.3333333   0.1666667), wk =   0.0370370
        k(   27) = (   0.3333333   0.3333333   0.3333333), wk =   0.0370370
        k(   28) = (   0.3333333   0.3333333  -0.5000000), wk =   0.0185185
        k(   29) = (   0.0000000  -0.1666667   0.1666667), wk =   0.0555556
        k(   30) = (   0.0000000  -0.1666667   0.3333333), wk =   0.0555556
        k(   31) = (   0.0000000  -0.3333333   0.1666667), wk =   0.0555556
        k(   32) = (   0.0000000  -0.3333333   0.3333333), wk =   0.0555556
        k(   33) = (  -0.1666667  -0.3333333   0.1666667), wk =   0.1111111
        k(   34) = (  -0.1666667  -0.3333333   0.3333333), wk =   0.1111111

     Check: negative core charge=   -0.000002

     Initial potential from superposition of free atoms

     starting charge      71.9851, renormalised to      72.0000
     Starting wfcs are   52 randomized atomic wfcs

     Self-consistent Calculation

     iteration #  1     ecut=    50.00 Ry     beta= 0.30
     Davidson diagonalization with overlap

     ethr =  1.00E-02,  avg # of iterations =  1.8

     total energy              =    -722.90980068 Ry
     estimated scf accuracy    <       1.45591412 Ry

[...]

     total energy              =    -723.24760579 Ry
     estimated scf accuracy    <       0.00000006 Ry

     iteration # 31     ecut=    50.00 Ry     beta= 0.30
     Davidson diagonalization with overlap

     ethr =  4.93E-11,  avg # of iterations =  6.6

     End of self-consistent calculation

          k = 0.0000 0.0000 0.0000 (  4195 PWs)   bands (ev):

   -11.5342 -11.3032 -11.3031 -11.0598   0.4601   0.4602   0.4933   0.4933
     0.5471   0.5471   0.5471   0.5471   0.5563   0.6202   0.6202   0.7175
     1.4575   1.4575   1.5261   1.5261   1.5262   1.5262   1.5809   1.5809
     1.9530   3.4800   3.4800   5.3611   5.3611   5.6128   5.6240   5.6240
     5.6241   5.6241   5.8851   5.8851

     occupation numbers
     1.0000   1.0000   1.0000   1.0000   1.0000   1.0000   1.0000   1.0000
     1.0000   1.0000   1.0000   1.0000   1.0000   1.0000   1.0000   1.0000
     1.0000   1.0000   1.0000   1.0000   1.0000   1.0000   1.0000   1.0000
     1.0000   1.0000   1.0000   1.0000   1.0000   1.0000   1.0000   1.0000
     1.0000   1.0000   1.0000   1.0000

[...]

          k = 0.0000-0.3849 0.0956 (  4252 PWs)   bands (ev):

[...]

          k =-0.1667-0.4811 0.0478 (  4267 PWs)   bands (ev):

[...]

          k =-0.1667-0.4811 0.0956 (  4270 PWs)   bands (ev):

   -10.9467 -10.9178 -10.8422 -10.8159   0.4382   0.4518   0.5330   0.6381
     0.7690   0.7895   0.9599   1.0226   1.0311   1.0747   1.0835   1.1388
     1.4276   1.4926   1.5398   1.5629   1.6559   1.6636   1.7569   1.8166
     2.2265   2.3196   2.5994   2.6971   3.4667   3.7511   3.7880   4.0965
     4.4317   4.5878   4.7676   4.7967

     occupation numbers
     1.0000   1.0000   1.0000   1.0000   1.0000   1.0000   1.0000   1.0000
     1.0000   1.0000   1.0000   1.0000   1.0000   1.0000   1.0000   1.0000
     1.0000   1.0000   1.0000   1.0000   1.0000   1.0000   1.0000   1.0000
     1.0000   1.0000   1.0000   1.0000   1.0000   1.0000   1.0000   1.0000
     1.0000   1.0000   1.0000   1.0000

     highest occupied level (ev):     5.8851

!    total energy              =    -723.24760581 Ry
     estimated scf accuracy    <          7.1E-09 Ry

     The total energy is the sum of the following terms:
     one-electron contribution =    -327.30478762 Ry
     hartree contribution      =     243.19521049 Ry
     xc contribution           =    -218.80038518 Ry
     ewald contribution        =    -420.33764350 Ry

     convergence has been achieved in  31 iterations

     Forces acting on atoms (cartesian axes, Ry/au):

     atom    1 type  1   force =     0.00000000    0.00000000    0.00752903
     atom    2 type  1   force =     0.00000000    0.00000000    0.00749412
     atom    3 type  2   force =     0.00000000    0.00000000   -0.00750536
     atom    4 type  2   force =     0.00000000    0.00000000   -0.00751073
     atom    5 type  1   force =     0.00000000   -0.00000000    0.00746863
     atom    6 type  1   force =     0.00000000    0.00000000    0.00754262
     atom    7 type  2   force =     0.00000000    0.00000000   -0.00751059
     atom    8 type  2   force =     0.00000000   -0.00000000   -0.00750772
     The non-local contrib.  to forces
     atom    1 type  1   force =     0.00000000    0.00000000    0.19971693
     atom    2 type  1   force =     0.00000000   -0.00000000    0.19969054
     atom    3 type  2   force =    -0.00000000   -0.00000000    0.20176113
     atom    4 type  2   force =    -0.00000000   -0.00000000    0.20176116
     atom    5 type  1   force =     0.00000000   -0.00000000    0.19967877
     atom    6 type  1   force =     0.00000000    0.00000000    0.19972188
     atom    7 type  2   force =     0.00000000    0.00000000    0.20177596
     atom    8 type  2   force =     0.00000000    0.00000000    0.20178079
     The ionic contribution  to forces
     atom    1 type  1   force =    -0.00000000    0.00000000    1.57308755
     atom    2 type  1   force =     0.00000000   -0.00000000    1.57308755
     atom    3 type  2   force =    -0.00000000    0.00000000   -1.57308755
     atom    4 type  2   force =     0.00000000   -0.00000000   -1.57308755
     atom    5 type  1   force =    -0.00000000    0.00000000    1.57308755
     atom    6 type  1   force =     0.00000000   -0.00000000    1.57308755
     atom    7 type  2   force =    -0.00000000    0.00000000   -1.57308755
     atom    8 type  2   force =     0.00000000   -0.00000000   -1.57308755
     The local contribution  to forces
     atom    1 type  1   force =    -0.00000004    0.00000002   -1.75193849
     atom    2 type  1   force =     0.00000004   -0.00000002   -1.75188040
     atom    3 type  2   force =    -0.00000001    0.00000001    1.36548338
     atom    4 type  2   force =     0.00000001   -0.00000001    1.36550113
     atom    5 type  1   force =    -0.00000004    0.00000002   -1.75183698
     atom    6 type  1   force =     0.00000004   -0.00000002   -1.75195332
     atom    7 type  2   force =    -0.00000001    0.00000001    1.36553502
     atom    8 type  2   force =     0.00000001   -0.00000001    1.36553186
     The core correction contribution to forces
     atom    1 type  1   force =    -0.00000001    0.00000000   -0.01337821
     atom    2 type  1   force =     0.00000001   -0.00000000   -0.01337843
     atom    3 type  2   force =     0.00000000   -0.00000000   -0.00171677
     atom    4 type  2   force =    -0.00000000    0.00000000   -0.00171676
     atom    5 type  1   force =    -0.00000001    0.00000000   -0.01337933
     atom    6 type  1   force =     0.00000001   -0.00000000   -0.01337848
     atom    7 type  2   force =     0.00000000   -0.00000000   -0.00171689
     atom    8 type  2   force =    -0.00000000    0.00000000   -0.00171699
     The Hubbard contrib.    to forces
     atom    1 type  1   force =     0.00000000    0.00000000    0.00000000
     atom    2 type  1   force =     0.00000000    0.00000000    0.00000000
     atom    3 type  2   force =     0.00000000    0.00000000    0.00000000
     atom    4 type  2   force =     0.00000000    0.00000000    0.00000000
     atom    5 type  1   force =     0.00000000    0.00000000    0.00000000
     atom    6 type  1   force =     0.00000000    0.00000000    0.00000000
     atom    7 type  2   force =     0.00000000    0.00000000    0.00000000
     atom    8 type  2   force =     0.00000000    0.00000000    0.00000000
     The SCF correction term to forces
     atom    1 type  1   force =    -0.00000000    0.00000000    0.00003979
     atom    2 type  1   force =     0.00000000   -0.00000000   -0.00002659
     atom    3 type  2   force =     0.00000000   -0.00000000    0.00005299
     atom    4 type  2   force =    -0.00000000    0.00000000    0.00002983
     atom    5 type  1   force =    -0.00000000    0.00000000   -0.00008283
     atom    6 type  1   force =     0.00000000   -0.00000000    0.00006352
     atom    7 type  2   force =     0.00000000   -0.00000000   -0.00001859
     atom    8 type  2   force =    -0.00000000    0.00000000   -0.00001728

     Total force =     0.021238     Total SCF correction =     0.000132

     General routines

     Parallel routines

   This run was terminated on:  16: 8:44  26Aug2025

   JOB DONE.