     Program PWSCF v.7.0 starts on 26Aug2025 at 19: 7: 2

     K-points division:     npool     =       4
     band groups division:  nbgrp     =       4

     Reading input from /home/jvc/QEspresso7.2/ZnO_database/scripts/cell112.in/ZnO-3.53-1.52-112.in
Warning: card &CELL ignored
Warning: card / ignored
Warning: card &FCP ignored
Warning: card / ignored
Warning: card &RISM ignored
Warning: card / ignored

     Current dimensions of program PWSCF are:
     Max number of different atomic species (ntypx) = 10
     Max number of k-points (npk) =  40000
     Max angular momentum in pseudopotentials (lmaxx) =  4
     file Zn.upf: wavefunction(s)  3D renormalized
     Found identity + (  0.0000  0.0000  0.5000) symmetry
     This is a supercell, fractional translations are disabled
     Message from routine setup:
     using ibrav=0 with symmetry is DISCOURAGED, use correct ibrav instead

     Subspace diagonalization in iterative solution of the eigenvalue problem:
     a serial algorithm will be used

     Using Slab Decomposition

     bravais-lattice index     =            0
     lattice parameter (alat)  =       6.6732  a.u.
     unit-cell volume          =     781.0584 (a.u.)^3
     number of atoms/cell      =            8
     number of atomic types    =            2
     number of electrons       =        72.00
     number of Kohn-Sham states=           36
     kinetic-energy cutoff     =      50.0000  Ry
     charge density cutoff     =     400.0000  Ry
     scf convergence threshold =      1.0E-08
     mixing beta               =       0.3000
     number of iterations used =            8  plain     mixing
     Exchange-correlation= PBE
                           (   1   4   3   4   0   0   0)

     celldm(1)=   6.673162  celldm(2)=   0.000000  celldm(3)=   0.000000
     celldm(4)=   0.000000  celldm(5)=   0.000000  celldm(6)=   0.000000

     crystal axes: (cart. coord. in units of alat)
               a(1) = (   1.000000   0.000000   0.000000 )
               a(2) = (  -0.500000   0.866025   0.000000 )
               a(3) = (   0.000000   0.000000   3.034994 )

     reciprocal axes: (cart. coord. in units 2 pi/alat)
               b(1) = (  1.000000  0.577350 -0.000000 )
               b(2) = (  0.000000  1.154701  0.000000 )
               b(3) = (  0.000000 -0.000000  0.329490 )

     PseudoPot. # 1 for Zn read from file:
     /home/jvc/QEspresso7.2/ZnO_database/pseudos/Zn.upf
     MD5 check sum: 7f56cabf9682ed8c977c2f7d0c5985c5
     Pseudo is Ultrasoft + core correction, Zval = 12.0
     Generated using &quot;atomic&quot; code by A. Dal Corso  v.6.2.2
     Using radial grid of 1201 points,  6 beta functions with:
                l(1) =   0
                l(2) =   0
                l(3) =   1
                l(4) =   1
                l(5) =   2
                l(6) =   2
     Q(r) pseudized with 0 coefficients

     PseudoPot. # 2 for O  read from file:
     /home/jvc/QEspresso7.2/ZnO_database/pseudos/O.upf
     MD5 check sum: 91400c9766925bcf19f520983a725ff0
     Pseudo is Ultrasoft + core correction, Zval =  6.0
     Generated using &quot;atomic&quot; code by A. Dal Corso  v.6.3MaX
     Using radial grid of 1095 points,  4 beta functions with:
                l(1) =   0
                l(2) =   0
                l(3) =   1
                l(4) =   1
     Q(r) pseudized with 0 coefficients

     atomic species   valence    mass     pseudopotential
        Zn            12.00    65.38000     Zn( 1.00)
        O              6.00    15.99900     O ( 1.00)

      6 Sym. Ops. (no inversion) found

                                    s                        frac. trans.

      isym =  1     identity

 cryst.   s( 1) = (     1          0          0      )
                  (     0          1          0      )
                  (     0          0          1      )

 cart.    s( 1) = (  1.0000000  0.0000000  0.0000000 )
                  (  0.0000000  1.0000000  0.0000000 )
                  (  0.0000000  0.0000000  1.0000000 )

      isym =  2     120 deg rotation - cryst. axis [0,0,1]

[...]

      isym =  3     120 deg rotation - cryst. axis [0,0,-1]

[...]

      isym =  4     inv. 180 deg rotation - cart. axis [1,0,0]

[...]

      isym =  5     inv. 180 deg rotation - cryst. axis [0,1,0]

[...]

      isym =  6     inv. 180 deg rotation - cryst. axis [1,1,0]

 cryst.   s( 6) = (     0         -1          0      )
                  (    -1          0          0      )
                  (     0          0          1      )

 cart.    s( 6) = (  0.5000000 -0.8660254  0.0000000 )
                  ( -0.8660254 -0.5000000  0.0000000 )
                  (  0.0000000  0.0000000  1.0000000 )

   Cartesian axes

     site n.     atom                  positions (alat units)
         1           Zn  tau(   1) = (   0.5000000   0.2886751   0.7597099  )
         2           Zn  tau(   2) = (  -0.0000000   0.5773503   0.0009615  )
         3           O   tau(   3) = (   0.5000000   0.2886751   1.3349062  )
         4           O   tau(   4) = (  -0.0000000   0.5773503   0.5761578  )
         5           Zn  tau(   5) = (   0.5000000   0.2886751   2.2772067  )
         6           Zn  tau(   6) = (  -0.0000000   0.5773503   1.5184583  )
         7           O   tau(   7) = (   0.5000000   0.2886751   2.8524030  )
         8           O   tau(   8) = (  -0.0000000   0.5773503   2.0936546  )

   Crystallographic axes

     site n.     atom                  positions (cryst. coord.)
         1           Zn  tau(   1) = (  0.6666667  0.3333333  0.2503168  )
         2           Zn  tau(   2) = (  0.3333333  0.6666667  0.0003168  )
         3           O   tau(   3) = (  0.6666667  0.3333333  0.4398382  )
         4           O   tau(   4) = (  0.3333333  0.6666667  0.1898382  )
         5           Zn  tau(   5) = (  0.6666667  0.3333333  0.7503168  )
         6           Zn  tau(   6) = (  0.3333333  0.6666667  0.5003168  )
         7           O   tau(   7) = (  0.6666667  0.3333333  0.9398382  )
         8           O   tau(   8) = (  0.3333333  0.6666667  0.6898382  )

     number of k points=    34
                       cart. coord. in units 2pi/alat
        k(    1) = (   0.0000000   0.0000000   0.0000000), wk =   0.0092593
        k(    2) = (   0.0000000   0.0000000   0.0549150), wk =   0.0185185
        k(    3) = (   0.0000000   0.0000000   0.1098300), wk =   0.0185185
        k(    4) = (   0.0000000   0.0000000  -0.1647450), wk =   0.0092593
        k(    5) = (   0.0000000   0.1924501   0.0000000), wk =   0.0555556
        k(    6) = (   0.0000000   0.1924501   0.0549150), wk =   0.0555556
        k(    7) = (   0.0000000   0.1924501   0.1098300), wk =   0.0555556
        k(    8) = (   0.0000000   0.1924501  -0.1647450), wk =   0.0555556
        k(    9) = (   0.0000000   0.3849002   0.0000000), wk =   0.0555556
        k(   10) = (   0.0000000   0.3849002   0.0549150), wk =   0.0555556
        k(   11) = (   0.0000000   0.3849002   0.1098300), wk =   0.0555556
        k(   12) = (   0.0000000   0.3849002  -0.1647450), wk =   0.0555556
        k(   13) = (   0.0000000  -0.5773503   0.0000000), wk =   0.0277778
        k(   14) = (   0.0000000  -0.5773503   0.0549150), wk =   0.0555556
        k(   15) = (   0.0000000  -0.5773503   0.1098300), wk =   0.0555556
        k(   16) = (   0.0000000  -0.5773503  -0.1647450), wk =   0.0277778
        k(   17) = (   0.1666667   0.2886751   0.0000000), wk =   0.0555556
        k(   18) = (   0.1666667   0.2886751   0.0549150), wk =   0.1111111
        k(   19) = (   0.1666667   0.2886751   0.1098300), wk =   0.1111111
        k(   20) = (   0.1666667   0.2886751  -0.1647450), wk =   0.0555556
        k(   21) = (   0.1666667   0.4811252   0.0000000), wk =   0.1111111
        k(   22) = (   0.1666667   0.4811252   0.0549150), wk =   0.1111111
        k(   23) = (   0.1666667   0.4811252   0.1098300), wk =   0.1111111
        k(   24) = (   0.1666667   0.4811252  -0.1647450), wk =   0.1111111
        k(   25) = (   0.3333333   0.5773503   0.0000000), wk =   0.0185185
        k(   26) = (   0.3333333   0.5773503   0.0549150), wk =   0.0370370
        k(   27) = (   0.3333333   0.5773503   0.1098300), wk =   0.0370370
        k(   28) = (   0.3333333   0.5773503  -0.1647450), wk =   0.0185185
        k(   29) = (   0.0000000  -0.1924501   0.0549150), wk =   0.0555556
        k(   30) = (   0.0000000  -0.1924501   0.1098300), wk =   0.0555556
        k(   31) = (   0.0000000  -0.3849002   0.0549150), wk =   0.0555556
        k(   32) = (   0.0000000  -0.3849002   0.1098300), wk =   0.0555556
        k(   33) = (  -0.1666667  -0.4811252   0.0549150), wk =   0.1111111
        k(   34) = (  -0.1666667  -0.4811252   0.1098300), wk =   0.1111111

                       cryst. coord.
        k(    1) = (   0.0000000   0.0000000   0.0000000), wk =   0.0092593
        k(    2) = (   0.0000000   0.0000000   0.1666667), wk =   0.0185185
        k(    3) = (   0.0000000   0.0000000   0.3333333), wk =   0.0185185
        k(    4) = (   0.0000000   0.0000000  -0.5000000), wk =   0.0092593
        k(    5) = (   0.0000000   0.1666667   0.0000000), wk =   0.0555556
        k(    6) = (   0.0000000   0.1666667   0.1666667), wk =   0.0555556
        k(    7) = (   0.0000000   0.1666667   0.3333333), wk =   0.0555556
        k(    8) = (   0.0000000   0.1666667  -0.5000000), wk =   0.0555556
        k(    9) = (   0.0000000   0.3333333   0.0000000), wk =   0.0555556
        k(   10) = (   0.0000000   0.3333333   0.1666667), wk =   0.0555556
        k(   11) = (   0.0000000   0.3333333   0.3333333), wk =   0.0555556
        k(   12) = (   0.0000000   0.3333333  -0.5000000), wk =   0.0555556
        k(   13) = (   0.0000000  -0.5000000   0.0000000), wk =   0.0277778
        k(   14) = (   0.0000000  -0.5000000   0.1666667), wk =   0.0555556
        k(   15) = (   0.0000000  -0.5000000   0.3333333), wk =   0.0555556
        k(   16) = (   0.0000000  -0.5000000  -0.5000000), wk =   0.0277778
        k(   17) = (   0.1666667   0.1666667   0.0000000), wk =   0.0555556
        k(   18) = (   0.1666667   0.1666667   0.1666667), wk =   0.1111111
        k(   19) = (   0.1666667   0.1666667   0.3333333), wk =   0.1111111
        k(   20) = (   0.1666667   0.1666667  -0.5000000), wk =   0.0555556
        k(   21) = (   0.1666667   0.3333333   0.0000000), wk =   0.1111111
        k(   22) = (   0.1666667   0.3333333   0.1666667), wk =   0.1111111
        k(   23) = (   0.1666667   0.3333333   0.3333333), wk =   0.1111111
        k(   24) = (   0.1666667   0.3333333  -0.5000000), wk =   0.1111111
        k(   25) = (   0.3333333   0.3333333   0.0000000), wk =   0.0185185
        k(   26) = (   0.3333333   0.3333333   0.1666667), wk =   0.0370370
        k(   27) = (   0.3333333   0.3333333   0.3333333), wk =   0.0370370
        k(   28) = (   0.3333333   0.3333333  -0.5000000), wk =   0.0185185
        k(   29) = (   0.0000000  -0.1666667   0.1666667), wk =   0.0555556
        k(   30) = (   0.0000000  -0.1666667   0.3333333), wk =   0.0555556
        k(   31) = (   0.0000000  -0.3333333   0.1666667), wk =   0.0555556
        k(   32) = (   0.0000000  -0.3333333   0.3333333), wk =   0.0555556
        k(   33) = (  -0.1666667  -0.3333333   0.1666667), wk =   0.1111111
        k(   34) = (  -0.1666667  -0.3333333   0.3333333), wk =   0.1111111

     Check: negative core charge=   -0.000002

     Initial potential from superposition of free atoms

     starting charge      71.9851, renormalised to      72.0000
     Starting wfcs are   52 randomized atomic wfcs

     Self-consistent Calculation

     iteration #  1     ecut=    50.00 Ry     beta= 0.30
     Davidson diagonalization with overlap

     ethr =  1.00E-02,  avg # of iterations =  1.6

     total energy              =    -722.83251903 Ry
     estimated scf accuracy    <       1.54735573 Ry

[...]

     c_bands:  1 eigenvalues not converged
     ethr =  1.03E-06,  avg # of iterations = 13.4

[...]

     total energy              =    -723.20095567 Ry
     estimated scf accuracy    <       0.00000003 Ry

     iteration # 33     ecut=    50.00 Ry     beta= 0.30
     Davidson diagonalization with overlap

     ethr =  3.82E-11,  avg # of iterations =  4.6

     End of self-consistent calculation

          k = 0.0000 0.0000 0.0000 (  4647 PWs)   bands (ev):

   -12.0998 -11.8371 -11.8371 -11.5680  -0.4218  -0.4218  -0.3361  -0.3264
    -0.3264  -0.2753  -0.2753  -0.2753  -0.2753  -0.1688  -0.1688   0.3156
     0.3156   0.3864   0.4188   0.4188   0.4188   0.4188   0.4763   0.4763
     0.7000   2.6308   2.6308   3.9007   3.9007   4.2666   4.2666   4.2666
     4.2666   4.6145   4.6145   4.6539

     occupation numbers
     1.0000   1.0000   1.0000   1.0000   1.0000   1.0000   1.0000   1.0000
     1.0000   1.0000   1.0000   1.0000   1.0000   1.0000   1.0000   1.0000
     1.0000   1.0000   1.0000   1.0000   1.0000   1.0000   1.0000   1.0000
     1.0000   1.0000   1.0000   1.0000   1.0000   1.0000   1.0000   1.0000
     1.0000   1.0000   1.0000   1.0000

[...]

          k = 0.0000-0.3849 0.1098 (  4679 PWs)   bands (ev):

[...]

          k =-0.1667-0.4811 0.0549 (  4645 PWs)   bands (ev):

[...]

          k =-0.1667-0.4811 0.1098 (  4644 PWs)   bands (ev):

   -11.6669 -11.6317 -11.5451 -11.5172  -0.4008  -0.3539  -0.3056  -0.2180
    -0.1384  -0.0946  -0.0060   0.0143   0.0648   0.0923   0.1416   0.2015
     0.3469   0.3887   0.4087   0.4224   0.5089   0.5211   0.5943   0.6233
     1.3330   1.3813   1.6634   1.8063   2.4498   2.7241   2.8691   3.3581
     3.4868   3.7142   3.8343   3.9675

     occupation numbers
     1.0000   1.0000   1.0000   1.0000   1.0000   1.0000   1.0000   1.0000
     1.0000   1.0000   1.0000   1.0000   1.0000   1.0000   1.0000   1.0000
     1.0000   1.0000   1.0000   1.0000   1.0000   1.0000   1.0000   1.0000
     1.0000   1.0000   1.0000   1.0000   1.0000   1.0000   1.0000   1.0000
     1.0000   1.0000   1.0000   1.0000

     highest occupied level (ev):     4.6539

!    total energy              =    -723.20095568 Ry
     estimated scf accuracy    <          4.6E-09 Ry

     The total energy is the sum of the following terms:
     one-electron contribution =    -348.11821994 Ry
     hartree contribution      =     250.86714596 Ry
     xc contribution           =    -218.47374560 Ry
     ewald contribution        =    -407.47613610 Ry

     convergence has been achieved in  33 iterations

     Forces acting on atoms (cartesian axes, Ry/au):

     atom    1 type  1   force =     0.00000000   -0.00000000   -0.00585569
     atom    2 type  1   force =     0.00000000   -0.00000000   -0.00586090
     atom    3 type  2   force =     0.00000000   -0.00000000    0.00586198
     atom    4 type  2   force =     0.00000000   -0.00000000    0.00586045
     atom    5 type  1   force =     0.00000000    0.00000000   -0.00586274
     atom    6 type  1   force =     0.00000000    0.00000000   -0.00586343
     atom    7 type  2   force =     0.00000000   -0.00000000    0.00585938
     atom    8 type  2   force =     0.00000000   -0.00000000    0.00586095
     The non-local contrib.  to forces
     atom    1 type  1   force =     0.00000000    0.00000000   -0.16892392
     atom    2 type  1   force =     0.00000000    0.00000000   -0.16892241
     atom    3 type  2   force =     0.00000000   -0.00000000   -0.14764236
     atom    4 type  2   force =     0.00000000   -0.00000000   -0.14764272
     atom    5 type  1   force =    -0.00000000    0.00000000   -0.16892781
     atom    6 type  1   force =     0.00000000   -0.00000000   -0.16892977
     atom    7 type  2   force =     0.00000000   -0.00000000   -0.14764436
     atom    8 type  2   force =     0.00000000    0.00000000   -0.14764145
     The ionic contribution  to forces
     atom    1 type  1   force =    -0.00000000    0.00000000   -1.08201231
     atom    2 type  1   force =     0.00000000   -0.00000000   -1.08201231
     atom    3 type  2   force =    -0.00000000    0.00000000    1.08201231
     atom    4 type  2   force =     0.00000000   -0.00000000    1.08201231
     atom    5 type  1   force =    -0.00000000    0.00000000   -1.08201231
     atom    6 type  1   force =     0.00000000   -0.00000000   -1.08201231
     atom    7 type  2   force =    -0.00000000    0.00000000    1.08201231
     atom    8 type  2   force =     0.00000000   -0.00000000    1.08201231
     The local contribution  to forces
     atom    1 type  1   force =    -0.00000005    0.00000003    1.23425388
     atom    2 type  1   force =     0.00000005   -0.00000003    1.23425551
     atom    3 type  2   force =    -0.00000001    0.00000001   -0.92974795
     atom    4 type  2   force =     0.00000001   -0.00000001   -0.92975320
     atom    5 type  1   force =    -0.00000005    0.00000003    1.23425514
     atom    6 type  1   force =     0.00000005   -0.00000003    1.23425940
     atom    7 type  2   force =    -0.00000001    0.00000001   -0.92975115
     atom    8 type  2   force =     0.00000001   -0.00000001   -0.92974877
     The core correction contribution to forces
     atom    1 type  1   force =    -0.00000001    0.00000000    0.01082571
     atom    2 type  1   force =     0.00000001   -0.00000000    0.01082296
     atom    3 type  2   force =     0.00000000   -0.00000000    0.00124080
     atom    4 type  2   force =    -0.00000000    0.00000000    0.00124197
     atom    5 type  1   force =    -0.00000001    0.00000000    0.01082399
     atom    6 type  1   force =     0.00000001   -0.00000000    0.01082658
     atom    7 type  2   force =     0.00000000   -0.00000000    0.00124123
     atom    8 type  2   force =    -0.00000000    0.00000000    0.00124002
     The Hubbard contrib.    to forces
     atom    1 type  1   force =     0.00000000    0.00000000    0.00000000
     atom    2 type  1   force =     0.00000000    0.00000000    0.00000000
     atom    3 type  2   force =     0.00000000    0.00000000    0.00000000
     atom    4 type  2   force =     0.00000000    0.00000000    0.00000000
     atom    5 type  1   force =     0.00000000    0.00000000    0.00000000
     atom    6 type  1   force =     0.00000000    0.00000000    0.00000000
     atom    7 type  2   force =     0.00000000    0.00000000    0.00000000
     atom    8 type  2   force =     0.00000000    0.00000000    0.00000000
     The SCF correction term to forces
     atom    1 type  1   force =    -0.00000000    0.00000000    0.00000091
     atom    2 type  1   force =     0.00000000   -0.00000000   -0.00000470
     atom    3 type  2   force =     0.00000000   -0.00000000   -0.00000086
     atom    4 type  2   force =    -0.00000000    0.00000000    0.00000204
     atom    5 type  1   force =    -0.00000000    0.00000000   -0.00000179
     atom    6 type  1   force =     0.00000000   -0.00000000   -0.00000737
     atom    7 type  2   force =     0.00000000   -0.00000000    0.00000131
     atom    8 type  2   force =    -0.00000000    0.00000000   -0.00000120

     Total force =     0.016577     Total SCF correction =     0.000009

     General routines

     Parallel routines

   This run was terminated on:  19:13: 0  26Aug2025

   JOB DONE.