     Program PWSCF v.7.2 starts on 19Jul2025 at 17:26: 8

     Reading input from /home/jvc/QEspresso7.2/ZnO_database/scripts/cell123.in/ZnO-3.53-1.49-123.in
Warning: card &CELL ignored
Warning: card / ignored
Warning: card &FCP ignored
Warning: card / ignored
Warning: card &RISM ignored
Warning: card / ignored

     Current dimensions of program PWSCF are:
     Max number of different atomic species (ntypx) = 10
     Max number of k-points (npk) =  40000
     Max angular momentum in pseudopotentials (lmaxx) =  4
     file Zn.upf: wavefunction(s)  3D renormalized
     Found identity + (  0.0000  0.0000  0.3333) symmetry
     This is a supercell, fractional translations are disabled
     Message from routine setup:
     using ibrav=0 with symmetry is DISCOURAGED, use correct ibrav instead

     K-points division:     npool     =       8
     R & G space division:  proc/nbgrp/npool/nimage =       4
     Subspace diagonalization in iterative solution of the eigenvalue problem:
     a serial algorithm will be used

     Using Slab Decomposition

     bravais-lattice index     =            0
     lattice parameter (alat)  =       6.1788  a.u.
     unit-cell volume          =    1978.7861 (a.u.)^3
     number of atoms/cell      =           24
     number of atomic types    =            2
     number of electrons       =       216.00
     number of Kohn-Sham states=          108
     kinetic-energy cutoff     =      50.0000  Ry
     charge density cutoff     =     400.0000  Ry
     scf convergence threshold =      1.0E-08
     mixing beta               =       0.3000
     number of iterations used =            8  plain     mixing
     Exchange-correlation= PBE
                           (   1   4   3   4   0   0   0)

     celldm(1)=   6.178822  celldm(2)=   0.000000  celldm(3)=   0.000000
     celldm(4)=   0.000000  celldm(5)=   0.000000  celldm(6)=   0.000000

     crystal axes: (cart. coord. in units of alat)
               a(1) = (   1.000000   0.000000   0.000000 )
               a(2) = (  -1.000000   1.732051   0.000000 )
               a(3) = (   0.000000   0.000000   4.843075 )

     reciprocal axes: (cart. coord. in units 2 pi/alat)
               b(1) = (  1.000000  0.577350 -0.000000 )
               b(2) = (  0.000000  0.577350  0.000000 )
               b(3) = (  0.000000 -0.000000  0.206480 )

     PseudoPot. # 1 for Zn read from file:
     /home/jvc/QEspresso7.2/ZnO_database/pseudos/Zn.upf
     MD5 check sum: 7f56cabf9682ed8c977c2f7d0c5985c5
     Pseudo is Ultrasoft + core correction, Zval = 12.0
     Generated using &quot;atomic&quot; code by A. Dal Corso  v.6.2.2
     Using radial grid of 1201 points,  6 beta functions with:
                l(1) =   0
                l(2) =   0
                l(3) =   1
                l(4) =   1
                l(5) =   2
                l(6) =   2
     Q(r) pseudized with 0 coefficients

     PseudoPot. # 2 for O  read from file:
     /home/jvc/QEspresso7.2/ZnO_database/pseudos/O.upf
     MD5 check sum: 91400c9766925bcf19f520983a725ff0
     Pseudo is Ultrasoft + core correction, Zval =  6.0
     Generated using &quot;atomic&quot; code by A. Dal Corso  v.6.3MaX
     Using radial grid of 1095 points,  4 beta functions with:
                l(1) =   0
                l(2) =   0
                l(3) =   1
                l(4) =   1
     Q(r) pseudized with 0 coefficients

     atomic species   valence    mass     pseudopotential
        Zn            12.00    65.38000     Zn( 1.00)
        O              6.00    15.99900     O ( 1.00)

      2 Sym. Ops. (no inversion) found

                                    s                        frac. trans.

      isym =  1     identity

 cryst.   s( 1) = (     1          0          0      )
                  (     0          1          0      )
                  (     0          0          1      )

 cart.    s( 1) = (  1.0000000  0.0000000  0.0000000 )
                  (  0.0000000  1.0000000  0.0000000 )
                  (  0.0000000  0.0000000  1.0000000 )

      isym =  2     inv. 180 deg rotation - cart. axis [1,0,0]

 cryst.   s( 2) = (    -1          0          0      )
                  (     2          1          0      )
                  (     0          0          1      )

 cart.    s( 2) = ( -1.0000000  0.0000000  0.0000000 )
                  (  0.0000000  1.0000000  0.0000000 )
                  (  0.0000000  0.0000000  1.0000000 )

   Cartesian axes

     site n.     atom                  positions (alat units)
         1           Zn  tau(   1) = (   0.5000000   0.2886751   0.8082020  )
         2           Zn  tau(   2) = (   0.0000000   0.5773503   0.0010228  )
         3           O   tau(   3) = (   0.5000000   0.2886751   1.4201130  )
         4           O   tau(   4) = (   0.0000000   0.5773503   0.6129338  )
         5           Zn  tau(   5) = (   0.5000000   0.2886751   2.4225604  )
         6           Zn  tau(   6) = (   0.0000000   0.5773503   1.6153812  )
         7           O   tau(   7) = (   0.5000000   0.2886751   3.0344713  )
         8           O   tau(   8) = (   0.0000000   0.5773503   2.2272921  )
         9           Zn  tau(   9) = (   0.5000000   0.2886751   4.0369187  )
        10           Zn  tau(  10) = (   0.0000000   0.5773503   3.2297395  )
        11           O   tau(  11) = (   0.5000000   0.2886751   4.6488297  )
        12           O   tau(  12) = (   0.0000000   0.5773503   3.8416505  )
        13           Zn  tau(  13) = (   0.0000000   1.1547005   0.8082020  )
        14           Zn  tau(  14) = (  -0.5000000   1.4433757   0.0010228  )
        15           O   tau(  15) = (   0.0000000   1.1547005   1.4201130  )
        16           O   tau(  16) = (  -0.5000000   1.4433757   0.6129338  )
        17           Zn  tau(  17) = (   0.0000000   1.1547005   2.4225604  )
        18           Zn  tau(  18) = (  -0.5000000   1.4433757   1.6153812  )
        19           O   tau(  19) = (   0.0000000   1.1547005   3.0344713  )
        20           O   tau(  20) = (  -0.5000000   1.4433757   2.2272921  )
        21           Zn  tau(  21) = (   0.0000000   1.1547005   4.0369187  )
        22           Zn  tau(  22) = (  -0.5000000   1.4433757   3.2297395  )
        23           O   tau(  23) = (   0.0000000   1.1547005   4.6488297  )
        24           O   tau(  24) = (  -0.5000000   1.4433757   3.8416505  )

   Crystallographic axes

     site n.     atom                  positions (cryst. coord.)
         1           Zn  tau(   1) = (  0.6666667  0.1666667  0.1668779  )
         2           Zn  tau(   2) = (  0.3333333  0.3333333  0.0002112  )
         3           O   tau(   3) = (  0.6666667  0.1666667  0.2932255  )
         4           O   tau(   4) = (  0.3333333  0.3333333  0.1265588  )
         5           Zn  tau(   5) = (  0.6666667  0.1666667  0.5002112  )
         6           Zn  tau(   6) = (  0.3333333  0.3333333  0.3335445  )
         7           O   tau(   7) = (  0.6666667  0.1666667  0.6265588  )
         8           O   tau(   8) = (  0.3333333  0.3333333  0.4598921  )
         9           Zn  tau(   9) = (  0.6666667  0.1666667  0.8335445  )
        10           Zn  tau(  10) = (  0.3333333  0.3333333  0.6668779  )
        11           O   tau(  11) = (  0.6666667  0.1666667  0.9598921  )
        12           O   tau(  12) = (  0.3333333  0.3333333  0.7932255  )
        13           Zn  tau(  13) = (  0.6666667  0.6666667  0.1668779  )
        14           Zn  tau(  14) = (  0.3333333  0.8333333  0.0002112  )
        15           O   tau(  15) = (  0.6666667  0.6666667  0.2932255  )
        16           O   tau(  16) = (  0.3333333  0.8333333  0.1265588  )
        17           Zn  tau(  17) = (  0.6666667  0.6666667  0.5002112  )
        18           Zn  tau(  18) = (  0.3333333  0.8333333  0.3335445  )
        19           O   tau(  19) = (  0.6666667  0.6666667  0.6265588  )
        20           O   tau(  20) = (  0.3333333  0.8333333  0.4598921  )
        21           Zn  tau(  21) = (  0.6666667  0.6666667  0.8335445  )
        22           Zn  tau(  22) = (  0.3333333  0.8333333  0.6668779  )
        23           O   tau(  23) = (  0.6666667  0.6666667  0.9598921  )
        24           O   tau(  24) = (  0.3333333  0.8333333  0.7932255  )

     number of k points=    16
                       cart. coord. in units 2pi/alat
        k(    1) = (   0.0000000   0.0000000   0.0000000), wk =   0.0555556
        k(    2) = (   0.0000000   0.0000000  -0.1032402), wk =   0.0555556
        k(    3) = (   0.0000000   0.1924501   0.0000000), wk =   0.1111111
        k(    4) = (   0.0000000   0.1924501  -0.1032402), wk =   0.1111111
        k(    5) = (   0.1666667   0.0962250   0.0000000), wk =   0.2222222
        k(    6) = (   0.1666667   0.0962250  -0.1032402), wk =   0.2222222
        k(    7) = (   0.1666667   0.2886751   0.0000000), wk =   0.1111111
        k(    8) = (   0.1666667   0.2886751  -0.1032402), wk =   0.1111111
        k(    9) = (   0.3333333   0.1924501   0.0000000), wk =   0.2222222
        k(   10) = (   0.3333333   0.1924501  -0.1032402), wk =   0.2222222
        k(   11) = (   0.3333333  -0.0000000   0.0000000), wk =   0.1111111
        k(   12) = (   0.3333333  -0.0000000  -0.1032402), wk =   0.1111111
        k(   13) = (  -0.5000000  -0.2886751   0.0000000), wk =   0.0555556
        k(   14) = (  -0.5000000  -0.2886751  -0.1032402), wk =   0.0555556
        k(   15) = (  -0.5000000  -0.0962250   0.0000000), wk =   0.1111111
        k(   16) = (  -0.5000000  -0.0962250  -0.1032402), wk =   0.1111111

                       cryst. coord.
        k(    1) = (   0.0000000   0.0000000   0.0000000), wk =   0.0555556
        k(    2) = (   0.0000000   0.0000000  -0.5000000), wk =   0.0555556
        k(    3) = (   0.0000000   0.3333333   0.0000000), wk =   0.1111111
        k(    4) = (   0.0000000   0.3333333  -0.5000000), wk =   0.1111111
        k(    5) = (   0.1666667   0.0000000   0.0000000), wk =   0.2222222
        k(    6) = (   0.1666667   0.0000000  -0.5000000), wk =   0.2222222
        k(    7) = (   0.1666667   0.3333333   0.0000000), wk =   0.1111111
        k(    8) = (   0.1666667   0.3333333  -0.5000000), wk =   0.1111111
        k(    9) = (   0.3333333   0.0000000   0.0000000), wk =   0.2222222
        k(   10) = (   0.3333333   0.0000000  -0.5000000), wk =   0.2222222
        k(   11) = (   0.3333333  -0.3333333   0.0000000), wk =   0.1111111
        k(   12) = (   0.3333333  -0.3333333  -0.5000000), wk =   0.1111111
        k(   13) = (  -0.5000000   0.0000000   0.0000000), wk =   0.0555556
        k(   14) = (  -0.5000000   0.0000000  -0.5000000), wk =   0.0555556
        k(   15) = (  -0.5000000   0.3333333   0.0000000), wk =   0.1111111
        k(   16) = (  -0.5000000   0.3333333  -0.5000000), wk =   0.1111111

     Check: negative core charge=   -0.000002

     Initial potential from superposition of free atoms

     starting charge     215.9553, renormalised to     216.0000
     Starting wfcs are  156 randomized atomic wfcs

     Self-consistent Calculation

     iteration #  1     ecut=    50.00 Ry     beta= 0.30
     Davidson diagonalization with overlap

[...]
     1.0000   1.0000   1.0000   1.0000

[...]

          k = 0.3333-0.0000-0.1032 ( 11810 PWs)   bands (ev):

[...]

          k =-0.5000-0.2887 0.0000 ( 11820 PWs)   bands (ev):

[...]

          k =-0.5000-0.0962-0.1032 ( 11872 PWs)   bands (ev):

   -10.3402 -10.3402 -10.3402 -10.3402 -10.2391 -10.2391 -10.2391 -10.2391
   -10.1495 -10.1495 -10.1495 -10.1495   1.0856   1.0856   1.0856   1.0856
     1.1780   1.1780   1.1780   1.1780   1.3762   1.3762   1.3762   1.3762
     1.5636   1.5637   1.5637   1.5637   1.6623   1.6623   1.6623   1.6623
     1.7730   1.7730   1.7730   1.7730   1.8597   1.8597   1.8597   1.8597
     1.9824   1.9824   1.9824   1.9824   2.0290   2.0290   2.0290   2.0290
     2.4172   2.4172   2.4172   2.4172   2.5393   2.5393   2.5393   2.5393
     2.5532   2.5532   2.5532   2.5532   2.6804   2.6804   2.6804   2.6804
     2.7390   2.7390   2.7390   2.7390   2.8696   2.8696   2.8696   2.8696
     3.1154   3.1154   3.1154   3.1154   3.4275   3.4275   3.4275   3.4275
     3.6971   3.6971   3.6971   3.6971   4.2091   4.2091   4.2091   4.2091
     4.6167   4.6168   4.6168   4.6168   4.9299   4.9299   4.9299   4.9299
     5.5972   5.5972   5.5972   5.5972   5.6422   5.6422   5.6422   5.6423
     5.7986   5.7986   5.7986   5.7986

     occupation numbers
     1.0000   1.0000   1.0000   1.0000   1.0000   1.0000   1.0000   1.0000
     1.0000   1.0000   1.0000   1.0000   1.0000   1.0000   1.0000   1.0000
     1.0000   1.0000   1.0000   1.0000   1.0000   1.0000   1.0000   1.0000
     1.0000   1.0000   1.0000   1.0000   1.0000   1.0000   1.0000   1.0000
     1.0000   1.0000   1.0000   1.0000   1.0000   1.0000   1.0000   1.0000
     1.0000   1.0000   1.0000   1.0000   1.0000   1.0000   1.0000   1.0000
     1.0000   1.0000   1.0000   1.0000   1.0000   1.0000   1.0000   1.0000
     1.0000   1.0000   1.0000   1.0000   1.0000   1.0000   1.0000   1.0000
     1.0000   1.0000   1.0000   1.0000   1.0000   1.0000   1.0000   1.0000
     1.0000   1.0000   1.0000   1.0000   1.0000   1.0000   1.0000   1.0000
     1.0000   1.0000   1.0000   1.0000   1.0000   1.0000   1.0000   1.0000
     1.0000   1.0000   1.0000   1.0000   1.0000   1.0000   1.0000   1.0000
     1.0000   1.0000   1.0000   1.0000   1.0000   1.0000   1.0000   1.0000
     1.0000   1.0000   1.0000   1.0000

     highest occupied level (ev):     6.8873

!    total energy              =   -2169.82132747 Ry
     estimated scf accuracy    <          4.2E-09 Ry

     The total energy is the sum of the following terms:
     one-electron contribution =    -927.15146039 Ry
     hartree contribution      =     709.73529274 Ry
     xc contribution           =    -657.27676789 Ry
     ewald contribution        =   -1295.12839192 Ry

     convergence has been achieved in  32 iterations

     Forces acting on atoms (cartesian axes, Ry/au):

     atom    1 type  1   force =     0.00000000    0.00000015    0.00006211
     atom    2 type  1   force =     0.00000000    0.00000145    0.00006835
     atom    3 type  2   force =     0.00000000   -0.00000041   -0.00006229
     atom    4 type  2   force =     0.00000000   -0.00000061   -0.00006348
     atom    5 type  1   force =     0.00000000    0.00000109    0.00006325
     atom    6 type  1   force =     0.00000000    0.00000179    0.00006005
     atom    7 type  2   force =     0.00000000    0.00000093   -0.00006130
     atom    8 type  2   force =     0.00000000   -0.00000066   -0.00006293
     atom    9 type  1   force =     0.00000000   -0.00000086    0.00005538
     atom   10 type  1   force =     0.00000000   -0.00000270    0.00006069
     atom   11 type  2   force =     0.00000000   -0.00000081   -0.00006124
     atom   12 type  2   force =     0.00000000    0.00000074   -0.00005799
     atom   13 type  1   force =     0.00000000    0.00000058    0.00006257
     atom   14 type  1   force =     0.00000000   -0.00000232    0.00006991
     atom   15 type  2   force =     0.00000000    0.00000062   -0.00006352
     atom   16 type  2   force =     0.00000000   -0.00000052   -0.00006458
     atom   17 type  1   force =     0.00000000   -0.00000101    0.00006075
     atom   18 type  1   force =     0.00000000   -0.00000221    0.00005836
     atom   19 type  2   force =     0.00000000    0.00000047   -0.00006066
     atom   20 type  2   force =     0.00000000    0.00000049   -0.00006337
     atom   21 type  1   force =     0.00000000    0.00000102    0.00005659
     atom   22 type  1   force =     0.00000000    0.00000236    0.00006300
     atom   23 type  2   force =     0.00000000    0.00000097   -0.00006127
     atom   24 type  2   force =     0.00000000   -0.00000056   -0.00005836
     The non-local contrib.  to forces
     atom    1 type  1   force =     0.00000000   -0.00000088   -0.00483005
     atom    2 type  1   force =     0.00000000    0.00000160   -0.00483175
     atom    3 type  2   force =     0.00000000    0.00000086    0.00575816
     atom    4 type  2   force =     0.00000000    0.00000060    0.00575165
     atom    5 type  1   force =     0.00000000    0.00000149   -0.00482826
     atom    6 type  1   force =     0.00000000    0.00000139   -0.00483073
     atom    7 type  2   force =     0.00000000    0.00000063    0.00575546
     atom    8 type  2   force =     0.00000000   -0.00000017    0.00575881
     atom    9 type  1   force =     0.00000000   -0.00000051   -0.00484077
     atom   10 type  1   force =     0.00000000   -0.00000181   -0.00483251
     atom   11 type  2   force =     0.00000000    0.00000004    0.00574363
     atom   12 type  2   force =     0.00000000   -0.00000053    0.00575241
     atom   13 type  1   force =     0.00000000    0.00000127   -0.00483013
     atom   14 type  1   force =     0.00000000   -0.00000153   -0.00483003
     atom   15 type  2   force =     0.00000000   -0.00000000    0.00575757
     atom   16 type  2   force =     0.00000000    0.00000011    0.00575220
     atom   17 type  1   force =     0.00000000   -0.00000127   -0.00482978
     atom   18 type  1   force =     0.00000000   -0.00000198   -0.00483264
     atom   19 type  2   force =     0.00000000   -0.00000060    0.00575494
     atom   20 type  2   force =     0.00000000    0.00000047    0.00576044
     atom   21 type  1   force =     0.00000000    0.00000076   -0.00483990
     atom   22 type  1   force =     0.00000000    0.00000139   -0.00483172
     atom   23 type  2   force =     0.00000000    0.00000003    0.00574361
     atom   24 type  2   force =     0.00000000    0.00000075    0.00575270
     The ionic contribution  to forces
     atom    1 type  1   force =     0.00000000    0.00000001    0.06271746
     atom    2 type  1   force =    -0.00000000    0.00000001    0.06271750
     atom    3 type  2   force =     0.00000000    0.00000001   -0.06271747
     atom    4 type  2   force =    -0.00000000    0.00000000   -0.06271748
     atom    5 type  1   force =     0.00000000    0.00000001    0.06271750
     atom    6 type  1   force =    -0.00000000    0.00000001    0.06271746
     atom    7 type  2   force =     0.00000000    0.00000001   -0.06271748
     atom    8 type  2   force =    -0.00000000    0.00000000   -0.06271746
     atom    9 type  1   force =     0.00000000    0.00000001    0.06271746
     atom   10 type  1   force =    -0.00000000    0.00000001    0.06271746
     atom   11 type  2   force =     0.00000000    0.00000001   -0.06271746
     atom   12 type  2   force =    -0.00000000    0.00000000   -0.06271747
     atom   13 type  1   force =    -0.00000000   -0.00000000    0.06271746
     atom   14 type  1   force =     0.00000000   -0.00000002    0.06271750
     atom   15 type  2   force =    -0.00000000   -0.00000000   -0.06271747
     atom   16 type  2   force =     0.00000000   -0.00000001   -0.06271748
     atom   17 type  1   force =    -0.00000000   -0.00000000    0.06271749
     atom   18 type  1   force =     0.00000000   -0.00000002    0.06271746
     atom   19 type  2   force =    -0.00000000   -0.00000000   -0.06271748
     atom   20 type  2   force =     0.00000000   -0.00000001   -0.06271746
     atom   21 type  1   force =    -0.00000000   -0.00000000    0.06271745
     atom   22 type  1   force =     0.00000000   -0.00000002    0.06271746
     atom   23 type  2   force =    -0.00000000   -0.00000000   -0.06271746
     atom   24 type  2   force =     0.00000000   -0.00000001   -0.06271747
     The local contribution  to forces
     atom    1 type  1   force =    -0.00000009    0.00000264   -0.05829231
     atom    2 type  1   force =     0.00000000   -0.00000367   -0.05829482
     atom    3 type  2   force =    -0.00000002   -0.00000156    0.05696056
     atom    4 type  2   force =     0.00000000   -0.00000275    0.05696411
     atom    5 type  1   force =    -0.00000009   -0.00000357   -0.05829622
     atom    6 type  1   force =     0.00000000   -0.00000439   -0.05828986
     atom    7 type  2   force =    -0.00000002    0.00000096    0.05696523
     atom    8 type  2   force =     0.00000000   -0.00000112    0.05695832
     atom    9 type  1   force =    -0.00000009    0.00000207   -0.05827311
     atom   10 type  1   force =     0.00000000    0.00000533   -0.05828761
     atom   11 type  2   force =    -0.00000002   -0.00000175    0.05696942
     atom   12 type  2   force =     0.00000000    0.00000215    0.05697599
     atom   13 type  1   force =    -0.00000009   -0.00000343   -0.05829327
     atom   14 type  1   force =     0.00000009    0.00000361   -0.05829898
     atom   15 type  2   force =    -0.00000002    0.00000070    0.05696093
     atom   16 type  2   force =     0.00000002    0.00000210    0.05696207
     atom   17 type  1   force =    -0.00000009    0.00000312   -0.05829166
     atom   18 type  1   force =     0.00000009    0.00000535   -0.05828500
     atom   19 type  2   force =    -0.00000002   -0.00000084    0.05696640
     atom   20 type  2   force =     0.00000002    0.00000110    0.05695635
     atom   21 type  1   force =    -0.00000009   -0.00000257   -0.05827500
     atom   22 type  1   force =     0.00000009   -0.00000468   -0.05829158
     atom   23 type  2   force =    -0.00000002    0.00000174    0.05696886
     atom   24 type  2   force =     0.00000002   -0.00000153    0.05697651
     The core correction contribution to forces
     atom    1 type  1   force =    -0.00000001   -0.00000011    0.00046396
     atom    2 type  1   force =    -0.00000000    0.00000002    0.00046412
     atom    3 type  2   force =     0.00000000   -0.00000001   -0.00006510
     atom    4 type  2   force =    -0.00000000   -0.00000002   -0.00006500
     atom    5 type  1   force =    -0.00000001    0.00000006    0.00046404
     atom    6 type  1   force =    -0.00000000    0.00000011    0.00046394
     atom    7 type  2   force =     0.00000000   -0.00000000   -0.00006504
     atom    8 type  2   force =    -0.00000000    0.00000000   -0.00006511
     atom    9 type  1   force =    -0.00000001   -0.00000008    0.00046397
     atom   10 type  1   force =    -0.00000000   -0.00000008    0.00046393
     atom   11 type  2   force =     0.00000000   -0.00000000   -0.00006488
     atom   12 type  2   force =    -0.00000000    0.00000001   -0.00006498
     atom   13 type  1   force =    -0.00000001    0.00000009    0.00046403
     atom   14 type  1   force =     0.00000001   -0.00000002    0.00046417
     atom   15 type  2   force =     0.00000000    0.00000000   -0.00006509
     atom   16 type  2   force =    -0.00000000    0.00000000   -0.00006501
     atom   17 type  1   force =    -0.00000001   -0.00000007    0.00046397
     atom   18 type  1   force =     0.00000001   -0.00000008    0.00046386
     atom   19 type  2   force =     0.00000000    0.00000001   -0.00006504
     atom   20 type  2   force =    -0.00000000   -0.00000000   -0.00006513
     atom   21 type  1   force =    -0.00000001    0.00000006    0.00046397
     atom   22 type  1   force =     0.00000001    0.00000010    0.00046404
     atom   23 type  2   force =     0.00000000    0.00000001   -0.00006488
     atom   24 type  2   force =    -0.00000000   -0.00000001   -0.00006499
     The Hubbard contrib.    to forces
     atom    1 type  1   force =     0.00000000    0.00000000    0.00000000
     atom    2 type  1   force =     0.00000000    0.00000000    0.00000000
     atom    3 type  2   force =     0.00000000    0.00000000    0.00000000
     atom    4 type  2   force =     0.00000000    0.00000000    0.00000000
     atom    5 type  1   force =     0.00000000    0.00000000    0.00000000
     atom    6 type  1   force =     0.00000000    0.00000000    0.00000000
     atom    7 type  2   force =     0.00000000    0.00000000    0.00000000
     atom    8 type  2   force =     0.00000000    0.00000000    0.00000000
     atom    9 type  1   force =     0.00000000    0.00000000    0.00000000
     atom   10 type  1   force =     0.00000000    0.00000000    0.00000000
     atom   11 type  2   force =     0.00000000    0.00000000    0.00000000
     atom   12 type  2   force =     0.00000000    0.00000000    0.00000000
     atom   13 type  1   force =     0.00000000    0.00000000    0.00000000
     atom   14 type  1   force =     0.00000000    0.00000000    0.00000000
     atom   15 type  2   force =     0.00000000    0.00000000    0.00000000
     atom   16 type  2   force =     0.00000000    0.00000000    0.00000000
     atom   17 type  1   force =     0.00000000    0.00000000    0.00000000
     atom   18 type  1   force =     0.00000000    0.00000000    0.00000000
     atom   19 type  2   force =     0.00000000    0.00000000    0.00000000
     atom   20 type  2   force =     0.00000000    0.00000000    0.00000000
     atom   21 type  1   force =     0.00000000    0.00000000    0.00000000
     atom   22 type  1   force =     0.00000000    0.00000000    0.00000000
     atom   23 type  2   force =     0.00000000    0.00000000    0.00000000
     atom   24 type  2   force =     0.00000000    0.00000000    0.00000000
     The SCF correction term to forces
     atom    1 type  1   force =    -0.00000000   -0.00000142    0.00000158
     atom    2 type  1   force =    -0.00000000    0.00000357    0.00001184
     atom    3 type  2   force =     0.00000000    0.00000038    0.00000009
     atom    4 type  2   force =     0.00000000    0.00000164    0.00000177
     atom    5 type  1   force =    -0.00000000    0.00000319    0.00000472
     atom    6 type  1   force =    -0.00000000    0.00000476   -0.00000224
     atom    7 type  2   force =     0.00000000   -0.00000057   -0.00000093
     atom    8 type  2   force =     0.00000000    0.00000071    0.00000103
     atom    9 type  1   force =    -0.00000000   -0.00000226   -0.00001363
     atom   10 type  1   force =    -0.00000000   -0.00000607   -0.00000205
     atom   11 type  2   force =     0.00000000    0.00000098    0.00000658
     atom   12 type  2   force =     0.00000000   -0.00000082   -0.00000541
     atom   13 type  1   force =    -0.00000000    0.00000274    0.00000301
     atom   14 type  1   force =     0.00000000   -0.00000429    0.00001578
     atom   15 type  2   force =     0.00000000    0.00000000   -0.00000094
     atom   16 type  2   force =    -0.00000000   -0.00000265    0.00000218
     atom   17 type  1   force =    -0.00000000   -0.00000271   -0.00000075
     atom   18 type  1   force =     0.00000000   -0.00000540   -0.00000678
     atom   19 type  2   force =     0.00000000    0.00000198   -0.00000096
     atom   20 type  2   force =    -0.00000000   -0.00000098    0.00000096
     atom   21 type  1   force =    -0.00000000    0.00000285   -0.00001141
     atom   22 type  1   force =     0.00000000    0.00000565    0.00000333
     atom   23 type  2   force =     0.00000000   -0.00000072    0.00000713
     atom   24 type  2   force =    -0.00000000    0.00000033   -0.00000658

     Total force =     0.000303     Total SCF correction =     0.000035
     SCF correction compared to forces is large: reduce conv_thr to get better values

     General routines

     Parallel routines

   This run was terminated on:  17:30:28  19Jul2025

   JOB DONE.
Note: The following floating-point exceptions are signalling: IEEE_INVALID_FLAG
Note: The following floating-point exceptions are signalling: IEEE_INVALID_FLAG
Note: The following floating-point exceptions are signalling: IEEE_INVALID_FLAG
Note: The following floating-point exceptions are signalling: IEEE_INVALID_FLAG
Note: The following floating-point exceptions are signalling: IEEE_INVALID_FLAG
Note: The following floating-point exceptions are signalling: IEEE_INVALID_FLAG
Note: The following floating-point exceptions are signalling: IEEE_INVALID_FLAG
Note: The following floating-point exceptions are signalling: IEEE_INVALID_FLAG