     Program PWSCF v.7.2 starts on 19Jul2025 at 12:59:46

     Reading input from /home/jvc/QEspresso7.2/ZnO_database/scripts/cell123.in/ZnO-3.14-1.55-123.in
Warning: card &CELL ignored
Warning: card / ignored
Warning: card &FCP ignored
Warning: card / ignored
Warning: card &RISM ignored
Warning: card / ignored

     Current dimensions of program PWSCF are:
     Max number of different atomic species (ntypx) = 10
     Max number of k-points (npk) =  40000
     Max angular momentum in pseudopotentials (lmaxx) =  4
     file Zn.upf: wavefunction(s)  3D renormalized
     Found identity + (  0.0000  0.0000  0.3333) symmetry
     This is a supercell, fractional translations are disabled
     Message from routine setup:
     using ibrav=0 with symmetry is DISCOURAGED, use correct ibrav instead

     K-points division:     npool     =       8
     R & G space division:  proc/nbgrp/npool/nimage =       4
     Subspace diagonalization in iterative solution of the eigenvalue problem:
     a serial algorithm will be used

     Using Slab Decomposition

     bravais-lattice index     =            0
     lattice parameter (alat)  =       6.1788  a.u.
     unit-cell volume          =    1978.7861 (a.u.)^3
     number of atoms/cell      =           24
     number of atomic types    =            2
     number of electrons       =       216.00
     number of Kohn-Sham states=          108
     kinetic-energy cutoff     =      50.0000  Ry
     charge density cutoff     =     400.0000  Ry
     scf convergence threshold =      1.0E-08
     mixing beta               =       0.3000
     number of iterations used =            8  plain     mixing
     Exchange-correlation= PBE
                           (   1   4   3   4   0   0   0)

     celldm(1)=   6.178822  celldm(2)=   0.000000  celldm(3)=   0.000000
     celldm(4)=   0.000000  celldm(5)=   0.000000  celldm(6)=   0.000000

     crystal axes: (cart. coord. in units of alat)
               a(1) = (   1.000000   0.000000   0.000000 )
               a(2) = (  -1.000000   1.732051   0.000000 )
               a(3) = (   0.000000   0.000000   4.843075 )

     reciprocal axes: (cart. coord. in units 2 pi/alat)
               b(1) = (  1.000000  0.577350 -0.000000 )
               b(2) = (  0.000000  0.577350  0.000000 )
               b(3) = (  0.000000 -0.000000  0.206480 )

     PseudoPot. # 1 for Zn read from file:
     /home/jvc/QEspresso7.2/ZnO_database/pseudos/Zn.upf
     MD5 check sum: 7f56cabf9682ed8c977c2f7d0c5985c5
     Pseudo is Ultrasoft + core correction, Zval = 12.0
     Generated using &quot;atomic&quot; code by A. Dal Corso  v.6.2.2
     Using radial grid of 1201 points,  6 beta functions with:
                l(1) =   0
                l(2) =   0
                l(3) =   1
                l(4) =   1
                l(5) =   2
                l(6) =   2
     Q(r) pseudized with 0 coefficients

     PseudoPot. # 2 for O  read from file:
     /home/jvc/QEspresso7.2/ZnO_database/pseudos/O.upf
     MD5 check sum: 91400c9766925bcf19f520983a725ff0
     Pseudo is Ultrasoft + core correction, Zval =  6.0
     Generated using &quot;atomic&quot; code by A. Dal Corso  v.6.3MaX
     Using radial grid of 1095 points,  4 beta functions with:
                l(1) =   0
                l(2) =   0
                l(3) =   1
                l(4) =   1
     Q(r) pseudized with 0 coefficients

     atomic species   valence    mass     pseudopotential
        Zn            12.00    65.38000     Zn( 1.00)
        O              6.00    15.99900     O ( 1.00)

      2 Sym. Ops. (no inversion) found

                                    s                        frac. trans.

      isym =  1     identity

 cryst.   s( 1) = (     1          0          0      )
                  (     0          1          0      )
                  (     0          0          1      )

 cart.    s( 1) = (  1.0000000  0.0000000  0.0000000 )
                  (  0.0000000  1.0000000  0.0000000 )
                  (  0.0000000  0.0000000  1.0000000 )

      isym =  2     inv. 180 deg rotation - cart. axis [1,0,0]

 cryst.   s( 2) = (    -1          0          0      )
                  (     2          1          0      )
                  (     0          0          1      )

 cart.    s( 2) = ( -1.0000000  0.0000000  0.0000000 )
                  (  0.0000000  1.0000000  0.0000000 )
                  (  0.0000000  0.0000000  1.0000000 )

   Cartesian axes

     site n.     atom                  positions (alat units)
         1           Zn  tau(   1) = (   0.5000000   0.2886751   0.8082020  )
         2           Zn  tau(   2) = (   0.0000000   0.5773503   0.0010228  )
         3           O   tau(   3) = (   0.5000000   0.2886751   1.4201130  )
         4           O   tau(   4) = (   0.0000000   0.5773503   0.6129338  )
         5           Zn  tau(   5) = (   0.5000000   0.2886751   2.4225604  )
         6           Zn  tau(   6) = (   0.0000000   0.5773503   1.6153812  )
         7           O   tau(   7) = (   0.5000000   0.2886751   3.0344713  )
         8           O   tau(   8) = (   0.0000000   0.5773503   2.2272921  )
         9           Zn  tau(   9) = (   0.5000000   0.2886751   4.0369187  )
        10           Zn  tau(  10) = (   0.0000000   0.5773503   3.2297395  )
        11           O   tau(  11) = (   0.5000000   0.2886751   4.6488297  )
        12           O   tau(  12) = (   0.0000000   0.5773503   3.8416505  )
        13           Zn  tau(  13) = (   0.0000000   1.1547005   0.8082020  )
        14           Zn  tau(  14) = (  -0.5000000   1.4433757   0.0010228  )
        15           O   tau(  15) = (   0.0000000   1.1547005   1.4201130  )
        16           O   tau(  16) = (  -0.5000000   1.4433757   0.6129338  )
        17           Zn  tau(  17) = (   0.0000000   1.1547005   2.4225604  )
        18           Zn  tau(  18) = (  -0.5000000   1.4433757   1.6153812  )
        19           O   tau(  19) = (   0.0000000   1.1547005   3.0344713  )
        20           O   tau(  20) = (  -0.5000000   1.4433757   2.2272921  )
        21           Zn  tau(  21) = (   0.0000000   1.1547005   4.0369187  )
        22           Zn  tau(  22) = (  -0.5000000   1.4433757   3.2297395  )
        23           O   tau(  23) = (   0.0000000   1.1547005   4.6488297  )
        24           O   tau(  24) = (  -0.5000000   1.4433757   3.8416505  )

   Crystallographic axes

     site n.     atom                  positions (cryst. coord.)
         1           Zn  tau(   1) = (  0.6666667  0.1666667  0.1668779  )
         2           Zn  tau(   2) = (  0.3333333  0.3333333  0.0002112  )
         3           O   tau(   3) = (  0.6666667  0.1666667  0.2932255  )
         4           O   tau(   4) = (  0.3333333  0.3333333  0.1265588  )
         5           Zn  tau(   5) = (  0.6666667  0.1666667  0.5002112  )
         6           Zn  tau(   6) = (  0.3333333  0.3333333  0.3335445  )
         7           O   tau(   7) = (  0.6666667  0.1666667  0.6265588  )
         8           O   tau(   8) = (  0.3333333  0.3333333  0.4598921  )
         9           Zn  tau(   9) = (  0.6666667  0.1666667  0.8335445  )
        10           Zn  tau(  10) = (  0.3333333  0.3333333  0.6668779  )
        11           O   tau(  11) = (  0.6666667  0.1666667  0.9598921  )
        12           O   tau(  12) = (  0.3333333  0.3333333  0.7932255  )
        13           Zn  tau(  13) = (  0.6666667  0.6666667  0.1668779  )
        14           Zn  tau(  14) = (  0.3333333  0.8333333  0.0002112  )
        15           O   tau(  15) = (  0.6666667  0.6666667  0.2932255  )
        16           O   tau(  16) = (  0.3333333  0.8333333  0.1265588  )
        17           Zn  tau(  17) = (  0.6666667  0.6666667  0.5002112  )
        18           Zn  tau(  18) = (  0.3333333  0.8333333  0.3335445  )
        19           O   tau(  19) = (  0.6666667  0.6666667  0.6265588  )
        20           O   tau(  20) = (  0.3333333  0.8333333  0.4598921  )
        21           Zn  tau(  21) = (  0.6666667  0.6666667  0.8335445  )
        22           Zn  tau(  22) = (  0.3333333  0.8333333  0.6668779  )
        23           O   tau(  23) = (  0.6666667  0.6666667  0.9598921  )
        24           O   tau(  24) = (  0.3333333  0.8333333  0.7932255  )

     number of k points=    16
                       cart. coord. in units 2pi/alat
        k(    1) = (   0.0000000   0.0000000   0.0000000), wk =   0.0555556
        k(    2) = (   0.0000000   0.0000000  -0.1032402), wk =   0.0555556
        k(    3) = (   0.0000000   0.1924501   0.0000000), wk =   0.1111111
        k(    4) = (   0.0000000   0.1924501  -0.1032402), wk =   0.1111111
        k(    5) = (   0.1666667   0.0962250   0.0000000), wk =   0.2222222
        k(    6) = (   0.1666667   0.0962250  -0.1032402), wk =   0.2222222
        k(    7) = (   0.1666667   0.2886751   0.0000000), wk =   0.1111111
        k(    8) = (   0.1666667   0.2886751  -0.1032402), wk =   0.1111111
        k(    9) = (   0.3333333   0.1924501   0.0000000), wk =   0.2222222
        k(   10) = (   0.3333333   0.1924501  -0.1032402), wk =   0.2222222
        k(   11) = (   0.3333333  -0.0000000   0.0000000), wk =   0.1111111
        k(   12) = (   0.3333333  -0.0000000  -0.1032402), wk =   0.1111111
        k(   13) = (  -0.5000000  -0.2886751   0.0000000), wk =   0.0555556
        k(   14) = (  -0.5000000  -0.2886751  -0.1032402), wk =   0.0555556
        k(   15) = (  -0.5000000  -0.0962250   0.0000000), wk =   0.1111111
        k(   16) = (  -0.5000000  -0.0962250  -0.1032402), wk =   0.1111111

                       cryst. coord.
        k(    1) = (   0.0000000   0.0000000   0.0000000), wk =   0.0555556
        k(    2) = (   0.0000000   0.0000000  -0.5000000), wk =   0.0555556
        k(    3) = (   0.0000000   0.3333333   0.0000000), wk =   0.1111111
        k(    4) = (   0.0000000   0.3333333  -0.5000000), wk =   0.1111111
        k(    5) = (   0.1666667   0.0000000   0.0000000), wk =   0.2222222
        k(    6) = (   0.1666667   0.0000000  -0.5000000), wk =   0.2222222
        k(    7) = (   0.1666667   0.3333333   0.0000000), wk =   0.1111111
        k(    8) = (   0.1666667   0.3333333  -0.5000000), wk =   0.1111111
        k(    9) = (   0.3333333   0.0000000   0.0000000), wk =   0.2222222
        k(   10) = (   0.3333333   0.0000000  -0.5000000), wk =   0.2222222
        k(   11) = (   0.3333333  -0.3333333   0.0000000), wk =   0.1111111
        k(   12) = (   0.3333333  -0.3333333  -0.5000000), wk =   0.1111111
        k(   13) = (  -0.5000000   0.0000000   0.0000000), wk =   0.0555556
        k(   14) = (  -0.5000000   0.0000000  -0.5000000), wk =   0.0555556
        k(   15) = (  -0.5000000   0.3333333   0.0000000), wk =   0.1111111
        k(   16) = (  -0.5000000   0.3333333  -0.5000000), wk =   0.1111111

     Check: negative core charge=   -0.000002

     Initial potential from superposition of free atoms

     starting charge     215.9553, renormalised to     216.0000
     Starting wfcs are  156 randomized atomic wfcs

     Self-consistent Calculation

     iteration #  1     ecut=    50.00 Ry     beta= 0.30
     Davidson diagonalization with overlap

[...]
     1.0000   1.0000   1.0000   1.0000

[...]

          k = 0.3333-0.0000-0.1032 ( 11810 PWs)   bands (ev):

[...]

          k =-0.5000-0.2887 0.0000 ( 11820 PWs)   bands (ev):

[...]

          k =-0.5000-0.0962-0.1032 ( 11872 PWs)   bands (ev):

   -10.3402 -10.3402 -10.3401 -10.3401 -10.2391 -10.2391 -10.2391 -10.2391
   -10.1495 -10.1495 -10.1494 -10.1494   1.0856   1.0856   1.0857   1.0857
     1.1780   1.1780   1.1781   1.1781   1.3762   1.3762   1.3763   1.3763
     1.5636   1.5636   1.5637   1.5637   1.6623   1.6623   1.6623   1.6623
     1.7729   1.7729   1.7730   1.7730   1.8597   1.8597   1.8597   1.8597
     1.9824   1.9824   1.9824   1.9824   2.0290   2.0290   2.0291   2.0291
     2.4171   2.4171   2.4172   2.4172   2.5393   2.5393   2.5393   2.5393
     2.5531   2.5531   2.5532   2.5532   2.6803   2.6803   2.6804   2.6804
     2.7389   2.7389   2.7389   2.7389   2.8696   2.8696   2.8697   2.8697
     3.1154   3.1154   3.1154   3.1154   3.4275   3.4275   3.4275   3.4275
     3.6970   3.6970   3.6971   3.6971   4.2091   4.2091   4.2092   4.2092
     4.6167   4.6167   4.6168   4.6168   4.9299   4.9299   4.9299   4.9299
     5.5972   5.5972   5.5973   5.5973   5.6423   5.6423   5.6423   5.6423
     5.7986   5.7986   5.7987   5.7987

     occupation numbers
     1.0000   1.0000   1.0000   1.0000   1.0000   1.0000   1.0000   1.0000
     1.0000   1.0000   1.0000   1.0000   1.0000   1.0000   1.0000   1.0000
     1.0000   1.0000   1.0000   1.0000   1.0000   1.0000   1.0000   1.0000
     1.0000   1.0000   1.0000   1.0000   1.0000   1.0000   1.0000   1.0000
     1.0000   1.0000   1.0000   1.0000   1.0000   1.0000   1.0000   1.0000
     1.0000   1.0000   1.0000   1.0000   1.0000   1.0000   1.0000   1.0000
     1.0000   1.0000   1.0000   1.0000   1.0000   1.0000   1.0000   1.0000
     1.0000   1.0000   1.0000   1.0000   1.0000   1.0000   1.0000   1.0000
     1.0000   1.0000   1.0000   1.0000   1.0000   1.0000   1.0000   1.0000
     1.0000   1.0000   1.0000   1.0000   1.0000   1.0000   1.0000   1.0000
     1.0000   1.0000   1.0000   1.0000   1.0000   1.0000   1.0000   1.0000
     1.0000   1.0000   1.0000   1.0000   1.0000   1.0000   1.0000   1.0000
     1.0000   1.0000   1.0000   1.0000   1.0000   1.0000   1.0000   1.0000
     1.0000   1.0000   1.0000   1.0000

     highest occupied level (ev):     6.8873

!    total energy              =   -2169.82132746 Ry
     estimated scf accuracy    <          7.7E-09 Ry

     The total energy is the sum of the following terms:
     one-electron contribution =    -927.15054379 Ry
     hartree contribution      =     709.73392142 Ry
     xc contribution           =    -657.27631318 Ry
     ewald contribution        =   -1295.12839192 Ry

     convergence has been achieved in  29 iterations

     Forces acting on atoms (cartesian axes, Ry/au):

     atom    1 type  1   force =     0.00000000   -0.00000894    0.00007495
     atom    2 type  1   force =     0.00000000    0.00001656    0.00001754
     atom    3 type  2   force =     0.00000000    0.00000053   -0.00006313
     atom    4 type  2   force =     0.00000000    0.00000093   -0.00006338
     atom    5 type  1   force =     0.00000000    0.00000472    0.00010365
     atom    6 type  1   force =     0.00000000    0.00000072    0.00009671
     atom    7 type  2   force =     0.00000000   -0.00000066   -0.00006388
     atom    8 type  2   force =     0.00000000    0.00000021   -0.00006200
     atom    9 type  1   force =     0.00000000   -0.00000061    0.00001968
     atom   10 type  1   force =     0.00000000   -0.00000657    0.00007129
     atom   11 type  2   force =     0.00000000    0.00000093   -0.00006326
     atom   12 type  2   force =     0.00000000   -0.00000113   -0.00006533
     atom   13 type  1   force =     0.00000000    0.00000960    0.00007073
     atom   14 type  1   force =     0.00000000   -0.00001159    0.00002268
     atom   15 type  2   force =     0.00000000   -0.00000014   -0.00006288
     atom   16 type  2   force =     0.00000000   -0.00000175   -0.00006288
     atom   17 type  1   force =     0.00000000   -0.00000003    0.00010262
     atom   18 type  1   force =     0.00000000   -0.00001022    0.00008680
     atom   19 type  2   force =     0.00000000    0.00000070   -0.00006398
     atom   20 type  2   force =     0.00000000   -0.00000074   -0.00006202
     atom   21 type  1   force =     0.00000000    0.00000317    0.00002633
     atom   22 type  1   force =     0.00000000    0.00000464    0.00007046
     atom   23 type  2   force =     0.00000000   -0.00000046   -0.00006395
     atom   24 type  2   force =     0.00000000    0.00000014   -0.00006677
     The non-local contrib.  to forces
     atom    1 type  1   force =     0.00000000   -0.00000055   -0.00482978
     atom    2 type  1   force =     0.00000000    0.00000380   -0.00485973
     atom    3 type  2   force =     0.00000000    0.00000023    0.00574458
     atom    4 type  2   force =     0.00000000   -0.00000126    0.00575690
     atom    5 type  1   force =     0.00000000   -0.00000028   -0.00481365
     atom    6 type  1   force =     0.00000000   -0.00000095   -0.00481617
     atom    7 type  2   force =     0.00000000   -0.00000124    0.00575107
     atom    8 type  2   force =     0.00000000    0.00000070    0.00574588
     atom    9 type  1   force =     0.00000000   -0.00000101   -0.00485054
     atom   10 type  1   force =     0.00000000   -0.00000110   -0.00482510
     atom   11 type  2   force =     0.00000000    0.00000248    0.00577419
     atom   12 type  2   force =     0.00000000   -0.00000021    0.00576195
     atom   13 type  1   force =     0.00000000    0.00000105   -0.00483190
     atom   14 type  1   force =     0.00000000   -0.00000334   -0.00485950
     atom   15 type  2   force =     0.00000000   -0.00000091    0.00574734
     atom   16 type  2   force =     0.00000000   -0.00000117    0.00575614
     atom   17 type  1   force =     0.00000000    0.00000146   -0.00481280
     atom   18 type  1   force =     0.00000000   -0.00000041   -0.00481901
     atom   19 type  2   force =     0.00000000    0.00000115    0.00575151
     atom   20 type  2   force =     0.00000000   -0.00000065    0.00574451
     atom   21 type  1   force =     0.00000000    0.00000038   -0.00484857
     atom   22 type  1   force =     0.00000000    0.00000047   -0.00482660
     atom   23 type  2   force =     0.00000000    0.00000037    0.00576961
     atom   24 type  2   force =     0.00000000   -0.00000071    0.00575926
     The ionic contribution  to forces
     atom    1 type  1   force =     0.00000000    0.00000001    0.06271746
     atom    2 type  1   force =    -0.00000000    0.00000001    0.06271750
     atom    3 type  2   force =     0.00000000    0.00000001   -0.06271747
     atom    4 type  2   force =    -0.00000000    0.00000000   -0.06271748
     atom    5 type  1   force =     0.00000000    0.00000001    0.06271750
     atom    6 type  1   force =    -0.00000000    0.00000001    0.06271746
     atom    7 type  2   force =     0.00000000    0.00000001   -0.06271748
     atom    8 type  2   force =    -0.00000000    0.00000000   -0.06271746
     atom    9 type  1   force =     0.00000000    0.00000001    0.06271746
     atom   10 type  1   force =    -0.00000000    0.00000001    0.06271746
     atom   11 type  2   force =     0.00000000    0.00000001   -0.06271746
     atom   12 type  2   force =    -0.00000000    0.00000000   -0.06271747
     atom   13 type  1   force =    -0.00000000   -0.00000000    0.06271746
     atom   14 type  1   force =     0.00000000   -0.00000002    0.06271750
     atom   15 type  2   force =    -0.00000000   -0.00000000   -0.06271747
     atom   16 type  2   force =     0.00000000   -0.00000001   -0.06271748
     atom   17 type  1   force =    -0.00000000   -0.00000000    0.06271749
     atom   18 type  1   force =     0.00000000   -0.00000002    0.06271746
     atom   19 type  2   force =    -0.00000000   -0.00000000   -0.06271748
     atom   20 type  2   force =     0.00000000   -0.00000001   -0.06271746
     atom   21 type  1   force =    -0.00000000   -0.00000000    0.06271745
     atom   22 type  1   force =     0.00000000   -0.00000002    0.06271746
     atom   23 type  2   force =    -0.00000000   -0.00000000   -0.06271746
     atom   24 type  2   force =     0.00000000   -0.00000001   -0.06271747
     The local contribution  to forces
     atom    1 type  1   force =    -0.00000009    0.00001045   -0.05830449
     atom    2 type  1   force =     0.00000000   -0.00001712   -0.05822262
     atom    3 type  2   force =    -0.00000002   -0.00000292    0.05694616
     atom    4 type  2   force =     0.00000000   -0.00000988    0.05696213
     atom    5 type  1   force =    -0.00000009   -0.00000286   -0.05834315
     atom    6 type  1   force =     0.00000000   -0.00000128   -0.05833539
     atom    7 type  2   force =    -0.00000002    0.00000550    0.05695584
     atom    8 type  2   force =     0.00000000   -0.00000018    0.05693978
     atom    9 type  1   force =    -0.00000009    0.00000154   -0.05822897
     atom   10 type  1   force =     0.00000000    0.00000582   -0.05830335
     atom   11 type  2   force =    -0.00000002   -0.00000358    0.05700204
     atom   12 type  2   force =     0.00000000    0.00000557    0.05699686
     atom   13 type  1   force =    -0.00000009   -0.00001057   -0.05829817
     atom   14 type  1   force =     0.00000009    0.00001421   -0.05822970
     atom   15 type  2   force =    -0.00000002    0.00000353    0.05694614
     atom   16 type  2   force =     0.00000002    0.00000712    0.05695948
     atom   17 type  1   force =    -0.00000009    0.00000010   -0.05834245
     atom   18 type  1   force =     0.00000009    0.00000526   -0.05832559
     atom   19 type  2   force =    -0.00000002    0.00000123    0.05695760
     atom   20 type  2   force =     0.00000002   -0.00000075    0.05693524
     atom   21 type  1   force =    -0.00000009   -0.00000140   -0.05824113
     atom   22 type  1   force =     0.00000009   -0.00000484   -0.05830150
     atom   23 type  2   force =    -0.00000002    0.00000208    0.05700260
     atom   24 type  2   force =     0.00000002   -0.00000424    0.05699478
     The core correction contribution to forces
     atom    1 type  1   force =    -0.00000001   -0.00000031    0.00046427
     atom    2 type  1   force =    -0.00000000    0.00000017    0.00046370
     atom    3 type  2   force =     0.00000000   -0.00000001   -0.00006493
     atom    4 type  2   force =    -0.00000000   -0.00000001   -0.00006507
     atom    5 type  1   force =    -0.00000001    0.00000005    0.00046420
     atom    6 type  1   force =    -0.00000000    0.00000013    0.00046418
     atom    7 type  2   force =     0.00000000    0.00000004   -0.00006501
     atom    8 type  2   force =    -0.00000000   -0.00000001   -0.00006496
     atom    9 type  1   force =    -0.00000001    0.00000005    0.00046302
     atom   10 type  1   force =    -0.00000000   -0.00000004    0.00046377
     atom   11 type  2   force =     0.00000000   -0.00000004   -0.00006524
     atom   12 type  2   force =    -0.00000000    0.00000002   -0.00006508
     atom   13 type  1   force =    -0.00000001    0.00000028    0.00046422
     atom   14 type  1   force =     0.00000001   -0.00000024    0.00046402
     atom   15 type  2   force =     0.00000000    0.00000003   -0.00006497
     atom   16 type  2   force =    -0.00000000    0.00000003   -0.00006506
     atom   17 type  1   force =    -0.00000001   -0.00000012    0.00046411
     atom   18 type  1   force =     0.00000001    0.00000004    0.00046419
     atom   19 type  2   force =     0.00000000   -0.00000001   -0.00006501
     atom   20 type  2   force =    -0.00000000    0.00000000   -0.00006496
     atom   21 type  1   force =    -0.00000001   -0.00000007    0.00046346
     atom   22 type  1   force =     0.00000001    0.00000010    0.00046380
     atom   23 type  2   force =     0.00000000    0.00000000   -0.00006517
     atom   24 type  2   force =    -0.00000000   -0.00000000   -0.00006505
     The Hubbard contrib.    to forces
     atom    1 type  1   force =     0.00000000    0.00000000    0.00000000
     atom    2 type  1   force =     0.00000000    0.00000000    0.00000000
     atom    3 type  2   force =     0.00000000    0.00000000    0.00000000
     atom    4 type  2   force =     0.00000000    0.00000000    0.00000000
     atom    5 type  1   force =     0.00000000    0.00000000    0.00000000
     atom    6 type  1   force =     0.00000000    0.00000000    0.00000000
     atom    7 type  2   force =     0.00000000    0.00000000    0.00000000
     atom    8 type  2   force =     0.00000000    0.00000000    0.00000000
     atom    9 type  1   force =     0.00000000    0.00000000    0.00000000
     atom   10 type  1   force =     0.00000000    0.00000000    0.00000000
     atom   11 type  2   force =     0.00000000    0.00000000    0.00000000
     atom   12 type  2   force =     0.00000000    0.00000000    0.00000000
     atom   13 type  1   force =     0.00000000    0.00000000    0.00000000
     atom   14 type  1   force =     0.00000000    0.00000000    0.00000000
     atom   15 type  2   force =     0.00000000    0.00000000    0.00000000
     atom   16 type  2   force =     0.00000000    0.00000000    0.00000000
     atom   17 type  1   force =     0.00000000    0.00000000    0.00000000
     atom   18 type  1   force =     0.00000000    0.00000000    0.00000000
     atom   19 type  2   force =     0.00000000    0.00000000    0.00000000
     atom   20 type  2   force =     0.00000000    0.00000000    0.00000000
     atom   21 type  1   force =     0.00000000    0.00000000    0.00000000
     atom   22 type  1   force =     0.00000000    0.00000000    0.00000000
     atom   23 type  2   force =     0.00000000    0.00000000    0.00000000
     atom   24 type  2   force =     0.00000000    0.00000000    0.00000000
     The SCF correction term to forces
     atom    1 type  1   force =    -0.00000000   -0.00001858    0.00002832
     atom    2 type  1   force =     0.00000000    0.00002965   -0.00008046
     atom    3 type  2   force =    -0.00000000    0.00000316    0.00002936
     atom    4 type  2   force =     0.00000000    0.00001202    0.00000097
     atom    5 type  1   force =    -0.00000000    0.00000774    0.00007958
     atom    6 type  1   force =     0.00000000    0.00000276    0.00006746
     atom    7 type  2   force =    -0.00000000   -0.00000502    0.00001254
     atom    8 type  2   force =     0.00000000   -0.00000036    0.00003560
     atom    9 type  1   force =    -0.00000000   -0.00000125   -0.00008047
     atom   10 type  1   force =     0.00000000   -0.00001132    0.00001934
     atom   11 type  2   force =    -0.00000000    0.00000201   -0.00005595
     atom   12 type  2   force =     0.00000000   -0.00000657   -0.00004075
     atom   13 type  1   force =    -0.00000000    0.00001878    0.00001996
     atom   14 type  1   force =     0.00000000   -0.00002225   -0.00006880
     atom   15 type  2   force =    -0.00000000   -0.00000285    0.00002691
     atom   16 type  2   force =     0.00000000   -0.00000777    0.00000487
     atom   17 type  1   force =    -0.00000000   -0.00000153    0.00007711
     atom   18 type  1   force =     0.00000000   -0.00001515    0.00005059
     atom   19 type  2   force =    -0.00000000   -0.00000172    0.00001023
     atom   20 type  2   force =     0.00000000    0.00000061    0.00004148
     atom   21 type  1   force =    -0.00000000    0.00000421   -0.00006405
     atom   22 type  1   force =     0.00000000    0.00000887    0.00001814
     atom   23 type  2   force =    -0.00000000   -0.00000297   -0.00005271
     atom   24 type  2   force =     0.00000000    0.00000505   -0.00003745

     Total force =     0.000332     Total SCF correction =     0.000245
     SCF correction compared to forces is large: reduce conv_thr to get better values

     General routines

     Parallel routines

   This run was terminated on:  13: 3:45  19Jul2025

   JOB DONE.
Note: The following floating-point exceptions are signalling: IEEE_INVALID_FLAG
Note: The following floating-point exceptions are signalling: IEEE_INVALID_FLAG
Note: The following floating-point exceptions are signalling: IEEE_INVALID_FLAG
Note: The following floating-point exceptions are signalling: IEEE_INVALID_FLAG
Note: The following floating-point exceptions are signalling: IEEE_INVALID_FLAG
Note: The following floating-point exceptions are signalling: IEEE_INVALID_FLAG
Note: The following floating-point exceptions are signalling: IEEE_INVALID_FLAG
Note: The following floating-point exceptions are signalling: IEEE_INVALID_FLAG