     Program PWSCF v.7.2 starts on 19Jul2025 at 13: 7:45

     Reading input from /home/jvc/QEspresso7.2/ZnO_database/scripts/cell123.in/ZnO-3.14-1.61-123.in
Warning: card &CELL ignored
Warning: card / ignored
Warning: card &FCP ignored
Warning: card / ignored
Warning: card &RISM ignored
Warning: card / ignored

     Current dimensions of program PWSCF are:
     Max number of different atomic species (ntypx) = 10
     Max number of k-points (npk) =  40000
     Max angular momentum in pseudopotentials (lmaxx) =  4
     file Zn.upf: wavefunction(s)  3D renormalized
     Found identity + (  0.0000  0.0000  0.3333) symmetry
     This is a supercell, fractional translations are disabled
     Message from routine setup:
     using ibrav=0 with symmetry is DISCOURAGED, use correct ibrav instead

     K-points division:     npool     =       8
     R & G space division:  proc/nbgrp/npool/nimage =       4
     Subspace diagonalization in iterative solution of the eigenvalue problem:
     a serial algorithm will be used

     Using Slab Decomposition

     bravais-lattice index     =            0
     lattice parameter (alat)  =       6.1788  a.u.
     unit-cell volume          =    1978.7861 (a.u.)^3
     number of atoms/cell      =           24
     number of atomic types    =            2
     number of electrons       =       216.00
     number of Kohn-Sham states=          108
     kinetic-energy cutoff     =      50.0000  Ry
     charge density cutoff     =     400.0000  Ry
     scf convergence threshold =      1.0E-08
     mixing beta               =       0.3000
     number of iterations used =            8  plain     mixing
     Exchange-correlation= PBE
                           (   1   4   3   4   0   0   0)

     celldm(1)=   6.178822  celldm(2)=   0.000000  celldm(3)=   0.000000
     celldm(4)=   0.000000  celldm(5)=   0.000000  celldm(6)=   0.000000

     crystal axes: (cart. coord. in units of alat)
               a(1) = (   1.000000   0.000000   0.000000 )
               a(2) = (  -1.000000   1.732051   0.000000 )
               a(3) = (   0.000000   0.000000   4.843075 )

     reciprocal axes: (cart. coord. in units 2 pi/alat)
               b(1) = (  1.000000  0.577350 -0.000000 )
               b(2) = (  0.000000  0.577350  0.000000 )
               b(3) = (  0.000000 -0.000000  0.206480 )

     PseudoPot. # 1 for Zn read from file:
     /home/jvc/QEspresso7.2/ZnO_database/pseudos/Zn.upf
     MD5 check sum: 7f56cabf9682ed8c977c2f7d0c5985c5
     Pseudo is Ultrasoft + core correction, Zval = 12.0
     Generated using &quot;atomic&quot; code by A. Dal Corso  v.6.2.2
     Using radial grid of 1201 points,  6 beta functions with:
                l(1) =   0
                l(2) =   0
                l(3) =   1
                l(4) =   1
                l(5) =   2
                l(6) =   2
     Q(r) pseudized with 0 coefficients

     PseudoPot. # 2 for O  read from file:
     /home/jvc/QEspresso7.2/ZnO_database/pseudos/O.upf
     MD5 check sum: 91400c9766925bcf19f520983a725ff0
     Pseudo is Ultrasoft + core correction, Zval =  6.0
     Generated using &quot;atomic&quot; code by A. Dal Corso  v.6.3MaX
     Using radial grid of 1095 points,  4 beta functions with:
                l(1) =   0
                l(2) =   0
                l(3) =   1
                l(4) =   1
     Q(r) pseudized with 0 coefficients

     atomic species   valence    mass     pseudopotential
        Zn            12.00    65.38000     Zn( 1.00)
        O              6.00    15.99900     O ( 1.00)

      2 Sym. Ops. (no inversion) found

                                    s                        frac. trans.

      isym =  1     identity

 cryst.   s( 1) = (     1          0          0      )
                  (     0          1          0      )
                  (     0          0          1      )

 cart.    s( 1) = (  1.0000000  0.0000000  0.0000000 )
                  (  0.0000000  1.0000000  0.0000000 )
                  (  0.0000000  0.0000000  1.0000000 )

      isym =  2     inv. 180 deg rotation - cart. axis [1,0,0]

 cryst.   s( 2) = (    -1          0          0      )
                  (     2          1          0      )
                  (     0          0          1      )

 cart.    s( 2) = ( -1.0000000  0.0000000  0.0000000 )
                  (  0.0000000  1.0000000  0.0000000 )
                  (  0.0000000  0.0000000  1.0000000 )

   Cartesian axes

     site n.     atom                  positions (alat units)
         1           Zn  tau(   1) = (   0.5000000   0.2886751   0.8082020  )
         2           Zn  tau(   2) = (   0.0000000   0.5773503   0.0010228  )
         3           O   tau(   3) = (   0.5000000   0.2886751   1.4201130  )
         4           O   tau(   4) = (   0.0000000   0.5773503   0.6129338  )
         5           Zn  tau(   5) = (   0.5000000   0.2886751   2.4225604  )
         6           Zn  tau(   6) = (   0.0000000   0.5773503   1.6153812  )
         7           O   tau(   7) = (   0.5000000   0.2886751   3.0344713  )
         8           O   tau(   8) = (   0.0000000   0.5773503   2.2272921  )
         9           Zn  tau(   9) = (   0.5000000   0.2886751   4.0369187  )
        10           Zn  tau(  10) = (   0.0000000   0.5773503   3.2297395  )
        11           O   tau(  11) = (   0.5000000   0.2886751   4.6488297  )
        12           O   tau(  12) = (   0.0000000   0.5773503   3.8416505  )
        13           Zn  tau(  13) = (   0.0000000   1.1547005   0.8082020  )
        14           Zn  tau(  14) = (  -0.5000000   1.4433757   0.0010228  )
        15           O   tau(  15) = (   0.0000000   1.1547005   1.4201130  )
        16           O   tau(  16) = (  -0.5000000   1.4433757   0.6129338  )
        17           Zn  tau(  17) = (   0.0000000   1.1547005   2.4225604  )
        18           Zn  tau(  18) = (  -0.5000000   1.4433757   1.6153812  )
        19           O   tau(  19) = (   0.0000000   1.1547005   3.0344713  )
        20           O   tau(  20) = (  -0.5000000   1.4433757   2.2272921  )
        21           Zn  tau(  21) = (   0.0000000   1.1547005   4.0369187  )
        22           Zn  tau(  22) = (  -0.5000000   1.4433757   3.2297395  )
        23           O   tau(  23) = (   0.0000000   1.1547005   4.6488297  )
        24           O   tau(  24) = (  -0.5000000   1.4433757   3.8416505  )

   Crystallographic axes

     site n.     atom                  positions (cryst. coord.)
         1           Zn  tau(   1) = (  0.6666667  0.1666667  0.1668779  )
         2           Zn  tau(   2) = (  0.3333333  0.3333333  0.0002112  )
         3           O   tau(   3) = (  0.6666667  0.1666667  0.2932255  )
         4           O   tau(   4) = (  0.3333333  0.3333333  0.1265588  )
         5           Zn  tau(   5) = (  0.6666667  0.1666667  0.5002112  )
         6           Zn  tau(   6) = (  0.3333333  0.3333333  0.3335445  )
         7           O   tau(   7) = (  0.6666667  0.1666667  0.6265588  )
         8           O   tau(   8) = (  0.3333333  0.3333333  0.4598921  )
         9           Zn  tau(   9) = (  0.6666667  0.1666667  0.8335445  )
        10           Zn  tau(  10) = (  0.3333333  0.3333333  0.6668779  )
        11           O   tau(  11) = (  0.6666667  0.1666667  0.9598921  )
        12           O   tau(  12) = (  0.3333333  0.3333333  0.7932255  )
        13           Zn  tau(  13) = (  0.6666667  0.6666667  0.1668779  )
        14           Zn  tau(  14) = (  0.3333333  0.8333333  0.0002112  )
        15           O   tau(  15) = (  0.6666667  0.6666667  0.2932255  )
        16           O   tau(  16) = (  0.3333333  0.8333333  0.1265588  )
        17           Zn  tau(  17) = (  0.6666667  0.6666667  0.5002112  )
        18           Zn  tau(  18) = (  0.3333333  0.8333333  0.3335445  )
        19           O   tau(  19) = (  0.6666667  0.6666667  0.6265588  )
        20           O   tau(  20) = (  0.3333333  0.8333333  0.4598921  )
        21           Zn  tau(  21) = (  0.6666667  0.6666667  0.8335445  )
        22           Zn  tau(  22) = (  0.3333333  0.8333333  0.6668779  )
        23           O   tau(  23) = (  0.6666667  0.6666667  0.9598921  )
        24           O   tau(  24) = (  0.3333333  0.8333333  0.7932255  )

     number of k points=    16
                       cart. coord. in units 2pi/alat
        k(    1) = (   0.0000000   0.0000000   0.0000000), wk =   0.0555556
        k(    2) = (   0.0000000   0.0000000  -0.1032402), wk =   0.0555556
        k(    3) = (   0.0000000   0.1924501   0.0000000), wk =   0.1111111
        k(    4) = (   0.0000000   0.1924501  -0.1032402), wk =   0.1111111
        k(    5) = (   0.1666667   0.0962250   0.0000000), wk =   0.2222222
        k(    6) = (   0.1666667   0.0962250  -0.1032402), wk =   0.2222222
        k(    7) = (   0.1666667   0.2886751   0.0000000), wk =   0.1111111
        k(    8) = (   0.1666667   0.2886751  -0.1032402), wk =   0.1111111
        k(    9) = (   0.3333333   0.1924501   0.0000000), wk =   0.2222222
        k(   10) = (   0.3333333   0.1924501  -0.1032402), wk =   0.2222222
        k(   11) = (   0.3333333  -0.0000000   0.0000000), wk =   0.1111111
        k(   12) = (   0.3333333  -0.0000000  -0.1032402), wk =   0.1111111
        k(   13) = (  -0.5000000  -0.2886751   0.0000000), wk =   0.0555556
        k(   14) = (  -0.5000000  -0.2886751  -0.1032402), wk =   0.0555556
        k(   15) = (  -0.5000000  -0.0962250   0.0000000), wk =   0.1111111
        k(   16) = (  -0.5000000  -0.0962250  -0.1032402), wk =   0.1111111

                       cryst. coord.
        k(    1) = (   0.0000000   0.0000000   0.0000000), wk =   0.0555556
        k(    2) = (   0.0000000   0.0000000  -0.5000000), wk =   0.0555556
        k(    3) = (   0.0000000   0.3333333   0.0000000), wk =   0.1111111
        k(    4) = (   0.0000000   0.3333333  -0.5000000), wk =   0.1111111
        k(    5) = (   0.1666667   0.0000000   0.0000000), wk =   0.2222222
        k(    6) = (   0.1666667   0.0000000  -0.5000000), wk =   0.2222222
        k(    7) = (   0.1666667   0.3333333   0.0000000), wk =   0.1111111
        k(    8) = (   0.1666667   0.3333333  -0.5000000), wk =   0.1111111
        k(    9) = (   0.3333333   0.0000000   0.0000000), wk =   0.2222222
        k(   10) = (   0.3333333   0.0000000  -0.5000000), wk =   0.2222222
        k(   11) = (   0.3333333  -0.3333333   0.0000000), wk =   0.1111111
        k(   12) = (   0.3333333  -0.3333333  -0.5000000), wk =   0.1111111
        k(   13) = (  -0.5000000   0.0000000   0.0000000), wk =   0.0555556
        k(   14) = (  -0.5000000   0.0000000  -0.5000000), wk =   0.0555556
        k(   15) = (  -0.5000000   0.3333333   0.0000000), wk =   0.1111111
        k(   16) = (  -0.5000000   0.3333333  -0.5000000), wk =   0.1111111

     Check: negative core charge=   -0.000002

     Initial potential from superposition of free atoms

     starting charge     215.9553, renormalised to     216.0000
     Starting wfcs are  156 randomized atomic wfcs

     Self-consistent Calculation

     iteration #  1     ecut=    50.00 Ry     beta= 0.30
     Davidson diagonalization with overlap

[...]
     1.0000   1.0000   1.0000   1.0000

[...]

          k = 0.3333-0.0000-0.1032 ( 11810 PWs)   bands (ev):

[...]

          k =-0.5000-0.2887 0.0000 ( 11820 PWs)   bands (ev):

[...]

          k =-0.5000-0.0962-0.1032 ( 11872 PWs)   bands (ev):

   -10.3402 -10.3402 -10.3401 -10.3400 -10.2391 -10.2391 -10.2391 -10.2391
   -10.1495 -10.1495 -10.1494 -10.1494   1.0856   1.0856   1.0857   1.0857
     1.1780   1.1780   1.1781   1.1781   1.3762   1.3762   1.3763   1.3763
     1.5636   1.5636   1.5637   1.5637   1.6623   1.6623   1.6623   1.6623
     1.7729   1.7729   1.7730   1.7730   1.8597   1.8597   1.8597   1.8597
     1.9824   1.9824   1.9824   1.9824   2.0290   2.0290   2.0291   2.0291
     2.4171   2.4171   2.4172   2.4172   2.5393   2.5393   2.5393   2.5393
     2.5531   2.5531   2.5531   2.5532   2.6803   2.6803   2.6804   2.6804
     2.7389   2.7389   2.7389   2.7389   2.8696   2.8696   2.8697   2.8697
     3.1154   3.1154   3.1154   3.1154   3.4275   3.4275   3.4275   3.4275
     3.6970   3.6970   3.6971   3.6971   4.2091   4.2091   4.2092   4.2092
     4.6167   4.6167   4.6168   4.6168   4.9299   4.9299   4.9299   4.9299
     5.5972   5.5972   5.5973   5.5973   5.6423   5.6423   5.6423   5.6423
     5.7986   5.7986   5.7987   5.7987

     occupation numbers
     1.0000   1.0000   1.0000   1.0000   1.0000   1.0000   1.0000   1.0000
     1.0000   1.0000   1.0000   1.0000   1.0000   1.0000   1.0000   1.0000
     1.0000   1.0000   1.0000   1.0000   1.0000   1.0000   1.0000   1.0000
     1.0000   1.0000   1.0000   1.0000   1.0000   1.0000   1.0000   1.0000
     1.0000   1.0000   1.0000   1.0000   1.0000   1.0000   1.0000   1.0000
     1.0000   1.0000   1.0000   1.0000   1.0000   1.0000   1.0000   1.0000
     1.0000   1.0000   1.0000   1.0000   1.0000   1.0000   1.0000   1.0000
     1.0000   1.0000   1.0000   1.0000   1.0000   1.0000   1.0000   1.0000
     1.0000   1.0000   1.0000   1.0000   1.0000   1.0000   1.0000   1.0000
     1.0000   1.0000   1.0000   1.0000   1.0000   1.0000   1.0000   1.0000
     1.0000   1.0000   1.0000   1.0000   1.0000   1.0000   1.0000   1.0000
     1.0000   1.0000   1.0000   1.0000   1.0000   1.0000   1.0000   1.0000
     1.0000   1.0000   1.0000   1.0000   1.0000   1.0000   1.0000   1.0000
     1.0000   1.0000   1.0000   1.0000

     highest occupied level (ev):     6.8873

!    total energy              =   -2169.82132746 Ry
     estimated scf accuracy    <          9.7E-09 Ry

     The total energy is the sum of the following terms:
     one-electron contribution =    -927.15046513 Ry
     hartree contribution      =     709.73380650 Ry
     xc contribution           =    -657.27627692 Ry
     ewald contribution        =   -1295.12839192 Ry

     convergence has been achieved in  29 iterations

     Forces acting on atoms (cartesian axes, Ry/au):

     atom    1 type  1   force =     0.00000000   -0.00000921    0.00007432
     atom    2 type  1   force =     0.00000000    0.00001490    0.00001796
     atom    3 type  2   force =     0.00000000    0.00000060   -0.00006227
     atom    4 type  2   force =     0.00000000    0.00000143   -0.00006338
     atom    5 type  1   force =     0.00000000    0.00000439    0.00010207
     atom    6 type  1   force =     0.00000000   -0.00000014    0.00009776
     atom    7 type  2   force =     0.00000000   -0.00000072   -0.00006428
     atom    8 type  2   force =     0.00000000    0.00000025   -0.00006174
     atom    9 type  1   force =     0.00000000   -0.00000006    0.00002234
     atom   10 type  1   force =     0.00000000   -0.00000640    0.00006931
     atom   11 type  2   force =     0.00000000    0.00000079   -0.00006297
     atom   12 type  2   force =     0.00000000   -0.00000116   -0.00006557
     atom   13 type  1   force =     0.00000000    0.00000916    0.00006958
     atom   14 type  1   force =     0.00000000   -0.00001016    0.00002271
     atom   15 type  2   force =     0.00000000   -0.00000023   -0.00006283
     atom   16 type  2   force =     0.00000000   -0.00000168   -0.00006333
     atom   17 type  1   force =     0.00000000   -0.00000001    0.00010159
     atom   18 type  1   force =     0.00000000   -0.00000939    0.00008912
     atom   19 type  2   force =     0.00000000    0.00000051   -0.00006427
     atom   20 type  2   force =     0.00000000   -0.00000010   -0.00006166
     atom   21 type  1   force =     0.00000000    0.00000316    0.00002895
     atom   22 type  1   force =     0.00000000    0.00000398    0.00006745
     atom   23 type  2   force =     0.00000000   -0.00000014   -0.00006400
     atom   24 type  2   force =     0.00000000    0.00000026   -0.00006687
     The non-local contrib.  to forces
     atom    1 type  1   force =     0.00000000   -0.00000145   -0.00482997
     atom    2 type  1   force =     0.00000000    0.00000269   -0.00486021
     atom    3 type  2   force =     0.00000000   -0.00000028    0.00574490
     atom    4 type  2   force =     0.00000000   -0.00000137    0.00575715
     atom    5 type  1   force =     0.00000000   -0.00000024   -0.00481517
     atom    6 type  1   force =     0.00000000   -0.00000104   -0.00481596
     atom    7 type  2   force =     0.00000000   -0.00000194    0.00575184
     atom    8 type  2   force =     0.00000000    0.00000070    0.00574688
     atom    9 type  1   force =     0.00000000   -0.00000048   -0.00484989
     atom   10 type  1   force =     0.00000000   -0.00000123   -0.00482707
     atom   11 type  2   force =     0.00000000    0.00000193    0.00577353
     atom   12 type  2   force =     0.00000000   -0.00000011    0.00576111
     atom   13 type  1   force =     0.00000000    0.00000074   -0.00483335
     atom   14 type  1   force =     0.00000000   -0.00000268   -0.00485910
     atom   15 type  2   force =     0.00000000    0.00000006    0.00574683
     atom   16 type  2   force =     0.00000000   -0.00000120    0.00575638
     atom   17 type  1   force =     0.00000000    0.00000079   -0.00481403
     atom   18 type  1   force =     0.00000000   -0.00000009   -0.00481802
     atom   19 type  2   force =     0.00000000    0.00000092    0.00575228
     atom   20 type  2   force =     0.00000000   -0.00000034    0.00574491
     atom   21 type  1   force =     0.00000000    0.00000061   -0.00484801
     atom   22 type  1   force =     0.00000000   -0.00000027   -0.00482889
     atom   23 type  2   force =     0.00000000   -0.00000011    0.00576861
     atom   24 type  2   force =     0.00000000   -0.00000079    0.00575855
     The ionic contribution  to forces
     atom    1 type  1   force =     0.00000000    0.00000001    0.06271746
     atom    2 type  1   force =    -0.00000000    0.00000001    0.06271750
     atom    3 type  2   force =     0.00000000    0.00000001   -0.06271747
     atom    4 type  2   force =    -0.00000000    0.00000000   -0.06271748
     atom    5 type  1   force =     0.00000000    0.00000001    0.06271750
     atom    6 type  1   force =    -0.00000000    0.00000001    0.06271746
     atom    7 type  2   force =     0.00000000    0.00000001   -0.06271748
     atom    8 type  2   force =    -0.00000000    0.00000000   -0.06271746
     atom    9 type  1   force =     0.00000000    0.00000001    0.06271746
     atom   10 type  1   force =    -0.00000000    0.00000001    0.06271746
     atom   11 type  2   force =     0.00000000    0.00000001   -0.06271746
     atom   12 type  2   force =    -0.00000000    0.00000000   -0.06271747
     atom   13 type  1   force =    -0.00000000   -0.00000000    0.06271746
     atom   14 type  1   force =     0.00000000   -0.00000002    0.06271750
     atom   15 type  2   force =    -0.00000000   -0.00000000   -0.06271747
     atom   16 type  2   force =     0.00000000   -0.00000001   -0.06271748
     atom   17 type  1   force =    -0.00000000   -0.00000000    0.06271749
     atom   18 type  1   force =     0.00000000   -0.00000002    0.06271746
     atom   19 type  2   force =    -0.00000000   -0.00000000   -0.06271748
     atom   20 type  2   force =     0.00000000   -0.00000001   -0.06271746
     atom   21 type  1   force =    -0.00000000   -0.00000000    0.06271745
     atom   22 type  1   force =     0.00000000   -0.00000002    0.06271746
     atom   23 type  2   force =    -0.00000000   -0.00000000   -0.06271746
     atom   24 type  2   force =     0.00000000   -0.00000001   -0.06271747
     The local contribution  to forces
     atom    1 type  1   force =    -0.00000009    0.00000994   -0.05830311
     atom    2 type  1   force =     0.00000000   -0.00001460   -0.05822242
     atom    3 type  2   force =    -0.00000002   -0.00000226    0.05694608
     atom    4 type  2   force =     0.00000000   -0.00000789    0.05696239
     atom    5 type  1   force =    -0.00000009   -0.00000247   -0.05834010
     atom    6 type  1   force =     0.00000000    0.00000020   -0.05833633
     atom    7 type  2   force =    -0.00000002    0.00000622    0.05695556
     atom    8 type  2   force =     0.00000000   -0.00000048    0.05693953
     atom    9 type  1   force =    -0.00000009    0.00000023   -0.05823202
     atom   10 type  1   force =     0.00000000    0.00000529   -0.05830010
     atom   11 type  2   force =    -0.00000002   -0.00000252    0.05700142
     atom   12 type  2   force =     0.00000000    0.00000554    0.05699424
     atom   13 type  1   force =    -0.00000009   -0.00000893   -0.05829540
     atom   14 type  1   force =     0.00000009    0.00001218   -0.05822904
     atom   15 type  2   force =    -0.00000002    0.00000217    0.05694552
     atom   16 type  2   force =     0.00000002    0.00000568    0.05695929
     atom   17 type  1   force =    -0.00000009    0.00000054   -0.05834049
     atom   18 type  1   force =     0.00000009    0.00000400   -0.05832847
     atom   19 type  2   force =    -0.00000002    0.00000174    0.05695771
     atom   20 type  2   force =     0.00000002   -0.00000004    0.05693574
     atom   21 type  1   force =    -0.00000009   -0.00000123   -0.05824391
     atom   22 type  1   force =     0.00000009   -0.00000308   -0.05829684
     atom   23 type  2   force =    -0.00000002    0.00000278    0.05700278
     atom   24 type  2   force =     0.00000002   -0.00000430    0.05699205
     The core correction contribution to forces
     atom    1 type  1   force =    -0.00000001   -0.00000018    0.00046426
     atom    2 type  1   force =    -0.00000000    0.00000016    0.00046376
     atom    3 type  2   force =     0.00000000   -0.00000000   -0.00006493
     atom    4 type  2   force =    -0.00000000   -0.00000000   -0.00006507
     atom    5 type  1   force =    -0.00000001    0.00000003    0.00046419
     atom    6 type  1   force =    -0.00000000    0.00000008    0.00046419
     atom    7 type  2   force =     0.00000000    0.00000005   -0.00006502
     atom    8 type  2   force =    -0.00000000   -0.00000001   -0.00006497
     atom    9 type  1   force =    -0.00000001    0.00000004    0.00046314
     atom   10 type  1   force =    -0.00000000    0.00000002    0.00046382
     atom   11 type  2   force =     0.00000000   -0.00000003   -0.00006523
     atom   12 type  2   force =    -0.00000000    0.00000002   -0.00006507
     atom   13 type  1   force =    -0.00000001    0.00000020    0.00046422
     atom   14 type  1   force =     0.00000001   -0.00000020    0.00046394
     atom   15 type  2   force =     0.00000000    0.00000001   -0.00006496
     atom   16 type  2   force =    -0.00000000    0.00000003   -0.00006507
     atom   17 type  1   force =    -0.00000001   -0.00000009    0.00046412
     atom   18 type  1   force =     0.00000001    0.00000011    0.00046421
     atom   19 type  2   force =     0.00000000   -0.00000001   -0.00006502
     atom   20 type  2   force =    -0.00000000    0.00000000   -0.00006496
     atom   21 type  1   force =    -0.00000001   -0.00000012    0.00046354
     atom   22 type  1   force =     0.00000001    0.00000009    0.00046381
     atom   23 type  2   force =     0.00000000    0.00000001   -0.00006516
     atom   24 type  2   force =    -0.00000000   -0.00000000   -0.00006505
     The Hubbard contrib.    to forces
     atom    1 type  1   force =     0.00000000    0.00000000    0.00000000
     atom    2 type  1   force =     0.00000000    0.00000000    0.00000000
     atom    3 type  2   force =     0.00000000    0.00000000    0.00000000
     atom    4 type  2   force =     0.00000000    0.00000000    0.00000000
     atom    5 type  1   force =     0.00000000    0.00000000    0.00000000
     atom    6 type  1   force =     0.00000000    0.00000000    0.00000000
     atom    7 type  2   force =     0.00000000    0.00000000    0.00000000
     atom    8 type  2   force =     0.00000000    0.00000000    0.00000000
     atom    9 type  1   force =     0.00000000    0.00000000    0.00000000
     atom   10 type  1   force =     0.00000000    0.00000000    0.00000000
     atom   11 type  2   force =     0.00000000    0.00000000    0.00000000
     atom   12 type  2   force =     0.00000000    0.00000000    0.00000000
     atom   13 type  1   force =     0.00000000    0.00000000    0.00000000
     atom   14 type  1   force =     0.00000000    0.00000000    0.00000000
     atom   15 type  2   force =     0.00000000    0.00000000    0.00000000
     atom   16 type  2   force =     0.00000000    0.00000000    0.00000000
     atom   17 type  1   force =     0.00000000    0.00000000    0.00000000
     atom   18 type  1   force =     0.00000000    0.00000000    0.00000000
     atom   19 type  2   force =     0.00000000    0.00000000    0.00000000
     atom   20 type  2   force =     0.00000000    0.00000000    0.00000000
     atom   21 type  1   force =     0.00000000    0.00000000    0.00000000
     atom   22 type  1   force =     0.00000000    0.00000000    0.00000000
     atom   23 type  2   force =     0.00000000    0.00000000    0.00000000
     atom   24 type  2   force =     0.00000000    0.00000000    0.00000000
     The SCF correction term to forces
     atom    1 type  1   force =    -0.00000000   -0.00001762    0.00002628
     atom    2 type  1   force =     0.00000000    0.00002654   -0.00008008
     atom    3 type  2   force =    -0.00000000    0.00000303    0.00002974
     atom    4 type  2   force =     0.00000000    0.00001058    0.00000021
     atom    5 type  1   force =    -0.00000000    0.00000696    0.00007624
     atom    6 type  1   force =     0.00000000    0.00000052    0.00006899
     atom    7 type  2   force =    -0.00000000   -0.00000515    0.00001141
     atom    8 type  2   force =     0.00000000   -0.00000007    0.00003486
     atom    9 type  1   force =    -0.00000000    0.00000004   -0.00007577
     atom   10 type  1   force =     0.00000000   -0.00001060    0.00001579
     atom   11 type  2   force =    -0.00000000    0.00000130   -0.00005465
     atom   12 type  2   force =     0.00000000   -0.00000671   -0.00003779
     atom   13 type  1   force =    -0.00000000    0.00001705    0.00001723
     atom   14 type  1   force =     0.00000000   -0.00001953   -0.00007000
     atom   15 type  2   force =    -0.00000000   -0.00000257    0.00002783
     atom   16 type  2   force =     0.00000000   -0.00000628    0.00000414
     atom   17 type  1   force =    -0.00000000   -0.00000135    0.00007508
     atom   18 type  1   force =     0.00000000   -0.00001350    0.00005453
     atom   19 type  2   force =    -0.00000000   -0.00000224    0.00000882
     atom   20 type  2   force =     0.00000000    0.00000018    0.00004069
     atom   21 type  1   force =    -0.00000000    0.00000380   -0.00005953
     atom   22 type  1   force =     0.00000000    0.00000715    0.00001250
     atom   23 type  2   force =    -0.00000000   -0.00000292   -0.00005219
     atom   24 type  2   force =     0.00000000    0.00000526   -0.00003436

     Total force =     0.000331     Total SCF correction =     0.000238
     SCF correction compared to forces is large: reduce conv_thr to get better values

     General routines

     Parallel routines

   This run was terminated on:  13:11:45  19Jul2025

   JOB DONE.
Note: The following floating-point exceptions are signalling: IEEE_INVALID_FLAG
Note: The following floating-point exceptions are signalling: IEEE_INVALID_FLAG
Note: The following floating-point exceptions are signalling: IEEE_INVALID_FLAG
Note: The following floating-point exceptions are signalling: IEEE_INVALID_FLAG
Note: The following floating-point exceptions are signalling: IEEE_INVALID_FLAG
Note: The following floating-point exceptions are signalling: IEEE_INVALID_FLAG
Note: The following floating-point exceptions are signalling: IEEE_INVALID_FLAG
Note: The following floating-point exceptions are signalling: IEEE_INVALID_FLAG