     Program PWSCF v.7.2 starts on 23Jun2025 at 18: 2:23

     Reading input from /home/jvc/QEspresso7.2/ZnO_DataBase/scfs_rnd025.in/scf-6.67-1.74-4.in

     Current dimensions of program PWSCF are:
     Max number of different atomic species (ntypx) = 10
     Max number of k-points (npk) =  40000
     Max angular momentum in pseudopotentials (lmaxx) =  4
     file Zn.upf: wavefunction(s)  3D renormalized

     R & G space division:  proc/nbgrp/npool/nimage =       8
     Subspace diagonalization in iterative solution of the eigenvalue problem:
     a serial algorithm will be used

     Using Slab Decomposition

     bravais-lattice index     =            4
     lattice parameter (alat)  =       6.6731  a.u.
     unit-cell volume          =     448.6860 (a.u.)^3
     number of atoms/cell      =            4
     number of atomic types    =            2
     number of electrons       =        36.00
     number of Kohn-Sham states=           18
     kinetic-energy cutoff     =      50.0000  Ry
     charge density cutoff     =     400.0000  Ry
     scf convergence threshold =      1.0E-08
     mixing beta               =       0.3000
     number of iterations used =            8  plain     mixing
     Exchange-correlation= PBE
                           (   1   4   3   4   0   0   0)

     celldm(1)=   6.673127  celldm(2)=   0.000000  celldm(3)=   1.743507
     celldm(4)=   0.000000  celldm(5)=   0.000000  celldm(6)=   0.000000

     crystal axes: (cart. coord. in units of alat)
               a(1) = (   1.000000   0.000000   0.000000 )
               a(2) = (  -0.500000   0.866025   0.000000 )
               a(3) = (   0.000000   0.000000   1.743507 )

     reciprocal axes: (cart. coord. in units 2 pi/alat)
               b(1) = (  1.000000  0.577350 -0.000000 )
               b(2) = (  0.000000  1.154701  0.000000 )
               b(3) = (  0.000000 -0.000000  0.573557 )

     PseudoPot. # 1 for Zn read from file:
     ./pseudos/Zn.upf
     MD5 check sum: 7f56cabf9682ed8c977c2f7d0c5985c5
     Pseudo is Ultrasoft + core correction, Zval = 12.0
     Generated using &quot;atomic&quot; code by A. Dal Corso  v.6.2.2
     Using radial grid of 1201 points,  6 beta functions with:
                l(1) =   0
                l(2) =   0
                l(3) =   1
                l(4) =   1
                l(5) =   2
                l(6) =   2
     Q(r) pseudized with 0 coefficients

     PseudoPot. # 2 for O  read from file:
     ./pseudos/O.upf
     MD5 check sum: 91400c9766925bcf19f520983a725ff0
     Pseudo is Ultrasoft + core correction, Zval =  6.0
     Generated using &quot;atomic&quot; code by A. Dal Corso  v.6.3MaX
     Using radial grid of 1095 points,  4 beta functions with:
                l(1) =   0
                l(2) =   0
                l(3) =   1
                l(4) =   1
     Q(r) pseudized with 0 coefficients

     atomic species   valence    mass     pseudopotential
        Zn            12.00    63.38000     Zn( 1.00)
        O              6.00    15.99900     O ( 1.00)

     No symmetry found

   Cartesian axes

     site n.     atom                  positions (alat units)
         1           Zn  tau(   1) = (   0.7705352   0.1490324   1.2855417  )
         2           Zn  tau(   2) = (   0.0737991   0.5790312   0.2938524  )
         3           O   tau(   3) = (   0.5509409   0.2016889   1.4718593  )
         4           O   tau(   4) = (   0.0100570   0.7548949   0.2272921  )

     number of k points=   112

     Number of k-points >= 100: set verbosity='high' to print them.

     Check: negative core charge=   -0.000002

     Initial potential from superposition of free atoms

     starting charge      35.9925, renormalised to      36.0000
     Starting wfcs are   26 randomized atomic wfcs

     Self-consistent Calculation

     iteration #  1     ecut=    50.00 Ry     beta= 0.30
     Davidson diagonalization with overlap
     ethr =  1.00E-02,  avg # of iterations =  5.6

     total energy              =    -346.28753606 Ry
     estimated scf accuracy    <       1.70050419 Ry

[...]

     total energy              =    -346.50910324 Ry
     estimated scf accuracy    <       0.00000003 Ry

     iteration # 25     ecut=    50.00 Ry     beta= 0.30
     Davidson diagonalization with overlap
     ethr =  8.92E-11,  avg # of iterations =  5.0

     End of self-consistent calculation

     Number of k-points >= 100: set verbosity='high' to print the bands.

     highest occupied level (ev):     4.1153

!    total energy              =    -346.50910325 Ry
     estimated scf accuracy    <          6.6E-10 Ry

     The total energy is the sum of the following terms:
     one-electron contribution =    -325.40505588 Ry
     hartree contribution      =     192.85809630 Ry
     xc contribution           =    -112.33269019 Ry
     ewald contribution        =    -101.62945348 Ry

     convergence has been achieved in  25 iterations

     Forces acting on atoms (cartesian axes, Ry/au):

     atom    1 type  1   force =     4.76477876   -1.12793630   -4.06210952
     atom    2 type  1   force =    10.28501534  -28.37878170   10.79080647
     atom    3 type  2   force =    -4.75559363    1.18813675    3.92093753
     atom    4 type  2   force =   -10.29420046   28.31858125  -10.64963448
     The non-local contrib.  to forces
     atom    1 type  1   force =    -0.36850682    0.10550015    0.24532422
     atom    2 type  1   force =    -4.39478945   12.07818385   -4.42263187
     atom    3 type  2   force =     0.87133352   -0.09652951   -1.10472698
     atom    4 type  2   force =     1.17898637   -3.46487719    1.52125337
     The ionic contribution  to forces
     atom    1 type  1   force =    24.97069005   -5.48390685  -36.89348411
     atom    2 type  1   force =    25.14783181  -70.02727081   41.61208190
     atom    3 type  2   force =   -24.48307222    7.34499640   13.51714836
     atom    4 type  2   force =   -25.63544964   68.16618126  -18.23574616
     The local contribution  to forces
     atom    1 type  1   force =   -19.53424733    4.17850345   32.32233624
     atom    2 type  1   force =   -10.12121414   28.60997067  -26.03027999
     atom    3 type  2   force =    18.84690409   -6.05679624   -8.48738921
     atom    4 type  2   force =    14.14182249  -36.32818174    6.04558785
     The core correction contribution to forces
     atom    1 type  1   force =    -0.30315105    0.07197197    0.26365166
     atom    2 type  1   force =    -0.34681302    0.96032657   -0.36832700
     atom    3 type  2   force =     0.00923827   -0.00352265   -0.00412787
     atom    4 type  2   force =     0.02042389   -0.05449970    0.01927435
     The Hubbard contrib.    to forces
     atom    1 type  1   force =     0.00000000    0.00000000    0.00000000
     atom    2 type  1   force =     0.00000000    0.00000000    0.00000000
     atom    3 type  2   force =     0.00000000    0.00000000    0.00000000
     atom    4 type  2   force =     0.00000000    0.00000000    0.00000000
     The SCF correction term to forces
     atom    1 type  1   force =    -0.00001243    0.00000818    0.00006406
     atom    2 type  1   force =    -0.00000619    0.00002120   -0.00003499
     atom    3 type  2   force =    -0.00000363    0.00000195    0.00003481
     atom    4 type  2   force =     0.00001008   -0.00002820   -0.00000231

     Total force =    46.138734     Total SCF correction =     0.000090

     Writing all to output data dir ./ZnO_ANN.save/

     General routines

     Parallel routines

   This run was terminated on:  18: 6:11  23Jun2025

   JOB DONE.
Note: The following floating-point exceptions are signalling: IEEE_INVALID_FLAG