     Program PWSCF v.7.2 starts on 23Jun2025 at 15: 9:43

     Reading input from /home/jvc/QEspresso7.2/ZnO_DataBase/scfs_rnd025.in/scf-6.30-1.55-2.in

     Current dimensions of program PWSCF are:
     Max number of different atomic species (ntypx) = 10
     Max number of k-points (npk) =  40000
     Max angular momentum in pseudopotentials (lmaxx) =  4
     file Zn.upf: wavefunction(s)  3D renormalized

     R & G space division:  proc/nbgrp/npool/nimage =       8
     Subspace diagonalization in iterative solution of the eigenvalue problem:
     a serial algorithm will be used

     Using Slab Decomposition

     bravais-lattice index     =            4
     lattice parameter (alat)  =       6.3024  a.u.
     unit-cell volume          =     335.9845 (a.u.)^3
     number of atoms/cell      =            4
     number of atomic types    =            2
     number of electrons       =        36.00
     number of Kohn-Sham states=           18
     kinetic-energy cutoff     =      50.0000  Ry
     charge density cutoff     =     400.0000  Ry
     scf convergence threshold =      1.0E-08
     mixing beta               =       0.3000
     number of iterations used =            8  plain     mixing
     Exchange-correlation= PBE
                           (   1   4   3   4   0   0   0)

     celldm(1)=   6.302398  celldm(2)=   0.000000  celldm(3)=   1.549784
     celldm(4)=   0.000000  celldm(5)=   0.000000  celldm(6)=   0.000000

     crystal axes: (cart. coord. in units of alat)
               a(1) = (   1.000000   0.000000   0.000000 )
               a(2) = (  -0.500000   0.866025   0.000000 )
               a(3) = (   0.000000   0.000000   1.549784 )

     reciprocal axes: (cart. coord. in units 2 pi/alat)
               b(1) = (  1.000000  0.577350 -0.000000 )
               b(2) = (  0.000000  1.154701  0.000000 )
               b(3) = (  0.000000 -0.000000  0.645251 )

     PseudoPot. # 1 for Zn read from file:
     ./pseudos/Zn.upf
     MD5 check sum: 7f56cabf9682ed8c977c2f7d0c5985c5
     Pseudo is Ultrasoft + core correction, Zval = 12.0
     Generated using &quot;atomic&quot; code by A. Dal Corso  v.6.2.2
     Using radial grid of 1201 points,  6 beta functions with:
                l(1) =   0
                l(2) =   0
                l(3) =   1
                l(4) =   1
                l(5) =   2
                l(6) =   2
     Q(r) pseudized with 0 coefficients

     PseudoPot. # 2 for O  read from file:
     ./pseudos/O.upf
     MD5 check sum: 91400c9766925bcf19f520983a725ff0
     Pseudo is Ultrasoft + core correction, Zval =  6.0
     Generated using &quot;atomic&quot; code by A. Dal Corso  v.6.3MaX
     Using radial grid of 1095 points,  4 beta functions with:
                l(1) =   0
                l(2) =   0
                l(3) =   1
                l(4) =   1
     Q(r) pseudized with 0 coefficients

     atomic species   valence    mass     pseudopotential
        Zn            12.00    63.38000     Zn( 1.00)
        O              6.00    15.99900     O ( 1.00)

     No symmetry found

   Cartesian axes

     site n.     atom                  positions (alat units)
         1           Zn  tau(   1) = (   0.5446984   0.1175156   0.4821824  )
         2           Zn  tau(   2) = (  -0.0801007   0.5436471   0.3214707  )
         3           O   tau(   3) = (   0.6870825   0.3006926   1.6468207  )
         4           O   tau(   4) = (   0.1366887   0.6310920   0.2305137  )

     number of k points=   112

     Number of k-points >= 100: set verbosity='high' to print them.

     Check: negative core charge=   -0.000003

     Initial potential from superposition of free atoms

     starting charge      35.9925, renormalised to      36.0000
     Starting wfcs are   26 randomized atomic wfcs

     Self-consistent Calculation

     iteration #  1     ecut=    50.00 Ry     beta= 0.30
     Davidson diagonalization with overlap
     ethr =  1.00E-02,  avg # of iterations =  4.3

     total energy              =    -352.53164575 Ry
     estimated scf accuracy    <       1.40549393 Ry

[...]

     iteration #  5     ecut=    50.00 Ry     beta= 0.30
     Davidson diagonalization with overlap
     c_bands:  1 eigenvalues not converged
     c_bands:  1 eigenvalues not converged
     c_bands:  1 eigenvalues not converged
     c_bands:  1 eigenvalues not converged
     c_bands:  1 eigenvalues not converged
     c_bands:  1 eigenvalues not converged
     c_bands:  1 eigenvalues not converged
     c_bands:  1 eigenvalues not converged
     c_bands:  1 eigenvalues not converged
     c_bands:  1 eigenvalues not converged
     c_bands:  1 eigenvalues not converged
     c_bands:  1 eigenvalues not converged
     c_bands:  1 eigenvalues not converged
     c_bands:  1 eigenvalues not converged
     ethr =  1.24E-04,  avg # of iterations = 15.7

[...]

     iteration # 18     ecut=    50.00 Ry     beta= 0.30
     Davidson diagonalization with overlap
     c_bands:  1 eigenvalues not converged
     c_bands:  1 eigenvalues not converged
     c_bands:  1 eigenvalues not converged
     c_bands:  1 eigenvalues not converged
     ethr =  3.07E-08,  avg # of iterations = 11.0

[...]

     total energy              =    -352.82893475 Ry
     estimated scf accuracy    <       0.00000011 Ry

     iteration # 35     ecut=    50.00 Ry     beta= 0.30
     Davidson diagonalization with overlap
     ethr =  1.85E-10,  avg # of iterations =  7.0

     End of self-consistent calculation

     Number of k-points >= 100: set verbosity='high' to print the bands.

     highest occupied level (ev):     9.3582

!    total energy              =    -352.82893475 Ry
     estimated scf accuracy    <          5.5E-09 Ry

     The total energy is the sum of the following terms:
     one-electron contribution =    -417.36998155 Ry
     hartree contribution      =     243.46130182 Ry
     xc contribution           =    -112.49946413 Ry
     ewald contribution        =     -66.42079090 Ry

     convergence has been achieved in  35 iterations

     Forces acting on atoms (cartesian axes, Ry/au):

     atom    1 type  1   force =    -0.20146928    1.18111384    1.47277556
     atom    2 type  1   force =   -14.98230776   -6.42298184    6.82934006
     atom    3 type  2   force =    -0.55726381   -0.39784777   -1.37089162
     atom    4 type  2   force =    15.74104085    5.63971578   -6.93122400
     The non-local contrib.  to forces
     atom    1 type  1   force =     0.10599104   -0.73061951   -0.19813945
     atom    2 type  1   force =     4.39497149    2.10435765   -1.21546074
     atom    3 type  2   force =     0.48814870    0.67520438    1.38516205
     atom    4 type  2   force =    -1.14761763   -0.19861899    1.07385702
     The ionic contribution  to forces
     atom    1 type  1   force =    -5.07968430   13.68275859   46.23673626
     atom    2 type  1   force =   -37.45749946  -19.53681329   19.83933361
     atom    3 type  2   force =    -5.45988769   -3.23593323  -34.30279843
     atom    4 type  2   force =    47.99707145    9.08998794  -31.77327144
     The local contribution  to forces
     atom    1 type  1   force =     4.73501919  -11.70220938  -44.40031228
     atom    2 type  1   force =    17.54083558   10.80528509  -11.48393660
     atom    3 type  2   force =     4.41565878    2.16682607   31.55071155
     atom    4 type  2   force =   -31.08397515   -3.24349901   23.76080448
     The core correction contribution to forces
     atom    1 type  1   force =     0.03717345   -0.06890142   -0.16581447
     atom    2 type  1   force =     0.53942250    0.20417226   -0.31084901
     atom    3 type  2   force =    -0.00119994   -0.00392284   -0.00385980
     atom    4 type  2   force =    -0.02449833   -0.00815445    0.00742057
     The Hubbard contrib.    to forces
     atom    1 type  1   force =     0.00000000    0.00000000    0.00000000
     atom    2 type  1   force =     0.00000000    0.00000000    0.00000000
     atom    3 type  2   force =     0.00000000    0.00000000    0.00000000
     atom    4 type  2   force =     0.00000000    0.00000000    0.00000000
     The SCF correction term to forces
     atom    1 type  1   force =    -0.00000067    0.00009282    0.00040502
     atom    2 type  1   force =    -0.00006990    0.00002371    0.00035233
     atom    3 type  2   force =    -0.00001567   -0.00001489   -0.00000748
     atom    4 type  2   force =     0.00002850    0.00000755    0.00006490

     Total force =    25.415460     Total SCF correction =     0.000555

     Writing all to output data dir ./ZnO_ANN.save/

     General routines

     Parallel routines

   This run was terminated on:  15:13:42  23Jun2025

   JOB DONE.
Note: The following floating-point exceptions are signalling: IEEE_INVALID_FLAG