     Program PWSCF v.7.2 starts on 23Jun2025 at 15: 3: 8

     Reading input from /home/jvc/QEspresso7.2/ZnO_DataBase/scfs_rnd025.in/scf-6.30-1.49-3.in

     Current dimensions of program PWSCF are:
     Max number of different atomic species (ntypx) = 10
     Max number of k-points (npk) =  40000
     Max angular momentum in pseudopotentials (lmaxx) =  4
     file Zn.upf: wavefunction(s)  3D renormalized

     R & G space division:  proc/nbgrp/npool/nimage =       8
     Subspace diagonalization in iterative solution of the eigenvalue problem:
     a serial algorithm will be used

     Using Slab Decomposition

     bravais-lattice index     =            4
     lattice parameter (alat)  =       6.3024  a.u.
     unit-cell volume          =     321.9852 (a.u.)^3
     number of atoms/cell      =            4
     number of atomic types    =            2
     number of electrons       =        36.00
     number of Kohn-Sham states=           18
     kinetic-energy cutoff     =      50.0000  Ry
     charge density cutoff     =     400.0000  Ry
     scf convergence threshold =      1.0E-08
     mixing beta               =       0.3000
     number of iterations used =            8  plain     mixing
     Exchange-correlation= PBE
                           (   1   4   3   4   0   0   0)

     celldm(1)=   6.302398  celldm(2)=   0.000000  celldm(3)=   1.485210
     celldm(4)=   0.000000  celldm(5)=   0.000000  celldm(6)=   0.000000

     crystal axes: (cart. coord. in units of alat)
               a(1) = (   1.000000   0.000000   0.000000 )
               a(2) = (  -0.500000   0.866025   0.000000 )
               a(3) = (   0.000000   0.000000   1.485210 )

     reciprocal axes: (cart. coord. in units 2 pi/alat)
               b(1) = (  1.000000  0.577350 -0.000000 )
               b(2) = (  0.000000  1.154701  0.000000 )
               b(3) = (  0.000000 -0.000000  0.673306 )

     PseudoPot. # 1 for Zn read from file:
     ./pseudos/Zn.upf
     MD5 check sum: 7f56cabf9682ed8c977c2f7d0c5985c5
     Pseudo is Ultrasoft + core correction, Zval = 12.0
     Generated using &quot;atomic&quot; code by A. Dal Corso  v.6.2.2
     Using radial grid of 1201 points,  6 beta functions with:
                l(1) =   0
                l(2) =   0
                l(3) =   1
                l(4) =   1
                l(5) =   2
                l(6) =   2
     Q(r) pseudized with 0 coefficients

     PseudoPot. # 2 for O  read from file:
     ./pseudos/O.upf
     MD5 check sum: 91400c9766925bcf19f520983a725ff0
     Pseudo is Ultrasoft + core correction, Zval =  6.0
     Generated using &quot;atomic&quot; code by A. Dal Corso  v.6.3MaX
     Using radial grid of 1095 points,  4 beta functions with:
                l(1) =   0
                l(2) =   0
                l(3) =   1
                l(4) =   1
     Q(r) pseudized with 0 coefficients

     atomic species   valence    mass     pseudopotential
        Zn            12.00    63.38000     Zn( 1.00)
        O              6.00    15.99900     O ( 1.00)

     No symmetry found

   Cartesian axes

     site n.     atom                  positions (alat units)
         1           Zn  tau(   1) = (   0.6971606   0.1472950   0.8218181  )
         2           Zn  tau(   2) = (  -0.2641761   0.7460006   0.0295877  )
         3           O   tau(   3) = (   0.3775610   0.1673287   1.0145488  )
         4           O   tau(   4) = (  -0.0429116   0.5790635   0.3265853  )

     number of k points=   112

     Number of k-points >= 100: set verbosity='high' to print them.

     Check: negative core charge=   -0.000002

     Initial potential from superposition of free atoms

     starting charge      35.9925, renormalised to      36.0000
     Starting wfcs are   26 randomized atomic wfcs

     Self-consistent Calculation

     iteration #  1     ecut=    50.00 Ry     beta= 0.30
     Davidson diagonalization with overlap
     ethr =  1.00E-02,  avg # of iterations =  2.5

     total energy              =    -360.13301494 Ry
     estimated scf accuracy    <       1.36890193 Ry

[...]

     iteration # 19     ecut=    50.00 Ry     beta= 0.30
     Davidson diagonalization with overlap
     c_bands:  4 eigenvalues not converged
     ethr =  2.43E-09,  avg # of iterations = 11.7

[...]

     total energy              =    -360.39919906 Ry
     estimated scf accuracy    <       0.00000003 Ry

     iteration # 26     ecut=    50.00 Ry     beta= 0.30
     Davidson diagonalization with overlap
     ethr =  3.29E-11,  avg # of iterations =  5.2

     End of self-consistent calculation

     Number of k-points >= 100: set verbosity='high' to print the bands.

     highest occupied level (ev):     7.7723

!    total energy              =    -360.39919907 Ry
     estimated scf accuracy    <          8.9E-10 Ry

     The total energy is the sum of the following terms:
     one-electron contribution =    -173.82053237 Ry
     hartree contribution      =     126.98549148 Ry
     xc contribution           =    -110.05023765 Ry
     ewald contribution        =    -203.51392053 Ry

     convergence has been achieved in  26 iterations

     Forces acting on atoms (cartesian axes, Ry/au):

     atom    1 type  1   force =     1.88220362   -0.08387477   -1.16295317
     atom    2 type  1   force =    -0.62720365    0.51848170   -0.88554661
     atom    3 type  2   force =    -1.89517603    0.10704551    1.14228872
     atom    4 type  2   force =     0.64017606   -0.54165244    0.90621105
     The non-local contrib.  to forces
     atom    1 type  1   force =     1.06934218   -0.03442126   -0.56479010
     atom    2 type  1   force =    -0.84073062    0.43720449   -0.87510725
     atom    3 type  2   force =     0.47442876   -0.34750683    0.01427323
     atom    4 type  2   force =    -0.66018010    0.26137610   -0.58126139
     The ionic contribution  to forces
     atom    1 type  1   force =    16.19184942   -0.86172627  -10.78410655
     atom    2 type  1   force =    -9.65580863    4.22074024   -5.86332043
     atom    3 type  2   force =   -14.99218473    3.22975116    7.35251866
     atom    4 type  2   force =     8.45614394   -6.58876514    9.29490832
     The local contribution  to forces
     atom    1 type  1   force =   -15.17147013    0.79718128   10.06254454
     atom    2 type  1   force =     9.75310932   -4.07810233    5.74012803
     atom    3 type  2   force =    12.61844798   -2.77759293   -6.21950361
     atom    4 type  2   force =    -7.15838285    5.78514423   -7.80813145
     The core correction contribution to forces
     atom    1 type  1   force =    -0.20757915    0.01510119    0.12339766
     atom    2 type  1   force =     0.11627943   -0.06138744    0.11281684
     atom    3 type  2   force =     0.00413771    0.00239883   -0.00502225
     atom    4 type  2   force =     0.00259923    0.00059733    0.00069196
     The Hubbard contrib.    to forces
     atom    1 type  1   force =     0.00000000    0.00000000    0.00000000
     atom    2 type  1   force =     0.00000000    0.00000000    0.00000000
     atom    3 type  2   force =     0.00000000    0.00000000    0.00000000
     atom    4 type  2   force =     0.00000000    0.00000000    0.00000000
     The SCF correction term to forces
     atom    1 type  1   force =     0.00006606   -0.00000555   -0.00001073
     atom    2 type  1   force =    -0.00004839    0.00003090   -0.00007582
     atom    3 type  2   force =    -0.00000098   -0.00000056    0.00001066
     atom    4 type  2   force =     0.00000062   -0.00000081   -0.00000840

     Total force =     3.575051     Total SCF correction =     0.000117

     Writing all to output data dir ./ZnO_ANN.save/

     General routines

     Parallel routines

   This run was terminated on:  15: 7:27  23Jun2025

   JOB DONE.
Note: The following floating-point exceptions are signalling: IEEE_INVALID_FLAG