     Program PWSCF v.7.2 starts on 23Jun2025 at 12:20:25

     Reading input from /home/jvc/QEspresso7.2/ZnO_DataBase/scfs_rnd025.in/scf-5.68-1.65-1.in

     Current dimensions of program PWSCF are:
     Max number of different atomic species (ntypx) = 10
     Max number of k-points (npk) =  40000
     Max angular momentum in pseudopotentials (lmaxx) =  4
     file Zn.upf: wavefunction(s)  3D renormalized

     R & G space division:  proc/nbgrp/npool/nimage =       8
     Subspace diagonalization in iterative solution of the eigenvalue problem:
     a serial algorithm will be used

     Using Slab Decomposition

     bravais-lattice index     =            4
     lattice parameter (alat)  =       5.6845  a.u.
     unit-cell volume          =     261.9456 (a.u.)^3
     number of atoms/cell      =            4
     number of atomic types    =            2
     number of electrons       =        36.00
     number of Kohn-Sham states=           18
     kinetic-energy cutoff     =      50.0000  Ry
     charge density cutoff     =     400.0000  Ry
     scf convergence threshold =      1.0E-08
     mixing beta               =       0.3000
     number of iterations used =            8  plain     mixing
     Exchange-correlation= PBE
                           (   1   4   3   4   0   0   0)

     celldm(1)=   5.684516  celldm(2)=   0.000000  celldm(3)=   1.646646
     celldm(4)=   0.000000  celldm(5)=   0.000000  celldm(6)=   0.000000

     crystal axes: (cart. coord. in units of alat)
               a(1) = (   1.000000   0.000000   0.000000 )
               a(2) = (  -0.500000   0.866025   0.000000 )
               a(3) = (   0.000000   0.000000   1.646646 )

     reciprocal axes: (cart. coord. in units 2 pi/alat)
               b(1) = (  1.000000  0.577350 -0.000000 )
               b(2) = (  0.000000  1.154701  0.000000 )
               b(3) = (  0.000000 -0.000000  0.607295 )

     PseudoPot. # 1 for Zn read from file:
     ./pseudos/Zn.upf
     MD5 check sum: 7f56cabf9682ed8c977c2f7d0c5985c5
     Pseudo is Ultrasoft + core correction, Zval = 12.0
     Generated using &quot;atomic&quot; code by A. Dal Corso  v.6.2.2
     Using radial grid of 1201 points,  6 beta functions with:
                l(1) =   0
                l(2) =   0
                l(3) =   1
                l(4) =   1
                l(5) =   2
                l(6) =   2
     Q(r) pseudized with 0 coefficients

     PseudoPot. # 2 for O  read from file:
     ./pseudos/O.upf
     MD5 check sum: 91400c9766925bcf19f520983a725ff0
     Pseudo is Ultrasoft + core correction, Zval =  6.0
     Generated using &quot;atomic&quot; code by A. Dal Corso  v.6.3MaX
     Using radial grid of 1095 points,  4 beta functions with:
                l(1) =   0
                l(2) =   0
                l(3) =   1
                l(4) =   1
     Q(r) pseudized with 0 coefficients

     atomic species   valence    mass     pseudopotential
        Zn            12.00    63.38000     Zn( 1.00)
        O              6.00    15.99900     O ( 1.00)

     No symmetry found

   Cartesian axes

     site n.     atom                  positions (alat units)
         1           Zn  tau(   1) = (   0.3249915   0.1774974   0.9525813  )
         2           Zn  tau(   2) = (   0.0124731   0.4993234   0.2166933  )
         3           O   tau(   3) = (   0.6018430   0.3321050   1.5345765  )
         4           O   tau(   4) = (   0.2136373   0.5279722   0.5767784  )

     number of k points=   112

     Number of k-points >= 100: set verbosity='high' to print them.

     Check: negative core charge=   -0.000002

     Initial potential from superposition of free atoms

     starting charge      35.9925, renormalised to      36.0000
     Starting wfcs are   26 randomized atomic wfcs

     Self-consistent Calculation

     iteration #  1     ecut=    50.00 Ry     beta= 0.30
     Davidson diagonalization with overlap
     ethr =  1.00E-02,  avg # of iterations =  2.3

     total energy              =    -360.39286145 Ry
     estimated scf accuracy    <       1.09507004 Ry

[...]

     iteration # 30     ecut=    50.00 Ry     beta= 0.30
     Davidson diagonalization with overlap
[barbara][[47654,1],1][../../../../../../opal/mca/btl/tcp/btl_tcp.c:559:mca_btl_tcp_recv_blocking] recv(18) failed: Connection reset by peer (104)
     ethr =  1.57E-10,  avg # of iterations =  1.8

[...]

     total energy              =    -360.61060774 Ry
     estimated scf accuracy    <       0.00000001 Ry

     iteration # 34     ecut=    50.00 Ry     beta= 0.30
     Davidson diagonalization with overlap
     ethr =  2.84E-11,  avg # of iterations =  4.2

     End of self-consistent calculation

     Number of k-points >= 100: set verbosity='high' to print the bands.

     highest occupied level (ev):    11.2215

!    total energy              =    -360.61060774 Ry
     estimated scf accuracy    <          8.5E-10 Ry

     The total energy is the sum of the following terms:
     one-electron contribution =    -143.24959191 Ry
     hartree contribution      =     115.88150018 Ry
     xc contribution           =    -110.32114997 Ry
     ewald contribution        =    -222.92136604 Ry

     convergence has been achieved in  34 iterations

     Forces acting on atoms (cartesian axes, Ry/au):

     atom    1 type  1   force =     0.10176809   -0.22902244    0.33000512
     atom    2 type  1   force =    -0.98569152   -0.10692013   -1.89154066
     atom    3 type  2   force =    -0.11513380   -0.07180251   -0.22053503
     atom    4 type  2   force =     0.99905722    0.40774508    1.78207057
     The non-local contrib.  to forces
     atom    1 type  1   force =    -0.05262034   -0.74030654    0.30404781
     atom    2 type  1   force =    -0.10535112    0.12111091   -0.34252536
     atom    3 type  2   force =     0.37607433    0.07312886   -0.17564469
     atom    4 type  2   force =    -0.43161208   -0.41696515    0.24056131
     The ionic contribution  to forces
     atom    1 type  1   force =     0.42244441   -5.86306792   12.36715116
     atom    2 type  1   force =    -6.26310597    0.81183359  -17.55864645
     atom    3 type  2   force =    -1.76296402   -1.16703416   -6.84340664
     atom    4 type  2   force =     7.60362557    6.21826849   12.03490192
     The local contribution  to forces
     atom    1 type  1   force =    -0.26611648    6.30489063  -12.29261289
     atom    2 type  1   force =     5.30509563   -1.03168674   15.83187695
     atom    3 type  2   force =     1.27469812    1.02228999    6.79508328
     atom    4 type  2   force =    -6.17281957   -5.39490168  -10.48434968
     The core correction contribution to forces
     atom    1 type  1   force =    -0.00194628    0.06946865   -0.04860364
     atom    2 type  1   force =     0.07768820   -0.00818106    0.17778166
     atom    3 type  2   force =    -0.00294675   -0.00018598    0.00345142
     atom    4 type  2   force =    -0.00013953    0.00134252   -0.00908004
     The Hubbard contrib.    to forces
     atom    1 type  1   force =     0.00000000    0.00000000    0.00000000
     atom    2 type  1   force =     0.00000000    0.00000000    0.00000000
     atom    3 type  2   force =     0.00000000    0.00000000    0.00000000
     atom    4 type  2   force =     0.00000000    0.00000000    0.00000000
     The SCF correction term to forces
     atom    1 type  1   force =     0.00000499   -0.00000727    0.00001557
     atom    2 type  1   force =    -0.00002006    0.00000316   -0.00003458
     atom    3 type  2   force =     0.00000273   -0.00000123   -0.00002551
     atom    4 type  2   force =     0.00000103    0.00000089    0.00002995

     Total force =     3.023219     Total SCF correction =     0.000059

     Writing all to output data dir ./ZnO_ANN.save/

     General routines

     Parallel routines

   This run was terminated on:  12:23:45  23Jun2025

   JOB DONE.
Note: The following floating-point exceptions are signalling: IEEE_INVALID_FLAG