     Program PWSCF v.7.2 starts on 23Jun2025 at 18:17:50

     Reading input from /home/jvc/QEspresso7.2/ZnO_DataBase/scfs_rnd025.in/scf-6.80-1.49-4.in

     Current dimensions of program PWSCF are:
     Max number of different atomic species (ntypx) = 10
     Max number of k-points (npk) =  40000
     Max angular momentum in pseudopotentials (lmaxx) =  4
     file Zn.upf: wavefunction(s)  3D renormalized

     R & G space division:  proc/nbgrp/npool/nimage =       8
     Subspace diagonalization in iterative solution of the eigenvalue problem:
     a serial algorithm will be used

     Using Slab Decomposition

     bravais-lattice index     =            4
     lattice parameter (alat)  =       6.7967  a.u.
     unit-cell volume          =     403.8438 (a.u.)^3
     number of atoms/cell      =            4
     number of atomic types    =            2
     number of electrons       =        36.00
     number of Kohn-Sham states=           18
     kinetic-energy cutoff     =      50.0000  Ry
     charge density cutoff     =     400.0000  Ry
     scf convergence threshold =      1.0E-08
     mixing beta               =       0.3000
     number of iterations used =            8  plain     mixing
     Exchange-correlation= PBE
                           (   1   4   3   4   0   0   0)

     celldm(1)=   6.796704  celldm(2)=   0.000000  celldm(3)=   1.485210
     celldm(4)=   0.000000  celldm(5)=   0.000000  celldm(6)=   0.000000

     crystal axes: (cart. coord. in units of alat)
               a(1) = (   1.000000   0.000000   0.000000 )
               a(2) = (  -0.500000   0.866025   0.000000 )
               a(3) = (   0.000000   0.000000   1.485210 )

     reciprocal axes: (cart. coord. in units 2 pi/alat)
               b(1) = (  1.000000  0.577350 -0.000000 )
               b(2) = (  0.000000  1.154701  0.000000 )
               b(3) = (  0.000000 -0.000000  0.673306 )

     PseudoPot. # 1 for Zn read from file:
     ./pseudos/Zn.upf
     MD5 check sum: 7f56cabf9682ed8c977c2f7d0c5985c5
     Pseudo is Ultrasoft + core correction, Zval = 12.0
     Generated using &quot;atomic&quot; code by A. Dal Corso  v.6.2.2
     Using radial grid of 1201 points,  6 beta functions with:
                l(1) =   0
                l(2) =   0
                l(3) =   1
                l(4) =   1
                l(5) =   2
                l(6) =   2
     Q(r) pseudized with 0 coefficients

     PseudoPot. # 2 for O  read from file:
     ./pseudos/O.upf
     MD5 check sum: 91400c9766925bcf19f520983a725ff0
     Pseudo is Ultrasoft + core correction, Zval =  6.0
     Generated using &quot;atomic&quot; code by A. Dal Corso  v.6.3MaX
     Using radial grid of 1095 points,  4 beta functions with:
                l(1) =   0
                l(2) =   0
                l(3) =   1
                l(4) =   1
     Q(r) pseudized with 0 coefficients

     atomic species   valence    mass     pseudopotential
        Zn            12.00    63.38000     Zn( 1.00)
        O              6.00    15.99900     O ( 1.00)

     No symmetry found

   Cartesian axes

     site n.     atom                  positions (alat units)
         1           Zn  tau(   1) = (   0.6115419   0.3758175   0.6238349  )
         2           Zn  tau(   2) = (  -0.0250507   0.7254969   0.2801029  )
         3           O   tau(   3) = (   0.4526207   0.4064689   1.0567752  )
         4           O   tau(   4) = (  -0.1290196   0.7404590   0.2473476  )

     number of k points=   112

     Number of k-points >= 100: set verbosity='high' to print them.

     Check: negative core charge=   -0.000002

     Initial potential from superposition of free atoms

     starting charge      35.9925, renormalised to      36.0000
     Starting wfcs are   26 randomized atomic wfcs

     Self-consistent Calculation

     iteration #  1     ecut=    50.00 Ry     beta= 0.30
     Davidson diagonalization with overlap
     ethr =  1.00E-02,  avg # of iterations =  5.1

     total energy              =    -301.57073572 Ry
     estimated scf accuracy    <       3.33592397 Ry

[...]

     total energy              =    -301.68475085 Ry
     estimated scf accuracy    <       0.00000001 Ry

     iteration # 42     ecut=    50.00 Ry     beta= 0.30
     Davidson diagonalization with overlap
     ethr =  4.01E-11,  avg # of iterations =  6.0

     End of self-consistent calculation

     Number of k-points >= 100: set verbosity='high' to print the bands.

     highest occupied level (ev):     6.5923

!    total energy              =    -301.68475085 Ry
     estimated scf accuracy    <          1.7E-10 Ry

     The total energy is the sum of the following terms:
     one-electron contribution =    -343.20260520 Ry
     hartree contribution      =     197.46393916 Ry
     xc contribution           =    -114.98654610 Ry
     ewald contribution        =     -40.95953872 Ry

     convergence has been achieved in  42 iterations

     Forces acting on atoms (cartesian axes, Ry/au):

     atom    1 type  1   force =    -0.01244677   -0.03002715    0.12475261
     atom    2 type  1   force =   173.86256934  -25.01393457   54.64397665
     atom    3 type  2   force =    -0.04203023    0.00760773    0.06814338
     atom    4 type  2   force =  -173.80809233   25.03635399  -54.83687264
     The non-local contrib.  to forces
     atom    1 type  1   force =     0.52111783   -0.07734940   -1.61887637
     atom    2 type  1   force =   -37.56302423    5.33653105  -11.26800936
     atom    3 type  2   force =     0.40233902   -0.08140059   -1.23878378
     atom    4 type  2   force =     4.10695226   -0.69723182    1.61845260
     The ionic contribution  to forces
     atom    1 type  1   force =     0.46663565   -1.57161948   11.57906406
     atom    2 type  1   force =   243.36513893  -34.96518770   61.13605861
     atom    3 type  2   force =    -3.37191339    0.74928034   11.72378589
     atom    4 type  2   force =  -240.45986119   35.78752684  -84.43890856
     The local contribution  to forces
     atom    1 type  1   force =    -0.97746817    1.60885827   -9.89800282
     atom    2 type  1   force =   -29.87891172    4.31779503    5.42201754
     atom    3 type  2   force =     2.93074874   -0.66089233  -10.42725338
     atom    4 type  2   force =    62.07671096   -9.98764945   27.83676676
     The core correction contribution to forces
     atom    1 type  1   force =    -0.02270973    0.01007926    0.06253407
     atom    2 type  1   force =    -2.06063414    0.29692646   -0.64605574
     atom    3 type  2   force =    -0.00318511    0.00061711    0.01037691
     atom    4 type  2   force =     0.46812318   -0.06629448    0.14683798
     The Hubbard contrib.    to forces
     atom    1 type  1   force =     0.00000000    0.00000000    0.00000000
     atom    2 type  1   force =     0.00000000    0.00000000    0.00000000
     atom    3 type  2   force =     0.00000000    0.00000000    0.00000000
     atom    4 type  2   force =     0.00000000    0.00000000    0.00000000
     The SCF correction term to forces
     atom    1 type  1   force =    -0.00000658    0.00000245    0.00003218
     atom    2 type  1   force =     0.00001628   -0.00000114   -0.00003589
     atom    3 type  2   force =    -0.00000370    0.00000146    0.00001624
     atom    4 type  2   force =    -0.00000175    0.00000115   -0.00002293

     Total force =   260.159628     Total SCF correction =     0.000059

     Writing all to output data dir ./ZnO_ANN.save/

     General routines

     Parallel routines

   This run was terminated on:  18:23: 7  23Jun2025

   JOB DONE.
Note: The following floating-point exceptions are signalling: IEEE_INVALID_FLAG