     Program PWSCF v.7.2 starts on 23Jun2025 at 12:59:21

     Reading input from /home/jvc/QEspresso7.2/ZnO_DataBase/scfs_rnd025.in/scf-5.81-1.74-3.in

     Current dimensions of program PWSCF are:
     Max number of different atomic species (ntypx) = 10
     Max number of k-points (npk) =  40000
     Max angular momentum in pseudopotentials (lmaxx) =  4
     file Zn.upf: wavefunction(s)  3D renormalized

     R & G space division:  proc/nbgrp/npool/nimage =       8
     Subspace diagonalization in iterative solution of the eigenvalue problem:
     a serial algorithm will be used

     Using Slab Decomposition

     bravais-lattice index     =            4
     lattice parameter (alat)  =       5.8081  a.u.
     unit-cell volume          =     295.8386 (a.u.)^3
     number of atoms/cell      =            4
     number of atomic types    =            2
     number of electrons       =        36.00
     number of Kohn-Sham states=           18
     kinetic-energy cutoff     =      50.0000  Ry
     charge density cutoff     =     400.0000  Ry
     scf convergence threshold =      1.0E-08
     mixing beta               =       0.3000
     number of iterations used =            8  plain     mixing
     Exchange-correlation= PBE
                           (   1   4   3   4   0   0   0)

     celldm(1)=   5.808092  celldm(2)=   0.000000  celldm(3)=   1.743507
     celldm(4)=   0.000000  celldm(5)=   0.000000  celldm(6)=   0.000000

     crystal axes: (cart. coord. in units of alat)
               a(1) = (   1.000000   0.000000   0.000000 )
               a(2) = (  -0.500000   0.866025   0.000000 )
               a(3) = (   0.000000   0.000000   1.743507 )

     reciprocal axes: (cart. coord. in units 2 pi/alat)
               b(1) = (  1.000000  0.577350 -0.000000 )
               b(2) = (  0.000000  1.154701  0.000000 )
               b(3) = (  0.000000 -0.000000  0.573557 )

     PseudoPot. # 1 for Zn read from file:
     ./pseudos/Zn.upf
     MD5 check sum: 7f56cabf9682ed8c977c2f7d0c5985c5
     Pseudo is Ultrasoft + core correction, Zval = 12.0
     Generated using &quot;atomic&quot; code by A. Dal Corso  v.6.2.2
     Using radial grid of 1201 points,  6 beta functions with:
                l(1) =   0
                l(2) =   0
                l(3) =   1
                l(4) =   1
                l(5) =   2
                l(6) =   2
     Q(r) pseudized with 0 coefficients

     PseudoPot. # 2 for O  read from file:
     ./pseudos/O.upf
     MD5 check sum: 91400c9766925bcf19f520983a725ff0
     Pseudo is Ultrasoft + core correction, Zval =  6.0
     Generated using &quot;atomic&quot; code by A. Dal Corso  v.6.3MaX
     Using radial grid of 1095 points,  4 beta functions with:
                l(1) =   0
                l(2) =   0
                l(3) =   1
                l(4) =   1
     Q(r) pseudized with 0 coefficients

     atomic species   valence    mass     pseudopotential
        Zn            12.00    63.38000     Zn( 1.00)
        O              6.00    15.99900     O ( 1.00)

     No symmetry found

   Cartesian axes

     site n.     atom                  positions (alat units)
         1           Zn  tau(   1) = (   0.4971535   0.2668437   0.9149751  )
         2           Zn  tau(   2) = (   0.0480656   0.5987793  -0.3441218  )
         3           O   tau(   3) = (   0.6553340   0.2194154   1.3951974  )
         4           O   tau(   4) = (  -0.0733271   0.3693158   0.3763476  )

     number of k points=   112

     Number of k-points >= 100: set verbosity='high' to print them.

     Check: negative core charge=   -0.000002

     Initial potential from superposition of free atoms

     starting charge      35.9925, renormalised to      36.0000
     Starting wfcs are   26 randomized atomic wfcs

     Self-consistent Calculation

     iteration #  1     ecut=    50.00 Ry     beta= 0.30
     Davidson diagonalization with overlap
     ethr =  1.00E-02,  avg # of iterations =  2.0

     total energy              =    -360.63222822 Ry
     estimated scf accuracy    <       1.17982028 Ry

[...]

     iteration #  7     ecut=    50.00 Ry     beta= 0.30
     Davidson diagonalization with overlap
     c_bands:  1 eigenvalues not converged
     c_bands:  1 eigenvalues not converged
     c_bands:  1 eigenvalues not converged
     c_bands:  1 eigenvalues not converged
     c_bands:  1 eigenvalues not converged
     c_bands:  1 eigenvalues not converged
     c_bands:  1 eigenvalues not converged
     c_bands:  1 eigenvalues not converged
     c_bands:  1 eigenvalues not converged
     c_bands:  1 eigenvalues not converged
     ethr =  5.12E-04,  avg # of iterations = 16.3

[...]

     iteration # 41     ecut=    50.00 Ry     beta= 0.30
     Davidson diagonalization with overlap
     c_bands:  1 eigenvalues not converged
     ethr =  5.56E-10,  avg # of iterations =  3.3

[...]

     total energy              =    -360.95867679 Ry
     estimated scf accuracy    <       0.00000002 Ry

     iteration # 46     ecut=    50.00 Ry     beta= 0.30
     Davidson diagonalization with overlap
     ethr =  6.13E-11,  avg # of iterations =  3.3

     End of self-consistent calculation

     Number of k-points >= 100: set verbosity='high' to print the bands.

     highest occupied level (ev):    10.0499

!    total energy              =    -360.95867678 Ry
     estimated scf accuracy    <          9.3E-09 Ry

     The total energy is the sum of the following terms:
     one-electron contribution =    -187.77262536 Ry
     hartree contribution      =     134.64703634 Ry
     xc contribution           =    -109.77332659 Ry
     ewald contribution        =    -198.05976118 Ry

     convergence has been achieved in  46 iterations

     Forces acting on atoms (cartesian axes, Ry/au):

     atom    1 type  1   force =    -0.12810815    0.06795529   -0.74153272
     atom    2 type  1   force =     0.00139537   -0.35845464    0.23762633
     atom    3 type  2   force =     0.09917595    0.28081119    0.37076686
     atom    4 type  2   force =     0.02753684    0.00968816    0.13313952
     The non-local contrib.  to forces
     atom    1 type  1   force =    -0.25727908   -0.04973598    0.16530709
     atom    2 type  1   force =     0.17005809   -0.30116929   -0.32767931
     atom    3 type  2   force =    -0.06484497   -0.17320647   -1.11423432
     atom    4 type  2   force =     0.05583191    0.10120984    0.57967759
     The ionic contribution  to forces
     atom    1 type  1   force =    -3.30816931    1.20013059  -29.97234183
     atom    2 type  1   force =     1.20854011   -4.01295014   17.52345525
     atom    3 type  2   force =     1.33253274    2.86563585   14.86118450
     atom    4 type  2   force =     0.76709647   -0.05281630   -2.41229792
     The local contribution  to forces
     atom    1 type  1   force =     3.40202726   -1.07652600   28.98909353
     atom    2 type  1   force =    -1.35866654    3.90144172  -16.94816097
     atom    3 type  2   force =    -1.16870181   -2.41170850  -13.38331457
     atom    4 type  2   force =    -0.79446842   -0.03756363    1.97168902
     The core correction contribution to forces
     atom    1 type  1   force =     0.03533256   -0.00591126    0.07615837
     atom    2 type  1   force =    -0.01854670    0.05420197   -0.00979593
     atom    3 type  2   force =     0.00018837    0.00009808    0.00723110
     atom    4 type  2   force =    -0.00092743   -0.00113743   -0.00597661
     The Hubbard contrib.    to forces
     atom    1 type  1   force =     0.00000000    0.00000000    0.00000000
     atom    2 type  1   force =     0.00000000    0.00000000    0.00000000
     atom    3 type  2   force =     0.00000000    0.00000000    0.00000000
     atom    4 type  2   force =     0.00000000    0.00000000    0.00000000
     The SCF correction term to forces
     atom    1 type  1   force =    -0.00002439   -0.00000003    0.00024687
     atom    2 type  1   force =     0.00000560    0.00002313   -0.00019596
     atom    3 type  2   force =    -0.00000320   -0.00000574   -0.00010311
     atom    4 type  2   force =    -0.00000051   -0.00000229    0.00004419

     Total force =     1.000298     Total SCF correction =     0.000336

     Writing all to output data dir ./ZnO_ANN.save/

     General routines

     Parallel routines

   This run was terminated on:  13: 4:28  23Jun2025

   JOB DONE.
Note: The following floating-point exceptions are signalling: IEEE_INVALID_FLAG