     Program PWSCF v.7.2 starts on 23Jun2025 at 16: 1: 8

     Reading input from /home/jvc/QEspresso7.2/ZnO_DataBase/scfs_rnd025.in/scf-6.43-1.61-4.in

     Current dimensions of program PWSCF are:
     Max number of different atomic species (ntypx) = 10
     Max number of k-points (npk) =  40000
     Max angular momentum in pseudopotentials (lmaxx) =  4
     file Zn.upf: wavefunction(s)  3D renormalized

     R & G space division:  proc/nbgrp/npool/nimage =       8
     Subspace diagonalization in iterative solution of the eigenvalue problem:
     a serial algorithm will be used

     Using Slab Decomposition

     bravais-lattice index     =            4
     lattice parameter (alat)  =       6.4260  a.u.
     unit-cell volume          =     370.9775 (a.u.)^3
     number of atoms/cell      =            4
     number of atomic types    =            2
     number of electrons       =        36.00
     number of Kohn-Sham states=           18
     kinetic-energy cutoff     =      50.0000  Ry
     charge density cutoff     =     400.0000  Ry
     scf convergence threshold =      1.0E-08
     mixing beta               =       0.3000
     number of iterations used =            8  plain     mixing
     Exchange-correlation= PBE
                           (   1   4   3   4   0   0   0)

     celldm(1)=   6.425974  celldm(2)=   0.000000  celldm(3)=   1.614358
     celldm(4)=   0.000000  celldm(5)=   0.000000  celldm(6)=   0.000000

     crystal axes: (cart. coord. in units of alat)
               a(1) = (   1.000000   0.000000   0.000000 )
               a(2) = (  -0.500000   0.866025   0.000000 )
               a(3) = (   0.000000   0.000000   1.614358 )

     reciprocal axes: (cart. coord. in units 2 pi/alat)
               b(1) = (  1.000000  0.577350 -0.000000 )
               b(2) = (  0.000000  1.154701  0.000000 )
               b(3) = (  0.000000 -0.000000  0.619441 )

     PseudoPot. # 1 for Zn read from file:
     ./pseudos/Zn.upf
     MD5 check sum: 7f56cabf9682ed8c977c2f7d0c5985c5
     Pseudo is Ultrasoft + core correction, Zval = 12.0
     Generated using &quot;atomic&quot; code by A. Dal Corso  v.6.2.2
     Using radial grid of 1201 points,  6 beta functions with:
                l(1) =   0
                l(2) =   0
                l(3) =   1
                l(4) =   1
                l(5) =   2
                l(6) =   2
     Q(r) pseudized with 0 coefficients

     PseudoPot. # 2 for O  read from file:
     ./pseudos/O.upf
     MD5 check sum: 91400c9766925bcf19f520983a725ff0
     Pseudo is Ultrasoft + core correction, Zval =  6.0
     Generated using &quot;atomic&quot; code by A. Dal Corso  v.6.3MaX
     Using radial grid of 1095 points,  4 beta functions with:
                l(1) =   0
                l(2) =   0
                l(3) =   1
                l(4) =   1
     Q(r) pseudized with 0 coefficients

     atomic species   valence    mass     pseudopotential
        Zn            12.00    63.38000     Zn( 1.00)
        O              6.00    15.99900     O ( 1.00)

     No symmetry found

   Cartesian axes

     site n.     atom                  positions (alat units)
         1           Zn  tau(   1) = (   0.5502225   0.3985467   0.4918603  )
         2           Zn  tau(   2) = (   0.0311349   0.4936031  -0.1915549  )
         3           O   tau(   3) = (   0.7430379   0.1565003   1.0601855  )
         4           O   tau(   4) = (   0.2640216   0.4517684   0.7356726  )

     number of k points=   112

     Number of k-points >= 100: set verbosity='high' to print them.

     Check: negative core charge=   -0.000002

     Initial potential from superposition of free atoms

     starting charge      35.9925, renormalised to      36.0000
     Starting wfcs are   26 randomized atomic wfcs

     Self-consistent Calculation

     iteration #  1     ecut=    50.00 Ry     beta= 0.30
     Davidson diagonalization with overlap
     ethr =  1.00E-02,  avg # of iterations =  2.0

     total energy              =    -360.05205617 Ry
     estimated scf accuracy    <       1.98408531 Ry

[...]

     iteration #  7     ecut=    50.00 Ry     beta= 0.30
     Davidson diagonalization with overlap
     c_bands:  1 eigenvalues not converged
     c_bands:  1 eigenvalues not converged
     c_bands:  1 eigenvalues not converged
     c_bands:  1 eigenvalues not converged
     c_bands:  1 eigenvalues not converged
     c_bands:  1 eigenvalues not converged
     c_bands:  1 eigenvalues not converged
     c_bands:  2 eigenvalues not converged
     c_bands:  1 eigenvalues not converged
     c_bands:  1 eigenvalues not converged
     c_bands:  1 eigenvalues not converged
     c_bands:  1 eigenvalues not converged
     c_bands:  2 eigenvalues not converged
     c_bands:  1 eigenvalues not converged
     c_bands:  2 eigenvalues not converged
     ethr =  2.30E-04,  avg # of iterations = 14.1

[...]

     iteration # 88     ecut=    50.00 Ry     beta= 0.30
     Davidson diagonalization with overlap
     c_bands:  1 eigenvalues not converged
     c_bands:  1 eigenvalues not converged
     ethr =  6.70E-11,  avg # of iterations =  7.1

     total energy              =    -360.65883679 Ry
     estimated scf accuracy    <       0.00000002 Ry

     iteration # 89     ecut=    50.00 Ry     beta= 0.30
     Davidson diagonalization with overlap
     ethr =  6.27E-11,  avg # of iterations =  2.2

     End of self-consistent calculation

     Number of k-points >= 100: set verbosity='high' to print the bands.

     highest occupied level (ev):     6.5652

!    total energy              =    -360.65883679 Ry
     estimated scf accuracy    <          6.8E-09 Ry

     The total energy is the sum of the following terms:
     one-electron contribution =    -180.34534715 Ry
     hartree contribution      =     128.19933616 Ry
     xc contribution           =    -109.28283754 Ry
     ewald contribution        =    -199.22998826 Ry

     convergence has been achieved in  89 iterations

     Forces acting on atoms (cartesian axes, Ry/au):

     atom    1 type  1   force =     1.26144168   -0.23284220   -1.03125133
     atom    2 type  1   force =     0.01216958    0.01866715   -0.06785206
     atom    3 type  2   force =    -0.01531903   -0.01720623    0.16349963
     atom    4 type  2   force =    -1.25829223    0.23138128    0.93560375
     The non-local contrib.  to forces
     atom    1 type  1   force =     0.84370480   -0.22757926   -0.74077443
     atom    2 type  1   force =     0.28091938    0.19416274    0.41652883
     atom    3 type  2   force =     0.16514554    0.20709725    0.71697462
     atom    4 type  2   force =     0.63026906   -0.10167161   -0.98652442
     The ionic contribution  to forces
     atom    1 type  1   force =    12.31895315   -1.72628092  -18.28105664
     atom    2 type  1   force =     1.03378155    1.66558009    7.64813052
     atom    3 type  2   force =    -0.55296829   -2.32178339    1.79350468
     atom    4 type  2   force =   -12.79976641    2.38248421    8.83942144
     The local contribution  to forces
     atom    1 type  1   force =   -11.74991698    1.69064636   17.85825321
     atom    2 type  1   force =    -1.28903913   -1.82964828   -8.10663151
     atom    3 type  2   force =     0.37411667    2.09892918   -2.33950708
     atom    4 type  2   force =    10.91010100   -2.04906251   -6.92096680
     The core correction contribution to forces
     atom    1 type  1   force =    -0.15118517    0.03036158    0.13201147
     atom    2 type  1   force =    -0.01350819   -0.01141594   -0.02566770
     atom    3 type  2   force =    -0.00162505   -0.00144499   -0.00733277
     atom    4 type  2   force =     0.00107659   -0.00036600    0.00364115
     The Hubbard contrib.    to forces
     atom    1 type  1   force =     0.00000000    0.00000000    0.00000000
     atom    2 type  1   force =     0.00000000    0.00000000    0.00000000
     atom    3 type  2   force =     0.00000000    0.00000000    0.00000000
     atom    4 type  2   force =     0.00000000    0.00000000    0.00000000
     The SCF correction term to forces
     atom    1 type  1   force =    -0.00012843    0.00000934    0.00033179
     atom    2 type  1   force =     0.00000165   -0.00001216   -0.00019546
     atom    3 type  2   force =    -0.00000223   -0.00000498   -0.00012309
     atom    4 type  2   force =     0.00001320   -0.00000351    0.00004912

     Total force =     2.292048     Total SCF correction =     0.000428

     Writing all to output data dir ./ZnO_ANN.save/

     General routines

     Parallel routines

   This run was terminated on:  16:12:16  23Jun2025

   JOB DONE.
Note: The following floating-point exceptions are signalling: IEEE_INVALID_FLAG