     Program PWSCF v.7.2 starts on 23Jun2025 at 13:14: 4

     Reading input from /home/jvc/QEspresso7.2/ZnO_DataBase/scfs_rnd025.in/scf-5.93-1.55-1.in

     Current dimensions of program PWSCF are:
     Max number of different atomic species (ntypx) = 10
     Max number of k-points (npk) =  40000
     Max angular momentum in pseudopotentials (lmaxx) =  4
     file Zn.upf: wavefunction(s)  3D renormalized

     R & G space division:  proc/nbgrp/npool/nimage =       8
     Subspace diagonalization in iterative solution of the eigenvalue problem:
     a serial algorithm will be used

     Using Slab Decomposition

     bravais-lattice index     =            4
     lattice parameter (alat)  =       5.9317  a.u.
     unit-cell volume          =     280.1125 (a.u.)^3
     number of atoms/cell      =            4
     number of atomic types    =            2
     number of electrons       =        36.00
     number of Kohn-Sham states=           18
     kinetic-energy cutoff     =      50.0000  Ry
     charge density cutoff     =     400.0000  Ry
     scf convergence threshold =      1.0E-08
     mixing beta               =       0.3000
     number of iterations used =            8  plain     mixing
     Exchange-correlation= PBE
                           (   1   4   3   4   0   0   0)

     celldm(1)=   5.931669  celldm(2)=   0.000000  celldm(3)=   1.549784
     celldm(4)=   0.000000  celldm(5)=   0.000000  celldm(6)=   0.000000

     crystal axes: (cart. coord. in units of alat)
               a(1) = (   1.000000   0.000000   0.000000 )
               a(2) = (  -0.500000   0.866025   0.000000 )
               a(3) = (   0.000000   0.000000   1.549784 )

     reciprocal axes: (cart. coord. in units 2 pi/alat)
               b(1) = (  1.000000  0.577350 -0.000000 )
               b(2) = (  0.000000  1.154701  0.000000 )
               b(3) = (  0.000000 -0.000000  0.645251 )

     PseudoPot. # 1 for Zn read from file:
     ./pseudos/Zn.upf
     MD5 check sum: 7f56cabf9682ed8c977c2f7d0c5985c5
     Pseudo is Ultrasoft + core correction, Zval = 12.0
     Generated using &quot;atomic&quot; code by A. Dal Corso  v.6.2.2
     Using radial grid of 1201 points,  6 beta functions with:
                l(1) =   0
                l(2) =   0
                l(3) =   1
                l(4) =   1
                l(5) =   2
                l(6) =   2
     Q(r) pseudized with 0 coefficients

     PseudoPot. # 2 for O  read from file:
     ./pseudos/O.upf
     MD5 check sum: 91400c9766925bcf19f520983a725ff0
     Pseudo is Ultrasoft + core correction, Zval =  6.0
     Generated using &quot;atomic&quot; code by A. Dal Corso  v.6.3MaX
     Using radial grid of 1095 points,  4 beta functions with:
                l(1) =   0
                l(2) =   0
                l(3) =   1
                l(4) =   1
     Q(r) pseudized with 0 coefficients

     atomic species   valence    mass     pseudopotential
        Zn            12.00    63.38000     Zn( 1.00)
        O              6.00    15.99900     O ( 1.00)

     No symmetry found

   Cartesian axes

     site n.     atom                  positions (alat units)
         1           Zn  tau(   1) = (   0.6909504   0.3014410   0.6311556  )
         2           Zn  tau(   2) = (  -0.0960940   0.5031655   0.0983381  )
         3           O   tau(   3) = (   0.5288878   0.3101994   1.4551933  )
         4           O   tau(   4) = (  -0.2134945   0.7927352   0.7444527  )

     number of k points=   112

     Number of k-points >= 100: set verbosity='high' to print them.

     Check: negative core charge=   -0.000002

     Initial potential from superposition of free atoms

     starting charge      35.9925, renormalised to      36.0000
     Starting wfcs are   26 randomized atomic wfcs

     Self-consistent Calculation

     iteration #  1     ecut=    50.00 Ry     beta= 0.30
     Davidson diagonalization with overlap
     ethr =  1.00E-02,  avg # of iterations =  2.0

     total energy              =    -360.85920558 Ry
     estimated scf accuracy    <       0.87297413 Ry

[...]

     total energy              =    -361.07617330 Ry
     estimated scf accuracy    <       0.00000002 Ry

     iteration # 28     ecut=    50.00 Ry     beta= 0.30
     Davidson diagonalization with overlap
     ethr =  5.84E-11,  avg # of iterations =  2.1

     End of self-consistent calculation

     Number of k-points >= 100: set verbosity='high' to print the bands.

     highest occupied level (ev):     9.3856

!    total energy              =    -361.07617330 Ry
     estimated scf accuracy    <          3.2E-09 Ry

     The total energy is the sum of the following terms:
     one-electron contribution =    -159.99540480 Ry
     hartree contribution      =     122.68815882 Ry
     xc contribution           =    -109.99549649 Ry
     ewald contribution        =    -213.77343082 Ry

     convergence has been achieved in  28 iterations

     Forces acting on atoms (cartesian axes, Ry/au):

     atom    1 type  1   force =    -0.10216682   -0.32461780    0.25465546
     atom    2 type  1   force =     0.73151311    0.42502289   -0.04318288
     atom    3 type  2   force =    -0.62467544   -0.32106715   -0.25525113
     atom    4 type  2   force =    -0.00467085    0.22066206    0.04377855
     The non-local contrib.  to forces
     atom    1 type  1   force =     0.25403017   -0.30139834   -0.45839938
     atom    2 type  1   force =     0.81717786    0.37494131    0.77551669
     atom    3 type  2   force =     0.42439334    0.26928763    1.00641381
     atom    4 type  2   force =     0.27036371   -0.31847994   -0.92721773
     The ionic contribution  to forces
     atom    1 type  1   force =    -1.23682028   -6.36189433   15.11329615
     atom    2 type  1   force =    11.10249832    6.11440136  -13.26115138
     atom    3 type  2   force =    -8.16471502   -3.97758267  -12.23762093
     atom    4 type  2   force =    -1.70096303    4.22507565   10.38547616
     The local contribution  to forces
     atom    1 type  1   force =     0.89276899    6.28848975  -14.40558416
     atom    2 type  1   force =   -11.07943198   -6.00888815   12.48300237
     atom    3 type  2   force =     7.11606202    3.38795134   10.98330346
     atom    4 type  2   force =     1.42825604   -3.68753330   -9.42215962
     The core correction contribution to forces
     atom    1 type  1   force =    -0.01216061    0.05020552    0.00550718
     atom    2 type  1   force =    -0.10878024   -0.05545040   -0.04070537
     atom    3 type  2   force =    -0.00040490   -0.00072016   -0.00742062
     atom    4 type  2   force =    -0.00231957    0.00160011    0.00775205
     The Hubbard contrib.    to forces
     atom    1 type  1   force =     0.00000000    0.00000000    0.00000000
     atom    2 type  1   force =     0.00000000    0.00000000    0.00000000
     atom    3 type  2   force =     0.00000000    0.00000000    0.00000000
     atom    4 type  2   force =     0.00000000    0.00000000    0.00000000
     The SCF correction term to forces
     atom    1 type  1   force =     0.00002106   -0.00002030   -0.00016277
     atom    2 type  1   force =     0.00005531    0.00001888    0.00015636
     atom    3 type  2   force =    -0.00000473   -0.00000318    0.00007470
     atom    4 type  2   force =    -0.00000185   -0.00000036   -0.00007077

     Total force =     1.227751     Total SCF correction =     0.000257

     Writing all to output data dir ./ZnO_ANN.save/

     General routines

     Parallel routines

   This run was terminated on:  13:18: 9  23Jun2025

   JOB DONE.
Note: The following floating-point exceptions are signalling: IEEE_INVALID_FLAG