     Program PWSCF v.7.2 starts on 23Jun2025 at 18:49:21

     Reading input from /home/jvc/QEspresso7.2/ZnO_DataBase/scfs_rnd025.in/scf-6.80-1.71-1.in

     Current dimensions of program PWSCF are:
     Max number of different atomic species (ntypx) = 10
     Max number of k-points (npk) =  40000
     Max angular momentum in pseudopotentials (lmaxx) =  4
     file Zn.upf: wavefunction(s)  3D renormalized

     R & G space division:  proc/nbgrp/npool/nimage =       8
     Subspace diagonalization in iterative solution of the eigenvalue problem:
     a serial algorithm will be used

     Using Slab Decomposition

     bravais-lattice index     =            4
     lattice parameter (alat)  =       6.7967  a.u.
     unit-cell volume          =     465.2983 (a.u.)^3
     number of atoms/cell      =            4
     number of atomic types    =            2
     number of electrons       =        36.00
     number of Kohn-Sham states=           18
     kinetic-energy cutoff     =      50.0000  Ry
     charge density cutoff     =     400.0000  Ry
     scf convergence threshold =      1.0E-08
     mixing beta               =       0.3000
     number of iterations used =            8  plain     mixing
     Exchange-correlation= PBE
                           (   1   4   3   4   0   0   0)

     celldm(1)=   6.796704  celldm(2)=   0.000000  celldm(3)=   1.711220
     celldm(4)=   0.000000  celldm(5)=   0.000000  celldm(6)=   0.000000

     crystal axes: (cart. coord. in units of alat)
               a(1) = (   1.000000   0.000000   0.000000 )
               a(2) = (  -0.500000   0.866025   0.000000 )
               a(3) = (   0.000000   0.000000   1.711220 )

     reciprocal axes: (cart. coord. in units 2 pi/alat)
               b(1) = (  1.000000  0.577350 -0.000000 )
               b(2) = (  0.000000  1.154701  0.000000 )
               b(3) = (  0.000000 -0.000000  0.584378 )

     PseudoPot. # 1 for Zn read from file:
     ./pseudos/Zn.upf
     MD5 check sum: 7f56cabf9682ed8c977c2f7d0c5985c5
     Pseudo is Ultrasoft + core correction, Zval = 12.0
     Generated using &quot;atomic&quot; code by A. Dal Corso  v.6.2.2
     Using radial grid of 1201 points,  6 beta functions with:
                l(1) =   0
                l(2) =   0
                l(3) =   1
                l(4) =   1
                l(5) =   2
                l(6) =   2
     Q(r) pseudized with 0 coefficients

     PseudoPot. # 2 for O  read from file:
     ./pseudos/O.upf
     MD5 check sum: 91400c9766925bcf19f520983a725ff0
     Pseudo is Ultrasoft + core correction, Zval =  6.0
     Generated using &quot;atomic&quot; code by A. Dal Corso  v.6.3MaX
     Using radial grid of 1095 points,  4 beta functions with:
                l(1) =   0
                l(2) =   0
                l(3) =   1
                l(4) =   1
     Q(r) pseudized with 0 coefficients

     atomic species   valence    mass     pseudopotential
        Zn            12.00    63.38000     Zn( 1.00)
        O              6.00    15.99900     O ( 1.00)

     No symmetry found

   Cartesian axes

     site n.     atom                  positions (alat units)
         1           Zn  tau(   1) = (   0.4640859   0.0861819   0.9574502  )
         2           Zn  tau(   2) = (  -0.1511854   0.5350031   0.3489668  )
         3           O   tau(   3) = (   0.3880088   0.1790868   1.5422866  )
         4           O   tau(   4) = (   0.0996904   0.6229424   0.4350098  )

     number of k points=   112

     Number of k-points >= 100: set verbosity='high' to print them.

     Check: negative core charge=   -0.000003

     Initial potential from superposition of free atoms

     starting charge      35.9925, renormalised to      36.0000
     Starting wfcs are   26 randomized atomic wfcs

     Self-consistent Calculation

     iteration #  1     ecut=    50.00 Ry     beta= 0.30
     Davidson diagonalization with overlap
     ethr =  1.00E-02,  avg # of iterations =  3.7

     total energy              =    -358.10980059 Ry
     estimated scf accuracy    <       1.88255942 Ry

[...]

     iteration #  9     ecut=    50.00 Ry     beta= 0.30
     Davidson diagonalization with overlap
     c_bands:  1 eigenvalues not converged
     c_bands:  2 eigenvalues not converged
     ethr =  1.62E-03,  avg # of iterations = 12.2

[...]

     iteration # 62     ecut=    50.00 Ry     beta= 0.30
     Davidson diagonalization with overlap
     ethr =  3.87E-11,  avg # of iterations =  1.1

     total energy              =    -358.58163217 Ry
     estimated scf accuracy    <       0.00000011 Ry

     iteration # 63     ecut=    50.00 Ry     beta= 0.30
     Davidson diagonalization with overlap
     c_bands:  2 eigenvalues not converged
     c_bands:  2 eigenvalues not converged
     ethr =  3.87E-11,  avg # of iterations =  8.7

     End of self-consistent calculation

     Number of k-points >= 100: set verbosity='high' to print the bands.

     highest occupied level (ev):     4.3696

!    total energy              =    -358.58163217 Ry
     estimated scf accuracy    <          4.2E-09 Ry

     The total energy is the sum of the following terms:
     one-electron contribution =    -243.28694931 Ry
     hartree contribution      =     154.83300329 Ry
     xc contribution           =    -109.69552735 Ry
     ewald contribution        =    -160.43215880 Ry

     convergence has been achieved in  63 iterations

     Forces acting on atoms (cartesian axes, Ry/au):

     atom    1 type  1   force =     0.00183063    0.01274238    0.12541151
     atom    2 type  1   force =    -6.80507782   -2.38579491   -2.42725024
     atom    3 type  2   force =     0.01676614   -0.00467752   -0.08778066
     atom    4 type  2   force =     6.78648105    2.37773006    2.38961939
     The non-local contrib.  to forces
     atom    1 type  1   force =     0.01469700   -0.11167274   -0.57859835
     atom    2 type  1   force =     0.47352346    0.23745925    0.38223550
     atom    3 type  2   force =     0.20265374   -0.02645145   -0.58378096
     atom    4 type  2   force =    -0.97331602   -0.20990429    0.20308060
     The ionic contribution  to forces
     atom    1 type  1   force =     0.14542925    1.53057485   11.80708216
     atom    2 type  1   force =   -31.41588130  -12.35401846  -17.76612967
     atom    3 type  2   force =    -0.65823978    1.11155425   -1.88349865
     atom    4 type  2   force =    31.92869183    9.71188936    7.84254616
     The local contribution  to forces
     atom    1 type  1   force =    -0.15830600   -1.40563797  -11.11764072
     atom    2 type  1   force =    23.72138157    9.58476833   14.81310122
     atom    3 type  2   force =     0.47450012   -1.08976502    2.37312555
     atom    4 type  2   force =   -24.15571044   -7.11859017   -5.64715206
     The core correction contribution to forces
     atom    1 type  1   force =     0.00001654   -0.00052616    0.01473063
     atom    2 type  1   force =     0.41584844    0.14598865    0.14336902
     atom    3 type  2   force =    -0.00213173   -0.00000652    0.00638000
     atom    4 type  2   force =    -0.01315533   -0.00565090   -0.00891779
     The Hubbard contrib.    to forces
     atom    1 type  1   force =     0.00000000    0.00000000    0.00000000
     atom    2 type  1   force =     0.00000000    0.00000000    0.00000000
     atom    3 type  2   force =     0.00000000    0.00000000    0.00000000
     atom    4 type  2   force =     0.00000000    0.00000000    0.00000000
     The SCF correction term to forces
     atom    1 type  1   force =     0.00000846    0.00001024   -0.00015843
     atom    2 type  1   force =     0.00006463    0.00001316    0.00017745
     atom    3 type  2   force =    -0.00000159   -0.00000294   -0.00000282
     atom    4 type  2   force =    -0.00001436   -0.00000810    0.00006625

     Total force =    10.739495     Total SCF correction =     0.000257

     Writing all to output data dir ./ZnO_ANN.save/

     General routines

     Parallel routines

   This run was terminated on:  18:58:21  23Jun2025

   JOB DONE.
Note: The following floating-point exceptions are signalling: IEEE_INVALID_FLAG