     Program PWSCF v.7.2 starts on 23Jun2025 at 17: 2:43

     Reading input from /home/jvc/QEspresso7.2/ZnO_DataBase/scfs_rnd025.in/scf-6.55-1.68-2.in

     Current dimensions of program PWSCF are:
     Max number of different atomic species (ntypx) = 10
     Max number of k-points (npk) =  40000
     Max angular momentum in pseudopotentials (lmaxx) =  4
     file Zn.upf: wavefunction(s)  3D renormalized

     R & G space division:  proc/nbgrp/npool/nimage =       8
     Subspace diagonalization in iterative solution of the eigenvalue problem:
     a serial algorithm will be used

     Using Slab Decomposition

     bravais-lattice index     =            4
     lattice parameter (alat)  =       6.5496  a.u.
     unit-cell volume          =     408.5060 (a.u.)^3
     number of atoms/cell      =            4
     number of atomic types    =            2
     number of electrons       =        36.00
     number of Kohn-Sham states=           18
     kinetic-energy cutoff     =      50.0000  Ry
     charge density cutoff     =     400.0000  Ry
     scf convergence threshold =      1.0E-08
     mixing beta               =       0.3000
     number of iterations used =            8  plain     mixing
     Exchange-correlation= PBE
                           (   1   4   3   4   0   0   0)

     celldm(1)=   6.549551  celldm(2)=   0.000000  celldm(3)=   1.678933
     celldm(4)=   0.000000  celldm(5)=   0.000000  celldm(6)=   0.000000

     crystal axes: (cart. coord. in units of alat)
               a(1) = (   1.000000   0.000000   0.000000 )
               a(2) = (  -0.500000   0.866025   0.000000 )
               a(3) = (   0.000000   0.000000   1.678933 )

     reciprocal axes: (cart. coord. in units 2 pi/alat)
               b(1) = (  1.000000  0.577350 -0.000000 )
               b(2) = (  0.000000  1.154701  0.000000 )
               b(3) = (  0.000000 -0.000000  0.595616 )

     PseudoPot. # 1 for Zn read from file:
     ./pseudos/Zn.upf
     MD5 check sum: 7f56cabf9682ed8c977c2f7d0c5985c5
     Pseudo is Ultrasoft + core correction, Zval = 12.0
     Generated using &quot;atomic&quot; code by A. Dal Corso  v.6.2.2
     Using radial grid of 1201 points,  6 beta functions with:
                l(1) =   0
                l(2) =   0
                l(3) =   1
                l(4) =   1
                l(5) =   2
                l(6) =   2
     Q(r) pseudized with 0 coefficients

     PseudoPot. # 2 for O  read from file:
     ./pseudos/O.upf
     MD5 check sum: 91400c9766925bcf19f520983a725ff0
     Pseudo is Ultrasoft + core correction, Zval =  6.0
     Generated using &quot;atomic&quot; code by A. Dal Corso  v.6.3MaX
     Using radial grid of 1095 points,  4 beta functions with:
                l(1) =   0
                l(2) =   0
                l(3) =   1
                l(4) =   1
     Q(r) pseudized with 0 coefficients

     atomic species   valence    mass     pseudopotential
        Zn            12.00    63.38000     Zn( 1.00)
        O              6.00    15.99900     O ( 1.00)

     No symmetry found

   Cartesian axes

     site n.     atom                  positions (alat units)
         1           Zn  tau(   1) = (   0.3508545   0.1239763   1.1106273  )
         2           Zn  tau(   2) = (  -0.0440759   0.4247960   0.0532135  )
         3           O   tau(   3) = (   0.4833716   0.2738709   1.4220705  )
         4           O   tau(   4) = (  -0.0767906   0.3691287   0.9179711  )

     number of k points=   112

     Number of k-points >= 100: set verbosity='high' to print them.

     Check: negative core charge=   -0.000002

     Initial potential from superposition of free atoms

     starting charge      35.9925, renormalised to      36.0000
     Starting wfcs are   26 randomized atomic wfcs

     Self-consistent Calculation

     iteration #  1     ecut=    50.00 Ry     beta= 0.30
     Davidson diagonalization with overlap
     ethr =  1.00E-02,  avg # of iterations =  2.0

     total energy              =    -360.35883528 Ry
     estimated scf accuracy    <       1.56049716 Ry

[...]

     iteration #  8     ecut=    50.00 Ry     beta= 0.30
     Davidson diagonalization with overlap
     c_bands:  2 eigenvalues not converged
     c_bands:  3 eigenvalues not converged
     c_bands:  1 eigenvalues not converged
     ethr =  1.80E-06,  avg # of iterations = 12.0

[...]

     iteration # 15     ecut=    50.00 Ry     beta= 0.30
     Davidson diagonalization with overlap
     c_bands:  2 eigenvalues not converged
     c_bands:  1 eigenvalues not converged
     ethr =  5.56E-09,  avg # of iterations = 10.8

[...]

     total energy              =    -360.76053953 Ry
     estimated scf accuracy    <       0.00000014 Ry

     iteration # 18     ecut=    50.00 Ry     beta= 0.30
     Davidson diagonalization with overlap
     ethr =  3.97E-10,  avg # of iterations =  7.3

     End of self-consistent calculation

     Number of k-points >= 100: set verbosity='high' to print the bands.

     highest occupied level (ev):     5.3097

!    total energy              =    -360.76053957 Ry
     estimated scf accuracy    <          7.4E-09 Ry

     The total energy is the sum of the following terms:
     one-electron contribution =    -239.16717329 Ry
     hartree contribution      =     156.36463989 Ry
     xc contribution           =    -109.57225049 Ry
     ewald contribution        =    -168.38575569 Ry

     convergence has been achieved in  18 iterations

     Forces acting on atoms (cartesian axes, Ry/au):

     atom    1 type  1   force =    -0.58181397   -0.76517445   -1.58215691
     atom    2 type  1   force =    -0.00214730   -0.00579119    0.01603505
     atom    3 type  2   force =     0.61951069    0.72601553    1.65191116
     atom    4 type  2   force =    -0.03554941    0.04495010   -0.08578929
     The non-local contrib.  to forces
     atom    1 type  1   force =    -0.03889563   -0.50955248   -0.42043077
     atom    2 type  1   force =     0.15199081    0.17211074    0.19657167
     atom    3 type  2   force =    -0.30109308   -0.36717175    0.14614588
     atom    4 type  2   force =     0.44642831   -0.11977584    0.21522817
     The ionic contribution  to forces
     atom    1 type  1   force =    -3.65739778   -9.45392300  -25.77356268
     atom    2 type  1   force =     0.49708863    1.39258608   22.39875994
     atom    3 type  2   force =     5.59783280    6.45258517   16.73775845
     atom    4 type  2   force =    -2.43752366    1.60875175  -13.36295571
     The local contribution  to forces
     atom    1 type  1   force =     3.06696884    9.09982102   24.45074471
     atom    2 type  1   force =    -0.64395252   -1.56035789  -22.55919237
     atom    3 type  2   force =    -4.67702047   -5.35954755  -15.22308335
     atom    4 type  2   force =     1.95934869   -1.44470004   13.06290120
     The core correction contribution to forces
     atom    1 type  1   force =     0.04753993    0.09854686    0.16108335
     atom    2 type  1   force =    -0.00731372   -0.01014308   -0.02022056
     atom    3 type  2   force =    -0.00019972    0.00013577   -0.00903000
     atom    4 type  2   force =    -0.00381151    0.00066678   -0.00087908
     The Hubbard contrib.    to forces
     atom    1 type  1   force =     0.00000000    0.00000000    0.00000000
     atom    2 type  1   force =     0.00000000    0.00000000    0.00000000
     atom    3 type  2   force =     0.00000000    0.00000000    0.00000000
     atom    4 type  2   force =     0.00000000    0.00000000    0.00000000
     The SCF correction term to forces
     atom    1 type  1   force =    -0.00002825   -0.00007599    0.00005134
     atom    2 type  1   force =     0.00004058    0.00000383    0.00015924
     atom    3 type  2   force =    -0.00000775    0.00000476    0.00016305
     atom    4 type  2   force =     0.00000984   -0.00000168   -0.00004100

     Total force =     2.660425     Total SCF correction =     0.000254

     Writing all to output data dir ./ZnO_ANN.save/

     General routines

     Parallel routines

   This run was terminated on:  17: 6: 2  23Jun2025

   JOB DONE.
Note: The following floating-point exceptions are signalling: IEEE_INVALID_FLAG