     Program PWSCF v.7.2 starts on 23Jun2025 at 12:26:53

     Reading input from /home/jvc/QEspresso7.2/ZnO_DataBase/scfs_rnd025.in/scf-5.68-1.71-3.in

     Current dimensions of program PWSCF are:
     Max number of different atomic species (ntypx) = 10
     Max number of k-points (npk) =  40000
     Max angular momentum in pseudopotentials (lmaxx) =  4
     file Zn.upf: wavefunction(s)  3D renormalized

     R & G space division:  proc/nbgrp/npool/nimage =       8
     Subspace diagonalization in iterative solution of the eigenvalue problem:
     a serial algorithm will be used

     Using Slab Decomposition

     bravais-lattice index     =            4
     lattice parameter (alat)  =       5.6845  a.u.
     unit-cell volume          =     272.2180 (a.u.)^3
     number of atoms/cell      =            4
     number of atomic types    =            2
     number of electrons       =        36.00
     number of Kohn-Sham states=           18
     kinetic-energy cutoff     =      50.0000  Ry
     charge density cutoff     =     400.0000  Ry
     scf convergence threshold =      1.0E-08
     mixing beta               =       0.3000
     number of iterations used =            8  plain     mixing
     Exchange-correlation= PBE
                           (   1   4   3   4   0   0   0)

     celldm(1)=   5.684516  celldm(2)=   0.000000  celldm(3)=   1.711220
     celldm(4)=   0.000000  celldm(5)=   0.000000  celldm(6)=   0.000000

     crystal axes: (cart. coord. in units of alat)
               a(1) = (   1.000000   0.000000   0.000000 )
               a(2) = (  -0.500000   0.866025   0.000000 )
               a(3) = (   0.000000   0.000000   1.711220 )

     reciprocal axes: (cart. coord. in units 2 pi/alat)
               b(1) = (  1.000000  0.577350 -0.000000 )
               b(2) = (  0.000000  1.154701  0.000000 )
               b(3) = (  0.000000 -0.000000  0.584378 )

     PseudoPot. # 1 for Zn read from file:
     ./pseudos/Zn.upf
     MD5 check sum: 7f56cabf9682ed8c977c2f7d0c5985c5
     Pseudo is Ultrasoft + core correction, Zval = 12.0
     Generated using &quot;atomic&quot; code by A. Dal Corso  v.6.2.2
     Using radial grid of 1201 points,  6 beta functions with:
                l(1) =   0
                l(2) =   0
                l(3) =   1
                l(4) =   1
                l(5) =   2
                l(6) =   2
     Q(r) pseudized with 0 coefficients

     PseudoPot. # 2 for O  read from file:
     ./pseudos/O.upf
     MD5 check sum: 91400c9766925bcf19f520983a725ff0
     Pseudo is Ultrasoft + core correction, Zval =  6.0
     Generated using &quot;atomic&quot; code by A. Dal Corso  v.6.3MaX
     Using radial grid of 1095 points,  4 beta functions with:
                l(1) =   0
                l(2) =   0
                l(3) =   1
                l(4) =   1
     Q(r) pseudized with 0 coefficients

     atomic species   valence    mass     pseudopotential
        Zn            12.00    63.38000     Zn( 1.00)
        O              6.00    15.99900     O ( 1.00)

     No symmetry found

   Cartesian axes

     site n.     atom                  positions (alat units)
         1           Zn  tau(   1) = (   0.6908677   0.1771395   0.7051419  )
         2           Zn  tau(   2) = (  -0.0190271   0.6790131  -0.0687504  )
         3           O   tau(   3) = (   0.3579804   0.3523570   1.5869476  )
         4           O   tau(   4) = (  -0.0553198   0.4674472   0.9606559  )

     number of k points=   112

     Number of k-points >= 100: set verbosity='high' to print them.

     Check: negative core charge=   -0.000002

     Initial potential from superposition of free atoms

     starting charge      35.9925, renormalised to      36.0000
     Starting wfcs are   26 randomized atomic wfcs

     Self-consistent Calculation

     iteration #  1     ecut=    50.00 Ry     beta= 0.30
     Davidson diagonalization with overlap
     ethr =  1.00E-02,  avg # of iterations =  2.0

     total energy              =    -360.71900193 Ry
     estimated scf accuracy    <       1.09885969 Ry

[...]

     total energy              =    -360.97305212 Ry
     estimated scf accuracy    <       0.00000006 Ry

     iteration # 21     ecut=    50.00 Ry     beta= 0.30
     Davidson diagonalization with overlap
     ethr =  1.63E-10,  avg # of iterations =  6.2

     End of self-consistent calculation

     Number of k-points >= 100: set verbosity='high' to print the bands.

     highest occupied level (ev):    10.1775

!    total energy              =    -360.97305216 Ry
     estimated scf accuracy    <          7.4E-09 Ry

     The total energy is the sum of the following terms:
     one-electron contribution =    -140.56464336 Ry
     hartree contribution      =     113.83487581 Ry
     xc contribution           =    -110.03664402 Ry
     ewald contribution        =    -224.20664060 Ry

     convergence has been achieved in  21 iterations

     Forces acting on atoms (cartesian axes, Ry/au):

     atom    1 type  1   force =    -0.57666734   -0.65915213   -0.49810623
     atom    2 type  1   force =    -0.33955208    0.18805924    0.03998569
     atom    3 type  2   force =     0.36315420   -0.20317220    0.03746157
     atom    4 type  2   force =     0.55306521    0.67426509    0.42065897
     The non-local contrib.  to forces
     atom    1 type  1   force =    -0.61225956   -0.67204359   -0.92083579
     atom    2 type  1   force =    -0.43821506    0.08765206    0.26233405
     atom    3 type  2   force =    -0.27016133   -0.19790296    0.77432232
     atom    4 type  2   force =    -0.37634777   -0.06930776   -1.00513474
     The ionic contribution  to forces
     atom    1 type  1   force =    -5.53405097   -6.15220165   -9.25542772
     atom    2 type  1   force =    -4.47524958    1.30388451    5.13950316
     atom    3 type  2   force =     4.32939648   -0.84670221   -0.82282979
     atom    4 type  2   force =     5.67990407    5.69501935    4.93875435
     The local contribution  to forces
     atom    1 type  1   force =     5.48926710    6.07934594    9.57328901
     atom    2 type  1   force =     4.51095970   -1.19206574   -5.33603594
     atom    3 type  2   force =    -3.69652587    0.83869971    0.09319246
     atom    4 type  2   force =    -4.75102634   -4.94863444   -3.51992356
     The core correction contribution to forces
     atom    1 type  1   force =     0.08030068    0.08563369    0.10468000
     atom    2 type  1   force =     0.06290618   -0.01134573   -0.02562711
     atom    3 type  2   force =     0.00051334    0.00273262   -0.00708182
     atom    4 type  2   force =     0.00057673   -0.00277139    0.00683268
     The Hubbard contrib.    to forces
     atom    1 type  1   force =     0.00000000    0.00000000    0.00000000
     atom    2 type  1   force =     0.00000000    0.00000000    0.00000000
     atom    3 type  2   force =     0.00000000    0.00000000    0.00000000
     atom    4 type  2   force =     0.00000000    0.00000000    0.00000000
     The SCF correction term to forces
     atom    1 type  1   force =     0.00010214    0.00012622    0.00018678
     atom    2 type  1   force =     0.00007341   -0.00005311   -0.00018996
     atom    3 type  2   force =    -0.00004168    0.00001338   -0.00014310
     atom    4 type  2   force =    -0.00001475   -0.00002792    0.00012876

     Total force =     1.509778     Total SCF correction =     0.000381

     Writing all to output data dir ./ZnO_ANN.save/

     General routines

     Parallel routines

   This run was terminated on:  12:29:22  23Jun2025

   JOB DONE.
Note: The following floating-point exceptions are signalling: IEEE_INVALID_FLAG