     Program PWSCF v.7.2 starts on 23Jun2025 at 15:28: 4

     Reading input from /home/jvc/QEspresso7.2/ZnO_DataBase/scfs_rnd025.in/scf-6.30-1.71-5.in

     Current dimensions of program PWSCF are:
     Max number of different atomic species (ntypx) = 10
     Max number of k-points (npk) =  40000
     Max angular momentum in pseudopotentials (lmaxx) =  4
     file Zn.upf: wavefunction(s)  3D renormalized

     R & G space division:  proc/nbgrp/npool/nimage =       8
     Subspace diagonalization in iterative solution of the eigenvalue problem:
     a serial algorithm will be used

     Using Slab Decomposition

     bravais-lattice index     =            4
     lattice parameter (alat)  =       6.3024  a.u.
     unit-cell volume          =     370.9829 (a.u.)^3
     number of atoms/cell      =            4
     number of atomic types    =            2
     number of electrons       =        36.00
     number of Kohn-Sham states=           18
     kinetic-energy cutoff     =      50.0000  Ry
     charge density cutoff     =     400.0000  Ry
     scf convergence threshold =      1.0E-08
     mixing beta               =       0.3000
     number of iterations used =            8  plain     mixing
     Exchange-correlation= PBE
                           (   1   4   3   4   0   0   0)

     celldm(1)=   6.302398  celldm(2)=   0.000000  celldm(3)=   1.711220
     celldm(4)=   0.000000  celldm(5)=   0.000000  celldm(6)=   0.000000

     crystal axes: (cart. coord. in units of alat)
               a(1) = (   1.000000   0.000000   0.000000 )
               a(2) = (  -0.500000   0.866025   0.000000 )
               a(3) = (   0.000000   0.000000   1.711220 )

     reciprocal axes: (cart. coord. in units 2 pi/alat)
               b(1) = (  1.000000  0.577350 -0.000000 )
               b(2) = (  0.000000  1.154701  0.000000 )
               b(3) = (  0.000000 -0.000000  0.584378 )

     PseudoPot. # 1 for Zn read from file:
     ./pseudos/Zn.upf
     MD5 check sum: 7f56cabf9682ed8c977c2f7d0c5985c5
     Pseudo is Ultrasoft + core correction, Zval = 12.0
     Generated using &quot;atomic&quot; code by A. Dal Corso  v.6.2.2
     Using radial grid of 1201 points,  6 beta functions with:
                l(1) =   0
                l(2) =   0
                l(3) =   1
                l(4) =   1
                l(5) =   2
                l(6) =   2
     Q(r) pseudized with 0 coefficients

     PseudoPot. # 2 for O  read from file:
     ./pseudos/O.upf
     MD5 check sum: 91400c9766925bcf19f520983a725ff0
     Pseudo is Ultrasoft + core correction, Zval =  6.0
     Generated using &quot;atomic&quot; code by A. Dal Corso  v.6.3MaX
     Using radial grid of 1095 points,  4 beta functions with:
                l(1) =   0
                l(2) =   0
                l(3) =   1
                l(4) =   1
     Q(r) pseudized with 0 coefficients

     atomic species   valence    mass     pseudopotential
        Zn            12.00    63.38000     Zn( 1.00)
        O              6.00    15.99900     O ( 1.00)

     No symmetry found

   Cartesian axes

     site n.     atom                  positions (alat units)
         1           Zn  tau(   1) = (   0.5997487   0.1225009   0.6294039  )
         2           Zn  tau(   2) = (  -0.2039401   0.6472027   0.2946497  )
         3           O   tau(   3) = (   0.7454170   0.1616247   1.1320897  )
         4           O   tau(   4) = (   0.0837136   0.4630709   0.9258526  )

     number of k points=   112

     Number of k-points >= 100: set verbosity='high' to print them.

     Check: negative core charge=   -0.000003

     Initial potential from superposition of free atoms

     starting charge      35.9925, renormalised to      36.0000
     Starting wfcs are   26 randomized atomic wfcs

     Self-consistent Calculation

     iteration #  1     ecut=    50.00 Ry     beta= 0.30
     Davidson diagonalization with overlap
     ethr =  1.00E-02,  avg # of iterations =  2.0

     total energy              =    -360.71265399 Ry
     estimated scf accuracy    <       0.56993683 Ry

[...]

     iteration #  4     ecut=    50.00 Ry     beta= 0.30
     Davidson diagonalization with overlap
     c_bands:  1 eigenvalues not converged
     ethr =  1.42E-04,  avg # of iterations =  7.1

[...]

     iteration # 42     ecut=    50.00 Ry     beta= 0.30
     Davidson diagonalization with overlap
     c_bands:  1 eigenvalues not converged
     c_bands:  1 eigenvalues not converged
     c_bands:  1 eigenvalues not converged
     c_bands:  1 eigenvalues not converged
     c_bands:  1 eigenvalues not converged
     c_bands:  1 eigenvalues not converged
     c_bands:  1 eigenvalues not converged
     c_bands:  1 eigenvalues not converged
     c_bands:  1 eigenvalues not converged
     ethr =  1.43E-10,  avg # of iterations =  9.6

     total energy              =    -360.92689013 Ry
     estimated scf accuracy    <       0.00000001 Ry

     iteration # 43     ecut=    50.00 Ry     beta= 0.30
     Davidson diagonalization with overlap
     ethr =  4.04E-11,  avg # of iterations =  4.8

     End of self-consistent calculation

     Number of k-points >= 100: set verbosity='high' to print the bands.

     highest occupied level (ev):     6.6879

!    total energy              =    -360.92689013 Ry
     estimated scf accuracy    <          4.7E-09 Ry

     The total energy is the sum of the following terms:
     one-electron contribution =    -233.44294084 Ry
     hartree contribution      =     154.23528313 Ry
     xc contribution           =    -109.19771871 Ry
     ewald contribution        =    -172.52151371 Ry

     convergence has been achieved in  43 iterations

     Forces acting on atoms (cartesian axes, Ry/au):

     atom    1 type  1   force =     0.08773789    0.14108282    0.14066462
     atom    2 type  1   force =    -0.15221823   -0.13068398   -0.27740474
     atom    3 type  2   force =     0.11679331    0.05973703    0.10485729
     atom    4 type  2   force =    -0.05231298   -0.07013586    0.03188283
     The non-local contrib.  to forces
     atom    1 type  1   force =    -0.10172135   -0.06153960   -0.43889620
     atom    2 type  1   force =     0.04230935   -0.05537184   -0.14592827
     atom    3 type  2   force =     0.47285821    0.53717781   -1.05349141
     atom    4 type  2   force =    -0.77816264   -0.43703621   -0.32306818
     The ionic contribution  to forces
     atom    1 type  1   force =     1.18715766    3.00019254   -1.07408866
     atom    2 type  1   force =    -4.21925827   -1.80579227  -30.76810399
     atom    3 type  2   force =     0.08187368   -0.82405721   19.51192012
     atom    4 type  2   force =     2.95022693   -0.37034306   12.33027253
     The local contribution  to forces
     atom    1 type  1   force =    -0.99970717   -2.78795499    1.62122732
     atom    2 type  1   force =     4.01318152    1.72128918   30.60475350
     atom    3 type  2   force =    -0.43204044    0.35292234  -18.36186910
     atom    4 type  2   force =    -2.23218690    0.73201160  -11.97717835
     The core correction contribution to forces
     atom    1 type  1   force =     0.00201514   -0.00961974    0.03253394
     atom    2 type  1   force =     0.01154372    0.00918905    0.03193915
     atom    3 type  2   force =    -0.00586609   -0.00628177    0.00821083
     atom    4 type  2   force =     0.00781385    0.00522590    0.00183750
     The Hubbard contrib.    to forces
     atom    1 type  1   force =     0.00000000    0.00000000    0.00000000
     atom    2 type  1   force =     0.00000000    0.00000000    0.00000000
     atom    3 type  2   force =     0.00000000    0.00000000    0.00000000
     atom    4 type  2   force =     0.00000000    0.00000000    0.00000000
     The SCF correction term to forces
     atom    1 type  1   force =    -0.00000466    0.00000537   -0.00013404
     atom    2 type  1   force =     0.00000718    0.00000265   -0.00008738
     atom    3 type  2   force =    -0.00003032   -0.00002339    0.00006459
     atom    4 type  2   force =    -0.00000249    0.00000667   -0.00000292

     Total force =     0.448851     Total SCF correction =     0.000177

     Writing all to output data dir ./ZnO_ANN.save/

     General routines

     Parallel routines

   This run was terminated on:  15:33:30  23Jun2025

   JOB DONE.
Note: The following floating-point exceptions are signalling: IEEE_INVALID_FLAG