     Program PWSCF v.7.2 starts on 23Jun2025 at 12: 0: 6

     Reading input from /home/jvc/QEspresso7.2/ZnO_DataBase/scfs_rnd025.in/scf-5.56-1.68-3.in

     Current dimensions of program PWSCF are:
     Max number of different atomic species (ntypx) = 10
     Max number of k-points (npk) =  40000
     Max angular momentum in pseudopotentials (lmaxx) =  4
     file Zn.upf: wavefunction(s)  3D renormalized

     R & G space division:  proc/nbgrp/npool/nimage =       8
     Subspace diagonalization in iterative solution of the eigenvalue problem:
     a serial algorithm will be used

     Using Slab Decomposition

     bravais-lattice index     =            4
     lattice parameter (alat)  =       5.5609  a.u.
     unit-cell volume          =     250.0394 (a.u.)^3
     number of atoms/cell      =            4
     number of atomic types    =            2
     number of electrons       =        36.00
     number of Kohn-Sham states=           18
     kinetic-energy cutoff     =      50.0000  Ry
     charge density cutoff     =     400.0000  Ry
     scf convergence threshold =      1.0E-08
     mixing beta               =       0.3000
     number of iterations used =            8  plain     mixing
     Exchange-correlation= PBE
                           (   1   4   3   4   0   0   0)

     celldm(1)=   5.560939  celldm(2)=   0.000000  celldm(3)=   1.678933
     celldm(4)=   0.000000  celldm(5)=   0.000000  celldm(6)=   0.000000

     crystal axes: (cart. coord. in units of alat)
               a(1) = (   1.000000   0.000000   0.000000 )
               a(2) = (  -0.500000   0.866025   0.000000 )
               a(3) = (   0.000000   0.000000   1.678933 )

     reciprocal axes: (cart. coord. in units 2 pi/alat)
               b(1) = (  1.000000  0.577350 -0.000000 )
               b(2) = (  0.000000  1.154701  0.000000 )
               b(3) = (  0.000000 -0.000000  0.595616 )

     PseudoPot. # 1 for Zn read from file:
     ./pseudos/Zn.upf
     MD5 check sum: 7f56cabf9682ed8c977c2f7d0c5985c5
     Pseudo is Ultrasoft + core correction, Zval = 12.0
     Generated using &quot;atomic&quot; code by A. Dal Corso  v.6.2.2
     Using radial grid of 1201 points,  6 beta functions with:
                l(1) =   0
                l(2) =   0
                l(3) =   1
                l(4) =   1
                l(5) =   2
                l(6) =   2
     Q(r) pseudized with 0 coefficients

     PseudoPot. # 2 for O  read from file:
     ./pseudos/O.upf
     MD5 check sum: 91400c9766925bcf19f520983a725ff0
     Pseudo is Ultrasoft + core correction, Zval =  6.0
     Generated using &quot;atomic&quot; code by A. Dal Corso  v.6.3MaX
     Using radial grid of 1095 points,  4 beta functions with:
                l(1) =   0
                l(2) =   0
                l(3) =   1
                l(4) =   1
     Q(r) pseudized with 0 coefficients

     atomic species   valence    mass     pseudopotential
        Zn            12.00    63.38000     Zn( 1.00)
        O              6.00    15.99900     O ( 1.00)

     No symmetry found

   Cartesian axes

     site n.     atom                  positions (alat units)
         1           Zn  tau(   1) = (   0.6821983   0.1715529   1.2433271  )
         2           Zn  tau(   2) = (   0.2733662   0.3911127  -0.1740063  )
         3           O   tau(   3) = (   0.4586272   0.1913509   1.3044859  )
         4           O   tau(   4) = (   0.0202006   0.5958321   0.7196819  )

     number of k points=   112

     Number of k-points >= 100: set verbosity='high' to print them.

     Check: negative core charge=   -0.000002

     Initial potential from superposition of free atoms

     starting charge      35.9925, renormalised to      36.0000
     Starting wfcs are   26 randomized atomic wfcs

     Self-consistent Calculation

     iteration #  1     ecut=    50.00 Ry     beta= 0.30
     Davidson diagonalization with overlap
     ethr =  1.00E-02,  avg # of iterations =  5.9

     total energy              =    -342.87079333 Ry
     estimated scf accuracy    <       2.01065666 Ry

[...]

     iteration #  3     ecut=    50.00 Ry     beta= 0.30
     Davidson diagonalization with overlap
     c_bands:  1 eigenvalues not converged
     ethr =  1.02E-03,  avg # of iterations = 11.3

[...]

     iteration # 36     ecut=    50.00 Ry     beta= 0.30
     Davidson diagonalization with overlap
     c_bands:  1 eigenvalues not converged
     c_bands:  1 eigenvalues not converged
     ethr =  7.59E-09,  avg # of iterations =  8.1

[...]

     total energy              =    -343.13939106 Ry
     estimated scf accuracy    <       0.00000007 Ry

     iteration # 40     ecut=    50.00 Ry     beta= 0.30
     Davidson diagonalization with overlap
     ethr =  1.97E-10,  avg # of iterations =  6.9

     End of self-consistent calculation

     Number of k-points >= 100: set verbosity='high' to print the bands.

     highest occupied level (ev):    14.2106

!    total energy              =    -343.13939108 Ry
     estimated scf accuracy    <          3.0E-09 Ry

     The total energy is the sum of the following terms:
     one-electron contribution =    -322.48933560 Ry
     hartree contribution      =     198.42553828 Ry
     xc contribution           =    -113.67474029 Ry
     ewald contribution        =    -105.40085348 Ry

     convergence has been achieved in  40 iterations

     Forces acting on atoms (cartesian axes, Ry/au):

     atom    1 type  1   force =    34.86605154   -3.50792253  -10.30649706
     atom    2 type  1   force =    -5.59918254    5.57949570    6.04773950
     atom    3 type  2   force =   -29.26593258   -2.04967128    4.31730313
     atom    4 type  2   force =    -0.00093642   -0.02190189   -0.05854558
     The non-local contrib.  to forces
     atom    1 type  1   force =   -13.21654484    1.53619429    4.54626270
     atom    2 type  1   force =     1.06142919   -0.25860082   -0.84147663
     atom    3 type  2   force =     3.09408619   -0.36160577   -0.33107086
     atom    4 type  2   force =     0.02987550   -0.18347024    0.33417212
     The ionic contribution  to forces
     atom    1 type  1   force =    84.88573255  -10.98568684  -40.01404413
     atom    2 type  1   force =   -25.64595891   23.67045376   56.85487032
     atom    3 type  2   force =   -58.82716623  -12.05511756    1.13386970
     atom    4 type  2   force =    -0.41260741   -0.62964936  -17.97469588
     The local contribution  to forces
     atom    1 type  1   force =   -35.66423258    5.82263417   24.80269001
     atom    2 type  1   force =    18.68737669  -17.52161489  -49.61017449
     atom    3 type  2   force =    26.41204542   10.36164111    3.52397444
     atom    4 type  2   force =     0.38199338    0.78875424   17.58288258
     The core correction contribution to forces
     atom    1 type  1   force =    -1.13884414    0.11892244    0.35832650
     atom    2 type  1   force =     0.29793897   -0.31073243   -0.35543255
     atom    3 type  2   force =     0.05507012    0.00540737   -0.00956941
     atom    4 type  2   force =    -0.00021083    0.00244945   -0.00084882
     The Hubbard contrib.    to forces
     atom    1 type  1   force =     0.00000000    0.00000000    0.00000000
     atom    2 type  1   force =     0.00000000    0.00000000    0.00000000
     atom    3 type  2   force =     0.00000000    0.00000000    0.00000000
     atom    4 type  2   force =     0.00000000    0.00000000    0.00000000
     The SCF correction term to forces
     atom    1 type  1   force =    -0.00008005    0.00000808    0.00031163
     atom    2 type  1   force =     0.00001093   -0.00001523   -0.00000338
     atom    3 type  2   force =     0.00001133   -0.00000176    0.00014304
     atom    4 type  2   force =    -0.00000766    0.00000870   -0.00001181

     Total force =    48.089154     Total SCF correction =     0.000353

     Writing all to output data dir ./ZnO_ANN.save/

     General routines

     Parallel routines

   This run was terminated on:  12: 4: 1  23Jun2025

   JOB DONE.
Note: The following floating-point exceptions are signalling: IEEE_INVALID_FLAG