     Program PWSCF v.7.0 starts on  3Sep2025 at 19: 9: 8

     K-points division:     npool     =      16
     R & G space division:  proc/nbgrp/npool/nimage =       4

     Reading input from /home/jvc/QEspresso7.2/ZnO_database/scripts/cell321.in/ZnO-3.53-1.68-321.in
Warning: card &CELL ignored
Warning: card / ignored
Warning: card &FCP ignored
Warning: card / ignored
Warning: card &RISM ignored
Warning: card / ignored

     Current dimensions of program PWSCF are:
     Max number of different atomic species (ntypx) = 10
     Max number of k-points (npk) =  40000
     Max angular momentum in pseudopotentials (lmaxx) =  4
     file Zn.upf: wavefunction(s)  3D renormalized
     Found identity + (  0.0000 -0.5000  0.0000) symmetry
     This is a supercell, fractional translations are disabled

     Using Slab Decomposition

     bravais-lattice index     =            0
     lattice parameter (alat)  =      20.0195  a.u.
     unit-cell volume          =    2592.4490 (a.u.)^3
     number of atoms/cell      =           24
     number of atomic types    =            2
     number of electrons       =       216.00
     number of Kohn-Sham states=          108
     kinetic-energy cutoff     =      50.0000  Ry
     charge density cutoff     =     400.0000  Ry
     scf convergence threshold =      1.0E-08
     mixing beta               =       0.3000
     number of iterations used =            8  plain     mixing
     Exchange-correlation= PBE
                           (   1   4   3   4   0   0   0)

     celldm(1)=  20.019487  celldm(2)=   0.000000  celldm(3)=   0.000000
     celldm(4)=   0.000000  celldm(5)=   0.000000  celldm(6)=   0.000000

     crystal axes: (cart. coord. in units of alat)
               a(1) = (   1.000000   0.000000   0.000000 )
               a(2) = (  -0.333333   0.577350   0.000000 )
               a(3) = (   0.000000   0.000000   0.559644 )

     reciprocal axes: (cart. coord. in units 2 pi/alat)
               b(1) = (  1.000000  0.577350 -0.000000 )
               b(2) = (  0.000000  1.732051  0.000000 )
               b(3) = (  0.000000 -0.000000  1.786849 )

     PseudoPot. # 1 for Zn read from file:
     /home/jvc/QEspresso7.2/ZnO_database/pseudos/Zn.upf
     MD5 check sum: 7f56cabf9682ed8c977c2f7d0c5985c5
     Pseudo is Ultrasoft + core correction, Zval = 12.0
     Generated using &quot;atomic&quot; code by A. Dal Corso  v.6.2.2
     Using radial grid of 1201 points,  6 beta functions with:
                l(1) =   0
                l(2) =   0
                l(3) =   1
                l(4) =   1
                l(5) =   2
                l(6) =   2
     Q(r) pseudized with 0 coefficients

     PseudoPot. # 2 for O  read from file:
     /home/jvc/QEspresso7.2/ZnO_database/pseudos/O.upf
     MD5 check sum: 91400c9766925bcf19f520983a725ff0
     Pseudo is Ultrasoft + core correction, Zval =  6.0
     Generated using &quot;atomic&quot; code by A. Dal Corso  v.6.3MaX
     Using radial grid of 1095 points,  4 beta functions with:
                l(1) =   0
                l(2) =   0
                l(3) =   1
                l(4) =   1
     Q(r) pseudized with 0 coefficients

     atomic species   valence    mass     pseudopotential
        Zn            12.00    65.38000     Zn( 1.00)
        O              6.00    15.99900     O ( 1.00)

     No symmetry found

                                    s                        frac. trans.

      isym =  1     identity

 cryst.   s( 1) = (     1          0          0      )
                  (     0          1          0      )
                  (     0          0          1      )

 cart.    s( 1) = (  1.0000000  0.0000000  0.0000000 )
                  (  0.0000000  1.0000000  0.0000000 )
                  (  0.0000000  0.0000000  1.0000000 )

   Cartesian axes

     site n.     atom                  positions (alat units)
         1           Zn  tau(   1) = (   0.1666667   0.0962250   0.2801767  )
         2           Zn  tau(   2) = (  -0.0000000   0.1924501   0.0003546  )
         3           O   tau(   3) = (   0.1666667   0.0962250   0.4923058  )
         4           O   tau(   4) = (  -0.0000000   0.1924501   0.2124837  )
         5           Zn  tau(   5) = (  -0.0000000   0.3849002   0.2801767  )
         6           Zn  tau(   6) = (  -0.1666667   0.4811252   0.0003546  )
         7           O   tau(   7) = (  -0.0000000   0.3849002   0.4923058  )
         8           O   tau(   8) = (  -0.1666667   0.4811252   0.2124837  )
         9           Zn  tau(   9) = (   0.5000000   0.0962250   0.2801767  )
        10           Zn  tau(  10) = (   0.3333333   0.1924501   0.0003546  )
        11           O   tau(  11) = (   0.5000000   0.0962250   0.4923058  )
        12           O   tau(  12) = (   0.3333333   0.1924501   0.2124837  )
        13           Zn  tau(  13) = (   0.3333333   0.3849002   0.2801767  )
        14           Zn  tau(  14) = (   0.1666667   0.4811252   0.0003546  )
        15           O   tau(  15) = (   0.3333333   0.3849002   0.4923058  )
        16           O   tau(  16) = (   0.1666667   0.4811252   0.2124837  )
        17           Zn  tau(  17) = (   0.8333333   0.0962250   0.2801767  )
        18           Zn  tau(  18) = (   0.6666667   0.1924501   0.0003546  )
        19           O   tau(  19) = (   0.8333333   0.0962250   0.4923058  )
        20           O   tau(  20) = (   0.6666667   0.1924501   0.2124837  )
        21           Zn  tau(  21) = (   0.6666667   0.3849002   0.2801767  )
        22           Zn  tau(  22) = (   0.5000000   0.4811252   0.0003546  )
        23           O   tau(  23) = (   0.6666667   0.3849002   0.4923058  )
        24           O   tau(  24) = (   0.5000000   0.4811252   0.2124837  )

   Crystallographic axes

     site n.     atom                  positions (cryst. coord.)
         1           Zn  tau(   1) = (  0.2222222  0.1666667  0.5006336  )
         2           Zn  tau(   2) = (  0.1111111  0.3333333  0.0006336  )
         3           O   tau(   3) = (  0.2222222  0.1666667  0.8796764  )
         4           O   tau(   4) = (  0.1111111  0.3333333  0.3796764  )
         5           Zn  tau(   5) = (  0.2222222  0.6666667  0.5006336  )
         6           Zn  tau(   6) = (  0.1111111  0.8333333  0.0006336  )
         7           O   tau(   7) = (  0.2222222  0.6666667  0.8796764  )
         8           O   tau(   8) = (  0.1111111  0.8333333  0.3796764  )
         9           Zn  tau(   9) = (  0.5555556  0.1666667  0.5006336  )
        10           Zn  tau(  10) = (  0.4444444  0.3333333  0.0006336  )
        11           O   tau(  11) = (  0.5555556  0.1666667  0.8796764  )
        12           O   tau(  12) = (  0.4444444  0.3333333  0.3796764  )
        13           Zn  tau(  13) = (  0.5555556  0.6666667  0.5006336  )
        14           Zn  tau(  14) = (  0.4444444  0.8333333  0.0006336  )
        15           O   tau(  15) = (  0.5555556  0.6666667  0.8796764  )
        16           O   tau(  16) = (  0.4444444  0.8333333  0.3796764  )
        17           Zn  tau(  17) = (  0.8888889  0.1666667  0.5006336  )
        18           Zn  tau(  18) = (  0.7777778  0.3333333  0.0006336  )
        19           O   tau(  19) = (  0.8888889  0.1666667  0.8796764  )
        20           O   tau(  20) = (  0.7777778  0.3333333  0.3796764  )
        21           Zn  tau(  21) = (  0.8888889  0.6666667  0.5006336  )
        22           Zn  tau(  22) = (  0.7777778  0.8333333  0.0006336  )
        23           O   tau(  23) = (  0.8888889  0.6666667  0.8796764  )
        24           O   tau(  24) = (  0.7777778  0.8333333  0.3796764  )

     number of k points=   112
                       cart. coord. in units 2pi/alat
        k(    1) = (   0.0000000   0.0000000   0.0000000), wk =   0.0092593
        k(    2) = (   0.0000000   0.0000000   0.2978082), wk =   0.0185185
        k(    3) = (   0.0000000   0.0000000   0.5956165), wk =   0.0185185
        k(    4) = (   0.0000000   0.0000000  -0.8934247), wk =   0.0092593
        k(    5) = (   0.0000000   0.2886751   0.0000000), wk =   0.0185185
        k(    6) = (   0.0000000   0.2886751   0.2978082), wk =   0.0185185
        k(    7) = (   0.0000000   0.2886751   0.5956165), wk =   0.0185185
        k(    8) = (   0.0000000   0.2886751  -0.8934247), wk =   0.0185185
        k(    9) = (   0.0000000   0.5773503   0.0000000), wk =   0.0185185
        k(   10) = (   0.0000000   0.5773503   0.2978082), wk =   0.0185185
        k(   11) = (   0.0000000   0.5773503   0.5956165), wk =   0.0185185
        k(   12) = (   0.0000000   0.5773503  -0.8934247), wk =   0.0185185
        k(   13) = (   0.0000000  -0.8660254   0.0000000), wk =   0.0092593
        k(   14) = (   0.0000000  -0.8660254   0.2978082), wk =   0.0185185
        k(   15) = (   0.0000000  -0.8660254   0.5956165), wk =   0.0185185
        k(   16) = (   0.0000000  -0.8660254  -0.8934247), wk =   0.0092593
        k(   17) = (   0.1666667   0.0962250   0.0000000), wk =   0.0185185
        k(   18) = (   0.1666667   0.0962250   0.2978082), wk =   0.0185185
        k(   19) = (   0.1666667   0.0962250   0.5956165), wk =   0.0185185
        k(   20) = (   0.1666667   0.0962250  -0.8934247), wk =   0.0185185
        k(   21) = (   0.1666667   0.3849002   0.0000000), wk =   0.0185185
        k(   22) = (   0.1666667   0.3849002   0.2978082), wk =   0.0185185
        k(   23) = (   0.1666667   0.3849002   0.5956165), wk =   0.0185185
        k(   24) = (   0.1666667   0.3849002  -0.8934247), wk =   0.0185185
        k(   25) = (   0.1666667   0.6735753   0.0000000), wk =   0.0185185
        k(   26) = (   0.1666667   0.6735753   0.2978082), wk =   0.0185185
        k(   27) = (   0.1666667   0.6735753   0.5956165), wk =   0.0185185
        k(   28) = (   0.1666667   0.6735753  -0.8934247), wk =   0.0185185
        k(   29) = (   0.1666667  -0.7698004   0.0000000), wk =   0.0185185
        k(   30) = (   0.1666667  -0.7698004   0.2978082), wk =   0.0185185
        k(   31) = (   0.1666667  -0.7698004   0.5956165), wk =   0.0185185
        k(   32) = (   0.1666667  -0.7698004  -0.8934247), wk =   0.0185185
        k(   33) = (   0.1666667  -0.4811252   0.0000000), wk =   0.0185185
        k(   34) = (   0.1666667  -0.4811252   0.2978082), wk =   0.0185185
        k(   35) = (   0.1666667  -0.4811252   0.5956165), wk =   0.0185185
        k(   36) = (   0.1666667  -0.4811252  -0.8934247), wk =   0.0185185
        k(   37) = (   0.1666667  -0.1924501   0.0000000), wk =   0.0185185
        k(   38) = (   0.1666667  -0.1924501   0.2978082), wk =   0.0185185
        k(   39) = (   0.1666667  -0.1924501   0.5956165), wk =   0.0185185
        k(   40) = (   0.1666667  -0.1924501  -0.8934247), wk =   0.0185185
        k(   41) = (   0.3333333   0.1924501   0.0000000), wk =   0.0185185
        k(   42) = (   0.3333333   0.1924501   0.2978082), wk =   0.0185185
        k(   43) = (   0.3333333   0.1924501   0.5956165), wk =   0.0185185
        k(   44) = (   0.3333333   0.1924501  -0.8934247), wk =   0.0185185
        k(   45) = (   0.3333333   0.4811252   0.0000000), wk =   0.0185185
[...]
     atom   10 type  1   force =    -0.00000695   -0.00000491    0.09023621
     atom   11 type  2   force =    -0.00000879   -0.00000577    0.10861381
     atom   12 type  2   force =     0.00000934    0.00000619    0.10861435
     atom   13 type  1   force =     0.00000776    0.00000409    0.09023557
     atom   14 type  1   force =    -0.00000795   -0.00000423    0.09023624
     atom   15 type  2   force =    -0.00000930   -0.00000516    0.10861373
     atom   16 type  2   force =     0.00000958    0.00000535    0.10861450
     atom   17 type  1   force =     0.00000838    0.00000397    0.09023581
     atom   18 type  1   force =    -0.00000785   -0.00000393    0.09023620
     atom   19 type  2   force =    -0.00000984   -0.00000599    0.10861392
     atom   20 type  2   force =     0.00000997    0.00000526    0.10861434
     atom   21 type  1   force =     0.00000705    0.00000509    0.09023564
     atom   22 type  1   force =    -0.00000628   -0.00000465    0.09023650
     atom   23 type  2   force =    -0.00000944   -0.00000604    0.10861393
     atom   24 type  2   force =     0.00000878    0.00000605    0.10861436
     The ionic contribution  to forces
     atom    1 type  1   force =     0.00000001    0.00000001    0.72880784
     atom    2 type  1   force =     0.00000001    0.00000001    0.72880783
     atom    3 type  2   force =     0.00000000    0.00000001   -0.72880784
     atom    4 type  2   force =     0.00000000    0.00000001   -0.72880783
     atom    5 type  1   force =     0.00000001   -0.00000001    0.72880784
     atom    6 type  1   force =     0.00000000    0.00000000    0.72880784
     atom    7 type  2   force =     0.00000001   -0.00000001   -0.72880784
     atom    8 type  2   force =     0.00000000    0.00000000   -0.72880784
     atom    9 type  1   force =    -0.00000001    0.00000001    0.72880783
     atom   10 type  1   force =     0.00000001    0.00000000    0.72880783
     atom   11 type  2   force =    -0.00000001    0.00000001   -0.72880783
     atom   12 type  2   force =     0.00000001    0.00000000   -0.72880783
     atom   13 type  1   force =    -0.00000001   -0.00000001    0.72880783
     atom   14 type  1   force =     0.00000001   -0.00000000    0.72880784
     atom   15 type  2   force =    -0.00000000   -0.00000000   -0.72880783
     atom   16 type  2   force =     0.00000000   -0.00000000   -0.72880784
     atom   17 type  1   force =    -0.00000001    0.00000001    0.72880784
     atom   18 type  1   force =    -0.00000001    0.00000000    0.72880783
     atom   19 type  2   force =    -0.00000000    0.00000000   -0.72880784
     atom   20 type  2   force =    -0.00000000    0.00000000   -0.72880783
     atom   21 type  1   force =    -0.00000000   -0.00000002    0.72880784
     atom   22 type  1   force =    -0.00000001   -0.00000001    0.72880784
     atom   23 type  2   force =    -0.00000000   -0.00000001   -0.72880784
     atom   24 type  2   force =    -0.00000001   -0.00000000   -0.72880784
     The local contribution  to forces
     atom    1 type  1   force =    -0.00000681   -0.00000339   -0.81786800
     atom    2 type  1   force =     0.00000633    0.00000519   -0.81786846
     atom    3 type  2   force =     0.00000839    0.00000530    0.62521331
     atom    4 type  2   force =    -0.00000843   -0.00000450    0.62521323
     atom    5 type  1   force =    -0.00000727   -0.00000528   -0.81786852
     atom    6 type  1   force =     0.00000788    0.00000338   -0.81786826
     atom    7 type  2   force =     0.00000787    0.00000490    0.62521323
     atom    8 type  2   force =    -0.00000820   -0.00000543    0.62521296
     atom    9 type  1   force =    -0.00000576   -0.00000485   -0.81786746
     atom   10 type  1   force =     0.00000717    0.00000506   -0.81786884
     atom   11 type  2   force =     0.00000906    0.00000516    0.62521233
     atom   12 type  2   force =    -0.00000932   -0.00000510    0.62521363
     atom   13 type  1   force =    -0.00000804   -0.00000347   -0.81786768
     atom   14 type  1   force =     0.00000854    0.00000448   -0.81786867
     atom   15 type  2   force =     0.00000888    0.00000539    0.62521326
     atom   16 type  2   force =    -0.00000831   -0.00000500    0.62521384
     atom   17 type  1   force =    -0.00000965   -0.00000382   -0.81786799
     atom   18 type  1   force =     0.00000887    0.00000346   -0.81786900
     atom   19 type  2   force =     0.00000782    0.00000573    0.62521361
     atom   20 type  2   force =    -0.00000817   -0.00000564    0.62521389
     atom   21 type  1   force =    -0.00000712   -0.00000604   -0.81786749
     atom   22 type  1   force =     0.00000567    0.00000526   -0.81786924
     atom   23 type  2   force =     0.00000873    0.00000458    0.62521307
     atom   24 type  2   force =    -0.00000949   -0.00000525    0.62521325
     The core correction contribution to forces
     atom    1 type  1   force =    -0.00000065   -0.00000049   -0.00518758
     atom    2 type  1   force =     0.00000070    0.00000040   -0.00518758
     atom    3 type  2   force =     0.00000010    0.00000006   -0.00100958
     atom    4 type  2   force =    -0.00000009   -0.00000007   -0.00100959
     atom    5 type  1   force =    -0.00000065   -0.00000046   -0.00518759
     atom    6 type  1   force =     0.00000071    0.00000041   -0.00518756
     atom    7 type  2   force =     0.00000009    0.00000006   -0.00100958
     atom    8 type  2   force =    -0.00000010   -0.00000005   -0.00100959
     atom    9 type  1   force =    -0.00000057   -0.00000052   -0.00518759
     atom   10 type  1   force =     0.00000059    0.00000053   -0.00518761
     atom   11 type  2   force =     0.00000010    0.00000009   -0.00100958
     atom   12 type  2   force =    -0.00000011   -0.00000010   -0.00100959
     atom   13 type  1   force =    -0.00000059   -0.00000049   -0.00518757
     atom   14 type  1   force =     0.00000061    0.00000052   -0.00518758
     atom   15 type  2   force =     0.00000011    0.00000008   -0.00100958
     atom   16 type  2   force =    -0.00000011   -0.00000009   -0.00100959
     atom   17 type  1   force =    -0.00000072   -0.00000042   -0.00518757
     atom   18 type  1   force =     0.00000065    0.00000046   -0.00518757
     atom   19 type  2   force =     0.00000010    0.00000007   -0.00100959
     atom   20 type  2   force =    -0.00000011   -0.00000005   -0.00100958
     atom   21 type  1   force =    -0.00000071   -0.00000040   -0.00518758
     atom   22 type  1   force =     0.00000062    0.00000046   -0.00518759
     atom   23 type  2   force =     0.00000010    0.00000007   -0.00100959
     atom   24 type  2   force =    -0.00000009   -0.00000006   -0.00100958
     The Hubbard contrib.    to forces
     atom    1 type  1   force =     0.00000000    0.00000000    0.00000000
     atom    2 type  1   force =     0.00000000    0.00000000    0.00000000
     atom    3 type  2   force =     0.00000000    0.00000000    0.00000000
     atom    4 type  2   force =     0.00000000    0.00000000    0.00000000
     atom    5 type  1   force =     0.00000000    0.00000000    0.00000000
     atom    6 type  1   force =     0.00000000    0.00000000    0.00000000
     atom    7 type  2   force =     0.00000000    0.00000000    0.00000000
     atom    8 type  2   force =     0.00000000    0.00000000    0.00000000
     atom    9 type  1   force =     0.00000000    0.00000000    0.00000000
     atom   10 type  1   force =     0.00000000    0.00000000    0.00000000
     atom   11 type  2   force =     0.00000000    0.00000000    0.00000000
     atom   12 type  2   force =     0.00000000    0.00000000    0.00000000
     atom   13 type  1   force =     0.00000000    0.00000000    0.00000000
     atom   14 type  1   force =     0.00000000    0.00000000    0.00000000
     atom   15 type  2   force =     0.00000000    0.00000000    0.00000000
     atom   16 type  2   force =     0.00000000    0.00000000    0.00000000
     atom   17 type  1   force =     0.00000000    0.00000000    0.00000000
     atom   18 type  1   force =     0.00000000    0.00000000    0.00000000
     atom   19 type  2   force =     0.00000000    0.00000000    0.00000000
     atom   20 type  2   force =     0.00000000    0.00000000    0.00000000
     atom   21 type  1   force =     0.00000000    0.00000000    0.00000000
     atom   22 type  1   force =     0.00000000    0.00000000    0.00000000
     atom   23 type  2   force =     0.00000000    0.00000000    0.00000000
     atom   24 type  2   force =     0.00000000    0.00000000    0.00000000
     The SCF correction term to forces
     atom    1 type  1   force =    -0.00000073   -0.00000069    0.00000155
     atom    2 type  1   force =     0.00000240   -0.00000051    0.00000167
     atom    3 type  2   force =     0.00000036   -0.00000018    0.00000056
     atom    4 type  2   force =     0.00000014   -0.00000120    0.00000050
     atom    5 type  1   force =    -0.00000035    0.00000070    0.00000224
     atom    6 type  1   force =    -0.00000029    0.00000144    0.00000086
     atom    7 type  2   force =     0.00000074    0.00000056    0.00000062
     atom    8 type  2   force =    -0.00000077    0.00000060    0.00000072
     atom    9 type  1   force =    -0.00000302    0.00000083    0.00000013
     atom   10 type  1   force =    -0.00000040   -0.00000076    0.00000289
     atom   11 type  2   force =    -0.00000092    0.00000004    0.00000169
     atom   12 type  2   force =     0.00000067   -0.00000040   -0.00000013
     atom   13 type  1   force =     0.00000045   -0.00000193    0.00000054
     atom   14 type  1   force =    -0.00000141   -0.00000070    0.00000152
     atom   15 type  2   force =    -0.00000038   -0.00000070    0.00000073
     atom   16 type  2   force =    -0.00000057   -0.00000006   -0.00000040
     atom   17 type  1   force =     0.00000309   -0.00000053    0.00000096
     atom   18 type  1   force =    -0.00000242    0.00000146    0.00000228
     atom   19 type  2   force =     0.00000125   -0.00000034    0.00000014
     atom   20 type  2   force =    -0.00000089    0.00000080   -0.00000040
     atom   21 type  1   force =     0.00000019    0.00000202    0.00000072
     atom   22 type  1   force =     0.00000231   -0.00000115    0.00000279
     atom   23 type  2   force =     0.00000000    0.00000094    0.00000075
     atom   24 type  2   force =     0.00000127   -0.00000029    0.00000030

     Total force =     0.019647     Total SCF correction =     0.000010

     General routines

     Parallel routines

   This run was terminated on:  19:42: 6   3Sep2025

   JOB DONE.
Note: The following floating-point exceptions are signalling: IEEE_UNDERFLOW_FLAG IEEE_DENORMAL
Note: The following floating-point exceptions are signalling: IEEE_UNDERFLOW_FLAG IEEE_DENORMAL
Note: The following floating-point exceptions are signalling: IEEE_UNDERFLOW_FLAG IEEE_DENORMAL
Note: The following floating-point exceptions are signalling: IEEE_UNDERFLOW_FLAG IEEE_DENORMAL
Note: The following floating-point exceptions are signalling: IEEE_UNDERFLOW_FLAG IEEE_DENORMAL
Note: The following floating-point exceptions are signalling: IEEE_UNDERFLOW_FLAG IEEE_DENORMAL
Note: The following floating-point exceptions are signalling: IEEE_UNDERFLOW_FLAG IEEE_DENORMAL
Note: The following floating-point exceptions are signalling: IEEE_UNDERFLOW_FLAG IEEE_DENORMAL
Note: The following floating-point exceptions are signalling: IEEE_UNDERFLOW_FLAG IEEE_DENORMAL
Note: The following floating-point exceptions are signalling: IEEE_UNDERFLOW_FLAG IEEE_DENORMAL
Note: The following floating-point exceptions are signalling: IEEE_UNDERFLOW_FLAG IEEE_DENORMAL
Note: The following floating-point exceptions are signalling: IEEE_UNDERFLOW_FLAG IEEE_DENORMAL
Note: The following floating-point exceptions are signalling: IEEE_UNDERFLOW_FLAG IEEE_DENORMAL
Note: The following floating-point exceptions are signalling: IEEE_UNDERFLOW_FLAG IEEE_DENORMAL
Note: The following floating-point exceptions are signalling: IEEE_UNDERFLOW_FLAG IEEE_DENORMAL
Note: The following floating-point exceptions are signalling: IEEE_UNDERFLOW_FLAG IEEE_DENORMAL
Note: The following floating-point exceptions are signalling: IEEE_UNDERFLOW_FLAG IEEE_DENORMAL
Note: The following floating-point exceptions are signalling: IEEE_UNDERFLOW_FLAG IEEE_DENORMAL
Note: The following floating-point exceptions are signalling: IEEE_UNDERFLOW_FLAG IEEE_DENORMAL
Note: The following floating-point exceptions are signalling: IEEE_UNDERFLOW_FLAG IEEE_DENORMAL
Note: The following floating-point exceptions are signalling: IEEE_UNDERFLOW_FLAG IEEE_DENORMAL
Note: The following floating-point exceptions are signalling: IEEE_UNDERFLOW_FLAG IEEE_DENORMAL
Note: The following floating-point exceptions are signalling: IEEE_UNDERFLOW_FLAG IEEE_DENORMAL
Note: The following floating-point exceptions are signalling: IEEE_UNDERFLOW_FLAG IEEE_DENORMAL
Note: The following floating-point exceptions are signalling: IEEE_UNDERFLOW_FLAG IEEE_DENORMAL
Note: The following floating-point exceptions are signalling: IEEE_UNDERFLOW_FLAG IEEE_DENORMAL
Note: The following floating-point exceptions are signalling: IEEE_UNDERFLOW_FLAG IEEE_DENORMAL
Note: The following floating-point exceptions are signalling: IEEE_UNDERFLOW_FLAG IEEE_DENORMAL
Note: The following floating-point exceptions are signalling: IEEE_UNDERFLOW_FLAG IEEE_DENORMAL
Note: The following floating-point exceptions are signalling: IEEE_UNDERFLOW_FLAG IEEE_DENORMAL
Note: The following floating-point exceptions are signalling: IEEE_UNDERFLOW_FLAG IEEE_DENORMAL
Note: The following floating-point exceptions are signalling: IEEE_UNDERFLOW_FLAG IEEE_DENORMAL
Note: The following floating-point exceptions are signalling: IEEE_UNDERFLOW_FLAG IEEE_DENORMAL
Note: The following floating-point exceptions are signalling: IEEE_UNDERFLOW_FLAG IEEE_DENORMAL
Note: The following floating-point exceptions are signalling: IEEE_UNDERFLOW_FLAG IEEE_DENORMAL
Note: The following floating-point exceptions are signalling: IEEE_UNDERFLOW_FLAG IEEE_DENORMAL
Note: The following floating-point exceptions are signalling: IEEE_UNDERFLOW_FLAG IEEE_DENORMAL
Note: The following floating-point exceptions are signalling: IEEE_UNDERFLOW_FLAG IEEE_DENORMAL
Note: The following floating-point exceptions are signalling: IEEE_UNDERFLOW_FLAG IEEE_DENORMAL
Note: The following floating-point exceptions are signalling: IEEE_UNDERFLOW_FLAG IEEE_DENORMAL
Note: The following floating-point exceptions are signalling: IEEE_UNDERFLOW_FLAG IEEE_DENORMAL
Note: The following floating-point exceptions are signalling: IEEE_UNDERFLOW_FLAG IEEE_DENORMAL
Note: The following floating-point exceptions are signalling: IEEE_UNDERFLOW_FLAG IEEE_DENORMAL
Note: The following floating-point exceptions are signalling: IEEE_UNDERFLOW_FLAG IEEE_DENORMAL
Note: The following floating-point exceptions are signalling: IEEE_UNDERFLOW_FLAG IEEE_DENORMAL
Note: The following floating-point exceptions are signalling: IEEE_UNDERFLOW_FLAG IEEE_DENORMAL
Note: The following floating-point exceptions are signalling: IEEE_UNDERFLOW_FLAG IEEE_DENORMAL
Note: The following floating-point exceptions are signalling: IEEE_UNDERFLOW_FLAG IEEE_DENORMAL
Note: The following floating-point exceptions are signalling: IEEE_UNDERFLOW_FLAG IEEE_DENORMAL
Note: The following floating-point exceptions are signalling: IEEE_UNDERFLOW_FLAG IEEE_DENORMAL
Note: The following floating-point exceptions are signalling: IEEE_UNDERFLOW_FLAG IEEE_DENORMAL
Note: The following floating-point exceptions are signalling: IEEE_UNDERFLOW_FLAG IEEE_DENORMAL
Note: The following floating-point exceptions are signalling: IEEE_UNDERFLOW_FLAG IEEE_DENORMAL
Note: The following floating-point exceptions are signalling: IEEE_UNDERFLOW_FLAG IEEE_DENORMAL
Note: The following floating-point exceptions are signalling: IEEE_UNDERFLOW_FLAG IEEE_DENORMAL
Note: The following floating-point exceptions are signalling: IEEE_UNDERFLOW_FLAG IEEE_DENORMAL
Note: The following floating-point exceptions are signalling: IEEE_UNDERFLOW_FLAG IEEE_DENORMAL
Note: The following floating-point exceptions are signalling: IEEE_UNDERFLOW_FLAG IEEE_DENORMAL
Note: The following floating-point exceptions are signalling: IEEE_UNDERFLOW_FLAG IEEE_DENORMAL
Note: The following floating-point exceptions are signalling: IEEE_UNDERFLOW_FLAG IEEE_DENORMAL
Note: The following floating-point exceptions are signalling: IEEE_UNDERFLOW_FLAG IEEE_DENORMAL
Note: The following floating-point exceptions are signalling: IEEE_UNDERFLOW_FLAG IEEE_DENORMAL
Note: The following floating-point exceptions are signalling: IEEE_UNDERFLOW_FLAG IEEE_DENORMAL
Note: The following floating-point exceptions are signalling: IEEE_UNDERFLOW_FLAG IEEE_DENORMAL