     Program PWSCF v.7.0 starts on  2Sep2025 at 20:13:51

     K-points division:     npool     =      16
     R & G space division:  proc/nbgrp/npool/nimage =       4

     Reading input from /home/jvc/QEspresso7.2/ZnO_database/scripts/cell321.in/ZnO-3.27-1.71-321.in
Warning: card &CELL ignored
Warning: card / ignored
Warning: card &FCP ignored
Warning: card / ignored
Warning: card &RISM ignored
Warning: card / ignored

     Current dimensions of program PWSCF are:
     Max number of different atomic species (ntypx) = 10
     Max number of k-points (npk) =  40000
     Max angular momentum in pseudopotentials (lmaxx) =  4
     file Zn.upf: wavefunction(s)  3D renormalized
     Found identity + ( -0.0000  0.5000  0.0000) symmetry
     This is a supercell, fractional translations are disabled

     Using Slab Decomposition

     bravais-lattice index     =            0
     lattice parameter (alat)  =      18.5366  a.u.
     unit-cell volume          =    2097.5460 (a.u.)^3
     number of atoms/cell      =           24
     number of atomic types    =            2
     number of electrons       =       216.00
     number of Kohn-Sham states=          108
     kinetic-energy cutoff     =      50.0000  Ry
     charge density cutoff     =     400.0000  Ry
     scf convergence threshold =      1.0E-08
     mixing beta               =       0.3000
     number of iterations used =            8  plain     mixing
     Exchange-correlation= PBE
                           (   1   4   3   4   0   0   0)

     celldm(1)=  18.536562  celldm(2)=   0.000000  celldm(3)=   0.000000
     celldm(4)=   0.000000  celldm(5)=   0.000000  celldm(6)=   0.000000

     crystal axes: (cart. coord. in units of alat)
               a(1) = (   1.000000   0.000000   0.000000 )
               a(2) = (  -0.333333   0.577350   0.000000 )
               a(3) = (   0.000000   0.000000   0.570407 )

     reciprocal axes: (cart. coord. in units 2 pi/alat)
               b(1) = (  1.000000  0.577350 -0.000000 )
               b(2) = (  0.000000  1.732051  0.000000 )
               b(3) = (  0.000000 -0.000000  1.753135 )

     PseudoPot. # 1 for Zn read from file:
     /home/jvc/QEspresso7.2/ZnO_database/pseudos/Zn.upf
     MD5 check sum: 7f56cabf9682ed8c977c2f7d0c5985c5
     Pseudo is Ultrasoft + core correction, Zval = 12.0
     Generated using &quot;atomic&quot; code by A. Dal Corso  v.6.2.2
     Using radial grid of 1201 points,  6 beta functions with:
                l(1) =   0
                l(2) =   0
                l(3) =   1
                l(4) =   1
                l(5) =   2
                l(6) =   2
     Q(r) pseudized with 0 coefficients

     PseudoPot. # 2 for O  read from file:
     /home/jvc/QEspresso7.2/ZnO_database/pseudos/O.upf
     MD5 check sum: 91400c9766925bcf19f520983a725ff0
     Pseudo is Ultrasoft + core correction, Zval =  6.0
     Generated using &quot;atomic&quot; code by A. Dal Corso  v.6.3MaX
     Using radial grid of 1095 points,  4 beta functions with:
                l(1) =   0
                l(2) =   0
                l(3) =   1
                l(4) =   1
     Q(r) pseudized with 0 coefficients

     atomic species   valence    mass     pseudopotential
        Zn            12.00    65.38000     Zn( 1.00)
        O              6.00    15.99900     O ( 1.00)

     No symmetry found

                                    s                        frac. trans.

      isym =  1     identity

 cryst.   s( 1) = (     1          0          0      )
                  (     0          1          0      )
                  (     0          0          1      )

 cart.    s( 1) = (  1.0000000 -0.0000000  0.0000000 )
                  (  0.0000000  1.0000000  0.0000000 )
                  (  0.0000000  0.0000000  1.0000000 )

   Cartesian axes

     site n.     atom                  positions (alat units)
         1           Zn  tau(   1) = (   0.1666667   0.0962250   0.2855647  )
         2           Zn  tau(   2) = (   0.0000000   0.1924501   0.0003614  )
         3           O   tau(   3) = (   0.1666667   0.0962250   0.5017732  )
         4           O   tau(   4) = (   0.0000000   0.1924501   0.2165699  )
         5           Zn  tau(   5) = (   0.0000000   0.3849002   0.2855647  )
         6           Zn  tau(   6) = (  -0.1666667   0.4811252   0.0003614  )
         7           O   tau(   7) = (   0.0000000   0.3849002   0.5017732  )
         8           O   tau(   8) = (  -0.1666667   0.4811252   0.2165699  )
         9           Zn  tau(   9) = (   0.5000000   0.0962250   0.2855647  )
        10           Zn  tau(  10) = (   0.3333333   0.1924501   0.0003614  )
        11           O   tau(  11) = (   0.5000000   0.0962250   0.5017732  )
        12           O   tau(  12) = (   0.3333333   0.1924501   0.2165699  )
        13           Zn  tau(  13) = (   0.3333333   0.3849002   0.2855647  )
        14           Zn  tau(  14) = (   0.1666667   0.4811252   0.0003614  )
        15           O   tau(  15) = (   0.3333333   0.3849002   0.5017732  )
        16           O   tau(  16) = (   0.1666667   0.4811252   0.2165699  )
        17           Zn  tau(  17) = (   0.8333333   0.0962250   0.2855647  )
        18           Zn  tau(  18) = (   0.6666667   0.1924501   0.0003614  )
        19           O   tau(  19) = (   0.8333333   0.0962250   0.5017732  )
        20           O   tau(  20) = (   0.6666667   0.1924501   0.2165699  )
        21           Zn  tau(  21) = (   0.6666667   0.3849002   0.2855647  )
        22           Zn  tau(  22) = (   0.5000000   0.4811252   0.0003614  )
        23           O   tau(  23) = (   0.6666667   0.3849002   0.5017732  )
        24           O   tau(  24) = (   0.5000000   0.4811252   0.2165699  )

   Crystallographic axes

     site n.     atom                  positions (cryst. coord.)
         1           Zn  tau(   1) = (  0.2222222  0.1666667  0.5006336  )
         2           Zn  tau(   2) = (  0.1111111  0.3333333  0.0006336  )
         3           O   tau(   3) = (  0.2222222  0.1666667  0.8796764  )
         4           O   tau(   4) = (  0.1111111  0.3333333  0.3796764  )
         5           Zn  tau(   5) = (  0.2222222  0.6666667  0.5006336  )
         6           Zn  tau(   6) = (  0.1111111  0.8333333  0.0006336  )
         7           O   tau(   7) = (  0.2222222  0.6666667  0.8796764  )
         8           O   tau(   8) = (  0.1111111  0.8333333  0.3796764  )
         9           Zn  tau(   9) = (  0.5555556  0.1666667  0.5006336  )
        10           Zn  tau(  10) = (  0.4444444  0.3333333  0.0006336  )
        11           O   tau(  11) = (  0.5555556  0.1666667  0.8796764  )
        12           O   tau(  12) = (  0.4444444  0.3333333  0.3796764  )
        13           Zn  tau(  13) = (  0.5555556  0.6666667  0.5006336  )
        14           Zn  tau(  14) = (  0.4444444  0.8333333  0.0006336  )
        15           O   tau(  15) = (  0.5555556  0.6666667  0.8796764  )
        16           O   tau(  16) = (  0.4444444  0.8333333  0.3796764  )
        17           Zn  tau(  17) = (  0.8888889  0.1666667  0.5006336  )
        18           Zn  tau(  18) = (  0.7777778  0.3333333  0.0006336  )
        19           O   tau(  19) = (  0.8888889  0.1666667  0.8796764  )
        20           O   tau(  20) = (  0.7777778  0.3333333  0.3796764  )
        21           Zn  tau(  21) = (  0.8888889  0.6666667  0.5006336  )
        22           Zn  tau(  22) = (  0.7777778  0.8333333  0.0006336  )
        23           O   tau(  23) = (  0.8888889  0.6666667  0.8796764  )
        24           O   tau(  24) = (  0.7777778  0.8333333  0.3796764  )

     number of k points=   112
                       cart. coord. in units 2pi/alat
        k(    1) = (   0.0000000   0.0000000   0.0000000), wk =   0.0092593
        k(    2) = (   0.0000000   0.0000000   0.2921892), wk =   0.0185185
        k(    3) = (   0.0000000   0.0000000   0.5843784), wk =   0.0185185
        k(    4) = (   0.0000000   0.0000000  -0.8765677), wk =   0.0092593
        k(    5) = (   0.0000000   0.2886751   0.0000000), wk =   0.0185185
        k(    6) = (   0.0000000   0.2886751   0.2921892), wk =   0.0185185
        k(    7) = (   0.0000000   0.2886751   0.5843784), wk =   0.0185185
        k(    8) = (   0.0000000   0.2886751  -0.8765677), wk =   0.0185185
        k(    9) = (   0.0000000   0.5773503   0.0000000), wk =   0.0185185
        k(   10) = (   0.0000000   0.5773503   0.2921892), wk =   0.0185185
        k(   11) = (   0.0000000   0.5773503   0.5843784), wk =   0.0185185
        k(   12) = (   0.0000000   0.5773503  -0.8765677), wk =   0.0185185
        k(   13) = (   0.0000000  -0.8660254   0.0000000), wk =   0.0092593
        k(   14) = (   0.0000000  -0.8660254   0.2921892), wk =   0.0185185
        k(   15) = (   0.0000000  -0.8660254   0.5843784), wk =   0.0185185
        k(   16) = (   0.0000000  -0.8660254  -0.8765677), wk =   0.0092593
        k(   17) = (   0.1666667   0.0962250   0.0000000), wk =   0.0185185
        k(   18) = (   0.1666667   0.0962250   0.2921892), wk =   0.0185185
        k(   19) = (   0.1666667   0.0962250   0.5843784), wk =   0.0185185
        k(   20) = (   0.1666667   0.0962250  -0.8765677), wk =   0.0185185
        k(   21) = (   0.1666667   0.3849002   0.0000000), wk =   0.0185185
        k(   22) = (   0.1666667   0.3849002   0.2921892), wk =   0.0185185
        k(   23) = (   0.1666667   0.3849002   0.5843784), wk =   0.0185185
        k(   24) = (   0.1666667   0.3849002  -0.8765677), wk =   0.0185185
        k(   25) = (   0.1666667   0.6735753   0.0000000), wk =   0.0185185
        k(   26) = (   0.1666667   0.6735753   0.2921892), wk =   0.0185185
        k(   27) = (   0.1666667   0.6735753   0.5843784), wk =   0.0185185
        k(   28) = (   0.1666667   0.6735753  -0.8765677), wk =   0.0185185
        k(   29) = (   0.1666667  -0.7698004   0.0000000), wk =   0.0185185
        k(   30) = (   0.1666667  -0.7698004   0.2921892), wk =   0.0185185
        k(   31) = (   0.1666667  -0.7698004   0.5843784), wk =   0.0185185
        k(   32) = (   0.1666667  -0.7698004  -0.8765677), wk =   0.0185185
        k(   33) = (   0.1666667  -0.4811252   0.0000000), wk =   0.0185185
        k(   34) = (   0.1666667  -0.4811252   0.2921892), wk =   0.0185185
        k(   35) = (   0.1666667  -0.4811252   0.5843784), wk =   0.0185185
        k(   36) = (   0.1666667  -0.4811252  -0.8765677), wk =   0.0185185
        k(   37) = (   0.1666667  -0.1924501   0.0000000), wk =   0.0185185
        k(   38) = (   0.1666667  -0.1924501   0.2921892), wk =   0.0185185
        k(   39) = (   0.1666667  -0.1924501   0.5843784), wk =   0.0185185
        k(   40) = (   0.1666667  -0.1924501  -0.8765677), wk =   0.0185185
        k(   41) = (   0.3333333   0.1924501   0.0000000), wk =   0.0185185
        k(   42) = (   0.3333333   0.1924501   0.2921892), wk =   0.0185185
        k(   43) = (   0.3333333   0.1924501   0.5843784), wk =   0.0185185
        k(   44) = (   0.3333333   0.1924501  -0.8765677), wk =   0.0185185
        k(   45) = (   0.3333333   0.4811252   0.0000000), wk =   0.0185185
[...]
     atom   10 type  1   force =    -0.00000161   -0.00000051    0.15272352
     atom   11 type  2   force =    -0.00000832   -0.00000235    0.15197304
     atom   12 type  2   force =     0.00000511    0.00000231    0.15197246
     atom   13 type  1   force =     0.00000299    0.00000380    0.15272759
     atom   14 type  1   force =    -0.00000121   -0.00000230    0.15272269
     atom   15 type  2   force =    -0.00000674   -0.00000652    0.15197298
     atom   16 type  2   force =     0.00000589    0.00000437    0.15197306
     atom   17 type  1   force =     0.00000234    0.00000110    0.15272668
     atom   18 type  1   force =    -0.00000344   -0.00000508    0.15272349
     atom   19 type  2   force =    -0.00000569   -0.00000299    0.15197297
     atom   20 type  2   force =     0.00000652    0.00000563    0.15197307
     atom   21 type  1   force =     0.00000258    0.00000222    0.15272743
     atom   22 type  1   force =    -0.00000524   -0.00000048    0.15272322
     atom   23 type  2   force =    -0.00000516   -0.00000365    0.15197256
     atom   24 type  2   force =     0.00000795    0.00000288    0.15197340
     The ionic contribution  to forces
     atom    1 type  1   force =     0.00000001    0.00000001    1.21906034
     atom    2 type  1   force =     0.00000001    0.00000000    1.21906034
     atom    3 type  2   force =     0.00000000    0.00000000   -1.21906034
     atom    4 type  2   force =     0.00000000    0.00000000   -1.21906034
     atom    5 type  1   force =     0.00000001    0.00000001    1.21906034
     atom    6 type  1   force =     0.00000001    0.00000000    1.21906034
     atom    7 type  2   force =     0.00000000    0.00000000   -1.21906034
     atom    8 type  2   force =     0.00000000    0.00000000   -1.21906034
     atom    9 type  1   force =    -0.00000001    0.00000000    1.21906033
     atom   10 type  1   force =     0.00000001   -0.00000000    1.21906033
     atom   11 type  2   force =    -0.00000001    0.00000000   -1.21906033
     atom   12 type  2   force =     0.00000001   -0.00000000   -1.21906033
     atom   13 type  1   force =    -0.00000001    0.00000000    1.21906033
     atom   14 type  1   force =     0.00000001   -0.00000000    1.21906033
     atom   15 type  2   force =    -0.00000001    0.00000000   -1.21906033
     atom   16 type  2   force =     0.00000001   -0.00000000   -1.21906033
     atom   17 type  1   force =    -0.00000001   -0.00000000    1.21906034
     atom   18 type  1   force =    -0.00000001   -0.00000001    1.21906034
     atom   19 type  2   force =    -0.00000000   -0.00000000   -1.21906034
     atom   20 type  2   force =    -0.00000000   -0.00000000   -1.21906034
     atom   21 type  1   force =    -0.00000001   -0.00000000    1.21906034
     atom   22 type  1   force =    -0.00000001   -0.00000001    1.21906034
     atom   23 type  2   force =    -0.00000000   -0.00000000   -1.21906034
     atom   24 type  2   force =    -0.00000000   -0.00000000   -1.21906034
     The local contribution  to forces
     atom    1 type  1   force =     0.00000050   -0.00000430   -1.35317822
     atom    2 type  1   force =     0.00000845    0.00000030   -1.35317095
     atom    3 type  2   force =     0.00000927    0.00000548    1.06015214
     atom    4 type  2   force =    -0.00000735   -0.00000354    1.06014802
     atom    5 type  1   force =    -0.00000594    0.00000111   -1.35318109
     atom    6 type  1   force =     0.00000208    0.00000654   -1.35316936
     atom    7 type  2   force =     0.00000583    0.00000302    1.06015101
     atom    8 type  2   force =    -0.00000665   -0.00000524    1.06014677
     atom    9 type  1   force =    -0.00000782   -0.00000091   -1.35318156
     atom   10 type  1   force =    -0.00000352   -0.00000366   -1.35316853
     atom   11 type  2   force =     0.00000528    0.00000491    1.06015207
     atom   12 type  2   force =    -0.00000723   -0.00000475    1.06014496
     atom   13 type  1   force =    -0.00000203   -0.00000607   -1.35318146
     atom   14 type  1   force =    -0.00000174    0.00000224   -1.35316633
     atom   15 type  2   force =     0.00000862    0.00000183    1.06015154
     atom   16 type  2   force =    -0.00000883   -0.00000394    1.06014840
     atom   17 type  1   force =    -0.00000109    0.00000078   -1.35317941
     atom   18 type  1   force =     0.00000274    0.00000924   -1.35316877
     atom   19 type  2   force =     0.00000747    0.00000780    1.06015018
     atom   20 type  2   force =    -0.00000612   -0.00000220    1.06014751
     atom   21 type  1   force =    -0.00000003   -0.00000167   -1.35318018
     atom   22 type  1   force =     0.00000738   -0.00000329   -1.35316789
     atom   23 type  2   force =     0.00000889    0.00000233    1.06015032
     atom   24 type  2   force =    -0.00000558   -0.00000615    1.06014814
     The core correction contribution to forces
     atom    1 type  1   force =    -0.00000049   -0.00000024   -0.01039488
     atom    2 type  1   force =     0.00000024    0.00000039   -0.01039484
     atom    3 type  2   force =     0.00000007    0.00000006   -0.00127555
     atom    4 type  2   force =    -0.00000010   -0.00000003   -0.00127557
     atom    5 type  1   force =    -0.00000040   -0.00000034   -0.01039467
     atom    6 type  1   force =     0.00000050    0.00000011   -0.01039488
     atom    7 type  2   force =     0.00000010    0.00000003   -0.00127557
     atom    8 type  2   force =    -0.00000007   -0.00000006   -0.00127557
     atom    9 type  1   force =    -0.00000042   -0.00000030   -0.01039470
     atom   10 type  1   force =     0.00000059    0.00000038   -0.01039488
     atom   11 type  2   force =     0.00000010    0.00000002   -0.00127556
     atom   12 type  2   force =    -0.00000006   -0.00000002   -0.00127557
     atom   13 type  1   force =    -0.00000041   -0.00000025   -0.01039469
     atom   14 type  1   force =     0.00000040    0.00000027   -0.01039492
     atom   15 type  2   force =     0.00000008    0.00000007   -0.00127556
     atom   16 type  2   force =    -0.00000007   -0.00000005   -0.00127557
     atom   17 type  1   force =    -0.00000040   -0.00000026   -0.01039468
     atom   18 type  1   force =     0.00000047    0.00000024   -0.01039491
     atom   19 type  2   force =     0.00000006    0.00000004   -0.00127557
     atom   20 type  2   force =    -0.00000007   -0.00000006   -0.00127557
     atom   21 type  1   force =    -0.00000048   -0.00000032   -0.01039475
     atom   22 type  1   force =     0.00000040    0.00000033   -0.01039489
     atom   23 type  2   force =     0.00000006    0.00000003   -0.00127556
     atom   24 type  2   force =    -0.00000009   -0.00000003   -0.00127557
     The Hubbard contrib.    to forces
     atom    1 type  1   force =     0.00000000    0.00000000    0.00000000
     atom    2 type  1   force =     0.00000000    0.00000000    0.00000000
     atom    3 type  2   force =     0.00000000    0.00000000    0.00000000
     atom    4 type  2   force =     0.00000000    0.00000000    0.00000000
     atom    5 type  1   force =     0.00000000    0.00000000    0.00000000
     atom    6 type  1   force =     0.00000000    0.00000000    0.00000000
     atom    7 type  2   force =     0.00000000    0.00000000    0.00000000
     atom    8 type  2   force =     0.00000000    0.00000000    0.00000000
     atom    9 type  1   force =     0.00000000    0.00000000    0.00000000
     atom   10 type  1   force =     0.00000000    0.00000000    0.00000000
     atom   11 type  2   force =     0.00000000    0.00000000    0.00000000
     atom   12 type  2   force =     0.00000000    0.00000000    0.00000000
     atom   13 type  1   force =     0.00000000    0.00000000    0.00000000
     atom   14 type  1   force =     0.00000000    0.00000000    0.00000000
     atom   15 type  2   force =     0.00000000    0.00000000    0.00000000
     atom   16 type  2   force =     0.00000000    0.00000000    0.00000000
     atom   17 type  1   force =     0.00000000    0.00000000    0.00000000
     atom   18 type  1   force =     0.00000000    0.00000000    0.00000000
     atom   19 type  2   force =     0.00000000    0.00000000    0.00000000
     atom   20 type  2   force =     0.00000000    0.00000000    0.00000000
     atom   21 type  1   force =     0.00000000    0.00000000    0.00000000
     atom   22 type  1   force =     0.00000000    0.00000000    0.00000000
     atom   23 type  2   force =     0.00000000    0.00000000    0.00000000
     atom   24 type  2   force =     0.00000000    0.00000000    0.00000000
     The SCF correction term to forces
     atom    1 type  1   force =    -0.00000538    0.00000271    0.00000394
     atom    2 type  1   force =    -0.00000574    0.00000054   -0.00000649
     atom    3 type  2   force =    -0.00000376   -0.00000117   -0.00000338
     atom    4 type  2   force =    -0.00000027    0.00000035    0.00000050
     atom    5 type  1   force =     0.00000440   -0.00000395    0.00000666
     atom    6 type  1   force =     0.00000127   -0.00000436   -0.00000987
     atom    7 type  2   force =     0.00000200    0.00000046   -0.00000287
     atom    8 type  2   force =     0.00000082    0.00000063    0.00000193
     atom    9 type  1   force =     0.00000595   -0.00000163    0.00000830
     atom   10 type  1   force =     0.00000861    0.00000722   -0.00001107
     atom   11 type  2   force =     0.00000256   -0.00000255   -0.00000375
     atom   12 type  2   force =     0.00000230    0.00000242    0.00000413
     atom   13 type  1   force =    -0.00000247    0.00000538    0.00000811
     atom   14 type  1   force =     0.00000682   -0.00000058   -0.00001171
     atom   15 type  2   force =    -0.00000238    0.00000434   -0.00000314
     atom   16 type  2   force =     0.00000325   -0.00000027   -0.00000014
     atom   17 type  1   force =    -0.00000255   -0.00000419    0.00000534
     atom   18 type  1   force =     0.00000028   -0.00000933   -0.00000866
     atom   19 type  2   force =    -0.00000203   -0.00000507   -0.00000163
     atom   20 type  2   force =    -0.00000013   -0.00000317    0.00000088
     atom   21 type  1   force =    -0.00000462    0.00000017    0.00000576
     atom   22 type  1   force =    -0.00000449    0.00000711   -0.00001021
     atom   23 type  2   force =    -0.00000401    0.00000135   -0.00000147
     atom   24 type  2   force =    -0.00000187    0.00000343   -0.00000008

     Total force =     0.040243     Total SCF correction =     0.000040

     General routines

     Parallel routines

   This run was terminated on:  20:46: 1   2Sep2025

   JOB DONE.
Note: The following floating-point exceptions are signalling: IEEE_UNDERFLOW_FLAG IEEE_DENORMAL
Note: The following floating-point exceptions are signalling: IEEE_UNDERFLOW_FLAG IEEE_DENORMAL
Note: The following floating-point exceptions are signalling: IEEE_UNDERFLOW_FLAG IEEE_DENORMAL
Note: The following floating-point exceptions are signalling: IEEE_UNDERFLOW_FLAG IEEE_DENORMAL
Note: The following floating-point exceptions are signalling: IEEE_UNDERFLOW_FLAG IEEE_DENORMAL
Note: The following floating-point exceptions are signalling: IEEE_UNDERFLOW_FLAG IEEE_DENORMAL
Note: The following floating-point exceptions are signalling: IEEE_UNDERFLOW_FLAG IEEE_DENORMAL
Note: The following floating-point exceptions are signalling: IEEE_UNDERFLOW_FLAG IEEE_DENORMAL
Note: The following floating-point exceptions are signalling: IEEE_UNDERFLOW_FLAG IEEE_DENORMAL
Note: The following floating-point exceptions are signalling: IEEE_UNDERFLOW_FLAG IEEE_DENORMAL
Note: The following floating-point exceptions are signalling: IEEE_UNDERFLOW_FLAG IEEE_DENORMAL
Note: The following floating-point exceptions are signalling: IEEE_UNDERFLOW_FLAG IEEE_DENORMAL
Note: The following floating-point exceptions are signalling: IEEE_UNDERFLOW_FLAG IEEE_DENORMAL
Note: The following floating-point exceptions are signalling: IEEE_UNDERFLOW_FLAG IEEE_DENORMAL
Note: The following floating-point exceptions are signalling: IEEE_UNDERFLOW_FLAG IEEE_DENORMAL
Note: The following floating-point exceptions are signalling: IEEE_UNDERFLOW_FLAG IEEE_DENORMAL
Note: The following floating-point exceptions are signalling: IEEE_UNDERFLOW_FLAG IEEE_DENORMAL
Note: The following floating-point exceptions are signalling: IEEE_UNDERFLOW_FLAG IEEE_DENORMAL
Note: The following floating-point exceptions are signalling: IEEE_UNDERFLOW_FLAG IEEE_DENORMAL
Note: The following floating-point exceptions are signalling: IEEE_UNDERFLOW_FLAG IEEE_DENORMAL
Note: The following floating-point exceptions are signalling: IEEE_UNDERFLOW_FLAG IEEE_DENORMAL
Note: The following floating-point exceptions are signalling: IEEE_UNDERFLOW_FLAG IEEE_DENORMAL
Note: The following floating-point exceptions are signalling: IEEE_UNDERFLOW_FLAG IEEE_DENORMAL
Note: The following floating-point exceptions are signalling: IEEE_UNDERFLOW_FLAG IEEE_DENORMAL
Note: The following floating-point exceptions are signalling: IEEE_UNDERFLOW_FLAG IEEE_DENORMAL
Note: The following floating-point exceptions are signalling: IEEE_UNDERFLOW_FLAG IEEE_DENORMAL
Note: The following floating-point exceptions are signalling: IEEE_UNDERFLOW_FLAG IEEE_DENORMAL
Note: The following floating-point exceptions are signalling: IEEE_UNDERFLOW_FLAG IEEE_DENORMAL
Note: The following floating-point exceptions are signalling: IEEE_UNDERFLOW_FLAG IEEE_DENORMAL
Note: The following floating-point exceptions are signalling: IEEE_UNDERFLOW_FLAG IEEE_DENORMAL
Note: The following floating-point exceptions are signalling: IEEE_UNDERFLOW_FLAG IEEE_DENORMAL
Note: The following floating-point exceptions are signalling: IEEE_UNDERFLOW_FLAG IEEE_DENORMAL
Note: The following floating-point exceptions are signalling: IEEE_UNDERFLOW_FLAG IEEE_DENORMAL
Note: The following floating-point exceptions are signalling: IEEE_UNDERFLOW_FLAG IEEE_DENORMAL
Note: The following floating-point exceptions are signalling: IEEE_UNDERFLOW_FLAG IEEE_DENORMAL
Note: The following floating-point exceptions are signalling: IEEE_UNDERFLOW_FLAG IEEE_DENORMAL
Note: The following floating-point exceptions are signalling: IEEE_UNDERFLOW_FLAG IEEE_DENORMAL
Note: The following floating-point exceptions are signalling: IEEE_UNDERFLOW_FLAG IEEE_DENORMAL
Note: The following floating-point exceptions are signalling: IEEE_UNDERFLOW_FLAG IEEE_DENORMAL
Note: The following floating-point exceptions are signalling: IEEE_UNDERFLOW_FLAG IEEE_DENORMAL
Note: The following floating-point exceptions are signalling: IEEE_UNDERFLOW_FLAG IEEE_DENORMAL
Note: The following floating-point exceptions are signalling: IEEE_UNDERFLOW_FLAG IEEE_DENORMAL
Note: The following floating-point exceptions are signalling: IEEE_UNDERFLOW_FLAG IEEE_DENORMAL
Note: The following floating-point exceptions are signalling: IEEE_UNDERFLOW_FLAG IEEE_DENORMAL
Note: The following floating-point exceptions are signalling: IEEE_UNDERFLOW_FLAG IEEE_DENORMAL
Note: The following floating-point exceptions are signalling: IEEE_UNDERFLOW_FLAG IEEE_DENORMAL
Note: The following floating-point exceptions are signalling: IEEE_UNDERFLOW_FLAG IEEE_DENORMAL
Note: The following floating-point exceptions are signalling: IEEE_UNDERFLOW_FLAG IEEE_DENORMAL
Note: The following floating-point exceptions are signalling: IEEE_UNDERFLOW_FLAG IEEE_DENORMAL
Note: The following floating-point exceptions are signalling: IEEE_UNDERFLOW_FLAG IEEE_DENORMAL
Note: The following floating-point exceptions are signalling: IEEE_UNDERFLOW_FLAG IEEE_DENORMAL
Note: The following floating-point exceptions are signalling: IEEE_UNDERFLOW_FLAG IEEE_DENORMAL
Note: The following floating-point exceptions are signalling: IEEE_UNDERFLOW_FLAG IEEE_DENORMAL
Note: The following floating-point exceptions are signalling: IEEE_UNDERFLOW_FLAG IEEE_DENORMAL
Note: The following floating-point exceptions are signalling: IEEE_UNDERFLOW_FLAG IEEE_DENORMAL
Note: The following floating-point exceptions are signalling: IEEE_UNDERFLOW_FLAG IEEE_DENORMAL
Note: The following floating-point exceptions are signalling: IEEE_UNDERFLOW_FLAG IEEE_DENORMAL
Note: The following floating-point exceptions are signalling: IEEE_UNDERFLOW_FLAG IEEE_DENORMAL
Note: The following floating-point exceptions are signalling: IEEE_UNDERFLOW_FLAG IEEE_DENORMAL
Note: The following floating-point exceptions are signalling: IEEE_UNDERFLOW_FLAG IEEE_DENORMAL
Note: The following floating-point exceptions are signalling: IEEE_UNDERFLOW_FLAG IEEE_DENORMAL
Note: The following floating-point exceptions are signalling: IEEE_UNDERFLOW_FLAG IEEE_DENORMAL
Note: The following floating-point exceptions are signalling: IEEE_UNDERFLOW_FLAG IEEE_DENORMAL
Note: The following floating-point exceptions are signalling: IEEE_UNDERFLOW_FLAG IEEE_DENORMAL