     Program PWSCF v.7.0 starts on  2Sep2025 at  7:44:49

     K-points division:     npool     =      16
     R & G space division:  proc/nbgrp/npool/nimage =       4

     Reading input from /home/jvc/QEspresso7.2/ZnO_database/scripts/cell321.in/ZnO-3.14-1.49-321.in
Warning: card &CELL ignored
Warning: card / ignored
Warning: card &FCP ignored
Warning: card / ignored
Warning: card &RISM ignored
Warning: card / ignored

     Current dimensions of program PWSCF are:
     Max number of different atomic species (ntypx) = 10
     Max number of k-points (npk) =  40000
     Max angular momentum in pseudopotentials (lmaxx) =  4
     file Zn.upf: wavefunction(s)  3D renormalized
     Found identity + ( -0.0000 -0.5000  0.0000) symmetry
     This is a supercell, fractional translations are disabled

     Using Slab Decomposition

     bravais-lattice index     =            0
     lattice parameter (alat)  =      17.7951  a.u.
     unit-cell volume          =    1610.6721 (a.u.)^3
     number of atoms/cell      =           24
     number of atomic types    =            2
     number of electrons       =       216.00
     number of Kohn-Sham states=          108
     kinetic-energy cutoff     =      50.0000  Ry
     charge density cutoff     =     400.0000  Ry
     scf convergence threshold =      1.0E-08
     mixing beta               =       0.3000
     number of iterations used =            8  plain     mixing
     Exchange-correlation= PBE
                           (   1   4   3   4   0   0   0)

     celldm(1)=  17.795099  celldm(2)=   0.000000  celldm(3)=   0.000000
     celldm(4)=   0.000000  celldm(5)=   0.000000  celldm(6)=   0.000000

     crystal axes: (cart. coord. in units of alat)
               a(1) = (   1.000000   0.000000   0.000000 )
               a(2) = (  -0.333333   0.577350   0.000000 )
               a(3) = (   0.000000   0.000000   0.495070 )

     reciprocal axes: (cart. coord. in units 2 pi/alat)
               b(1) = (  1.000000  0.577350 -0.000000 )
               b(2) = (  0.000000  1.732051  0.000000 )
               b(3) = (  0.000000 -0.000000  2.019917 )

     PseudoPot. # 1 for Zn read from file:
     /home/jvc/QEspresso7.2/ZnO_database/pseudos/Zn.upf
     MD5 check sum: 7f56cabf9682ed8c977c2f7d0c5985c5
     Pseudo is Ultrasoft + core correction, Zval = 12.0
     Generated using &quot;atomic&quot; code by A. Dal Corso  v.6.2.2
     Using radial grid of 1201 points,  6 beta functions with:
                l(1) =   0
                l(2) =   0
                l(3) =   1
                l(4) =   1
                l(5) =   2
                l(6) =   2
     Q(r) pseudized with 0 coefficients

     PseudoPot. # 2 for O  read from file:
     /home/jvc/QEspresso7.2/ZnO_database/pseudos/O.upf
     MD5 check sum: 91400c9766925bcf19f520983a725ff0
     Pseudo is Ultrasoft + core correction, Zval =  6.0
     Generated using &quot;atomic&quot; code by A. Dal Corso  v.6.3MaX
     Using radial grid of 1095 points,  4 beta functions with:
                l(1) =   0
                l(2) =   0
                l(3) =   1
                l(4) =   1
     Q(r) pseudized with 0 coefficients

     atomic species   valence    mass     pseudopotential
        Zn            12.00    65.38000     Zn( 1.00)
        O              6.00    15.99900     O ( 1.00)

     No symmetry found

                                    s                        frac. trans.

      isym =  1     identity

 cryst.   s( 1) = (     1          0          0      )
                  (     0          1          0      )
                  (     0          0          1      )

 cart.    s( 1) = (  1.0000000  0.0000000  0.0000000 )
                  (  0.0000000  1.0000000  0.0000000 )
                  (  0.0000000  0.0000000  1.0000000 )

   Cartesian axes

     site n.     atom                  positions (alat units)
         1           Zn  tau(   1) = (   0.1666667   0.0962250   0.2478486  )
         2           Zn  tau(   2) = (  -0.0000000   0.1924501   0.0003137  )
         3           O   tau(   3) = (   0.1666667   0.0962250   0.4355013  )
         4           O   tau(   4) = (  -0.0000000   0.1924501   0.1879664  )
         5           Zn  tau(   5) = (  -0.0000000   0.3849002   0.2478486  )
         6           Zn  tau(   6) = (  -0.1666667   0.4811252   0.0003137  )
         7           O   tau(   7) = (  -0.0000000   0.3849002   0.4355013  )
         8           O   tau(   8) = (  -0.1666667   0.4811252   0.1879664  )
         9           Zn  tau(   9) = (   0.5000000   0.0962250   0.2478486  )
        10           Zn  tau(  10) = (   0.3333333   0.1924501   0.0003137  )
        11           O   tau(  11) = (   0.5000000   0.0962250   0.4355013  )
        12           O   tau(  12) = (   0.3333333   0.1924501   0.1879664  )
        13           Zn  tau(  13) = (   0.3333333   0.3849002   0.2478486  )
        14           Zn  tau(  14) = (   0.1666667   0.4811252   0.0003137  )
        15           O   tau(  15) = (   0.3333333   0.3849002   0.4355013  )
        16           O   tau(  16) = (   0.1666667   0.4811252   0.1879664  )
        17           Zn  tau(  17) = (   0.8333333   0.0962250   0.2478486  )
        18           Zn  tau(  18) = (   0.6666667   0.1924501   0.0003137  )
        19           O   tau(  19) = (   0.8333333   0.0962250   0.4355013  )
        20           O   tau(  20) = (   0.6666667   0.1924501   0.1879664  )
        21           Zn  tau(  21) = (   0.6666667   0.3849002   0.2478486  )
        22           Zn  tau(  22) = (   0.5000000   0.4811252   0.0003137  )
        23           O   tau(  23) = (   0.6666667   0.3849002   0.4355013  )
        24           O   tau(  24) = (   0.5000000   0.4811252   0.1879664  )

   Crystallographic axes

     site n.     atom                  positions (cryst. coord.)
         1           Zn  tau(   1) = (  0.2222222  0.1666667  0.5006336  )
         2           Zn  tau(   2) = (  0.1111111  0.3333333  0.0006336  )
         3           O   tau(   3) = (  0.2222222  0.1666667  0.8796764  )
         4           O   tau(   4) = (  0.1111111  0.3333333  0.3796764  )
         5           Zn  tau(   5) = (  0.2222222  0.6666667  0.5006336  )
         6           Zn  tau(   6) = (  0.1111111  0.8333333  0.0006336  )
         7           O   tau(   7) = (  0.2222222  0.6666667  0.8796764  )
         8           O   tau(   8) = (  0.1111111  0.8333333  0.3796764  )
         9           Zn  tau(   9) = (  0.5555556  0.1666667  0.5006336  )
        10           Zn  tau(  10) = (  0.4444444  0.3333333  0.0006336  )
        11           O   tau(  11) = (  0.5555556  0.1666667  0.8796764  )
        12           O   tau(  12) = (  0.4444444  0.3333333  0.3796764  )
        13           Zn  tau(  13) = (  0.5555556  0.6666667  0.5006336  )
        14           Zn  tau(  14) = (  0.4444444  0.8333333  0.0006336  )
        15           O   tau(  15) = (  0.5555556  0.6666667  0.8796764  )
        16           O   tau(  16) = (  0.4444444  0.8333333  0.3796764  )
        17           Zn  tau(  17) = (  0.8888889  0.1666667  0.5006336  )
        18           Zn  tau(  18) = (  0.7777778  0.3333333  0.0006336  )
        19           O   tau(  19) = (  0.8888889  0.1666667  0.8796764  )
        20           O   tau(  20) = (  0.7777778  0.3333333  0.3796764  )
        21           Zn  tau(  21) = (  0.8888889  0.6666667  0.5006336  )
        22           Zn  tau(  22) = (  0.7777778  0.8333333  0.0006336  )
        23           O   tau(  23) = (  0.8888889  0.6666667  0.8796764  )
        24           O   tau(  24) = (  0.7777778  0.8333333  0.3796764  )

     number of k points=   112
                       cart. coord. in units 2pi/alat
        k(    1) = (   0.0000000   0.0000000   0.0000000), wk =   0.0092593
        k(    2) = (   0.0000000   0.0000000   0.3366528), wk =   0.0185185
        k(    3) = (   0.0000000   0.0000000   0.6733056), wk =   0.0185185
        k(    4) = (   0.0000000   0.0000000  -1.0099584), wk =   0.0092593
        k(    5) = (   0.0000000   0.2886751   0.0000000), wk =   0.0185185
        k(    6) = (   0.0000000   0.2886751   0.3366528), wk =   0.0185185
        k(    7) = (   0.0000000   0.2886751   0.6733056), wk =   0.0185185
        k(    8) = (   0.0000000   0.2886751  -1.0099584), wk =   0.0185185
        k(    9) = (   0.0000000   0.5773503   0.0000000), wk =   0.0185185
        k(   10) = (   0.0000000   0.5773503   0.3366528), wk =   0.0185185
        k(   11) = (   0.0000000   0.5773503   0.6733056), wk =   0.0185185
        k(   12) = (   0.0000000   0.5773503  -1.0099584), wk =   0.0185185
        k(   13) = (   0.0000000  -0.8660254   0.0000000), wk =   0.0092593
        k(   14) = (   0.0000000  -0.8660254   0.3366528), wk =   0.0185185
        k(   15) = (   0.0000000  -0.8660254   0.6733056), wk =   0.0185185
        k(   16) = (   0.0000000  -0.8660254  -1.0099584), wk =   0.0092593
        k(   17) = (   0.1666667   0.0962250   0.0000000), wk =   0.0185185
        k(   18) = (   0.1666667   0.0962250   0.3366528), wk =   0.0185185
        k(   19) = (   0.1666667   0.0962250   0.6733056), wk =   0.0185185
        k(   20) = (   0.1666667   0.0962250  -1.0099584), wk =   0.0185185
        k(   21) = (   0.1666667   0.3849002   0.0000000), wk =   0.0185185
        k(   22) = (   0.1666667   0.3849002   0.3366528), wk =   0.0185185
        k(   23) = (   0.1666667   0.3849002   0.6733056), wk =   0.0185185
        k(   24) = (   0.1666667   0.3849002  -1.0099584), wk =   0.0185185
        k(   25) = (   0.1666667   0.6735753   0.0000000), wk =   0.0185185
        k(   26) = (   0.1666667   0.6735753   0.3366528), wk =   0.0185185
        k(   27) = (   0.1666667   0.6735753   0.6733056), wk =   0.0185185
        k(   28) = (   0.1666667   0.6735753  -1.0099584), wk =   0.0185185
        k(   29) = (   0.1666667  -0.7698004   0.0000000), wk =   0.0185185
        k(   30) = (   0.1666667  -0.7698004   0.3366528), wk =   0.0185185
        k(   31) = (   0.1666667  -0.7698004   0.6733056), wk =   0.0185185
        k(   32) = (   0.1666667  -0.7698004  -1.0099584), wk =   0.0185185
        k(   33) = (   0.1666667  -0.4811252   0.0000000), wk =   0.0185185
        k(   34) = (   0.1666667  -0.4811252   0.3366528), wk =   0.0185185
        k(   35) = (   0.1666667  -0.4811252   0.6733056), wk =   0.0185185
        k(   36) = (   0.1666667  -0.4811252  -1.0099584), wk =   0.0185185
        k(   37) = (   0.1666667  -0.1924501   0.0000000), wk =   0.0185185
        k(   38) = (   0.1666667  -0.1924501   0.3366528), wk =   0.0185185
        k(   39) = (   0.1666667  -0.1924501   0.6733056), wk =   0.0185185
        k(   40) = (   0.1666667  -0.1924501  -1.0099584), wk =   0.0185185
        k(   41) = (   0.3333333   0.1924501   0.0000000), wk =   0.0185185
        k(   42) = (   0.3333333   0.1924501   0.3366528), wk =   0.0185185
        k(   43) = (   0.3333333   0.1924501   0.6733056), wk =   0.0185185
        k(   44) = (   0.3333333   0.1924501  -1.0099584), wk =   0.0185185
        k(   45) = (   0.3333333   0.4811252   0.0000000), wk =   0.0185185
[...]
     atom   10 type  1   force =     0.00000083    0.00000021   -0.27415437
     atom   11 type  2   force =    -0.00000299   -0.00000411   -0.16926180
     atom   12 type  2   force =     0.00000170    0.00000117   -0.16926161
     atom   13 type  1   force =     0.00000289   -0.00000012   -0.27415494
     atom   14 type  1   force =     0.00000018    0.00000018   -0.27415490
     atom   15 type  2   force =    -0.00000509   -0.00000086   -0.16926189
     atom   16 type  2   force =     0.00000105    0.00000104   -0.16926198
     atom   17 type  1   force =     0.00000069   -0.00000015   -0.27415465
     atom   18 type  1   force =    -0.00000130    0.00000057   -0.27415463
     atom   19 type  2   force =    -0.00000208   -0.00000049   -0.16926199
     atom   20 type  2   force =     0.00000260    0.00000050   -0.16926200
     atom   21 type  1   force =    -0.00000014    0.00000041   -0.27415478
     atom   22 type  1   force =     0.00000025   -0.00000122   -0.27415502
     atom   23 type  2   force =    -0.00000193   -0.00000189   -0.16926157
     atom   24 type  2   force =     0.00000183    0.00000218   -0.16926173
     The ionic contribution  to forces
     atom    1 type  1   force =     0.00000001    0.00000001   -1.89709916
     atom    2 type  1   force =     0.00000001    0.00000000   -1.89709917
     atom    3 type  2   force =     0.00000000    0.00000000    1.89709916
     atom    4 type  2   force =     0.00000001    0.00000000    1.89709917
     atom    5 type  1   force =     0.00000001    0.00000001   -1.89709916
     atom    6 type  1   force =     0.00000001    0.00000000   -1.89709917
     atom    7 type  2   force =     0.00000000    0.00000000    1.89709916
     atom    8 type  2   force =     0.00000001    0.00000000    1.89709917
     atom    9 type  1   force =    -0.00000001    0.00000000   -1.89709917
     atom   10 type  1   force =     0.00000001   -0.00000000   -1.89709917
     atom   11 type  2   force =    -0.00000001    0.00000000    1.89709917
     atom   12 type  2   force =     0.00000001   -0.00000000    1.89709917
     atom   13 type  1   force =    -0.00000001    0.00000000   -1.89709917
     atom   14 type  1   force =     0.00000001   -0.00000000   -1.89709917
     atom   15 type  2   force =    -0.00000001    0.00000000    1.89709917
     atom   16 type  2   force =     0.00000001   -0.00000000    1.89709917
     atom   17 type  1   force =    -0.00000001   -0.00000000   -1.89709917
     atom   18 type  1   force =    -0.00000001   -0.00000001   -1.89709916
     atom   19 type  2   force =    -0.00000001   -0.00000000    1.89709917
     atom   20 type  2   force =    -0.00000000   -0.00000000    1.89709916
     atom   21 type  1   force =    -0.00000001   -0.00000000   -1.89709917
     atom   22 type  1   force =    -0.00000001   -0.00000001   -1.89709916
     atom   23 type  2   force =    -0.00000001   -0.00000000    1.89709917
     atom   24 type  2   force =    -0.00000000   -0.00000000    1.89709916
     The local contribution  to forces
     atom    1 type  1   force =    -0.00000032    0.00000310    2.06268206
     atom    2 type  1   force =     0.00000141    0.00000366    2.06268836
     atom    3 type  2   force =     0.00000335    0.00000274   -1.64541748
     atom    4 type  2   force =    -0.00000140   -0.00000045   -1.64541809
     atom    5 type  1   force =     0.00000561   -0.00000050    2.06268132
     atom    6 type  1   force =     0.00000380   -0.00000019    2.06268547
     atom    7 type  2   force =     0.00000338    0.00000179   -1.64541795
     atom    8 type  2   force =    -0.00000086   -0.00000106   -1.64541799
     atom    9 type  1   force =    -0.00000185   -0.00000754    2.06268326
     atom   10 type  1   force =    -0.00000226   -0.00000060    2.06268395
     atom   11 type  2   force =     0.00000181    0.00000035   -1.64541760
     atom   12 type  2   force =    -0.00000357   -0.00000226   -1.64541785
     atom   13 type  1   force =    -0.00000739    0.00000167    2.06268394
     atom   14 type  1   force =    -0.00000148   -0.00000128    2.06268775
     atom   15 type  2   force =     0.00000078    0.00000121   -1.64541777
     atom   16 type  2   force =    -0.00000321   -0.00000200   -1.64541815
     atom   17 type  1   force =     0.00000134    0.00000208    2.06268319
     atom   18 type  1   force =     0.00000168   -0.00000150    2.06268465
     atom   19 type  2   force =     0.00000257    0.00000205   -1.64541727
     atom   20 type  2   force =    -0.00000188   -0.00000217   -1.64541794
     atom   21 type  1   force =     0.00000088   -0.00000066    2.06268392
     atom   22 type  1   force =    -0.00000151    0.00000151    2.06268495
     atom   23 type  2   force =     0.00000297    0.00000123   -1.64541742
     atom   24 type  2   force =    -0.00000325   -0.00000114   -1.64541799
     The core correction contribution to forces
     atom    1 type  1   force =     0.00000008   -0.00000027    0.02517291
     atom    2 type  1   force =     0.00000004   -0.00000017    0.02517262
     atom    3 type  2   force =     0.00000002   -0.00000002    0.00097456
     atom    4 type  2   force =    -0.00000001   -0.00000005    0.00097456
     atom    5 type  1   force =    -0.00000013    0.00000018    0.02517280
     atom    6 type  1   force =     0.00000001    0.00000025    0.02517283
     atom    7 type  2   force =    -0.00000002    0.00000003    0.00097456
     atom    8 type  2   force =    -0.00000004    0.00000001    0.00097456
     atom    9 type  1   force =    -0.00000004   -0.00000007    0.02517288
     atom   10 type  1   force =    -0.00000004   -0.00000018    0.02517274
     atom   11 type  2   force =     0.00000003    0.00000003    0.00097456
     atom   12 type  2   force =    -0.00000000   -0.00000003    0.00097456
     atom   13 type  1   force =     0.00000013    0.00000006    0.02517278
     atom   14 type  1   force =     0.00000004    0.00000022    0.02517268
     atom   15 type  2   force =     0.00000004    0.00000002    0.00097456
     atom   16 type  2   force =    -0.00000000    0.00000001    0.00097456
     atom   17 type  1   force =    -0.00000017   -0.00000028    0.02517287
     atom   18 type  1   force =     0.00000004   -0.00000012    0.02517275
     atom   19 type  2   force =     0.00000002   -0.00000002    0.00097456
     atom   20 type  2   force =    -0.00000001   -0.00000002    0.00097456
     atom   21 type  1   force =    -0.00000003    0.00000013    0.02517277
     atom   22 type  1   force =     0.00000008    0.00000023    0.02517285
     atom   23 type  2   force =     0.00000000    0.00000003    0.00097456
     atom   24 type  2   force =    -0.00000001   -0.00000000    0.00097456
     The Hubbard contrib.    to forces
     atom    1 type  1   force =     0.00000000    0.00000000    0.00000000
     atom    2 type  1   force =     0.00000000    0.00000000    0.00000000
     atom    3 type  2   force =     0.00000000    0.00000000    0.00000000
     atom    4 type  2   force =     0.00000000    0.00000000    0.00000000
     atom    5 type  1   force =     0.00000000    0.00000000    0.00000000
     atom    6 type  1   force =     0.00000000    0.00000000    0.00000000
     atom    7 type  2   force =     0.00000000    0.00000000    0.00000000
     atom    8 type  2   force =     0.00000000    0.00000000    0.00000000
     atom    9 type  1   force =     0.00000000    0.00000000    0.00000000
     atom   10 type  1   force =     0.00000000    0.00000000    0.00000000
     atom   11 type  2   force =     0.00000000    0.00000000    0.00000000
     atom   12 type  2   force =     0.00000000    0.00000000    0.00000000
     atom   13 type  1   force =     0.00000000    0.00000000    0.00000000
     atom   14 type  1   force =     0.00000000    0.00000000    0.00000000
     atom   15 type  2   force =     0.00000000    0.00000000    0.00000000
     atom   16 type  2   force =     0.00000000    0.00000000    0.00000000
     atom   17 type  1   force =     0.00000000    0.00000000    0.00000000
     atom   18 type  1   force =     0.00000000    0.00000000    0.00000000
     atom   19 type  2   force =     0.00000000    0.00000000    0.00000000
     atom   20 type  2   force =     0.00000000    0.00000000    0.00000000
     atom   21 type  1   force =     0.00000000    0.00000000    0.00000000
     atom   22 type  1   force =     0.00000000    0.00000000    0.00000000
     atom   23 type  2   force =     0.00000000    0.00000000    0.00000000
     atom   24 type  2   force =     0.00000000    0.00000000    0.00000000
     The SCF correction term to forces
     atom    1 type  1   force =     0.00000050   -0.00000389    0.00000267
     atom    2 type  1   force =    -0.00000167   -0.00000319   -0.00000458
     atom    3 type  2   force =    -0.00000090   -0.00000166    0.00000009
     atom    4 type  2   force =    -0.00000116   -0.00000207    0.00000080
     atom    5 type  1   force =    -0.00000721    0.00000028    0.00000404
     atom    6 type  1   force =    -0.00000361   -0.00000026   -0.00000107
     atom    7 type  2   force =    -0.00000269   -0.00000028    0.00000044
     atom    8 type  2   force =    -0.00000280   -0.00000046    0.00000060
     atom    9 type  1   force =     0.00000182    0.00000803    0.00000197
     atom   10 type  1   force =     0.00000316    0.00000123    0.00000046
     atom   11 type  2   force =     0.00000106    0.00000266    0.00000012
     atom   12 type  2   force =     0.00000153    0.00000102    0.00000032
     atom   13 type  1   force =     0.00000778   -0.00000221    0.00000132
     atom   14 type  1   force =     0.00000227    0.00000177   -0.00000401
     atom   15 type  2   force =     0.00000318   -0.00000004    0.00000031
     atom   16 type  2   force =     0.00000185    0.00000085    0.00000078
     atom   17 type  1   force =    -0.00000239   -0.00000279    0.00000203
     atom   18 type  1   force =    -0.00000114    0.00000158   -0.00000063
     atom   19 type  2   force =    -0.00000068   -0.00000119    0.00000004
     atom   20 type  2   force =    -0.00000024    0.00000132    0.00000063
     atom   21 type  1   force =    -0.00000080    0.00000081    0.00000096
     atom   22 type  1   force =     0.00000154   -0.00000090   -0.00000075
     atom   23 type  2   force =    -0.00000075    0.00000041   -0.00000027
     atom   24 type  2   force =     0.00000119   -0.00000065    0.00000040

     Total force =     0.408553     Total SCF correction =     0.000020

     General routines

     Parallel routines

   This run was terminated on:   8: 6:23   2Sep2025

   JOB DONE.
Note: The following floating-point exceptions are signalling: IEEE_UNDERFLOW_FLAG IEEE_DENORMAL
Note: The following floating-point exceptions are signalling: IEEE_UNDERFLOW_FLAG IEEE_DENORMAL
Note: The following floating-point exceptions are signalling: IEEE_UNDERFLOW_FLAG IEEE_DENORMAL
Note: The following floating-point exceptions are signalling: IEEE_UNDERFLOW_FLAG IEEE_DENORMAL
Note: The following floating-point exceptions are signalling: IEEE_UNDERFLOW_FLAG IEEE_DENORMAL
Note: The following floating-point exceptions are signalling: IEEE_UNDERFLOW_FLAG IEEE_DENORMAL
Note: The following floating-point exceptions are signalling: IEEE_UNDERFLOW_FLAG IEEE_DENORMAL
Note: The following floating-point exceptions are signalling: IEEE_UNDERFLOW_FLAG IEEE_DENORMAL
Note: The following floating-point exceptions are signalling: IEEE_UNDERFLOW_FLAG IEEE_DENORMAL
Note: The following floating-point exceptions are signalling: IEEE_UNDERFLOW_FLAG IEEE_DENORMAL
Note: The following floating-point exceptions are signalling: IEEE_UNDERFLOW_FLAG IEEE_DENORMAL
Note: The following floating-point exceptions are signalling: IEEE_UNDERFLOW_FLAG IEEE_DENORMAL
Note: The following floating-point exceptions are signalling: IEEE_UNDERFLOW_FLAG IEEE_DENORMAL
Note: The following floating-point exceptions are signalling: IEEE_UNDERFLOW_FLAG IEEE_DENORMAL
Note: The following floating-point exceptions are signalling: IEEE_UNDERFLOW_FLAG IEEE_DENORMAL
Note: The following floating-point exceptions are signalling: IEEE_UNDERFLOW_FLAG IEEE_DENORMAL
Note: The following floating-point exceptions are signalling: IEEE_UNDERFLOW_FLAG IEEE_DENORMAL
Note: The following floating-point exceptions are signalling: IEEE_UNDERFLOW_FLAG IEEE_DENORMAL
Note: The following floating-point exceptions are signalling: IEEE_UNDERFLOW_FLAG IEEE_DENORMAL
Note: The following floating-point exceptions are signalling: IEEE_UNDERFLOW_FLAG IEEE_DENORMAL
Note: The following floating-point exceptions are signalling: IEEE_UNDERFLOW_FLAG IEEE_DENORMAL
Note: The following floating-point exceptions are signalling: IEEE_UNDERFLOW_FLAG IEEE_DENORMAL
Note: The following floating-point exceptions are signalling: IEEE_UNDERFLOW_FLAG IEEE_DENORMAL
Note: The following floating-point exceptions are signalling: IEEE_UNDERFLOW_FLAG IEEE_DENORMAL
Note: The following floating-point exceptions are signalling: IEEE_UNDERFLOW_FLAG IEEE_DENORMAL
Note: The following floating-point exceptions are signalling: IEEE_UNDERFLOW_FLAG IEEE_DENORMAL
Note: The following floating-point exceptions are signalling: IEEE_UNDERFLOW_FLAG IEEE_DENORMAL
Note: The following floating-point exceptions are signalling: IEEE_UNDERFLOW_FLAG IEEE_DENORMAL
Note: The following floating-point exceptions are signalling: IEEE_UNDERFLOW_FLAG IEEE_DENORMAL
Note: The following floating-point exceptions are signalling: IEEE_UNDERFLOW_FLAG IEEE_DENORMAL
Note: The following floating-point exceptions are signalling: IEEE_UNDERFLOW_FLAG IEEE_DENORMAL
Note: The following floating-point exceptions are signalling: IEEE_UNDERFLOW_FLAG IEEE_DENORMAL
Note: The following floating-point exceptions are signalling: IEEE_UNDERFLOW_FLAG IEEE_DENORMAL
Note: The following floating-point exceptions are signalling: IEEE_UNDERFLOW_FLAG IEEE_DENORMAL
Note: The following floating-point exceptions are signalling: IEEE_UNDERFLOW_FLAG IEEE_DENORMAL
Note: The following floating-point exceptions are signalling: IEEE_UNDERFLOW_FLAG IEEE_DENORMAL
Note: The following floating-point exceptions are signalling: IEEE_UNDERFLOW_FLAG IEEE_DENORMAL
Note: The following floating-point exceptions are signalling: IEEE_UNDERFLOW_FLAG IEEE_DENORMAL
Note: The following floating-point exceptions are signalling: IEEE_UNDERFLOW_FLAG IEEE_DENORMAL
Note: The following floating-point exceptions are signalling: IEEE_UNDERFLOW_FLAG IEEE_DENORMAL
Note: The following floating-point exceptions are signalling: IEEE_UNDERFLOW_FLAG IEEE_DENORMAL
Note: The following floating-point exceptions are signalling: IEEE_UNDERFLOW_FLAG IEEE_DENORMAL
Note: The following floating-point exceptions are signalling: IEEE_UNDERFLOW_FLAG IEEE_DENORMAL
Note: The following floating-point exceptions are signalling: IEEE_UNDERFLOW_FLAG IEEE_DENORMAL
Note: The following floating-point exceptions are signalling: IEEE_UNDERFLOW_FLAG IEEE_DENORMAL
Note: The following floating-point exceptions are signalling: IEEE_UNDERFLOW_FLAG IEEE_DENORMAL
Note: The following floating-point exceptions are signalling: IEEE_UNDERFLOW_FLAG IEEE_DENORMAL
Note: The following floating-point exceptions are signalling: IEEE_UNDERFLOW_FLAG IEEE_DENORMAL
Note: The following floating-point exceptions are signalling: IEEE_UNDERFLOW_FLAG IEEE_DENORMAL
Note: The following floating-point exceptions are signalling: IEEE_UNDERFLOW_FLAG IEEE_DENORMAL
Note: The following floating-point exceptions are signalling: IEEE_UNDERFLOW_FLAG IEEE_DENORMAL
Note: The following floating-point exceptions are signalling: IEEE_UNDERFLOW_FLAG IEEE_DENORMAL
Note: The following floating-point exceptions are signalling: IEEE_UNDERFLOW_FLAG IEEE_DENORMAL
Note: The following floating-point exceptions are signalling: IEEE_UNDERFLOW_FLAG IEEE_DENORMAL
Note: The following floating-point exceptions are signalling: IEEE_UNDERFLOW_FLAG IEEE_DENORMAL
Note: The following floating-point exceptions are signalling: IEEE_UNDERFLOW_FLAG IEEE_DENORMAL
Note: The following floating-point exceptions are signalling: IEEE_UNDERFLOW_FLAG IEEE_DENORMAL
Note: The following floating-point exceptions are signalling: IEEE_UNDERFLOW_FLAG IEEE_DENORMAL
Note: The following floating-point exceptions are signalling: IEEE_UNDERFLOW_FLAG IEEE_DENORMAL
Note: The following floating-point exceptions are signalling: IEEE_UNDERFLOW_FLAG IEEE_DENORMAL
Note: The following floating-point exceptions are signalling: IEEE_UNDERFLOW_FLAG IEEE_DENORMAL
Note: The following floating-point exceptions are signalling: IEEE_UNDERFLOW_FLAG IEEE_DENORMAL
Note: The following floating-point exceptions are signalling: IEEE_UNDERFLOW_FLAG IEEE_DENORMAL
Note: The following floating-point exceptions are signalling: IEEE_UNDERFLOW_FLAG IEEE_DENORMAL