     Program PWSCF v.7.0 starts on  1Sep2025 at 22:10: 5

     K-points division:     npool     =      16
     R & G space division:  proc/nbgrp/npool/nimage =       4

     Reading input from /home/jvc/QEspresso7.2/ZnO_database/scripts/cell321.in/ZnO-2.94-1.49-321.in
Warning: card &CELL ignored
Warning: card / ignored
Warning: card &FCP ignored
Warning: card / ignored
Warning: card &RISM ignored
Warning: card / ignored

     Current dimensions of program PWSCF are:
     Max number of different atomic species (ntypx) = 10
     Max number of k-points (npk) =  40000
     Max angular momentum in pseudopotentials (lmaxx) =  4
     file Zn.upf: wavefunction(s)  3D renormalized
     Found identity + ( -0.0000 -0.5000  0.0000) symmetry
     This is a supercell, fractional translations are disabled

     Using Slab Decomposition

     bravais-lattice index     =            0
     lattice parameter (alat)  =      16.6829  a.u.
     unit-cell volume          =    1327.1530 (a.u.)^3
     number of atoms/cell      =           24
     number of atomic types    =            2
     number of electrons       =       216.00
     number of Kohn-Sham states=          108
     kinetic-energy cutoff     =      50.0000  Ry
     charge density cutoff     =     400.0000  Ry
     scf convergence threshold =      1.0E-08
     mixing beta               =       0.3000
     number of iterations used =            8  plain     mixing
     Exchange-correlation= PBE
                           (   1   4   3   4   0   0   0)

     celldm(1)=  16.682906  celldm(2)=   0.000000  celldm(3)=   0.000000
     celldm(4)=   0.000000  celldm(5)=   0.000000  celldm(6)=   0.000000

     crystal axes: (cart. coord. in units of alat)
               a(1) = (   1.000000   0.000000   0.000000 )
               a(2) = (  -0.333333   0.577350   0.000000 )
               a(3) = (   0.000000   0.000000   0.495070 )

     reciprocal axes: (cart. coord. in units 2 pi/alat)
               b(1) = (  1.000000  0.577350 -0.000000 )
               b(2) = (  0.000000  1.732051  0.000000 )
               b(3) = (  0.000000 -0.000000  2.019917 )

     PseudoPot. # 1 for Zn read from file:
     /home/jvc/QEspresso7.2/ZnO_database/pseudos/Zn.upf
     MD5 check sum: 7f56cabf9682ed8c977c2f7d0c5985c5
     Pseudo is Ultrasoft + core correction, Zval = 12.0
     Generated using &quot;atomic&quot; code by A. Dal Corso  v.6.2.2
     Using radial grid of 1201 points,  6 beta functions with:
                l(1) =   0
                l(2) =   0
                l(3) =   1
                l(4) =   1
                l(5) =   2
                l(6) =   2
     Q(r) pseudized with 0 coefficients

     PseudoPot. # 2 for O  read from file:
     /home/jvc/QEspresso7.2/ZnO_database/pseudos/O.upf
     MD5 check sum: 91400c9766925bcf19f520983a725ff0
     Pseudo is Ultrasoft + core correction, Zval =  6.0
     Generated using &quot;atomic&quot; code by A. Dal Corso  v.6.3MaX
     Using radial grid of 1095 points,  4 beta functions with:
                l(1) =   0
                l(2) =   0
                l(3) =   1
                l(4) =   1
     Q(r) pseudized with 0 coefficients

     atomic species   valence    mass     pseudopotential
        Zn            12.00    65.38000     Zn( 1.00)
        O              6.00    15.99900     O ( 1.00)

     No symmetry found

                                    s                        frac. trans.

      isym =  1     identity

 cryst.   s( 1) = (     1          0          0      )
                  (     0          1          0      )
                  (     0          0          1      )

 cart.    s( 1) = (  1.0000000  0.0000000  0.0000000 )
                  (  0.0000000  1.0000000  0.0000000 )
                  (  0.0000000  0.0000000  1.0000000 )

   Cartesian axes

     site n.     atom                  positions (alat units)
         1           Zn  tau(   1) = (   0.1666667   0.0962250   0.2478486  )
         2           Zn  tau(   2) = (   0.0000000   0.1924501   0.0003137  )
         3           O   tau(   3) = (   0.1666667   0.0962250   0.4355013  )
         4           O   tau(   4) = (   0.0000000   0.1924501   0.1879664  )
         5           Zn  tau(   5) = (   0.0000000   0.3849002   0.2478486  )
         6           Zn  tau(   6) = (  -0.1666667   0.4811252   0.0003137  )
         7           O   tau(   7) = (   0.0000000   0.3849002   0.4355013  )
         8           O   tau(   8) = (  -0.1666667   0.4811252   0.1879664  )
         9           Zn  tau(   9) = (   0.5000000   0.0962250   0.2478486  )
        10           Zn  tau(  10) = (   0.3333333   0.1924501   0.0003137  )
        11           O   tau(  11) = (   0.5000000   0.0962250   0.4355013  )
        12           O   tau(  12) = (   0.3333333   0.1924501   0.1879664  )
        13           Zn  tau(  13) = (   0.3333333   0.3849002   0.2478486  )
        14           Zn  tau(  14) = (   0.1666667   0.4811252   0.0003137  )
        15           O   tau(  15) = (   0.3333333   0.3849002   0.4355013  )
        16           O   tau(  16) = (   0.1666667   0.4811252   0.1879664  )
        17           Zn  tau(  17) = (   0.8333333   0.0962250   0.2478486  )
        18           Zn  tau(  18) = (   0.6666667   0.1924501   0.0003137  )
        19           O   tau(  19) = (   0.8333333   0.0962250   0.4355013  )
        20           O   tau(  20) = (   0.6666667   0.1924501   0.1879664  )
        21           Zn  tau(  21) = (   0.6666667   0.3849002   0.2478486  )
        22           Zn  tau(  22) = (   0.5000000   0.4811252   0.0003137  )
        23           O   tau(  23) = (   0.6666667   0.3849002   0.4355013  )
        24           O   tau(  24) = (   0.5000000   0.4811252   0.1879664  )

   Crystallographic axes

     site n.     atom                  positions (cryst. coord.)
         1           Zn  tau(   1) = (  0.2222222  0.1666667  0.5006336  )
         2           Zn  tau(   2) = (  0.1111111  0.3333333  0.0006336  )
         3           O   tau(   3) = (  0.2222222  0.1666667  0.8796764  )
         4           O   tau(   4) = (  0.1111111  0.3333333  0.3796764  )
         5           Zn  tau(   5) = (  0.2222222  0.6666667  0.5006336  )
         6           Zn  tau(   6) = (  0.1111111  0.8333333  0.0006336  )
         7           O   tau(   7) = (  0.2222222  0.6666667  0.8796764  )
         8           O   tau(   8) = (  0.1111111  0.8333333  0.3796764  )
         9           Zn  tau(   9) = (  0.5555556  0.1666667  0.5006336  )
        10           Zn  tau(  10) = (  0.4444444  0.3333333  0.0006336  )
        11           O   tau(  11) = (  0.5555556  0.1666667  0.8796764  )
        12           O   tau(  12) = (  0.4444444  0.3333333  0.3796764  )
        13           Zn  tau(  13) = (  0.5555556  0.6666667  0.5006336  )
        14           Zn  tau(  14) = (  0.4444444  0.8333333  0.0006336  )
        15           O   tau(  15) = (  0.5555556  0.6666667  0.8796764  )
        16           O   tau(  16) = (  0.4444444  0.8333333  0.3796764  )
        17           Zn  tau(  17) = (  0.8888889  0.1666667  0.5006336  )
        18           Zn  tau(  18) = (  0.7777778  0.3333333  0.0006336  )
        19           O   tau(  19) = (  0.8888889  0.1666667  0.8796764  )
        20           O   tau(  20) = (  0.7777778  0.3333333  0.3796764  )
        21           Zn  tau(  21) = (  0.8888889  0.6666667  0.5006336  )
        22           Zn  tau(  22) = (  0.7777778  0.8333333  0.0006336  )
        23           O   tau(  23) = (  0.8888889  0.6666667  0.8796764  )
        24           O   tau(  24) = (  0.7777778  0.8333333  0.3796764  )

     number of k points=   112
                       cart. coord. in units 2pi/alat
        k(    1) = (   0.0000000   0.0000000   0.0000000), wk =   0.0092593
        k(    2) = (   0.0000000   0.0000000   0.3366528), wk =   0.0185185
        k(    3) = (   0.0000000   0.0000000   0.6733056), wk =   0.0185185
        k(    4) = (   0.0000000   0.0000000  -1.0099584), wk =   0.0092593
        k(    5) = (   0.0000000   0.2886751   0.0000000), wk =   0.0185185
        k(    6) = (   0.0000000   0.2886751   0.3366528), wk =   0.0185185
        k(    7) = (   0.0000000   0.2886751   0.6733056), wk =   0.0185185
        k(    8) = (   0.0000000   0.2886751  -1.0099584), wk =   0.0185185
        k(    9) = (   0.0000000   0.5773503   0.0000000), wk =   0.0185185
        k(   10) = (   0.0000000   0.5773503   0.3366528), wk =   0.0185185
        k(   11) = (   0.0000000   0.5773503   0.6733056), wk =   0.0185185
        k(   12) = (   0.0000000   0.5773503  -1.0099584), wk =   0.0185185
        k(   13) = (   0.0000000  -0.8660254   0.0000000), wk =   0.0092593
        k(   14) = (   0.0000000  -0.8660254   0.3366528), wk =   0.0185185
        k(   15) = (   0.0000000  -0.8660254   0.6733056), wk =   0.0185185
        k(   16) = (   0.0000000  -0.8660254  -1.0099584), wk =   0.0092593
        k(   17) = (   0.1666667   0.0962250   0.0000000), wk =   0.0185185
        k(   18) = (   0.1666667   0.0962250   0.3366528), wk =   0.0185185
        k(   19) = (   0.1666667   0.0962250   0.6733056), wk =   0.0185185
        k(   20) = (   0.1666667   0.0962250  -1.0099584), wk =   0.0185185
        k(   21) = (   0.1666667   0.3849002   0.0000000), wk =   0.0185185
        k(   22) = (   0.1666667   0.3849002   0.3366528), wk =   0.0185185
        k(   23) = (   0.1666667   0.3849002   0.6733056), wk =   0.0185185
        k(   24) = (   0.1666667   0.3849002  -1.0099584), wk =   0.0185185
        k(   25) = (   0.1666667   0.6735753   0.0000000), wk =   0.0185185
        k(   26) = (   0.1666667   0.6735753   0.3366528), wk =   0.0185185
        k(   27) = (   0.1666667   0.6735753   0.6733056), wk =   0.0185185
        k(   28) = (   0.1666667   0.6735753  -1.0099584), wk =   0.0185185
        k(   29) = (   0.1666667  -0.7698004   0.0000000), wk =   0.0185185
        k(   30) = (   0.1666667  -0.7698004   0.3366528), wk =   0.0185185
        k(   31) = (   0.1666667  -0.7698004   0.6733056), wk =   0.0185185
        k(   32) = (   0.1666667  -0.7698004  -1.0099584), wk =   0.0185185
        k(   33) = (   0.1666667  -0.4811252   0.0000000), wk =   0.0185185
        k(   34) = (   0.1666667  -0.4811252   0.3366528), wk =   0.0185185
        k(   35) = (   0.1666667  -0.4811252   0.6733056), wk =   0.0185185
        k(   36) = (   0.1666667  -0.4811252  -1.0099584), wk =   0.0185185
        k(   37) = (   0.1666667  -0.1924501   0.0000000), wk =   0.0185185
        k(   38) = (   0.1666667  -0.1924501   0.3366528), wk =   0.0185185
        k(   39) = (   0.1666667  -0.1924501   0.6733056), wk =   0.0185185
        k(   40) = (   0.1666667  -0.1924501  -1.0099584), wk =   0.0185185
        k(   41) = (   0.3333333   0.1924501   0.0000000), wk =   0.0185185
        k(   42) = (   0.3333333   0.1924501   0.3366528), wk =   0.0185185
        k(   43) = (   0.3333333   0.1924501   0.6733056), wk =   0.0185185
        k(   44) = (   0.3333333   0.1924501  -1.0099584), wk =   0.0185185
        k(   45) = (   0.3333333   0.4811252   0.0000000), wk =   0.0185185
[...]
     atom   10 type  1   force =    -0.00000057   -0.00000035   -0.30116761
     atom   11 type  2   force =    -0.00000130   -0.00000072   -0.15036641
     atom   12 type  2   force =     0.00000171    0.00000047   -0.15036724
     atom   13 type  1   force =     0.00000033    0.00000010   -0.30116653
     atom   14 type  1   force =    -0.00000074   -0.00000045   -0.30116696
     atom   15 type  2   force =    -0.00000187   -0.00000042   -0.15036620
     atom   16 type  2   force =     0.00000160    0.00000073   -0.15036691
     atom   17 type  1   force =     0.00000063    0.00000015   -0.30116683
     atom   18 type  1   force =    -0.00000048   -0.00000032   -0.30116737
     atom   19 type  2   force =    -0.00000200   -0.00000048   -0.15036666
     atom   20 type  2   force =     0.00000159    0.00000078   -0.15036700
     atom   21 type  1   force =     0.00000037    0.00000063   -0.30116613
     atom   22 type  1   force =    -0.00000023   -0.00000015   -0.30116758
     atom   23 type  2   force =    -0.00000163   -0.00000073   -0.15036606
     atom   24 type  2   force =     0.00000164    0.00000048   -0.15036728
     The ionic contribution  to forces
     atom    1 type  1   force =     0.00000001    0.00000002   -2.15847727
     atom    2 type  1   force =     0.00000001    0.00000002   -2.15847727
     atom    3 type  2   force =     0.00000000    0.00000001    2.15847727
     atom    4 type  2   force =     0.00000001    0.00000001    2.15847727
     atom    5 type  1   force =     0.00000000    0.00000000   -2.15847727
     atom    6 type  1   force =     0.00000002   -0.00000002   -2.15847727
     atom    7 type  2   force =    -0.00000000    0.00000000    2.15847727
     atom    8 type  2   force =     0.00000001   -0.00000001    2.15847727
     atom    9 type  1   force =    -0.00000001    0.00000002   -2.15847727
     atom   10 type  1   force =     0.00000001    0.00000001   -2.15847728
     atom   11 type  2   force =    -0.00000001    0.00000001    2.15847727
     atom   12 type  2   force =     0.00000001   -0.00000000    2.15847728
     atom   13 type  1   force =    -0.00000002    0.00000000   -2.15847728
     atom   14 type  1   force =     0.00000002   -0.00000002   -2.15847728
     atom   15 type  2   force =    -0.00000002    0.00000000    2.15847728
     atom   16 type  2   force =     0.00000001   -0.00000002    2.15847728
     atom   17 type  1   force =    -0.00000001    0.00000001   -2.15847727
     atom   18 type  1   force =    -0.00000001    0.00000000   -2.15847727
     atom   19 type  2   force =    -0.00000000    0.00000001    2.15847727
     atom   20 type  2   force =    -0.00000000    0.00000000    2.15847727
     atom   21 type  1   force =    -0.00000002   -0.00000001   -2.15847728
     atom   22 type  1   force =    -0.00000001   -0.00000003   -2.15847727
     atom   23 type  2   force =    -0.00000001   -0.00000000    2.15847728
     atom   24 type  2   force =     0.00000000   -0.00000002    2.15847727
     The local contribution  to forces
     atom    1 type  1   force =    -0.00000040   -0.00000151    2.27257846
     atom    2 type  1   force =    -0.00000034   -0.00000002    2.27257880
     atom    3 type  2   force =     0.00000128   -0.00000001   -1.85481931
     atom    4 type  2   force =    -0.00000189   -0.00000059   -1.85481974
     atom    5 type  1   force =    -0.00000056   -0.00000011    2.27257854
     atom    6 type  1   force =     0.00000035    0.00000061    2.27257916
     atom    7 type  2   force =     0.00000151    0.00000083   -1.85481938
     atom    8 type  2   force =    -0.00000163   -0.00000010   -1.85482038
     atom    9 type  1   force =     0.00000054   -0.00000008    2.27257819
     atom   10 type  1   force =     0.00000096    0.00000019    2.27257958
     atom   11 type  2   force =     0.00000175    0.00000035   -1.85481906
     atom   12 type  2   force =    -0.00000068   -0.00000079   -1.85482034
     atom   13 type  1   force =     0.00000004    0.00000049    2.27257763
     atom   14 type  1   force =     0.00000091    0.00000072    2.27257833
     atom   15 type  2   force =     0.00000143    0.00000121   -1.85481836
     atom   16 type  2   force =    -0.00000115   -0.00000032   -1.85482010
     atom   17 type  1   force =    -0.00000088    0.00000040    2.27257870
     atom   18 type  1   force =     0.00000027   -0.00000003    2.27257942
     atom   19 type  2   force =     0.00000104    0.00000067   -1.85481937
     atom   20 type  2   force =    -0.00000147    0.00000011   -1.85482009
     atom   21 type  1   force =    -0.00000004   -0.00000128    2.27257659
     atom   22 type  1   force =    -0.00000010    0.00000022    2.27257999
     atom   23 type  2   force =     0.00000141    0.00000033   -1.85481871
     atom   24 type  2   force =    -0.00000126   -0.00000071   -1.85482038
     The core correction contribution to forces
     atom    1 type  1   force =    -0.00000005   -0.00000005    0.03325386
     atom    2 type  1   force =     0.00000005    0.00000004    0.03325388
     atom    3 type  2   force =     0.00000002    0.00000001    0.00053168
     atom    4 type  2   force =    -0.00000002   -0.00000000    0.00053168
     atom    5 type  1   force =    -0.00000004   -0.00000003    0.03325387
     atom    6 type  1   force =     0.00000005    0.00000002    0.03325389
     atom    7 type  2   force =     0.00000003    0.00000000    0.00053168
     atom    8 type  2   force =    -0.00000002   -0.00000000    0.00053168
     atom    9 type  1   force =    -0.00000006   -0.00000004    0.03325387
     atom   10 type  1   force =     0.00000006    0.00000004    0.03325389
     atom   11 type  2   force =     0.00000002    0.00000000    0.00053168
     atom   12 type  2   force =    -0.00000002   -0.00000000    0.00053168
     atom   13 type  1   force =    -0.00000005   -0.00000003    0.03325385
     atom   14 type  1   force =     0.00000006    0.00000003    0.03325388
     atom   15 type  2   force =     0.00000003    0.00000000    0.00053168
     atom   16 type  2   force =    -0.00000002   -0.00000001    0.00053168
     atom   17 type  1   force =    -0.00000004   -0.00000003    0.03325388
     atom   18 type  1   force =     0.00000005    0.00000004    0.03325387
     atom   19 type  2   force =     0.00000003    0.00000000    0.00053168
     atom   20 type  2   force =    -0.00000002   -0.00000000    0.00053168
     atom   21 type  1   force =    -0.00000004   -0.00000003    0.03325386
     atom   22 type  1   force =     0.00000006    0.00000002    0.03325389
     atom   23 type  2   force =     0.00000002    0.00000001    0.00053168
     atom   24 type  2   force =    -0.00000002   -0.00000000    0.00053169
     The Hubbard contrib.    to forces
     atom    1 type  1   force =     0.00000000    0.00000000    0.00000000
     atom    2 type  1   force =     0.00000000    0.00000000    0.00000000
     atom    3 type  2   force =     0.00000000    0.00000000    0.00000000
     atom    4 type  2   force =     0.00000000    0.00000000    0.00000000
     atom    5 type  1   force =     0.00000000    0.00000000    0.00000000
     atom    6 type  1   force =     0.00000000    0.00000000    0.00000000
     atom    7 type  2   force =     0.00000000    0.00000000    0.00000000
     atom    8 type  2   force =     0.00000000    0.00000000    0.00000000
     atom    9 type  1   force =     0.00000000    0.00000000    0.00000000
     atom   10 type  1   force =     0.00000000    0.00000000    0.00000000
     atom   11 type  2   force =     0.00000000    0.00000000    0.00000000
     atom   12 type  2   force =     0.00000000    0.00000000    0.00000000
     atom   13 type  1   force =     0.00000000    0.00000000    0.00000000
     atom   14 type  1   force =     0.00000000    0.00000000    0.00000000
     atom   15 type  2   force =     0.00000000    0.00000000    0.00000000
     atom   16 type  2   force =     0.00000000    0.00000000    0.00000000
     atom   17 type  1   force =     0.00000000    0.00000000    0.00000000
     atom   18 type  1   force =     0.00000000    0.00000000    0.00000000
     atom   19 type  2   force =     0.00000000    0.00000000    0.00000000
     atom   20 type  2   force =     0.00000000    0.00000000    0.00000000
     atom   21 type  1   force =     0.00000000    0.00000000    0.00000000
     atom   22 type  1   force =     0.00000000    0.00000000    0.00000000
     atom   23 type  2   force =     0.00000000    0.00000000    0.00000000
     atom   24 type  2   force =     0.00000000    0.00000000    0.00000000
     The SCF correction term to forces
     atom    1 type  1   force =     0.00000092    0.00000256   -0.00001057
     atom    2 type  1   force =     0.00000080   -0.00000029   -0.00000985
     atom    3 type  2   force =     0.00000050    0.00000103   -0.00000123
     atom    4 type  2   force =     0.00000045   -0.00000031   -0.00000118
     atom    5 type  1   force =     0.00000077    0.00000045   -0.00001042
     atom    6 type  1   force =    -0.00000051   -0.00000058   -0.00001026
     atom    7 type  2   force =     0.00000008   -0.00000019   -0.00000146
     atom    8 type  2   force =     0.00000019   -0.00000061   -0.00000069
     atom    9 type  1   force =    -0.00000126   -0.00000008   -0.00001054
     atom   10 type  1   force =    -0.00000206   -0.00000025   -0.00001100
     atom   11 type  2   force =    -0.00000045    0.00000048   -0.00000147
     atom   12 type  2   force =    -0.00000113   -0.00000005   -0.00000052
     atom   13 type  1   force =     0.00000037   -0.00000112   -0.00000878
     atom   14 type  1   force =    -0.00000153   -0.00000097   -0.00000919
     atom   15 type  2   force =     0.00000031   -0.00000052   -0.00000262
     atom   16 type  2   force =    -0.00000054   -0.00000041   -0.00000089
     atom   17 type  1   force =     0.00000159   -0.00000063   -0.00001083
     atom   18 type  1   force =    -0.00000043    0.00000021   -0.00001060
     atom   19 type  2   force =     0.00000104   -0.00000020   -0.00000123
     atom   20 type  2   force =     0.00000005   -0.00000073   -0.00000093
     atom   21 type  1   force =     0.00000006    0.00000179   -0.00000763
     atom   22 type  1   force =    -0.00000061   -0.00000039   -0.00001195
     atom   23 type  2   force =     0.00000024    0.00000052   -0.00000224
     atom   24 type  2   force =    -0.00000041   -0.00000006   -0.00000014

     Total force =     0.753569     Total SCF correction =     0.000036

     General routines

     Parallel routines

   This run was terminated on:  22:23:16   1Sep2025

   JOB DONE.
Note: The following floating-point exceptions are signalling: IEEE_UNDERFLOW_FLAG IEEE_DENORMAL
Note: The following floating-point exceptions are signalling: IEEE_UNDERFLOW_FLAG IEEE_DENORMAL
Note: The following floating-point exceptions are signalling: IEEE_UNDERFLOW_FLAG IEEE_DENORMAL
Note: The following floating-point exceptions are signalling: IEEE_UNDERFLOW_FLAG IEEE_DENORMAL
Note: The following floating-point exceptions are signalling: IEEE_UNDERFLOW_FLAG IEEE_DENORMAL
Note: The following floating-point exceptions are signalling: IEEE_UNDERFLOW_FLAG IEEE_DENORMAL
Note: The following floating-point exceptions are signalling: IEEE_UNDERFLOW_FLAG IEEE_DENORMAL
Note: The following floating-point exceptions are signalling: IEEE_UNDERFLOW_FLAG IEEE_DENORMAL
Note: The following floating-point exceptions are signalling: IEEE_UNDERFLOW_FLAG IEEE_DENORMAL
Note: The following floating-point exceptions are signalling: IEEE_UNDERFLOW_FLAG IEEE_DENORMAL
Note: The following floating-point exceptions are signalling: IEEE_UNDERFLOW_FLAG IEEE_DENORMAL
Note: The following floating-point exceptions are signalling: IEEE_UNDERFLOW_FLAG IEEE_DENORMAL
Note: The following floating-point exceptions are signalling: IEEE_UNDERFLOW_FLAG IEEE_DENORMAL
Note: The following floating-point exceptions are signalling: IEEE_UNDERFLOW_FLAG IEEE_DENORMAL
Note: The following floating-point exceptions are signalling: IEEE_UNDERFLOW_FLAG IEEE_DENORMAL
Note: The following floating-point exceptions are signalling: IEEE_UNDERFLOW_FLAG IEEE_DENORMAL
Note: The following floating-point exceptions are signalling: IEEE_UNDERFLOW_FLAG IEEE_DENORMAL
Note: The following floating-point exceptions are signalling: IEEE_UNDERFLOW_FLAG IEEE_DENORMAL
Note: The following floating-point exceptions are signalling: IEEE_UNDERFLOW_FLAG IEEE_DENORMAL
Note: The following floating-point exceptions are signalling: IEEE_UNDERFLOW_FLAG IEEE_DENORMAL
Note: The following floating-point exceptions are signalling: IEEE_UNDERFLOW_FLAG IEEE_DENORMAL
Note: The following floating-point exceptions are signalling: IEEE_UNDERFLOW_FLAG IEEE_DENORMAL
Note: The following floating-point exceptions are signalling: IEEE_UNDERFLOW_FLAG IEEE_DENORMAL
Note: The following floating-point exceptions are signalling: IEEE_UNDERFLOW_FLAG IEEE_DENORMAL
Note: The following floating-point exceptions are signalling: IEEE_UNDERFLOW_FLAG IEEE_DENORMAL
Note: The following floating-point exceptions are signalling: IEEE_UNDERFLOW_FLAG IEEE_DENORMAL
Note: The following floating-point exceptions are signalling: IEEE_UNDERFLOW_FLAG IEEE_DENORMAL
Note: The following floating-point exceptions are signalling: IEEE_UNDERFLOW_FLAG IEEE_DENORMAL
Note: The following floating-point exceptions are signalling: IEEE_UNDERFLOW_FLAG IEEE_DENORMAL
Note: The following floating-point exceptions are signalling: IEEE_UNDERFLOW_FLAG IEEE_DENORMAL
Note: The following floating-point exceptions are signalling: IEEE_UNDERFLOW_FLAG IEEE_DENORMAL
Note: The following floating-point exceptions are signalling: IEEE_UNDERFLOW_FLAG IEEE_DENORMAL
Note: The following floating-point exceptions are signalling: IEEE_UNDERFLOW_FLAG IEEE_DENORMAL
Note: The following floating-point exceptions are signalling: IEEE_UNDERFLOW_FLAG IEEE_DENORMAL
Note: The following floating-point exceptions are signalling: IEEE_UNDERFLOW_FLAG IEEE_DENORMAL
Note: The following floating-point exceptions are signalling: IEEE_UNDERFLOW_FLAG IEEE_DENORMAL
Note: The following floating-point exceptions are signalling: IEEE_UNDERFLOW_FLAG IEEE_DENORMAL
Note: The following floating-point exceptions are signalling: IEEE_UNDERFLOW_FLAG IEEE_DENORMAL
Note: The following floating-point exceptions are signalling: IEEE_UNDERFLOW_FLAG IEEE_DENORMAL
Note: The following floating-point exceptions are signalling: IEEE_UNDERFLOW_FLAG IEEE_DENORMAL
Note: The following floating-point exceptions are signalling: IEEE_UNDERFLOW_FLAG IEEE_DENORMAL
Note: The following floating-point exceptions are signalling: IEEE_UNDERFLOW_FLAG IEEE_DENORMAL
Note: The following floating-point exceptions are signalling: IEEE_UNDERFLOW_FLAG IEEE_DENORMAL
Note: The following floating-point exceptions are signalling: IEEE_UNDERFLOW_FLAG IEEE_DENORMAL
Note: The following floating-point exceptions are signalling: IEEE_UNDERFLOW_FLAG IEEE_DENORMAL
Note: The following floating-point exceptions are signalling: IEEE_UNDERFLOW_FLAG IEEE_DENORMAL
Note: The following floating-point exceptions are signalling: IEEE_UNDERFLOW_FLAG IEEE_DENORMAL
Note: The following floating-point exceptions are signalling: IEEE_UNDERFLOW_FLAG IEEE_DENORMAL
Note: The following floating-point exceptions are signalling: IEEE_UNDERFLOW_FLAG IEEE_DENORMAL
Note: The following floating-point exceptions are signalling: IEEE_UNDERFLOW_FLAG IEEE_DENORMAL
Note: The following floating-point exceptions are signalling: IEEE_UNDERFLOW_FLAG IEEE_DENORMAL
Note: The following floating-point exceptions are signalling: IEEE_UNDERFLOW_FLAG IEEE_DENORMAL
Note: The following floating-point exceptions are signalling: IEEE_UNDERFLOW_FLAG IEEE_DENORMAL
Note: The following floating-point exceptions are signalling: IEEE_UNDERFLOW_FLAG IEEE_DENORMAL
Note: The following floating-point exceptions are signalling: IEEE_UNDERFLOW_FLAG IEEE_DENORMAL
Note: The following floating-point exceptions are signalling: IEEE_UNDERFLOW_FLAG IEEE_DENORMAL
Note: The following floating-point exceptions are signalling: IEEE_UNDERFLOW_FLAG IEEE_DENORMAL
Note: The following floating-point exceptions are signalling: IEEE_UNDERFLOW_FLAG IEEE_DENORMAL
Note: The following floating-point exceptions are signalling: IEEE_UNDERFLOW_FLAG IEEE_DENORMAL
Note: The following floating-point exceptions are signalling: IEEE_UNDERFLOW_FLAG IEEE_DENORMAL
Note: The following floating-point exceptions are signalling: IEEE_UNDERFLOW_FLAG IEEE_DENORMAL
Note: The following floating-point exceptions are signalling: IEEE_UNDERFLOW_FLAG IEEE_DENORMAL
Note: The following floating-point exceptions are signalling: IEEE_UNDERFLOW_FLAG IEEE_DENORMAL
Note: The following floating-point exceptions are signalling: IEEE_UNDERFLOW_FLAG IEEE_DENORMAL