     Program PWSCF v.7.0 starts on  4Sep2025 at  0: 2:43

     K-points division:     npool     =      16
     R & G space division:  proc/nbgrp/npool/nimage =       4

     Reading input from /home/jvc/QEspresso7.2/ZnO_database/scripts/cell321.in/ZnO-3.60-1.61-321.in
Warning: card &CELL ignored
Warning: card / ignored
Warning: card &FCP ignored
Warning: card / ignored
Warning: card &RISM ignored
Warning: card / ignored

     Current dimensions of program PWSCF are:
     Max number of different atomic species (ntypx) = 10
     Max number of k-points (npk) =  40000
     Max angular momentum in pseudopotentials (lmaxx) =  4
     file Zn.upf: wavefunction(s)  3D renormalized
     Found identity + ( -0.0000 -0.5000  0.0000) symmetry
     This is a supercell, fractional translations are disabled

     Using Slab Decomposition

     bravais-lattice index     =            0
     lattice parameter (alat)  =      20.3902  a.u.
     unit-cell volume          =    2633.8054 (a.u.)^3
     number of atoms/cell      =           24
     number of atomic types    =            2
     number of electrons       =       216.00
     number of Kohn-Sham states=          108
     kinetic-energy cutoff     =      50.0000  Ry
     charge density cutoff     =     400.0000  Ry
     scf convergence threshold =      1.0E-08
     mixing beta               =       0.3000
     number of iterations used =            8  plain     mixing
     Exchange-correlation= PBE
                           (   1   4   3   4   0   0   0)

     celldm(1)=  20.390218  celldm(2)=   0.000000  celldm(3)=   0.000000
     celldm(4)=   0.000000  celldm(5)=   0.000000  celldm(6)=   0.000000

     crystal axes: (cart. coord. in units of alat)
               a(1) = (   1.000000   0.000000   0.000000 )
               a(2) = (  -0.333333   0.577350   0.000000 )
               a(3) = (   0.000000   0.000000   0.538119 )

     reciprocal axes: (cart. coord. in units 2 pi/alat)
               b(1) = (  1.000000  0.577350 -0.000000 )
               b(2) = (  0.000000  1.732051  0.000000 )
               b(3) = (  0.000000 -0.000000  1.858323 )

     PseudoPot. # 1 for Zn read from file:
     /home/jvc/QEspresso7.2/ZnO_database/pseudos/Zn.upf
     MD5 check sum: 7f56cabf9682ed8c977c2f7d0c5985c5
     Pseudo is Ultrasoft + core correction, Zval = 12.0
     Generated using &quot;atomic&quot; code by A. Dal Corso  v.6.2.2
     Using radial grid of 1201 points,  6 beta functions with:
                l(1) =   0
                l(2) =   0
                l(3) =   1
                l(4) =   1
                l(5) =   2
                l(6) =   2
     Q(r) pseudized with 0 coefficients

     PseudoPot. # 2 for O  read from file:
     /home/jvc/QEspresso7.2/ZnO_database/pseudos/O.upf
     MD5 check sum: 91400c9766925bcf19f520983a725ff0
     Pseudo is Ultrasoft + core correction, Zval =  6.0
     Generated using &quot;atomic&quot; code by A. Dal Corso  v.6.3MaX
     Using radial grid of 1095 points,  4 beta functions with:
                l(1) =   0
                l(2) =   0
                l(3) =   1
                l(4) =   1
     Q(r) pseudized with 0 coefficients

     atomic species   valence    mass     pseudopotential
        Zn            12.00    65.38000     Zn( 1.00)
        O              6.00    15.99900     O ( 1.00)

     No symmetry found

                                    s                        frac. trans.

      isym =  1     identity

 cryst.   s( 1) = (     1          0          0      )
                  (     0          1          0      )
                  (     0          0          1      )

 cart.    s( 1) = (  1.0000000  0.0000000  0.0000000 )
                  (  0.0000000  1.0000000  0.0000000 )
                  (  0.0000000  0.0000000  1.0000000 )

   Cartesian axes

     site n.     atom                  positions (alat units)
         1           Zn  tau(   1) = (   0.1666667   0.0962250   0.2694007  )
         2           Zn  tau(   2) = (   0.0000000   0.1924501   0.0003409  )
         3           O   tau(   3) = (   0.1666667   0.0962250   0.4733710  )
         4           O   tau(   4) = (   0.0000000   0.1924501   0.2043113  )
         5           Zn  tau(   5) = (  -0.0000000   0.3849002   0.2694007  )
         6           Zn  tau(   6) = (  -0.1666667   0.4811252   0.0003409  )
         7           O   tau(   7) = (  -0.0000000   0.3849002   0.4733710  )
         8           O   tau(   8) = (  -0.1666667   0.4811252   0.2043113  )
         9           Zn  tau(   9) = (   0.5000000   0.0962250   0.2694007  )
        10           Zn  tau(  10) = (   0.3333333   0.1924501   0.0003409  )
        11           O   tau(  11) = (   0.5000000   0.0962250   0.4733710  )
        12           O   tau(  12) = (   0.3333333   0.1924501   0.2043113  )
        13           Zn  tau(  13) = (   0.3333333   0.3849002   0.2694007  )
        14           Zn  tau(  14) = (   0.1666667   0.4811252   0.0003409  )
        15           O   tau(  15) = (   0.3333333   0.3849002   0.4733710  )
        16           O   tau(  16) = (   0.1666667   0.4811252   0.2043113  )
        17           Zn  tau(  17) = (   0.8333333   0.0962250   0.2694007  )
        18           Zn  tau(  18) = (   0.6666667   0.1924501   0.0003409  )
        19           O   tau(  19) = (   0.8333333   0.0962250   0.4733710  )
        20           O   tau(  20) = (   0.6666667   0.1924501   0.2043113  )
        21           Zn  tau(  21) = (   0.6666667   0.3849002   0.2694007  )
        22           Zn  tau(  22) = (   0.5000000   0.4811252   0.0003409  )
        23           O   tau(  23) = (   0.6666667   0.3849002   0.4733710  )
        24           O   tau(  24) = (   0.5000000   0.4811252   0.2043113  )

   Crystallographic axes

     site n.     atom                  positions (cryst. coord.)
         1           Zn  tau(   1) = (  0.2222222  0.1666667  0.5006336  )
         2           Zn  tau(   2) = (  0.1111111  0.3333333  0.0006336  )
         3           O   tau(   3) = (  0.2222222  0.1666667  0.8796764  )
         4           O   tau(   4) = (  0.1111111  0.3333333  0.3796764  )
         5           Zn  tau(   5) = (  0.2222222  0.6666667  0.5006336  )
         6           Zn  tau(   6) = (  0.1111111  0.8333333  0.0006336  )
         7           O   tau(   7) = (  0.2222222  0.6666667  0.8796764  )
         8           O   tau(   8) = (  0.1111111  0.8333333  0.3796764  )
         9           Zn  tau(   9) = (  0.5555556  0.1666667  0.5006336  )
        10           Zn  tau(  10) = (  0.4444444  0.3333333  0.0006336  )
        11           O   tau(  11) = (  0.5555556  0.1666667  0.8796764  )
        12           O   tau(  12) = (  0.4444444  0.3333333  0.3796764  )
        13           Zn  tau(  13) = (  0.5555556  0.6666667  0.5006336  )
        14           Zn  tau(  14) = (  0.4444444  0.8333333  0.0006336  )
        15           O   tau(  15) = (  0.5555556  0.6666667  0.8796764  )
        16           O   tau(  16) = (  0.4444444  0.8333333  0.3796764  )
        17           Zn  tau(  17) = (  0.8888889  0.1666667  0.5006336  )
        18           Zn  tau(  18) = (  0.7777778  0.3333333  0.0006336  )
        19           O   tau(  19) = (  0.8888889  0.1666667  0.8796764  )
        20           O   tau(  20) = (  0.7777778  0.3333333  0.3796764  )
        21           Zn  tau(  21) = (  0.8888889  0.6666667  0.5006336  )
        22           Zn  tau(  22) = (  0.7777778  0.8333333  0.0006336  )
        23           O   tau(  23) = (  0.8888889  0.6666667  0.8796764  )
        24           O   tau(  24) = (  0.7777778  0.8333333  0.3796764  )

     number of k points=   112
                       cart. coord. in units 2pi/alat
        k(    1) = (   0.0000000   0.0000000   0.0000000), wk =   0.0092593
        k(    2) = (   0.0000000   0.0000000   0.3097206), wk =   0.0185185
        k(    3) = (   0.0000000   0.0000000   0.6194412), wk =   0.0185185
        k(    4) = (   0.0000000   0.0000000  -0.9291617), wk =   0.0092593
        k(    5) = (   0.0000000   0.2886751   0.0000000), wk =   0.0185185
        k(    6) = (   0.0000000   0.2886751   0.3097206), wk =   0.0185185
        k(    7) = (   0.0000000   0.2886751   0.6194412), wk =   0.0185185
        k(    8) = (   0.0000000   0.2886751  -0.9291617), wk =   0.0185185
        k(    9) = (   0.0000000   0.5773503   0.0000000), wk =   0.0185185
        k(   10) = (   0.0000000   0.5773503   0.3097206), wk =   0.0185185
        k(   11) = (   0.0000000   0.5773503   0.6194412), wk =   0.0185185
        k(   12) = (   0.0000000   0.5773503  -0.9291617), wk =   0.0185185
        k(   13) = (   0.0000000  -0.8660254   0.0000000), wk =   0.0092593
        k(   14) = (   0.0000000  -0.8660254   0.3097206), wk =   0.0185185
        k(   15) = (   0.0000000  -0.8660254   0.6194412), wk =   0.0185185
        k(   16) = (   0.0000000  -0.8660254  -0.9291617), wk =   0.0092593
        k(   17) = (   0.1666667   0.0962250   0.0000000), wk =   0.0185185
        k(   18) = (   0.1666667   0.0962250   0.3097206), wk =   0.0185185
        k(   19) = (   0.1666667   0.0962250   0.6194412), wk =   0.0185185
        k(   20) = (   0.1666667   0.0962250  -0.9291617), wk =   0.0185185
        k(   21) = (   0.1666667   0.3849002   0.0000000), wk =   0.0185185
        k(   22) = (   0.1666667   0.3849002   0.3097206), wk =   0.0185185
        k(   23) = (   0.1666667   0.3849002   0.6194412), wk =   0.0185185
        k(   24) = (   0.1666667   0.3849002  -0.9291617), wk =   0.0185185
        k(   25) = (   0.1666667   0.6735753   0.0000000), wk =   0.0185185
        k(   26) = (   0.1666667   0.6735753   0.3097206), wk =   0.0185185
        k(   27) = (   0.1666667   0.6735753   0.6194412), wk =   0.0185185
        k(   28) = (   0.1666667   0.6735753  -0.9291617), wk =   0.0185185
        k(   29) = (   0.1666667  -0.7698004   0.0000000), wk =   0.0185185
        k(   30) = (   0.1666667  -0.7698004   0.3097206), wk =   0.0185185
        k(   31) = (   0.1666667  -0.7698004   0.6194412), wk =   0.0185185
        k(   32) = (   0.1666667  -0.7698004  -0.9291617), wk =   0.0185185
        k(   33) = (   0.1666667  -0.4811252   0.0000000), wk =   0.0185185
        k(   34) = (   0.1666667  -0.4811252   0.3097206), wk =   0.0185185
        k(   35) = (   0.1666667  -0.4811252   0.6194412), wk =   0.0185185
        k(   36) = (   0.1666667  -0.4811252  -0.9291617), wk =   0.0185185
        k(   37) = (   0.1666667  -0.1924501   0.0000000), wk =   0.0185185
        k(   38) = (   0.1666667  -0.1924501   0.3097206), wk =   0.0185185
        k(   39) = (   0.1666667  -0.1924501   0.6194412), wk =   0.0185185
        k(   40) = (   0.1666667  -0.1924501  -0.9291617), wk =   0.0185185
        k(   41) = (   0.3333333   0.1924501   0.0000000), wk =   0.0185185
        k(   42) = (   0.3333333   0.1924501   0.3097206), wk =   0.0185185
        k(   43) = (   0.3333333   0.1924501   0.6194412), wk =   0.0185185
        k(   44) = (   0.3333333   0.1924501  -0.9291617), wk =   0.0185185
        k(   45) = (   0.3333333   0.4811252   0.0000000), wk =   0.0185185
[...]
     atom   12 type  2   force =     0.00001310    0.00000252    0.00624190
     atom   13 type  1   force =     0.00000277    0.00000803   -0.00462532
     atom   14 type  1   force =    -0.00000529   -0.00000620   -0.00462219
     atom   15 type  2   force =    -0.00000877   -0.00000625    0.00624211
     atom   16 type  2   force =     0.00000664    0.00000923    0.00624103
     atom   17 type  1   force =     0.00001323   -0.00000444   -0.00462057
     atom   18 type  1   force =    -0.00000566   -0.00001413   -0.00462463
     atom   19 type  2   force =    -0.00001754   -0.00000309    0.00624117
     atom   20 type  2   force =     0.00000775    0.00001313    0.00623869
     atom   21 type  1   force =     0.00000146    0.00001300   -0.00462192
     atom   22 type  1   force =    -0.00001173    0.00000384   -0.00462103
     atom   23 type  2   force =    -0.00000572   -0.00001039    0.00623721
     atom   24 type  2   force =     0.00001870    0.00000251    0.00624073
     The ionic contribution  to forces
     atom    1 type  1   force =     0.00000001    0.00000002    0.05183209
     atom    2 type  1   force =     0.00000001    0.00000002    0.05183208
     atom    3 type  2   force =     0.00000000    0.00000001   -0.05183209
     atom    4 type  2   force =     0.00000000    0.00000001   -0.05183208
     atom    5 type  1   force =     0.00000001   -0.00000001    0.05183208
     atom    6 type  1   force =     0.00000001   -0.00000001    0.05183209
     atom    7 type  2   force =     0.00000000   -0.00000001   -0.05183208
     atom    8 type  2   force =     0.00000000   -0.00000001   -0.05183209
     atom    9 type  1   force =    -0.00000001    0.00000002    0.05183208
     atom   10 type  1   force =     0.00000001    0.00000001    0.05183208
     atom   11 type  2   force =    -0.00000001    0.00000001   -0.05183208
     atom   12 type  2   force =     0.00000001    0.00000001   -0.05183208
     atom   13 type  1   force =    -0.00000001   -0.00000001    0.05183208
     atom   14 type  1   force =     0.00000001   -0.00000002    0.05183208
     atom   15 type  2   force =    -0.00000001   -0.00000001   -0.05183208
     atom   16 type  2   force =     0.00000001   -0.00000001   -0.05183208
     atom   17 type  1   force =    -0.00000001    0.00000001    0.05183209
     atom   18 type  1   force =    -0.00000001    0.00000001    0.05183208
     atom   19 type  2   force =    -0.00000000    0.00000001   -0.05183209
     atom   20 type  2   force =    -0.00000000    0.00000001   -0.05183208
     atom   21 type  1   force =    -0.00000001   -0.00000002    0.05183208
     atom   22 type  1   force =    -0.00000001   -0.00000002    0.05183209
     atom   23 type  2   force =    -0.00000000   -0.00000001   -0.05183208
     atom   24 type  2   force =    -0.00000000   -0.00000001   -0.05183209
     The local contribution  to forces
     atom    1 type  1   force =    -0.00000140   -0.00002228   -0.04755855
     atom    2 type  1   force =    -0.00000529    0.00002139   -0.04754828
     atom    3 type  2   force =     0.00000757    0.00000696    0.04574009
     atom    4 type  2   force =    -0.00001334   -0.00000547    0.04573907
     atom    5 type  1   force =    -0.00003540    0.00000150   -0.04754820
     atom    6 type  1   force =    -0.00000370   -0.00002450   -0.04754903
     atom    7 type  2   force =     0.00000534    0.00000326    0.04574110
     atom    8 type  2   force =    -0.00000615   -0.00000675    0.04574362
     atom    9 type  1   force =     0.00000921    0.00002085   -0.04755455
     atom   10 type  1   force =     0.00002638    0.00000698   -0.04755012
     atom   11 type  2   force =     0.00000656    0.00000707    0.04574249
     atom   12 type  2   force =    -0.00000595   -0.00000221    0.04574086
     atom   13 type  1   force =     0.00000201   -0.00001548   -0.04754603
     atom   14 type  1   force =     0.00000148    0.00000911   -0.04755677
     atom   15 type  2   force =     0.00001324    0.00000496    0.04574090
     atom   16 type  2   force =    -0.00000750   -0.00000591    0.04574078
     atom   17 type  1   force =    -0.00002846    0.00002065   -0.04756078
     atom   18 type  1   force =     0.00000039    0.00003354   -0.04754064
     atom   19 type  2   force =     0.00001376    0.00000713    0.04574154
     atom   20 type  2   force =    -0.00000723   -0.00000448    0.04574403
     atom   21 type  1   force =     0.00001140   -0.00003065   -0.04755008
     atom   22 type  1   force =     0.00002368   -0.00001879   -0.04755898
     atom   23 type  2   force =     0.00000723    0.00000461    0.04574604
     atom   24 type  2   force =    -0.00001272   -0.00000764    0.04574104
     The core correction contribution to forces
     atom    1 type  1   force =    -0.00000065   -0.00000004    0.00026000
     atom    2 type  1   force =     0.00000059    0.00000009    0.00025976
     atom    3 type  2   force =     0.00000007    0.00000016   -0.00006982
     atom    4 type  2   force =    -0.00000008   -0.00000010   -0.00006983
     atom    5 type  1   force =    -0.00000027   -0.00000047    0.00025963
     atom    6 type  1   force =     0.00000083    0.00000080    0.00025957
     atom    7 type  2   force =     0.00000017    0.00000002   -0.00006981
     atom    8 type  2   force =    -0.00000003    0.00000004   -0.00006979
     atom    9 type  1   force =    -0.00000100   -0.00000073    0.00025978
     atom   10 type  1   force =     0.00000038    0.00000030    0.00025967
     atom   11 type  2   force =     0.00000003   -0.00000000   -0.00006979
     atom   12 type  2   force =    -0.00000016   -0.00000002   -0.00006983
     atom   13 type  1   force =    -0.00000060   -0.00000021    0.00025967
     atom   14 type  1   force =     0.00000072    0.00000033    0.00026000
     atom   15 type  2   force =     0.00000009    0.00000008   -0.00006983
     atom   16 type  2   force =    -0.00000006   -0.00000012   -0.00006982
     atom   17 type  1   force =    -0.00000010   -0.00000066    0.00025998
     atom   18 type  1   force =     0.00000080   -0.00000008    0.00025934
     atom   19 type  2   force =     0.00000022    0.00000002   -0.00006982
     atom   20 type  2   force =    -0.00000008   -0.00000017   -0.00006978
     atom   21 type  1   force =    -0.00000090    0.00000009    0.00025949
     atom   22 type  1   force =     0.00000020    0.00000068    0.00025996
     atom   23 type  2   force =     0.00000005    0.00000014   -0.00006976
     atom   24 type  2   force =    -0.00000023   -0.00000002   -0.00006981
     The Hubbard contrib.    to forces
     atom    1 type  1   force =     0.00000000    0.00000000    0.00000000
     atom    2 type  1   force =     0.00000000    0.00000000    0.00000000
     atom    3 type  2   force =     0.00000000    0.00000000    0.00000000
     atom    4 type  2   force =     0.00000000    0.00000000    0.00000000
     atom    5 type  1   force =     0.00000000    0.00000000    0.00000000
     atom    6 type  1   force =     0.00000000    0.00000000    0.00000000
     atom    7 type  2   force =     0.00000000    0.00000000    0.00000000
     atom    8 type  2   force =     0.00000000    0.00000000    0.00000000
     atom    9 type  1   force =     0.00000000    0.00000000    0.00000000
     atom   10 type  1   force =     0.00000000    0.00000000    0.00000000
     atom   11 type  2   force =     0.00000000    0.00000000    0.00000000
     atom   12 type  2   force =     0.00000000    0.00000000    0.00000000
     atom   13 type  1   force =     0.00000000    0.00000000    0.00000000
     atom   14 type  1   force =     0.00000000    0.00000000    0.00000000
     atom   15 type  2   force =     0.00000000    0.00000000    0.00000000
     atom   16 type  2   force =     0.00000000    0.00000000    0.00000000
     atom   17 type  1   force =     0.00000000    0.00000000    0.00000000
     atom   18 type  1   force =     0.00000000    0.00000000    0.00000000
     atom   19 type  2   force =     0.00000000    0.00000000    0.00000000
     atom   20 type  2   force =     0.00000000    0.00000000    0.00000000
     atom   21 type  1   force =     0.00000000    0.00000000    0.00000000
     atom   22 type  1   force =     0.00000000    0.00000000    0.00000000
     atom   23 type  2   force =     0.00000000    0.00000000    0.00000000
     atom   24 type  2   force =     0.00000000    0.00000000    0.00000000
     The SCF correction term to forces
     atom    1 type  1   force =    -0.00000989    0.00002207    0.00001165
     atom    2 type  1   force =     0.00001450   -0.00002266   -0.00000252
     atom    3 type  2   force =    -0.00000029    0.00000387    0.00000141
     atom    4 type  2   force =     0.00000618   -0.00000200    0.00000230
     atom    5 type  1   force =     0.00003363   -0.00000987   -0.00000284
     atom    6 type  1   force =     0.00001490    0.00003535   -0.00000367
     atom    7 type  2   force =     0.00000736   -0.00000093    0.00000091
     atom    8 type  2   force =     0.00000178    0.00000710   -0.00000010
     atom    9 type  1   force =    -0.00002379   -0.00003208    0.00000374
     atom   10 type  1   force =    -0.00002231   -0.00000183    0.00000133
     atom   11 type  2   force =    -0.00000212   -0.00000542    0.00000052
     atom   12 type  2   force =    -0.00000595   -0.00000066    0.00000013
     atom   13 type  1   force =    -0.00001067    0.00001468   -0.00000444
     atom   14 type  1   force =     0.00000759   -0.00000570    0.00000769
     atom   15 type  2   force =    -0.00000524    0.00000079    0.00000009
     atom   16 type  2   force =     0.00000122   -0.00000249    0.00000104
     atom   17 type  1   force =     0.00002760   -0.00003219    0.00001351
     atom   18 type  1   force =     0.00000937   -0.00003764   -0.00001430
     atom   19 type  2   force =     0.00000159   -0.00000410    0.00000001
     atom   20 type  2   force =    -0.00000033   -0.00000725   -0.00000056
     atom   21 type  1   force =    -0.00002546    0.00003317   -0.00000084
     atom   22 type  1   force =    -0.00002092    0.00002904    0.00001104
     atom   23 type  2   force =    -0.00000158    0.00000492   -0.00000120
     atom   24 type  2   force =    -0.00000379    0.00000514    0.00000099

     Total force =     0.000400     Total SCF correction =     0.000119
     SCF correction compared to forces is large: reduce conv_thr to get better values

     General routines

     Parallel routines

   This run was terminated on:   0:33:35   4Sep2025

   JOB DONE.
Note: The following floating-point exceptions are signalling: IEEE_UNDERFLOW_FLAG IEEE_DENORMAL
Note: The following floating-point exceptions are signalling: IEEE_UNDERFLOW_FLAG IEEE_DENORMAL
Note: The following floating-point exceptions are signalling: IEEE_UNDERFLOW_FLAG IEEE_DENORMAL
Note: The following floating-point exceptions are signalling: IEEE_UNDERFLOW_FLAG IEEE_DENORMAL
Note: The following floating-point exceptions are signalling: IEEE_UNDERFLOW_FLAG IEEE_DENORMAL
Note: The following floating-point exceptions are signalling: IEEE_UNDERFLOW_FLAG IEEE_DENORMAL
Note: The following floating-point exceptions are signalling: IEEE_UNDERFLOW_FLAG IEEE_DENORMAL
Note: The following floating-point exceptions are signalling: IEEE_UNDERFLOW_FLAG IEEE_DENORMAL
Note: The following floating-point exceptions are signalling: IEEE_UNDERFLOW_FLAG IEEE_DENORMAL
Note: The following floating-point exceptions are signalling: IEEE_UNDERFLOW_FLAG IEEE_DENORMAL
Note: The following floating-point exceptions are signalling: IEEE_UNDERFLOW_FLAG IEEE_DENORMAL
Note: The following floating-point exceptions are signalling: IEEE_UNDERFLOW_FLAG IEEE_DENORMAL
Note: The following floating-point exceptions are signalling: IEEE_UNDERFLOW_FLAG IEEE_DENORMAL
Note: The following floating-point exceptions are signalling: IEEE_UNDERFLOW_FLAG IEEE_DENORMAL
Note: The following floating-point exceptions are signalling: IEEE_UNDERFLOW_FLAG IEEE_DENORMAL
Note: The following floating-point exceptions are signalling: IEEE_UNDERFLOW_FLAG IEEE_DENORMAL
Note: The following floating-point exceptions are signalling: IEEE_UNDERFLOW_FLAG IEEE_DENORMAL
Note: The following floating-point exceptions are signalling: IEEE_UNDERFLOW_FLAG IEEE_DENORMAL
Note: The following floating-point exceptions are signalling: IEEE_UNDERFLOW_FLAG IEEE_DENORMAL
Note: The following floating-point exceptions are signalling: IEEE_UNDERFLOW_FLAG IEEE_DENORMAL
Note: The following floating-point exceptions are signalling: IEEE_UNDERFLOW_FLAG IEEE_DENORMAL
Note: The following floating-point exceptions are signalling: IEEE_UNDERFLOW_FLAG IEEE_DENORMAL
Note: The following floating-point exceptions are signalling: IEEE_UNDERFLOW_FLAG IEEE_DENORMAL
Note: The following floating-point exceptions are signalling: IEEE_UNDERFLOW_FLAG IEEE_DENORMAL
Note: The following floating-point exceptions are signalling: IEEE_UNDERFLOW_FLAG IEEE_DENORMAL
Note: The following floating-point exceptions are signalling: IEEE_UNDERFLOW_FLAG IEEE_DENORMAL
Note: The following floating-point exceptions are signalling: IEEE_UNDERFLOW_FLAG IEEE_DENORMAL
Note: The following floating-point exceptions are signalling: IEEE_UNDERFLOW_FLAG IEEE_DENORMAL
Note: The following floating-point exceptions are signalling: IEEE_UNDERFLOW_FLAG IEEE_DENORMAL
Note: The following floating-point exceptions are signalling: IEEE_UNDERFLOW_FLAG IEEE_DENORMAL
Note: The following floating-point exceptions are signalling: IEEE_UNDERFLOW_FLAG IEEE_DENORMAL
Note: The following floating-point exceptions are signalling: IEEE_UNDERFLOW_FLAG IEEE_DENORMAL
Note: The following floating-point exceptions are signalling: IEEE_UNDERFLOW_FLAG IEEE_DENORMAL
Note: The following floating-point exceptions are signalling: IEEE_UNDERFLOW_FLAG IEEE_DENORMAL
Note: The following floating-point exceptions are signalling: IEEE_UNDERFLOW_FLAG IEEE_DENORMAL
Note: The following floating-point exceptions are signalling: IEEE_UNDERFLOW_FLAG IEEE_DENORMAL
Note: The following floating-point exceptions are signalling: IEEE_UNDERFLOW_FLAG IEEE_DENORMAL
Note: The following floating-point exceptions are signalling: IEEE_UNDERFLOW_FLAG IEEE_DENORMAL
Note: The following floating-point exceptions are signalling: IEEE_UNDERFLOW_FLAG IEEE_DENORMAL
Note: The following floating-point exceptions are signalling: IEEE_UNDERFLOW_FLAG IEEE_DENORMAL
Note: The following floating-point exceptions are signalling: IEEE_UNDERFLOW_FLAG IEEE_DENORMAL
Note: The following floating-point exceptions are signalling: IEEE_UNDERFLOW_FLAG IEEE_DENORMAL
Note: The following floating-point exceptions are signalling: IEEE_UNDERFLOW_FLAG IEEE_DENORMAL
Note: The following floating-point exceptions are signalling: IEEE_UNDERFLOW_FLAG IEEE_DENORMAL
Note: The following floating-point exceptions are signalling: IEEE_UNDERFLOW_FLAG IEEE_DENORMAL
Note: The following floating-point exceptions are signalling: IEEE_UNDERFLOW_FLAG IEEE_DENORMAL
Note: The following floating-point exceptions are signalling: IEEE_UNDERFLOW_FLAG IEEE_DENORMAL
Note: The following floating-point exceptions are signalling: IEEE_UNDERFLOW_FLAG IEEE_DENORMAL
Note: The following floating-point exceptions are signalling: IEEE_UNDERFLOW_FLAG IEEE_DENORMAL
Note: The following floating-point exceptions are signalling: IEEE_UNDERFLOW_FLAG IEEE_DENORMAL
Note: The following floating-point exceptions are signalling: IEEE_UNDERFLOW_FLAG IEEE_DENORMAL
Note: The following floating-point exceptions are signalling: IEEE_UNDERFLOW_FLAG IEEE_DENORMAL
Note: The following floating-point exceptions are signalling: IEEE_UNDERFLOW_FLAG IEEE_DENORMAL
Note: The following floating-point exceptions are signalling: IEEE_UNDERFLOW_FLAG IEEE_DENORMAL
Note: The following floating-point exceptions are signalling: IEEE_UNDERFLOW_FLAG IEEE_DENORMAL
Note: The following floating-point exceptions are signalling: IEEE_UNDERFLOW_FLAG IEEE_DENORMAL
Note: The following floating-point exceptions are signalling: IEEE_UNDERFLOW_FLAG IEEE_DENORMAL
Note: The following floating-point exceptions are signalling: IEEE_UNDERFLOW_FLAG IEEE_DENORMAL
Note: The following floating-point exceptions are signalling: IEEE_UNDERFLOW_FLAG IEEE_DENORMAL
Note: The following floating-point exceptions are signalling: IEEE_UNDERFLOW_FLAG IEEE_DENORMAL
Note: The following floating-point exceptions are signalling: IEEE_UNDERFLOW_FLAG IEEE_DENORMAL
Note: The following floating-point exceptions are signalling: IEEE_UNDERFLOW_FLAG IEEE_DENORMAL
Note: The following floating-point exceptions are signalling: IEEE_UNDERFLOW_FLAG IEEE_DENORMAL
Note: The following floating-point exceptions are signalling: IEEE_UNDERFLOW_FLAG IEEE_DENORMAL