     Program PWSCF v.7.0 starts on  3Sep2025 at  0:15:53

     K-points division:     npool     =      16
     R & G space division:  proc/nbgrp/npool/nimage =       4

     Reading input from /home/jvc/QEspresso7.2/ZnO_database/scripts/cell321.in/ZnO-3.34-1.61-321.in
Warning: card &CELL ignored
Warning: card / ignored
Warning: card &FCP ignored
Warning: card / ignored
Warning: card &RISM ignored
Warning: card / ignored

     Current dimensions of program PWSCF are:
     Max number of different atomic species (ntypx) = 10
     Max number of k-points (npk) =  40000
     Max angular momentum in pseudopotentials (lmaxx) =  4
     file Zn.upf: wavefunction(s)  3D renormalized
     Found identity + ( -0.0000 -0.5000  0.0000) symmetry
     This is a supercell, fractional translations are disabled

     Using Slab Decomposition

     bravais-lattice index     =            0
     lattice parameter (alat)  =      18.9073  a.u.
     unit-cell volume          =    2099.9364 (a.u.)^3
     number of atoms/cell      =           24
     number of atomic types    =            2
     number of electrons       =       216.00
     number of Kohn-Sham states=          108
     kinetic-energy cutoff     =      50.0000  Ry
     charge density cutoff     =     400.0000  Ry
     scf convergence threshold =      1.0E-08
     mixing beta               =       0.3000
     number of iterations used =            8  plain     mixing
     Exchange-correlation= PBE
                           (   1   4   3   4   0   0   0)

     celldm(1)=  18.907293  celldm(2)=   0.000000  celldm(3)=   0.000000
     celldm(4)=   0.000000  celldm(5)=   0.000000  celldm(6)=   0.000000

     crystal axes: (cart. coord. in units of alat)
               a(1) = (   1.000000   0.000000   0.000000 )
               a(2) = (  -0.333333   0.577350   0.000000 )
               a(3) = (   0.000000   0.000000   0.538119 )

     reciprocal axes: (cart. coord. in units 2 pi/alat)
               b(1) = (  1.000000  0.577350 -0.000000 )
               b(2) = (  0.000000  1.732051  0.000000 )
               b(3) = (  0.000000 -0.000000  1.858323 )

     PseudoPot. # 1 for Zn read from file:
     /home/jvc/QEspresso7.2/ZnO_database/pseudos/Zn.upf
     MD5 check sum: 7f56cabf9682ed8c977c2f7d0c5985c5
     Pseudo is Ultrasoft + core correction, Zval = 12.0
     Generated using &quot;atomic&quot; code by A. Dal Corso  v.6.2.2
     Using radial grid of 1201 points,  6 beta functions with:
                l(1) =   0
                l(2) =   0
                l(3) =   1
                l(4) =   1
                l(5) =   2
                l(6) =   2
     Q(r) pseudized with 0 coefficients

     PseudoPot. # 2 for O  read from file:
     /home/jvc/QEspresso7.2/ZnO_database/pseudos/O.upf
     MD5 check sum: 91400c9766925bcf19f520983a725ff0
     Pseudo is Ultrasoft + core correction, Zval =  6.0
     Generated using &quot;atomic&quot; code by A. Dal Corso  v.6.3MaX
     Using radial grid of 1095 points,  4 beta functions with:
                l(1) =   0
                l(2) =   0
                l(3) =   1
                l(4) =   1
     Q(r) pseudized with 0 coefficients

     atomic species   valence    mass     pseudopotential
        Zn            12.00    65.38000     Zn( 1.00)
        O              6.00    15.99900     O ( 1.00)

     No symmetry found

                                    s                        frac. trans.

      isym =  1     identity

 cryst.   s( 1) = (     1          0          0      )
                  (     0          1          0      )
                  (     0          0          1      )

 cart.    s( 1) = (  1.0000000 -0.0000000  0.0000000 )
                  (  0.0000000  1.0000000  0.0000000 )
                  (  0.0000000  0.0000000  1.0000000 )

   Cartesian axes

     site n.     atom                  positions (alat units)
         1           Zn  tau(   1) = (   0.1666667   0.0962250   0.2694007  )
         2           Zn  tau(   2) = (   0.0000000   0.1924501   0.0003409  )
         3           O   tau(   3) = (   0.1666667   0.0962250   0.4733710  )
         4           O   tau(   4) = (   0.0000000   0.1924501   0.2043113  )
         5           Zn  tau(   5) = (   0.0000000   0.3849002   0.2694007  )
         6           Zn  tau(   6) = (  -0.1666667   0.4811252   0.0003409  )
         7           O   tau(   7) = (   0.0000000   0.3849002   0.4733710  )
         8           O   tau(   8) = (  -0.1666667   0.4811252   0.2043113  )
         9           Zn  tau(   9) = (   0.5000000   0.0962250   0.2694007  )
        10           Zn  tau(  10) = (   0.3333333   0.1924501   0.0003409  )
        11           O   tau(  11) = (   0.5000000   0.0962250   0.4733710  )
        12           O   tau(  12) = (   0.3333333   0.1924501   0.2043113  )
        13           Zn  tau(  13) = (   0.3333333   0.3849002   0.2694007  )
        14           Zn  tau(  14) = (   0.1666667   0.4811252   0.0003409  )
        15           O   tau(  15) = (   0.3333333   0.3849002   0.4733710  )
        16           O   tau(  16) = (   0.1666667   0.4811252   0.2043113  )
        17           Zn  tau(  17) = (   0.8333333   0.0962250   0.2694007  )
        18           Zn  tau(  18) = (   0.6666667   0.1924501   0.0003409  )
        19           O   tau(  19) = (   0.8333333   0.0962250   0.4733710  )
        20           O   tau(  20) = (   0.6666667   0.1924501   0.2043113  )
        21           Zn  tau(  21) = (   0.6666667   0.3849002   0.2694007  )
        22           Zn  tau(  22) = (   0.5000000   0.4811252   0.0003409  )
        23           O   tau(  23) = (   0.6666667   0.3849002   0.4733710  )
        24           O   tau(  24) = (   0.5000000   0.4811252   0.2043113  )

   Crystallographic axes

     site n.     atom                  positions (cryst. coord.)
         1           Zn  tau(   1) = (  0.2222222  0.1666667  0.5006336  )
         2           Zn  tau(   2) = (  0.1111111  0.3333333  0.0006336  )
         3           O   tau(   3) = (  0.2222222  0.1666667  0.8796764  )
         4           O   tau(   4) = (  0.1111111  0.3333333  0.3796764  )
         5           Zn  tau(   5) = (  0.2222222  0.6666667  0.5006336  )
         6           Zn  tau(   6) = (  0.1111111  0.8333333  0.0006336  )
         7           O   tau(   7) = (  0.2222222  0.6666667  0.8796764  )
         8           O   tau(   8) = (  0.1111111  0.8333333  0.3796764  )
         9           Zn  tau(   9) = (  0.5555556  0.1666667  0.5006336  )
        10           Zn  tau(  10) = (  0.4444444  0.3333333  0.0006336  )
        11           O   tau(  11) = (  0.5555556  0.1666667  0.8796764  )
        12           O   tau(  12) = (  0.4444444  0.3333333  0.3796764  )
        13           Zn  tau(  13) = (  0.5555556  0.6666667  0.5006336  )
        14           Zn  tau(  14) = (  0.4444444  0.8333333  0.0006336  )
        15           O   tau(  15) = (  0.5555556  0.6666667  0.8796764  )
        16           O   tau(  16) = (  0.4444444  0.8333333  0.3796764  )
        17           Zn  tau(  17) = (  0.8888889  0.1666667  0.5006336  )
        18           Zn  tau(  18) = (  0.7777778  0.3333333  0.0006336  )
        19           O   tau(  19) = (  0.8888889  0.1666667  0.8796764  )
        20           O   tau(  20) = (  0.7777778  0.3333333  0.3796764  )
        21           Zn  tau(  21) = (  0.8888889  0.6666667  0.5006336  )
        22           Zn  tau(  22) = (  0.7777778  0.8333333  0.0006336  )
        23           O   tau(  23) = (  0.8888889  0.6666667  0.8796764  )
        24           O   tau(  24) = (  0.7777778  0.8333333  0.3796764  )

     number of k points=   112
                       cart. coord. in units 2pi/alat
        k(    1) = (   0.0000000   0.0000000   0.0000000), wk =   0.0092593
        k(    2) = (   0.0000000   0.0000000   0.3097206), wk =   0.0185185
        k(    3) = (   0.0000000   0.0000000   0.6194412), wk =   0.0185185
        k(    4) = (   0.0000000   0.0000000  -0.9291617), wk =   0.0092593
        k(    5) = (   0.0000000   0.2886751   0.0000000), wk =   0.0185185
        k(    6) = (   0.0000000   0.2886751   0.3097206), wk =   0.0185185
        k(    7) = (   0.0000000   0.2886751   0.6194412), wk =   0.0185185
        k(    8) = (   0.0000000   0.2886751  -0.9291617), wk =   0.0185185
        k(    9) = (   0.0000000   0.5773503   0.0000000), wk =   0.0185185
        k(   10) = (   0.0000000   0.5773503   0.3097206), wk =   0.0185185
        k(   11) = (   0.0000000   0.5773503   0.6194412), wk =   0.0185185
        k(   12) = (   0.0000000   0.5773503  -0.9291617), wk =   0.0185185
        k(   13) = (   0.0000000  -0.8660254   0.0000000), wk =   0.0092593
        k(   14) = (   0.0000000  -0.8660254   0.3097206), wk =   0.0185185
        k(   15) = (   0.0000000  -0.8660254   0.6194412), wk =   0.0185185
        k(   16) = (   0.0000000  -0.8660254  -0.9291617), wk =   0.0092593
        k(   17) = (   0.1666667   0.0962250   0.0000000), wk =   0.0185185
        k(   18) = (   0.1666667   0.0962250   0.3097206), wk =   0.0185185
        k(   19) = (   0.1666667   0.0962250   0.6194412), wk =   0.0185185
        k(   20) = (   0.1666667   0.0962250  -0.9291617), wk =   0.0185185
        k(   21) = (   0.1666667   0.3849002   0.0000000), wk =   0.0185185
        k(   22) = (   0.1666667   0.3849002   0.3097206), wk =   0.0185185
        k(   23) = (   0.1666667   0.3849002   0.6194412), wk =   0.0185185
        k(   24) = (   0.1666667   0.3849002  -0.9291617), wk =   0.0185185
        k(   25) = (   0.1666667   0.6735753   0.0000000), wk =   0.0185185
        k(   26) = (   0.1666667   0.6735753   0.3097206), wk =   0.0185185
        k(   27) = (   0.1666667   0.6735753   0.6194412), wk =   0.0185185
        k(   28) = (   0.1666667   0.6735753  -0.9291617), wk =   0.0185185
        k(   29) = (   0.1666667  -0.7698004   0.0000000), wk =   0.0185185
        k(   30) = (   0.1666667  -0.7698004   0.3097206), wk =   0.0185185
        k(   31) = (   0.1666667  -0.7698004   0.6194412), wk =   0.0185185
        k(   32) = (   0.1666667  -0.7698004  -0.9291617), wk =   0.0185185
        k(   33) = (   0.1666667  -0.4811252   0.0000000), wk =   0.0185185
        k(   34) = (   0.1666667  -0.4811252   0.3097206), wk =   0.0185185
        k(   35) = (   0.1666667  -0.4811252   0.6194412), wk =   0.0185185
        k(   36) = (   0.1666667  -0.4811252  -0.9291617), wk =   0.0185185
        k(   37) = (   0.1666667  -0.1924501   0.0000000), wk =   0.0185185
        k(   38) = (   0.1666667  -0.1924501   0.3097206), wk =   0.0185185
        k(   39) = (   0.1666667  -0.1924501   0.6194412), wk =   0.0185185
        k(   40) = (   0.1666667  -0.1924501  -0.9291617), wk =   0.0185185
        k(   41) = (   0.3333333   0.1924501   0.0000000), wk =   0.0185185
        k(   42) = (   0.3333333   0.1924501   0.3097206), wk =   0.0185185
        k(   43) = (   0.3333333   0.1924501   0.6194412), wk =   0.0185185
        k(   44) = (   0.3333333   0.1924501  -0.9291617), wk =   0.0185185
        k(   45) = (   0.3333333   0.4811252   0.0000000), wk =   0.0185185
[...]
     atom   12 type  2   force =     0.00000713    0.00000510    0.00588947
     atom   13 type  1   force =     0.00000234    0.00000191   -0.00460832
     atom   14 type  1   force =    -0.00000353   -0.00000131   -0.00460906
     atom   15 type  2   force =    -0.00000577   -0.00000216    0.00589143
     atom   16 type  2   force =     0.00000612    0.00000288    0.00588945
     atom   17 type  1   force =     0.00000203    0.00000105   -0.00460912
     atom   18 type  1   force =    -0.00000298   -0.00000198   -0.00461019
     atom   19 type  2   force =    -0.00000601   -0.00000310    0.00589020
     atom   20 type  2   force =     0.00000648    0.00000329    0.00588921
     atom   21 type  1   force =     0.00000314    0.00000200   -0.00460859
     atom   22 type  1   force =    -0.00000187   -0.00000113   -0.00460921
     atom   23 type  2   force =    -0.00000596   -0.00000389    0.00589111
     atom   24 type  2   force =     0.00000621    0.00000240    0.00588934
     The ionic contribution  to forces
     atom    1 type  1   force =     0.00000001    0.00000001    0.06028145
     atom    2 type  1   force =     0.00000001    0.00000000    0.06028145
     atom    3 type  2   force =     0.00000000    0.00000000   -0.06028145
     atom    4 type  2   force =     0.00000000    0.00000000   -0.06028145
     atom    5 type  1   force =     0.00000001    0.00000001    0.06028145
     atom    6 type  1   force =     0.00000001    0.00000000    0.06028145
     atom    7 type  2   force =     0.00000000    0.00000000   -0.06028145
     atom    8 type  2   force =     0.00000000    0.00000000   -0.06028145
     atom    9 type  1   force =    -0.00000001    0.00000000    0.06028145
     atom   10 type  1   force =     0.00000001   -0.00000000    0.06028145
     atom   11 type  2   force =    -0.00000001    0.00000000   -0.06028145
     atom   12 type  2   force =     0.00000001   -0.00000000   -0.06028145
     atom   13 type  1   force =    -0.00000001    0.00000000    0.06028145
     atom   14 type  1   force =     0.00000001   -0.00000000    0.06028145
     atom   15 type  2   force =    -0.00000001    0.00000000   -0.06028145
     atom   16 type  2   force =     0.00000001   -0.00000000   -0.06028145
     atom   17 type  1   force =    -0.00000001   -0.00000000    0.06028145
     atom   18 type  1   force =    -0.00000001   -0.00000001    0.06028145
     atom   19 type  2   force =    -0.00000000   -0.00000000   -0.06028145
     atom   20 type  2   force =    -0.00000000   -0.00000000   -0.06028145
     atom   21 type  1   force =    -0.00000001   -0.00000000    0.06028145
     atom   22 type  1   force =    -0.00000001   -0.00000001    0.06028145
     atom   23 type  2   force =    -0.00000000   -0.00000000   -0.06028145
     atom   24 type  2   force =    -0.00000000   -0.00000000   -0.06028145
     The local contribution  to forces
     atom    1 type  1   force =    -0.00000401   -0.00000004   -0.05613318
     atom    2 type  1   force =     0.00000219    0.00000170   -0.05613808
     atom    3 type  2   force =     0.00000864    0.00000195    0.05451429
     atom    4 type  2   force =    -0.00000721   -0.00000383    0.05451724
     atom    5 type  1   force =    -0.00000339   -0.00000068   -0.05613367
     atom    6 type  1   force =     0.00000006   -0.00000127   -0.05613257
     atom    7 type  2   force =     0.00000696    0.00000196    0.05451443
     atom    8 type  2   force =    -0.00000830   -0.00000393    0.05451521
     atom    9 type  1   force =    -0.00000177    0.00000026   -0.05613395
     atom   10 type  1   force =     0.00000216    0.00000345   -0.05613334
     atom   11 type  2   force =     0.00000728    0.00000356    0.05451720
     atom   12 type  2   force =    -0.00000710   -0.00000144    0.05451654
     atom   13 type  1   force =    -0.00000169   -0.00000226   -0.05613714
     atom   14 type  1   force =     0.00000476    0.00000097   -0.05613470
     atom   15 type  2   force =     0.00000714    0.00000442    0.05451429
     atom   16 type  2   force =    -0.00000731   -0.00000470    0.05451504
     atom   17 type  1   force =    -0.00000073    0.00000061   -0.05613484
     atom   18 type  1   force =     0.00000460    0.00000177   -0.05613153
     atom   19 type  2   force =     0.00000708    0.00000309    0.05451617
     atom   20 type  2   force =    -0.00000821   -0.00000160    0.05451312
     atom   21 type  1   force =    -0.00000420   -0.00000108   -0.05613620
     atom   22 type  1   force =    -0.00000075   -0.00000005   -0.05613435
     atom   23 type  2   force =     0.00000562    0.00000314    0.05451509
     atom   24 type  2   force =    -0.00000861   -0.00000466    0.05451736
     The core correction contribution to forces
     atom    1 type  1   force =    -0.00000041   -0.00000004    0.00040799
     atom    2 type  1   force =     0.00000042    0.00000037    0.00040796
     atom    3 type  2   force =     0.00000009    0.00000002   -0.00006609
     atom    4 type  2   force =    -0.00000004   -0.00000003   -0.00006607
     atom    5 type  1   force =    -0.00000031   -0.00000030    0.00040799
     atom    6 type  1   force =     0.00000037    0.00000006    0.00040804
     atom    7 type  2   force =     0.00000006    0.00000004   -0.00006607
     atom    8 type  2   force =    -0.00000010   -0.00000002   -0.00006608
     atom    9 type  1   force =    -0.00000019   -0.00000004    0.00040801
     atom   10 type  1   force =     0.00000036    0.00000028    0.00040804
     atom   11 type  2   force =     0.00000008    0.00000007   -0.00006606
     atom   12 type  2   force =    -0.00000010   -0.00000006   -0.00006606
     atom   13 type  1   force =    -0.00000040   -0.00000030    0.00040796
     atom   14 type  1   force =     0.00000023    0.00000011    0.00040799
     atom   15 type  2   force =     0.00000008    0.00000002   -0.00006609
     atom   16 type  2   force =    -0.00000009   -0.00000005   -0.00006607
     atom   17 type  1   force =    -0.00000040   -0.00000005    0.00040797
     atom   18 type  1   force =     0.00000032    0.00000041    0.00040804
     atom   19 type  2   force =     0.00000008    0.00000003   -0.00006608
     atom   20 type  2   force =    -0.00000009   -0.00000002   -0.00006607
     atom   21 type  1   force =    -0.00000039   -0.00000035    0.00040802
     atom   22 type  1   force =     0.00000039    0.00000001    0.00040798
     atom   23 type  2   force =     0.00000005    0.00000004   -0.00006610
     atom   24 type  2   force =    -0.00000007   -0.00000004   -0.00006606
     The Hubbard contrib.    to forces
     atom    1 type  1   force =     0.00000000    0.00000000    0.00000000
     atom    2 type  1   force =     0.00000000    0.00000000    0.00000000
     atom    3 type  2   force =     0.00000000    0.00000000    0.00000000
     atom    4 type  2   force =     0.00000000    0.00000000    0.00000000
     atom    5 type  1   force =     0.00000000    0.00000000    0.00000000
     atom    6 type  1   force =     0.00000000    0.00000000    0.00000000
     atom    7 type  2   force =     0.00000000    0.00000000    0.00000000
     atom    8 type  2   force =     0.00000000    0.00000000    0.00000000
     atom    9 type  1   force =     0.00000000    0.00000000    0.00000000
     atom   10 type  1   force =     0.00000000    0.00000000    0.00000000
     atom   11 type  2   force =     0.00000000    0.00000000    0.00000000
     atom   12 type  2   force =     0.00000000    0.00000000    0.00000000
     atom   13 type  1   force =     0.00000000    0.00000000    0.00000000
     atom   14 type  1   force =     0.00000000    0.00000000    0.00000000
     atom   15 type  2   force =     0.00000000    0.00000000    0.00000000
     atom   16 type  2   force =     0.00000000    0.00000000    0.00000000
     atom   17 type  1   force =     0.00000000    0.00000000    0.00000000
     atom   18 type  1   force =     0.00000000    0.00000000    0.00000000
     atom   19 type  2   force =     0.00000000    0.00000000    0.00000000
     atom   20 type  2   force =     0.00000000    0.00000000    0.00000000
     atom   21 type  1   force =     0.00000000    0.00000000    0.00000000
     atom   22 type  1   force =     0.00000000    0.00000000    0.00000000
     atom   23 type  2   force =     0.00000000    0.00000000    0.00000000
     atom   24 type  2   force =     0.00000000    0.00000000    0.00000000
     The SCF correction term to forces
     atom    1 type  1   force =     0.00000200   -0.00000204    0.00001070
     atom    2 type  1   force =    -0.00000086   -0.00000050    0.00001898
     atom    3 type  2   force =    -0.00000139    0.00000010   -0.00000273
     atom    4 type  2   force =     0.00000214    0.00000047   -0.00000538
     atom    5 type  1   force =     0.00000356   -0.00000600    0.00000960
     atom    6 type  1   force =     0.00000377    0.00000544    0.00000661
     atom    7 type  2   force =    -0.00000211    0.00000259   -0.00000191
     atom    8 type  2   force =     0.00000132    0.00000154   -0.00000360
     atom    9 type  1   force =    -0.00000074   -0.00000488    0.00000865
     atom   10 type  1   force =     0.00000008   -0.00000282    0.00000852
     atom   11 type  2   force =    -0.00000159    0.00000108   -0.00000488
     atom   12 type  2   force =     0.00000020   -0.00000316   -0.00000419
     atom   13 type  1   force =     0.00000101    0.00000218    0.00001608
     atom   14 type  1   force =    -0.00000321   -0.00000033    0.00001074
     atom   15 type  2   force =    -0.00000146   -0.00000199   -0.00000368
     atom   16 type  2   force =     0.00000140    0.00000175   -0.00000279
     atom   17 type  1   force =    -0.00000169   -0.00000443    0.00001194
     atom   18 type  1   force =    -0.00000588   -0.00000125    0.00000528
     atom   19 type  2   force =    -0.00000125    0.00000011   -0.00000444
     atom   20 type  2   force =     0.00000203   -0.00000164   -0.00000067
     atom   21 type  1   force =     0.00000426   -0.00000297    0.00001266
     atom   22 type  1   force =     0.00000540    0.00000316    0.00001168
     atom   23 type  2   force =     0.00000035    0.00000056   -0.00000404
     atom   24 type  2   force =     0.00000245    0.00000217   -0.00000506

     Total force =     0.000239     Total SCF correction =     0.000046
     SCF correction compared to forces is large: reduce conv_thr to get better values

     General routines

     Parallel routines

   This run was terminated on:   0:40:56   3Sep2025

   JOB DONE.
Note: The following floating-point exceptions are signalling: IEEE_UNDERFLOW_FLAG IEEE_DENORMAL
Note: The following floating-point exceptions are signalling: IEEE_UNDERFLOW_FLAG IEEE_DENORMAL
Note: The following floating-point exceptions are signalling: IEEE_UNDERFLOW_FLAG IEEE_DENORMAL
Note: The following floating-point exceptions are signalling: IEEE_UNDERFLOW_FLAG IEEE_DENORMAL
Note: The following floating-point exceptions are signalling: IEEE_UNDERFLOW_FLAG IEEE_DENORMAL
Note: The following floating-point exceptions are signalling: IEEE_UNDERFLOW_FLAG IEEE_DENORMAL
Note: The following floating-point exceptions are signalling: IEEE_UNDERFLOW_FLAG IEEE_DENORMAL
Note: The following floating-point exceptions are signalling: IEEE_UNDERFLOW_FLAG IEEE_DENORMAL
Note: The following floating-point exceptions are signalling: IEEE_UNDERFLOW_FLAG IEEE_DENORMAL
Note: The following floating-point exceptions are signalling: IEEE_UNDERFLOW_FLAG IEEE_DENORMAL
Note: The following floating-point exceptions are signalling: IEEE_UNDERFLOW_FLAG IEEE_DENORMAL
Note: The following floating-point exceptions are signalling: IEEE_UNDERFLOW_FLAG IEEE_DENORMAL
Note: The following floating-point exceptions are signalling: IEEE_UNDERFLOW_FLAG IEEE_DENORMAL
Note: The following floating-point exceptions are signalling: IEEE_UNDERFLOW_FLAG IEEE_DENORMAL
Note: The following floating-point exceptions are signalling: IEEE_UNDERFLOW_FLAG IEEE_DENORMAL
Note: The following floating-point exceptions are signalling: IEEE_UNDERFLOW_FLAG IEEE_DENORMAL
Note: The following floating-point exceptions are signalling: IEEE_UNDERFLOW_FLAG IEEE_DENORMAL
Note: The following floating-point exceptions are signalling: IEEE_UNDERFLOW_FLAG IEEE_DENORMAL
Note: The following floating-point exceptions are signalling: IEEE_UNDERFLOW_FLAG IEEE_DENORMAL
Note: The following floating-point exceptions are signalling: IEEE_UNDERFLOW_FLAG IEEE_DENORMAL
Note: The following floating-point exceptions are signalling: IEEE_UNDERFLOW_FLAG IEEE_DENORMAL
Note: The following floating-point exceptions are signalling: IEEE_UNDERFLOW_FLAG IEEE_DENORMAL
Note: The following floating-point exceptions are signalling: IEEE_UNDERFLOW_FLAG IEEE_DENORMAL
Note: The following floating-point exceptions are signalling: IEEE_UNDERFLOW_FLAG IEEE_DENORMAL
Note: The following floating-point exceptions are signalling: IEEE_UNDERFLOW_FLAG IEEE_DENORMAL
Note: The following floating-point exceptions are signalling: IEEE_UNDERFLOW_FLAG IEEE_DENORMAL
Note: The following floating-point exceptions are signalling: IEEE_UNDERFLOW_FLAG IEEE_DENORMAL
Note: The following floating-point exceptions are signalling: IEEE_UNDERFLOW_FLAG IEEE_DENORMAL
Note: The following floating-point exceptions are signalling: IEEE_UNDERFLOW_FLAG IEEE_DENORMAL
Note: The following floating-point exceptions are signalling: IEEE_UNDERFLOW_FLAG IEEE_DENORMAL
Note: The following floating-point exceptions are signalling: IEEE_UNDERFLOW_FLAG IEEE_DENORMAL
Note: The following floating-point exceptions are signalling: IEEE_UNDERFLOW_FLAG IEEE_DENORMAL
Note: The following floating-point exceptions are signalling: IEEE_UNDERFLOW_FLAG IEEE_DENORMAL
Note: The following floating-point exceptions are signalling: IEEE_UNDERFLOW_FLAG IEEE_DENORMAL
Note: The following floating-point exceptions are signalling: IEEE_UNDERFLOW_FLAG IEEE_DENORMAL
Note: The following floating-point exceptions are signalling: IEEE_UNDERFLOW_FLAG IEEE_DENORMAL
Note: The following floating-point exceptions are signalling: IEEE_UNDERFLOW_FLAG IEEE_DENORMAL
Note: The following floating-point exceptions are signalling: IEEE_UNDERFLOW_FLAG IEEE_DENORMAL
Note: The following floating-point exceptions are signalling: IEEE_UNDERFLOW_FLAG IEEE_DENORMAL
Note: The following floating-point exceptions are signalling: IEEE_UNDERFLOW_FLAG IEEE_DENORMAL
Note: The following floating-point exceptions are signalling: IEEE_UNDERFLOW_FLAG IEEE_DENORMAL
Note: The following floating-point exceptions are signalling: IEEE_UNDERFLOW_FLAG IEEE_DENORMAL
Note: The following floating-point exceptions are signalling: IEEE_UNDERFLOW_FLAG IEEE_DENORMAL
Note: The following floating-point exceptions are signalling: IEEE_UNDERFLOW_FLAG IEEE_DENORMAL
Note: The following floating-point exceptions are signalling: IEEE_UNDERFLOW_FLAG IEEE_DENORMAL
Note: The following floating-point exceptions are signalling: IEEE_UNDERFLOW_FLAG IEEE_DENORMAL
Note: The following floating-point exceptions are signalling: IEEE_UNDERFLOW_FLAG IEEE_DENORMAL
Note: The following floating-point exceptions are signalling: IEEE_UNDERFLOW_FLAG IEEE_DENORMAL
Note: The following floating-point exceptions are signalling: IEEE_UNDERFLOW_FLAG IEEE_DENORMAL
Note: The following floating-point exceptions are signalling: IEEE_UNDERFLOW_FLAG IEEE_DENORMAL
Note: The following floating-point exceptions are signalling: IEEE_UNDERFLOW_FLAG IEEE_DENORMAL
Note: The following floating-point exceptions are signalling: IEEE_UNDERFLOW_FLAG IEEE_DENORMAL
Note: The following floating-point exceptions are signalling: IEEE_UNDERFLOW_FLAG IEEE_DENORMAL
Note: The following floating-point exceptions are signalling: IEEE_UNDERFLOW_FLAG IEEE_DENORMAL
Note: The following floating-point exceptions are signalling: IEEE_UNDERFLOW_FLAG IEEE_DENORMAL
Note: The following floating-point exceptions are signalling: IEEE_UNDERFLOW_FLAG IEEE_DENORMAL
Note: The following floating-point exceptions are signalling: IEEE_UNDERFLOW_FLAG IEEE_DENORMAL
Note: The following floating-point exceptions are signalling: IEEE_UNDERFLOW_FLAG IEEE_DENORMAL
Note: The following floating-point exceptions are signalling: IEEE_UNDERFLOW_FLAG IEEE_DENORMAL
Note: The following floating-point exceptions are signalling: IEEE_UNDERFLOW_FLAG IEEE_DENORMAL
Note: The following floating-point exceptions are signalling: IEEE_UNDERFLOW_FLAG IEEE_DENORMAL
Note: The following floating-point exceptions are signalling: IEEE_UNDERFLOW_FLAG IEEE_DENORMAL
Note: The following floating-point exceptions are signalling: IEEE_UNDERFLOW_FLAG IEEE_DENORMAL
Note: The following floating-point exceptions are signalling: IEEE_UNDERFLOW_FLAG IEEE_DENORMAL