     Program PWSCF v.7.0 starts on  3Sep2025 at 15:36: 4

     K-points division:     npool     =      16
     R & G space division:  proc/nbgrp/npool/nimage =       4

     Reading input from /home/jvc/QEspresso7.2/ZnO_database/scripts/cell321.in/ZnO-3.53-1.49-321.in
Warning: card &CELL ignored
Warning: card / ignored
Warning: card &FCP ignored
Warning: card / ignored
Warning: card &RISM ignored
Warning: card / ignored

     Current dimensions of program PWSCF are:
     Max number of different atomic species (ntypx) = 10
     Max number of k-points (npk) =  40000
     Max angular momentum in pseudopotentials (lmaxx) =  4
     file Zn.upf: wavefunction(s)  3D renormalized
     Found identity + (  0.0000 -0.5000  0.0000) symmetry
     This is a supercell, fractional translations are disabled

     Using Slab Decomposition

     bravais-lattice index     =            0
     lattice parameter (alat)  =      20.0195  a.u.
     unit-cell volume          =    2293.3203 (a.u.)^3
     number of atoms/cell      =           24
     number of atomic types    =            2
     number of electrons       =       216.00
     number of Kohn-Sham states=          108
     kinetic-energy cutoff     =      50.0000  Ry
     charge density cutoff     =     400.0000  Ry
     scf convergence threshold =      1.0E-08
     mixing beta               =       0.3000
     number of iterations used =            8  plain     mixing
     Exchange-correlation= PBE
                           (   1   4   3   4   0   0   0)

     celldm(1)=  20.019487  celldm(2)=   0.000000  celldm(3)=   0.000000
     celldm(4)=   0.000000  celldm(5)=   0.000000  celldm(6)=   0.000000

     crystal axes: (cart. coord. in units of alat)
               a(1) = (   1.000000   0.000000   0.000000 )
               a(2) = (  -0.333333   0.577350   0.000000 )
               a(3) = (   0.000000   0.000000   0.495070 )

     reciprocal axes: (cart. coord. in units 2 pi/alat)
               b(1) = (  1.000000  0.577350 -0.000000 )
               b(2) = (  0.000000  1.732051  0.000000 )
               b(3) = (  0.000000 -0.000000  2.019917 )

     PseudoPot. # 1 for Zn read from file:
     /home/jvc/QEspresso7.2/ZnO_database/pseudos/Zn.upf
     MD5 check sum: 7f56cabf9682ed8c977c2f7d0c5985c5
     Pseudo is Ultrasoft + core correction, Zval = 12.0
     Generated using &quot;atomic&quot; code by A. Dal Corso  v.6.2.2
     Using radial grid of 1201 points,  6 beta functions with:
                l(1) =   0
                l(2) =   0
                l(3) =   1
                l(4) =   1
                l(5) =   2
                l(6) =   2
     Q(r) pseudized with 0 coefficients

     PseudoPot. # 2 for O  read from file:
     /home/jvc/QEspresso7.2/ZnO_database/pseudos/O.upf
     MD5 check sum: 91400c9766925bcf19f520983a725ff0
     Pseudo is Ultrasoft + core correction, Zval =  6.0
     Generated using &quot;atomic&quot; code by A. Dal Corso  v.6.3MaX
     Using radial grid of 1095 points,  4 beta functions with:
                l(1) =   0
                l(2) =   0
                l(3) =   1
                l(4) =   1
     Q(r) pseudized with 0 coefficients

     atomic species   valence    mass     pseudopotential
        Zn            12.00    65.38000     Zn( 1.00)
        O              6.00    15.99900     O ( 1.00)

     No symmetry found

                                    s                        frac. trans.

      isym =  1     identity

 cryst.   s( 1) = (     1          0          0      )
                  (     0          1          0      )
                  (     0          0          1      )

 cart.    s( 1) = (  1.0000000  0.0000000  0.0000000 )
                  (  0.0000000  1.0000000  0.0000000 )
                  (  0.0000000  0.0000000  1.0000000 )

   Cartesian axes

     site n.     atom                  positions (alat units)
         1           Zn  tau(   1) = (   0.1666667   0.0962250   0.2478486  )
         2           Zn  tau(   2) = (  -0.0000000   0.1924501   0.0003137  )
         3           O   tau(   3) = (   0.1666667   0.0962250   0.4355013  )
         4           O   tau(   4) = (  -0.0000000   0.1924501   0.1879664  )
         5           Zn  tau(   5) = (  -0.0000000   0.3849002   0.2478486  )
         6           Zn  tau(   6) = (  -0.1666667   0.4811252   0.0003137  )
         7           O   tau(   7) = (  -0.0000000   0.3849002   0.4355013  )
         8           O   tau(   8) = (  -0.1666667   0.4811252   0.1879664  )
         9           Zn  tau(   9) = (   0.5000000   0.0962250   0.2478486  )
        10           Zn  tau(  10) = (   0.3333333   0.1924501   0.0003137  )
        11           O   tau(  11) = (   0.5000000   0.0962250   0.4355013  )
        12           O   tau(  12) = (   0.3333333   0.1924501   0.1879664  )
        13           Zn  tau(  13) = (   0.3333333   0.3849002   0.2478486  )
        14           Zn  tau(  14) = (   0.1666667   0.4811252   0.0003137  )
        15           O   tau(  15) = (   0.3333333   0.3849002   0.4355013  )
        16           O   tau(  16) = (   0.1666667   0.4811252   0.1879664  )
        17           Zn  tau(  17) = (   0.8333333   0.0962250   0.2478486  )
        18           Zn  tau(  18) = (   0.6666667   0.1924501   0.0003137  )
        19           O   tau(  19) = (   0.8333333   0.0962250   0.4355013  )
        20           O   tau(  20) = (   0.6666667   0.1924501   0.1879664  )
        21           Zn  tau(  21) = (   0.6666667   0.3849002   0.2478486  )
        22           Zn  tau(  22) = (   0.5000000   0.4811252   0.0003137  )
        23           O   tau(  23) = (   0.6666667   0.3849002   0.4355013  )
        24           O   tau(  24) = (   0.5000000   0.4811252   0.1879664  )

   Crystallographic axes

     site n.     atom                  positions (cryst. coord.)
         1           Zn  tau(   1) = (  0.2222222  0.1666667  0.5006336  )
         2           Zn  tau(   2) = (  0.1111111  0.3333333  0.0006336  )
         3           O   tau(   3) = (  0.2222222  0.1666667  0.8796764  )
         4           O   tau(   4) = (  0.1111111  0.3333333  0.3796764  )
         5           Zn  tau(   5) = (  0.2222222  0.6666667  0.5006336  )
         6           Zn  tau(   6) = (  0.1111111  0.8333333  0.0006336  )
         7           O   tau(   7) = (  0.2222222  0.6666667  0.8796764  )
         8           O   tau(   8) = (  0.1111111  0.8333333  0.3796764  )
         9           Zn  tau(   9) = (  0.5555556  0.1666667  0.5006336  )
        10           Zn  tau(  10) = (  0.4444444  0.3333333  0.0006336  )
        11           O   tau(  11) = (  0.5555556  0.1666667  0.8796764  )
        12           O   tau(  12) = (  0.4444444  0.3333333  0.3796764  )
        13           Zn  tau(  13) = (  0.5555556  0.6666667  0.5006336  )
        14           Zn  tau(  14) = (  0.4444444  0.8333333  0.0006336  )
        15           O   tau(  15) = (  0.5555556  0.6666667  0.8796764  )
        16           O   tau(  16) = (  0.4444444  0.8333333  0.3796764  )
        17           Zn  tau(  17) = (  0.8888889  0.1666667  0.5006336  )
        18           Zn  tau(  18) = (  0.7777778  0.3333333  0.0006336  )
        19           O   tau(  19) = (  0.8888889  0.1666667  0.8796764  )
        20           O   tau(  20) = (  0.7777778  0.3333333  0.3796764  )
        21           Zn  tau(  21) = (  0.8888889  0.6666667  0.5006336  )
        22           Zn  tau(  22) = (  0.7777778  0.8333333  0.0006336  )
        23           O   tau(  23) = (  0.8888889  0.6666667  0.8796764  )
        24           O   tau(  24) = (  0.7777778  0.8333333  0.3796764  )

     number of k points=   112
                       cart. coord. in units 2pi/alat
        k(    1) = (   0.0000000   0.0000000   0.0000000), wk =   0.0092593
        k(    2) = (   0.0000000   0.0000000   0.3366528), wk =   0.0185185
        k(    3) = (   0.0000000   0.0000000   0.6733056), wk =   0.0185185
        k(    4) = (   0.0000000   0.0000000  -1.0099584), wk =   0.0092593
        k(    5) = (   0.0000000   0.2886751   0.0000000), wk =   0.0185185
        k(    6) = (   0.0000000   0.2886751   0.3366528), wk =   0.0185185
        k(    7) = (   0.0000000   0.2886751   0.6733056), wk =   0.0185185
        k(    8) = (   0.0000000   0.2886751  -1.0099584), wk =   0.0185185
        k(    9) = (   0.0000000   0.5773503   0.0000000), wk =   0.0185185
        k(   10) = (   0.0000000   0.5773503   0.3366528), wk =   0.0185185
        k(   11) = (   0.0000000   0.5773503   0.6733056), wk =   0.0185185
        k(   12) = (   0.0000000   0.5773503  -1.0099584), wk =   0.0185185
        k(   13) = (   0.0000000  -0.8660254   0.0000000), wk =   0.0092593
        k(   14) = (   0.0000000  -0.8660254   0.3366528), wk =   0.0185185
        k(   15) = (   0.0000000  -0.8660254   0.6733056), wk =   0.0185185
        k(   16) = (   0.0000000  -0.8660254  -1.0099584), wk =   0.0092593
        k(   17) = (   0.1666667   0.0962250   0.0000000), wk =   0.0185185
        k(   18) = (   0.1666667   0.0962250   0.3366528), wk =   0.0185185
        k(   19) = (   0.1666667   0.0962250   0.6733056), wk =   0.0185185
        k(   20) = (   0.1666667   0.0962250  -1.0099584), wk =   0.0185185
        k(   21) = (   0.1666667   0.3849002   0.0000000), wk =   0.0185185
        k(   22) = (   0.1666667   0.3849002   0.3366528), wk =   0.0185185
        k(   23) = (   0.1666667   0.3849002   0.6733056), wk =   0.0185185
        k(   24) = (   0.1666667   0.3849002  -1.0099584), wk =   0.0185185
        k(   25) = (   0.1666667   0.6735753   0.0000000), wk =   0.0185185
        k(   26) = (   0.1666667   0.6735753   0.3366528), wk =   0.0185185
        k(   27) = (   0.1666667   0.6735753   0.6733056), wk =   0.0185185
        k(   28) = (   0.1666667   0.6735753  -1.0099584), wk =   0.0185185
        k(   29) = (   0.1666667  -0.7698004   0.0000000), wk =   0.0185185
        k(   30) = (   0.1666667  -0.7698004   0.3366528), wk =   0.0185185
        k(   31) = (   0.1666667  -0.7698004   0.6733056), wk =   0.0185185
        k(   32) = (   0.1666667  -0.7698004  -1.0099584), wk =   0.0185185
        k(   33) = (   0.1666667  -0.4811252   0.0000000), wk =   0.0185185
        k(   34) = (   0.1666667  -0.4811252   0.3366528), wk =   0.0185185
        k(   35) = (   0.1666667  -0.4811252   0.6733056), wk =   0.0185185
        k(   36) = (   0.1666667  -0.4811252  -1.0099584), wk =   0.0185185
        k(   37) = (   0.1666667  -0.1924501   0.0000000), wk =   0.0185185
        k(   38) = (   0.1666667  -0.1924501   0.3366528), wk =   0.0185185
        k(   39) = (   0.1666667  -0.1924501   0.6733056), wk =   0.0185185
        k(   40) = (   0.1666667  -0.1924501  -1.0099584), wk =   0.0185185
        k(   41) = (   0.3333333   0.1924501   0.0000000), wk =   0.0185185
        k(   42) = (   0.3333333   0.1924501   0.3366528), wk =   0.0185185
        k(   43) = (   0.3333333   0.1924501   0.6733056), wk =   0.0185185
        k(   44) = (   0.3333333   0.1924501  -1.0099584), wk =   0.0185185
        k(   45) = (   0.3333333   0.4811252   0.0000000), wk =   0.0185185
[...]
     atom   10 type  1   force =     0.00000759    0.00000160   -0.22979953
     atom   11 type  2   force =    -0.00000766   -0.00000277   -0.19708580
     atom   12 type  2   force =    -0.00000107    0.00000157   -0.19708738
     atom   13 type  1   force =     0.00000624    0.00000579   -0.22980370
     atom   14 type  1   force =     0.00000185    0.00000297   -0.22980420
     atom   15 type  2   force =    -0.00000495   -0.00000616   -0.19708637
     atom   16 type  2   force =     0.00000334   -0.00000023   -0.19708720
     atom   17 type  1   force =    -0.00001038   -0.00000124   -0.22980252
     atom   18 type  1   force =    -0.00000680   -0.00001735   -0.22980128
     atom   19 type  2   force =     0.00000041   -0.00000294   -0.19708643
     atom   20 type  2   force =     0.00000923    0.00001050   -0.19708653
     atom   21 type  1   force =    -0.00000033   -0.00000455   -0.22980651
     atom   22 type  1   force =    -0.00002074    0.00000111   -0.22980070
     atom   23 type  2   force =    -0.00000297    0.00000112   -0.19708478
     atom   24 type  2   force =     0.00001329    0.00000336   -0.19708715
     The ionic contribution  to forces
     atom    1 type  1   force =     0.00000001    0.00000001   -1.49894255
     atom    2 type  1   force =     0.00000001    0.00000001   -1.49894255
     atom    3 type  2   force =     0.00000000    0.00000001    1.49894255
     atom    4 type  2   force =     0.00000001    0.00000001    1.49894255
     atom    5 type  1   force =     0.00000001   -0.00000001   -1.49894255
     atom    6 type  1   force =     0.00000000    0.00000000   -1.49894255
     atom    7 type  2   force =     0.00000001   -0.00000001    1.49894255
     atom    8 type  2   force =     0.00000000    0.00000000    1.49894255
     atom    9 type  1   force =    -0.00000001    0.00000001   -1.49894255
     atom   10 type  1   force =     0.00000001    0.00000001   -1.49894255
     atom   11 type  2   force =    -0.00000001    0.00000001    1.49894255
     atom   12 type  2   force =     0.00000001    0.00000000    1.49894255
     atom   13 type  1   force =    -0.00000001   -0.00000001   -1.49894255
     atom   14 type  1   force =     0.00000001   -0.00000001   -1.49894255
     atom   15 type  2   force =    -0.00000000   -0.00000000    1.49894255
     atom   16 type  2   force =     0.00000000   -0.00000001    1.49894255
     atom   17 type  1   force =    -0.00000001    0.00000001   -1.49894255
     atom   18 type  1   force =    -0.00000001    0.00000000   -1.49894255
     atom   19 type  2   force =    -0.00000000    0.00000000    1.49894255
     atom   20 type  2   force =    -0.00000000    0.00000000    1.49894255
     atom   21 type  1   force =    -0.00000000   -0.00000002   -1.49894255
     atom   22 type  1   force =    -0.00000001   -0.00000001   -1.49894255
     atom   23 type  2   force =    -0.00000000   -0.00000001    1.49894255
     atom   24 type  2   force =    -0.00000001   -0.00000000    1.49894255
     The local contribution  to forces
     atom    1 type  1   force =    -0.00002634   -0.00000175    1.70112001
     atom    2 type  1   force =     0.00002910   -0.00002007    1.70109138
     atom    3 type  2   force =    -0.00000138    0.00000312   -1.29096332
     atom    4 type  2   force =    -0.00000490   -0.00000815   -1.29096382
     atom    5 type  1   force =    -0.00000375   -0.00001748    1.70109195
     atom    6 type  1   force =    -0.00003292    0.00001875    1.70107394
     atom    7 type  2   force =     0.00000346    0.00000028   -1.29096726
     atom    8 type  2   force =    -0.00001373   -0.00000291   -1.29096507
     atom    9 type  1   force =    -0.00001038   -0.00000507    1.70109514
     atom   10 type  1   force =    -0.00003266   -0.00001235    1.70108095
     atom   11 type  2   force =     0.00000091    0.00000594   -1.29096879
     atom   12 type  2   force =    -0.00001286   -0.00000454   -1.29096685
     atom   13 type  1   force =    -0.00000968   -0.00000747    1.70109538
     atom   14 type  1   force =    -0.00000871   -0.00001051    1.70109744
     atom   15 type  2   force =     0.00000525   -0.00000152   -1.29096834
     atom   16 type  2   force =    -0.00000984   -0.00000742   -1.29096599
     atom   17 type  1   force =     0.00003097    0.00000699    1.70109147
     atom   18 type  1   force =     0.00001118    0.00004723    1.70108480
     atom   19 type  2   force =     0.00001916    0.00000734   -1.29096799
     atom   20 type  2   force =    -0.00000223    0.00000594   -1.29096516
     atom   21 type  1   force =     0.00000537    0.00001289    1.70111875
     atom   22 type  1   force =     0.00005084   -0.00001098    1.70108549
     atom   23 type  2   force =     0.00000903    0.00000934   -1.29096388
     atom   24 type  2   force =     0.00000498   -0.00000459   -1.29096590
     The core correction contribution to forces
     atom    1 type  1   force =    -0.00000002   -0.00000033    0.01513383
     atom    2 type  1   force =    -0.00000044    0.00000048    0.01513471
     atom    3 type  2   force =     0.00000010    0.00000007    0.00162479
     atom    4 type  2   force =    -0.00000014   -0.00000002    0.00162480
     atom    5 type  1   force =    -0.00000034   -0.00000002    0.01513481
     atom    6 type  1   force =     0.00000089   -0.00000024    0.01513531
     atom    7 type  2   force =     0.00000010    0.00000007    0.00162478
     atom    8 type  2   force =    -0.00000003   -0.00000007    0.00162479
     atom    9 type  1   force =    -0.00000014   -0.00000011    0.01513479
     atom   10 type  1   force =     0.00000092    0.00000066    0.01513513
     atom   11 type  2   force =     0.00000010    0.00000005    0.00162476
     atom   12 type  2   force =     0.00000000   -0.00000003    0.00162478
     atom   13 type  1   force =    -0.00000010   -0.00000037    0.01513476
     atom   14 type  1   force =     0.00000019    0.00000034    0.01513472
     atom   15 type  2   force =     0.00000007    0.00000009    0.00162477
     atom   16 type  2   force =    -0.00000005   -0.00000001    0.00162478
     atom   17 type  1   force =    -0.00000060   -0.00000029    0.01513488
     atom   18 type  1   force =     0.00000034   -0.00000052    0.01513510
     atom   19 type  2   force =     0.00000000    0.00000003    0.00162478
     atom   20 type  2   force =    -0.00000009   -0.00000010    0.00162479
     atom   21 type  1   force =    -0.00000036   -0.00000027    0.01513381
     atom   22 type  1   force =    -0.00000025    0.00000068    0.01513501
     atom   23 type  2   force =     0.00000003   -0.00000002    0.00162478
     atom   24 type  2   force =    -0.00000014   -0.00000003    0.00162479
     The Hubbard contrib.    to forces
     atom    1 type  1   force =     0.00000000    0.00000000    0.00000000
     atom    2 type  1   force =     0.00000000    0.00000000    0.00000000
     atom    3 type  2   force =     0.00000000    0.00000000    0.00000000
     atom    4 type  2   force =     0.00000000    0.00000000    0.00000000
     atom    5 type  1   force =     0.00000000    0.00000000    0.00000000
     atom    6 type  1   force =     0.00000000    0.00000000    0.00000000
     atom    7 type  2   force =     0.00000000    0.00000000    0.00000000
     atom    8 type  2   force =     0.00000000    0.00000000    0.00000000
     atom    9 type  1   force =     0.00000000    0.00000000    0.00000000
     atom   10 type  1   force =     0.00000000    0.00000000    0.00000000
     atom   11 type  2   force =     0.00000000    0.00000000    0.00000000
     atom   12 type  2   force =     0.00000000    0.00000000    0.00000000
     atom   13 type  1   force =     0.00000000    0.00000000    0.00000000
     atom   14 type  1   force =     0.00000000    0.00000000    0.00000000
     atom   15 type  2   force =     0.00000000    0.00000000    0.00000000
     atom   16 type  2   force =     0.00000000    0.00000000    0.00000000
     atom   17 type  1   force =     0.00000000    0.00000000    0.00000000
     atom   18 type  1   force =     0.00000000    0.00000000    0.00000000
     atom   19 type  2   force =     0.00000000    0.00000000    0.00000000
     atom   20 type  2   force =     0.00000000    0.00000000    0.00000000
     atom   21 type  1   force =     0.00000000    0.00000000    0.00000000
     atom   22 type  1   force =     0.00000000    0.00000000    0.00000000
     atom   23 type  2   force =     0.00000000    0.00000000    0.00000000
     atom   24 type  2   force =     0.00000000    0.00000000    0.00000000
     The SCF correction term to forces
     atom    1 type  1   force =     0.00002770    0.00000130   -0.00002028
     atom    2 type  1   force =    -0.00003336    0.00002642    0.00001628
     atom    3 type  2   force =     0.00001099    0.00000348   -0.00000810
     atom    4 type  2   force =    -0.00000504    0.00000580   -0.00000683
     atom    5 type  1   force =     0.00000285    0.00001940    0.00001474
     atom    6 type  1   force =     0.00004431   -0.00002284    0.00003901
     atom    7 type  2   force =     0.00000630    0.00000602   -0.00000441
     atom    8 type  2   force =     0.00001036   -0.00000331   -0.00000531
     atom    9 type  1   force =     0.00000640    0.00000338    0.00001127
     atom   10 type  1   force =     0.00004429    0.00001735    0.00002939
     atom   11 type  2   force =     0.00000665   -0.00000267   -0.00000341
     atom   12 type  2   force =     0.00001260    0.00000272   -0.00000384
     atom   13 type  1   force =     0.00000721    0.00000538    0.00001063
     atom   14 type  1   force =     0.00001308    0.00001402    0.00000935
     atom   15 type  2   force =     0.00000025    0.00000714   -0.00000364
     atom   16 type  2   force =     0.00000636    0.00000681   -0.00000494
     atom   17 type  1   force =    -0.00004094   -0.00001148    0.00001552
     atom   18 type  1   force =    -0.00000989   -0.00005585    0.00002514
     atom   19 type  2   force =    -0.00001832   -0.00000415   -0.00000373
     atom   20 type  2   force =    -0.00000639   -0.00001504   -0.00000602
     atom   21 type  1   force =    -0.00001062   -0.00001577   -0.00001937
     atom   22 type  1   force =    -0.00005832    0.00001597    0.00002432
     atom   23 type  2   force =    -0.00000572   -0.00000978   -0.00000804
     atom   24 type  2   force =    -0.00001715    0.00000058   -0.00000480

     Total force =     0.061269     Total SCF correction =     0.000158

     General routines

     Parallel routines

   This run was terminated on:  16: 7:12   3Sep2025

   JOB DONE.
Note: The following floating-point exceptions are signalling: IEEE_UNDERFLOW_FLAG IEEE_DENORMAL
Note: The following floating-point exceptions are signalling: IEEE_UNDERFLOW_FLAG IEEE_DENORMAL
Note: The following floating-point exceptions are signalling: IEEE_UNDERFLOW_FLAG IEEE_DENORMAL
Note: The following floating-point exceptions are signalling: IEEE_UNDERFLOW_FLAG IEEE_DENORMAL
Note: The following floating-point exceptions are signalling: IEEE_UNDERFLOW_FLAG IEEE_DENORMAL
Note: The following floating-point exceptions are signalling: IEEE_UNDERFLOW_FLAG IEEE_DENORMAL
Note: The following floating-point exceptions are signalling: IEEE_UNDERFLOW_FLAG IEEE_DENORMAL
Note: The following floating-point exceptions are signalling: IEEE_UNDERFLOW_FLAG IEEE_DENORMAL
Note: The following floating-point exceptions are signalling: IEEE_UNDERFLOW_FLAG IEEE_DENORMAL
Note: The following floating-point exceptions are signalling: IEEE_UNDERFLOW_FLAG IEEE_DENORMAL
Note: The following floating-point exceptions are signalling: IEEE_UNDERFLOW_FLAG IEEE_DENORMAL
Note: The following floating-point exceptions are signalling: IEEE_UNDERFLOW_FLAG IEEE_DENORMAL
Note: The following floating-point exceptions are signalling: IEEE_UNDERFLOW_FLAG IEEE_DENORMAL
Note: The following floating-point exceptions are signalling: IEEE_UNDERFLOW_FLAG IEEE_DENORMAL
Note: The following floating-point exceptions are signalling: IEEE_UNDERFLOW_FLAG IEEE_DENORMAL
Note: The following floating-point exceptions are signalling: IEEE_UNDERFLOW_FLAG IEEE_DENORMAL
Note: The following floating-point exceptions are signalling: IEEE_UNDERFLOW_FLAG IEEE_DENORMAL
Note: The following floating-point exceptions are signalling: IEEE_UNDERFLOW_FLAG IEEE_DENORMAL
Note: The following floating-point exceptions are signalling: IEEE_UNDERFLOW_FLAG IEEE_DENORMAL
Note: The following floating-point exceptions are signalling: IEEE_UNDERFLOW_FLAG IEEE_DENORMAL
Note: The following floating-point exceptions are signalling: IEEE_UNDERFLOW_FLAG IEEE_DENORMAL
Note: The following floating-point exceptions are signalling: IEEE_UNDERFLOW_FLAG IEEE_DENORMAL
Note: The following floating-point exceptions are signalling: IEEE_UNDERFLOW_FLAG IEEE_DENORMAL
Note: The following floating-point exceptions are signalling: IEEE_UNDERFLOW_FLAG IEEE_DENORMAL
Note: The following floating-point exceptions are signalling: IEEE_UNDERFLOW_FLAG IEEE_DENORMAL
Note: The following floating-point exceptions are signalling: IEEE_UNDERFLOW_FLAG IEEE_DENORMAL
Note: The following floating-point exceptions are signalling: IEEE_UNDERFLOW_FLAG IEEE_DENORMAL
Note: The following floating-point exceptions are signalling: IEEE_UNDERFLOW_FLAG IEEE_DENORMAL
Note: The following floating-point exceptions are signalling: IEEE_UNDERFLOW_FLAG IEEE_DENORMAL
Note: The following floating-point exceptions are signalling: IEEE_UNDERFLOW_FLAG IEEE_DENORMAL
Note: The following floating-point exceptions are signalling: IEEE_UNDERFLOW_FLAG IEEE_DENORMAL
Note: The following floating-point exceptions are signalling: IEEE_UNDERFLOW_FLAG IEEE_DENORMAL
Note: The following floating-point exceptions are signalling: IEEE_UNDERFLOW_FLAG IEEE_DENORMAL
Note: The following floating-point exceptions are signalling: IEEE_UNDERFLOW_FLAG IEEE_DENORMAL
Note: The following floating-point exceptions are signalling: IEEE_UNDERFLOW_FLAG IEEE_DENORMAL
Note: The following floating-point exceptions are signalling: IEEE_UNDERFLOW_FLAG IEEE_DENORMAL
Note: The following floating-point exceptions are signalling: IEEE_UNDERFLOW_FLAG IEEE_DENORMAL
Note: The following floating-point exceptions are signalling: IEEE_UNDERFLOW_FLAG IEEE_DENORMAL
Note: The following floating-point exceptions are signalling: IEEE_UNDERFLOW_FLAG IEEE_DENORMAL
Note: The following floating-point exceptions are signalling: IEEE_UNDERFLOW_FLAG IEEE_DENORMAL
Note: The following floating-point exceptions are signalling: IEEE_UNDERFLOW_FLAG IEEE_DENORMAL
Note: The following floating-point exceptions are signalling: IEEE_UNDERFLOW_FLAG IEEE_DENORMAL
Note: The following floating-point exceptions are signalling: IEEE_UNDERFLOW_FLAG IEEE_DENORMAL
Note: The following floating-point exceptions are signalling: IEEE_UNDERFLOW_FLAG IEEE_DENORMAL
Note: The following floating-point exceptions are signalling: IEEE_UNDERFLOW_FLAG IEEE_DENORMAL
Note: The following floating-point exceptions are signalling: IEEE_UNDERFLOW_FLAG IEEE_DENORMAL
Note: The following floating-point exceptions are signalling: IEEE_UNDERFLOW_FLAG IEEE_DENORMAL
Note: The following floating-point exceptions are signalling: IEEE_UNDERFLOW_FLAG IEEE_DENORMAL
Note: The following floating-point exceptions are signalling: IEEE_UNDERFLOW_FLAG IEEE_DENORMAL
Note: The following floating-point exceptions are signalling: IEEE_UNDERFLOW_FLAG IEEE_DENORMAL
Note: The following floating-point exceptions are signalling: IEEE_UNDERFLOW_FLAG IEEE_DENORMAL
Note: The following floating-point exceptions are signalling: IEEE_UNDERFLOW_FLAG IEEE_DENORMAL
Note: The following floating-point exceptions are signalling: IEEE_UNDERFLOW_FLAG IEEE_DENORMAL
Note: The following floating-point exceptions are signalling: IEEE_UNDERFLOW_FLAG IEEE_DENORMAL
Note: The following floating-point exceptions are signalling: IEEE_UNDERFLOW_FLAG IEEE_DENORMAL
Note: The following floating-point exceptions are signalling: IEEE_UNDERFLOW_FLAG IEEE_DENORMAL
Note: The following floating-point exceptions are signalling: IEEE_UNDERFLOW_FLAG IEEE_DENORMAL
Note: The following floating-point exceptions are signalling: IEEE_UNDERFLOW_FLAG IEEE_DENORMAL
Note: The following floating-point exceptions are signalling: IEEE_UNDERFLOW_FLAG IEEE_DENORMAL
Note: The following floating-point exceptions are signalling: IEEE_UNDERFLOW_FLAG IEEE_DENORMAL
Note: The following floating-point exceptions are signalling: IEEE_UNDERFLOW_FLAG IEEE_DENORMAL
Note: The following floating-point exceptions are signalling: IEEE_UNDERFLOW_FLAG IEEE_DENORMAL
Note: The following floating-point exceptions are signalling: IEEE_UNDERFLOW_FLAG IEEE_DENORMAL
Note: The following floating-point exceptions are signalling: IEEE_UNDERFLOW_FLAG IEEE_DENORMAL