     Program PWSCF v.7.0 starts on  3Sep2025 at 18:40:21

     K-points division:     npool     =      16
     R & G space division:  proc/nbgrp/npool/nimage =       4

     Reading input from /home/jvc/QEspresso7.2/ZnO_database/scripts/cell321.in/ZnO-3.53-1.65-321.in
Warning: card &CELL ignored
Warning: card / ignored
Warning: card &FCP ignored
Warning: card / ignored
Warning: card &RISM ignored
Warning: card / ignored

     Current dimensions of program PWSCF are:
     Max number of different atomic species (ntypx) = 10
     Max number of k-points (npk) =  40000
     Max angular momentum in pseudopotentials (lmaxx) =  4
     file Zn.upf: wavefunction(s)  3D renormalized
     Found identity + ( -0.0000 -0.5000  0.0000) symmetry
     This is a supercell, fractional translations are disabled

     Using Slab Decomposition

     bravais-lattice index     =            0
     lattice parameter (alat)  =      20.0195  a.u.
     unit-cell volume          =    2542.5943 (a.u.)^3
     number of atoms/cell      =           24
     number of atomic types    =            2
     number of electrons       =       216.00
     number of Kohn-Sham states=          108
     kinetic-energy cutoff     =      50.0000  Ry
     charge density cutoff     =     400.0000  Ry
     scf convergence threshold =      1.0E-08
     mixing beta               =       0.3000
     number of iterations used =            8  plain     mixing
     Exchange-correlation= PBE
                           (   1   4   3   4   0   0   0)

     celldm(1)=  20.019487  celldm(2)=   0.000000  celldm(3)=   0.000000
     celldm(4)=   0.000000  celldm(5)=   0.000000  celldm(6)=   0.000000

     crystal axes: (cart. coord. in units of alat)
               a(1) = (   1.000000   0.000000   0.000000 )
               a(2) = (  -0.333333   0.577350   0.000000 )
               a(3) = (   0.000000   0.000000   0.548882 )

     reciprocal axes: (cart. coord. in units 2 pi/alat)
               b(1) = (  1.000000  0.577350 -0.000000 )
               b(2) = (  0.000000  1.732051  0.000000 )
               b(3) = (  0.000000 -0.000000  1.821886 )

     PseudoPot. # 1 for Zn read from file:
     /home/jvc/QEspresso7.2/ZnO_database/pseudos/Zn.upf
     MD5 check sum: 7f56cabf9682ed8c977c2f7d0c5985c5
     Pseudo is Ultrasoft + core correction, Zval = 12.0
     Generated using &quot;atomic&quot; code by A. Dal Corso  v.6.2.2
     Using radial grid of 1201 points,  6 beta functions with:
                l(1) =   0
                l(2) =   0
                l(3) =   1
                l(4) =   1
                l(5) =   2
                l(6) =   2
     Q(r) pseudized with 0 coefficients

     PseudoPot. # 2 for O  read from file:
     /home/jvc/QEspresso7.2/ZnO_database/pseudos/O.upf
     MD5 check sum: 91400c9766925bcf19f520983a725ff0
     Pseudo is Ultrasoft + core correction, Zval =  6.0
     Generated using &quot;atomic&quot; code by A. Dal Corso  v.6.3MaX
     Using radial grid of 1095 points,  4 beta functions with:
                l(1) =   0
                l(2) =   0
                l(3) =   1
                l(4) =   1
     Q(r) pseudized with 0 coefficients

     atomic species   valence    mass     pseudopotential
        Zn            12.00    65.38000     Zn( 1.00)
        O              6.00    15.99900     O ( 1.00)

     No symmetry found

                                    s                        frac. trans.

      isym =  1     identity

 cryst.   s( 1) = (     1          0          0      )
                  (     0          1          0      )
                  (     0          0          1      )

 cart.    s( 1) = (  1.0000000 -0.0000000  0.0000000 )
                  (  0.0000000  1.0000000  0.0000000 )
                  (  0.0000000  0.0000000  1.0000000 )

   Cartesian axes

     site n.     atom                  positions (alat units)
         1           Zn  tau(   1) = (   0.1666667   0.0962250   0.2747887  )
         2           Zn  tau(   2) = (  -0.0000000   0.1924501   0.0003478  )
         3           O   tau(   3) = (   0.1666667   0.0962250   0.4828384  )
         4           O   tau(   4) = (  -0.0000000   0.1924501   0.2083975  )
         5           Zn  tau(   5) = (  -0.0000000   0.3849002   0.2747887  )
         6           Zn  tau(   6) = (  -0.1666667   0.4811252   0.0003478  )
         7           O   tau(   7) = (  -0.0000000   0.3849002   0.4828384  )
         8           O   tau(   8) = (  -0.1666667   0.4811252   0.2083975  )
         9           Zn  tau(   9) = (   0.5000000   0.0962250   0.2747887  )
        10           Zn  tau(  10) = (   0.3333333   0.1924501   0.0003478  )
        11           O   tau(  11) = (   0.5000000   0.0962250   0.4828384  )
        12           O   tau(  12) = (   0.3333333   0.1924501   0.2083975  )
        13           Zn  tau(  13) = (   0.3333333   0.3849002   0.2747887  )
        14           Zn  tau(  14) = (   0.1666667   0.4811252   0.0003478  )
        15           O   tau(  15) = (   0.3333333   0.3849002   0.4828384  )
        16           O   tau(  16) = (   0.1666667   0.4811252   0.2083975  )
        17           Zn  tau(  17) = (   0.8333333   0.0962250   0.2747887  )
        18           Zn  tau(  18) = (   0.6666667   0.1924501   0.0003478  )
        19           O   tau(  19) = (   0.8333333   0.0962250   0.4828384  )
        20           O   tau(  20) = (   0.6666667   0.1924501   0.2083975  )
        21           Zn  tau(  21) = (   0.6666667   0.3849002   0.2747887  )
        22           Zn  tau(  22) = (   0.5000000   0.4811252   0.0003478  )
        23           O   tau(  23) = (   0.6666667   0.3849002   0.4828384  )
        24           O   tau(  24) = (   0.5000000   0.4811252   0.2083975  )

   Crystallographic axes

     site n.     atom                  positions (cryst. coord.)
         1           Zn  tau(   1) = (  0.2222222  0.1666667  0.5006336  )
         2           Zn  tau(   2) = (  0.1111111  0.3333333  0.0006336  )
         3           O   tau(   3) = (  0.2222222  0.1666667  0.8796764  )
         4           O   tau(   4) = (  0.1111111  0.3333333  0.3796764  )
         5           Zn  tau(   5) = (  0.2222222  0.6666667  0.5006336  )
         6           Zn  tau(   6) = (  0.1111111  0.8333333  0.0006336  )
         7           O   tau(   7) = (  0.2222222  0.6666667  0.8796764  )
         8           O   tau(   8) = (  0.1111111  0.8333333  0.3796764  )
         9           Zn  tau(   9) = (  0.5555556  0.1666667  0.5006336  )
        10           Zn  tau(  10) = (  0.4444444  0.3333333  0.0006336  )
        11           O   tau(  11) = (  0.5555556  0.1666667  0.8796764  )
        12           O   tau(  12) = (  0.4444444  0.3333333  0.3796764  )
        13           Zn  tau(  13) = (  0.5555556  0.6666667  0.5006336  )
        14           Zn  tau(  14) = (  0.4444444  0.8333333  0.0006336  )
        15           O   tau(  15) = (  0.5555556  0.6666667  0.8796764  )
        16           O   tau(  16) = (  0.4444444  0.8333333  0.3796764  )
        17           Zn  tau(  17) = (  0.8888889  0.1666667  0.5006336  )
        18           Zn  tau(  18) = (  0.7777778  0.3333333  0.0006336  )
        19           O   tau(  19) = (  0.8888889  0.1666667  0.8796764  )
        20           O   tau(  20) = (  0.7777778  0.3333333  0.3796764  )
        21           Zn  tau(  21) = (  0.8888889  0.6666667  0.5006336  )
        22           Zn  tau(  22) = (  0.7777778  0.8333333  0.0006336  )
        23           O   tau(  23) = (  0.8888889  0.6666667  0.8796764  )
        24           O   tau(  24) = (  0.7777778  0.8333333  0.3796764  )

     number of k points=   112
                       cart. coord. in units 2pi/alat
        k(    1) = (   0.0000000   0.0000000   0.0000000), wk =   0.0092593
        k(    2) = (   0.0000000   0.0000000   0.3036476), wk =   0.0185185
        k(    3) = (   0.0000000   0.0000000   0.6072952), wk =   0.0185185
        k(    4) = (   0.0000000   0.0000000  -0.9109429), wk =   0.0092593
        k(    5) = (   0.0000000   0.2886751   0.0000000), wk =   0.0185185
        k(    6) = (   0.0000000   0.2886751   0.3036476), wk =   0.0185185
        k(    7) = (   0.0000000   0.2886751   0.6072952), wk =   0.0185185
        k(    8) = (   0.0000000   0.2886751  -0.9109429), wk =   0.0185185
        k(    9) = (   0.0000000   0.5773503   0.0000000), wk =   0.0185185
        k(   10) = (   0.0000000   0.5773503   0.3036476), wk =   0.0185185
        k(   11) = (   0.0000000   0.5773503   0.6072952), wk =   0.0185185
        k(   12) = (   0.0000000   0.5773503  -0.9109429), wk =   0.0185185
        k(   13) = (   0.0000000  -0.8660254   0.0000000), wk =   0.0092593
        k(   14) = (   0.0000000  -0.8660254   0.3036476), wk =   0.0185185
        k(   15) = (   0.0000000  -0.8660254   0.6072952), wk =   0.0185185
        k(   16) = (   0.0000000  -0.8660254  -0.9109429), wk =   0.0092593
        k(   17) = (   0.1666667   0.0962250   0.0000000), wk =   0.0185185
        k(   18) = (   0.1666667   0.0962250   0.3036476), wk =   0.0185185
        k(   19) = (   0.1666667   0.0962250   0.6072952), wk =   0.0185185
        k(   20) = (   0.1666667   0.0962250  -0.9109429), wk =   0.0185185
        k(   21) = (   0.1666667   0.3849002   0.0000000), wk =   0.0185185
        k(   22) = (   0.1666667   0.3849002   0.3036476), wk =   0.0185185
        k(   23) = (   0.1666667   0.3849002   0.6072952), wk =   0.0185185
        k(   24) = (   0.1666667   0.3849002  -0.9109429), wk =   0.0185185
        k(   25) = (   0.1666667   0.6735753   0.0000000), wk =   0.0185185
        k(   26) = (   0.1666667   0.6735753   0.3036476), wk =   0.0185185
        k(   27) = (   0.1666667   0.6735753   0.6072952), wk =   0.0185185
        k(   28) = (   0.1666667   0.6735753  -0.9109429), wk =   0.0185185
        k(   29) = (   0.1666667  -0.7698004   0.0000000), wk =   0.0185185
        k(   30) = (   0.1666667  -0.7698004   0.3036476), wk =   0.0185185
        k(   31) = (   0.1666667  -0.7698004   0.6072952), wk =   0.0185185
        k(   32) = (   0.1666667  -0.7698004  -0.9109429), wk =   0.0185185
        k(   33) = (   0.1666667  -0.4811252   0.0000000), wk =   0.0185185
        k(   34) = (   0.1666667  -0.4811252   0.3036476), wk =   0.0185185
        k(   35) = (   0.1666667  -0.4811252   0.6072952), wk =   0.0185185
        k(   36) = (   0.1666667  -0.4811252  -0.9109429), wk =   0.0185185
        k(   37) = (   0.1666667  -0.1924501   0.0000000), wk =   0.0185185
        k(   38) = (   0.1666667  -0.1924501   0.3036476), wk =   0.0185185
        k(   39) = (   0.1666667  -0.1924501   0.6072952), wk =   0.0185185
        k(   40) = (   0.1666667  -0.1924501  -0.9109429), wk =   0.0185185
        k(   41) = (   0.3333333   0.1924501   0.0000000), wk =   0.0185185
        k(   42) = (   0.3333333   0.1924501   0.3036476), wk =   0.0185185
        k(   43) = (   0.3333333   0.1924501   0.6072952), wk =   0.0185185
        k(   44) = (   0.3333333   0.1924501  -0.9109429), wk =   0.0185185
        k(   45) = (   0.3333333   0.4811252   0.0000000), wk =   0.0185185
[...]
     atom   10 type  1   force =    -0.00000676   -0.00000435    0.04424562
     atom   11 type  2   force =    -0.00000928   -0.00000634    0.05765231
     atom   12 type  2   force =     0.00000915    0.00000562    0.05765161
     atom   13 type  1   force =     0.00000690    0.00000361    0.04424370
     atom   14 type  1   force =    -0.00000634   -0.00000405    0.04424558
     atom   15 type  2   force =    -0.00000949   -0.00000513    0.05765168
     atom   16 type  2   force =     0.00000934    0.00000505    0.05765116
     atom   17 type  1   force =     0.00000709    0.00000426    0.04424387
     atom   18 type  1   force =    -0.00000527   -0.00000390    0.04424503
     atom   19 type  2   force =    -0.00000867   -0.00000557    0.05765249
     atom   20 type  2   force =     0.00000840    0.00000494    0.05765189
     atom   21 type  1   force =     0.00000714    0.00000429    0.04424313
     atom   22 type  1   force =    -0.00000529   -0.00000308    0.04424503
     atom   23 type  2   force =    -0.00000912   -0.00000566    0.05765118
     atom   24 type  2   force =     0.00000844    0.00000486    0.05765196
     The ionic contribution  to forces
     atom    1 type  1   force =     0.00000001    0.00000001    0.39869711
     atom    2 type  1   force =     0.00000001    0.00000001    0.39869711
     atom    3 type  2   force =     0.00000000    0.00000001   -0.39869711
     atom    4 type  2   force =     0.00000000    0.00000001   -0.39869711
     atom    5 type  1   force =     0.00000001   -0.00000001    0.39869711
     atom    6 type  1   force =     0.00000000    0.00000000    0.39869711
     atom    7 type  2   force =     0.00000001   -0.00000001   -0.39869711
     atom    8 type  2   force =     0.00000000    0.00000000   -0.39869711
     atom    9 type  1   force =    -0.00000001    0.00000001    0.39869711
     atom   10 type  1   force =     0.00000001    0.00000000    0.39869711
     atom   11 type  2   force =    -0.00000001    0.00000001   -0.39869711
     atom   12 type  2   force =     0.00000001    0.00000000   -0.39869711
     atom   13 type  1   force =    -0.00000001   -0.00000001    0.39869711
     atom   14 type  1   force =     0.00000001   -0.00000000    0.39869711
     atom   15 type  2   force =    -0.00000000   -0.00000000   -0.39869711
     atom   16 type  2   force =     0.00000000   -0.00000000   -0.39869711
     atom   17 type  1   force =    -0.00000001    0.00000001    0.39869711
     atom   18 type  1   force =    -0.00000001    0.00000000    0.39869711
     atom   19 type  2   force =    -0.00000000    0.00000000   -0.39869711
     atom   20 type  2   force =    -0.00000000    0.00000000   -0.39869711
     atom   21 type  1   force =    -0.00000000   -0.00000002    0.39869711
     atom   22 type  1   force =    -0.00000001   -0.00000001    0.39869711
     atom   23 type  2   force =    -0.00000000   -0.00000001   -0.39869711
     atom   24 type  2   force =    -0.00000001   -0.00000000   -0.39869711
     The local contribution  to forces
     atom    1 type  1   force =    -0.00000616   -0.00000279   -0.44185150
     atom    2 type  1   force =     0.00000840    0.00000855   -0.44185800
     atom    3 type  2   force =     0.00000924    0.00000516    0.34307643
     atom    4 type  2   force =    -0.00000817   -0.00000419    0.34307826
     atom    5 type  1   force =    -0.00000240   -0.00000270   -0.44185059
     atom    6 type  1   force =     0.00000904    0.00000220   -0.44186030
     atom    7 type  2   force =     0.00000818    0.00000582    0.34307576
     atom    8 type  2   force =    -0.00000776   -0.00000529    0.34307832
     atom    9 type  1   force =    -0.00000494   -0.00000736   -0.44185126
     atom   10 type  1   force =     0.00000846    0.00000528   -0.44186089
     atom   11 type  2   force =     0.00000889    0.00000524    0.34307643
     atom   12 type  2   force =    -0.00000843   -0.00000452    0.34307862
     atom   13 type  1   force =    -0.00000823   -0.00000093   -0.44185135
     atom   14 type  1   force =     0.00000585    0.00000361   -0.44185939
     atom   15 type  2   force =     0.00000819    0.00000554    0.34307625
     atom   16 type  2   force =    -0.00000880   -0.00000477    0.34307874
     atom   17 type  1   force =    -0.00000792   -0.00000530   -0.44185409
     atom   18 type  1   force =     0.00000185    0.00000393   -0.44185874
     atom   19 type  2   force =     0.00000755    0.00000510    0.34307642
     atom   20 type  2   force =    -0.00000867   -0.00000568    0.34307745
     atom   21 type  1   force =    -0.00000852   -0.00000427   -0.44185100
     atom   22 type  1   force =     0.00000349    0.00000035   -0.44185790
     atom   23 type  2   force =     0.00000883    0.00000526    0.34307791
     atom   24 type  2   force =    -0.00000939   -0.00000499    0.34307754
     The core correction contribution to forces
     atom    1 type  1   force =    -0.00000059   -0.00000042   -0.00258614
     atom    2 type  1   force =     0.00000062    0.00000028   -0.00258598
     atom    3 type  2   force =     0.00000010    0.00000005   -0.00053524
     atom    4 type  2   force =    -0.00000009   -0.00000005   -0.00053524
     atom    5 type  1   force =    -0.00000067   -0.00000045   -0.00258620
     atom    6 type  1   force =     0.00000061    0.00000043   -0.00258595
     atom    7 type  2   force =     0.00000008    0.00000005   -0.00053525
     atom    8 type  2   force =    -0.00000010   -0.00000005   -0.00053524
     atom    9 type  1   force =    -0.00000053   -0.00000038   -0.00258621
     atom   10 type  1   force =     0.00000047    0.00000043   -0.00258598
     atom   11 type  2   force =     0.00000012    0.00000009   -0.00053526
     atom   12 type  2   force =    -0.00000011   -0.00000008   -0.00053524
     atom   13 type  1   force =    -0.00000050   -0.00000053   -0.00258619
     atom   14 type  1   force =     0.00000053    0.00000046   -0.00258603
     atom   15 type  2   force =     0.00000012    0.00000007   -0.00053525
     atom   16 type  2   force =    -0.00000012   -0.00000007   -0.00053524
     atom   17 type  1   force =    -0.00000065   -0.00000034   -0.00258606
     atom   18 type  1   force =     0.00000069    0.00000041   -0.00258600
     atom   19 type  2   force =     0.00000008    0.00000005   -0.00053526
     atom   20 type  2   force =    -0.00000009   -0.00000004   -0.00053524
     atom   21 type  1   force =    -0.00000061   -0.00000038   -0.00258613
     atom   22 type  1   force =     0.00000062    0.00000051   -0.00258603
     atom   23 type  2   force =     0.00000009    0.00000006   -0.00053524
     atom   24 type  2   force =    -0.00000009   -0.00000004   -0.00053524
     The Hubbard contrib.    to forces
     atom    1 type  1   force =     0.00000000    0.00000000    0.00000000
     atom    2 type  1   force =     0.00000000    0.00000000    0.00000000
     atom    3 type  2   force =     0.00000000    0.00000000    0.00000000
     atom    4 type  2   force =     0.00000000    0.00000000    0.00000000
     atom    5 type  1   force =     0.00000000    0.00000000    0.00000000
     atom    6 type  1   force =     0.00000000    0.00000000    0.00000000
     atom    7 type  2   force =     0.00000000    0.00000000    0.00000000
     atom    8 type  2   force =     0.00000000    0.00000000    0.00000000
     atom    9 type  1   force =     0.00000000    0.00000000    0.00000000
     atom   10 type  1   force =     0.00000000    0.00000000    0.00000000
     atom   11 type  2   force =     0.00000000    0.00000000    0.00000000
     atom   12 type  2   force =     0.00000000    0.00000000    0.00000000
     atom   13 type  1   force =     0.00000000    0.00000000    0.00000000
     atom   14 type  1   force =     0.00000000    0.00000000    0.00000000
     atom   15 type  2   force =     0.00000000    0.00000000    0.00000000
     atom   16 type  2   force =     0.00000000    0.00000000    0.00000000
     atom   17 type  1   force =     0.00000000    0.00000000    0.00000000
     atom   18 type  1   force =     0.00000000    0.00000000    0.00000000
     atom   19 type  2   force =     0.00000000    0.00000000    0.00000000
     atom   20 type  2   force =     0.00000000    0.00000000    0.00000000
     atom   21 type  1   force =     0.00000000    0.00000000    0.00000000
     atom   22 type  1   force =     0.00000000    0.00000000    0.00000000
     atom   23 type  2   force =     0.00000000    0.00000000    0.00000000
     atom   24 type  2   force =     0.00000000    0.00000000    0.00000000
     The SCF correction term to forces
     atom    1 type  1   force =    -0.00000086   -0.00000208   -0.00000635
     atom    2 type  1   force =    -0.00000251   -0.00000697    0.00000314
     atom    3 type  2   force =    -0.00000111   -0.00000051    0.00000208
     atom    4 type  2   force =    -0.00000075   -0.00000144    0.00000063
     atom    5 type  1   force =    -0.00000639   -0.00000189   -0.00000734
     atom    6 type  1   force =    -0.00000339    0.00000272    0.00000688
     atom    7 type  2   force =    -0.00000127   -0.00000090    0.00000260
     atom    8 type  2   force =    -0.00000133    0.00000019    0.00000037
     atom    9 type  1   force =    -0.00000201    0.00000541   -0.00000675
     atom   10 type  1   force =    -0.00000257   -0.00000216    0.00000805
     atom   11 type  2   force =    -0.00000009    0.00000100    0.00000220
     atom   12 type  2   force =    -0.00000007   -0.00000065   -0.00000004
     atom   13 type  1   force =     0.00000286   -0.00000487   -0.00000723
     atom   14 type  1   force =     0.00000122    0.00000108    0.00000525
     atom   15 type  2   force =     0.00000095   -0.00000072    0.00000263
     atom   16 type  2   force =     0.00000014    0.00000007    0.00000006
     atom   17 type  1   force =     0.00000174    0.00000145   -0.00000208
     atom   18 type  1   force =     0.00000714    0.00000018    0.00000490
     atom   19 type  2   force =     0.00000080    0.00000025    0.00000197
     atom   20 type  2   force =     0.00000087    0.00000089    0.00000099
     atom   21 type  1   force =     0.00000237   -0.00000027   -0.00000685
     atom   22 type  1   force =     0.00000458    0.00000551    0.00000319
     atom   23 type  2   force =    -0.00000003    0.00000013    0.00000130
     atom   24 type  2   force =     0.00000148    0.00000038    0.00000075

     Total force =     0.007345     Total SCF correction =     0.000028

     General routines

     Parallel routines

   This run was terminated on:  19: 9: 6   3Sep2025

   JOB DONE.
Note: The following floating-point exceptions are signalling: IEEE_UNDERFLOW_FLAG IEEE_DENORMAL
Note: The following floating-point exceptions are signalling: IEEE_UNDERFLOW_FLAG IEEE_DENORMAL
Note: The following floating-point exceptions are signalling: IEEE_UNDERFLOW_FLAG IEEE_DENORMAL
Note: The following floating-point exceptions are signalling: IEEE_UNDERFLOW_FLAG IEEE_DENORMAL
Note: The following floating-point exceptions are signalling: IEEE_UNDERFLOW_FLAG IEEE_DENORMAL
Note: The following floating-point exceptions are signalling: IEEE_UNDERFLOW_FLAG IEEE_DENORMAL
Note: The following floating-point exceptions are signalling: IEEE_UNDERFLOW_FLAG IEEE_DENORMAL
Note: The following floating-point exceptions are signalling: IEEE_UNDERFLOW_FLAG IEEE_DENORMAL
Note: The following floating-point exceptions are signalling: IEEE_UNDERFLOW_FLAG IEEE_DENORMAL
Note: The following floating-point exceptions are signalling: IEEE_UNDERFLOW_FLAG IEEE_DENORMAL
Note: The following floating-point exceptions are signalling: IEEE_UNDERFLOW_FLAG IEEE_DENORMAL
Note: The following floating-point exceptions are signalling: IEEE_UNDERFLOW_FLAG IEEE_DENORMAL
Note: The following floating-point exceptions are signalling: IEEE_UNDERFLOW_FLAG IEEE_DENORMAL
Note: The following floating-point exceptions are signalling: IEEE_UNDERFLOW_FLAG IEEE_DENORMAL
Note: The following floating-point exceptions are signalling: IEEE_UNDERFLOW_FLAG IEEE_DENORMAL
Note: The following floating-point exceptions are signalling: IEEE_UNDERFLOW_FLAG IEEE_DENORMAL
Note: The following floating-point exceptions are signalling: IEEE_UNDERFLOW_FLAG IEEE_DENORMAL
Note: The following floating-point exceptions are signalling: IEEE_UNDERFLOW_FLAG IEEE_DENORMAL
Note: The following floating-point exceptions are signalling: IEEE_UNDERFLOW_FLAG IEEE_DENORMAL
Note: The following floating-point exceptions are signalling: IEEE_UNDERFLOW_FLAG IEEE_DENORMAL
Note: The following floating-point exceptions are signalling: IEEE_UNDERFLOW_FLAG IEEE_DENORMAL
Note: The following floating-point exceptions are signalling: IEEE_UNDERFLOW_FLAG IEEE_DENORMAL
Note: The following floating-point exceptions are signalling: IEEE_UNDERFLOW_FLAG IEEE_DENORMAL
Note: The following floating-point exceptions are signalling: IEEE_UNDERFLOW_FLAG IEEE_DENORMAL
Note: The following floating-point exceptions are signalling: IEEE_UNDERFLOW_FLAG IEEE_DENORMAL
Note: The following floating-point exceptions are signalling: IEEE_UNDERFLOW_FLAG IEEE_DENORMAL
Note: The following floating-point exceptions are signalling: IEEE_UNDERFLOW_FLAG IEEE_DENORMAL
Note: The following floating-point exceptions are signalling: IEEE_UNDERFLOW_FLAG IEEE_DENORMAL
Note: The following floating-point exceptions are signalling: IEEE_UNDERFLOW_FLAG IEEE_DENORMAL
Note: The following floating-point exceptions are signalling: IEEE_UNDERFLOW_FLAG IEEE_DENORMAL
Note: The following floating-point exceptions are signalling: IEEE_UNDERFLOW_FLAG IEEE_DENORMAL
Note: The following floating-point exceptions are signalling: IEEE_UNDERFLOW_FLAG IEEE_DENORMAL
Note: The following floating-point exceptions are signalling: IEEE_UNDERFLOW_FLAG IEEE_DENORMAL
Note: The following floating-point exceptions are signalling: IEEE_UNDERFLOW_FLAG IEEE_DENORMAL
Note: The following floating-point exceptions are signalling: IEEE_UNDERFLOW_FLAG IEEE_DENORMAL
Note: The following floating-point exceptions are signalling: IEEE_UNDERFLOW_FLAG IEEE_DENORMAL
Note: The following floating-point exceptions are signalling: IEEE_UNDERFLOW_FLAG IEEE_DENORMAL
Note: The following floating-point exceptions are signalling: IEEE_UNDERFLOW_FLAG IEEE_DENORMAL
Note: The following floating-point exceptions are signalling: IEEE_UNDERFLOW_FLAG IEEE_DENORMAL
Note: The following floating-point exceptions are signalling: IEEE_UNDERFLOW_FLAG IEEE_DENORMAL
Note: The following floating-point exceptions are signalling: IEEE_UNDERFLOW_FLAG IEEE_DENORMAL
Note: The following floating-point exceptions are signalling: IEEE_UNDERFLOW_FLAG IEEE_DENORMAL
Note: The following floating-point exceptions are signalling: IEEE_UNDERFLOW_FLAG IEEE_DENORMAL
Note: The following floating-point exceptions are signalling: IEEE_UNDERFLOW_FLAG IEEE_DENORMAL
Note: The following floating-point exceptions are signalling: IEEE_UNDERFLOW_FLAG IEEE_DENORMAL
Note: The following floating-point exceptions are signalling: IEEE_UNDERFLOW_FLAG IEEE_DENORMAL
Note: The following floating-point exceptions are signalling: IEEE_UNDERFLOW_FLAG IEEE_DENORMAL
Note: The following floating-point exceptions are signalling: IEEE_UNDERFLOW_FLAG IEEE_DENORMAL
Note: The following floating-point exceptions are signalling: IEEE_UNDERFLOW_FLAG IEEE_DENORMAL
Note: The following floating-point exceptions are signalling: IEEE_UNDERFLOW_FLAG IEEE_DENORMAL
Note: The following floating-point exceptions are signalling: IEEE_UNDERFLOW_FLAG IEEE_DENORMAL
Note: The following floating-point exceptions are signalling: IEEE_UNDERFLOW_FLAG IEEE_DENORMAL
Note: The following floating-point exceptions are signalling: IEEE_UNDERFLOW_FLAG IEEE_DENORMAL
Note: The following floating-point exceptions are signalling: IEEE_UNDERFLOW_FLAG IEEE_DENORMAL
Note: The following floating-point exceptions are signalling: IEEE_UNDERFLOW_FLAG IEEE_DENORMAL
Note: The following floating-point exceptions are signalling: IEEE_UNDERFLOW_FLAG IEEE_DENORMAL
Note: The following floating-point exceptions are signalling: IEEE_UNDERFLOW_FLAG IEEE_DENORMAL
Note: The following floating-point exceptions are signalling: IEEE_UNDERFLOW_FLAG IEEE_DENORMAL
Note: The following floating-point exceptions are signalling: IEEE_UNDERFLOW_FLAG IEEE_DENORMAL
Note: The following floating-point exceptions are signalling: IEEE_UNDERFLOW_FLAG IEEE_DENORMAL
Note: The following floating-point exceptions are signalling: IEEE_UNDERFLOW_FLAG IEEE_DENORMAL
Note: The following floating-point exceptions are signalling: IEEE_UNDERFLOW_FLAG IEEE_DENORMAL
Note: The following floating-point exceptions are signalling: IEEE_UNDERFLOW_FLAG IEEE_DENORMAL
Note: The following floating-point exceptions are signalling: IEEE_UNDERFLOW_FLAG IEEE_DENORMAL