     Program PWSCF v.7.0 starts on  3Sep2025 at 17:14:16

     K-points division:     npool     =      16
     R & G space division:  proc/nbgrp/npool/nimage =       4

     Reading input from /home/jvc/QEspresso7.2/ZnO_database/scripts/cell321.in/ZnO-3.53-1.58-321.in
Warning: card &CELL ignored
Warning: card / ignored
Warning: card &FCP ignored
Warning: card / ignored
Warning: card &RISM ignored
Warning: card / ignored

     Current dimensions of program PWSCF are:
     Max number of different atomic species (ntypx) = 10
     Max number of k-points (npk) =  40000
     Max angular momentum in pseudopotentials (lmaxx) =  4
     file Zn.upf: wavefunction(s)  3D renormalized
     Found identity + ( -0.0000 -0.5000  0.0000) symmetry
     This is a supercell, fractional translations are disabled

     Using Slab Decomposition

     bravais-lattice index     =            0
     lattice parameter (alat)  =      20.0195  a.u.
     unit-cell volume          =    2442.8847 (a.u.)^3
     number of atoms/cell      =           24
     number of atomic types    =            2
     number of electrons       =       216.00
     number of Kohn-Sham states=          108
     kinetic-energy cutoff     =      50.0000  Ry
     charge density cutoff     =     400.0000  Ry
     scf convergence threshold =      1.0E-08
     mixing beta               =       0.3000
     number of iterations used =            8  plain     mixing
     Exchange-correlation= PBE
                           (   1   4   3   4   0   0   0)

     celldm(1)=  20.019487  celldm(2)=   0.000000  celldm(3)=   0.000000
     celldm(4)=   0.000000  celldm(5)=   0.000000  celldm(6)=   0.000000

     crystal axes: (cart. coord. in units of alat)
               a(1) = (   1.000000   0.000000   0.000000 )
               a(2) = (  -0.333333   0.577350   0.000000 )
               a(3) = (   0.000000   0.000000   0.527357 )

     reciprocal axes: (cart. coord. in units 2 pi/alat)
               b(1) = (  1.000000  0.577350 -0.000000 )
               b(2) = (  0.000000  1.732051  0.000000 )
               b(3) = (  0.000000 -0.000000  1.896248 )

     PseudoPot. # 1 for Zn read from file:
     /home/jvc/QEspresso7.2/ZnO_database/pseudos/Zn.upf
     MD5 check sum: 7f56cabf9682ed8c977c2f7d0c5985c5
     Pseudo is Ultrasoft + core correction, Zval = 12.0
     Generated using &quot;atomic&quot; code by A. Dal Corso  v.6.2.2
     Using radial grid of 1201 points,  6 beta functions with:
                l(1) =   0
                l(2) =   0
                l(3) =   1
                l(4) =   1
                l(5) =   2
                l(6) =   2
     Q(r) pseudized with 0 coefficients

     PseudoPot. # 2 for O  read from file:
     /home/jvc/QEspresso7.2/ZnO_database/pseudos/O.upf
     MD5 check sum: 91400c9766925bcf19f520983a725ff0
     Pseudo is Ultrasoft + core correction, Zval =  6.0
     Generated using &quot;atomic&quot; code by A. Dal Corso  v.6.3MaX
     Using radial grid of 1095 points,  4 beta functions with:
                l(1) =   0
                l(2) =   0
                l(3) =   1
                l(4) =   1
     Q(r) pseudized with 0 coefficients

     atomic species   valence    mass     pseudopotential
        Zn            12.00    65.38000     Zn( 1.00)
        O              6.00    15.99900     O ( 1.00)

     No symmetry found

                                    s                        frac. trans.

      isym =  1     identity

 cryst.   s( 1) = (     1          0          0      )
                  (     0          1          0      )
                  (     0          0          1      )

 cart.    s( 1) = (  1.0000000  0.0000000  0.0000000 )
                  (  0.0000000  1.0000000  0.0000000 )
                  (  0.0000000  0.0000000  1.0000000 )

   Cartesian axes

     site n.     atom                  positions (alat units)
         1           Zn  tau(   1) = (   0.1666667   0.0962250   0.2640127  )
         2           Zn  tau(   2) = (  -0.0000000   0.1924501   0.0003341  )
         3           O   tau(   3) = (   0.1666667   0.0962250   0.4639036  )
         4           O   tau(   4) = (  -0.0000000   0.1924501   0.2002250  )
         5           Zn  tau(   5) = (  -0.0000000   0.3849002   0.2640127  )
         6           Zn  tau(   6) = (  -0.1666667   0.4811252   0.0003341  )
         7           O   tau(   7) = (  -0.0000000   0.3849002   0.4639036  )
         8           O   tau(   8) = (  -0.1666667   0.4811252   0.2002250  )
         9           Zn  tau(   9) = (   0.5000000   0.0962250   0.2640127  )
        10           Zn  tau(  10) = (   0.3333333   0.1924501   0.0003341  )
        11           O   tau(  11) = (   0.5000000   0.0962250   0.4639036  )
        12           O   tau(  12) = (   0.3333333   0.1924501   0.2002250  )
        13           Zn  tau(  13) = (   0.3333333   0.3849002   0.2640127  )
        14           Zn  tau(  14) = (   0.1666667   0.4811252   0.0003341  )
        15           O   tau(  15) = (   0.3333333   0.3849002   0.4639036  )
        16           O   tau(  16) = (   0.1666667   0.4811252   0.2002250  )
        17           Zn  tau(  17) = (   0.8333333   0.0962250   0.2640127  )
        18           Zn  tau(  18) = (   0.6666667   0.1924501   0.0003341  )
        19           O   tau(  19) = (   0.8333333   0.0962250   0.4639036  )
        20           O   tau(  20) = (   0.6666667   0.1924501   0.2002250  )
        21           Zn  tau(  21) = (   0.6666667   0.3849002   0.2640127  )
        22           Zn  tau(  22) = (   0.5000000   0.4811252   0.0003341  )
        23           O   tau(  23) = (   0.6666667   0.3849002   0.4639036  )
        24           O   tau(  24) = (   0.5000000   0.4811252   0.2002250  )

   Crystallographic axes

     site n.     atom                  positions (cryst. coord.)
         1           Zn  tau(   1) = (  0.2222222  0.1666667  0.5006336  )
         2           Zn  tau(   2) = (  0.1111111  0.3333333  0.0006336  )
         3           O   tau(   3) = (  0.2222222  0.1666667  0.8796764  )
         4           O   tau(   4) = (  0.1111111  0.3333333  0.3796764  )
         5           Zn  tau(   5) = (  0.2222222  0.6666667  0.5006336  )
         6           Zn  tau(   6) = (  0.1111111  0.8333333  0.0006336  )
         7           O   tau(   7) = (  0.2222222  0.6666667  0.8796764  )
         8           O   tau(   8) = (  0.1111111  0.8333333  0.3796764  )
         9           Zn  tau(   9) = (  0.5555556  0.1666667  0.5006336  )
        10           Zn  tau(  10) = (  0.4444444  0.3333333  0.0006336  )
        11           O   tau(  11) = (  0.5555556  0.1666667  0.8796764  )
        12           O   tau(  12) = (  0.4444444  0.3333333  0.3796764  )
        13           Zn  tau(  13) = (  0.5555556  0.6666667  0.5006336  )
        14           Zn  tau(  14) = (  0.4444444  0.8333333  0.0006336  )
        15           O   tau(  15) = (  0.5555556  0.6666667  0.8796764  )
        16           O   tau(  16) = (  0.4444444  0.8333333  0.3796764  )
        17           Zn  tau(  17) = (  0.8888889  0.1666667  0.5006336  )
        18           Zn  tau(  18) = (  0.7777778  0.3333333  0.0006336  )
        19           O   tau(  19) = (  0.8888889  0.1666667  0.8796764  )
        20           O   tau(  20) = (  0.7777778  0.3333333  0.3796764  )
        21           Zn  tau(  21) = (  0.8888889  0.6666667  0.5006336  )
        22           Zn  tau(  22) = (  0.7777778  0.8333333  0.0006336  )
        23           O   tau(  23) = (  0.8888889  0.6666667  0.8796764  )
        24           O   tau(  24) = (  0.7777778  0.8333333  0.3796764  )

     number of k points=   112
                       cart. coord. in units 2pi/alat
        k(    1) = (   0.0000000   0.0000000   0.0000000), wk =   0.0092593
        k(    2) = (   0.0000000   0.0000000   0.3160414), wk =   0.0185185
        k(    3) = (   0.0000000   0.0000000   0.6320828), wk =   0.0185185
        k(    4) = (   0.0000000   0.0000000  -0.9481242), wk =   0.0092593
        k(    5) = (   0.0000000   0.2886751   0.0000000), wk =   0.0185185
        k(    6) = (   0.0000000   0.2886751   0.3160414), wk =   0.0185185
        k(    7) = (   0.0000000   0.2886751   0.6320828), wk =   0.0185185
        k(    8) = (   0.0000000   0.2886751  -0.9481242), wk =   0.0185185
        k(    9) = (   0.0000000   0.5773503   0.0000000), wk =   0.0185185
        k(   10) = (   0.0000000   0.5773503   0.3160414), wk =   0.0185185
        k(   11) = (   0.0000000   0.5773503   0.6320828), wk =   0.0185185
        k(   12) = (   0.0000000   0.5773503  -0.9481242), wk =   0.0185185
        k(   13) = (   0.0000000  -0.8660254   0.0000000), wk =   0.0092593
        k(   14) = (   0.0000000  -0.8660254   0.3160414), wk =   0.0185185
        k(   15) = (   0.0000000  -0.8660254   0.6320828), wk =   0.0185185
        k(   16) = (   0.0000000  -0.8660254  -0.9481242), wk =   0.0092593
        k(   17) = (   0.1666667   0.0962250   0.0000000), wk =   0.0185185
        k(   18) = (   0.1666667   0.0962250   0.3160414), wk =   0.0185185
        k(   19) = (   0.1666667   0.0962250   0.6320828), wk =   0.0185185
        k(   20) = (   0.1666667   0.0962250  -0.9481242), wk =   0.0185185
        k(   21) = (   0.1666667   0.3849002   0.0000000), wk =   0.0185185
        k(   22) = (   0.1666667   0.3849002   0.3160414), wk =   0.0185185
        k(   23) = (   0.1666667   0.3849002   0.6320828), wk =   0.0185185
        k(   24) = (   0.1666667   0.3849002  -0.9481242), wk =   0.0185185
        k(   25) = (   0.1666667   0.6735753   0.0000000), wk =   0.0185185
        k(   26) = (   0.1666667   0.6735753   0.3160414), wk =   0.0185185
        k(   27) = (   0.1666667   0.6735753   0.6320828), wk =   0.0185185
        k(   28) = (   0.1666667   0.6735753  -0.9481242), wk =   0.0185185
        k(   29) = (   0.1666667  -0.7698004   0.0000000), wk =   0.0185185
        k(   30) = (   0.1666667  -0.7698004   0.3160414), wk =   0.0185185
        k(   31) = (   0.1666667  -0.7698004   0.6320828), wk =   0.0185185
        k(   32) = (   0.1666667  -0.7698004  -0.9481242), wk =   0.0185185
        k(   33) = (   0.1666667  -0.4811252   0.0000000), wk =   0.0185185
        k(   34) = (   0.1666667  -0.4811252   0.3160414), wk =   0.0185185
        k(   35) = (   0.1666667  -0.4811252   0.6320828), wk =   0.0185185
        k(   36) = (   0.1666667  -0.4811252  -0.9481242), wk =   0.0185185
        k(   37) = (   0.1666667  -0.1924501   0.0000000), wk =   0.0185185
        k(   38) = (   0.1666667  -0.1924501   0.3160414), wk =   0.0185185
        k(   39) = (   0.1666667  -0.1924501   0.6320828), wk =   0.0185185
        k(   40) = (   0.1666667  -0.1924501  -0.9481242), wk =   0.0185185
        k(   41) = (   0.3333333   0.1924501   0.0000000), wk =   0.0185185
        k(   42) = (   0.3333333   0.1924501   0.3160414), wk =   0.0185185
        k(   43) = (   0.3333333   0.1924501   0.6320828), wk =   0.0185185
        k(   44) = (   0.3333333   0.1924501  -0.9481242), wk =   0.0185185
        k(   45) = (   0.3333333   0.4811252   0.0000000), wk =   0.0185185
[...]
     atom   12 type  2   force =     0.00000524    0.00000150   -0.04519939
     atom   13 type  1   force =     0.00000681    0.00000101   -0.05627441
     atom   14 type  1   force =     0.00000168   -0.00000566   -0.05628221
     atom   15 type  2   force =    -0.00000657   -0.00000042   -0.04520327
     atom   16 type  2   force =    -0.00000102    0.00000143   -0.04520205
     atom   17 type  1   force =    -0.00000814    0.00000070   -0.05627365
     atom   18 type  1   force =    -0.00001310   -0.00000791   -0.05627649
     atom   19 type  2   force =    -0.00000027   -0.00000218   -0.04520310
     atom   20 type  2   force =     0.00001567    0.00000782   -0.04520288
     atom   21 type  1   force =    -0.00000184   -0.00000601   -0.05627559
     atom   22 type  1   force =    -0.00001783   -0.00001045   -0.05628029
     atom   23 type  2   force =    -0.00000545   -0.00000128   -0.04520260
     atom   24 type  2   force =     0.00001617    0.00001064   -0.04520261
     The ionic contribution  to forces
     atom    1 type  1   force =     0.00000001    0.00000001   -0.30712516
     atom    2 type  1   force =     0.00000001    0.00000001   -0.30712516
     atom    3 type  2   force =     0.00000000    0.00000001    0.30712516
     atom    4 type  2   force =     0.00000000    0.00000001    0.30712516
     atom    5 type  1   force =     0.00000001   -0.00000001   -0.30712516
     atom    6 type  1   force =     0.00000000    0.00000000   -0.30712516
     atom    7 type  2   force =     0.00000001   -0.00000001    0.30712516
     atom    8 type  2   force =     0.00000000    0.00000000    0.30712516
     atom    9 type  1   force =    -0.00000001    0.00000001   -0.30712516
     atom   10 type  1   force =     0.00000001    0.00000000   -0.30712517
     atom   11 type  2   force =    -0.00000001    0.00000001    0.30712516
     atom   12 type  2   force =     0.00000001    0.00000000    0.30712517
     atom   13 type  1   force =    -0.00000001   -0.00000001   -0.30712516
     atom   14 type  1   force =     0.00000001   -0.00000000   -0.30712516
     atom   15 type  2   force =    -0.00000000   -0.00000000    0.30712516
     atom   16 type  2   force =     0.00000000   -0.00000000    0.30712516
     atom   17 type  1   force =    -0.00000001    0.00000001   -0.30712516
     atom   18 type  1   force =    -0.00000001    0.00000000   -0.30712516
     atom   19 type  2   force =    -0.00000000    0.00000000    0.30712516
     atom   20 type  2   force =    -0.00000000    0.00000000    0.30712516
     atom   21 type  1   force =    -0.00000000   -0.00000002   -0.30712516
     atom   22 type  1   force =    -0.00000001   -0.00000001   -0.30712516
     atom   23 type  2   force =    -0.00000000   -0.00000001    0.30712516
     atom   24 type  2   force =    -0.00000001   -0.00000000    0.30712516
     The local contribution  to forces
     atom    1 type  1   force =    -0.00003624   -0.00000996    0.35979242
     atom    2 type  1   force =    -0.00001586   -0.00000175    0.35983185
     atom    3 type  2   force =     0.00000339    0.00000143   -0.26216869
     atom    4 type  2   force =    -0.00001319   -0.00001018   -0.26217216
     atom    5 type  1   force =    -0.00001329   -0.00001895    0.35979710
     atom    6 type  1   force =    -0.00001255   -0.00001375    0.35981676
     atom    7 type  2   force =     0.00000207    0.00000316   -0.26216714
     atom    8 type  2   force =    -0.00001352   -0.00000522   -0.26217288
     atom    9 type  1   force =    -0.00001734   -0.00002474    0.35981272
     atom   10 type  1   force =     0.00000804   -0.00002052    0.35982349
     atom   11 type  2   force =     0.00000513    0.00000246   -0.26216927
     atom   12 type  2   force =    -0.00001287   -0.00000904   -0.26217474
     atom   13 type  1   force =    -0.00000864    0.00000862    0.35979022
     atom   14 type  1   force =    -0.00001999    0.00001374    0.35982967
     atom   15 type  2   force =     0.00000712    0.00000430   -0.26216940
     atom   16 type  2   force =    -0.00001112   -0.00000470   -0.26217224
     atom   17 type  1   force =     0.00003785   -0.00000038    0.35980075
     atom   18 type  1   force =     0.00002232    0.00001786    0.35980274
     atom   19 type  2   force =     0.00001552    0.00000691   -0.26216857
     atom   20 type  2   force =    -0.00000130   -0.00000260   -0.26217283
     atom   21 type  1   force =     0.00000914    0.00002740    0.35981297
     atom   22 type  1   force =     0.00004621    0.00002220    0.35982571
     atom   23 type  2   force =     0.00001741    0.00001144   -0.26216751
     atom   24 type  2   force =     0.00000068    0.00000184   -0.26217217
     The core correction contribution to forces
     atom    1 type  1   force =     0.00000009   -0.00000038    0.00345800
     atom    2 type  1   force =     0.00000074    0.00000019    0.00345675
     atom    3 type  2   force =     0.00000021    0.00000013    0.00038318
     atom    4 type  2   force =    -0.00000008   -0.00000007    0.00038315
     atom    5 type  1   force =    -0.00000049   -0.00000001    0.00345788
     atom    6 type  1   force =     0.00000072    0.00000071    0.00345718
     atom    7 type  2   force =     0.00000017    0.00000011    0.00038319
     atom    8 type  2   force =    -0.00000010   -0.00000003    0.00038315
     atom    9 type  1   force =    -0.00000021    0.00000004    0.00345751
     atom   10 type  1   force =     0.00000019    0.00000083    0.00345716
     atom   11 type  2   force =     0.00000007    0.00000008    0.00038316
     atom   12 type  2   force =    -0.00000007   -0.00000002    0.00038310
     atom   13 type  1   force =    -0.00000035   -0.00000073    0.00345832
     atom   14 type  1   force =     0.00000088    0.00000014    0.00345694
     atom   15 type  2   force =     0.00000008    0.00000000    0.00038316
     atom   16 type  2   force =     0.00000001   -0.00000002    0.00038314
     atom   17 type  1   force =    -0.00000126   -0.00000019    0.00345765
     atom   18 type  1   force =     0.00000042    0.00000011    0.00345779
     atom   19 type  2   force =     0.00000000    0.00000002    0.00038317
     atom   20 type  2   force =    -0.00000018   -0.00000009    0.00038317
     atom   21 type  1   force =    -0.00000047   -0.00000085    0.00345728
     atom   22 type  1   force =    -0.00000027    0.00000015    0.00345703
     atom   23 type  2   force =     0.00000007    0.00000001    0.00038317
     atom   24 type  2   force =    -0.00000018   -0.00000011    0.00038316
     The Hubbard contrib.    to forces
     atom    1 type  1   force =     0.00000000    0.00000000    0.00000000
     atom    2 type  1   force =     0.00000000    0.00000000    0.00000000
     atom    3 type  2   force =     0.00000000    0.00000000    0.00000000
     atom    4 type  2   force =     0.00000000    0.00000000    0.00000000
     atom    5 type  1   force =     0.00000000    0.00000000    0.00000000
     atom    6 type  1   force =     0.00000000    0.00000000    0.00000000
     atom    7 type  2   force =     0.00000000    0.00000000    0.00000000
     atom    8 type  2   force =     0.00000000    0.00000000    0.00000000
     atom    9 type  1   force =     0.00000000    0.00000000    0.00000000
     atom   10 type  1   force =     0.00000000    0.00000000    0.00000000
     atom   11 type  2   force =     0.00000000    0.00000000    0.00000000
     atom   12 type  2   force =     0.00000000    0.00000000    0.00000000
     atom   13 type  1   force =     0.00000000    0.00000000    0.00000000
     atom   14 type  1   force =     0.00000000    0.00000000    0.00000000
     atom   15 type  2   force =     0.00000000    0.00000000    0.00000000
     atom   16 type  2   force =     0.00000000    0.00000000    0.00000000
     atom   17 type  1   force =     0.00000000    0.00000000    0.00000000
     atom   18 type  1   force =     0.00000000    0.00000000    0.00000000
     atom   19 type  2   force =     0.00000000    0.00000000    0.00000000
     atom   20 type  2   force =     0.00000000    0.00000000    0.00000000
     atom   21 type  1   force =     0.00000000    0.00000000    0.00000000
     atom   22 type  1   force =     0.00000000    0.00000000    0.00000000
     atom   23 type  2   force =     0.00000000    0.00000000    0.00000000
     atom   24 type  2   force =     0.00000000    0.00000000    0.00000000
     The SCF correction term to forces
     atom    1 type  1   force =     0.00003960    0.00001004    0.00002319
     atom    2 type  1   force =     0.00002746    0.00000167   -0.00002875
     atom    3 type  2   force =     0.00001351    0.00000936   -0.00000034
     atom    4 type  2   force =     0.00000781    0.00000507    0.00000106
     atom    5 type  1   force =     0.00001153    0.00002131    0.00001655
     atom    6 type  1   force =     0.00002050    0.00002418   -0.00000862
     atom    7 type  2   force =     0.00001284    0.00000607   -0.00000143
     atom    8 type  2   force =     0.00000643    0.00000314    0.00000171
     atom    9 type  1   force =     0.00001436    0.00002986   -0.00000625
     atom   10 type  1   force =    -0.00000531    0.00003242   -0.00001573
     atom   11 type  2   force =     0.00000088    0.00000493   -0.00000037
     atom   12 type  2   force =     0.00000868    0.00000891    0.00000292
     atom   13 type  1   force =     0.00000470   -0.00001744    0.00002673
     atom   14 type  1   force =     0.00003402   -0.00001570   -0.00002438
     atom   15 type  2   force =    -0.00000051   -0.00000386    0.00000055
     atom   16 type  2   force =     0.00001176    0.00000268    0.00000111
     atom   17 type  1   force =    -0.00005647   -0.00000215    0.00001112
     atom   18 type  1   force =    -0.00001927   -0.00001896    0.00001104
     atom   19 type  2   force =    -0.00001616   -0.00000572   -0.00000072
     atom   20 type  2   force =    -0.00001397   -0.00000480    0.00000243
     atom   21 type  1   force =    -0.00001665   -0.00004104   -0.00000782
     atom   22 type  1   force =    -0.00005464   -0.00002365   -0.00002188
     atom   23 type  2   force =    -0.00001273   -0.00001053   -0.00000147
     atom   24 type  2   force =    -0.00001753   -0.00001331    0.00000204

     Total force =     0.000668     Total SCF correction =     0.000154
     SCF correction compared to forces is large: reduce conv_thr to get better values

     General routines

     Parallel routines

   This run was terminated on:  18: 0:48   3Sep2025

   JOB DONE.
Note: The following floating-point exceptions are signalling: IEEE_UNDERFLOW_FLAG IEEE_DENORMAL
Note: The following floating-point exceptions are signalling: IEEE_UNDERFLOW_FLAG IEEE_DENORMAL
Note: The following floating-point exceptions are signalling: IEEE_UNDERFLOW_FLAG IEEE_DENORMAL
Note: The following floating-point exceptions are signalling: IEEE_UNDERFLOW_FLAG IEEE_DENORMAL
Note: The following floating-point exceptions are signalling: IEEE_UNDERFLOW_FLAG IEEE_DENORMAL
Note: The following floating-point exceptions are signalling: IEEE_UNDERFLOW_FLAG IEEE_DENORMAL
Note: The following floating-point exceptions are signalling: IEEE_UNDERFLOW_FLAG IEEE_DENORMAL
Note: The following floating-point exceptions are signalling: IEEE_UNDERFLOW_FLAG IEEE_DENORMAL
Note: The following floating-point exceptions are signalling: IEEE_UNDERFLOW_FLAG IEEE_DENORMAL
Note: The following floating-point exceptions are signalling: IEEE_UNDERFLOW_FLAG IEEE_DENORMAL
Note: The following floating-point exceptions are signalling: IEEE_UNDERFLOW_FLAG IEEE_DENORMAL
Note: The following floating-point exceptions are signalling: IEEE_UNDERFLOW_FLAG IEEE_DENORMAL
Note: The following floating-point exceptions are signalling: IEEE_UNDERFLOW_FLAG IEEE_DENORMAL
Note: The following floating-point exceptions are signalling: IEEE_UNDERFLOW_FLAG IEEE_DENORMAL
Note: The following floating-point exceptions are signalling: IEEE_UNDERFLOW_FLAG IEEE_DENORMAL
Note: The following floating-point exceptions are signalling: IEEE_UNDERFLOW_FLAG IEEE_DENORMAL
Note: The following floating-point exceptions are signalling: IEEE_UNDERFLOW_FLAG IEEE_DENORMAL
Note: The following floating-point exceptions are signalling: IEEE_UNDERFLOW_FLAG IEEE_DENORMAL
Note: The following floating-point exceptions are signalling: IEEE_UNDERFLOW_FLAG IEEE_DENORMAL
Note: The following floating-point exceptions are signalling: IEEE_UNDERFLOW_FLAG IEEE_DENORMAL
Note: The following floating-point exceptions are signalling: IEEE_UNDERFLOW_FLAG IEEE_DENORMAL
Note: The following floating-point exceptions are signalling: IEEE_UNDERFLOW_FLAG IEEE_DENORMAL
Note: The following floating-point exceptions are signalling: IEEE_UNDERFLOW_FLAG IEEE_DENORMAL
Note: The following floating-point exceptions are signalling: IEEE_UNDERFLOW_FLAG IEEE_DENORMAL
Note: The following floating-point exceptions are signalling: IEEE_UNDERFLOW_FLAG IEEE_DENORMAL
Note: The following floating-point exceptions are signalling: IEEE_UNDERFLOW_FLAG IEEE_DENORMAL
Note: The following floating-point exceptions are signalling: IEEE_UNDERFLOW_FLAG IEEE_DENORMAL
Note: The following floating-point exceptions are signalling: IEEE_UNDERFLOW_FLAG IEEE_DENORMAL
Note: The following floating-point exceptions are signalling: IEEE_UNDERFLOW_FLAG IEEE_DENORMAL
Note: The following floating-point exceptions are signalling: IEEE_UNDERFLOW_FLAG IEEE_DENORMAL
Note: The following floating-point exceptions are signalling: IEEE_UNDERFLOW_FLAG IEEE_DENORMAL
Note: The following floating-point exceptions are signalling: IEEE_UNDERFLOW_FLAG IEEE_DENORMAL
Note: The following floating-point exceptions are signalling: IEEE_UNDERFLOW_FLAG IEEE_DENORMAL
Note: The following floating-point exceptions are signalling: IEEE_UNDERFLOW_FLAG IEEE_DENORMAL
Note: The following floating-point exceptions are signalling: IEEE_UNDERFLOW_FLAG IEEE_DENORMAL
Note: The following floating-point exceptions are signalling: IEEE_UNDERFLOW_FLAG IEEE_DENORMAL
Note: The following floating-point exceptions are signalling: IEEE_UNDERFLOW_FLAG IEEE_DENORMAL
Note: The following floating-point exceptions are signalling: IEEE_UNDERFLOW_FLAG IEEE_DENORMAL
Note: The following floating-point exceptions are signalling: IEEE_UNDERFLOW_FLAG IEEE_DENORMAL
Note: The following floating-point exceptions are signalling: IEEE_UNDERFLOW_FLAG IEEE_DENORMAL
Note: The following floating-point exceptions are signalling: IEEE_UNDERFLOW_FLAG IEEE_DENORMAL
Note: The following floating-point exceptions are signalling: IEEE_UNDERFLOW_FLAG IEEE_DENORMAL
Note: The following floating-point exceptions are signalling: IEEE_UNDERFLOW_FLAG IEEE_DENORMAL
Note: The following floating-point exceptions are signalling: IEEE_UNDERFLOW_FLAG IEEE_DENORMAL
Note: The following floating-point exceptions are signalling: IEEE_UNDERFLOW_FLAG IEEE_DENORMAL
Note: The following floating-point exceptions are signalling: IEEE_UNDERFLOW_FLAG IEEE_DENORMAL
Note: The following floating-point exceptions are signalling: IEEE_UNDERFLOW_FLAG IEEE_DENORMAL
Note: The following floating-point exceptions are signalling: IEEE_UNDERFLOW_FLAG IEEE_DENORMAL
Note: The following floating-point exceptions are signalling: IEEE_UNDERFLOW_FLAG IEEE_DENORMAL
Note: The following floating-point exceptions are signalling: IEEE_UNDERFLOW_FLAG IEEE_DENORMAL
Note: The following floating-point exceptions are signalling: IEEE_UNDERFLOW_FLAG IEEE_DENORMAL
Note: The following floating-point exceptions are signalling: IEEE_UNDERFLOW_FLAG IEEE_DENORMAL
Note: The following floating-point exceptions are signalling: IEEE_UNDERFLOW_FLAG IEEE_DENORMAL
Note: The following floating-point exceptions are signalling: IEEE_UNDERFLOW_FLAG IEEE_DENORMAL
Note: The following floating-point exceptions are signalling: IEEE_UNDERFLOW_FLAG IEEE_DENORMAL
Note: The following floating-point exceptions are signalling: IEEE_UNDERFLOW_FLAG IEEE_DENORMAL
Note: The following floating-point exceptions are signalling: IEEE_UNDERFLOW_FLAG IEEE_DENORMAL
Note: The following floating-point exceptions are signalling: IEEE_UNDERFLOW_FLAG IEEE_DENORMAL
Note: The following floating-point exceptions are signalling: IEEE_UNDERFLOW_FLAG IEEE_DENORMAL
Note: The following floating-point exceptions are signalling: IEEE_UNDERFLOW_FLAG IEEE_DENORMAL
Note: The following floating-point exceptions are signalling: IEEE_UNDERFLOW_FLAG IEEE_DENORMAL
Note: The following floating-point exceptions are signalling: IEEE_UNDERFLOW_FLAG IEEE_DENORMAL
Note: The following floating-point exceptions are signalling: IEEE_UNDERFLOW_FLAG IEEE_DENORMAL
Note: The following floating-point exceptions are signalling: IEEE_UNDERFLOW_FLAG IEEE_DENORMAL