     Program PWSCF v.7.0 starts on  2Sep2025 at  1: 5:28

     K-points division:     npool     =      16
     R & G space division:  proc/nbgrp/npool/nimage =       4

     Reading input from /home/jvc/QEspresso7.2/ZnO_database/scripts/cell321.in/ZnO-3.01-1.49-321.in
Warning: card &CELL ignored
Warning: card / ignored
Warning: card &FCP ignored
Warning: card / ignored
Warning: card &RISM ignored
Warning: card / ignored

     Current dimensions of program PWSCF are:
     Max number of different atomic species (ntypx) = 10
     Max number of k-points (npk) =  40000
     Max angular momentum in pseudopotentials (lmaxx) =  4
     file Zn.upf: wavefunction(s)  3D renormalized
     Found identity + ( -0.0000  0.5000  0.0000) symmetry
     This is a supercell, fractional translations are disabled

     Using Slab Decomposition

     bravais-lattice index     =            0
     lattice parameter (alat)  =      17.0536  a.u.
     unit-cell volume          =    1417.6105 (a.u.)^3
     number of atoms/cell      =           24
     number of atomic types    =            2
     number of electrons       =       216.00
     number of Kohn-Sham states=          108
     kinetic-energy cutoff     =      50.0000  Ry
     charge density cutoff     =     400.0000  Ry
     scf convergence threshold =      1.0E-08
     mixing beta               =       0.3000
     number of iterations used =            8  plain     mixing
     Exchange-correlation= PBE
                           (   1   4   3   4   0   0   0)

     celldm(1)=  17.053637  celldm(2)=   0.000000  celldm(3)=   0.000000
     celldm(4)=   0.000000  celldm(5)=   0.000000  celldm(6)=   0.000000

     crystal axes: (cart. coord. in units of alat)
               a(1) = (   1.000000   0.000000   0.000000 )
               a(2) = (  -0.333333   0.577350   0.000000 )
               a(3) = (   0.000000   0.000000   0.495070 )

     reciprocal axes: (cart. coord. in units 2 pi/alat)
               b(1) = (  1.000000  0.577350 -0.000000 )
               b(2) = (  0.000000  1.732051  0.000000 )
               b(3) = (  0.000000 -0.000000  2.019917 )

     PseudoPot. # 1 for Zn read from file:
     /home/jvc/QEspresso7.2/ZnO_database/pseudos/Zn.upf
     MD5 check sum: 7f56cabf9682ed8c977c2f7d0c5985c5
     Pseudo is Ultrasoft + core correction, Zval = 12.0
     Generated using &quot;atomic&quot; code by A. Dal Corso  v.6.2.2
     Using radial grid of 1201 points,  6 beta functions with:
                l(1) =   0
                l(2) =   0
                l(3) =   1
                l(4) =   1
                l(5) =   2
                l(6) =   2
     Q(r) pseudized with 0 coefficients

     PseudoPot. # 2 for O  read from file:
     /home/jvc/QEspresso7.2/ZnO_database/pseudos/O.upf
     MD5 check sum: 91400c9766925bcf19f520983a725ff0
     Pseudo is Ultrasoft + core correction, Zval =  6.0
     Generated using &quot;atomic&quot; code by A. Dal Corso  v.6.3MaX
     Using radial grid of 1095 points,  4 beta functions with:
                l(1) =   0
                l(2) =   0
                l(3) =   1
                l(4) =   1
     Q(r) pseudized with 0 coefficients

     atomic species   valence    mass     pseudopotential
        Zn            12.00    65.38000     Zn( 1.00)
        O              6.00    15.99900     O ( 1.00)

     No symmetry found

                                    s                        frac. trans.

      isym =  1     identity

 cryst.   s( 1) = (     1          0          0      )
                  (     0          1          0      )
                  (     0          0          1      )

 cart.    s( 1) = (  1.0000000  0.0000000  0.0000000 )
                  (  0.0000000  1.0000000  0.0000000 )
                  (  0.0000000  0.0000000  1.0000000 )

   Cartesian axes

     site n.     atom                  positions (alat units)
         1           Zn  tau(   1) = (   0.1666667   0.0962250   0.2478486  )
         2           Zn  tau(   2) = (   0.0000000   0.1924501   0.0003137  )
         3           O   tau(   3) = (   0.1666667   0.0962250   0.4355013  )
         4           O   tau(   4) = (   0.0000000   0.1924501   0.1879664  )
         5           Zn  tau(   5) = (   0.0000000   0.3849002   0.2478486  )
         6           Zn  tau(   6) = (  -0.1666667   0.4811252   0.0003137  )
         7           O   tau(   7) = (   0.0000000   0.3849002   0.4355013  )
         8           O   tau(   8) = (  -0.1666667   0.4811252   0.1879664  )
         9           Zn  tau(   9) = (   0.5000000   0.0962250   0.2478486  )
        10           Zn  tau(  10) = (   0.3333333   0.1924501   0.0003137  )
        11           O   tau(  11) = (   0.5000000   0.0962250   0.4355013  )
        12           O   tau(  12) = (   0.3333333   0.1924501   0.1879664  )
        13           Zn  tau(  13) = (   0.3333333   0.3849002   0.2478486  )
        14           Zn  tau(  14) = (   0.1666667   0.4811252   0.0003137  )
        15           O   tau(  15) = (   0.3333333   0.3849002   0.4355013  )
        16           O   tau(  16) = (   0.1666667   0.4811252   0.1879664  )
        17           Zn  tau(  17) = (   0.8333333   0.0962250   0.2478486  )
        18           Zn  tau(  18) = (   0.6666667   0.1924501   0.0003137  )
        19           O   tau(  19) = (   0.8333333   0.0962250   0.4355013  )
        20           O   tau(  20) = (   0.6666667   0.1924501   0.1879664  )
        21           Zn  tau(  21) = (   0.6666667   0.3849002   0.2478486  )
        22           Zn  tau(  22) = (   0.5000000   0.4811252   0.0003137  )
        23           O   tau(  23) = (   0.6666667   0.3849002   0.4355013  )
        24           O   tau(  24) = (   0.5000000   0.4811252   0.1879664  )

   Crystallographic axes

     site n.     atom                  positions (cryst. coord.)
         1           Zn  tau(   1) = (  0.2222222  0.1666667  0.5006336  )
         2           Zn  tau(   2) = (  0.1111111  0.3333333  0.0006336  )
         3           O   tau(   3) = (  0.2222222  0.1666667  0.8796764  )
         4           O   tau(   4) = (  0.1111111  0.3333333  0.3796764  )
         5           Zn  tau(   5) = (  0.2222222  0.6666667  0.5006336  )
         6           Zn  tau(   6) = (  0.1111111  0.8333333  0.0006336  )
         7           O   tau(   7) = (  0.2222222  0.6666667  0.8796764  )
         8           O   tau(   8) = (  0.1111111  0.8333333  0.3796764  )
         9           Zn  tau(   9) = (  0.5555556  0.1666667  0.5006336  )
        10           Zn  tau(  10) = (  0.4444444  0.3333333  0.0006336  )
        11           O   tau(  11) = (  0.5555556  0.1666667  0.8796764  )
        12           O   tau(  12) = (  0.4444444  0.3333333  0.3796764  )
        13           Zn  tau(  13) = (  0.5555556  0.6666667  0.5006336  )
        14           Zn  tau(  14) = (  0.4444444  0.8333333  0.0006336  )
        15           O   tau(  15) = (  0.5555556  0.6666667  0.8796764  )
        16           O   tau(  16) = (  0.4444444  0.8333333  0.3796764  )
        17           Zn  tau(  17) = (  0.8888889  0.1666667  0.5006336  )
        18           Zn  tau(  18) = (  0.7777778  0.3333333  0.0006336  )
        19           O   tau(  19) = (  0.8888889  0.1666667  0.8796764  )
        20           O   tau(  20) = (  0.7777778  0.3333333  0.3796764  )
        21           Zn  tau(  21) = (  0.8888889  0.6666667  0.5006336  )
        22           Zn  tau(  22) = (  0.7777778  0.8333333  0.0006336  )
        23           O   tau(  23) = (  0.8888889  0.6666667  0.8796764  )
        24           O   tau(  24) = (  0.7777778  0.8333333  0.3796764  )

     number of k points=   112
                       cart. coord. in units 2pi/alat
        k(    1) = (   0.0000000   0.0000000   0.0000000), wk =   0.0092593
        k(    2) = (   0.0000000   0.0000000   0.3366528), wk =   0.0185185
        k(    3) = (   0.0000000   0.0000000   0.6733056), wk =   0.0185185
        k(    4) = (   0.0000000   0.0000000  -1.0099584), wk =   0.0092593
        k(    5) = (   0.0000000   0.2886751   0.0000000), wk =   0.0185185
        k(    6) = (   0.0000000   0.2886751   0.3366528), wk =   0.0185185
        k(    7) = (   0.0000000   0.2886751   0.6733056), wk =   0.0185185
        k(    8) = (   0.0000000   0.2886751  -1.0099584), wk =   0.0185185
        k(    9) = (   0.0000000   0.5773503   0.0000000), wk =   0.0185185
        k(   10) = (   0.0000000   0.5773503   0.3366528), wk =   0.0185185
        k(   11) = (   0.0000000   0.5773503   0.6733056), wk =   0.0185185
        k(   12) = (   0.0000000   0.5773503  -1.0099584), wk =   0.0185185
        k(   13) = (   0.0000000  -0.8660254   0.0000000), wk =   0.0092593
        k(   14) = (   0.0000000  -0.8660254   0.3366528), wk =   0.0185185
        k(   15) = (   0.0000000  -0.8660254   0.6733056), wk =   0.0185185
        k(   16) = (   0.0000000  -0.8660254  -1.0099584), wk =   0.0092593
        k(   17) = (   0.1666667   0.0962250   0.0000000), wk =   0.0185185
        k(   18) = (   0.1666667   0.0962250   0.3366528), wk =   0.0185185
        k(   19) = (   0.1666667   0.0962250   0.6733056), wk =   0.0185185
        k(   20) = (   0.1666667   0.0962250  -1.0099584), wk =   0.0185185
        k(   21) = (   0.1666667   0.3849002   0.0000000), wk =   0.0185185
        k(   22) = (   0.1666667   0.3849002   0.3366528), wk =   0.0185185
        k(   23) = (   0.1666667   0.3849002   0.6733056), wk =   0.0185185
        k(   24) = (   0.1666667   0.3849002  -1.0099584), wk =   0.0185185
        k(   25) = (   0.1666667   0.6735753   0.0000000), wk =   0.0185185
        k(   26) = (   0.1666667   0.6735753   0.3366528), wk =   0.0185185
        k(   27) = (   0.1666667   0.6735753   0.6733056), wk =   0.0185185
        k(   28) = (   0.1666667   0.6735753  -1.0099584), wk =   0.0185185
        k(   29) = (   0.1666667  -0.7698004   0.0000000), wk =   0.0185185
        k(   30) = (   0.1666667  -0.7698004   0.3366528), wk =   0.0185185
        k(   31) = (   0.1666667  -0.7698004   0.6733056), wk =   0.0185185
        k(   32) = (   0.1666667  -0.7698004  -1.0099584), wk =   0.0185185
        k(   33) = (   0.1666667  -0.4811252   0.0000000), wk =   0.0185185
        k(   34) = (   0.1666667  -0.4811252   0.3366528), wk =   0.0185185
        k(   35) = (   0.1666667  -0.4811252   0.6733056), wk =   0.0185185
        k(   36) = (   0.1666667  -0.4811252  -1.0099584), wk =   0.0185185
        k(   37) = (   0.1666667  -0.1924501   0.0000000), wk =   0.0185185
        k(   38) = (   0.1666667  -0.1924501   0.3366528), wk =   0.0185185
        k(   39) = (   0.1666667  -0.1924501   0.6733056), wk =   0.0185185
        k(   40) = (   0.1666667  -0.1924501  -1.0099584), wk =   0.0185185
        k(   41) = (   0.3333333   0.1924501   0.0000000), wk =   0.0185185
        k(   42) = (   0.3333333   0.1924501   0.3366528), wk =   0.0185185
        k(   43) = (   0.3333333   0.1924501   0.6733056), wk =   0.0185185
        k(   44) = (   0.3333333   0.1924501  -1.0099584), wk =   0.0185185
        k(   45) = (   0.3333333   0.4811252   0.0000000), wk =   0.0185185
[...]
     atom   10 type  1   force =     0.00000026    0.00000235   -0.29174857
     atom   11 type  2   force =    -0.00000089   -0.00000208   -0.15695339
     atom   12 type  2   force =     0.00000125   -0.00000045   -0.15695203
     atom   13 type  1   force =     0.00000186   -0.00000040   -0.29174970
     atom   14 type  1   force =     0.00000177   -0.00000131   -0.29174679
     atom   15 type  2   force =    -0.00000242   -0.00000010   -0.15695315
     atom   16 type  2   force =     0.00000000    0.00000173   -0.15695238
     atom   17 type  1   force =    -0.00000091    0.00000008   -0.29174808
     atom   18 type  1   force =    -0.00000335   -0.00000006   -0.29174782
     atom   19 type  2   force =    -0.00000135   -0.00000062   -0.15695293
     atom   20 type  2   force =     0.00000270    0.00000114   -0.15695241
     atom   21 type  1   force =    -0.00000174   -0.00000154   -0.29174942
     atom   22 type  1   force =    -0.00000335   -0.00000387   -0.29174714
     atom   23 type  2   force =    -0.00000032   -0.00000072   -0.15695306
     atom   24 type  2   force =     0.00000366    0.00000252   -0.15695250
     The ionic contribution  to forces
     atom    1 type  1   force =     0.00000001    0.00000002   -2.06565051
     atom    2 type  1   force =     0.00000001    0.00000002   -2.06565051
     atom    3 type  2   force =     0.00000000    0.00000001    2.06565051
     atom    4 type  2   force =     0.00000001    0.00000001    2.06565051
     atom    5 type  1   force =     0.00000000    0.00000000   -2.06565051
     atom    6 type  1   force =     0.00000001   -0.00000002   -2.06565051
     atom    7 type  2   force =    -0.00000000    0.00000000    2.06565051
     atom    8 type  2   force =     0.00000001   -0.00000001    2.06565051
     atom    9 type  1   force =    -0.00000001    0.00000002   -2.06565051
     atom   10 type  1   force =     0.00000001    0.00000001   -2.06565051
     atom   11 type  2   force =    -0.00000001    0.00000001    2.06565051
     atom   12 type  2   force =     0.00000001   -0.00000000    2.06565051
     atom   13 type  1   force =    -0.00000002    0.00000000   -2.06565052
     atom   14 type  1   force =     0.00000002   -0.00000002   -2.06565051
     atom   15 type  2   force =    -0.00000001    0.00000000    2.06565052
     atom   16 type  2   force =     0.00000001   -0.00000002    2.06565051
     atom   17 type  1   force =    -0.00000001    0.00000001   -2.06565051
     atom   18 type  1   force =    -0.00000001    0.00000000   -2.06565051
     atom   19 type  2   force =    -0.00000000    0.00000001    2.06565051
     atom   20 type  2   force =    -0.00000000    0.00000000    2.06565051
     atom   21 type  1   force =    -0.00000002   -0.00000001   -2.06565051
     atom   22 type  1   force =    -0.00000001   -0.00000003   -2.06565051
     atom   23 type  2   force =    -0.00000001   -0.00000000    2.06565051
     atom   24 type  2   force =     0.00000000   -0.00000002    2.06565051
     The local contribution  to forces
     atom    1 type  1   force =    -0.00000138   -0.00000458    2.20062560
     atom    2 type  1   force =    -0.00000488   -0.00000144    2.20062915
     atom    3 type  2   force =     0.00000025   -0.00000302   -1.78286599
     atom    4 type  2   force =    -0.00000291   -0.00000118   -1.78286688
     atom    5 type  1   force =    -0.00000298    0.00000170    2.20062899
     atom    6 type  1   force =    -0.00000163   -0.00000145    2.20062835
     atom    7 type  2   force =     0.00000189    0.00000261   -1.78286514
     atom    8 type  2   force =    -0.00000142   -0.00000030   -1.78286706
     atom    9 type  1   force =    -0.00000317   -0.00000490    2.20063188
     atom   10 type  1   force =    -0.00000070   -0.00000720    2.20063011
     atom   11 type  2   force =    -0.00000031   -0.00000347   -1.78286845
     atom   12 type  2   force =    -0.00000263   -0.00000461   -1.78286550
     atom   13 type  1   force =    -0.00000414    0.00000107    2.20062975
     atom   14 type  1   force =    -0.00000699    0.00000328    2.20062470
     atom   15 type  2   force =    -0.00000033    0.00000234   -1.78286848
     atom   16 type  2   force =    -0.00000388   -0.00000078   -1.78286352
     atom   17 type  1   force =     0.00000293    0.00000024    2.20062903
     atom   18 type  1   force =     0.00000743    0.00000017    2.20062633
     atom   19 type  2   force =     0.00000490   -0.00000085   -1.78286506
     atom   20 type  2   force =     0.00000203   -0.00000213   -1.78286512
     atom   21 type  1   force =     0.00000550    0.00000443    2.20063225
     atom   22 type  1   force =     0.00000967    0.00001052    2.20062465
     atom   23 type  2   force =     0.00000454    0.00000548   -1.78286703
     atom   24 type  2   force =     0.00000088    0.00000482   -1.78286333
     The core correction contribution to forces
     atom    1 type  1   force =    -0.00000006   -0.00000002    0.03026571
     atom    2 type  1   force =     0.00000012    0.00000004    0.03026568
     atom    3 type  2   force =     0.00000004    0.00000002    0.00068842
     atom    4 type  2   force =    -0.00000001    0.00000001    0.00068842
     atom    5 type  1   force =    -0.00000002   -0.00000004    0.03026567
     atom    6 type  1   force =     0.00000008    0.00000011    0.03026563
     atom    7 type  2   force =     0.00000003    0.00000000    0.00068843
     atom    8 type  2   force =    -0.00000003   -0.00000001    0.00068841
     atom    9 type  1   force =    -0.00000007   -0.00000005    0.03026567
     atom   10 type  1   force =     0.00000000    0.00000013    0.03026564
     atom   11 type  2   force =     0.00000001    0.00000002    0.00068842
     atom   12 type  2   force =    -0.00000001    0.00000002    0.00068841
     atom   13 type  1   force =    -0.00000006   -0.00000004    0.03026581
     atom   14 type  1   force =     0.00000017    0.00000001    0.03026560
     atom   15 type  2   force =     0.00000003   -0.00000001    0.00068842
     atom   16 type  2   force =    -0.00000001   -0.00000003    0.00068842
     atom   17 type  1   force =    -0.00000010   -0.00000006    0.03026558
     atom   18 type  1   force =     0.00000005    0.00000005    0.03026572
     atom   19 type  2   force =     0.00000003    0.00000000    0.00068842
     atom   20 type  2   force =    -0.00000003   -0.00000000    0.00068842
     atom   21 type  1   force =    -0.00000009   -0.00000007    0.03026565
     atom   22 type  1   force =    -0.00000001    0.00000001    0.03026565
     atom   23 type  2   force =     0.00000001    0.00000000    0.00068842
     atom   24 type  2   force =    -0.00000005   -0.00000002    0.00068842
     The Hubbard contrib.    to forces
     atom    1 type  1   force =     0.00000000    0.00000000    0.00000000
     atom    2 type  1   force =     0.00000000    0.00000000    0.00000000
     atom    3 type  2   force =     0.00000000    0.00000000    0.00000000
     atom    4 type  2   force =     0.00000000    0.00000000    0.00000000
     atom    5 type  1   force =     0.00000000    0.00000000    0.00000000
     atom    6 type  1   force =     0.00000000    0.00000000    0.00000000
     atom    7 type  2   force =     0.00000000    0.00000000    0.00000000
     atom    8 type  2   force =     0.00000000    0.00000000    0.00000000
     atom    9 type  1   force =     0.00000000    0.00000000    0.00000000
     atom   10 type  1   force =     0.00000000    0.00000000    0.00000000
     atom   11 type  2   force =     0.00000000    0.00000000    0.00000000
     atom   12 type  2   force =     0.00000000    0.00000000    0.00000000
     atom   13 type  1   force =     0.00000000    0.00000000    0.00000000
     atom   14 type  1   force =     0.00000000    0.00000000    0.00000000
     atom   15 type  2   force =     0.00000000    0.00000000    0.00000000
     atom   16 type  2   force =     0.00000000    0.00000000    0.00000000
     atom   17 type  1   force =     0.00000000    0.00000000    0.00000000
     atom   18 type  1   force =     0.00000000    0.00000000    0.00000000
     atom   19 type  2   force =     0.00000000    0.00000000    0.00000000
     atom   20 type  2   force =     0.00000000    0.00000000    0.00000000
     atom   21 type  1   force =     0.00000000    0.00000000    0.00000000
     atom   22 type  1   force =     0.00000000    0.00000000    0.00000000
     atom   23 type  2   force =     0.00000000    0.00000000    0.00000000
     atom   24 type  2   force =     0.00000000    0.00000000    0.00000000
     The SCF correction term to forces
     atom    1 type  1   force =     0.00000126    0.00000602   -0.00001406
     atom    2 type  1   force =     0.00000606    0.00000189   -0.00001881
     atom    3 type  2   force =     0.00000244    0.00000489   -0.00000431
     atom    4 type  2   force =     0.00000203    0.00000065   -0.00000306
     atom    5 type  1   force =     0.00000298   -0.00000324   -0.00001855
     atom    6 type  1   force =     0.00000227    0.00000107   -0.00001786
     atom    7 type  2   force =     0.00000024   -0.00000168   -0.00000505
     atom    8 type  2   force =    -0.00000032   -0.00000047   -0.00000338
     atom    9 type  1   force =     0.00000391    0.00000622   -0.00002316
     atom   10 type  1   force =     0.00000101    0.00000890   -0.00002032
     atom   11 type  2   force =     0.00000158    0.00000556   -0.00000111
     atom   12 type  2   force =     0.00000120    0.00000485   -0.00000535
     atom   13 type  1   force =     0.00000592   -0.00000206   -0.00001992
     atom   14 type  1   force =     0.00000919   -0.00000449   -0.00001200
     atom   15 type  2   force =     0.00000272   -0.00000223   -0.00000107
     atom   16 type  2   force =     0.00000374   -0.00000065   -0.00000713
     atom   17 type  1   force =    -0.00000298    0.00000011   -0.00001801
     atom   18 type  1   force =    -0.00000958   -0.00000044   -0.00001473
     atom   19 type  2   force =    -0.00000370    0.00000152   -0.00000517
     atom   20 type  2   force =    -0.00000497    0.00000120   -0.00000560
     atom   21 type  1   force =    -0.00000653   -0.00000576   -0.00002300
     atom   22 type  1   force =    -0.00001362   -0.00001511   -0.00001194
     atom   23 type  2   force =    -0.00000385   -0.00000512   -0.00000280
     atom   24 type  2   force =    -0.00000427   -0.00000726   -0.00000734

     Total force =     0.619815     Total SCF correction =     0.000074

     General routines

     Parallel routines

   This run was terminated on:   1:18:59   2Sep2025

   JOB DONE.
Note: The following floating-point exceptions are signalling: IEEE_UNDERFLOW_FLAG IEEE_DENORMAL
Note: The following floating-point exceptions are signalling: IEEE_UNDERFLOW_FLAG IEEE_DENORMAL
Note: The following floating-point exceptions are signalling: IEEE_UNDERFLOW_FLAG IEEE_DENORMAL
Note: The following floating-point exceptions are signalling: IEEE_UNDERFLOW_FLAG IEEE_DENORMAL
Note: The following floating-point exceptions are signalling: IEEE_UNDERFLOW_FLAG IEEE_DENORMAL
Note: The following floating-point exceptions are signalling: IEEE_UNDERFLOW_FLAG IEEE_DENORMAL
Note: The following floating-point exceptions are signalling: IEEE_UNDERFLOW_FLAG IEEE_DENORMAL
Note: The following floating-point exceptions are signalling: IEEE_UNDERFLOW_FLAG IEEE_DENORMAL
Note: The following floating-point exceptions are signalling: IEEE_UNDERFLOW_FLAG IEEE_DENORMAL
Note: The following floating-point exceptions are signalling: IEEE_UNDERFLOW_FLAG IEEE_DENORMAL
Note: The following floating-point exceptions are signalling: IEEE_UNDERFLOW_FLAG IEEE_DENORMAL
Note: The following floating-point exceptions are signalling: IEEE_UNDERFLOW_FLAG IEEE_DENORMAL
Note: The following floating-point exceptions are signalling: IEEE_UNDERFLOW_FLAG IEEE_DENORMAL
Note: The following floating-point exceptions are signalling: IEEE_UNDERFLOW_FLAG IEEE_DENORMAL
Note: The following floating-point exceptions are signalling: IEEE_UNDERFLOW_FLAG IEEE_DENORMAL
Note: The following floating-point exceptions are signalling: IEEE_UNDERFLOW_FLAG IEEE_DENORMAL
Note: The following floating-point exceptions are signalling: IEEE_UNDERFLOW_FLAG IEEE_DENORMAL
Note: The following floating-point exceptions are signalling: IEEE_UNDERFLOW_FLAG IEEE_DENORMAL
Note: The following floating-point exceptions are signalling: IEEE_UNDERFLOW_FLAG IEEE_DENORMAL
Note: The following floating-point exceptions are signalling: IEEE_UNDERFLOW_FLAG IEEE_DENORMAL
Note: The following floating-point exceptions are signalling: IEEE_UNDERFLOW_FLAG IEEE_DENORMAL
Note: The following floating-point exceptions are signalling: IEEE_UNDERFLOW_FLAG IEEE_DENORMAL
Note: The following floating-point exceptions are signalling: IEEE_UNDERFLOW_FLAG IEEE_DENORMAL
Note: The following floating-point exceptions are signalling: IEEE_UNDERFLOW_FLAG IEEE_DENORMAL
Note: The following floating-point exceptions are signalling: IEEE_UNDERFLOW_FLAG IEEE_DENORMAL
Note: The following floating-point exceptions are signalling: IEEE_UNDERFLOW_FLAG IEEE_DENORMAL
Note: The following floating-point exceptions are signalling: IEEE_UNDERFLOW_FLAG IEEE_DENORMAL
Note: The following floating-point exceptions are signalling: IEEE_UNDERFLOW_FLAG IEEE_DENORMAL
Note: The following floating-point exceptions are signalling: IEEE_UNDERFLOW_FLAG IEEE_DENORMAL
Note: The following floating-point exceptions are signalling: IEEE_UNDERFLOW_FLAG IEEE_DENORMAL
Note: The following floating-point exceptions are signalling: IEEE_UNDERFLOW_FLAG IEEE_DENORMAL
Note: The following floating-point exceptions are signalling: IEEE_UNDERFLOW_FLAG IEEE_DENORMAL
Note: The following floating-point exceptions are signalling: IEEE_UNDERFLOW_FLAG IEEE_DENORMAL
Note: The following floating-point exceptions are signalling: IEEE_UNDERFLOW_FLAG IEEE_DENORMAL
Note: The following floating-point exceptions are signalling: IEEE_UNDERFLOW_FLAG IEEE_DENORMAL
Note: The following floating-point exceptions are signalling: IEEE_UNDERFLOW_FLAG IEEE_DENORMAL
Note: The following floating-point exceptions are signalling: IEEE_UNDERFLOW_FLAG IEEE_DENORMAL
Note: The following floating-point exceptions are signalling: IEEE_UNDERFLOW_FLAG IEEE_DENORMAL
Note: The following floating-point exceptions are signalling: IEEE_UNDERFLOW_FLAG IEEE_DENORMAL
Note: The following floating-point exceptions are signalling: IEEE_UNDERFLOW_FLAG IEEE_DENORMAL
Note: The following floating-point exceptions are signalling: IEEE_UNDERFLOW_FLAG IEEE_DENORMAL
Note: The following floating-point exceptions are signalling: IEEE_UNDERFLOW_FLAG IEEE_DENORMAL
Note: The following floating-point exceptions are signalling: IEEE_UNDERFLOW_FLAG IEEE_DENORMAL
Note: The following floating-point exceptions are signalling: IEEE_UNDERFLOW_FLAG IEEE_DENORMAL
Note: The following floating-point exceptions are signalling: IEEE_UNDERFLOW_FLAG IEEE_DENORMAL
Note: The following floating-point exceptions are signalling: IEEE_UNDERFLOW_FLAG IEEE_DENORMAL
Note: The following floating-point exceptions are signalling: IEEE_UNDERFLOW_FLAG IEEE_DENORMAL
Note: The following floating-point exceptions are signalling: IEEE_UNDERFLOW_FLAG IEEE_DENORMAL
Note: The following floating-point exceptions are signalling: IEEE_UNDERFLOW_FLAG IEEE_DENORMAL
Note: The following floating-point exceptions are signalling: IEEE_UNDERFLOW_FLAG IEEE_DENORMAL
Note: The following floating-point exceptions are signalling: IEEE_UNDERFLOW_FLAG IEEE_DENORMAL
Note: The following floating-point exceptions are signalling: IEEE_UNDERFLOW_FLAG IEEE_DENORMAL
Note: The following floating-point exceptions are signalling: IEEE_UNDERFLOW_FLAG IEEE_DENORMAL
Note: The following floating-point exceptions are signalling: IEEE_UNDERFLOW_FLAG IEEE_DENORMAL
Note: The following floating-point exceptions are signalling: IEEE_UNDERFLOW_FLAG IEEE_DENORMAL
Note: The following floating-point exceptions are signalling: IEEE_UNDERFLOW_FLAG IEEE_DENORMAL
Note: The following floating-point exceptions are signalling: IEEE_UNDERFLOW_FLAG IEEE_DENORMAL
Note: The following floating-point exceptions are signalling: IEEE_UNDERFLOW_FLAG IEEE_DENORMAL
Note: The following floating-point exceptions are signalling: IEEE_UNDERFLOW_FLAG IEEE_DENORMAL
Note: The following floating-point exceptions are signalling: IEEE_UNDERFLOW_FLAG IEEE_DENORMAL
Note: The following floating-point exceptions are signalling: IEEE_UNDERFLOW_FLAG IEEE_DENORMAL
Note: The following floating-point exceptions are signalling: IEEE_UNDERFLOW_FLAG IEEE_DENORMAL
Note: The following floating-point exceptions are signalling: IEEE_UNDERFLOW_FLAG IEEE_DENORMAL
Note: The following floating-point exceptions are signalling: IEEE_UNDERFLOW_FLAG IEEE_DENORMAL