     Program PWSCF v.7.0 starts on  2Sep2025 at 15: 2:45

     K-points division:     npool     =      16
     R & G space division:  proc/nbgrp/npool/nimage =       4

     Reading input from /home/jvc/QEspresso7.2/ZnO_database/scripts/cell321.in/ZnO-3.20-1.71-321.in
Warning: card &CELL ignored
Warning: card / ignored
Warning: card &FCP ignored
Warning: card / ignored
Warning: card &RISM ignored
Warning: card / ignored

     Current dimensions of program PWSCF are:
     Max number of different atomic species (ntypx) = 10
     Max number of k-points (npk) =  40000
     Max angular momentum in pseudopotentials (lmaxx) =  4
     file Zn.upf: wavefunction(s)  3D renormalized
     Found identity + ( -0.0000  0.5000  0.0000) symmetry
     This is a supercell, fractional translations are disabled

     Using Slab Decomposition

     bravais-lattice index     =            0
     lattice parameter (alat)  =      18.1658  a.u.
     unit-cell volume          =    1974.1935 (a.u.)^3
     number of atoms/cell      =           24
     number of atomic types    =            2
     number of electrons       =       216.00
     number of Kohn-Sham states=          108
     kinetic-energy cutoff     =      50.0000  Ry
     charge density cutoff     =     400.0000  Ry
     scf convergence threshold =      1.0E-08
     mixing beta               =       0.3000
     number of iterations used =            8  plain     mixing
     Exchange-correlation= PBE
                           (   1   4   3   4   0   0   0)

     celldm(1)=  18.165831  celldm(2)=   0.000000  celldm(3)=   0.000000
     celldm(4)=   0.000000  celldm(5)=   0.000000  celldm(6)=   0.000000

     crystal axes: (cart. coord. in units of alat)
               a(1) = (   1.000000   0.000000   0.000000 )
               a(2) = (  -0.333333   0.577350   0.000000 )
               a(3) = (   0.000000   0.000000   0.570407 )

     reciprocal axes: (cart. coord. in units 2 pi/alat)
               b(1) = (  1.000000  0.577350 -0.000000 )
               b(2) = (  0.000000  1.732051  0.000000 )
               b(3) = (  0.000000 -0.000000  1.753135 )

     PseudoPot. # 1 for Zn read from file:
     /home/jvc/QEspresso7.2/ZnO_database/pseudos/Zn.upf
     MD5 check sum: 7f56cabf9682ed8c977c2f7d0c5985c5
     Pseudo is Ultrasoft + core correction, Zval = 12.0
     Generated using &quot;atomic&quot; code by A. Dal Corso  v.6.2.2
     Using radial grid of 1201 points,  6 beta functions with:
                l(1) =   0
                l(2) =   0
                l(3) =   1
                l(4) =   1
                l(5) =   2
                l(6) =   2
     Q(r) pseudized with 0 coefficients

     PseudoPot. # 2 for O  read from file:
     /home/jvc/QEspresso7.2/ZnO_database/pseudos/O.upf
     MD5 check sum: 91400c9766925bcf19f520983a725ff0
     Pseudo is Ultrasoft + core correction, Zval =  6.0
     Generated using &quot;atomic&quot; code by A. Dal Corso  v.6.3MaX
     Using radial grid of 1095 points,  4 beta functions with:
                l(1) =   0
                l(2) =   0
                l(3) =   1
                l(4) =   1
     Q(r) pseudized with 0 coefficients

     atomic species   valence    mass     pseudopotential
        Zn            12.00    65.38000     Zn( 1.00)
        O              6.00    15.99900     O ( 1.00)

     No symmetry found

                                    s                        frac. trans.

      isym =  1     identity

 cryst.   s( 1) = (     1          0          0      )
                  (     0          1          0      )
                  (     0          0          1      )

 cart.    s( 1) = (  1.0000000  0.0000000  0.0000000 )
                  (  0.0000000  1.0000000  0.0000000 )
                  (  0.0000000  0.0000000  1.0000000 )

   Cartesian axes

     site n.     atom                  positions (alat units)
         1           Zn  tau(   1) = (   0.1666667   0.0962250   0.2855647  )
         2           Zn  tau(   2) = (  -0.0000000   0.1924501   0.0003614  )
         3           O   tau(   3) = (   0.1666667   0.0962250   0.5017732  )
         4           O   tau(   4) = (  -0.0000000   0.1924501   0.2165699  )
         5           Zn  tau(   5) = (  -0.0000000   0.3849002   0.2855647  )
         6           Zn  tau(   6) = (  -0.1666667   0.4811252   0.0003614  )
         7           O   tau(   7) = (  -0.0000000   0.3849002   0.5017732  )
         8           O   tau(   8) = (  -0.1666667   0.4811252   0.2165699  )
         9           Zn  tau(   9) = (   0.5000000   0.0962250   0.2855647  )
        10           Zn  tau(  10) = (   0.3333333   0.1924501   0.0003614  )
        11           O   tau(  11) = (   0.5000000   0.0962250   0.5017732  )
        12           O   tau(  12) = (   0.3333333   0.1924501   0.2165699  )
        13           Zn  tau(  13) = (   0.3333333   0.3849002   0.2855647  )
        14           Zn  tau(  14) = (   0.1666667   0.4811252   0.0003614  )
        15           O   tau(  15) = (   0.3333333   0.3849002   0.5017732  )
        16           O   tau(  16) = (   0.1666667   0.4811252   0.2165699  )
        17           Zn  tau(  17) = (   0.8333333   0.0962250   0.2855647  )
        18           Zn  tau(  18) = (   0.6666667   0.1924501   0.0003614  )
        19           O   tau(  19) = (   0.8333333   0.0962250   0.5017732  )
        20           O   tau(  20) = (   0.6666667   0.1924501   0.2165699  )
        21           Zn  tau(  21) = (   0.6666667   0.3849002   0.2855647  )
        22           Zn  tau(  22) = (   0.5000000   0.4811252   0.0003614  )
        23           O   tau(  23) = (   0.6666667   0.3849002   0.5017732  )
        24           O   tau(  24) = (   0.5000000   0.4811252   0.2165699  )

   Crystallographic axes

     site n.     atom                  positions (cryst. coord.)
         1           Zn  tau(   1) = (  0.2222222  0.1666667  0.5006336  )
         2           Zn  tau(   2) = (  0.1111111  0.3333333  0.0006336  )
         3           O   tau(   3) = (  0.2222222  0.1666667  0.8796764  )
         4           O   tau(   4) = (  0.1111111  0.3333333  0.3796764  )
         5           Zn  tau(   5) = (  0.2222222  0.6666667  0.5006336  )
         6           Zn  tau(   6) = (  0.1111111  0.8333333  0.0006336  )
         7           O   tau(   7) = (  0.2222222  0.6666667  0.8796764  )
         8           O   tau(   8) = (  0.1111111  0.8333333  0.3796764  )
         9           Zn  tau(   9) = (  0.5555556  0.1666667  0.5006336  )
        10           Zn  tau(  10) = (  0.4444444  0.3333333  0.0006336  )
        11           O   tau(  11) = (  0.5555556  0.1666667  0.8796764  )
        12           O   tau(  12) = (  0.4444444  0.3333333  0.3796764  )
        13           Zn  tau(  13) = (  0.5555556  0.6666667  0.5006336  )
        14           Zn  tau(  14) = (  0.4444444  0.8333333  0.0006336  )
        15           O   tau(  15) = (  0.5555556  0.6666667  0.8796764  )
        16           O   tau(  16) = (  0.4444444  0.8333333  0.3796764  )
        17           Zn  tau(  17) = (  0.8888889  0.1666667  0.5006336  )
        18           Zn  tau(  18) = (  0.7777778  0.3333333  0.0006336  )
        19           O   tau(  19) = (  0.8888889  0.1666667  0.8796764  )
        20           O   tau(  20) = (  0.7777778  0.3333333  0.3796764  )
        21           Zn  tau(  21) = (  0.8888889  0.6666667  0.5006336  )
        22           Zn  tau(  22) = (  0.7777778  0.8333333  0.0006336  )
        23           O   tau(  23) = (  0.8888889  0.6666667  0.8796764  )
        24           O   tau(  24) = (  0.7777778  0.8333333  0.3796764  )

     number of k points=   112
                       cart. coord. in units 2pi/alat
        k(    1) = (   0.0000000   0.0000000   0.0000000), wk =   0.0092593
        k(    2) = (   0.0000000   0.0000000   0.2921892), wk =   0.0185185
        k(    3) = (   0.0000000   0.0000000   0.5843784), wk =   0.0185185
        k(    4) = (   0.0000000   0.0000000  -0.8765677), wk =   0.0092593
        k(    5) = (   0.0000000   0.2886751   0.0000000), wk =   0.0185185
        k(    6) = (   0.0000000   0.2886751   0.2921892), wk =   0.0185185
        k(    7) = (   0.0000000   0.2886751   0.5843784), wk =   0.0185185
        k(    8) = (   0.0000000   0.2886751  -0.8765677), wk =   0.0185185
        k(    9) = (   0.0000000   0.5773503   0.0000000), wk =   0.0185185
        k(   10) = (   0.0000000   0.5773503   0.2921892), wk =   0.0185185
        k(   11) = (   0.0000000   0.5773503   0.5843784), wk =   0.0185185
        k(   12) = (   0.0000000   0.5773503  -0.8765677), wk =   0.0185185
        k(   13) = (   0.0000000  -0.8660254   0.0000000), wk =   0.0092593
        k(   14) = (   0.0000000  -0.8660254   0.2921892), wk =   0.0185185
        k(   15) = (   0.0000000  -0.8660254   0.5843784), wk =   0.0185185
        k(   16) = (   0.0000000  -0.8660254  -0.8765677), wk =   0.0092593
        k(   17) = (   0.1666667   0.0962250   0.0000000), wk =   0.0185185
        k(   18) = (   0.1666667   0.0962250   0.2921892), wk =   0.0185185
        k(   19) = (   0.1666667   0.0962250   0.5843784), wk =   0.0185185
        k(   20) = (   0.1666667   0.0962250  -0.8765677), wk =   0.0185185
        k(   21) = (   0.1666667   0.3849002   0.0000000), wk =   0.0185185
        k(   22) = (   0.1666667   0.3849002   0.2921892), wk =   0.0185185
        k(   23) = (   0.1666667   0.3849002   0.5843784), wk =   0.0185185
        k(   24) = (   0.1666667   0.3849002  -0.8765677), wk =   0.0185185
        k(   25) = (   0.1666667   0.6735753   0.0000000), wk =   0.0185185
        k(   26) = (   0.1666667   0.6735753   0.2921892), wk =   0.0185185
        k(   27) = (   0.1666667   0.6735753   0.5843784), wk =   0.0185185
        k(   28) = (   0.1666667   0.6735753  -0.8765677), wk =   0.0185185
        k(   29) = (   0.1666667  -0.7698004   0.0000000), wk =   0.0185185
        k(   30) = (   0.1666667  -0.7698004   0.2921892), wk =   0.0185185
        k(   31) = (   0.1666667  -0.7698004   0.5843784), wk =   0.0185185
        k(   32) = (   0.1666667  -0.7698004  -0.8765677), wk =   0.0185185
        k(   33) = (   0.1666667  -0.4811252   0.0000000), wk =   0.0185185
        k(   34) = (   0.1666667  -0.4811252   0.2921892), wk =   0.0185185
        k(   35) = (   0.1666667  -0.4811252   0.5843784), wk =   0.0185185
        k(   36) = (   0.1666667  -0.4811252  -0.8765677), wk =   0.0185185
        k(   37) = (   0.1666667  -0.1924501   0.0000000), wk =   0.0185185
        k(   38) = (   0.1666667  -0.1924501   0.2921892), wk =   0.0185185
        k(   39) = (   0.1666667  -0.1924501   0.5843784), wk =   0.0185185
        k(   40) = (   0.1666667  -0.1924501  -0.8765677), wk =   0.0185185
        k(   41) = (   0.3333333   0.1924501   0.0000000), wk =   0.0185185
        k(   42) = (   0.3333333   0.1924501   0.2921892), wk =   0.0185185
        k(   43) = (   0.3333333   0.1924501   0.5843784), wk =   0.0185185
        k(   44) = (   0.3333333   0.1924501  -0.8765677), wk =   0.0185185
        k(   45) = (   0.3333333   0.4811252   0.0000000), wk =   0.0185185
[...]
     atom   10 type  1   force =    -0.00000422   -0.00000362    0.15773656
     atom   11 type  2   force =    -0.00000570   -0.00000356    0.14893604
     atom   12 type  2   force =     0.00000735    0.00000271    0.14893975
     atom   13 type  1   force =     0.00000187    0.00000212    0.15772739
     atom   14 type  1   force =    -0.00000293   -0.00000219    0.15773720
     atom   15 type  2   force =    -0.00000592   -0.00000299    0.14893696
     atom   16 type  2   force =     0.00000693    0.00000659    0.14893952
     atom   17 type  1   force =     0.00000136    0.00000069    0.15773161
     atom   18 type  1   force =    -0.00000188   -0.00000415    0.15773509
     atom   19 type  2   force =    -0.00000716   -0.00000530    0.14893480
     atom   20 type  2   force =     0.00000567    0.00000430    0.14893784
     atom   21 type  1   force =     0.00000277    0.00000422    0.15773035
     atom   22 type  1   force =    -0.00000677   -0.00000109    0.15773830
     atom   23 type  2   force =    -0.00000804   -0.00000323    0.14893507
     atom   24 type  2   force =     0.00000762    0.00000558    0.14893851
     The ionic contribution  to forces
     atom    1 type  1   force =     0.00000001   -0.00000001    1.26932563
     atom    2 type  1   force =     0.00000001   -0.00000002    1.26932564
     atom    3 type  2   force =     0.00000000   -0.00000001   -1.26932563
     atom    4 type  2   force =     0.00000000   -0.00000001   -1.26932564
     atom    5 type  1   force =     0.00000001    0.00000002    1.26932564
     atom    6 type  1   force =     0.00000001    0.00000002    1.26932563
     atom    7 type  2   force =     0.00000000    0.00000001   -1.26932564
     atom    8 type  2   force =     0.00000001    0.00000001   -1.26932563
     atom    9 type  1   force =    -0.00000001   -0.00000002    1.26932563
     atom   10 type  1   force =     0.00000001   -0.00000002    1.26932563
     atom   11 type  2   force =    -0.00000001   -0.00000001   -1.26932563
     atom   12 type  2   force =     0.00000001   -0.00000001   -1.26932563
     atom   13 type  1   force =    -0.00000001    0.00000002    1.26932563
     atom   14 type  1   force =     0.00000001    0.00000002    1.26932563
     atom   15 type  2   force =    -0.00000001    0.00000001   -1.26932563
     atom   16 type  2   force =     0.00000001    0.00000001   -1.26932563
     atom   17 type  1   force =    -0.00000001   -0.00000002    1.26932563
     atom   18 type  1   force =    -0.00000001   -0.00000002    1.26932564
     atom   19 type  2   force =    -0.00000001   -0.00000001   -1.26932563
     atom   20 type  2   force =    -0.00000000   -0.00000001   -1.26932564
     atom   21 type  1   force =    -0.00000001    0.00000002    1.26932564
     atom   22 type  1   force =    -0.00000001    0.00000001    1.26932563
     atom   23 type  2   force =    -0.00000000    0.00000001   -1.26932564
     atom   24 type  2   force =    -0.00000000    0.00000001   -1.26932563
     The local contribution  to forces
     atom    1 type  1   force =    -0.00001189   -0.00000061   -1.40137976
     atom    2 type  1   force =     0.00000592    0.00000746   -1.40139530
     atom    3 type  2   force =     0.00000148    0.00000314    1.10723143
     atom    4 type  2   force =    -0.00000890   -0.00000582    1.10723575
     atom    5 type  1   force =    -0.00000462   -0.00001262   -1.40137684
     atom    6 type  1   force =    -0.00000327   -0.00000652   -1.40139950
     atom    7 type  2   force =     0.00000337    0.00000090    1.10723341
     atom    8 type  2   force =    -0.00001026   -0.00000537    1.10723326
     atom    9 type  1   force =     0.00000777    0.00000095   -1.40138142
     atom   10 type  1   force =     0.00000356    0.00000371   -1.40139783
     atom   11 type  2   force =     0.00000736    0.00000576    1.10722917
     atom   12 type  2   force =    -0.00000492   -0.00000292    1.10723618
     atom   13 type  1   force =    -0.00000039   -0.00000079   -1.40137586
     atom   14 type  1   force =    -0.00000138   -0.00000114   -1.40140020
     atom   15 type  2   force =     0.00000673    0.00000409    1.10723155
     atom   16 type  2   force =    -0.00000416   -0.00000452    1.10723616
     atom   17 type  1   force =     0.00000004    0.00000458   -1.40138638
     atom   18 type  1   force =     0.00000077    0.00001050   -1.40139069
     atom   19 type  2   force =     0.00000997    0.00000529    1.10723162
     atom   20 type  2   force =    -0.00000230   -0.00000233    1.10723647
     atom   21 type  1   force =    -0.00000096   -0.00000774   -1.40138020
     atom   22 type  1   force =     0.00001408   -0.00000239   -1.40140092
     atom   23 type  2   force =     0.00000849    0.00000882    1.10723264
     atom   24 type  2   force =     0.00000008   -0.00000199    1.10723827
     The core correction contribution to forces
     atom    1 type  1   force =    -0.00000022   -0.00000031   -0.01129173
     atom    2 type  1   force =     0.00000037    0.00000007   -0.01129170
     atom    3 type  2   force =     0.00000008    0.00000003   -0.00120527
     atom    4 type  2   force =    -0.00000006   -0.00000003   -0.00120530
     atom    5 type  1   force =    -0.00000030   -0.00000017   -0.01129191
     atom    6 type  1   force =     0.00000040    0.00000043   -0.01129143
     atom    7 type  2   force =     0.00000007    0.00000005   -0.00120527
     atom    8 type  2   force =    -0.00000005   -0.00000003   -0.00120530
     atom    9 type  1   force =    -0.00000056   -0.00000044   -0.01129176
     atom   10 type  1   force =     0.00000042    0.00000035   -0.01129159
     atom   11 type  2   force =     0.00000007    0.00000005   -0.00120528
     atom   12 type  2   force =    -0.00000008   -0.00000003   -0.00120531
     atom   13 type  1   force =    -0.00000033   -0.00000024   -0.01129168
     atom   14 type  1   force =     0.00000060    0.00000033   -0.01129151
     atom   15 type  2   force =     0.00000007    0.00000004   -0.00120528
     atom   16 type  2   force =    -0.00000008   -0.00000008   -0.00120531
     atom   17 type  1   force =    -0.00000031   -0.00000049   -0.01129162
     atom   18 type  1   force =     0.00000042    0.00000006   -0.01129169
     atom   19 type  2   force =     0.00000009    0.00000007   -0.00120526
     atom   20 type  2   force =    -0.00000006   -0.00000005   -0.00120529
     atom   21 type  1   force =    -0.00000044   -0.00000009   -0.01129189
     atom   22 type  1   force =     0.00000024    0.00000037   -0.01129155
     atom   23 type  2   force =     0.00000010    0.00000006   -0.00120526
     atom   24 type  2   force =    -0.00000008   -0.00000006   -0.00120529
     The Hubbard contrib.    to forces
     atom    1 type  1   force =     0.00000000    0.00000000    0.00000000
     atom    2 type  1   force =     0.00000000    0.00000000    0.00000000
     atom    3 type  2   force =     0.00000000    0.00000000    0.00000000
     atom    4 type  2   force =     0.00000000    0.00000000    0.00000000
     atom    5 type  1   force =     0.00000000    0.00000000    0.00000000
     atom    6 type  1   force =     0.00000000    0.00000000    0.00000000
     atom    7 type  2   force =     0.00000000    0.00000000    0.00000000
     atom    8 type  2   force =     0.00000000    0.00000000    0.00000000
     atom    9 type  1   force =     0.00000000    0.00000000    0.00000000
     atom   10 type  1   force =     0.00000000    0.00000000    0.00000000
     atom   11 type  2   force =     0.00000000    0.00000000    0.00000000
     atom   12 type  2   force =     0.00000000    0.00000000    0.00000000
     atom   13 type  1   force =     0.00000000    0.00000000    0.00000000
     atom   14 type  1   force =     0.00000000    0.00000000    0.00000000
     atom   15 type  2   force =     0.00000000    0.00000000    0.00000000
     atom   16 type  2   force =     0.00000000    0.00000000    0.00000000
     atom   17 type  1   force =     0.00000000    0.00000000    0.00000000
     atom   18 type  1   force =     0.00000000    0.00000000    0.00000000
     atom   19 type  2   force =     0.00000000    0.00000000    0.00000000
     atom   20 type  2   force =     0.00000000    0.00000000    0.00000000
     atom   21 type  1   force =     0.00000000    0.00000000    0.00000000
     atom   22 type  1   force =     0.00000000    0.00000000    0.00000000
     atom   23 type  2   force =     0.00000000    0.00000000    0.00000000
     atom   24 type  2   force =     0.00000000    0.00000000    0.00000000
     The SCF correction term to forces
     atom    1 type  1   force =     0.00001358   -0.00000122   -0.00001863
     atom    2 type  1   force =    -0.00000540   -0.00000762   -0.00000090
     atom    3 type  2   force =     0.00000573   -0.00000003   -0.00000672
     atom    4 type  2   force =     0.00000374    0.00000272   -0.00001210
     atom    5 type  1   force =     0.00000434    0.00001377   -0.00002272
     atom    6 type  1   force =     0.00000896    0.00001164    0.00000375
     atom    7 type  2   force =     0.00000261    0.00000349   -0.00000791
     atom    8 type  2   force =     0.00000676    0.00000255   -0.00000889
     atom    9 type  1   force =    -0.00001363   -0.00000235   -0.00001852
     atom   10 type  1   force =     0.00000025   -0.00000183    0.00000229
     atom   11 type  2   force =    -0.00000188   -0.00000241   -0.00000303
     atom   12 type  2   force =    -0.00000211   -0.00000022   -0.00001305
     atom   13 type  1   force =    -0.00000303   -0.00000236   -0.00002140
     atom   14 type  1   force =     0.00000576    0.00000668    0.00000488
     atom   15 type  2   force =    -0.00000141   -0.00000083   -0.00000686
     atom   16 type  2   force =    -0.00000246   -0.00000139   -0.00001261
     atom   17 type  1   force =    -0.00000308   -0.00000706   -0.00000889
     atom   18 type  1   force =    -0.00000015   -0.00001286   -0.00000868
     atom   19 type  2   force =    -0.00000329   -0.00000035   -0.00000561
     atom   20 type  2   force =    -0.00000370   -0.00000207   -0.00001224
     atom   21 type  1   force =    -0.00000304    0.00000569   -0.00001617
     atom   22 type  1   force =    -0.00001522    0.00000432    0.00000444
     atom   23 type  2   force =    -0.00000108   -0.00000528   -0.00000686
     atom   24 type  2   force =    -0.00000798   -0.00000317   -0.00001401

     Total force =     0.070396     Total SCF correction =     0.000071

     General routines

     Parallel routines

   This run was terminated on:  15:23: 5   2Sep2025

   JOB DONE.
Note: The following floating-point exceptions are signalling: IEEE_UNDERFLOW_FLAG IEEE_DENORMAL
Note: The following floating-point exceptions are signalling: IEEE_UNDERFLOW_FLAG IEEE_DENORMAL
Note: The following floating-point exceptions are signalling: IEEE_UNDERFLOW_FLAG IEEE_DENORMAL
Note: The following floating-point exceptions are signalling: IEEE_UNDERFLOW_FLAG IEEE_DENORMAL
Note: The following floating-point exceptions are signalling: IEEE_UNDERFLOW_FLAG IEEE_DENORMAL
Note: The following floating-point exceptions are signalling: IEEE_UNDERFLOW_FLAG IEEE_DENORMAL
Note: The following floating-point exceptions are signalling: IEEE_UNDERFLOW_FLAG IEEE_DENORMAL
Note: The following floating-point exceptions are signalling: IEEE_UNDERFLOW_FLAG IEEE_DENORMAL
Note: The following floating-point exceptions are signalling: IEEE_UNDERFLOW_FLAG IEEE_DENORMAL
Note: The following floating-point exceptions are signalling: IEEE_UNDERFLOW_FLAG IEEE_DENORMAL
Note: The following floating-point exceptions are signalling: IEEE_UNDERFLOW_FLAG IEEE_DENORMAL
Note: The following floating-point exceptions are signalling: IEEE_UNDERFLOW_FLAG IEEE_DENORMAL
Note: The following floating-point exceptions are signalling: IEEE_UNDERFLOW_FLAG IEEE_DENORMAL
Note: The following floating-point exceptions are signalling: IEEE_UNDERFLOW_FLAG IEEE_DENORMAL
Note: The following floating-point exceptions are signalling: IEEE_UNDERFLOW_FLAG IEEE_DENORMAL
Note: The following floating-point exceptions are signalling: IEEE_UNDERFLOW_FLAG IEEE_DENORMAL
Note: The following floating-point exceptions are signalling: IEEE_UNDERFLOW_FLAG IEEE_DENORMAL
Note: The following floating-point exceptions are signalling: IEEE_UNDERFLOW_FLAG IEEE_DENORMAL
Note: The following floating-point exceptions are signalling: IEEE_UNDERFLOW_FLAG IEEE_DENORMAL
Note: The following floating-point exceptions are signalling: IEEE_UNDERFLOW_FLAG IEEE_DENORMAL
Note: The following floating-point exceptions are signalling: IEEE_UNDERFLOW_FLAG IEEE_DENORMAL
Note: The following floating-point exceptions are signalling: IEEE_UNDERFLOW_FLAG IEEE_DENORMAL
Note: The following floating-point exceptions are signalling: IEEE_UNDERFLOW_FLAG IEEE_DENORMAL
Note: The following floating-point exceptions are signalling: IEEE_UNDERFLOW_FLAG IEEE_DENORMAL
Note: The following floating-point exceptions are signalling: IEEE_UNDERFLOW_FLAG IEEE_DENORMAL
Note: The following floating-point exceptions are signalling: IEEE_UNDERFLOW_FLAG IEEE_DENORMAL
Note: The following floating-point exceptions are signalling: IEEE_UNDERFLOW_FLAG IEEE_DENORMAL
Note: The following floating-point exceptions are signalling: IEEE_UNDERFLOW_FLAG IEEE_DENORMAL
Note: The following floating-point exceptions are signalling: IEEE_UNDERFLOW_FLAG IEEE_DENORMAL
Note: The following floating-point exceptions are signalling: IEEE_UNDERFLOW_FLAG IEEE_DENORMAL
Note: The following floating-point exceptions are signalling: IEEE_UNDERFLOW_FLAG IEEE_DENORMAL
Note: The following floating-point exceptions are signalling: IEEE_UNDERFLOW_FLAG IEEE_DENORMAL
Note: The following floating-point exceptions are signalling: IEEE_UNDERFLOW_FLAG IEEE_DENORMAL
Note: The following floating-point exceptions are signalling: IEEE_UNDERFLOW_FLAG IEEE_DENORMAL
Note: The following floating-point exceptions are signalling: IEEE_UNDERFLOW_FLAG IEEE_DENORMAL
Note: The following floating-point exceptions are signalling: IEEE_UNDERFLOW_FLAG IEEE_DENORMAL
Note: The following floating-point exceptions are signalling: IEEE_UNDERFLOW_FLAG IEEE_DENORMAL
Note: The following floating-point exceptions are signalling: IEEE_UNDERFLOW_FLAG IEEE_DENORMAL
Note: The following floating-point exceptions are signalling: IEEE_UNDERFLOW_FLAG IEEE_DENORMAL
Note: The following floating-point exceptions are signalling: IEEE_UNDERFLOW_FLAG IEEE_DENORMAL
Note: The following floating-point exceptions are signalling: IEEE_UNDERFLOW_FLAG IEEE_DENORMAL
Note: The following floating-point exceptions are signalling: IEEE_UNDERFLOW_FLAG IEEE_DENORMAL
Note: The following floating-point exceptions are signalling: IEEE_UNDERFLOW_FLAG IEEE_DENORMAL
Note: The following floating-point exceptions are signalling: IEEE_UNDERFLOW_FLAG IEEE_DENORMAL
Note: The following floating-point exceptions are signalling: IEEE_UNDERFLOW_FLAG IEEE_DENORMAL
Note: The following floating-point exceptions are signalling: IEEE_UNDERFLOW_FLAG IEEE_DENORMAL
Note: The following floating-point exceptions are signalling: IEEE_UNDERFLOW_FLAG IEEE_DENORMAL
Note: The following floating-point exceptions are signalling: IEEE_UNDERFLOW_FLAG IEEE_DENORMAL
Note: The following floating-point exceptions are signalling: IEEE_UNDERFLOW_FLAG IEEE_DENORMAL
Note: The following floating-point exceptions are signalling: IEEE_UNDERFLOW_FLAG IEEE_DENORMAL
Note: The following floating-point exceptions are signalling: IEEE_UNDERFLOW_FLAG IEEE_DENORMAL
Note: The following floating-point exceptions are signalling: IEEE_UNDERFLOW_FLAG IEEE_DENORMAL
Note: The following floating-point exceptions are signalling: IEEE_UNDERFLOW_FLAG IEEE_DENORMAL
Note: The following floating-point exceptions are signalling: IEEE_UNDERFLOW_FLAG IEEE_DENORMAL
Note: The following floating-point exceptions are signalling: IEEE_UNDERFLOW_FLAG IEEE_DENORMAL
Note: The following floating-point exceptions are signalling: IEEE_UNDERFLOW_FLAG IEEE_DENORMAL
Note: The following floating-point exceptions are signalling: IEEE_UNDERFLOW_FLAG IEEE_DENORMAL
Note: The following floating-point exceptions are signalling: IEEE_UNDERFLOW_FLAG IEEE_DENORMAL
Note: The following floating-point exceptions are signalling: IEEE_UNDERFLOW_FLAG IEEE_DENORMAL
Note: The following floating-point exceptions are signalling: IEEE_UNDERFLOW_FLAG IEEE_DENORMAL
Note: The following floating-point exceptions are signalling: IEEE_UNDERFLOW_FLAG IEEE_DENORMAL
Note: The following floating-point exceptions are signalling: IEEE_UNDERFLOW_FLAG IEEE_DENORMAL
Note: The following floating-point exceptions are signalling: IEEE_UNDERFLOW_FLAG IEEE_DENORMAL
Note: The following floating-point exceptions are signalling: IEEE_UNDERFLOW_FLAG IEEE_DENORMAL