     Program PWSCF v.7.0 starts on  3Sep2025 at 16:37:17

     K-points division:     npool     =      16
     R & G space division:  proc/nbgrp/npool/nimage =       4

     Reading input from /home/jvc/QEspresso7.2/ZnO_database/scripts/cell321.in/ZnO-3.53-1.55-321.in
Warning: card &CELL ignored
Warning: card / ignored
Warning: card &FCP ignored
Warning: card / ignored
Warning: card &RISM ignored
Warning: card / ignored

     Current dimensions of program PWSCF are:
     Max number of different atomic species (ntypx) = 10
     Max number of k-points (npk) =  40000
     Max angular momentum in pseudopotentials (lmaxx) =  4
     file Zn.upf: wavefunction(s)  3D renormalized
     Found identity + ( -0.0000 -0.5000  0.0000) symmetry
     This is a supercell, fractional translations are disabled

     Using Slab Decomposition

     bravais-lattice index     =            0
     lattice parameter (alat)  =      20.0195  a.u.
     unit-cell volume          =    2393.0299 (a.u.)^3
     number of atoms/cell      =           24
     number of atomic types    =            2
     number of electrons       =       216.00
     number of Kohn-Sham states=          108
     kinetic-energy cutoff     =      50.0000  Ry
     charge density cutoff     =     400.0000  Ry
     scf convergence threshold =      1.0E-08
     mixing beta               =       0.3000
     number of iterations used =            8  plain     mixing
     Exchange-correlation= PBE
                           (   1   4   3   4   0   0   0)

     celldm(1)=  20.019487  celldm(2)=   0.000000  celldm(3)=   0.000000
     celldm(4)=   0.000000  celldm(5)=   0.000000  celldm(6)=   0.000000

     crystal axes: (cart. coord. in units of alat)
               a(1) = (   1.000000   0.000000   0.000000 )
               a(2) = (  -0.333333   0.577350   0.000000 )
               a(3) = (   0.000000   0.000000   0.516595 )

     reciprocal axes: (cart. coord. in units 2 pi/alat)
               b(1) = (  1.000000  0.577350 -0.000000 )
               b(2) = (  0.000000  1.732051  0.000000 )
               b(3) = (  0.000000 -0.000000  1.935754 )

     PseudoPot. # 1 for Zn read from file:
     /home/jvc/QEspresso7.2/ZnO_database/pseudos/Zn.upf
     MD5 check sum: 7f56cabf9682ed8c977c2f7d0c5985c5
     Pseudo is Ultrasoft + core correction, Zval = 12.0
     Generated using &quot;atomic&quot; code by A. Dal Corso  v.6.2.2
     Using radial grid of 1201 points,  6 beta functions with:
                l(1) =   0
                l(2) =   0
                l(3) =   1
                l(4) =   1
                l(5) =   2
                l(6) =   2
     Q(r) pseudized with 0 coefficients

     PseudoPot. # 2 for O  read from file:
     /home/jvc/QEspresso7.2/ZnO_database/pseudos/O.upf
     MD5 check sum: 91400c9766925bcf19f520983a725ff0
     Pseudo is Ultrasoft + core correction, Zval =  6.0
     Generated using &quot;atomic&quot; code by A. Dal Corso  v.6.3MaX
     Using radial grid of 1095 points,  4 beta functions with:
                l(1) =   0
                l(2) =   0
                l(3) =   1
                l(4) =   1
     Q(r) pseudized with 0 coefficients

     atomic species   valence    mass     pseudopotential
        Zn            12.00    65.38000     Zn( 1.00)
        O              6.00    15.99900     O ( 1.00)

     No symmetry found

                                    s                        frac. trans.

      isym =  1     identity

 cryst.   s( 1) = (     1          0          0      )
                  (     0          1          0      )
                  (     0          0          1      )

 cart.    s( 1) = (  1.0000000  0.0000000  0.0000000 )
                  (  0.0000000  1.0000000  0.0000000 )
                  (  0.0000000  0.0000000  1.0000000 )

   Cartesian axes

     site n.     atom                  positions (alat units)
         1           Zn  tau(   1) = (   0.1666667   0.0962250   0.2586246  )
         2           Zn  tau(   2) = (  -0.0000000   0.1924501   0.0003273  )
         3           O   tau(   3) = (   0.1666667   0.0962250   0.4544362  )
         4           O   tau(   4) = (  -0.0000000   0.1924501   0.1961388  )
         5           Zn  tau(   5) = (  -0.0000000   0.3849002   0.2586246  )
         6           Zn  tau(   6) = (  -0.1666667   0.4811252   0.0003273  )
         7           O   tau(   7) = (  -0.0000000   0.3849002   0.4544362  )
         8           O   tau(   8) = (  -0.1666667   0.4811252   0.1961388  )
         9           Zn  tau(   9) = (   0.5000000   0.0962250   0.2586246  )
        10           Zn  tau(  10) = (   0.3333333   0.1924501   0.0003273  )
        11           O   tau(  11) = (   0.5000000   0.0962250   0.4544362  )
        12           O   tau(  12) = (   0.3333333   0.1924501   0.1961388  )
        13           Zn  tau(  13) = (   0.3333333   0.3849002   0.2586246  )
        14           Zn  tau(  14) = (   0.1666667   0.4811252   0.0003273  )
        15           O   tau(  15) = (   0.3333333   0.3849002   0.4544362  )
        16           O   tau(  16) = (   0.1666667   0.4811252   0.1961388  )
        17           Zn  tau(  17) = (   0.8333333   0.0962250   0.2586246  )
        18           Zn  tau(  18) = (   0.6666667   0.1924501   0.0003273  )
        19           O   tau(  19) = (   0.8333333   0.0962250   0.4544362  )
        20           O   tau(  20) = (   0.6666667   0.1924501   0.1961388  )
        21           Zn  tau(  21) = (   0.6666667   0.3849002   0.2586246  )
        22           Zn  tau(  22) = (   0.5000000   0.4811252   0.0003273  )
        23           O   tau(  23) = (   0.6666667   0.3849002   0.4544362  )
        24           O   tau(  24) = (   0.5000000   0.4811252   0.1961388  )

   Crystallographic axes

     site n.     atom                  positions (cryst. coord.)
         1           Zn  tau(   1) = (  0.2222222  0.1666667  0.5006336  )
         2           Zn  tau(   2) = (  0.1111111  0.3333333  0.0006336  )
         3           O   tau(   3) = (  0.2222222  0.1666667  0.8796764  )
         4           O   tau(   4) = (  0.1111111  0.3333333  0.3796764  )
         5           Zn  tau(   5) = (  0.2222222  0.6666667  0.5006336  )
         6           Zn  tau(   6) = (  0.1111111  0.8333333  0.0006336  )
         7           O   tau(   7) = (  0.2222222  0.6666667  0.8796764  )
         8           O   tau(   8) = (  0.1111111  0.8333333  0.3796764  )
         9           Zn  tau(   9) = (  0.5555556  0.1666667  0.5006336  )
        10           Zn  tau(  10) = (  0.4444444  0.3333333  0.0006336  )
        11           O   tau(  11) = (  0.5555556  0.1666667  0.8796764  )
        12           O   tau(  12) = (  0.4444444  0.3333333  0.3796764  )
        13           Zn  tau(  13) = (  0.5555556  0.6666667  0.5006336  )
        14           Zn  tau(  14) = (  0.4444444  0.8333333  0.0006336  )
        15           O   tau(  15) = (  0.5555556  0.6666667  0.8796764  )
        16           O   tau(  16) = (  0.4444444  0.8333333  0.3796764  )
        17           Zn  tau(  17) = (  0.8888889  0.1666667  0.5006336  )
        18           Zn  tau(  18) = (  0.7777778  0.3333333  0.0006336  )
        19           O   tau(  19) = (  0.8888889  0.1666667  0.8796764  )
        20           O   tau(  20) = (  0.7777778  0.3333333  0.3796764  )
        21           Zn  tau(  21) = (  0.8888889  0.6666667  0.5006336  )
        22           Zn  tau(  22) = (  0.7777778  0.8333333  0.0006336  )
        23           O   tau(  23) = (  0.8888889  0.6666667  0.8796764  )
        24           O   tau(  24) = (  0.7777778  0.8333333  0.3796764  )

     number of k points=   112
                       cart. coord. in units 2pi/alat
        k(    1) = (   0.0000000   0.0000000   0.0000000), wk =   0.0092593
        k(    2) = (   0.0000000   0.0000000   0.3226256), wk =   0.0185185
        k(    3) = (   0.0000000   0.0000000   0.6452512), wk =   0.0185185
        k(    4) = (   0.0000000   0.0000000  -0.9678768), wk =   0.0092593
        k(    5) = (   0.0000000   0.2886751   0.0000000), wk =   0.0185185
        k(    6) = (   0.0000000   0.2886751   0.3226256), wk =   0.0185185
        k(    7) = (   0.0000000   0.2886751   0.6452512), wk =   0.0185185
        k(    8) = (   0.0000000   0.2886751  -0.9678768), wk =   0.0185185
        k(    9) = (   0.0000000   0.5773503   0.0000000), wk =   0.0185185
        k(   10) = (   0.0000000   0.5773503   0.3226256), wk =   0.0185185
        k(   11) = (   0.0000000   0.5773503   0.6452512), wk =   0.0185185
        k(   12) = (   0.0000000   0.5773503  -0.9678768), wk =   0.0185185
        k(   13) = (   0.0000000  -0.8660254   0.0000000), wk =   0.0092593
        k(   14) = (   0.0000000  -0.8660254   0.3226256), wk =   0.0185185
        k(   15) = (   0.0000000  -0.8660254   0.6452512), wk =   0.0185185
        k(   16) = (   0.0000000  -0.8660254  -0.9678768), wk =   0.0092593
        k(   17) = (   0.1666667   0.0962250   0.0000000), wk =   0.0185185
        k(   18) = (   0.1666667   0.0962250   0.3226256), wk =   0.0185185
        k(   19) = (   0.1666667   0.0962250   0.6452512), wk =   0.0185185
        k(   20) = (   0.1666667   0.0962250  -0.9678768), wk =   0.0185185
        k(   21) = (   0.1666667   0.3849002   0.0000000), wk =   0.0185185
        k(   22) = (   0.1666667   0.3849002   0.3226256), wk =   0.0185185
        k(   23) = (   0.1666667   0.3849002   0.6452512), wk =   0.0185185
        k(   24) = (   0.1666667   0.3849002  -0.9678768), wk =   0.0185185
        k(   25) = (   0.1666667   0.6735753   0.0000000), wk =   0.0185185
        k(   26) = (   0.1666667   0.6735753   0.3226256), wk =   0.0185185
        k(   27) = (   0.1666667   0.6735753   0.6452512), wk =   0.0185185
        k(   28) = (   0.1666667   0.6735753  -0.9678768), wk =   0.0185185
        k(   29) = (   0.1666667  -0.7698004   0.0000000), wk =   0.0185185
        k(   30) = (   0.1666667  -0.7698004   0.3226256), wk =   0.0185185
        k(   31) = (   0.1666667  -0.7698004   0.6452512), wk =   0.0185185
        k(   32) = (   0.1666667  -0.7698004  -0.9678768), wk =   0.0185185
        k(   33) = (   0.1666667  -0.4811252   0.0000000), wk =   0.0185185
        k(   34) = (   0.1666667  -0.4811252   0.3226256), wk =   0.0185185
        k(   35) = (   0.1666667  -0.4811252   0.6452512), wk =   0.0185185
        k(   36) = (   0.1666667  -0.4811252  -0.9678768), wk =   0.0185185
        k(   37) = (   0.1666667  -0.1924501   0.0000000), wk =   0.0185185
        k(   38) = (   0.1666667  -0.1924501   0.3226256), wk =   0.0185185
        k(   39) = (   0.1666667  -0.1924501   0.6452512), wk =   0.0185185
        k(   40) = (   0.1666667  -0.1924501  -0.9678768), wk =   0.0185185
        k(   41) = (   0.3333333   0.1924501   0.0000000), wk =   0.0185185
        k(   42) = (   0.3333333   0.1924501   0.3226256), wk =   0.0185185
        k(   43) = (   0.3333333   0.1924501   0.6452512), wk =   0.0185185
        k(   44) = (   0.3333333   0.1924501  -0.9678768), wk =   0.0185185
        k(   45) = (   0.3333333   0.4811252   0.0000000), wk =   0.0185185
[...]
     atom   10 type  1   force =    -0.00000491   -0.00000186   -0.11100434
     atom   11 type  2   force =    -0.00000716   -0.00000559   -0.09647431
     atom   12 type  2   force =     0.00000879    0.00000432   -0.09647373
     atom   13 type  1   force =     0.00000579    0.00000238   -0.11100469
     atom   14 type  1   force =    -0.00000369   -0.00000290   -0.11100330
     atom   15 type  2   force =    -0.00001005   -0.00000448   -0.09647468
     atom   16 type  2   force =     0.00000701    0.00000557   -0.09647430
     atom   17 type  1   force =     0.00000601    0.00000212   -0.11100523
     atom   18 type  1   force =    -0.00000282   -0.00000027   -0.11100311
     atom   19 type  2   force =    -0.00000900   -0.00000360   -0.09647557
     atom   20 type  2   force =     0.00000582    0.00000229   -0.09647412
     atom   21 type  1   force =     0.00000250    0.00000400   -0.11100481
     atom   22 type  1   force =    -0.00000105   -0.00000267   -0.11100382
     atom   23 type  2   force =    -0.00000693   -0.00000549   -0.09647493
     atom   24 type  2   force =     0.00000565    0.00000456   -0.09647545
     The ionic contribution  to forces
     atom    1 type  1   force =     0.00000001    0.00000001   -0.68525367
     atom    2 type  1   force =     0.00000001    0.00000001   -0.68525368
     atom    3 type  2   force =     0.00000000    0.00000001    0.68525367
     atom    4 type  2   force =     0.00000000    0.00000001    0.68525368
     atom    5 type  1   force =     0.00000001   -0.00000001   -0.68525367
     atom    6 type  1   force =     0.00000000    0.00000000   -0.68525367
     atom    7 type  2   force =     0.00000001   -0.00000001    0.68525367
     atom    8 type  2   force =     0.00000000    0.00000000    0.68525367
     atom    9 type  1   force =    -0.00000001    0.00000001   -0.68525368
     atom   10 type  1   force =     0.00000001    0.00000000   -0.68525368
     atom   11 type  2   force =    -0.00000001    0.00000001    0.68525368
     atom   12 type  2   force =     0.00000001    0.00000000    0.68525368
     atom   13 type  1   force =    -0.00000001   -0.00000001   -0.68525368
     atom   14 type  1   force =     0.00000001   -0.00000000   -0.68525367
     atom   15 type  2   force =    -0.00000000   -0.00000000    0.68525368
     atom   16 type  2   force =     0.00000000   -0.00000000    0.68525367
     atom   17 type  1   force =    -0.00000001    0.00000001   -0.68525367
     atom   18 type  1   force =    -0.00000001    0.00000000   -0.68525367
     atom   19 type  2   force =    -0.00000000    0.00000000    0.68525367
     atom   20 type  2   force =    -0.00000000    0.00000000    0.68525367
     atom   21 type  1   force =    -0.00000000   -0.00000002   -0.68525367
     atom   22 type  1   force =    -0.00000001   -0.00000001   -0.68525367
     atom   23 type  2   force =    -0.00000000   -0.00000001    0.68525367
     atom   24 type  2   force =    -0.00000001   -0.00000000    0.68525367
     The local contribution  to forces
     atom    1 type  1   force =     0.00000587   -0.00000271    0.78737280
     atom    2 type  1   force =     0.00000069    0.00000905    0.78737753
     atom    3 type  2   force =     0.00000881    0.00000346   -0.58767375
     atom    4 type  2   force =    -0.00000709   -0.00000329   -0.58767248
     atom    5 type  1   force =     0.00000241    0.00000706    0.78737586
     atom    6 type  1   force =     0.00001240   -0.00000107    0.78738212
     atom    7 type  2   force =     0.00000766    0.00000520   -0.58767329
     atom    8 type  2   force =    -0.00000619   -0.00000359   -0.58767353
     atom    9 type  1   force =    -0.00000509   -0.00000854    0.78737914
     atom   10 type  1   force =     0.00001054    0.00000138    0.78737858
     atom   11 type  2   force =     0.00000692    0.00000320   -0.58767415
     atom   12 type  2   force =    -0.00000896   -0.00000488   -0.58767324
     atom   13 type  1   force =    -0.00001333   -0.00000245    0.78737777
     atom   14 type  1   force =     0.00000323    0.00000596    0.78737837
     atom   15 type  2   force =     0.00000606    0.00000525   -0.58767399
     atom   16 type  2   force =    -0.00000751   -0.00000494   -0.58767207
     atom   17 type  1   force =    -0.00000890   -0.00000011    0.78738019
     atom   18 type  1   force =    -0.00000147   -0.00000537    0.78737464
     atom   19 type  2   force =     0.00000538    0.00000339   -0.58767377
     atom   20 type  2   force =    -0.00000762   -0.00000423   -0.58767183
     atom   21 type  1   force =     0.00000252   -0.00000610    0.78737728
     atom   22 type  1   force =    -0.00000412    0.00000352    0.78737444
     atom   23 type  2   force =     0.00000729    0.00000227   -0.58767403
     atom   24 type  2   force =    -0.00000950   -0.00000326   -0.58767218
     The core correction contribution to forces
     atom    1 type  1   force =    -0.00000049   -0.00000027    0.00696255
     atom    2 type  1   force =     0.00000056    0.00000020    0.00696245
     atom    3 type  2   force =     0.00000004    0.00000002    0.00081883
     atom    4 type  2   force =    -0.00000009   -0.00000007    0.00081883
     atom    5 type  1   force =    -0.00000050   -0.00000051    0.00696239
     atom    6 type  1   force =     0.00000036    0.00000039    0.00696227
     atom    7 type  2   force =     0.00000004    0.00000001    0.00081883
     atom    8 type  2   force =    -0.00000012   -0.00000004    0.00081883
     atom    9 type  1   force =    -0.00000015   -0.00000016    0.00696231
     atom   10 type  1   force =     0.00000000    0.00000032    0.00696232
     atom   11 type  2   force =     0.00000009    0.00000007    0.00081881
     atom   12 type  2   force =    -0.00000011   -0.00000005    0.00081881
     atom   13 type  1   force =     0.00000005   -0.00000031    0.00696242
     atom   14 type  1   force =     0.00000027    0.00000021    0.00696222
     atom   15 type  2   force =     0.00000012    0.00000006    0.00081882
     atom   16 type  2   force =    -0.00000008   -0.00000007    0.00081882
     atom   17 type  1   force =    -0.00000040   -0.00000036    0.00696235
     atom   18 type  1   force =     0.00000052    0.00000048    0.00696238
     atom   19 type  2   force =     0.00000010    0.00000004    0.00081883
     atom   20 type  2   force =    -0.00000004   -0.00000001    0.00081882
     atom   21 type  1   force =    -0.00000058   -0.00000029    0.00696249
     atom   22 type  1   force =     0.00000050    0.00000033    0.00696246
     atom   23 type  2   force =     0.00000008    0.00000006    0.00081883
     atom   24 type  2   force =    -0.00000004   -0.00000003    0.00081884
     The Hubbard contrib.    to forces
     atom    1 type  1   force =     0.00000000    0.00000000    0.00000000
     atom    2 type  1   force =     0.00000000    0.00000000    0.00000000
     atom    3 type  2   force =     0.00000000    0.00000000    0.00000000
     atom    4 type  2   force =     0.00000000    0.00000000    0.00000000
     atom    5 type  1   force =     0.00000000    0.00000000    0.00000000
     atom    6 type  1   force =     0.00000000    0.00000000    0.00000000
     atom    7 type  2   force =     0.00000000    0.00000000    0.00000000
     atom    8 type  2   force =     0.00000000    0.00000000    0.00000000
     atom    9 type  1   force =     0.00000000    0.00000000    0.00000000
     atom   10 type  1   force =     0.00000000    0.00000000    0.00000000
     atom   11 type  2   force =     0.00000000    0.00000000    0.00000000
     atom   12 type  2   force =     0.00000000    0.00000000    0.00000000
     atom   13 type  1   force =     0.00000000    0.00000000    0.00000000
     atom   14 type  1   force =     0.00000000    0.00000000    0.00000000
     atom   15 type  2   force =     0.00000000    0.00000000    0.00000000
     atom   16 type  2   force =     0.00000000    0.00000000    0.00000000
     atom   17 type  1   force =     0.00000000    0.00000000    0.00000000
     atom   18 type  1   force =     0.00000000    0.00000000    0.00000000
     atom   19 type  2   force =     0.00000000    0.00000000    0.00000000
     atom   20 type  2   force =     0.00000000    0.00000000    0.00000000
     atom   21 type  1   force =     0.00000000    0.00000000    0.00000000
     atom   22 type  1   force =     0.00000000    0.00000000    0.00000000
     atom   23 type  2   force =     0.00000000    0.00000000    0.00000000
     atom   24 type  2   force =     0.00000000    0.00000000    0.00000000
     The SCF correction term to forces
     atom    1 type  1   force =    -0.00001316    0.00000114    0.00000268
     atom    2 type  1   force =     0.00000517   -0.00000850   -0.00000294
     atom    3 type  2   force =    -0.00000311    0.00000059   -0.00000022
     atom    4 type  2   force =    -0.00000080   -0.00000226   -0.00000250
     atom    5 type  1   force =    -0.00000909   -0.00001255   -0.00000151
     atom    6 type  1   force =    -0.00001027    0.00000441   -0.00000991
     atom    7 type  2   force =    -0.00000169   -0.00000248   -0.00000079
     atom    8 type  2   force =    -0.00000315   -0.00000074   -0.00000081
     atom    9 type  1   force =     0.00000153    0.00000825   -0.00000708
     atom   10 type  1   force =    -0.00000916    0.00000052   -0.00000490
     atom   11 type  2   force =     0.00000020    0.00000230   -0.00000064
     atom   12 type  2   force =     0.00000060    0.00000056   -0.00000233
     atom   13 type  1   force =     0.00001314   -0.00000021   -0.00000391
     atom   14 type  1   force =     0.00000045   -0.00000591   -0.00000581
     atom   15 type  2   force =     0.00000341   -0.00000083   -0.00000075
     atom   16 type  2   force =     0.00000055   -0.00000034   -0.00000273
     atom   17 type  1   force =     0.00000424   -0.00000328   -0.00000657
     atom   18 type  1   force =     0.00000881    0.00000994   -0.00000004
     atom   19 type  2   force =     0.00000307    0.00000024   -0.00000028
     atom   20 type  2   force =     0.00000165    0.00000164   -0.00000351
     atom   21 type  1   force =    -0.00001000    0.00000405   -0.00000398
     atom   22 type  1   force =     0.00000946   -0.00000248    0.00000122
     atom   23 type  2   force =    -0.00000051    0.00000272   -0.00000071
     atom   24 type  2   force =     0.00000361   -0.00000119   -0.00000215

     Total force =     0.009418     Total SCF correction =     0.000043

     General routines

     Parallel routines

   This run was terminated on:  17:14:14   3Sep2025

   JOB DONE.
Note: The following floating-point exceptions are signalling: IEEE_UNDERFLOW_FLAG IEEE_DENORMAL
Note: The following floating-point exceptions are signalling: IEEE_UNDERFLOW_FLAG IEEE_DENORMAL
Note: The following floating-point exceptions are signalling: IEEE_UNDERFLOW_FLAG IEEE_DENORMAL
Note: The following floating-point exceptions are signalling: IEEE_UNDERFLOW_FLAG IEEE_DENORMAL
Note: The following floating-point exceptions are signalling: IEEE_UNDERFLOW_FLAG IEEE_DENORMAL
Note: The following floating-point exceptions are signalling: IEEE_UNDERFLOW_FLAG IEEE_DENORMAL
Note: The following floating-point exceptions are signalling: IEEE_UNDERFLOW_FLAG IEEE_DENORMAL
Note: The following floating-point exceptions are signalling: IEEE_UNDERFLOW_FLAG IEEE_DENORMAL
Note: The following floating-point exceptions are signalling: IEEE_UNDERFLOW_FLAG IEEE_DENORMAL
Note: The following floating-point exceptions are signalling: IEEE_UNDERFLOW_FLAG IEEE_DENORMAL
Note: The following floating-point exceptions are signalling: IEEE_UNDERFLOW_FLAG IEEE_DENORMAL
Note: The following floating-point exceptions are signalling: IEEE_UNDERFLOW_FLAG IEEE_DENORMAL
Note: The following floating-point exceptions are signalling: IEEE_UNDERFLOW_FLAG IEEE_DENORMAL
Note: The following floating-point exceptions are signalling: IEEE_UNDERFLOW_FLAG IEEE_DENORMAL
Note: The following floating-point exceptions are signalling: IEEE_UNDERFLOW_FLAG IEEE_DENORMAL
Note: The following floating-point exceptions are signalling: IEEE_UNDERFLOW_FLAG IEEE_DENORMAL
Note: The following floating-point exceptions are signalling: IEEE_UNDERFLOW_FLAG IEEE_DENORMAL
Note: The following floating-point exceptions are signalling: IEEE_UNDERFLOW_FLAG IEEE_DENORMAL
Note: The following floating-point exceptions are signalling: IEEE_UNDERFLOW_FLAG IEEE_DENORMAL
Note: The following floating-point exceptions are signalling: IEEE_UNDERFLOW_FLAG IEEE_DENORMAL
Note: The following floating-point exceptions are signalling: IEEE_UNDERFLOW_FLAG IEEE_DENORMAL
Note: The following floating-point exceptions are signalling: IEEE_UNDERFLOW_FLAG IEEE_DENORMAL
Note: The following floating-point exceptions are signalling: IEEE_UNDERFLOW_FLAG IEEE_DENORMAL
Note: The following floating-point exceptions are signalling: IEEE_UNDERFLOW_FLAG IEEE_DENORMAL
Note: The following floating-point exceptions are signalling: IEEE_UNDERFLOW_FLAG IEEE_DENORMAL
Note: The following floating-point exceptions are signalling: IEEE_UNDERFLOW_FLAG IEEE_DENORMAL
Note: The following floating-point exceptions are signalling: IEEE_UNDERFLOW_FLAG IEEE_DENORMAL
Note: The following floating-point exceptions are signalling: IEEE_UNDERFLOW_FLAG IEEE_DENORMAL
Note: The following floating-point exceptions are signalling: IEEE_UNDERFLOW_FLAG IEEE_DENORMAL
Note: The following floating-point exceptions are signalling: IEEE_UNDERFLOW_FLAG IEEE_DENORMAL
Note: The following floating-point exceptions are signalling: IEEE_UNDERFLOW_FLAG IEEE_DENORMAL
Note: The following floating-point exceptions are signalling: IEEE_UNDERFLOW_FLAG IEEE_DENORMAL
Note: The following floating-point exceptions are signalling: IEEE_UNDERFLOW_FLAG IEEE_DENORMAL
Note: The following floating-point exceptions are signalling: IEEE_UNDERFLOW_FLAG IEEE_DENORMAL
Note: The following floating-point exceptions are signalling: IEEE_UNDERFLOW_FLAG IEEE_DENORMAL
Note: The following floating-point exceptions are signalling: IEEE_UNDERFLOW_FLAG IEEE_DENORMAL
Note: The following floating-point exceptions are signalling: IEEE_UNDERFLOW_FLAG IEEE_DENORMAL
Note: The following floating-point exceptions are signalling: IEEE_UNDERFLOW_FLAG IEEE_DENORMAL
Note: The following floating-point exceptions are signalling: IEEE_UNDERFLOW_FLAG IEEE_DENORMAL
Note: The following floating-point exceptions are signalling: IEEE_UNDERFLOW_FLAG IEEE_DENORMAL
Note: The following floating-point exceptions are signalling: IEEE_UNDERFLOW_FLAG IEEE_DENORMAL
Note: The following floating-point exceptions are signalling: IEEE_UNDERFLOW_FLAG IEEE_DENORMAL
Note: The following floating-point exceptions are signalling: IEEE_UNDERFLOW_FLAG IEEE_DENORMAL
Note: The following floating-point exceptions are signalling: IEEE_UNDERFLOW_FLAG IEEE_DENORMAL
Note: The following floating-point exceptions are signalling: IEEE_UNDERFLOW_FLAG IEEE_DENORMAL
Note: The following floating-point exceptions are signalling: IEEE_UNDERFLOW_FLAG IEEE_DENORMAL
Note: The following floating-point exceptions are signalling: IEEE_UNDERFLOW_FLAG IEEE_DENORMAL
Note: The following floating-point exceptions are signalling: IEEE_UNDERFLOW_FLAG IEEE_DENORMAL
Note: The following floating-point exceptions are signalling: IEEE_UNDERFLOW_FLAG IEEE_DENORMAL
Note: The following floating-point exceptions are signalling: IEEE_UNDERFLOW_FLAG IEEE_DENORMAL
Note: The following floating-point exceptions are signalling: IEEE_UNDERFLOW_FLAG IEEE_DENORMAL
Note: The following floating-point exceptions are signalling: IEEE_UNDERFLOW_FLAG IEEE_DENORMAL
Note: The following floating-point exceptions are signalling: IEEE_UNDERFLOW_FLAG IEEE_DENORMAL
Note: The following floating-point exceptions are signalling: IEEE_UNDERFLOW_FLAG IEEE_DENORMAL
Note: The following floating-point exceptions are signalling: IEEE_UNDERFLOW_FLAG IEEE_DENORMAL
Note: The following floating-point exceptions are signalling: IEEE_UNDERFLOW_FLAG IEEE_DENORMAL
Note: The following floating-point exceptions are signalling: IEEE_UNDERFLOW_FLAG IEEE_DENORMAL
Note: The following floating-point exceptions are signalling: IEEE_UNDERFLOW_FLAG IEEE_DENORMAL
Note: The following floating-point exceptions are signalling: IEEE_UNDERFLOW_FLAG IEEE_DENORMAL
Note: The following floating-point exceptions are signalling: IEEE_UNDERFLOW_FLAG IEEE_DENORMAL
Note: The following floating-point exceptions are signalling: IEEE_UNDERFLOW_FLAG IEEE_DENORMAL
Note: The following floating-point exceptions are signalling: IEEE_UNDERFLOW_FLAG IEEE_DENORMAL
Note: The following floating-point exceptions are signalling: IEEE_UNDERFLOW_FLAG IEEE_DENORMAL
Note: The following floating-point exceptions are signalling: IEEE_UNDERFLOW_FLAG IEEE_DENORMAL