     Program PWSCF v.7.0 starts on  2Sep2025 at  8:29: 3

     K-points division:     npool     =      16
     R & G space division:  proc/nbgrp/npool/nimage =       4

     Reading input from /home/jvc/QEspresso7.2/ZnO_database/scripts/cell321.in/ZnO-3.14-1.55-321.in
Warning: card &CELL ignored
Warning: card / ignored
Warning: card &FCP ignored
Warning: card / ignored
Warning: card &RISM ignored
Warning: card / ignored

     Current dimensions of program PWSCF are:
     Max number of different atomic species (ntypx) = 10
     Max number of k-points (npk) =  40000
     Max angular momentum in pseudopotentials (lmaxx) =  4
     file Zn.upf: wavefunction(s)  3D renormalized
     Found identity + (  0.0000 -0.5000  0.0000) symmetry
     This is a supercell, fractional translations are disabled

     Using Slab Decomposition

     bravais-lattice index     =            0
     lattice parameter (alat)  =      17.7951  a.u.
     unit-cell volume          =    1680.7014 (a.u.)^3
     number of atoms/cell      =           24
     number of atomic types    =            2
     number of electrons       =       216.00
     number of Kohn-Sham states=          108
     kinetic-energy cutoff     =      50.0000  Ry
     charge density cutoff     =     400.0000  Ry
     scf convergence threshold =      1.0E-08
     mixing beta               =       0.3000
     number of iterations used =            8  plain     mixing
     Exchange-correlation= PBE
                           (   1   4   3   4   0   0   0)

     celldm(1)=  17.795099  celldm(2)=   0.000000  celldm(3)=   0.000000
     celldm(4)=   0.000000  celldm(5)=   0.000000  celldm(6)=   0.000000

     crystal axes: (cart. coord. in units of alat)
               a(1) = (   1.000000   0.000000   0.000000 )
               a(2) = (  -0.333333   0.577350   0.000000 )
               a(3) = (   0.000000   0.000000   0.516595 )

     reciprocal axes: (cart. coord. in units 2 pi/alat)
               b(1) = (  1.000000  0.577350 -0.000000 )
               b(2) = (  0.000000  1.732051  0.000000 )
               b(3) = (  0.000000 -0.000000  1.935754 )

     PseudoPot. # 1 for Zn read from file:
     /home/jvc/QEspresso7.2/ZnO_database/pseudos/Zn.upf
     MD5 check sum: 7f56cabf9682ed8c977c2f7d0c5985c5
     Pseudo is Ultrasoft + core correction, Zval = 12.0
     Generated using &quot;atomic&quot; code by A. Dal Corso  v.6.2.2
     Using radial grid of 1201 points,  6 beta functions with:
                l(1) =   0
                l(2) =   0
                l(3) =   1
                l(4) =   1
                l(5) =   2
                l(6) =   2
     Q(r) pseudized with 0 coefficients

     PseudoPot. # 2 for O  read from file:
     /home/jvc/QEspresso7.2/ZnO_database/pseudos/O.upf
     MD5 check sum: 91400c9766925bcf19f520983a725ff0
     Pseudo is Ultrasoft + core correction, Zval =  6.0
     Generated using &quot;atomic&quot; code by A. Dal Corso  v.6.3MaX
     Using radial grid of 1095 points,  4 beta functions with:
                l(1) =   0
                l(2) =   0
                l(3) =   1
                l(4) =   1
     Q(r) pseudized with 0 coefficients

     atomic species   valence    mass     pseudopotential
        Zn            12.00    65.38000     Zn( 1.00)
        O              6.00    15.99900     O ( 1.00)

     No symmetry found

                                    s                        frac. trans.

      isym =  1     identity

 cryst.   s( 1) = (     1          0          0      )
                  (     0          1          0      )
                  (     0          0          1      )

 cart.    s( 1) = (  1.0000000  0.0000000  0.0000000 )
                  (  0.0000000  1.0000000  0.0000000 )
                  (  0.0000000  0.0000000  1.0000000 )

   Cartesian axes

     site n.     atom                  positions (alat units)
         1           Zn  tau(   1) = (   0.1666667   0.0962250   0.2586246  )
         2           Zn  tau(   2) = (  -0.0000000   0.1924501   0.0003273  )
         3           O   tau(   3) = (   0.1666667   0.0962250   0.4544362  )
         4           O   tau(   4) = (  -0.0000000   0.1924501   0.1961388  )
         5           Zn  tau(   5) = (  -0.0000000   0.3849002   0.2586246  )
         6           Zn  tau(   6) = (  -0.1666667   0.4811252   0.0003273  )
         7           O   tau(   7) = (  -0.0000000   0.3849002   0.4544362  )
         8           O   tau(   8) = (  -0.1666667   0.4811252   0.1961388  )
         9           Zn  tau(   9) = (   0.5000000   0.0962250   0.2586246  )
        10           Zn  tau(  10) = (   0.3333333   0.1924501   0.0003273  )
        11           O   tau(  11) = (   0.5000000   0.0962250   0.4544362  )
        12           O   tau(  12) = (   0.3333333   0.1924501   0.1961388  )
        13           Zn  tau(  13) = (   0.3333333   0.3849002   0.2586246  )
        14           Zn  tau(  14) = (   0.1666667   0.4811252   0.0003273  )
        15           O   tau(  15) = (   0.3333333   0.3849002   0.4544362  )
        16           O   tau(  16) = (   0.1666667   0.4811252   0.1961388  )
        17           Zn  tau(  17) = (   0.8333333   0.0962250   0.2586246  )
        18           Zn  tau(  18) = (   0.6666667   0.1924501   0.0003273  )
        19           O   tau(  19) = (   0.8333333   0.0962250   0.4544362  )
        20           O   tau(  20) = (   0.6666667   0.1924501   0.1961388  )
        21           Zn  tau(  21) = (   0.6666667   0.3849002   0.2586246  )
        22           Zn  tau(  22) = (   0.5000000   0.4811252   0.0003273  )
        23           O   tau(  23) = (   0.6666667   0.3849002   0.4544362  )
        24           O   tau(  24) = (   0.5000000   0.4811252   0.1961388  )

   Crystallographic axes

     site n.     atom                  positions (cryst. coord.)
         1           Zn  tau(   1) = (  0.2222222  0.1666667  0.5006336  )
         2           Zn  tau(   2) = (  0.1111111  0.3333333  0.0006336  )
         3           O   tau(   3) = (  0.2222222  0.1666667  0.8796764  )
         4           O   tau(   4) = (  0.1111111  0.3333333  0.3796764  )
         5           Zn  tau(   5) = (  0.2222222  0.6666667  0.5006336  )
         6           Zn  tau(   6) = (  0.1111111  0.8333333  0.0006336  )
         7           O   tau(   7) = (  0.2222222  0.6666667  0.8796764  )
         8           O   tau(   8) = (  0.1111111  0.8333333  0.3796764  )
         9           Zn  tau(   9) = (  0.5555556  0.1666667  0.5006336  )
        10           Zn  tau(  10) = (  0.4444444  0.3333333  0.0006336  )
        11           O   tau(  11) = (  0.5555556  0.1666667  0.8796764  )
        12           O   tau(  12) = (  0.4444444  0.3333333  0.3796764  )
        13           Zn  tau(  13) = (  0.5555556  0.6666667  0.5006336  )
        14           Zn  tau(  14) = (  0.4444444  0.8333333  0.0006336  )
        15           O   tau(  15) = (  0.5555556  0.6666667  0.8796764  )
        16           O   tau(  16) = (  0.4444444  0.8333333  0.3796764  )
        17           Zn  tau(  17) = (  0.8888889  0.1666667  0.5006336  )
        18           Zn  tau(  18) = (  0.7777778  0.3333333  0.0006336  )
        19           O   tau(  19) = (  0.8888889  0.1666667  0.8796764  )
        20           O   tau(  20) = (  0.7777778  0.3333333  0.3796764  )
        21           Zn  tau(  21) = (  0.8888889  0.6666667  0.5006336  )
        22           Zn  tau(  22) = (  0.7777778  0.8333333  0.0006336  )
        23           O   tau(  23) = (  0.8888889  0.6666667  0.8796764  )
        24           O   tau(  24) = (  0.7777778  0.8333333  0.3796764  )

     number of k points=   112
                       cart. coord. in units 2pi/alat
        k(    1) = (   0.0000000   0.0000000   0.0000000), wk =   0.0092593
        k(    2) = (   0.0000000   0.0000000   0.3226256), wk =   0.0185185
        k(    3) = (   0.0000000   0.0000000   0.6452512), wk =   0.0185185
        k(    4) = (   0.0000000   0.0000000  -0.9678768), wk =   0.0092593
        k(    5) = (   0.0000000   0.2886751   0.0000000), wk =   0.0185185
        k(    6) = (   0.0000000   0.2886751   0.3226256), wk =   0.0185185
        k(    7) = (   0.0000000   0.2886751   0.6452512), wk =   0.0185185
        k(    8) = (   0.0000000   0.2886751  -0.9678768), wk =   0.0185185
        k(    9) = (   0.0000000   0.5773503   0.0000000), wk =   0.0185185
        k(   10) = (   0.0000000   0.5773503   0.3226256), wk =   0.0185185
        k(   11) = (   0.0000000   0.5773503   0.6452512), wk =   0.0185185
        k(   12) = (   0.0000000   0.5773503  -0.9678768), wk =   0.0185185
        k(   13) = (   0.0000000  -0.8660254   0.0000000), wk =   0.0092593
        k(   14) = (   0.0000000  -0.8660254   0.3226256), wk =   0.0185185
        k(   15) = (   0.0000000  -0.8660254   0.6452512), wk =   0.0185185
        k(   16) = (   0.0000000  -0.8660254  -0.9678768), wk =   0.0092593
        k(   17) = (   0.1666667   0.0962250   0.0000000), wk =   0.0185185
        k(   18) = (   0.1666667   0.0962250   0.3226256), wk =   0.0185185
        k(   19) = (   0.1666667   0.0962250   0.6452512), wk =   0.0185185
        k(   20) = (   0.1666667   0.0962250  -0.9678768), wk =   0.0185185
        k(   21) = (   0.1666667   0.3849002   0.0000000), wk =   0.0185185
        k(   22) = (   0.1666667   0.3849002   0.3226256), wk =   0.0185185
        k(   23) = (   0.1666667   0.3849002   0.6452512), wk =   0.0185185
        k(   24) = (   0.1666667   0.3849002  -0.9678768), wk =   0.0185185
        k(   25) = (   0.1666667   0.6735753   0.0000000), wk =   0.0185185
        k(   26) = (   0.1666667   0.6735753   0.3226256), wk =   0.0185185
        k(   27) = (   0.1666667   0.6735753   0.6452512), wk =   0.0185185
        k(   28) = (   0.1666667   0.6735753  -0.9678768), wk =   0.0185185
        k(   29) = (   0.1666667  -0.7698004   0.0000000), wk =   0.0185185
        k(   30) = (   0.1666667  -0.7698004   0.3226256), wk =   0.0185185
        k(   31) = (   0.1666667  -0.7698004   0.6452512), wk =   0.0185185
        k(   32) = (   0.1666667  -0.7698004  -0.9678768), wk =   0.0185185
        k(   33) = (   0.1666667  -0.4811252   0.0000000), wk =   0.0185185
        k(   34) = (   0.1666667  -0.4811252   0.3226256), wk =   0.0185185
        k(   35) = (   0.1666667  -0.4811252   0.6452512), wk =   0.0185185
        k(   36) = (   0.1666667  -0.4811252  -0.9678768), wk =   0.0185185
        k(   37) = (   0.1666667  -0.1924501   0.0000000), wk =   0.0185185
        k(   38) = (   0.1666667  -0.1924501   0.3226256), wk =   0.0185185
        k(   39) = (   0.1666667  -0.1924501   0.6452512), wk =   0.0185185
        k(   40) = (   0.1666667  -0.1924501  -0.9678768), wk =   0.0185185
        k(   41) = (   0.3333333   0.1924501   0.0000000), wk =   0.0185185
        k(   42) = (   0.3333333   0.1924501   0.3226256), wk =   0.0185185
        k(   43) = (   0.3333333   0.1924501   0.6452512), wk =   0.0185185
        k(   44) = (   0.3333333   0.1924501  -0.9678768), wk =   0.0185185
        k(   45) = (   0.3333333   0.4811252   0.0000000), wk =   0.0185185
[...]
     atom   10 type  1   force =    -0.00000004   -0.00000103   -0.13321044
     atom   11 type  2   force =    -0.00000333   -0.00000180   -0.08594791
     atom   12 type  2   force =     0.00000297    0.00000192   -0.08594789
     atom   13 type  1   force =     0.00000122    0.00000094   -0.13321016
     atom   14 type  1   force =    -0.00000085    0.00000006   -0.13321049
     atom   15 type  2   force =    -0.00000337   -0.00000187   -0.08594790
     atom   16 type  2   force =     0.00000319    0.00000166   -0.08594790
     atom   17 type  1   force =    -0.00000013    0.00000025   -0.13321004
     atom   18 type  1   force =    -0.00000120   -0.00000107   -0.13321039
     atom   19 type  2   force =    -0.00000304   -0.00000180   -0.08594801
     atom   20 type  2   force =     0.00000356    0.00000187   -0.08594790
     atom   21 type  1   force =     0.00000035    0.00000027   -0.13321013
     atom   22 type  1   force =    -0.00000129   -0.00000081   -0.13321038
     atom   23 type  2   force =    -0.00000324   -0.00000178   -0.08594790
     atom   24 type  2   force =     0.00000347    0.00000208   -0.08594787
     The ionic contribution  to forces
     atom    1 type  1   force =     0.00000001    0.00000001   -0.86727418
     atom    2 type  1   force =     0.00000001    0.00000000   -0.86727418
     atom    3 type  2   force =     0.00000000    0.00000000    0.86727418
     atom    4 type  2   force =     0.00000001    0.00000000    0.86727418
     atom    5 type  1   force =     0.00000001    0.00000001   -0.86727418
     atom    6 type  1   force =     0.00000001    0.00000000   -0.86727418
     atom    7 type  2   force =     0.00000000    0.00000000    0.86727418
     atom    8 type  2   force =     0.00000001    0.00000000    0.86727418
     atom    9 type  1   force =    -0.00000001    0.00000000   -0.86727418
     atom   10 type  1   force =     0.00000001   -0.00000000   -0.86727418
     atom   11 type  2   force =    -0.00000001    0.00000000    0.86727418
     atom   12 type  2   force =     0.00000001   -0.00000000    0.86727418
     atom   13 type  1   force =    -0.00000001    0.00000000   -0.86727418
     atom   14 type  1   force =     0.00000001   -0.00000000   -0.86727418
     atom   15 type  2   force =    -0.00000001    0.00000000    0.86727418
     atom   16 type  2   force =     0.00000001   -0.00000000    0.86727418
     atom   17 type  1   force =    -0.00000001   -0.00000000   -0.86727418
     atom   18 type  1   force =    -0.00000001   -0.00000001   -0.86727418
     atom   19 type  2   force =    -0.00000001   -0.00000000    0.86727418
     atom   20 type  2   force =    -0.00000000   -0.00000000    0.86727418
     atom   21 type  1   force =    -0.00000001   -0.00000000   -0.86727418
     atom   22 type  1   force =    -0.00000001   -0.00000001   -0.86727418
     atom   23 type  2   force =    -0.00000001   -0.00000000    0.86727418
     atom   24 type  2   force =    -0.00000000   -0.00000000    0.86727418
     The local contribution  to forces
     atom    1 type  1   force =    -0.00000341    0.00000178    0.95772336
     atom    2 type  1   force =     0.00000086    0.00000058    0.95772682
     atom    3 type  2   force =     0.00000228    0.00000237   -0.75079549
     atom    4 type  2   force =    -0.00000301   -0.00000187   -0.75079552
     atom    5 type  1   force =    -0.00000030   -0.00000388    0.95772348
     atom    6 type  1   force =    -0.00000055   -0.00000026    0.95772495
     atom    7 type  2   force =     0.00000318    0.00000091   -0.75079565
     atom    8 type  2   force =    -0.00000360   -0.00000202   -0.75079594
     atom    9 type  1   force =    -0.00000105   -0.00000036    0.95772362
     atom   10 type  1   force =    -0.00000128    0.00000199    0.95772556
     atom   11 type  2   force =     0.00000309    0.00000178   -0.75079568
     atom   12 type  2   force =    -0.00000395   -0.00000145   -0.75079574
     atom   13 type  1   force =    -0.00000172   -0.00000138    0.95772437
     atom   14 type  1   force =     0.00000072   -0.00000203    0.95772543
     atom   15 type  2   force =     0.00000272    0.00000144   -0.75079559
     atom   16 type  2   force =    -0.00000328   -0.00000279   -0.75079582
     atom   17 type  1   force =     0.00000258    0.00000117    0.95772350
     atom   18 type  1   force =     0.00000225    0.00000213    0.95772526
     atom   19 type  2   force =     0.00000413    0.00000230   -0.75079571
     atom   20 type  2   force =    -0.00000245   -0.00000114   -0.75079567
     atom   21 type  1   force =     0.00000006    0.00000014    0.95772451
     atom   22 type  1   force =     0.00000170    0.00000043    0.95772501
     atom   23 type  2   force =     0.00000352    0.00000205   -0.75079572
     atom   24 type  2   force =    -0.00000256   -0.00000166   -0.75079576
     The core correction contribution to forces
     atom    1 type  1   force =    -0.00000006   -0.00000025    0.01168654
     atom    2 type  1   force =     0.00000004   -0.00000010    0.01168641
     atom    3 type  2   force =     0.00000005   -0.00000000    0.00054038
     atom    4 type  2   force =    -0.00000003   -0.00000004    0.00054038
     atom    5 type  1   force =    -0.00000005    0.00000015    0.01168650
     atom    6 type  1   force =     0.00000009    0.00000023    0.01168652
     atom    7 type  2   force =     0.00000003    0.00000005    0.00054037
     atom    8 type  2   force =    -0.00000005   -0.00000000    0.00054038
     atom    9 type  1   force =    -0.00000008   -0.00000023    0.01168656
     atom   10 type  1   force =     0.00000007   -0.00000011    0.01168645
     atom   11 type  2   force =     0.00000004    0.00000000    0.00054038
     atom   12 type  2   force =    -0.00000003   -0.00000004    0.00054038
     atom   13 type  1   force =    -0.00000005    0.00000010    0.01168648
     atom   14 type  1   force =     0.00000009    0.00000025    0.01168650
     atom   15 type  2   force =     0.00000003    0.00000004    0.00054038
     atom   16 type  2   force =    -0.00000004    0.00000000    0.00054038
     atom   17 type  1   force =    -0.00000014   -0.00000025    0.01168655
     atom   18 type  1   force =     0.00000003   -0.00000012    0.01168646
     atom   19 type  2   force =     0.00000004    0.00000000    0.00054038
     atom   20 type  2   force =    -0.00000003   -0.00000004    0.00054038
     atom   21 type  1   force =    -0.00000004    0.00000010    0.01168647
     atom   22 type  1   force =     0.00000009    0.00000024    0.01168652
     atom   23 type  2   force =     0.00000003    0.00000004    0.00054038
     atom   24 type  2   force =    -0.00000005   -0.00000000    0.00054038
     The Hubbard contrib.    to forces
     atom    1 type  1   force =     0.00000000    0.00000000    0.00000000
     atom    2 type  1   force =     0.00000000    0.00000000    0.00000000
     atom    3 type  2   force =     0.00000000    0.00000000    0.00000000
     atom    4 type  2   force =     0.00000000    0.00000000    0.00000000
     atom    5 type  1   force =     0.00000000    0.00000000    0.00000000
     atom    6 type  1   force =     0.00000000    0.00000000    0.00000000
     atom    7 type  2   force =     0.00000000    0.00000000    0.00000000
     atom    8 type  2   force =     0.00000000    0.00000000    0.00000000
     atom    9 type  1   force =     0.00000000    0.00000000    0.00000000
     atom   10 type  1   force =     0.00000000    0.00000000    0.00000000
     atom   11 type  2   force =     0.00000000    0.00000000    0.00000000
     atom   12 type  2   force =     0.00000000    0.00000000    0.00000000
     atom   13 type  1   force =     0.00000000    0.00000000    0.00000000
     atom   14 type  1   force =     0.00000000    0.00000000    0.00000000
     atom   15 type  2   force =     0.00000000    0.00000000    0.00000000
     atom   16 type  2   force =     0.00000000    0.00000000    0.00000000
     atom   17 type  1   force =     0.00000000    0.00000000    0.00000000
     atom   18 type  1   force =     0.00000000    0.00000000    0.00000000
     atom   19 type  2   force =     0.00000000    0.00000000    0.00000000
     atom   20 type  2   force =     0.00000000    0.00000000    0.00000000
     atom   21 type  1   force =     0.00000000    0.00000000    0.00000000
     atom   22 type  1   force =     0.00000000    0.00000000    0.00000000
     atom   23 type  2   force =     0.00000000    0.00000000    0.00000000
     atom   24 type  2   force =     0.00000000    0.00000000    0.00000000
     The SCF correction term to forces
     atom    1 type  1   force =     0.00000388   -0.00000292    0.00000616
     atom    2 type  1   force =    -0.00000049   -0.00000025    0.00000127
     atom    3 type  2   force =     0.00000122   -0.00000071   -0.00000005
     atom    4 type  2   force =    -0.00000016   -0.00000001    0.00000005
     atom    5 type  1   force =    -0.00000037    0.00000468    0.00000598
     atom    6 type  1   force =     0.00000146    0.00000074    0.00000385
     atom    7 type  2   force =    -0.00000006    0.00000132   -0.00000007
     atom    8 type  2   force =     0.00000052    0.00000026    0.00000029
     atom    9 type  1   force =     0.00000050   -0.00000015    0.00000583
     atom   10 type  1   force =     0.00000245   -0.00000220    0.00000318
     atom   11 type  2   force =     0.00000007   -0.00000004    0.00000011
     atom   12 type  2   force =     0.00000111   -0.00000051    0.00000019
     atom   13 type  1   force =     0.00000132    0.00000114    0.00000484
     atom   14 type  1   force =    -0.00000011    0.00000334    0.00000335
     atom   15 type  2   force =     0.00000053    0.00000045   -0.00000006
     atom   16 type  2   force =     0.00000022    0.00000125    0.00000025
     atom   17 type  1   force =    -0.00000430   -0.00000210    0.00000594
     atom   18 type  1   force =    -0.00000225   -0.00000230    0.00000351
     atom   19 type  2   force =    -0.00000132   -0.00000059    0.00000009
     atom   20 type  2   force =    -0.00000097   -0.00000076    0.00000012
     atom   21 type  1   force =    -0.00000085   -0.00000062    0.00000453
     atom   22 type  1   force =    -0.00000138   -0.00000001    0.00000380
     atom   23 type  2   force =    -0.00000050   -0.00000032    0.00000003
     atom   24 type  2   force =    -0.00000079   -0.00000034    0.00000020

     Total force =     0.152211     Total SCF correction =     0.000019

     General routines

     Parallel routines

   This run was terminated on:   8:53: 0   2Sep2025

   JOB DONE.
Note: The following floating-point exceptions are signalling: IEEE_UNDERFLOW_FLAG IEEE_DENORMAL
Note: The following floating-point exceptions are signalling: IEEE_UNDERFLOW_FLAG IEEE_DENORMAL
Note: The following floating-point exceptions are signalling: IEEE_UNDERFLOW_FLAG IEEE_DENORMAL
Note: The following floating-point exceptions are signalling: IEEE_UNDERFLOW_FLAG IEEE_DENORMAL
Note: The following floating-point exceptions are signalling: IEEE_UNDERFLOW_FLAG IEEE_DENORMAL
Note: The following floating-point exceptions are signalling: IEEE_UNDERFLOW_FLAG IEEE_DENORMAL
Note: The following floating-point exceptions are signalling: IEEE_UNDERFLOW_FLAG IEEE_DENORMAL
Note: The following floating-point exceptions are signalling: IEEE_UNDERFLOW_FLAG IEEE_DENORMAL
Note: The following floating-point exceptions are signalling: IEEE_UNDERFLOW_FLAG IEEE_DENORMAL
Note: The following floating-point exceptions are signalling: IEEE_UNDERFLOW_FLAG IEEE_DENORMAL
Note: The following floating-point exceptions are signalling: IEEE_UNDERFLOW_FLAG IEEE_DENORMAL
Note: The following floating-point exceptions are signalling: IEEE_UNDERFLOW_FLAG IEEE_DENORMAL
Note: The following floating-point exceptions are signalling: IEEE_UNDERFLOW_FLAG IEEE_DENORMAL
Note: The following floating-point exceptions are signalling: IEEE_UNDERFLOW_FLAG IEEE_DENORMAL
Note: The following floating-point exceptions are signalling: IEEE_UNDERFLOW_FLAG IEEE_DENORMAL
Note: The following floating-point exceptions are signalling: IEEE_UNDERFLOW_FLAG IEEE_DENORMAL
Note: The following floating-point exceptions are signalling: IEEE_UNDERFLOW_FLAG IEEE_DENORMAL
Note: The following floating-point exceptions are signalling: IEEE_UNDERFLOW_FLAG IEEE_DENORMAL
Note: The following floating-point exceptions are signalling: IEEE_UNDERFLOW_FLAG IEEE_DENORMAL
Note: The following floating-point exceptions are signalling: IEEE_UNDERFLOW_FLAG IEEE_DENORMAL
Note: The following floating-point exceptions are signalling: IEEE_UNDERFLOW_FLAG IEEE_DENORMAL
Note: The following floating-point exceptions are signalling: IEEE_UNDERFLOW_FLAG IEEE_DENORMAL
Note: The following floating-point exceptions are signalling: IEEE_UNDERFLOW_FLAG IEEE_DENORMAL
Note: The following floating-point exceptions are signalling: IEEE_UNDERFLOW_FLAG IEEE_DENORMAL
Note: The following floating-point exceptions are signalling: IEEE_UNDERFLOW_FLAG IEEE_DENORMAL
Note: The following floating-point exceptions are signalling: IEEE_UNDERFLOW_FLAG IEEE_DENORMAL
Note: The following floating-point exceptions are signalling: IEEE_UNDERFLOW_FLAG IEEE_DENORMAL
Note: The following floating-point exceptions are signalling: IEEE_UNDERFLOW_FLAG IEEE_DENORMAL
Note: The following floating-point exceptions are signalling: IEEE_UNDERFLOW_FLAG IEEE_DENORMAL
Note: The following floating-point exceptions are signalling: IEEE_UNDERFLOW_FLAG IEEE_DENORMAL
Note: The following floating-point exceptions are signalling: IEEE_UNDERFLOW_FLAG IEEE_DENORMAL
Note: The following floating-point exceptions are signalling: IEEE_UNDERFLOW_FLAG IEEE_DENORMAL
Note: The following floating-point exceptions are signalling: IEEE_UNDERFLOW_FLAG IEEE_DENORMAL
Note: The following floating-point exceptions are signalling: IEEE_UNDERFLOW_FLAG IEEE_DENORMAL
Note: The following floating-point exceptions are signalling: IEEE_UNDERFLOW_FLAG IEEE_DENORMAL
Note: The following floating-point exceptions are signalling: IEEE_UNDERFLOW_FLAG IEEE_DENORMAL
Note: The following floating-point exceptions are signalling: IEEE_UNDERFLOW_FLAG IEEE_DENORMAL
Note: The following floating-point exceptions are signalling: IEEE_UNDERFLOW_FLAG IEEE_DENORMAL
Note: The following floating-point exceptions are signalling: IEEE_UNDERFLOW_FLAG IEEE_DENORMAL
Note: The following floating-point exceptions are signalling: IEEE_UNDERFLOW_FLAG IEEE_DENORMAL
Note: The following floating-point exceptions are signalling: IEEE_UNDERFLOW_FLAG IEEE_DENORMAL
Note: The following floating-point exceptions are signalling: IEEE_UNDERFLOW_FLAG IEEE_DENORMAL
Note: The following floating-point exceptions are signalling: IEEE_UNDERFLOW_FLAG IEEE_DENORMAL
Note: The following floating-point exceptions are signalling: IEEE_UNDERFLOW_FLAG IEEE_DENORMAL
Note: The following floating-point exceptions are signalling: IEEE_UNDERFLOW_FLAG IEEE_DENORMAL
Note: The following floating-point exceptions are signalling: IEEE_UNDERFLOW_FLAG IEEE_DENORMAL
Note: The following floating-point exceptions are signalling: IEEE_UNDERFLOW_FLAG IEEE_DENORMAL
Note: The following floating-point exceptions are signalling: IEEE_UNDERFLOW_FLAG IEEE_DENORMAL
Note: The following floating-point exceptions are signalling: IEEE_UNDERFLOW_FLAG IEEE_DENORMAL
Note: The following floating-point exceptions are signalling: IEEE_UNDERFLOW_FLAG IEEE_DENORMAL
Note: The following floating-point exceptions are signalling: IEEE_UNDERFLOW_FLAG IEEE_DENORMAL
Note: The following floating-point exceptions are signalling: IEEE_UNDERFLOW_FLAG IEEE_DENORMAL
Note: The following floating-point exceptions are signalling: IEEE_UNDERFLOW_FLAG IEEE_DENORMAL
Note: The following floating-point exceptions are signalling: IEEE_UNDERFLOW_FLAG IEEE_DENORMAL
Note: The following floating-point exceptions are signalling: IEEE_UNDERFLOW_FLAG IEEE_DENORMAL
Note: The following floating-point exceptions are signalling: IEEE_UNDERFLOW_FLAG IEEE_DENORMAL
Note: The following floating-point exceptions are signalling: IEEE_UNDERFLOW_FLAG IEEE_DENORMAL
Note: The following floating-point exceptions are signalling: IEEE_UNDERFLOW_FLAG IEEE_DENORMAL
Note: The following floating-point exceptions are signalling: IEEE_UNDERFLOW_FLAG IEEE_DENORMAL
Note: The following floating-point exceptions are signalling: IEEE_UNDERFLOW_FLAG IEEE_DENORMAL
Note: The following floating-point exceptions are signalling: IEEE_UNDERFLOW_FLAG IEEE_DENORMAL
Note: The following floating-point exceptions are signalling: IEEE_UNDERFLOW_FLAG IEEE_DENORMAL
Note: The following floating-point exceptions are signalling: IEEE_UNDERFLOW_FLAG IEEE_DENORMAL
Note: The following floating-point exceptions are signalling: IEEE_UNDERFLOW_FLAG IEEE_DENORMAL