     Program PWSCF v.7.2 starts on 13Jul2025 at 18:54:26

     Reading input from /home/jvc/QEspresso7.2/ZnO_database/scripts/cell121.in/ZnO-3.34-1.61-121.in
Warning: card &CELL ignored
Warning: card / ignored
Warning: card &FCP ignored
Warning: card / ignored
Warning: card &RISM ignored
Warning: card / ignored

     Current dimensions of program PWSCF are:
     Max number of different atomic species (ntypx) = 10
     Max number of k-points (npk) =  40000
     Max angular momentum in pseudopotentials (lmaxx) =  4
     file Zn.upf: wavefunction(s)  3D renormalized
     Found identity + ( -0.0000  0.5000  0.0000) symmetry
     This is a supercell, fractional translations are disabled
     Message from routine setup:
     using ibrav=0 with symmetry is DISCOURAGED, use correct ibrav instead

     K-points division:     npool     =       2
     R & G space division:  proc/nbgrp/npool/nimage =       4
     Subspace diagonalization in iterative solution of the eigenvalue problem:
     a serial algorithm will be used

     Using Slab Decomposition

     bravais-lattice index     =            0
     lattice parameter (alat)  =       6.3024  a.u.
     unit-cell volume          =     699.9788 (a.u.)^3
     number of atoms/cell      =            8
     number of atomic types    =            2
     number of electrons       =        72.00
     number of Kohn-Sham states=           36
     kinetic-energy cutoff     =      50.0000  Ry
     charge density cutoff     =     400.0000  Ry
     scf convergence threshold =      1.0E-08
     mixing beta               =       0.3000
     number of iterations used =            8  plain     mixing
     Exchange-correlation= PBE
                           (   1   4   3   4   0   0   0)

     celldm(1)=   6.302431  celldm(2)=   0.000000  celldm(3)=   0.000000
     celldm(4)=   0.000000  celldm(5)=   0.000000  celldm(6)=   0.000000

     crystal axes: (cart. coord. in units of alat)
               a(1) = (   1.000000   0.000000   0.000000 )
               a(2) = (  -1.000000   1.732051   0.000000 )
               a(3) = (   0.000000   0.000000   1.614358 )

     reciprocal axes: (cart. coord. in units 2 pi/alat)
               b(1) = (  1.000000  0.577350 -0.000000 )
               b(2) = (  0.000000  0.577350  0.000000 )
               b(3) = (  0.000000 -0.000000  0.619441 )

     PseudoPot. # 1 for Zn read from file:
     /home/jvc/QEspresso7.2/ZnO_database/pseudos/Zn.upf
     MD5 check sum: 7f56cabf9682ed8c977c2f7d0c5985c5
     Pseudo is Ultrasoft + core correction, Zval = 12.0
     Generated using &quot;atomic&quot; code by A. Dal Corso  v.6.2.2
     Using radial grid of 1201 points,  6 beta functions with:
                l(1) =   0
                l(2) =   0
                l(3) =   1
                l(4) =   1
                l(5) =   2
                l(6) =   2
     Q(r) pseudized with 0 coefficients

     PseudoPot. # 2 for O  read from file:
     /home/jvc/QEspresso7.2/ZnO_database/pseudos/O.upf
     MD5 check sum: 91400c9766925bcf19f520983a725ff0
     Pseudo is Ultrasoft + core correction, Zval =  6.0
     Generated using &quot;atomic&quot; code by A. Dal Corso  v.6.3MaX
     Using radial grid of 1095 points,  4 beta functions with:
                l(1) =   0
                l(2) =   0
                l(3) =   1
                l(4) =   1
     Q(r) pseudized with 0 coefficients

     atomic species   valence    mass     pseudopotential
        Zn            12.00    65.38000     Zn( 1.00)
        O              6.00    15.99900     O ( 1.00)

      2 Sym. Ops. (no inversion) found

                                    s                        frac. trans.

      isym =  1     identity

 cryst.   s( 1) = (     1          0          0      )
                  (     0          1          0      )
                  (     0          0          1      )

 cart.    s( 1) = (  1.0000000  0.0000000  0.0000000 )
                  (  0.0000000  1.0000000  0.0000000 )
                  (  0.0000000  0.0000000  1.0000000 )

      isym =  2     inv. 180 deg rotation - cart. axis [1,0,0]

 cryst.   s( 2) = (    -1          0          0      )
                  (     2          1          0      )
                  (     0          0          1      )

 cart.    s( 2) = ( -1.0000000  0.0000000  0.0000000 )
                  (  0.0000000  1.0000000  0.0000000 )
                  (  0.0000000  0.0000000  1.0000000 )

   Cartesian axes

     site n.     atom                  positions (alat units)
         1           Zn  tau(   1) = (   0.0000000   0.0000000   0.0000000  )
         2           O   tau(   2) = (   0.0000000   0.5773503   0.1971092  )
         3           Zn  tau(   3) = (   0.0000000   0.5773503   0.8071792  )
         4           O   tau(   4) = (   0.0000000   0.0000000   1.0042884  )
         5           Zn  tau(   5) = (  -0.5000000   0.8660254   0.0000000  )
         6           O   tau(   6) = (  -0.5000000   1.4433757   0.1971092  )
         7           Zn  tau(   7) = (  -0.5000000   1.4433757   0.8071792  )
         8           O   tau(   8) = (  -0.5000000   0.8660254   1.0042884  )

   Crystallographic axes

     site n.     atom                  positions (cryst. coord.)
         1           Zn  tau(   1) = (  0.0000000  0.0000000  0.0000000  )
         2           O   tau(   2) = (  0.3333333  0.3333333  0.1220976  )
         3           Zn  tau(   3) = (  0.3333333  0.3333333  0.5000000  )
         4           O   tau(   4) = (  0.0000000  0.0000000  0.6220976  )
         5           Zn  tau(   5) = ( -0.0000000  0.5000000  0.0000000  )
         6           O   tau(   6) = (  0.3333333  0.8333333  0.1220976  )
         7           Zn  tau(   7) = (  0.3333333  0.8333333  0.5000000  )
         8           O   tau(   8) = ( -0.0000000  0.5000000  0.6220976  )

     number of k points=    80
                       cart. coord. in units 2pi/alat
        k(    1) = (   0.0000000   0.0000000   0.0000000), wk =   0.0092593
        k(    2) = (   0.0000000   0.0000000   0.1032402), wk =   0.0185185
        k(    3) = (   0.0000000   0.0000000   0.2064804), wk =   0.0185185
        k(    4) = (   0.0000000   0.0000000  -0.3097206), wk =   0.0092593
        k(    5) = (   0.0000000   0.0962250   0.0000000), wk =   0.0185185
        k(    6) = (   0.0000000   0.0962250   0.1032402), wk =   0.0185185
        k(    7) = (   0.0000000   0.0962250   0.2064804), wk =   0.0185185
        k(    8) = (   0.0000000   0.0962250  -0.3097206), wk =   0.0185185
        k(    9) = (   0.0000000   0.1924501   0.0000000), wk =   0.0185185
        k(   10) = (   0.0000000   0.1924501   0.1032402), wk =   0.0185185
        k(   11) = (   0.0000000   0.1924501   0.2064804), wk =   0.0185185
        k(   12) = (   0.0000000   0.1924501  -0.3097206), wk =   0.0185185
        k(   13) = (   0.0000000  -0.2886751   0.0000000), wk =   0.0092593
        k(   14) = (   0.0000000  -0.2886751   0.1032402), wk =   0.0185185
        k(   15) = (   0.0000000  -0.2886751   0.2064804), wk =   0.0185185
        k(   16) = (   0.0000000  -0.2886751  -0.3097206), wk =   0.0092593
        k(   17) = (   0.1666667   0.0962250   0.0000000), wk =   0.0370370
        k(   18) = (   0.1666667   0.0962250   0.1032402), wk =   0.0370370
        k(   19) = (   0.1666667   0.0962250   0.2064804), wk =   0.0370370
        k(   20) = (   0.1666667   0.0962250  -0.3097206), wk =   0.0370370
        k(   21) = (   0.1666667   0.1924501   0.0000000), wk =   0.0370370
        k(   22) = (   0.1666667   0.1924501   0.1032402), wk =   0.0370370
        k(   23) = (   0.1666667   0.1924501   0.2064804), wk =   0.0370370
        k(   24) = (   0.1666667   0.1924501  -0.3097206), wk =   0.0370370
        k(   25) = (   0.1666667   0.2886751   0.0000000), wk =   0.0185185
        k(   26) = (   0.1666667   0.2886751   0.1032402), wk =   0.0370370
        k(   27) = (   0.1666667   0.2886751   0.2064804), wk =   0.0370370
        k(   28) = (   0.1666667   0.2886751  -0.3097206), wk =   0.0185185
        k(   29) = (   0.1666667   0.0000000   0.0000000), wk =   0.0185185
        k(   30) = (   0.1666667   0.0000000   0.1032402), wk =   0.0370370
        k(   31) = (   0.1666667   0.0000000   0.2064804), wk =   0.0370370
        k(   32) = (   0.1666667   0.0000000  -0.3097206), wk =   0.0185185
        k(   33) = (   0.3333333   0.1924501   0.0000000), wk =   0.0370370
        k(   34) = (   0.3333333   0.1924501   0.1032402), wk =   0.0370370
        k(   35) = (   0.3333333   0.1924501   0.2064804), wk =   0.0370370
        k(   36) = (   0.3333333   0.1924501  -0.3097206), wk =   0.0370370
        k(   37) = (   0.3333333   0.2886751   0.0000000), wk =   0.0185185
        k(   38) = (   0.3333333   0.2886751   0.1032402), wk =   0.0370370
        k(   39) = (   0.3333333   0.2886751   0.2064804), wk =   0.0370370
        k(   40) = (   0.3333333   0.2886751  -0.3097206), wk =   0.0185185
        k(   41) = (   0.3333333  -0.0962250   0.0000000), wk =   0.0370370
        k(   42) = (   0.3333333  -0.0962250   0.1032402), wk =   0.0370370
        k(   43) = (   0.3333333  -0.0962250   0.2064804), wk =   0.0370370
        k(   44) = (   0.3333333  -0.0962250  -0.3097206), wk =   0.0370370
        k(   45) = (   0.3333333  -0.0000000   0.0000000), wk =   0.0185185
        k(   46) = (   0.3333333  -0.0000000   0.1032402), wk =   0.0370370
        k(   47) = (   0.3333333  -0.0000000   0.2064804), wk =   0.0370370
        k(   48) = (   0.3333333  -0.0000000  -0.3097206), wk =   0.0185185
        k(   49) = (  -0.5000000  -0.2886751   0.0000000), wk =   0.0092593
        k(   50) = (  -0.5000000  -0.2886751   0.1032402), wk =   0.0185185
        k(   51) = (  -0.5000000  -0.2886751   0.2064804), wk =   0.0185185
        k(   52) = (  -0.5000000  -0.2886751  -0.3097206), wk =   0.0092593
        k(   53) = (  -0.5000000  -0.1924501   0.0000000), wk =   0.0185185
        k(   54) = (  -0.5000000  -0.1924501   0.1032402), wk =   0.0185185
        k(   55) = (  -0.5000000  -0.1924501   0.2064804), wk =   0.0185185
        k(   56) = (  -0.5000000  -0.1924501  -0.3097206), wk =   0.0185185
        k(   57) = (  -0.5000000  -0.0962250   0.0000000), wk =   0.0185185
        k(   58) = (  -0.5000000  -0.0962250   0.1032402), wk =   0.0185185
        k(   59) = (  -0.5000000  -0.0962250   0.2064804), wk =   0.0185185
        k(   60) = (  -0.5000000  -0.0962250  -0.3097206), wk =   0.0185185
[...]
        k(   66) = (   0.0000000   0.0962250  -0.2064804), wk =   0.0185185
        k(   67) = (   0.0000000   0.1924501  -0.1032402), wk =   0.0185185
        k(   68) = (   0.0000000   0.1924501  -0.2064804), wk =   0.0185185
        k(   69) = (  -0.1666667   0.0962250  -0.1032402), wk =   0.0370370
        k(   70) = (  -0.1666667   0.0962250  -0.2064804), wk =   0.0370370
        k(   71) = (  -0.1666667   0.1924501  -0.1032402), wk =   0.0370370
        k(   72) = (  -0.1666667   0.1924501  -0.2064804), wk =   0.0370370
        k(   73) = (  -0.3333333   0.1924501  -0.1032402), wk =   0.0370370
        k(   74) = (  -0.3333333   0.1924501  -0.2064804), wk =   0.0370370
        k(   75) = (  -0.3333333  -0.0962250  -0.1032402), wk =   0.0370370
        k(   76) = (  -0.3333333  -0.0962250  -0.2064804), wk =   0.0370370
        k(   77) = (   0.5000000  -0.1924501  -0.1032402), wk =   0.0185185
        k(   78) = (   0.5000000  -0.1924501  -0.2064804), wk =   0.0185185
        k(   79) = (   0.5000000  -0.0962250  -0.1032402), wk =   0.0185185
        k(   80) = (   0.5000000  -0.0962250  -0.2064804), wk =   0.0185185

                       cryst. coord.
        k(    1) = (   0.0000000   0.0000000   0.0000000), wk =   0.0092593
        k(    2) = (   0.0000000   0.0000000   0.1666667), wk =   0.0185185
        k(    3) = (   0.0000000   0.0000000   0.3333333), wk =   0.0185185
        k(    4) = (   0.0000000   0.0000000  -0.5000000), wk =   0.0092593
        k(    5) = (   0.0000000   0.1666667   0.0000000), wk =   0.0185185
        k(    6) = (   0.0000000   0.1666667   0.1666667), wk =   0.0185185
        k(    7) = (   0.0000000   0.1666667   0.3333333), wk =   0.0185185
        k(    8) = (   0.0000000   0.1666667  -0.5000000), wk =   0.0185185
        k(    9) = (   0.0000000   0.3333333   0.0000000), wk =   0.0185185
        k(   10) = (   0.0000000   0.3333333   0.1666667), wk =   0.0185185
        k(   11) = (   0.0000000   0.3333333   0.3333333), wk =   0.0185185
        k(   12) = (   0.0000000   0.3333333  -0.5000000), wk =   0.0185185
        k(   13) = (   0.0000000  -0.5000000   0.0000000), wk =   0.0092593
        k(   14) = (   0.0000000  -0.5000000   0.1666667), wk =   0.0185185
        k(   15) = (   0.0000000  -0.5000000   0.3333333), wk =   0.0185185
        k(   16) = (   0.0000000  -0.5000000  -0.5000000), wk =   0.0092593
        k(   17) = (   0.1666667  -0.0000000   0.0000000), wk =   0.0370370
        k(   18) = (   0.1666667  -0.0000000   0.1666667), wk =   0.0370370
        k(   19) = (   0.1666667  -0.0000000   0.3333333), wk =   0.0370370
        k(   20) = (   0.1666667  -0.0000000  -0.5000000), wk =   0.0370370
        k(   21) = (   0.1666667   0.1666667   0.0000000), wk =   0.0370370
        k(   22) = (   0.1666667   0.1666667   0.1666667), wk =   0.0370370
        k(   23) = (   0.1666667   0.1666667   0.3333333), wk =   0.0370370
        k(   24) = (   0.1666667   0.1666667  -0.5000000), wk =   0.0370370
        k(   25) = (   0.1666667   0.3333333   0.0000000), wk =   0.0185185
        k(   26) = (   0.1666667   0.3333333   0.1666667), wk =   0.0370370
        k(   27) = (   0.1666667   0.3333333   0.3333333), wk =   0.0370370
        k(   28) = (   0.1666667   0.3333333  -0.5000000), wk =   0.0185185
        k(   29) = (   0.1666667  -0.1666667   0.0000000), wk =   0.0185185
        k(   30) = (   0.1666667  -0.1666667   0.1666667), wk =   0.0370370
        k(   31) = (   0.1666667  -0.1666667   0.3333333), wk =   0.0370370
        k(   32) = (   0.1666667  -0.1666667  -0.5000000), wk =   0.0185185
        k(   33) = (   0.3333333  -0.0000000   0.0000000), wk =   0.0370370
        k(   34) = (   0.3333333  -0.0000000   0.1666667), wk =   0.0370370
        k(   35) = (   0.3333333  -0.0000000   0.3333333), wk =   0.0370370
        k(   36) = (   0.3333333  -0.0000000  -0.5000000), wk =   0.0370370
        k(   37) = (   0.3333333   0.1666667   0.0000000), wk =   0.0185185
        k(   38) = (   0.3333333   0.1666667   0.1666667), wk =   0.0370370
        k(   39) = (   0.3333333   0.1666667   0.3333333), wk =   0.0370370
        k(   40) = (   0.3333333   0.1666667  -0.5000000), wk =   0.0185185
        k(   41) = (   0.3333333  -0.5000000   0.0000000), wk =   0.0370370
        k(   42) = (   0.3333333  -0.5000000   0.1666667), wk =   0.0370370
        k(   43) = (   0.3333333  -0.5000000   0.3333333), wk =   0.0370370
        k(   44) = (   0.3333333  -0.5000000  -0.5000000), wk =   0.0370370
        k(   45) = (   0.3333333  -0.3333333   0.0000000), wk =   0.0185185
        k(   46) = (   0.3333333  -0.3333333   0.1666667), wk =   0.0370370
        k(   47) = (   0.3333333  -0.3333333   0.3333333), wk =   0.0370370
        k(   48) = (   0.3333333  -0.3333333  -0.5000000), wk =   0.0185185
        k(   49) = (  -0.5000000   0.0000000   0.0000000), wk =   0.0092593
        k(   50) = (  -0.5000000   0.0000000   0.1666667), wk =   0.0185185
        k(   51) = (  -0.5000000   0.0000000   0.3333333), wk =   0.0185185
        k(   52) = (  -0.5000000   0.0000000  -0.5000000), wk =   0.0092593
        k(   53) = (  -0.5000000   0.1666667   0.0000000), wk =   0.0185185
        k(   54) = (  -0.5000000   0.1666667   0.1666667), wk =   0.0185185
        k(   55) = (  -0.5000000   0.1666667   0.3333333), wk =   0.0185185
        k(   56) = (  -0.5000000   0.1666667  -0.5000000), wk =   0.0185185
        k(   57) = (  -0.5000000   0.3333333   0.0000000), wk =   0.0185185
        k(   58) = (  -0.5000000   0.3333333   0.1666667), wk =   0.0185185
        k(   59) = (  -0.5000000   0.3333333   0.3333333), wk =   0.0185185
        k(   60) = (  -0.5000000   0.3333333  -0.5000000), wk =   0.0185185
[...]
        k(   66) = (   0.0000000   0.1666667  -0.3333333), wk =   0.0185185
        k(   67) = (   0.0000000   0.3333333  -0.1666667), wk =   0.0185185
        k(   68) = (   0.0000000   0.3333333  -0.3333333), wk =   0.0185185
        k(   69) = (  -0.1666667   0.3333333  -0.1666667), wk =   0.0370370
        k(   70) = (  -0.1666667   0.3333333  -0.3333333), wk =   0.0370370
        k(   71) = (  -0.1666667   0.5000000  -0.1666667), wk =   0.0370370
        k(   72) = (  -0.1666667   0.5000000  -0.3333333), wk =   0.0370370
        k(   73) = (  -0.3333333   0.6666667  -0.1666667), wk =   0.0370370
        k(   74) = (  -0.3333333   0.6666667  -0.3333333), wk =   0.0370370
        k(   75) = (  -0.3333333   0.1666667  -0.1666667), wk =   0.0370370
        k(   76) = (  -0.3333333   0.1666667  -0.3333333), wk =   0.0370370
        k(   77) = (   0.5000000  -0.8333333  -0.1666667), wk =   0.0185185
        k(   78) = (   0.5000000  -0.8333333  -0.3333333), wk =   0.0185185
        k(   79) = (   0.5000000  -0.6666667  -0.1666667), wk =   0.0185185
        k(   80) = (   0.5000000  -0.6666667  -0.3333333), wk =   0.0185185

     Check: negative core charge=   -0.000002

     Initial potential from superposition of free atoms

     starting charge      71.9851, renormalised to      72.0000
     Starting wfcs are   52 randomized atomic wfcs

     Self-consistent Calculation

     iteration #  1     ecut=    50.00 Ry     beta= 0.30
     Davidson diagonalization with overlap

     ethr =  1.00E-02,  avg # of iterations =  1.8

     total energy              =    -722.93551591 Ry
     estimated scf accuracy    <       1.42846990 Ry

[...]

     c_bands:  1 eigenvalues not converged
     c_bands:  1 eigenvalues not converged
     c_bands:  1 eigenvalues not converged
     c_bands:  2 eigenvalues not converged
     c_bands:  1 eigenvalues not converged
     ethr =  1.37E-08,  avg # of iterations = 15.1

[...]

     c_bands:  1 eigenvalues not converged
     c_bands:  1 eigenvalues not converged
     c_bands:  1 eigenvalues not converged
     ethr =  1.37E-08,  avg # of iterations = 14.5

[...]

     total energy              =    -723.26724347 Ry
     estimated scf accuracy    <       0.00000001 Ry

     iteration # 33     ecut=    50.00 Ry     beta= 0.30
     Davidson diagonalization with overlap

     ethr =  1.39E-11,  avg # of iterations =  1.2

     End of self-consistent calculation

          k = 0.0000 0.0000 0.0000 (  4153 PWs)   bands (ev):

   -11.3986 -10.8291 -10.8006 -10.6455   0.5825   0.7244   0.7246   0.7433
     0.8344   0.8949   0.8950   0.9356   1.0126   1.2637   1.3506   1.4016
     1.6661   1.6661   1.7082   1.8090   1.8378   1.8378   1.8768   1.9402
     2.0902   2.4268   2.7876   3.4688   4.0603   4.8874   5.3251   5.3386
     5.3390   5.9844   6.0442   6.0447

     occupation numbers
     1.0000   1.0000   1.0000   1.0000   1.0000   1.0000   1.0000   1.0000
     1.0000   1.0000   1.0000   1.0000   1.0000   1.0000   1.0000   1.0000
     1.0000   1.0000   1.0000   1.0000   1.0000   1.0000   1.0000   1.0000
     1.0000   1.0000   1.0000   1.0000   1.0000   1.0000   1.0000   1.0000
     1.0000   1.0000   1.0000   1.0000

[...]

          k =-0.5000-0.2887 0.0000 (  4168 PWs)   bands (ev):

[...]

          k =-0.3333-0.0962-0.2065 (  4192 PWs)   bands (ev):

[...]

          k = 0.5000-0.0962-0.2065 (  4196 PWs)   bands (ev):

   -10.7825 -10.7825 -10.6857 -10.6857   0.5891   0.5891   0.6866   0.6866
     0.9738   0.9738   1.1277   1.1277   1.2446   1.2446   1.2559   1.2559
     1.7292   1.7292   1.7887   1.7887   1.9003   1.9003   2.0050   2.0050
     2.5338   2.5339   2.8488   2.8488   3.8659   3.8659   4.3896   4.3896
     4.6554   4.6554   5.0924   5.0924

     occupation numbers
     1.0000   1.0000   1.0000   1.0000   1.0000   1.0000   1.0000   1.0000
     1.0000   1.0000   1.0000   1.0000   1.0000   1.0000   1.0000   1.0000
     1.0000   1.0000   1.0000   1.0000   1.0000   1.0000   1.0000   1.0000
     1.0000   1.0000   1.0000   1.0000   1.0000   1.0000   1.0000   1.0000
     1.0000   1.0000   1.0000   1.0000

     highest occupied level (ev):     6.0447

!    total energy              =    -723.26724346 Ry
     estimated scf accuracy    <          5.9E-09 Ry

     The total energy is the sum of the following terms:
     one-electron contribution =    -322.57447784 Ry
     hartree contribution      =     241.40796706 Ry
     xc contribution           =    -218.85649403 Ry
     ewald contribution        =    -423.24423866 Ry

     convergence has been achieved in  33 iterations

     Forces acting on atoms (cartesian axes, Ry/au):

     atom    1 type  1   force =     0.00000000    0.00000791    0.00115287
     atom    2 type  2   force =     0.00000000    0.00000162   -0.00115270
     atom    3 type  1   force =     0.00000000   -0.00000451    0.00115314
     atom    4 type  2   force =     0.00000000   -0.00000248   -0.00115298
     atom    5 type  1   force =     0.00000000    0.00000419    0.00115276
     atom    6 type  2   force =     0.00000000    0.00000282   -0.00115264
     atom    7 type  1   force =     0.00000000   -0.00000695    0.00115280
     atom    8 type  2   force =     0.00000000   -0.00000260   -0.00115324
     The non-local contrib.  to forces
     atom    1 type  1   force =     0.00000000   -0.00001314    0.01050807
     atom    2 type  2   force =     0.00000000    0.00021306   -0.00049063
     atom    3 type  1   force =     0.00000000    0.00001404    0.01050893
     atom    4 type  2   force =     0.00000000   -0.00021434   -0.00048975
     atom    5 type  1   force =     0.00000000   -0.00001421    0.01050821
     atom    6 type  2   force =     0.00000000    0.00021411   -0.00048975
     atom    7 type  1   force =     0.00000000    0.00001289    0.01050872
     atom    8 type  2   force =     0.00000000   -0.00021267   -0.00048902
     The ionic contribution  to forces
     atom    1 type  1   force =    -0.00000000   -0.00000000   -0.01997052
     atom    2 type  2   force =    -0.00000000    0.00000000    0.01997052
     atom    3 type  1   force =     0.00000000    0.00000000   -0.01997052
     atom    4 type  2   force =    -0.00000000   -0.00000000    0.01997052
     atom    5 type  1   force =    -0.00000000   -0.00000000   -0.01997052
     atom    6 type  2   force =    -0.00000000    0.00000000    0.01997052
     atom    7 type  1   force =     0.00000000    0.00000000   -0.01997052
     atom    8 type  2   force =    -0.00000000   -0.00000000    0.01997052
     The local contribution  to forces
     atom    1 type  1   force =     0.00000000    0.00002198    0.01149278
     atom    2 type  2   force =     0.00000000   -0.00020933   -0.02065670
     atom    3 type  1   force =    -0.00000000   -0.00002710    0.01149023
     atom    4 type  2   force =    -0.00000000    0.00020832   -0.02065723
     atom    5 type  1   force =     0.00000000    0.00002720    0.01149365
     atom    6 type  2   force =     0.00000000   -0.00020835   -0.02065843
     atom    7 type  1   force =    -0.00000000   -0.00002203    0.01148982
     atom    8 type  2   force =     0.00000000    0.00020882   -0.02065894
     The core correction contribution to forces
     atom    1 type  1   force =     0.00000007   -0.00000571   -0.00087777
     atom    2 type  2   force =    -0.00000000   -0.00000243    0.00002328
     atom    3 type  1   force =    -0.00000007    0.00000587   -0.00087771
     atom    4 type  2   force =     0.00000000    0.00000244    0.00002327
     atom    5 type  1   force =    -0.00000004   -0.00000606   -0.00087784
     atom    6 type  2   force =     0.00000000   -0.00000242    0.00002327
     atom    7 type  1   force =     0.00000004    0.00000590   -0.00087763
     atom    8 type  2   force =    -0.00000000    0.00000241    0.00002326
     The Hubbard contrib.    to forces
     atom    1 type  1   force =     0.00000000    0.00000000    0.00000000
     atom    2 type  2   force =     0.00000000    0.00000000    0.00000000
     atom    3 type  1   force =     0.00000000    0.00000000    0.00000000
     atom    4 type  2   force =     0.00000000    0.00000000    0.00000000
     atom    5 type  1   force =     0.00000000    0.00000000    0.00000000
     atom    6 type  2   force =     0.00000000    0.00000000    0.00000000
     atom    7 type  1   force =     0.00000000    0.00000000    0.00000000
     atom    8 type  2   force =     0.00000000    0.00000000    0.00000000
     The SCF correction term to forces
     atom    1 type  1   force =    -0.00000000    0.00000485   -0.00000110
     atom    2 type  2   force =     0.00000000    0.00000039   -0.00000060
     atom    3 type  1   force =     0.00000000    0.00000276    0.00000079
     atom    4 type  2   force =    -0.00000000    0.00000118   -0.00000122
     atom    5 type  1   force =     0.00000000   -0.00000266   -0.00000215
     atom    6 type  2   force =    -0.00000000   -0.00000043    0.00000032
     atom    7 type  1   force =    -0.00000000   -0.00000364    0.00000100
     atom    8 type  2   force =     0.00000000   -0.00000109   -0.00000048

     Total force =     0.003261     Total SCF correction =     0.000008

     General routines

     Parallel routines

   This run was terminated on:  19: 2: 9  13Jul2025

   JOB DONE.
Note: The following floating-point exceptions are signalling: IEEE_INVALID_FLAG
Note: The following floating-point exceptions are signalling: IEEE_INVALID_FLAG