     Program PWSCF v.7.2 starts on 13Jul2025 at 19: 2:10

     Reading input from /home/jvc/QEspresso7.2/ZnO_database/scripts/cell121.in/ZnO-3.34-1.65-121.in
Warning: card &CELL ignored
Warning: card / ignored
Warning: card &FCP ignored
Warning: card / ignored
Warning: card &RISM ignored
Warning: card / ignored

     Current dimensions of program PWSCF are:
     Max number of different atomic species (ntypx) = 10
     Max number of k-points (npk) =  40000
     Max angular momentum in pseudopotentials (lmaxx) =  4
     file Zn.upf: wavefunction(s)  3D renormalized
     Found identity + ( -0.0000  0.5000  0.0000) symmetry
     This is a supercell, fractional translations are disabled
     Message from routine setup:
     using ibrav=0 with symmetry is DISCOURAGED, use correct ibrav instead

     K-points division:     npool     =       2
     R & G space division:  proc/nbgrp/npool/nimage =       4
     Subspace diagonalization in iterative solution of the eigenvalue problem:
     a serial algorithm will be used

     Using Slab Decomposition

     bravais-lattice index     =            0
     lattice parameter (alat)  =       6.3024  a.u.
     unit-cell volume          =     713.9784 (a.u.)^3
     number of atoms/cell      =            8
     number of atomic types    =            2
     number of electrons       =        72.00
     number of Kohn-Sham states=           36
     kinetic-energy cutoff     =      50.0000  Ry
     charge density cutoff     =     400.0000  Ry
     scf convergence threshold =      1.0E-08
     mixing beta               =       0.3000
     number of iterations used =            8  plain     mixing
     Exchange-correlation= PBE
                           (   1   4   3   4   0   0   0)

     celldm(1)=   6.302431  celldm(2)=   0.000000  celldm(3)=   0.000000
     celldm(4)=   0.000000  celldm(5)=   0.000000  celldm(6)=   0.000000

     crystal axes: (cart. coord. in units of alat)
               a(1) = (   1.000000   0.000000   0.000000 )
               a(2) = (  -1.000000   1.732051   0.000000 )
               a(3) = (   0.000000   0.000000   1.646646 )

     reciprocal axes: (cart. coord. in units 2 pi/alat)
               b(1) = (  1.000000  0.577350 -0.000000 )
               b(2) = (  0.000000  0.577350  0.000000 )
               b(3) = (  0.000000 -0.000000  0.607295 )

     PseudoPot. # 1 for Zn read from file:
     /home/jvc/QEspresso7.2/ZnO_database/pseudos/Zn.upf
     MD5 check sum: 7f56cabf9682ed8c977c2f7d0c5985c5
     Pseudo is Ultrasoft + core correction, Zval = 12.0
     Generated using &quot;atomic&quot; code by A. Dal Corso  v.6.2.2
     Using radial grid of 1201 points,  6 beta functions with:
                l(1) =   0
                l(2) =   0
                l(3) =   1
                l(4) =   1
                l(5) =   2
                l(6) =   2
     Q(r) pseudized with 0 coefficients

     PseudoPot. # 2 for O  read from file:
     /home/jvc/QEspresso7.2/ZnO_database/pseudos/O.upf
     MD5 check sum: 91400c9766925bcf19f520983a725ff0
     Pseudo is Ultrasoft + core correction, Zval =  6.0
     Generated using &quot;atomic&quot; code by A. Dal Corso  v.6.3MaX
     Using radial grid of 1095 points,  4 beta functions with:
                l(1) =   0
                l(2) =   0
                l(3) =   1
                l(4) =   1
     Q(r) pseudized with 0 coefficients

     atomic species   valence    mass     pseudopotential
        Zn            12.00    65.38000     Zn( 1.00)
        O              6.00    15.99900     O ( 1.00)

      2 Sym. Ops. (no inversion) found

                                    s                        frac. trans.

      isym =  1     identity

 cryst.   s( 1) = (     1          0          0      )
                  (     0          1          0      )
                  (     0          0          1      )

 cart.    s( 1) = (  1.0000000  0.0000000  0.0000000 )
                  (  0.0000000  1.0000000  0.0000000 )
                  (  0.0000000  0.0000000  1.0000000 )

      isym =  2     inv. 180 deg rotation - cart. axis [1,0,0]

 cryst.   s( 2) = (    -1          0          0      )
                  (     2          1          0      )
                  (     0          0          1      )

 cart.    s( 2) = ( -1.0000000  0.0000000  0.0000000 )
                  (  0.0000000  1.0000000  0.0000000 )
                  (  0.0000000  0.0000000  1.0000000 )

   Cartesian axes

     site n.     atom                  positions (alat units)
         1           Zn  tau(   1) = (   0.0000000   0.0000000   0.0000000  )
         2           O   tau(   2) = (   0.0000000   0.5773503   0.2092296  )
         3           Zn  tau(   3) = (   0.0000000   0.5773503   0.8233228  )
         4           O   tau(   4) = (   0.0000000   0.0000000   1.0325524  )
         5           Zn  tau(   5) = (  -0.5000000   0.8660254   0.0000000  )
         6           O   tau(   6) = (  -0.5000000   1.4433757   0.2092296  )
         7           Zn  tau(   7) = (  -0.5000000   1.4433757   0.8233228  )
         8           O   tau(   8) = (  -0.5000000   0.8660254   1.0325524  )

   Crystallographic axes

     site n.     atom                  positions (cryst. coord.)
         1           Zn  tau(   1) = (  0.0000000  0.0000000  0.0000000  )
         2           O   tau(   2) = (  0.3333333  0.3333333  0.1270642  )
         3           Zn  tau(   3) = (  0.3333333  0.3333333  0.5000000  )
         4           O   tau(   4) = (  0.0000000  0.0000000  0.6270642  )
         5           Zn  tau(   5) = ( -0.0000000  0.5000000  0.0000000  )
         6           O   tau(   6) = (  0.3333333  0.8333333  0.1270642  )
         7           Zn  tau(   7) = (  0.3333333  0.8333333  0.5000000  )
         8           O   tau(   8) = ( -0.0000000  0.5000000  0.6270642  )

     number of k points=    80
                       cart. coord. in units 2pi/alat
        k(    1) = (   0.0000000   0.0000000   0.0000000), wk =   0.0092593
        k(    2) = (   0.0000000   0.0000000   0.1012159), wk =   0.0185185
        k(    3) = (   0.0000000   0.0000000   0.2024317), wk =   0.0185185
        k(    4) = (   0.0000000   0.0000000  -0.3036476), wk =   0.0092593
        k(    5) = (   0.0000000   0.0962250   0.0000000), wk =   0.0185185
        k(    6) = (   0.0000000   0.0962250   0.1012159), wk =   0.0185185
        k(    7) = (   0.0000000   0.0962250   0.2024317), wk =   0.0185185
        k(    8) = (   0.0000000   0.0962250  -0.3036476), wk =   0.0185185
        k(    9) = (   0.0000000   0.1924501   0.0000000), wk =   0.0185185
        k(   10) = (   0.0000000   0.1924501   0.1012159), wk =   0.0185185
        k(   11) = (   0.0000000   0.1924501   0.2024317), wk =   0.0185185
        k(   12) = (   0.0000000   0.1924501  -0.3036476), wk =   0.0185185
        k(   13) = (   0.0000000  -0.2886751   0.0000000), wk =   0.0092593
        k(   14) = (   0.0000000  -0.2886751   0.1012159), wk =   0.0185185
        k(   15) = (   0.0000000  -0.2886751   0.2024317), wk =   0.0185185
        k(   16) = (   0.0000000  -0.2886751  -0.3036476), wk =   0.0092593
        k(   17) = (   0.1666667   0.0962250   0.0000000), wk =   0.0370370
        k(   18) = (   0.1666667   0.0962250   0.1012159), wk =   0.0370370
        k(   19) = (   0.1666667   0.0962250   0.2024317), wk =   0.0370370
        k(   20) = (   0.1666667   0.0962250  -0.3036476), wk =   0.0370370
        k(   21) = (   0.1666667   0.1924501   0.0000000), wk =   0.0370370
        k(   22) = (   0.1666667   0.1924501   0.1012159), wk =   0.0370370
        k(   23) = (   0.1666667   0.1924501   0.2024317), wk =   0.0370370
        k(   24) = (   0.1666667   0.1924501  -0.3036476), wk =   0.0370370
        k(   25) = (   0.1666667   0.2886751   0.0000000), wk =   0.0185185
        k(   26) = (   0.1666667   0.2886751   0.1012159), wk =   0.0370370
        k(   27) = (   0.1666667   0.2886751   0.2024317), wk =   0.0370370
        k(   28) = (   0.1666667   0.2886751  -0.3036476), wk =   0.0185185
        k(   29) = (   0.1666667   0.0000000   0.0000000), wk =   0.0185185
        k(   30) = (   0.1666667   0.0000000   0.1012159), wk =   0.0370370
        k(   31) = (   0.1666667   0.0000000   0.2024317), wk =   0.0370370
        k(   32) = (   0.1666667   0.0000000  -0.3036476), wk =   0.0185185
        k(   33) = (   0.3333333   0.1924501   0.0000000), wk =   0.0370370
        k(   34) = (   0.3333333   0.1924501   0.1012159), wk =   0.0370370
        k(   35) = (   0.3333333   0.1924501   0.2024317), wk =   0.0370370
        k(   36) = (   0.3333333   0.1924501  -0.3036476), wk =   0.0370370
        k(   37) = (   0.3333333   0.2886751   0.0000000), wk =   0.0185185
        k(   38) = (   0.3333333   0.2886751   0.1012159), wk =   0.0370370
        k(   39) = (   0.3333333   0.2886751   0.2024317), wk =   0.0370370
        k(   40) = (   0.3333333   0.2886751  -0.3036476), wk =   0.0185185
        k(   41) = (   0.3333333  -0.0962250   0.0000000), wk =   0.0370370
        k(   42) = (   0.3333333  -0.0962250   0.1012159), wk =   0.0370370
        k(   43) = (   0.3333333  -0.0962250   0.2024317), wk =   0.0370370
        k(   44) = (   0.3333333  -0.0962250  -0.3036476), wk =   0.0370370
        k(   45) = (   0.3333333  -0.0000000   0.0000000), wk =   0.0185185
        k(   46) = (   0.3333333  -0.0000000   0.1012159), wk =   0.0370370
        k(   47) = (   0.3333333  -0.0000000   0.2024317), wk =   0.0370370
        k(   48) = (   0.3333333  -0.0000000  -0.3036476), wk =   0.0185185
        k(   49) = (  -0.5000000  -0.2886751   0.0000000), wk =   0.0092593
        k(   50) = (  -0.5000000  -0.2886751   0.1012159), wk =   0.0185185
        k(   51) = (  -0.5000000  -0.2886751   0.2024317), wk =   0.0185185
        k(   52) = (  -0.5000000  -0.2886751  -0.3036476), wk =   0.0092593
        k(   53) = (  -0.5000000  -0.1924501   0.0000000), wk =   0.0185185
        k(   54) = (  -0.5000000  -0.1924501   0.1012159), wk =   0.0185185
        k(   55) = (  -0.5000000  -0.1924501   0.2024317), wk =   0.0185185
        k(   56) = (  -0.5000000  -0.1924501  -0.3036476), wk =   0.0185185
        k(   57) = (  -0.5000000  -0.0962250   0.0000000), wk =   0.0185185
        k(   58) = (  -0.5000000  -0.0962250   0.1012159), wk =   0.0185185
        k(   59) = (  -0.5000000  -0.0962250   0.2024317), wk =   0.0185185
        k(   60) = (  -0.5000000  -0.0962250  -0.3036476), wk =   0.0185185
[...]
        k(   66) = (   0.0000000   0.0962250  -0.2024317), wk =   0.0185185
        k(   67) = (   0.0000000   0.1924501  -0.1012159), wk =   0.0185185
        k(   68) = (   0.0000000   0.1924501  -0.2024317), wk =   0.0185185
        k(   69) = (  -0.1666667   0.0962250  -0.1012159), wk =   0.0370370
        k(   70) = (  -0.1666667   0.0962250  -0.2024317), wk =   0.0370370
        k(   71) = (  -0.1666667   0.1924501  -0.1012159), wk =   0.0370370
        k(   72) = (  -0.1666667   0.1924501  -0.2024317), wk =   0.0370370
        k(   73) = (  -0.3333333   0.1924501  -0.1012159), wk =   0.0370370
        k(   74) = (  -0.3333333   0.1924501  -0.2024317), wk =   0.0370370
        k(   75) = (  -0.3333333  -0.0962250  -0.1012159), wk =   0.0370370
        k(   76) = (  -0.3333333  -0.0962250  -0.2024317), wk =   0.0370370
        k(   77) = (   0.5000000  -0.1924501  -0.1012159), wk =   0.0185185
        k(   78) = (   0.5000000  -0.1924501  -0.2024317), wk =   0.0185185
        k(   79) = (   0.5000000  -0.0962250  -0.1012159), wk =   0.0185185
        k(   80) = (   0.5000000  -0.0962250  -0.2024317), wk =   0.0185185

                       cryst. coord.
        k(    1) = (   0.0000000   0.0000000   0.0000000), wk =   0.0092593
        k(    2) = (   0.0000000   0.0000000   0.1666667), wk =   0.0185185
        k(    3) = (   0.0000000   0.0000000   0.3333333), wk =   0.0185185
        k(    4) = (   0.0000000   0.0000000  -0.5000000), wk =   0.0092593
        k(    5) = (   0.0000000   0.1666667   0.0000000), wk =   0.0185185
        k(    6) = (   0.0000000   0.1666667   0.1666667), wk =   0.0185185
        k(    7) = (   0.0000000   0.1666667   0.3333333), wk =   0.0185185
        k(    8) = (   0.0000000   0.1666667  -0.5000000), wk =   0.0185185
        k(    9) = (   0.0000000   0.3333333   0.0000000), wk =   0.0185185
        k(   10) = (   0.0000000   0.3333333   0.1666667), wk =   0.0185185
        k(   11) = (   0.0000000   0.3333333   0.3333333), wk =   0.0185185
        k(   12) = (   0.0000000   0.3333333  -0.5000000), wk =   0.0185185
        k(   13) = (   0.0000000  -0.5000000   0.0000000), wk =   0.0092593
        k(   14) = (   0.0000000  -0.5000000   0.1666667), wk =   0.0185185
        k(   15) = (   0.0000000  -0.5000000   0.3333333), wk =   0.0185185
        k(   16) = (   0.0000000  -0.5000000  -0.5000000), wk =   0.0092593
        k(   17) = (   0.1666667  -0.0000000   0.0000000), wk =   0.0370370
        k(   18) = (   0.1666667  -0.0000000   0.1666667), wk =   0.0370370
        k(   19) = (   0.1666667  -0.0000000   0.3333333), wk =   0.0370370
        k(   20) = (   0.1666667  -0.0000000  -0.5000000), wk =   0.0370370
        k(   21) = (   0.1666667   0.1666667   0.0000000), wk =   0.0370370
        k(   22) = (   0.1666667   0.1666667   0.1666667), wk =   0.0370370
        k(   23) = (   0.1666667   0.1666667   0.3333333), wk =   0.0370370
        k(   24) = (   0.1666667   0.1666667  -0.5000000), wk =   0.0370370
        k(   25) = (   0.1666667   0.3333333   0.0000000), wk =   0.0185185
        k(   26) = (   0.1666667   0.3333333   0.1666667), wk =   0.0370370
        k(   27) = (   0.1666667   0.3333333   0.3333333), wk =   0.0370370
        k(   28) = (   0.1666667   0.3333333  -0.5000000), wk =   0.0185185
        k(   29) = (   0.1666667  -0.1666667   0.0000000), wk =   0.0185185
        k(   30) = (   0.1666667  -0.1666667   0.1666667), wk =   0.0370370
        k(   31) = (   0.1666667  -0.1666667   0.3333333), wk =   0.0370370
        k(   32) = (   0.1666667  -0.1666667  -0.5000000), wk =   0.0185185
        k(   33) = (   0.3333333  -0.0000000   0.0000000), wk =   0.0370370
        k(   34) = (   0.3333333  -0.0000000   0.1666667), wk =   0.0370370
        k(   35) = (   0.3333333  -0.0000000   0.3333333), wk =   0.0370370
        k(   36) = (   0.3333333  -0.0000000  -0.5000000), wk =   0.0370370
        k(   37) = (   0.3333333   0.1666667   0.0000000), wk =   0.0185185
        k(   38) = (   0.3333333   0.1666667   0.1666667), wk =   0.0370370
        k(   39) = (   0.3333333   0.1666667   0.3333333), wk =   0.0370370
        k(   40) = (   0.3333333   0.1666667  -0.5000000), wk =   0.0185185
        k(   41) = (   0.3333333  -0.5000000   0.0000000), wk =   0.0370370
        k(   42) = (   0.3333333  -0.5000000   0.1666667), wk =   0.0370370
        k(   43) = (   0.3333333  -0.5000000   0.3333333), wk =   0.0370370
        k(   44) = (   0.3333333  -0.5000000  -0.5000000), wk =   0.0370370
        k(   45) = (   0.3333333  -0.3333333   0.0000000), wk =   0.0185185
        k(   46) = (   0.3333333  -0.3333333   0.1666667), wk =   0.0370370
        k(   47) = (   0.3333333  -0.3333333   0.3333333), wk =   0.0370370
        k(   48) = (   0.3333333  -0.3333333  -0.5000000), wk =   0.0185185
        k(   49) = (  -0.5000000   0.0000000   0.0000000), wk =   0.0092593
        k(   50) = (  -0.5000000   0.0000000   0.1666667), wk =   0.0185185
        k(   51) = (  -0.5000000   0.0000000   0.3333333), wk =   0.0185185
        k(   52) = (  -0.5000000   0.0000000  -0.5000000), wk =   0.0092593
        k(   53) = (  -0.5000000   0.1666667   0.0000000), wk =   0.0185185
        k(   54) = (  -0.5000000   0.1666667   0.1666667), wk =   0.0185185
        k(   55) = (  -0.5000000   0.1666667   0.3333333), wk =   0.0185185
        k(   56) = (  -0.5000000   0.1666667  -0.5000000), wk =   0.0185185
        k(   57) = (  -0.5000000   0.3333333   0.0000000), wk =   0.0185185
        k(   58) = (  -0.5000000   0.3333333   0.1666667), wk =   0.0185185
        k(   59) = (  -0.5000000   0.3333333   0.3333333), wk =   0.0185185
        k(   60) = (  -0.5000000   0.3333333  -0.5000000), wk =   0.0185185
[...]
        k(   66) = (   0.0000000   0.1666667  -0.3333333), wk =   0.0185185
        k(   67) = (   0.0000000   0.3333333  -0.1666667), wk =   0.0185185
        k(   68) = (   0.0000000   0.3333333  -0.3333333), wk =   0.0185185
        k(   69) = (  -0.1666667   0.3333333  -0.1666667), wk =   0.0370370
        k(   70) = (  -0.1666667   0.3333333  -0.3333333), wk =   0.0370370
        k(   71) = (  -0.1666667   0.5000000  -0.1666667), wk =   0.0370370
        k(   72) = (  -0.1666667   0.5000000  -0.3333333), wk =   0.0370370
        k(   73) = (  -0.3333333   0.6666667  -0.1666667), wk =   0.0370370
        k(   74) = (  -0.3333333   0.6666667  -0.3333333), wk =   0.0370370
        k(   75) = (  -0.3333333   0.1666667  -0.1666667), wk =   0.0370370
        k(   76) = (  -0.3333333   0.1666667  -0.3333333), wk =   0.0370370
        k(   77) = (   0.5000000  -0.8333333  -0.1666667), wk =   0.0185185
        k(   78) = (   0.5000000  -0.8333333  -0.3333333), wk =   0.0185185
        k(   79) = (   0.5000000  -0.6666667  -0.1666667), wk =   0.0185185
        k(   80) = (   0.5000000  -0.6666667  -0.3333333), wk =   0.0185185

     Check: negative core charge=   -0.000002

     Initial potential from superposition of free atoms

     starting charge      71.9851, renormalised to      72.0000
     Starting wfcs are   52 randomized atomic wfcs

     Self-consistent Calculation

     iteration #  1     ecut=    50.00 Ry     beta= 0.30
     Davidson diagonalization with overlap

     ethr =  1.00E-02,  avg # of iterations =  1.8

     total energy              =    -722.92346459 Ry
     estimated scf accuracy    <       1.44298029 Ry

[...]

     c_bands:  2 eigenvalues not converged
     c_bands:  1 eigenvalues not converged
     c_bands:  3 eigenvalues not converged
     c_bands:  1 eigenvalues not converged
     c_bands:  1 eigenvalues not converged
     c_bands:  1 eigenvalues not converged
     c_bands:  2 eigenvalues not converged
     ethr =  1.44E-11,  avg # of iterations = 14.8

[...]

     c_bands:  1 eigenvalues not converged
     ethr =  1.44E-11,  avg # of iterations = 12.7

[...]

     total energy              =    -723.25999571 Ry
     estimated scf accuracy    <       0.00000001 Ry

     iteration # 33     ecut=    50.00 Ry     beta= 0.30
     Davidson diagonalization with overlap

     ethr =  1.44E-11,  avg # of iterations =  2.2

     End of self-consistent calculation

          k = 0.0000 0.0000 0.0000 (  4253 PWs)   bands (ev):

   -11.5267 -10.9756 -10.9752 -10.8068   0.4017   0.5016   0.5386   0.5388
     0.6512   0.7093   0.7095   0.7229   0.8003   0.9928   1.1799   1.1825
     1.4196   1.4196   1.4571   1.5596   1.5761   1.5761   1.6132   1.6798
     1.8189   2.1519   2.6175   3.2400   3.9069   4.6111   5.1150   5.1155
     5.1188   5.7056   5.7908   5.7913

     occupation numbers
     1.0000   1.0000   1.0000   1.0000   1.0000   1.0000   1.0000   1.0000
     1.0000   1.0000   1.0000   1.0000   1.0000   1.0000   1.0000   1.0000
     1.0000   1.0000   1.0000   1.0000   1.0000   1.0000   1.0000   1.0000
     1.0000   1.0000   1.0000   1.0000   1.0000   1.0000   1.0000   1.0000
     1.0000   1.0000   1.0000   1.0000

[...]

          k =-0.5000-0.2887 0.0000 (  4296 PWs)   bands (ev):

[...]

          k =-0.3333-0.0962-0.2024 (  4271 PWs)   bands (ev):

[...]

          k = 0.5000-0.0962-0.2024 (  4280 PWs)   bands (ev):

   -10.9332 -10.9332 -10.8444 -10.8444   0.4183   0.4183   0.5150   0.5150
     0.7664   0.7664   0.9291   0.9291   1.0335   1.0335   1.0432   1.0432
     1.4706   1.4706   1.5325   1.5325   1.6431   1.6431   1.7401   1.7401
     2.3047   2.3047   2.6248   2.6248   3.6855   3.6855   4.1308   4.1308
     4.4468   4.4468   4.8029   4.8030

     occupation numbers
     1.0000   1.0000   1.0000   1.0000   1.0000   1.0000   1.0000   1.0000
     1.0000   1.0000   1.0000   1.0000   1.0000   1.0000   1.0000   1.0000
     1.0000   1.0000   1.0000   1.0000   1.0000   1.0000   1.0000   1.0000
     1.0000   1.0000   1.0000   1.0000   1.0000   1.0000   1.0000   1.0000
     1.0000   1.0000   1.0000   1.0000

     highest occupied level (ev):     5.7913

!    total energy              =    -723.25999571 Ry
     estimated scf accuracy    <          2.6E-09 Ry

     The total energy is the sum of the following terms:
     one-electron contribution =    -326.82431513 Ry
     hartree contribution      =     242.90148138 Ry
     xc contribution           =    -218.77843235 Ry
     ewald contribution        =    -420.55872960 Ry

     convergence has been achieved in  33 iterations

     Forces acting on atoms (cartesian axes, Ry/au):

     atom    1 type  1   force =     0.00000000    0.00000690    0.00234397
     atom    2 type  2   force =     0.00000000    0.00000127   -0.00234503
     atom    3 type  1   force =     0.00000000   -0.00000772    0.00234366
     atom    4 type  2   force =     0.00000000   -0.00000155   -0.00234428
     atom    5 type  1   force =     0.00000000    0.00000671    0.00234540
     atom    6 type  2   force =     0.00000000    0.00000124   -0.00234534
     atom    7 type  1   force =     0.00000000   -0.00000527    0.00234538
     atom    8 type  2   force =     0.00000000   -0.00000158   -0.00234377
     The non-local contrib.  to forces
     atom    1 type  1   force =     0.00000000   -0.00001117   -0.01818610
     atom    2 type  2   force =     0.00000000    0.00022152   -0.02453626
     atom    3 type  1   force =     0.00000000    0.00001181   -0.01818677
     atom    4 type  2   force =     0.00000000   -0.00022012   -0.02453905
     atom    5 type  1   force =     0.00000000   -0.00001101   -0.01818727
     atom    6 type  2   force =     0.00000000    0.00021930   -0.02453667
     atom    7 type  1   force =     0.00000000    0.00001009   -0.01818752
     atom    8 type  2   force =     0.00000000   -0.00022136   -0.02453761
     The ionic contribution  to forces
     atom    1 type  1   force =    -0.00000000   -0.00000000   -0.23360148
     atom    2 type  2   force =    -0.00000000    0.00000000    0.23360148
     atom    3 type  1   force =    -0.00000000    0.00000000   -0.23360148
     atom    4 type  2   force =     0.00000000   -0.00000000    0.23360148
     atom    5 type  1   force =    -0.00000000   -0.00000000   -0.23360148
     atom    6 type  2   force =    -0.00000000    0.00000000    0.23360148
     atom    7 type  1   force =     0.00000000    0.00000000   -0.23360148
     atom    8 type  2   force =     0.00000000   -0.00000000    0.23360148
     The local contribution  to forces
     atom    1 type  1   force =    -0.00000000    0.00002203    0.25333163
     atom    2 type  2   force =    -0.00000000   -0.00021551   -0.21163140
     atom    3 type  1   force =     0.00000000   -0.00002134    0.25333442
     atom    4 type  2   force =    -0.00000000    0.00021329   -0.21162852
     atom    5 type  1   force =    -0.00000000    0.00002379    0.25333070
     atom    6 type  2   force =     0.00000000   -0.00021541   -0.21162852
     atom    7 type  1   force =     0.00000000   -0.00002411    0.25333339
     atom    8 type  2   force =     0.00000000    0.00021846   -0.21162830
     The core correction contribution to forces
     atom    1 type  1   force =     0.00000006   -0.00000576    0.00080110
     atom    2 type  2   force =     0.00000000   -0.00000251    0.00022132
     atom    3 type  1   force =    -0.00000006    0.00000568    0.00080100
     atom    4 type  2   force =    -0.00000000    0.00000248    0.00022136
     atom    5 type  1   force =    -0.00000004   -0.00000601    0.00080124
     atom    6 type  2   force =     0.00000000   -0.00000248    0.00022133
     atom    7 type  1   force =     0.00000004    0.00000610    0.00080110
     atom    8 type  2   force =    -0.00000000    0.00000252    0.00022134
     The Hubbard contrib.    to forces
     atom    1 type  1   force =     0.00000000    0.00000000    0.00000000
     atom    2 type  2   force =     0.00000000    0.00000000    0.00000000
     atom    3 type  1   force =     0.00000000    0.00000000    0.00000000
     atom    4 type  2   force =     0.00000000    0.00000000    0.00000000
     atom    5 type  1   force =     0.00000000    0.00000000    0.00000000
     atom    6 type  2   force =     0.00000000    0.00000000    0.00000000
     atom    7 type  1   force =     0.00000000    0.00000000    0.00000000
     atom    8 type  2   force =     0.00000000    0.00000000    0.00000000
     The SCF correction term to forces
     atom    1 type  1   force =    -0.00000000    0.00000174   -0.00000103
     atom    2 type  2   force =     0.00000000   -0.00000228   -0.00000003
     atom    3 type  1   force =     0.00000000   -0.00000393   -0.00000336
     atom    4 type  2   force =    -0.00000000    0.00000275    0.00000060
     atom    5 type  1   force =     0.00000000   -0.00000012    0.00000236
     atom    6 type  2   force =    -0.00000000   -0.00000023   -0.00000283
     atom    7 type  1   force =    -0.00000000    0.00000260    0.00000004
     atom    8 type  2   force =     0.00000000   -0.00000125   -0.00000053

     Total force =     0.006632     Total SCF correction =     0.000008

     General routines

     Parallel routines

   This run was terminated on:  19: 8:53  13Jul2025

   JOB DONE.
Note: The following floating-point exceptions are signalling: IEEE_INVALID_FLAG
Note: The following floating-point exceptions are signalling: IEEE_INVALID_FLAG