     Program PWSCF v.7.2 starts on 13Jul2025 at 21: 2: 3

     Reading input from /home/jvc/QEspresso7.2/ZnO_database/scripts/cell121.in/ZnO-3.47-1.49-121.in
Warning: card &CELL ignored
Warning: card / ignored
Warning: card &FCP ignored
Warning: card / ignored
Warning: card &RISM ignored
Warning: card / ignored

     Current dimensions of program PWSCF are:
     Max number of different atomic species (ntypx) = 10
     Max number of k-points (npk) =  40000
     Max angular momentum in pseudopotentials (lmaxx) =  4
     file Zn.upf: wavefunction(s)  3D renormalized
     Found identity + (  0.0000 -0.5000  0.0000) symmetry
     This is a supercell, fractional translations are disabled
     Message from routine setup:
     using ibrav=0 with symmetry is DISCOURAGED, use correct ibrav instead

     K-points division:     npool     =       2
     R & G space division:  proc/nbgrp/npool/nimage =       4
     Subspace diagonalization in iterative solution of the eigenvalue problem:
     a serial algorithm will be used

     Using Slab Decomposition

     bravais-lattice index     =            0
     lattice parameter (alat)  =       6.5496  a.u.
     unit-cell volume          =     722.7528 (a.u.)^3
     number of atoms/cell      =            8
     number of atomic types    =            2
     number of electrons       =        72.00
     number of Kohn-Sham states=           36
     kinetic-energy cutoff     =      50.0000  Ry
     charge density cutoff     =     400.0000  Ry
     scf convergence threshold =      1.0E-08
     mixing beta               =       0.3000
     number of iterations used =            8  plain     mixing
     Exchange-correlation= PBE
                           (   1   4   3   4   0   0   0)

     celldm(1)=   6.549585  celldm(2)=   0.000000  celldm(3)=   0.000000
     celldm(4)=   0.000000  celldm(5)=   0.000000  celldm(6)=   0.000000

     crystal axes: (cart. coord. in units of alat)
               a(1) = (   1.000000   0.000000   0.000000 )
               a(2) = (  -1.000000   1.732051   0.000000 )
               a(3) = (   0.000000   0.000000   1.485210 )

     reciprocal axes: (cart. coord. in units 2 pi/alat)
               b(1) = (  1.000000  0.577350 -0.000000 )
               b(2) = (  0.000000  0.577350  0.000000 )
               b(3) = (  0.000000 -0.000000  0.673306 )

     PseudoPot. # 1 for Zn read from file:
     /home/jvc/QEspresso7.2/ZnO_database/pseudos/Zn.upf
     MD5 check sum: 7f56cabf9682ed8c977c2f7d0c5985c5
     Pseudo is Ultrasoft + core correction, Zval = 12.0
     Generated using &quot;atomic&quot; code by A. Dal Corso  v.6.2.2
     Using radial grid of 1201 points,  6 beta functions with:
                l(1) =   0
                l(2) =   0
                l(3) =   1
                l(4) =   1
                l(5) =   2
                l(6) =   2
     Q(r) pseudized with 0 coefficients

     PseudoPot. # 2 for O  read from file:
     /home/jvc/QEspresso7.2/ZnO_database/pseudos/O.upf
     MD5 check sum: 91400c9766925bcf19f520983a725ff0
     Pseudo is Ultrasoft + core correction, Zval =  6.0
     Generated using &quot;atomic&quot; code by A. Dal Corso  v.6.3MaX
     Using radial grid of 1095 points,  4 beta functions with:
                l(1) =   0
                l(2) =   0
                l(3) =   1
                l(4) =   1
     Q(r) pseudized with 0 coefficients

     atomic species   valence    mass     pseudopotential
        Zn            12.00    65.38000     Zn( 1.00)
        O              6.00    15.99900     O ( 1.00)

      2 Sym. Ops. (no inversion) found

                                    s                        frac. trans.

      isym =  1     identity

 cryst.   s( 1) = (     1          0          0      )
                  (     0          1          0      )
                  (     0          0          1      )

 cart.    s( 1) = (  1.0000000  0.0000000  0.0000000 )
                  (  0.0000000  1.0000000  0.0000000 )
                  (  0.0000000  0.0000000  1.0000000 )

      isym =  2     inv. 180 deg rotation - cart. axis [1,0,0]

 cryst.   s( 2) = (    -1          0          0      )
                  (     2          1          0      )
                  (     0          0          1      )

 cart.    s( 2) = ( -1.0000000  0.0000000  0.0000000 )
                  (  0.0000000  1.0000000  0.0000000 )
                  (  0.0000000  0.0000000  1.0000000 )

   Cartesian axes

     site n.     atom                  positions (alat units)
         1           Zn  tau(   1) = (   0.0000000   0.0000000   0.0000000  )
         2           O   tau(   2) = (   0.0000000   0.5773503   0.1468672  )
         3           Zn  tau(   3) = (   0.0000000   0.5773503   0.7426048  )
         4           O   tau(   4) = (   0.0000000   0.0000000   0.8894721  )
         5           Zn  tau(   5) = (  -0.5000000   0.8660254   0.0000000  )
         6           O   tau(   6) = (  -0.5000000   1.4433757   0.1468672  )
         7           Zn  tau(   7) = (  -0.5000000   1.4433757   0.7426048  )
         8           O   tau(   8) = (  -0.5000000   0.8660254   0.8894721  )

   Crystallographic axes

     site n.     atom                  positions (cryst. coord.)
         1           Zn  tau(   1) = (  0.0000000  0.0000000  0.0000000  )
         2           O   tau(   2) = (  0.3333333  0.3333333  0.0988865  )
         3           Zn  tau(   3) = (  0.3333333  0.3333333  0.5000000  )
         4           O   tau(   4) = (  0.0000000  0.0000000  0.5988865  )
         5           Zn  tau(   5) = (  0.0000000  0.5000000  0.0000000  )
         6           O   tau(   6) = (  0.3333333  0.8333333  0.0988865  )
         7           Zn  tau(   7) = (  0.3333333  0.8333333  0.5000000  )
         8           O   tau(   8) = (  0.0000000  0.5000000  0.5988865  )

     number of k points=    80
                       cart. coord. in units 2pi/alat
        k(    1) = (   0.0000000   0.0000000   0.0000000), wk =   0.0092593
        k(    2) = (   0.0000000   0.0000000   0.1122176), wk =   0.0185185
        k(    3) = (   0.0000000   0.0000000   0.2244352), wk =   0.0185185
        k(    4) = (   0.0000000   0.0000000  -0.3366528), wk =   0.0092593
        k(    5) = (   0.0000000   0.0962250   0.0000000), wk =   0.0185185
        k(    6) = (   0.0000000   0.0962250   0.1122176), wk =   0.0185185
        k(    7) = (   0.0000000   0.0962250   0.2244352), wk =   0.0185185
        k(    8) = (   0.0000000   0.0962250  -0.3366528), wk =   0.0185185
        k(    9) = (   0.0000000   0.1924501   0.0000000), wk =   0.0185185
        k(   10) = (   0.0000000   0.1924501   0.1122176), wk =   0.0185185
        k(   11) = (   0.0000000   0.1924501   0.2244352), wk =   0.0185185
        k(   12) = (   0.0000000   0.1924501  -0.3366528), wk =   0.0185185
        k(   13) = (   0.0000000  -0.2886751   0.0000000), wk =   0.0092593
        k(   14) = (   0.0000000  -0.2886751   0.1122176), wk =   0.0185185
        k(   15) = (   0.0000000  -0.2886751   0.2244352), wk =   0.0185185
        k(   16) = (   0.0000000  -0.2886751  -0.3366528), wk =   0.0092593
        k(   17) = (   0.1666667   0.0962250   0.0000000), wk =   0.0370370
        k(   18) = (   0.1666667   0.0962250   0.1122176), wk =   0.0370370
        k(   19) = (   0.1666667   0.0962250   0.2244352), wk =   0.0370370
        k(   20) = (   0.1666667   0.0962250  -0.3366528), wk =   0.0370370
        k(   21) = (   0.1666667   0.1924501   0.0000000), wk =   0.0370370
        k(   22) = (   0.1666667   0.1924501   0.1122176), wk =   0.0370370
        k(   23) = (   0.1666667   0.1924501   0.2244352), wk =   0.0370370
        k(   24) = (   0.1666667   0.1924501  -0.3366528), wk =   0.0370370
        k(   25) = (   0.1666667   0.2886751   0.0000000), wk =   0.0185185
        k(   26) = (   0.1666667   0.2886751   0.1122176), wk =   0.0370370
        k(   27) = (   0.1666667   0.2886751   0.2244352), wk =   0.0370370
        k(   28) = (   0.1666667   0.2886751  -0.3366528), wk =   0.0185185
        k(   29) = (   0.1666667   0.0000000   0.0000000), wk =   0.0185185
        k(   30) = (   0.1666667   0.0000000   0.1122176), wk =   0.0370370
        k(   31) = (   0.1666667   0.0000000   0.2244352), wk =   0.0370370
        k(   32) = (   0.1666667   0.0000000  -0.3366528), wk =   0.0185185
        k(   33) = (   0.3333333   0.1924501   0.0000000), wk =   0.0370370
        k(   34) = (   0.3333333   0.1924501   0.1122176), wk =   0.0370370
        k(   35) = (   0.3333333   0.1924501   0.2244352), wk =   0.0370370
        k(   36) = (   0.3333333   0.1924501  -0.3366528), wk =   0.0370370
        k(   37) = (   0.3333333   0.2886751   0.0000000), wk =   0.0185185
        k(   38) = (   0.3333333   0.2886751   0.1122176), wk =   0.0370370
        k(   39) = (   0.3333333   0.2886751   0.2244352), wk =   0.0370370
        k(   40) = (   0.3333333   0.2886751  -0.3366528), wk =   0.0185185
        k(   41) = (   0.3333333  -0.0962250   0.0000000), wk =   0.0370370
        k(   42) = (   0.3333333  -0.0962250   0.1122176), wk =   0.0370370
        k(   43) = (   0.3333333  -0.0962250   0.2244352), wk =   0.0370370
        k(   44) = (   0.3333333  -0.0962250  -0.3366528), wk =   0.0370370
        k(   45) = (   0.3333333  -0.0000000   0.0000000), wk =   0.0185185
        k(   46) = (   0.3333333  -0.0000000   0.1122176), wk =   0.0370370
        k(   47) = (   0.3333333  -0.0000000   0.2244352), wk =   0.0370370
        k(   48) = (   0.3333333  -0.0000000  -0.3366528), wk =   0.0185185
        k(   49) = (  -0.5000000  -0.2886751   0.0000000), wk =   0.0092593
        k(   50) = (  -0.5000000  -0.2886751   0.1122176), wk =   0.0185185
        k(   51) = (  -0.5000000  -0.2886751   0.2244352), wk =   0.0185185
        k(   52) = (  -0.5000000  -0.2886751  -0.3366528), wk =   0.0092593
        k(   53) = (  -0.5000000  -0.1924501   0.0000000), wk =   0.0185185
        k(   54) = (  -0.5000000  -0.1924501   0.1122176), wk =   0.0185185
        k(   55) = (  -0.5000000  -0.1924501   0.2244352), wk =   0.0185185
        k(   56) = (  -0.5000000  -0.1924501  -0.3366528), wk =   0.0185185
        k(   57) = (  -0.5000000  -0.0962250   0.0000000), wk =   0.0185185
        k(   58) = (  -0.5000000  -0.0962250   0.1122176), wk =   0.0185185
        k(   59) = (  -0.5000000  -0.0962250   0.2244352), wk =   0.0185185
        k(   60) = (  -0.5000000  -0.0962250  -0.3366528), wk =   0.0185185
[...]
        k(   66) = (   0.0000000   0.0962250  -0.2244352), wk =   0.0185185
        k(   67) = (   0.0000000   0.1924501  -0.1122176), wk =   0.0185185
        k(   68) = (   0.0000000   0.1924501  -0.2244352), wk =   0.0185185
        k(   69) = (  -0.1666667   0.0962250  -0.1122176), wk =   0.0370370
        k(   70) = (  -0.1666667   0.0962250  -0.2244352), wk =   0.0370370
        k(   71) = (  -0.1666667   0.1924501  -0.1122176), wk =   0.0370370
        k(   72) = (  -0.1666667   0.1924501  -0.2244352), wk =   0.0370370
        k(   73) = (  -0.3333333   0.1924501  -0.1122176), wk =   0.0370370
        k(   74) = (  -0.3333333   0.1924501  -0.2244352), wk =   0.0370370
        k(   75) = (  -0.3333333  -0.0962250  -0.1122176), wk =   0.0370370
        k(   76) = (  -0.3333333  -0.0962250  -0.2244352), wk =   0.0370370
        k(   77) = (   0.5000000  -0.1924501  -0.1122176), wk =   0.0185185
        k(   78) = (   0.5000000  -0.1924501  -0.2244352), wk =   0.0185185
        k(   79) = (   0.5000000  -0.0962250  -0.1122176), wk =   0.0185185
        k(   80) = (   0.5000000  -0.0962250  -0.2244352), wk =   0.0185185

                       cryst. coord.
        k(    1) = (   0.0000000   0.0000000   0.0000000), wk =   0.0092593
        k(    2) = (   0.0000000   0.0000000   0.1666667), wk =   0.0185185
        k(    3) = (   0.0000000   0.0000000   0.3333333), wk =   0.0185185
        k(    4) = (   0.0000000   0.0000000  -0.5000000), wk =   0.0092593
        k(    5) = (   0.0000000   0.1666667   0.0000000), wk =   0.0185185
        k(    6) = (   0.0000000   0.1666667   0.1666667), wk =   0.0185185
        k(    7) = (   0.0000000   0.1666667   0.3333333), wk =   0.0185185
        k(    8) = (   0.0000000   0.1666667  -0.5000000), wk =   0.0185185
        k(    9) = (   0.0000000   0.3333333   0.0000000), wk =   0.0185185
        k(   10) = (   0.0000000   0.3333333   0.1666667), wk =   0.0185185
        k(   11) = (   0.0000000   0.3333333   0.3333333), wk =   0.0185185
        k(   12) = (   0.0000000   0.3333333  -0.5000000), wk =   0.0185185
        k(   13) = (   0.0000000  -0.5000000   0.0000000), wk =   0.0092593
        k(   14) = (   0.0000000  -0.5000000   0.1666667), wk =   0.0185185
        k(   15) = (   0.0000000  -0.5000000   0.3333333), wk =   0.0185185
        k(   16) = (   0.0000000  -0.5000000  -0.5000000), wk =   0.0092593
        k(   17) = (   0.1666667   0.0000000   0.0000000), wk =   0.0370370
        k(   18) = (   0.1666667   0.0000000   0.1666667), wk =   0.0370370
        k(   19) = (   0.1666667   0.0000000   0.3333333), wk =   0.0370370
        k(   20) = (   0.1666667   0.0000000  -0.5000000), wk =   0.0370370
        k(   21) = (   0.1666667   0.1666667   0.0000000), wk =   0.0370370
        k(   22) = (   0.1666667   0.1666667   0.1666667), wk =   0.0370370
        k(   23) = (   0.1666667   0.1666667   0.3333333), wk =   0.0370370
        k(   24) = (   0.1666667   0.1666667  -0.5000000), wk =   0.0370370
        k(   25) = (   0.1666667   0.3333333   0.0000000), wk =   0.0185185
        k(   26) = (   0.1666667   0.3333333   0.1666667), wk =   0.0370370
        k(   27) = (   0.1666667   0.3333333   0.3333333), wk =   0.0370370
        k(   28) = (   0.1666667   0.3333333  -0.5000000), wk =   0.0185185
        k(   29) = (   0.1666667  -0.1666667   0.0000000), wk =   0.0185185
        k(   30) = (   0.1666667  -0.1666667   0.1666667), wk =   0.0370370
        k(   31) = (   0.1666667  -0.1666667   0.3333333), wk =   0.0370370
        k(   32) = (   0.1666667  -0.1666667  -0.5000000), wk =   0.0185185
        k(   33) = (   0.3333333   0.0000000   0.0000000), wk =   0.0370370
        k(   34) = (   0.3333333   0.0000000   0.1666667), wk =   0.0370370
        k(   35) = (   0.3333333   0.0000000   0.3333333), wk =   0.0370370
        k(   36) = (   0.3333333   0.0000000  -0.5000000), wk =   0.0370370
        k(   37) = (   0.3333333   0.1666667   0.0000000), wk =   0.0185185
        k(   38) = (   0.3333333   0.1666667   0.1666667), wk =   0.0370370
        k(   39) = (   0.3333333   0.1666667   0.3333333), wk =   0.0370370
        k(   40) = (   0.3333333   0.1666667  -0.5000000), wk =   0.0185185
        k(   41) = (   0.3333333  -0.5000000   0.0000000), wk =   0.0370370
        k(   42) = (   0.3333333  -0.5000000   0.1666667), wk =   0.0370370
        k(   43) = (   0.3333333  -0.5000000   0.3333333), wk =   0.0370370
        k(   44) = (   0.3333333  -0.5000000  -0.5000000), wk =   0.0370370
        k(   45) = (   0.3333333  -0.3333333   0.0000000), wk =   0.0185185
        k(   46) = (   0.3333333  -0.3333333   0.1666667), wk =   0.0370370
        k(   47) = (   0.3333333  -0.3333333   0.3333333), wk =   0.0370370
        k(   48) = (   0.3333333  -0.3333333  -0.5000000), wk =   0.0185185
        k(   49) = (  -0.5000000   0.0000000   0.0000000), wk =   0.0092593
        k(   50) = (  -0.5000000   0.0000000   0.1666667), wk =   0.0185185
        k(   51) = (  -0.5000000   0.0000000   0.3333333), wk =   0.0185185
        k(   52) = (  -0.5000000   0.0000000  -0.5000000), wk =   0.0092593
        k(   53) = (  -0.5000000   0.1666667   0.0000000), wk =   0.0185185
        k(   54) = (  -0.5000000   0.1666667   0.1666667), wk =   0.0185185
        k(   55) = (  -0.5000000   0.1666667   0.3333333), wk =   0.0185185
        k(   56) = (  -0.5000000   0.1666667  -0.5000000), wk =   0.0185185
        k(   57) = (  -0.5000000   0.3333333   0.0000000), wk =   0.0185185
        k(   58) = (  -0.5000000   0.3333333   0.1666667), wk =   0.0185185
        k(   59) = (  -0.5000000   0.3333333   0.3333333), wk =   0.0185185
        k(   60) = (  -0.5000000   0.3333333  -0.5000000), wk =   0.0185185
[...]
        k(   66) = (   0.0000000   0.1666667  -0.3333333), wk =   0.0185185
        k(   67) = (   0.0000000   0.3333333  -0.1666667), wk =   0.0185185
        k(   68) = (   0.0000000   0.3333333  -0.3333333), wk =   0.0185185
        k(   69) = (  -0.1666667   0.3333333  -0.1666667), wk =   0.0370370
        k(   70) = (  -0.1666667   0.3333333  -0.3333333), wk =   0.0370370
        k(   71) = (  -0.1666667   0.5000000  -0.1666667), wk =   0.0370370
        k(   72) = (  -0.1666667   0.5000000  -0.3333333), wk =   0.0370370
        k(   73) = (  -0.3333333   0.6666667  -0.1666667), wk =   0.0370370
        k(   74) = (  -0.3333333   0.6666667  -0.3333333), wk =   0.0370370
        k(   75) = (  -0.3333333   0.1666667  -0.1666667), wk =   0.0370370
        k(   76) = (  -0.3333333   0.1666667  -0.3333333), wk =   0.0370370
        k(   77) = (   0.5000000  -0.8333333  -0.1666667), wk =   0.0185185
        k(   78) = (   0.5000000  -0.8333333  -0.3333333), wk =   0.0185185
        k(   79) = (   0.5000000  -0.6666667  -0.1666667), wk =   0.0185185
        k(   80) = (   0.5000000  -0.6666667  -0.3333333), wk =   0.0185185

     Check: negative core charge=   -0.000002

     Initial potential from superposition of free atoms

     starting charge      71.9851, renormalised to      72.0000
     Starting wfcs are   52 randomized atomic wfcs

     Self-consistent Calculation

     iteration #  1     ecut=    50.00 Ry     beta= 0.30
     Davidson diagonalization with overlap

     ethr =  1.00E-02,  avg # of iterations =  1.8

     total energy              =    -722.89570604 Ry
     estimated scf accuracy    <       1.47069467 Ry

[...]

     c_bands:  1 eigenvalues not converged
     c_bands:  1 eigenvalues not converged
     c_bands:  2 eigenvalues not converged
     c_bands:  1 eigenvalues not converged
     ethr =  3.86E-09,  avg # of iterations = 15.1

[...]

     c_bands:  1 eigenvalues not converged
     ethr =  3.86E-09,  avg # of iterations = 13.8

[...]

     total energy              =    -723.24366185 Ry
     estimated scf accuracy    <       0.00000007 Ry

     iteration # 47     ecut=    50.00 Ry     beta= 0.30
     Davidson diagonalization with overlap

     ethr =  3.40E-11,  avg # of iterations =  6.5

     End of self-consistent calculation

          k = 0.0000 0.0000 0.0000 (  4323 PWs)   bands (ev):

   -11.5794 -11.0683 -10.9246 -10.8627   0.3363   0.3888   0.3890   0.5010
     0.5012   0.5986   0.6263   0.6604   0.9296   1.0005   1.0836   1.1027
     1.2275   1.2275   1.3211   1.3417   1.4256   1.4257   1.4636   1.4963
     1.7100   2.1323   2.3639   3.2488   3.5443   4.6104   4.7934   4.8527
     4.8531   5.5329   5.5530   5.5534

     occupation numbers
     1.0000   1.0000   1.0000   1.0000   1.0000   1.0000   1.0000   1.0000
     1.0000   1.0000   1.0000   1.0000   1.0000   1.0000   1.0000   1.0000
     1.0000   1.0000   1.0000   1.0000   1.0000   1.0000   1.0000   1.0000
     1.0000   1.0000   1.0000   1.0000   1.0000   1.0000   1.0000   1.0000
     1.0000   1.0000   1.0000   1.0000

[...]

          k =-0.5000-0.2887 0.0000 (  4296 PWs)   bands (ev):

[...]

          k =-0.3333-0.0962-0.2244 (  4313 PWs)   bands (ev):

[...]

          k = 0.5000-0.0962-0.2244 (  4298 PWs)   bands (ev):

   -11.0115 -11.0114 -10.9038 -10.9038   0.3066   0.3066   0.3973   0.3973
     0.6861   0.6861   0.7760   0.7760   0.8549   0.8549   0.9097   0.9097
     1.3322   1.3322   1.3538   1.3538   1.4682   1.4682   1.5561   1.5561
     2.1932   2.1932   2.4234   2.4234   3.4042   3.4042   4.1048   4.1048
     4.3576   4.3576   4.9563   4.9563

     occupation numbers
     1.0000   1.0000   1.0000   1.0000   1.0000   1.0000   1.0000   1.0000
     1.0000   1.0000   1.0000   1.0000   1.0000   1.0000   1.0000   1.0000
     1.0000   1.0000   1.0000   1.0000   1.0000   1.0000   1.0000   1.0000
     1.0000   1.0000   1.0000   1.0000   1.0000   1.0000   1.0000   1.0000
     1.0000   1.0000   1.0000   1.0000

     highest occupied level (ev):     5.5534

!    total energy              =    -723.24366187 Ry
     estimated scf accuracy    <          1.8E-09 Ry

     The total energy is the sum of the following terms:
     one-electron contribution =    -329.85903225 Ry
     hartree contribution      =     244.05677172 Ry
     xc contribution           =    -218.72113677 Ry
     ewald contribution        =    -418.72026457 Ry

     convergence has been achieved in  47 iterations

     Forces acting on atoms (cartesian axes, Ry/au):

     atom    1 type  1   force =     0.00000000   -0.00000179   -0.00376672
     atom    2 type  2   force =     0.00000000    0.00000712    0.00376818
     atom    3 type  1   force =     0.00000000    0.00000399   -0.00377161
     atom    4 type  2   force =     0.00000000   -0.00000686    0.00376853
     atom    5 type  1   force =     0.00000000   -0.00000547   -0.00376763
     atom    6 type  2   force =     0.00000000    0.00000706    0.00376788
     atom    7 type  1   force =     0.00000000    0.00000268   -0.00376693
     atom    8 type  2   force =     0.00000000   -0.00000672    0.00376830
     The non-local contrib.  to forces
     atom    1 type  1   force =     0.00000000   -0.00000351    0.11998075
     atom    2 type  2   force =     0.00000000    0.00020015    0.09939964
     atom    3 type  1   force =     0.00000000    0.00000497    0.11997925
     atom    4 type  2   force =     0.00000000   -0.00019856    0.09940041
     atom    5 type  1   force =     0.00000000   -0.00000492    0.11998069
     atom    6 type  2   force =     0.00000000    0.00019920    0.09940040
     atom    7 type  1   force =     0.00000000    0.00000462    0.11998035
     atom    8 type  2   force =     0.00000000   -0.00020075    0.09939956
     The ionic contribution  to forces
     atom    1 type  1   force =    -0.00000000   -0.00000000    0.76396731
     atom    2 type  2   force =    -0.00000000    0.00000000   -0.76396731
     atom    3 type  1   force =     0.00000000    0.00000000    0.76396731
     atom    4 type  2   force =    -0.00000000   -0.00000000   -0.76396731
     atom    5 type  1   force =     0.00000000   -0.00000000    0.76396731
     atom    6 type  2   force =     0.00000000    0.00000000   -0.76396731
     atom    7 type  1   force =    -0.00000000    0.00000000    0.76396731
     atom    8 type  2   force =     0.00000000   -0.00000000   -0.76396731
     The local contribution  to forces
     atom    1 type  1   force =     0.00000000    0.00000491   -0.88042252
     atom    2 type  2   force =     0.00000000   -0.00019103    0.66916757
     atom    3 type  1   force =    -0.00000000   -0.00000810   -0.88041600
     atom    4 type  2   force =    -0.00000000    0.00019086    0.66916545
     atom    5 type  1   force =     0.00000000    0.00001124   -0.88042329
     atom    6 type  2   force =    -0.00000000   -0.00018971    0.66916486
     atom    7 type  1   force =     0.00000000   -0.00000847   -0.88042125
     atom    8 type  2   force =    -0.00000000    0.00018952    0.66916634
     The core correction contribution to forces
     atom    1 type  1   force =     0.00000000   -0.00000657   -0.00730008
     atom    2 type  2   force =    -0.00000000   -0.00000226   -0.00082859
     atom    3 type  1   force =     0.00000000    0.00000654   -0.00730012
     atom    4 type  2   force =    -0.00000000    0.00000224   -0.00082861
     atom    5 type  1   force =    -0.00000000   -0.00000666   -0.00729997
     atom    6 type  2   force =    -0.00000000   -0.00000224   -0.00082861
     atom    7 type  1   force =     0.00000000    0.00000666   -0.00730010
     atom    8 type  2   force =    -0.00000000    0.00000226   -0.00082860
     The Hubbard contrib.    to forces
     atom    1 type  1   force =     0.00000000    0.00000000    0.00000000
     atom    2 type  2   force =     0.00000000    0.00000000    0.00000000
     atom    3 type  1   force =     0.00000000    0.00000000    0.00000000
     atom    4 type  2   force =     0.00000000    0.00000000    0.00000000
     atom    5 type  1   force =     0.00000000    0.00000000    0.00000000
     atom    6 type  2   force =     0.00000000    0.00000000    0.00000000
     atom    7 type  1   force =     0.00000000    0.00000000    0.00000000
     atom    8 type  2   force =     0.00000000    0.00000000    0.00000000
     The SCF correction term to forces
     atom    1 type  1   force =     0.00000000    0.00000326    0.00000985
     atom    2 type  2   force =     0.00000000    0.00000013   -0.00000110
     atom    3 type  1   force =    -0.00000000    0.00000045   -0.00000002
     atom    4 type  2   force =     0.00000000   -0.00000152    0.00000062
     atom    5 type  1   force =     0.00000000   -0.00000526    0.00000966
     atom    6 type  2   force =     0.00000000   -0.00000031    0.00000058
     atom    7 type  1   force =    -0.00000000   -0.00000026    0.00000878
     atom    8 type  2   force =     0.00000000    0.00000214    0.00000033

     Total force =     0.010658     Total SCF correction =     0.000018

     General routines

     Parallel routines

   This run was terminated on:  21:11: 0  13Jul2025

   JOB DONE.
Note: The following floating-point exceptions are signalling: IEEE_INVALID_FLAG
Note: The following floating-point exceptions are signalling: IEEE_INVALID_FLAG