     Program PWSCF v.7.2 starts on 13Jul2025 at 16: 6:46

     Reading input from /home/jvc/QEspresso7.2/ZnO_database/scripts/cell121.in/ZnO-3.20-1.68-121.in
Warning: card &CELL ignored
Warning: card / ignored
Warning: card &FCP ignored
Warning: card / ignored
Warning: card &RISM ignored
Warning: card / ignored

     Current dimensions of program PWSCF are:
     Max number of different atomic species (ntypx) = 10
     Max number of k-points (npk) =  40000
     Max angular momentum in pseudopotentials (lmaxx) =  4
     file Zn.upf: wavefunction(s)  3D renormalized
     Found identity + (  0.0000 -0.5000  0.0000) symmetry
     This is a supercell, fractional translations are disabled
     Message from routine setup:
     using ibrav=0 with symmetry is DISCOURAGED, use correct ibrav instead

     K-points division:     npool     =       2
     R & G space division:  proc/nbgrp/npool/nimage =       4
     Subspace diagonalization in iterative solution of the eigenvalue problem:
     a serial algorithm will be used

     Using Slab Decomposition

     bravais-lattice index     =            0
     lattice parameter (alat)  =       6.0553  a.u.
     unit-cell volume          =     645.6482 (a.u.)^3
     number of atoms/cell      =            8
     number of atomic types    =            2
     number of electrons       =        72.00
     number of Kohn-Sham states=           36
     kinetic-energy cutoff     =      50.0000  Ry
     charge density cutoff     =     400.0000  Ry
     scf convergence threshold =      1.0E-08
     mixing beta               =       0.3000
     number of iterations used =            8  plain     mixing
     Exchange-correlation= PBE
                           (   1   4   3   4   0   0   0)

     celldm(1)=   6.055277  celldm(2)=   0.000000  celldm(3)=   0.000000
     celldm(4)=   0.000000  celldm(5)=   0.000000  celldm(6)=   0.000000

     crystal axes: (cart. coord. in units of alat)
               a(1) = (   1.000000   0.000000   0.000000 )
               a(2) = (  -1.000000   1.732051   0.000000 )
               a(3) = (   0.000000   0.000000   1.678933 )

     reciprocal axes: (cart. coord. in units 2 pi/alat)
               b(1) = (  1.000000  0.577350 -0.000000 )
               b(2) = (  0.000000  0.577350  0.000000 )
               b(3) = (  0.000000 -0.000000  0.595616 )

     PseudoPot. # 1 for Zn read from file:
     /home/jvc/QEspresso7.2/ZnO_database/pseudos/Zn.upf
     MD5 check sum: 7f56cabf9682ed8c977c2f7d0c5985c5
     Pseudo is Ultrasoft + core correction, Zval = 12.0
     Generated using &quot;atomic&quot; code by A. Dal Corso  v.6.2.2
     Using radial grid of 1201 points,  6 beta functions with:
                l(1) =   0
                l(2) =   0
                l(3) =   1
                l(4) =   1
                l(5) =   2
                l(6) =   2
     Q(r) pseudized with 0 coefficients

     PseudoPot. # 2 for O  read from file:
     /home/jvc/QEspresso7.2/ZnO_database/pseudos/O.upf
     MD5 check sum: 91400c9766925bcf19f520983a725ff0
     Pseudo is Ultrasoft + core correction, Zval =  6.0
     Generated using &quot;atomic&quot; code by A. Dal Corso  v.6.3MaX
     Using radial grid of 1095 points,  4 beta functions with:
                l(1) =   0
                l(2) =   0
                l(3) =   1
                l(4) =   1
     Q(r) pseudized with 0 coefficients

     atomic species   valence    mass     pseudopotential
        Zn            12.00    65.38000     Zn( 1.00)
        O              6.00    15.99900     O ( 1.00)

      2 Sym. Ops. (no inversion) found

                                    s                        frac. trans.

      isym =  1     identity

 cryst.   s( 1) = (     1          0          0      )
                  (     0          1          0      )
                  (     0          0          1      )

 cart.    s( 1) = (  1.0000000  0.0000000  0.0000000 )
                  (  0.0000000  1.0000000  0.0000000 )
                  (  0.0000000  0.0000000  1.0000000 )

      isym =  2     inv. 180 deg rotation - cart. axis [1,0,0]

 cryst.   s( 2) = (    -1          0          0      )
                  (     2          1          0      )
                  (     0          0          1      )

 cart.    s( 2) = ( -1.0000000  0.0000000  0.0000000 )
                  (  0.0000000  1.0000000  0.0000000 )
                  (  0.0000000  0.0000000  1.0000000 )

   Cartesian axes

     site n.     atom                  positions (alat units)
         1           Zn  tau(   1) = (   0.0000000   0.0000000   0.0000000  )
         2           O   tau(   2) = (   0.0000000   0.5773503   0.2211943  )
         3           Zn  tau(   3) = (   0.0000000   0.5773503   0.8394663  )
         4           O   tau(   4) = (   0.0000000   0.0000000   1.0606607  )
         5           Zn  tau(   5) = (  -0.5000000   0.8660254   0.0000000  )
         6           O   tau(   6) = (  -0.5000000   1.4433757   0.2211943  )
         7           Zn  tau(   7) = (  -0.5000000   1.4433757   0.8394663  )
         8           O   tau(   8) = (  -0.5000000   0.8660254   1.0606607  )

   Crystallographic axes

     site n.     atom                  positions (cryst. coord.)
         1           Zn  tau(   1) = (  0.0000000  0.0000000  0.0000000  )
         2           O   tau(   2) = (  0.3333333  0.3333333  0.1317470  )
         3           Zn  tau(   3) = (  0.3333333  0.3333333  0.5000000  )
         4           O   tau(   4) = (  0.0000000  0.0000000  0.6317470  )
         5           Zn  tau(   5) = (  0.0000000  0.5000000  0.0000000  )
         6           O   tau(   6) = (  0.3333333  0.8333333  0.1317470  )
         7           Zn  tau(   7) = (  0.3333333  0.8333333  0.5000000  )
         8           O   tau(   8) = (  0.0000000  0.5000000  0.6317470  )

     number of k points=    80
                       cart. coord. in units 2pi/alat
        k(    1) = (   0.0000000   0.0000000   0.0000000), wk =   0.0092593
        k(    2) = (   0.0000000   0.0000000   0.0992694), wk =   0.0185185
        k(    3) = (   0.0000000   0.0000000   0.1985388), wk =   0.0185185
        k(    4) = (   0.0000000   0.0000000  -0.2978082), wk =   0.0092593
        k(    5) = (   0.0000000   0.0962250   0.0000000), wk =   0.0185185
        k(    6) = (   0.0000000   0.0962250   0.0992694), wk =   0.0185185
        k(    7) = (   0.0000000   0.0962250   0.1985388), wk =   0.0185185
        k(    8) = (   0.0000000   0.0962250  -0.2978082), wk =   0.0185185
        k(    9) = (   0.0000000   0.1924501   0.0000000), wk =   0.0185185
        k(   10) = (   0.0000000   0.1924501   0.0992694), wk =   0.0185185
        k(   11) = (   0.0000000   0.1924501   0.1985388), wk =   0.0185185
        k(   12) = (   0.0000000   0.1924501  -0.2978082), wk =   0.0185185
        k(   13) = (   0.0000000  -0.2886751   0.0000000), wk =   0.0092593
        k(   14) = (   0.0000000  -0.2886751   0.0992694), wk =   0.0185185
        k(   15) = (   0.0000000  -0.2886751   0.1985388), wk =   0.0185185
        k(   16) = (   0.0000000  -0.2886751  -0.2978082), wk =   0.0092593
        k(   17) = (   0.1666667   0.0962250   0.0000000), wk =   0.0370370
        k(   18) = (   0.1666667   0.0962250   0.0992694), wk =   0.0370370
        k(   19) = (   0.1666667   0.0962250   0.1985388), wk =   0.0370370
        k(   20) = (   0.1666667   0.0962250  -0.2978082), wk =   0.0370370
        k(   21) = (   0.1666667   0.1924501   0.0000000), wk =   0.0370370
        k(   22) = (   0.1666667   0.1924501   0.0992694), wk =   0.0370370
        k(   23) = (   0.1666667   0.1924501   0.1985388), wk =   0.0370370
        k(   24) = (   0.1666667   0.1924501  -0.2978082), wk =   0.0370370
        k(   25) = (   0.1666667   0.2886751   0.0000000), wk =   0.0185185
        k(   26) = (   0.1666667   0.2886751   0.0992694), wk =   0.0370370
        k(   27) = (   0.1666667   0.2886751   0.1985388), wk =   0.0370370
        k(   28) = (   0.1666667   0.2886751  -0.2978082), wk =   0.0185185
        k(   29) = (   0.1666667   0.0000000   0.0000000), wk =   0.0185185
        k(   30) = (   0.1666667   0.0000000   0.0992694), wk =   0.0370370
        k(   31) = (   0.1666667   0.0000000   0.1985388), wk =   0.0370370
        k(   32) = (   0.1666667   0.0000000  -0.2978082), wk =   0.0185185
        k(   33) = (   0.3333333   0.1924501   0.0000000), wk =   0.0370370
        k(   34) = (   0.3333333   0.1924501   0.0992694), wk =   0.0370370
        k(   35) = (   0.3333333   0.1924501   0.1985388), wk =   0.0370370
        k(   36) = (   0.3333333   0.1924501  -0.2978082), wk =   0.0370370
        k(   37) = (   0.3333333   0.2886751   0.0000000), wk =   0.0185185
        k(   38) = (   0.3333333   0.2886751   0.0992694), wk =   0.0370370
        k(   39) = (   0.3333333   0.2886751   0.1985388), wk =   0.0370370
        k(   40) = (   0.3333333   0.2886751  -0.2978082), wk =   0.0185185
        k(   41) = (   0.3333333  -0.0962250   0.0000000), wk =   0.0370370
        k(   42) = (   0.3333333  -0.0962250   0.0992694), wk =   0.0370370
        k(   43) = (   0.3333333  -0.0962250   0.1985388), wk =   0.0370370
        k(   44) = (   0.3333333  -0.0962250  -0.2978082), wk =   0.0370370
        k(   45) = (   0.3333333  -0.0000000   0.0000000), wk =   0.0185185
        k(   46) = (   0.3333333  -0.0000000   0.0992694), wk =   0.0370370
        k(   47) = (   0.3333333  -0.0000000   0.1985388), wk =   0.0370370
        k(   48) = (   0.3333333  -0.0000000  -0.2978082), wk =   0.0185185
        k(   49) = (  -0.5000000  -0.2886751   0.0000000), wk =   0.0092593
        k(   50) = (  -0.5000000  -0.2886751   0.0992694), wk =   0.0185185
        k(   51) = (  -0.5000000  -0.2886751   0.1985388), wk =   0.0185185
        k(   52) = (  -0.5000000  -0.2886751  -0.2978082), wk =   0.0092593
        k(   53) = (  -0.5000000  -0.1924501   0.0000000), wk =   0.0185185
        k(   54) = (  -0.5000000  -0.1924501   0.0992694), wk =   0.0185185
        k(   55) = (  -0.5000000  -0.1924501   0.1985388), wk =   0.0185185
        k(   56) = (  -0.5000000  -0.1924501  -0.2978082), wk =   0.0185185
        k(   57) = (  -0.5000000  -0.0962250   0.0000000), wk =   0.0185185
        k(   58) = (  -0.5000000  -0.0962250   0.0992694), wk =   0.0185185
        k(   59) = (  -0.5000000  -0.0962250   0.1985388), wk =   0.0185185
        k(   60) = (  -0.5000000  -0.0962250  -0.2978082), wk =   0.0185185
[...]
        k(   66) = (   0.0000000   0.0962250  -0.1985388), wk =   0.0185185
        k(   67) = (   0.0000000   0.1924501  -0.0992694), wk =   0.0185185
        k(   68) = (   0.0000000   0.1924501  -0.1985388), wk =   0.0185185
        k(   69) = (  -0.1666667   0.0962250  -0.0992694), wk =   0.0370370
        k(   70) = (  -0.1666667   0.0962250  -0.1985388), wk =   0.0370370
        k(   71) = (  -0.1666667   0.1924501  -0.0992694), wk =   0.0370370
        k(   72) = (  -0.1666667   0.1924501  -0.1985388), wk =   0.0370370
        k(   73) = (  -0.3333333   0.1924501  -0.0992694), wk =   0.0370370
        k(   74) = (  -0.3333333   0.1924501  -0.1985388), wk =   0.0370370
        k(   75) = (  -0.3333333  -0.0962250  -0.0992694), wk =   0.0370370
        k(   76) = (  -0.3333333  -0.0962250  -0.1985388), wk =   0.0370370
        k(   77) = (   0.5000000  -0.1924501  -0.0992694), wk =   0.0185185
        k(   78) = (   0.5000000  -0.1924501  -0.1985388), wk =   0.0185185
        k(   79) = (   0.5000000  -0.0962250  -0.0992694), wk =   0.0185185
        k(   80) = (   0.5000000  -0.0962250  -0.1985388), wk =   0.0185185

                       cryst. coord.
        k(    1) = (   0.0000000   0.0000000   0.0000000), wk =   0.0092593
        k(    2) = (   0.0000000   0.0000000   0.1666667), wk =   0.0185185
        k(    3) = (   0.0000000   0.0000000   0.3333333), wk =   0.0185185
        k(    4) = (   0.0000000   0.0000000  -0.5000000), wk =   0.0092593
        k(    5) = (   0.0000000   0.1666667   0.0000000), wk =   0.0185185
        k(    6) = (   0.0000000   0.1666667   0.1666667), wk =   0.0185185
        k(    7) = (   0.0000000   0.1666667   0.3333333), wk =   0.0185185
        k(    8) = (   0.0000000   0.1666667  -0.5000000), wk =   0.0185185
        k(    9) = (   0.0000000   0.3333333   0.0000000), wk =   0.0185185
        k(   10) = (   0.0000000   0.3333333   0.1666667), wk =   0.0185185
        k(   11) = (   0.0000000   0.3333333   0.3333333), wk =   0.0185185
        k(   12) = (   0.0000000   0.3333333  -0.5000000), wk =   0.0185185
        k(   13) = (   0.0000000  -0.5000000   0.0000000), wk =   0.0092593
        k(   14) = (   0.0000000  -0.5000000   0.1666667), wk =   0.0185185
        k(   15) = (   0.0000000  -0.5000000   0.3333333), wk =   0.0185185
        k(   16) = (   0.0000000  -0.5000000  -0.5000000), wk =   0.0092593
        k(   17) = (   0.1666667   0.0000000   0.0000000), wk =   0.0370370
        k(   18) = (   0.1666667   0.0000000   0.1666667), wk =   0.0370370
        k(   19) = (   0.1666667   0.0000000   0.3333333), wk =   0.0370370
        k(   20) = (   0.1666667   0.0000000  -0.5000000), wk =   0.0370370
        k(   21) = (   0.1666667   0.1666667   0.0000000), wk =   0.0370370
        k(   22) = (   0.1666667   0.1666667   0.1666667), wk =   0.0370370
        k(   23) = (   0.1666667   0.1666667   0.3333333), wk =   0.0370370
        k(   24) = (   0.1666667   0.1666667  -0.5000000), wk =   0.0370370
        k(   25) = (   0.1666667   0.3333333   0.0000000), wk =   0.0185185
        k(   26) = (   0.1666667   0.3333333   0.1666667), wk =   0.0370370
        k(   27) = (   0.1666667   0.3333333   0.3333333), wk =   0.0370370
        k(   28) = (   0.1666667   0.3333333  -0.5000000), wk =   0.0185185
        k(   29) = (   0.1666667  -0.1666667   0.0000000), wk =   0.0185185
        k(   30) = (   0.1666667  -0.1666667   0.1666667), wk =   0.0370370
        k(   31) = (   0.1666667  -0.1666667   0.3333333), wk =   0.0370370
        k(   32) = (   0.1666667  -0.1666667  -0.5000000), wk =   0.0185185
        k(   33) = (   0.3333333   0.0000000   0.0000000), wk =   0.0370370
        k(   34) = (   0.3333333   0.0000000   0.1666667), wk =   0.0370370
        k(   35) = (   0.3333333   0.0000000   0.3333333), wk =   0.0370370
        k(   36) = (   0.3333333   0.0000000  -0.5000000), wk =   0.0370370
        k(   37) = (   0.3333333   0.1666667   0.0000000), wk =   0.0185185
        k(   38) = (   0.3333333   0.1666667   0.1666667), wk =   0.0370370
        k(   39) = (   0.3333333   0.1666667   0.3333333), wk =   0.0370370
        k(   40) = (   0.3333333   0.1666667  -0.5000000), wk =   0.0185185
        k(   41) = (   0.3333333  -0.5000000   0.0000000), wk =   0.0370370
        k(   42) = (   0.3333333  -0.5000000   0.1666667), wk =   0.0370370
        k(   43) = (   0.3333333  -0.5000000   0.3333333), wk =   0.0370370
        k(   44) = (   0.3333333  -0.5000000  -0.5000000), wk =   0.0370370
        k(   45) = (   0.3333333  -0.3333333   0.0000000), wk =   0.0185185
        k(   46) = (   0.3333333  -0.3333333   0.1666667), wk =   0.0370370
        k(   47) = (   0.3333333  -0.3333333   0.3333333), wk =   0.0370370
        k(   48) = (   0.3333333  -0.3333333  -0.5000000), wk =   0.0185185
        k(   49) = (  -0.5000000   0.0000000   0.0000000), wk =   0.0092593
        k(   50) = (  -0.5000000   0.0000000   0.1666667), wk =   0.0185185
        k(   51) = (  -0.5000000   0.0000000   0.3333333), wk =   0.0185185
        k(   52) = (  -0.5000000   0.0000000  -0.5000000), wk =   0.0092593
        k(   53) = (  -0.5000000   0.1666667   0.0000000), wk =   0.0185185
        k(   54) = (  -0.5000000   0.1666667   0.1666667), wk =   0.0185185
        k(   55) = (  -0.5000000   0.1666667   0.3333333), wk =   0.0185185
        k(   56) = (  -0.5000000   0.1666667  -0.5000000), wk =   0.0185185
        k(   57) = (  -0.5000000   0.3333333   0.0000000), wk =   0.0185185
        k(   58) = (  -0.5000000   0.3333333   0.1666667), wk =   0.0185185
        k(   59) = (  -0.5000000   0.3333333   0.3333333), wk =   0.0185185
        k(   60) = (  -0.5000000   0.3333333  -0.5000000), wk =   0.0185185
[...]
        k(   66) = (   0.0000000   0.1666667  -0.3333333), wk =   0.0185185
        k(   67) = (   0.0000000   0.3333333  -0.1666667), wk =   0.0185185
        k(   68) = (   0.0000000   0.3333333  -0.3333333), wk =   0.0185185
        k(   69) = (  -0.1666667   0.3333333  -0.1666667), wk =   0.0370370
        k(   70) = (  -0.1666667   0.3333333  -0.3333333), wk =   0.0370370
        k(   71) = (  -0.1666667   0.5000000  -0.1666667), wk =   0.0370370
        k(   72) = (  -0.1666667   0.5000000  -0.3333333), wk =   0.0370370
        k(   73) = (  -0.3333333   0.6666667  -0.1666667), wk =   0.0370370
        k(   74) = (  -0.3333333   0.6666667  -0.3333333), wk =   0.0370370
        k(   75) = (  -0.3333333   0.1666667  -0.1666667), wk =   0.0370370
        k(   76) = (  -0.3333333   0.1666667  -0.3333333), wk =   0.0370370
        k(   77) = (   0.5000000  -0.8333333  -0.1666667), wk =   0.0185185
        k(   78) = (   0.5000000  -0.8333333  -0.3333333), wk =   0.0185185
        k(   79) = (   0.5000000  -0.6666667  -0.1666667), wk =   0.0185185
        k(   80) = (   0.5000000  -0.6666667  -0.3333333), wk =   0.0185185

     Check: negative core charge=   -0.000002

     Initial potential from superposition of free atoms

     starting charge      71.9851, renormalised to      72.0000
     Starting wfcs are   52 randomized atomic wfcs

     Self-consistent Calculation

     iteration #  1     ecut=    50.00 Ry     beta= 0.30
     Davidson diagonalization with overlap

     ethr =  1.00E-02,  avg # of iterations =  2.0

     total energy              =    -722.95763795 Ry
     estimated scf accuracy    <       1.37476577 Ry

[...]

     total energy              =    -723.26885171 Ry
     estimated scf accuracy    <       0.00000003 Ry

     iteration # 40     ecut=    50.00 Ry     beta= 0.30
     Davidson diagonalization with overlap

     ethr =  3.95E-11,  avg # of iterations =  6.9

     End of self-consistent calculation

          k = 0.0000 0.0000 0.0000 (  3881 PWs)   bands (ev):

   -10.8465 -10.1826 -10.1497  -9.9485   1.2929   1.4330   1.4562   1.4844
     1.5665   1.5667   1.7656   1.7815   1.7816   2.0229   2.2148   2.3464
     2.7034   2.7045   2.7045   2.8891   2.8942   2.8942   2.9450   3.0342
     3.1302   3.4165   3.7976   4.3607   5.0623   5.8201   6.4389   6.4393
     6.4683   7.0892   7.2207   7.2211

     occupation numbers
     1.0000   1.0000   1.0000   1.0000   1.0000   1.0000   1.0000   1.0000
     1.0000   1.0000   1.0000   1.0000   1.0000   1.0000   1.0000   1.0000
     1.0000   1.0000   1.0000   1.0000   1.0000   1.0000   1.0000   1.0000
     1.0000   1.0000   1.0000   1.0000   1.0000   1.0000   1.0000   1.0000
     1.0000   1.0000   1.0000   1.0000

[...]

          k =-0.5000-0.2887 0.0000 (  3876 PWs)   bands (ev):

[...]

          k =-0.3333-0.0962-0.1985 (  3850 PWs)   bands (ev):

[...]

          k = 0.5000-0.0962-0.1985 (  3858 PWs)   bands (ev):

   -10.1003 -10.1003  -9.9936  -9.9935   1.2892   1.2892   1.3830   1.3830
     1.7817   1.7818   1.9473   1.9473   2.1214   2.1214   2.1668   2.1668
     2.7463   2.7463   2.8391   2.8391   2.9810   2.9811   3.0958   3.0958
     3.5197   3.5197   3.8966   3.8966   4.8500   4.8500   5.2544   5.2544
     5.7127   5.7127   6.0163   6.0163

     occupation numbers
     1.0000   1.0000   1.0000   1.0000   1.0000   1.0000   1.0000   1.0000
     1.0000   1.0000   1.0000   1.0000   1.0000   1.0000   1.0000   1.0000
     1.0000   1.0000   1.0000   1.0000   1.0000   1.0000   1.0000   1.0000
     1.0000   1.0000   1.0000   1.0000   1.0000   1.0000   1.0000   1.0000
     1.0000   1.0000   1.0000   1.0000

     highest occupied level (ev):     7.2211

!    total energy              =    -723.26885174 Ry
     estimated scf accuracy    <          4.1E-09 Ry

     The total energy is the sum of the following terms:
     one-electron contribution =    -303.60135391 Ry
     hartree contribution      =     234.54141013 Ry
     xc contribution           =    -219.16832197 Ry
     ewald contribution        =    -435.04058598 Ry

     convergence has been achieved in  40 iterations

     Forces acting on atoms (cartesian axes, Ry/au):

     atom    1 type  1   force =     0.00000000   -0.00000406    0.00120884
     atom    2 type  2   force =     0.00000000    0.00000017   -0.00120877
     atom    3 type  1   force =     0.00000000   -0.00000284    0.00120142
     atom    4 type  2   force =     0.00000000    0.00000226   -0.00120859
     atom    5 type  1   force =     0.00000000    0.00001924    0.00121218
     atom    6 type  2   force =     0.00000000    0.00000101   -0.00120827
     atom    7 type  1   force =     0.00000000   -0.00001881    0.00121173
     atom    8 type  2   force =     0.00000000    0.00000302   -0.00120854
     The non-local contrib.  to forces
     atom    1 type  1   force =     0.00000000   -0.00002450   -0.04789684
     atom    2 type  2   force =     0.00000000    0.00021042   -0.04644439
     atom    3 type  1   force =     0.00000000    0.00002497   -0.04790165
     atom    4 type  2   force =     0.00000000   -0.00021225   -0.04644142
     atom    5 type  1   force =     0.00000000   -0.00001702   -0.04789566
     atom    6 type  2   force =     0.00000000    0.00021536   -0.04644296
     atom    7 type  1   force =     0.00000000    0.00001638   -0.04789859
     atom    8 type  2   force =     0.00000000   -0.00021478   -0.04644129
     The ionic contribution  to forces
     atom    1 type  1   force =    -0.00000000   -0.00000000   -0.47976304
     atom    2 type  2   force =    -0.00000000    0.00000000    0.47976304
     atom    3 type  1   force =     0.00000000    0.00000000   -0.47976304
     atom    4 type  2   force =     0.00000000   -0.00000000    0.47976304
     atom    5 type  1   force =    -0.00000000   -0.00000000   -0.47976304
     atom    6 type  2   force =    -0.00000000    0.00000000    0.47976304
     atom    7 type  1   force =    -0.00000000    0.00000000   -0.47976304
     atom    8 type  2   force =     0.00000000   -0.00000000    0.47976304
     The local contribution  to forces
     atom    1 type  1   force =    -0.00000000    0.00005287    0.52617760
     atom    2 type  2   force =     0.00000000   -0.00021913   -0.43491443
     atom    3 type  1   force =    -0.00000000   -0.00004870    0.52618525
     atom    4 type  2   force =     0.00000000    0.00021655   -0.43490492
     atom    5 type  1   force =    -0.00000000    0.00002696    0.52617699
     atom    6 type  2   force =    -0.00000000   -0.00020560   -0.43491047
     atom    7 type  1   force =     0.00000000   -0.00002693    0.52618038
     atom    8 type  2   force =     0.00000000    0.00020535   -0.43490567
     The core correction contribution to forces
     atom    1 type  1   force =     0.00000000   -0.00000525    0.00268132
     atom    2 type  2   force =    -0.00000000   -0.00000241    0.00038044
     atom    3 type  1   force =    -0.00000000    0.00000543    0.00268147
     atom    4 type  2   force =     0.00000000    0.00000243    0.00038040
     atom    5 type  1   force =    -0.00000000   -0.00000539    0.00268113
     atom    6 type  2   force =     0.00000000   -0.00000245    0.00038043
     atom    7 type  1   force =     0.00000000    0.00000531    0.00268128
     atom    8 type  2   force =    -0.00000000    0.00000244    0.00038039
     The Hubbard contrib.    to forces
     atom    1 type  1   force =     0.00000000    0.00000000    0.00000000
     atom    2 type  2   force =     0.00000000    0.00000000    0.00000000
     atom    3 type  1   force =     0.00000000    0.00000000    0.00000000
     atom    4 type  2   force =     0.00000000    0.00000000    0.00000000
     atom    5 type  1   force =     0.00000000    0.00000000    0.00000000
     atom    6 type  2   force =     0.00000000    0.00000000    0.00000000
     atom    7 type  1   force =     0.00000000    0.00000000    0.00000000
     atom    8 type  2   force =     0.00000000    0.00000000    0.00000000
     The SCF correction term to forces
     atom    1 type  1   force =    -0.00000000   -0.00002835    0.00001499
     atom    2 type  2   force =     0.00000000    0.00001011    0.00001176
     atom    3 type  1   force =     0.00000000    0.00001428    0.00000458
     atom    4 type  2   force =    -0.00000000   -0.00000565   -0.00000052
     atom    5 type  1   force =    -0.00000000    0.00001351    0.00001795
     atom    6 type  2   force =     0.00000000   -0.00000749    0.00000687
     atom    7 type  1   force =     0.00000000   -0.00001475    0.00001689
     atom    8 type  2   force =    -0.00000000    0.00000884    0.00000016

     Total force =     0.003418     Total SCF correction =     0.000052

     General routines

     Parallel routines

   This run was terminated on:  16:17: 3  13Jul2025

   JOB DONE.
Note: The following floating-point exceptions are signalling: IEEE_INVALID_FLAG
Note: The following floating-point exceptions are signalling: IEEE_INVALID_FLAG