     Program PWSCF v.7.2 starts on 13Jul2025 at 23: 9:20

     Reading input from /home/jvc/QEspresso7.2/ZnO_database/scripts/cell121.in/ZnO-3.53-1.65-121.in
Warning: card &CELL ignored
Warning: card / ignored
Warning: card &FCP ignored
Warning: card / ignored
Warning: card &RISM ignored
Warning: card / ignored

     Current dimensions of program PWSCF are:
     Max number of different atomic species (ntypx) = 10
     Max number of k-points (npk) =  40000
     Max angular momentum in pseudopotentials (lmaxx) =  4
     file Zn.upf: wavefunction(s)  3D renormalized
     Found identity + (  0.0000 -0.5000  0.0000) symmetry
     This is a supercell, fractional translations are disabled
     Message from routine setup:
     using ibrav=0 with symmetry is DISCOURAGED, use correct ibrav instead

     K-points division:     npool     =       2
     R & G space division:  proc/nbgrp/npool/nimage =       4
     Subspace diagonalization in iterative solution of the eigenvalue problem:
     a serial algorithm will be used

     Using Slab Decomposition

     bravais-lattice index     =            0
     lattice parameter (alat)  =       6.6732  a.u.
     unit-cell volume          =     847.5314 (a.u.)^3
     number of atoms/cell      =            8
     number of atomic types    =            2
     number of electrons       =        72.00
     number of Kohn-Sham states=           36
     kinetic-energy cutoff     =      50.0000  Ry
     charge density cutoff     =     400.0000  Ry
     scf convergence threshold =      1.0E-08
     mixing beta               =       0.3000
     number of iterations used =            8  plain     mixing
     Exchange-correlation= PBE
                           (   1   4   3   4   0   0   0)

     celldm(1)=   6.673162  celldm(2)=   0.000000  celldm(3)=   0.000000
     celldm(4)=   0.000000  celldm(5)=   0.000000  celldm(6)=   0.000000

     crystal axes: (cart. coord. in units of alat)
               a(1) = (   1.000000   0.000000   0.000000 )
               a(2) = (  -1.000000   1.732051   0.000000 )
               a(3) = (   0.000000   0.000000   1.646646 )

     reciprocal axes: (cart. coord. in units 2 pi/alat)
               b(1) = (  1.000000  0.577350 -0.000000 )
               b(2) = (  0.000000  0.577350  0.000000 )
               b(3) = (  0.000000 -0.000000  0.607295 )

     PseudoPot. # 1 for Zn read from file:
     /home/jvc/QEspresso7.2/ZnO_database/pseudos/Zn.upf
     MD5 check sum: 7f56cabf9682ed8c977c2f7d0c5985c5
     Pseudo is Ultrasoft + core correction, Zval = 12.0
     Generated using &quot;atomic&quot; code by A. Dal Corso  v.6.2.2
     Using radial grid of 1201 points,  6 beta functions with:
                l(1) =   0
                l(2) =   0
                l(3) =   1
                l(4) =   1
                l(5) =   2
                l(6) =   2
     Q(r) pseudized with 0 coefficients

     PseudoPot. # 2 for O  read from file:
     /home/jvc/QEspresso7.2/ZnO_database/pseudos/O.upf
     MD5 check sum: 91400c9766925bcf19f520983a725ff0
     Pseudo is Ultrasoft + core correction, Zval =  6.0
     Generated using &quot;atomic&quot; code by A. Dal Corso  v.6.3MaX
     Using radial grid of 1095 points,  4 beta functions with:
                l(1) =   0
                l(2) =   0
                l(3) =   1
                l(4) =   1
     Q(r) pseudized with 0 coefficients

     atomic species   valence    mass     pseudopotential
        Zn            12.00    65.38000     Zn( 1.00)
        O              6.00    15.99900     O ( 1.00)

      2 Sym. Ops. (no inversion) found

                                    s                        frac. trans.

      isym =  1     identity

 cryst.   s( 1) = (     1          0          0      )
                  (     0          1          0      )
                  (     0          0          1      )

 cart.    s( 1) = (  1.0000000  0.0000000  0.0000000 )
                  (  0.0000000  1.0000000  0.0000000 )
                  (  0.0000000  0.0000000  1.0000000 )

      isym =  2     inv. 180 deg rotation - cart. axis [1,0,0]

 cryst.   s( 2) = (    -1          0          0      )
                  (     2          1          0      )
                  (     0          0          1      )

 cart.    s( 2) = ( -1.0000000  0.0000000  0.0000000 )
                  (  0.0000000  1.0000000  0.0000000 )
                  (  0.0000000  0.0000000  1.0000000 )

   Cartesian axes

     site n.     atom                  positions (alat units)
         1           Zn  tau(   1) = (   0.0000000   0.0000000   0.0000000  )
         2           O   tau(   2) = (   0.0000000   0.5773503   0.2092296  )
         3           Zn  tau(   3) = (   0.0000000   0.5773503   0.8233228  )
         4           O   tau(   4) = (   0.0000000   0.0000000   1.0325524  )
         5           Zn  tau(   5) = (  -0.5000000   0.8660254   0.0000000  )
         6           O   tau(   6) = (  -0.5000000   1.4433757   0.2092296  )
         7           Zn  tau(   7) = (  -0.5000000   1.4433757   0.8233228  )
         8           O   tau(   8) = (  -0.5000000   0.8660254   1.0325524  )

   Crystallographic axes

     site n.     atom                  positions (cryst. coord.)
         1           Zn  tau(   1) = (  0.0000000  0.0000000  0.0000000  )
         2           O   tau(   2) = (  0.3333333  0.3333333  0.1270642  )
         3           Zn  tau(   3) = (  0.3333333  0.3333333  0.5000000  )
         4           O   tau(   4) = (  0.0000000  0.0000000  0.6270642  )
         5           Zn  tau(   5) = (  0.0000000  0.5000000  0.0000000  )
         6           O   tau(   6) = (  0.3333333  0.8333333  0.1270642  )
         7           Zn  tau(   7) = (  0.3333333  0.8333333  0.5000000  )
         8           O   tau(   8) = (  0.0000000  0.5000000  0.6270642  )

     number of k points=    80
                       cart. coord. in units 2pi/alat
        k(    1) = (   0.0000000   0.0000000   0.0000000), wk =   0.0092593
        k(    2) = (   0.0000000   0.0000000   0.1012159), wk =   0.0185185
        k(    3) = (   0.0000000   0.0000000   0.2024317), wk =   0.0185185
        k(    4) = (   0.0000000   0.0000000  -0.3036476), wk =   0.0092593
        k(    5) = (   0.0000000   0.0962250   0.0000000), wk =   0.0185185
        k(    6) = (   0.0000000   0.0962250   0.1012159), wk =   0.0185185
        k(    7) = (   0.0000000   0.0962250   0.2024317), wk =   0.0185185
        k(    8) = (   0.0000000   0.0962250  -0.3036476), wk =   0.0185185
        k(    9) = (   0.0000000   0.1924501   0.0000000), wk =   0.0185185
        k(   10) = (   0.0000000   0.1924501   0.1012159), wk =   0.0185185
        k(   11) = (   0.0000000   0.1924501   0.2024317), wk =   0.0185185
        k(   12) = (   0.0000000   0.1924501  -0.3036476), wk =   0.0185185
        k(   13) = (   0.0000000  -0.2886751   0.0000000), wk =   0.0092593
        k(   14) = (   0.0000000  -0.2886751   0.1012159), wk =   0.0185185
        k(   15) = (   0.0000000  -0.2886751   0.2024317), wk =   0.0185185
        k(   16) = (   0.0000000  -0.2886751  -0.3036476), wk =   0.0092593
        k(   17) = (   0.1666667   0.0962250   0.0000000), wk =   0.0370370
        k(   18) = (   0.1666667   0.0962250   0.1012159), wk =   0.0370370
        k(   19) = (   0.1666667   0.0962250   0.2024317), wk =   0.0370370
        k(   20) = (   0.1666667   0.0962250  -0.3036476), wk =   0.0370370
        k(   21) = (   0.1666667   0.1924501   0.0000000), wk =   0.0370370
        k(   22) = (   0.1666667   0.1924501   0.1012159), wk =   0.0370370
        k(   23) = (   0.1666667   0.1924501   0.2024317), wk =   0.0370370
        k(   24) = (   0.1666667   0.1924501  -0.3036476), wk =   0.0370370
        k(   25) = (   0.1666667   0.2886751   0.0000000), wk =   0.0185185
        k(   26) = (   0.1666667   0.2886751   0.1012159), wk =   0.0370370
        k(   27) = (   0.1666667   0.2886751   0.2024317), wk =   0.0370370
        k(   28) = (   0.1666667   0.2886751  -0.3036476), wk =   0.0185185
        k(   29) = (   0.1666667   0.0000000   0.0000000), wk =   0.0185185
        k(   30) = (   0.1666667   0.0000000   0.1012159), wk =   0.0370370
        k(   31) = (   0.1666667   0.0000000   0.2024317), wk =   0.0370370
        k(   32) = (   0.1666667   0.0000000  -0.3036476), wk =   0.0185185
        k(   33) = (   0.3333333   0.1924501   0.0000000), wk =   0.0370370
        k(   34) = (   0.3333333   0.1924501   0.1012159), wk =   0.0370370
        k(   35) = (   0.3333333   0.1924501   0.2024317), wk =   0.0370370
        k(   36) = (   0.3333333   0.1924501  -0.3036476), wk =   0.0370370
        k(   37) = (   0.3333333   0.2886751   0.0000000), wk =   0.0185185
        k(   38) = (   0.3333333   0.2886751   0.1012159), wk =   0.0370370
        k(   39) = (   0.3333333   0.2886751   0.2024317), wk =   0.0370370
        k(   40) = (   0.3333333   0.2886751  -0.3036476), wk =   0.0185185
        k(   41) = (   0.3333333  -0.0962250   0.0000000), wk =   0.0370370
        k(   42) = (   0.3333333  -0.0962250   0.1012159), wk =   0.0370370
        k(   43) = (   0.3333333  -0.0962250   0.2024317), wk =   0.0370370
        k(   44) = (   0.3333333  -0.0962250  -0.3036476), wk =   0.0370370
        k(   45) = (   0.3333333  -0.0000000   0.0000000), wk =   0.0185185
        k(   46) = (   0.3333333  -0.0000000   0.1012159), wk =   0.0370370
        k(   47) = (   0.3333333  -0.0000000   0.2024317), wk =   0.0370370
        k(   48) = (   0.3333333  -0.0000000  -0.3036476), wk =   0.0185185
        k(   49) = (  -0.5000000  -0.2886751   0.0000000), wk =   0.0092593
        k(   50) = (  -0.5000000  -0.2886751   0.1012159), wk =   0.0185185
        k(   51) = (  -0.5000000  -0.2886751   0.2024317), wk =   0.0185185
        k(   52) = (  -0.5000000  -0.2886751  -0.3036476), wk =   0.0092593
        k(   53) = (  -0.5000000  -0.1924501   0.0000000), wk =   0.0185185
        k(   54) = (  -0.5000000  -0.1924501   0.1012159), wk =   0.0185185
        k(   55) = (  -0.5000000  -0.1924501   0.2024317), wk =   0.0185185
        k(   56) = (  -0.5000000  -0.1924501  -0.3036476), wk =   0.0185185
        k(   57) = (  -0.5000000  -0.0962250   0.0000000), wk =   0.0185185
        k(   58) = (  -0.5000000  -0.0962250   0.1012159), wk =   0.0185185
        k(   59) = (  -0.5000000  -0.0962250   0.2024317), wk =   0.0185185
        k(   60) = (  -0.5000000  -0.0962250  -0.3036476), wk =   0.0185185
[...]
        k(   66) = (   0.0000000   0.0962250  -0.2024317), wk =   0.0185185
        k(   67) = (   0.0000000   0.1924501  -0.1012159), wk =   0.0185185
        k(   68) = (   0.0000000   0.1924501  -0.2024317), wk =   0.0185185
        k(   69) = (  -0.1666667   0.0962250  -0.1012159), wk =   0.0370370
        k(   70) = (  -0.1666667   0.0962250  -0.2024317), wk =   0.0370370
        k(   71) = (  -0.1666667   0.1924501  -0.1012159), wk =   0.0370370
        k(   72) = (  -0.1666667   0.1924501  -0.2024317), wk =   0.0370370
        k(   73) = (  -0.3333333   0.1924501  -0.1012159), wk =   0.0370370
        k(   74) = (  -0.3333333   0.1924501  -0.2024317), wk =   0.0370370
        k(   75) = (  -0.3333333  -0.0962250  -0.1012159), wk =   0.0370370
        k(   76) = (  -0.3333333  -0.0962250  -0.2024317), wk =   0.0370370
        k(   77) = (   0.5000000  -0.1924501  -0.1012159), wk =   0.0185185
        k(   78) = (   0.5000000  -0.1924501  -0.2024317), wk =   0.0185185
        k(   79) = (   0.5000000  -0.0962250  -0.1012159), wk =   0.0185185
        k(   80) = (   0.5000000  -0.0962250  -0.2024317), wk =   0.0185185

                       cryst. coord.
        k(    1) = (   0.0000000   0.0000000   0.0000000), wk =   0.0092593
        k(    2) = (   0.0000000   0.0000000   0.1666667), wk =   0.0185185
        k(    3) = (   0.0000000   0.0000000   0.3333333), wk =   0.0185185
        k(    4) = (   0.0000000   0.0000000  -0.5000000), wk =   0.0092593
        k(    5) = (   0.0000000   0.1666667   0.0000000), wk =   0.0185185
        k(    6) = (   0.0000000   0.1666667   0.1666667), wk =   0.0185185
        k(    7) = (   0.0000000   0.1666667   0.3333333), wk =   0.0185185
        k(    8) = (   0.0000000   0.1666667  -0.5000000), wk =   0.0185185
        k(    9) = (   0.0000000   0.3333333   0.0000000), wk =   0.0185185
        k(   10) = (   0.0000000   0.3333333   0.1666667), wk =   0.0185185
        k(   11) = (   0.0000000   0.3333333   0.3333333), wk =   0.0185185
        k(   12) = (   0.0000000   0.3333333  -0.5000000), wk =   0.0185185
        k(   13) = (   0.0000000  -0.5000000   0.0000000), wk =   0.0092593
        k(   14) = (   0.0000000  -0.5000000   0.1666667), wk =   0.0185185
        k(   15) = (   0.0000000  -0.5000000   0.3333333), wk =   0.0185185
        k(   16) = (   0.0000000  -0.5000000  -0.5000000), wk =   0.0092593
        k(   17) = (   0.1666667   0.0000000   0.0000000), wk =   0.0370370
        k(   18) = (   0.1666667   0.0000000   0.1666667), wk =   0.0370370
        k(   19) = (   0.1666667   0.0000000   0.3333333), wk =   0.0370370
        k(   20) = (   0.1666667   0.0000000  -0.5000000), wk =   0.0370370
        k(   21) = (   0.1666667   0.1666667   0.0000000), wk =   0.0370370
        k(   22) = (   0.1666667   0.1666667   0.1666667), wk =   0.0370370
        k(   23) = (   0.1666667   0.1666667   0.3333333), wk =   0.0370370
        k(   24) = (   0.1666667   0.1666667  -0.5000000), wk =   0.0370370
        k(   25) = (   0.1666667   0.3333333   0.0000000), wk =   0.0185185
        k(   26) = (   0.1666667   0.3333333   0.1666667), wk =   0.0370370
        k(   27) = (   0.1666667   0.3333333   0.3333333), wk =   0.0370370
        k(   28) = (   0.1666667   0.3333333  -0.5000000), wk =   0.0185185
        k(   29) = (   0.1666667  -0.1666667   0.0000000), wk =   0.0185185
        k(   30) = (   0.1666667  -0.1666667   0.1666667), wk =   0.0370370
        k(   31) = (   0.1666667  -0.1666667   0.3333333), wk =   0.0370370
        k(   32) = (   0.1666667  -0.1666667  -0.5000000), wk =   0.0185185
        k(   33) = (   0.3333333   0.0000000   0.0000000), wk =   0.0370370
        k(   34) = (   0.3333333   0.0000000   0.1666667), wk =   0.0370370
        k(   35) = (   0.3333333   0.0000000   0.3333333), wk =   0.0370370
        k(   36) = (   0.3333333   0.0000000  -0.5000000), wk =   0.0370370
        k(   37) = (   0.3333333   0.1666667   0.0000000), wk =   0.0185185
        k(   38) = (   0.3333333   0.1666667   0.1666667), wk =   0.0370370
        k(   39) = (   0.3333333   0.1666667   0.3333333), wk =   0.0370370
        k(   40) = (   0.3333333   0.1666667  -0.5000000), wk =   0.0185185
        k(   41) = (   0.3333333  -0.5000000   0.0000000), wk =   0.0370370
        k(   42) = (   0.3333333  -0.5000000   0.1666667), wk =   0.0370370
        k(   43) = (   0.3333333  -0.5000000   0.3333333), wk =   0.0370370
        k(   44) = (   0.3333333  -0.5000000  -0.5000000), wk =   0.0370370
        k(   45) = (   0.3333333  -0.3333333   0.0000000), wk =   0.0185185
        k(   46) = (   0.3333333  -0.3333333   0.1666667), wk =   0.0370370
        k(   47) = (   0.3333333  -0.3333333   0.3333333), wk =   0.0370370
        k(   48) = (   0.3333333  -0.3333333  -0.5000000), wk =   0.0185185
        k(   49) = (  -0.5000000   0.0000000   0.0000000), wk =   0.0092593
        k(   50) = (  -0.5000000   0.0000000   0.1666667), wk =   0.0185185
        k(   51) = (  -0.5000000   0.0000000   0.3333333), wk =   0.0185185
        k(   52) = (  -0.5000000   0.0000000  -0.5000000), wk =   0.0092593
        k(   53) = (  -0.5000000   0.1666667   0.0000000), wk =   0.0185185
        k(   54) = (  -0.5000000   0.1666667   0.1666667), wk =   0.0185185
        k(   55) = (  -0.5000000   0.1666667   0.3333333), wk =   0.0185185
        k(   56) = (  -0.5000000   0.1666667  -0.5000000), wk =   0.0185185
        k(   57) = (  -0.5000000   0.3333333   0.0000000), wk =   0.0185185
        k(   58) = (  -0.5000000   0.3333333   0.1666667), wk =   0.0185185
        k(   59) = (  -0.5000000   0.3333333   0.3333333), wk =   0.0185185
        k(   60) = (  -0.5000000   0.3333333  -0.5000000), wk =   0.0185185
[...]
        k(   66) = (   0.0000000   0.1666667  -0.3333333), wk =   0.0185185
        k(   67) = (   0.0000000   0.3333333  -0.1666667), wk =   0.0185185
        k(   68) = (   0.0000000   0.3333333  -0.3333333), wk =   0.0185185
        k(   69) = (  -0.1666667   0.3333333  -0.1666667), wk =   0.0370370
        k(   70) = (  -0.1666667   0.3333333  -0.3333333), wk =   0.0370370
        k(   71) = (  -0.1666667   0.5000000  -0.1666667), wk =   0.0370370
        k(   72) = (  -0.1666667   0.5000000  -0.3333333), wk =   0.0370370
        k(   73) = (  -0.3333333   0.6666667  -0.1666667), wk =   0.0370370
        k(   74) = (  -0.3333333   0.6666667  -0.3333333), wk =   0.0370370
        k(   75) = (  -0.3333333   0.1666667  -0.1666667), wk =   0.0370370
        k(   76) = (  -0.3333333   0.1666667  -0.3333333), wk =   0.0370370
        k(   77) = (   0.5000000  -0.8333333  -0.1666667), wk =   0.0185185
        k(   78) = (   0.5000000  -0.8333333  -0.3333333), wk =   0.0185185
        k(   79) = (   0.5000000  -0.6666667  -0.1666667), wk =   0.0185185
        k(   80) = (   0.5000000  -0.6666667  -0.3333333), wk =   0.0185185

     Check: negative core charge=   -0.000003

     Initial potential from superposition of free atoms

     starting charge      71.9851, renormalised to      72.0000
     Starting wfcs are   52 randomized atomic wfcs

     Self-consistent Calculation

     iteration #  1     ecut=    50.00 Ry     beta= 0.30
     Davidson diagonalization with overlap

     ethr =  1.00E-02,  avg # of iterations =  1.3

     total energy              =    -722.73675462 Ry
     estimated scf accuracy    <       1.64596439 Ry

[...]

     c_bands:  1 eigenvalues not converged
     c_bands:  1 eigenvalues not converged
     c_bands:  1 eigenvalues not converged
     c_bands:  1 eigenvalues not converged
     c_bands:  1 eigenvalues not converged
     c_bands:  1 eigenvalues not converged
     c_bands:  2 eigenvalues not converged
     c_bands:  1 eigenvalues not converged
     c_bands:  1 eigenvalues not converged
     c_bands:  1 eigenvalues not converged
     ethr =  2.03E-07,  avg # of iterations = 16.6

[...]

     c_bands:  1 eigenvalues not converged
     ethr =  2.03E-07,  avg # of iterations = 14.8

[...]

     total energy              =    -723.13325013 Ry
     estimated scf accuracy    <       0.00000002 Ry

     iteration # 39     ecut=    50.00 Ry     beta= 0.30
     Davidson diagonalization with overlap

     ethr =  2.64E-11,  avg # of iterations =  6.8

     End of self-consistent calculation

          k = 0.0000 0.0000 0.0000 (  5073 PWs)   bands (ev):

   -12.5753 -12.2095 -12.2084 -12.0959  -1.1387  -1.1255  -1.1138  -1.1136
    -1.0003  -1.0001  -0.9880  -0.8928  -0.8053  -0.6933  -0.6300  -0.5960
    -0.5959  -0.5540  -0.5031  -0.4920  -0.4920  -0.4850  -0.4692  -0.4237
     0.0517   0.4694   1.0268   1.6976   2.3454   2.8257   3.2402   3.2409
     3.2432   3.6796   3.7478   3.7485

     occupation numbers
     1.0000   1.0000   1.0000   1.0000   1.0000   1.0000   1.0000   1.0000
     1.0000   1.0000   1.0000   1.0000   1.0000   1.0000   1.0000   1.0000
     1.0000   1.0000   1.0000   1.0000   1.0000   1.0000   1.0000   1.0000
     1.0000   1.0000   1.0000   1.0000   1.0000   1.0000   1.0000   1.0000
     1.0000   1.0000   1.0000   1.0000

[...]

          k =-0.5000-0.2887 0.0000 (  5068 PWs)   bands (ev):

[...]

          k =-0.3333-0.0962-0.2024 (  5058 PWs)   bands (ev):

[...]

          k = 0.5000-0.0962-0.2024 (  5046 PWs)   bands (ev):

   -12.1804 -12.1804 -12.1217 -12.1217  -1.0916  -1.0916  -1.0163  -1.0163
    -0.9292  -0.9292  -0.7955  -0.7955  -0.7665  -0.7664  -0.7426  -0.7426
    -0.5517  -0.5517  -0.5182  -0.5182  -0.4400  -0.4400  -0.3793  -0.3793
     0.6557   0.6557   0.8923   0.8923   2.0980   2.0980   2.4829   2.4829
     2.6874   2.6874   2.9999   2.9999

     occupation numbers
     1.0000   1.0000   1.0000   1.0000   1.0000   1.0000   1.0000   1.0000
     1.0000   1.0000   1.0000   1.0000   1.0000   1.0000   1.0000   1.0000
     1.0000   1.0000   1.0000   1.0000   1.0000   1.0000   1.0000   1.0000
     1.0000   1.0000   1.0000   1.0000   1.0000   1.0000   1.0000   1.0000
     1.0000   1.0000   1.0000   1.0000

     highest occupied level (ev):     3.7485

!    total energy              =    -723.13325015 Ry
     estimated scf accuracy    <          9.4E-10 Ry

     The total energy is the sum of the following terms:
     one-electron contribution =    -364.49145929 Ry
     hartree contribution      =     256.74902447 Ry
     xc contribution           =    -218.19645959 Ry
     ewald contribution        =    -397.19435574 Ry

     convergence has been achieved in  39 iterations

     Forces acting on atoms (cartesian axes, Ry/au):

     atom    1 type  1   force =     0.00000000    0.00000344    0.00336678
     atom    2 type  2   force =     0.00000000    0.00000506   -0.00336186
     atom    3 type  1   force =     0.00000000    0.00000257    0.00336645
     atom    4 type  2   force =     0.00000000   -0.00000533   -0.00336202
     atom    5 type  1   force =     0.00000000   -0.00000309    0.00335573
     atom    6 type  2   force =     0.00000000    0.00000553   -0.00336185
     atom    7 type  1   force =     0.00000000   -0.00000214    0.00335903
     atom    8 type  2   force =     0.00000000   -0.00000606   -0.00336227
     The non-local contrib.  to forces
     atom    1 type  1   force =     0.00000000    0.00001767   -0.01706233
     atom    2 type  2   force =     0.00000000    0.00023955   -0.02469860
     atom    3 type  1   force =     0.00000000   -0.00001524   -0.01706200
     atom    4 type  2   force =     0.00000000   -0.00023845   -0.02470060
     atom    5 type  1   force =     0.00000000    0.00001572   -0.01706740
     atom    6 type  2   force =     0.00000000    0.00023901   -0.02469943
     atom    7 type  1   force =     0.00000000   -0.00001767   -0.01706545
     atom    8 type  2   force =     0.00000000   -0.00023987   -0.02470140
     The ionic contribution  to forces
     atom    1 type  1   force =    -0.00000000   -0.00000000   -0.20836675
     atom    2 type  2   force =     0.00000000    0.00000000    0.20836675
     atom    3 type  1   force =     0.00000000    0.00000000   -0.20836675
     atom    4 type  2   force =    -0.00000000   -0.00000000    0.20836675
     atom    5 type  1   force =     0.00000000   -0.00000000   -0.20836675
     atom    6 type  2   force =    -0.00000000    0.00000000    0.20836675
     atom    7 type  1   force =    -0.00000000    0.00000000   -0.20836675
     atom    8 type  2   force =     0.00000000   -0.00000000    0.20836675
     The local contribution  to forces
     atom    1 type  1   force =    -0.00000000   -0.00001665    0.22809252
     atom    2 type  2   force =    -0.00000000   -0.00022225   -0.18726345
     atom    3 type  1   force =    -0.00000000    0.00000880    0.22809350
     atom    4 type  2   force =    -0.00000000    0.00022608   -0.18726658
     atom    5 type  1   force =    -0.00000000   -0.00001293    0.22810839
     atom    6 type  2   force =    -0.00000000   -0.00023786   -0.18726710
     atom    7 type  1   force =     0.00000000    0.00001989    0.22810463
     atom    8 type  2   force =     0.00000000    0.00023445   -0.18726902
     The core correction contribution to forces
     atom    1 type  1   force =     0.00000000   -0.00000686    0.00069798
     atom    2 type  2   force =    -0.00000000   -0.00000269    0.00023523
     atom    3 type  1   force =    -0.00000000    0.00000696    0.00069782
     atom    4 type  2   force =    -0.00000000    0.00000269    0.00023525
     atom    5 type  1   force =    -0.00000000   -0.00000663    0.00069773
     atom    6 type  2   force =     0.00000000   -0.00000272    0.00023523
     atom    7 type  1   force =    -0.00000000    0.00000649    0.00069765
     atom    8 type  2   force =    -0.00000000    0.00000273    0.00023525
     The Hubbard contrib.    to forces
     atom    1 type  1   force =     0.00000000    0.00000000    0.00000000
     atom    2 type  2   force =     0.00000000    0.00000000    0.00000000
     atom    3 type  1   force =     0.00000000    0.00000000    0.00000000
     atom    4 type  2   force =     0.00000000    0.00000000    0.00000000
     atom    5 type  1   force =     0.00000000    0.00000000    0.00000000
     atom    6 type  2   force =     0.00000000    0.00000000    0.00000000
     atom    7 type  1   force =     0.00000000    0.00000000    0.00000000
     atom    8 type  2   force =     0.00000000    0.00000000    0.00000000
     The SCF correction term to forces
     atom    1 type  1   force =     0.00000000    0.00000950    0.00000427
     atom    2 type  2   force =     0.00000000   -0.00000933   -0.00000289
     atom    3 type  1   force =     0.00000000    0.00000228    0.00000279
     atom    4 type  2   force =    -0.00000000    0.00000458    0.00000205
     atom    5 type  1   force =     0.00000000    0.00000098   -0.00001733
     atom    6 type  2   force =     0.00000000    0.00000734    0.00000160
     atom    7 type  1   force =     0.00000000   -0.00001062   -0.00001214
     atom    8 type  2   force =    -0.00000000   -0.00000314    0.00000505

     Total force =     0.009509     Total SCF correction =     0.000030

     General routines

     Parallel routines

   This run was terminated on:  23:17:48  13Jul2025

   JOB DONE.
Note: The following floating-point exceptions are signalling: IEEE_INVALID_FLAG
Note: The following floating-point exceptions are signalling: IEEE_INVALID_FLAG