     Program PWSCF v.7.2 starts on 13Jul2025 at 11:30: 5

     Reading input from /home/jvc/QEspresso7.2/ZnO_database/scripts/cell121.in/ZnO-2.94-1.71-121.in
Warning: card &CELL ignored
Warning: card / ignored
Warning: card &FCP ignored
Warning: card / ignored
Warning: card &RISM ignored
Warning: card / ignored

     Current dimensions of program PWSCF are:
     Max number of different atomic species (ntypx) = 10
     Max number of k-points (npk) =  40000
     Max angular momentum in pseudopotentials (lmaxx) =  4
     file Zn.upf: wavefunction(s)  3D renormalized
     Found identity + (  0.0000 -0.5000  0.0000) symmetry
     This is a supercell, fractional translations are disabled
     Message from routine setup:
     using ibrav=0 with symmetry is DISCOURAGED, use correct ibrav instead

     K-points division:     npool     =       2
     R & G space division:  proc/nbgrp/npool/nimage =       4
     Subspace diagonalization in iterative solution of the eigenvalue problem:
     a serial algorithm will be used

     Using Slab Decomposition

     bravais-lattice index     =            0
     lattice parameter (alat)  =       5.5610  a.u.
     unit-cell volume          =     509.7037 (a.u.)^3
     number of atoms/cell      =            8
     number of atomic types    =            2
     number of electrons       =        72.00
     number of Kohn-Sham states=           36
     kinetic-energy cutoff     =      50.0000  Ry
     charge density cutoff     =     400.0000  Ry
     scf convergence threshold =      1.0E-08
     mixing beta               =       0.3000
     number of iterations used =            8  plain     mixing
     Exchange-correlation= PBE
                           (   1   4   3   4   0   0   0)

     celldm(1)=   5.560969  celldm(2)=   0.000000  celldm(3)=   0.000000
     celldm(4)=   0.000000  celldm(5)=   0.000000  celldm(6)=   0.000000

     crystal axes: (cart. coord. in units of alat)
               a(1) = (   1.000000   0.000000   0.000000 )
               a(2) = (  -1.000000   1.732051   0.000000 )
               a(3) = (   0.000000   0.000000   1.711220 )

     reciprocal axes: (cart. coord. in units 2 pi/alat)
               b(1) = (  1.000000  0.577350 -0.000000 )
               b(2) = (  0.000000  0.577350  0.000000 )
               b(3) = (  0.000000 -0.000000  0.584378 )

     PseudoPot. # 1 for Zn read from file:
     /home/jvc/QEspresso7.2/ZnO_database/pseudos/Zn.upf
     MD5 check sum: 7f56cabf9682ed8c977c2f7d0c5985c5
     Pseudo is Ultrasoft + core correction, Zval = 12.0
     Generated using &quot;atomic&quot; code by A. Dal Corso  v.6.2.2
     Using radial grid of 1201 points,  6 beta functions with:
                l(1) =   0
                l(2) =   0
                l(3) =   1
                l(4) =   1
                l(5) =   2
                l(6) =   2
     Q(r) pseudized with 0 coefficients

     PseudoPot. # 2 for O  read from file:
     /home/jvc/QEspresso7.2/ZnO_database/pseudos/O.upf
     MD5 check sum: 91400c9766925bcf19f520983a725ff0
     Pseudo is Ultrasoft + core correction, Zval =  6.0
     Generated using &quot;atomic&quot; code by A. Dal Corso  v.6.3MaX
     Using radial grid of 1095 points,  4 beta functions with:
                l(1) =   0
                l(2) =   0
                l(3) =   1
                l(4) =   1
     Q(r) pseudized with 0 coefficients

     atomic species   valence    mass     pseudopotential
        Zn            12.00    65.38000     Zn( 1.00)
        O              6.00    15.99900     O ( 1.00)

      2 Sym. Ops. (no inversion) found

                                    s                        frac. trans.

      isym =  1     identity

 cryst.   s( 1) = (     1          0          0      )
                  (     0          1          0      )
                  (     0          0          1      )

 cart.    s( 1) = (  1.0000000  0.0000000  0.0000000 )
                  (  0.0000000  1.0000000  0.0000000 )
                  (  0.0000000  0.0000000  1.0000000 )

      isym =  2     inv. 180 deg rotation - cart. axis [1,0,0]

 cryst.   s( 2) = (    -1          0          0      )
                  (     2          1          0      )
                  (     0          0          1      )

 cart.    s( 2) = ( -1.0000000  0.0000000  0.0000000 )
                  (  0.0000000  1.0000000  0.0000000 )
                  (  0.0000000  0.0000000  1.0000000 )

   Cartesian axes

     site n.     atom                  positions (alat units)
         1           Zn  tau(   1) = (   0.0000000   0.0000000   0.0000000  )
         2           O   tau(   2) = (   0.0000000   0.5773503   0.2330121  )
         3           Zn  tau(   3) = (   0.0000000   0.5773503   0.8556099  )
         4           O   tau(   4) = (   0.0000000   0.0000000   1.0886221  )
         5           Zn  tau(   5) = (  -0.5000000   0.8660254   0.0000000  )
         6           O   tau(   6) = (  -0.5000000   1.4433757   0.2330121  )
         7           Zn  tau(   7) = (  -0.5000000   1.4433757   0.8556099  )
         8           O   tau(   8) = (  -0.5000000   0.8660254   1.0886221  )

   Crystallographic axes

     site n.     atom                  positions (cryst. coord.)
         1           Zn  tau(   1) = (  0.0000000  0.0000000  0.0000000  )
         2           O   tau(   2) = (  0.3333333  0.3333333  0.1361673  )
         3           Zn  tau(   3) = (  0.3333333  0.3333333  0.5000000  )
         4           O   tau(   4) = (  0.0000000  0.0000000  0.6361673  )
         5           Zn  tau(   5) = (  0.0000000  0.5000000  0.0000000  )
         6           O   tau(   6) = (  0.3333333  0.8333333  0.1361673  )
         7           Zn  tau(   7) = (  0.3333333  0.8333333  0.5000000  )
         8           O   tau(   8) = (  0.0000000  0.5000000  0.6361673  )

     number of k points=    80
                       cart. coord. in units 2pi/alat
        k(    1) = (   0.0000000   0.0000000   0.0000000), wk =   0.0092593
        k(    2) = (   0.0000000   0.0000000   0.0973964), wk =   0.0185185
        k(    3) = (   0.0000000   0.0000000   0.1947928), wk =   0.0185185
        k(    4) = (   0.0000000   0.0000000  -0.2921892), wk =   0.0092593
        k(    5) = (   0.0000000   0.0962250   0.0000000), wk =   0.0185185
        k(    6) = (   0.0000000   0.0962250   0.0973964), wk =   0.0185185
        k(    7) = (   0.0000000   0.0962250   0.1947928), wk =   0.0185185
        k(    8) = (   0.0000000   0.0962250  -0.2921892), wk =   0.0185185
        k(    9) = (   0.0000000   0.1924501   0.0000000), wk =   0.0185185
        k(   10) = (   0.0000000   0.1924501   0.0973964), wk =   0.0185185
        k(   11) = (   0.0000000   0.1924501   0.1947928), wk =   0.0185185
        k(   12) = (   0.0000000   0.1924501  -0.2921892), wk =   0.0185185
        k(   13) = (   0.0000000  -0.2886751   0.0000000), wk =   0.0092593
        k(   14) = (   0.0000000  -0.2886751   0.0973964), wk =   0.0185185
        k(   15) = (   0.0000000  -0.2886751   0.1947928), wk =   0.0185185
        k(   16) = (   0.0000000  -0.2886751  -0.2921892), wk =   0.0092593
        k(   17) = (   0.1666667   0.0962250   0.0000000), wk =   0.0370370
        k(   18) = (   0.1666667   0.0962250   0.0973964), wk =   0.0370370
        k(   19) = (   0.1666667   0.0962250   0.1947928), wk =   0.0370370
        k(   20) = (   0.1666667   0.0962250  -0.2921892), wk =   0.0370370
        k(   21) = (   0.1666667   0.1924501   0.0000000), wk =   0.0370370
        k(   22) = (   0.1666667   0.1924501   0.0973964), wk =   0.0370370
        k(   23) = (   0.1666667   0.1924501   0.1947928), wk =   0.0370370
        k(   24) = (   0.1666667   0.1924501  -0.2921892), wk =   0.0370370
        k(   25) = (   0.1666667   0.2886751   0.0000000), wk =   0.0185185
        k(   26) = (   0.1666667   0.2886751   0.0973964), wk =   0.0370370
        k(   27) = (   0.1666667   0.2886751   0.1947928), wk =   0.0370370
        k(   28) = (   0.1666667   0.2886751  -0.2921892), wk =   0.0185185
        k(   29) = (   0.1666667   0.0000000   0.0000000), wk =   0.0185185
        k(   30) = (   0.1666667   0.0000000   0.0973964), wk =   0.0370370
        k(   31) = (   0.1666667   0.0000000   0.1947928), wk =   0.0370370
        k(   32) = (   0.1666667   0.0000000  -0.2921892), wk =   0.0185185
        k(   33) = (   0.3333333   0.1924501   0.0000000), wk =   0.0370370
        k(   34) = (   0.3333333   0.1924501   0.0973964), wk =   0.0370370
        k(   35) = (   0.3333333   0.1924501   0.1947928), wk =   0.0370370
        k(   36) = (   0.3333333   0.1924501  -0.2921892), wk =   0.0370370
        k(   37) = (   0.3333333   0.2886751   0.0000000), wk =   0.0185185
        k(   38) = (   0.3333333   0.2886751   0.0973964), wk =   0.0370370
        k(   39) = (   0.3333333   0.2886751   0.1947928), wk =   0.0370370
        k(   40) = (   0.3333333   0.2886751  -0.2921892), wk =   0.0185185
        k(   41) = (   0.3333333  -0.0962250   0.0000000), wk =   0.0370370
        k(   42) = (   0.3333333  -0.0962250   0.0973964), wk =   0.0370370
        k(   43) = (   0.3333333  -0.0962250   0.1947928), wk =   0.0370370
        k(   44) = (   0.3333333  -0.0962250  -0.2921892), wk =   0.0370370
        k(   45) = (   0.3333333  -0.0000000   0.0000000), wk =   0.0185185
        k(   46) = (   0.3333333  -0.0000000   0.0973964), wk =   0.0370370
        k(   47) = (   0.3333333  -0.0000000   0.1947928), wk =   0.0370370
        k(   48) = (   0.3333333  -0.0000000  -0.2921892), wk =   0.0185185
        k(   49) = (  -0.5000000  -0.2886751   0.0000000), wk =   0.0092593
        k(   50) = (  -0.5000000  -0.2886751   0.0973964), wk =   0.0185185
        k(   51) = (  -0.5000000  -0.2886751   0.1947928), wk =   0.0185185
        k(   52) = (  -0.5000000  -0.2886751  -0.2921892), wk =   0.0092593
        k(   53) = (  -0.5000000  -0.1924501   0.0000000), wk =   0.0185185
        k(   54) = (  -0.5000000  -0.1924501   0.0973964), wk =   0.0185185
        k(   55) = (  -0.5000000  -0.1924501   0.1947928), wk =   0.0185185
        k(   56) = (  -0.5000000  -0.1924501  -0.2921892), wk =   0.0185185
        k(   57) = (  -0.5000000  -0.0962250   0.0000000), wk =   0.0185185
        k(   58) = (  -0.5000000  -0.0962250   0.0973964), wk =   0.0185185
        k(   59) = (  -0.5000000  -0.0962250   0.1947928), wk =   0.0185185
        k(   60) = (  -0.5000000  -0.0962250  -0.2921892), wk =   0.0185185
[...]
        k(   66) = (   0.0000000   0.0962250  -0.1947928), wk =   0.0185185
        k(   67) = (   0.0000000   0.1924501  -0.0973964), wk =   0.0185185
        k(   68) = (   0.0000000   0.1924501  -0.1947928), wk =   0.0185185
        k(   69) = (  -0.1666667   0.0962250  -0.0973964), wk =   0.0370370
        k(   70) = (  -0.1666667   0.0962250  -0.1947928), wk =   0.0370370
        k(   71) = (  -0.1666667   0.1924501  -0.0973964), wk =   0.0370370
        k(   72) = (  -0.1666667   0.1924501  -0.1947928), wk =   0.0370370
        k(   73) = (  -0.3333333   0.1924501  -0.0973964), wk =   0.0370370
        k(   74) = (  -0.3333333   0.1924501  -0.1947928), wk =   0.0370370
        k(   75) = (  -0.3333333  -0.0962250  -0.0973964), wk =   0.0370370
        k(   76) = (  -0.3333333  -0.0962250  -0.1947928), wk =   0.0370370
        k(   77) = (   0.5000000  -0.1924501  -0.0973964), wk =   0.0185185
        k(   78) = (   0.5000000  -0.1924501  -0.1947928), wk =   0.0185185
        k(   79) = (   0.5000000  -0.0962250  -0.0973964), wk =   0.0185185
        k(   80) = (   0.5000000  -0.0962250  -0.1947928), wk =   0.0185185

                       cryst. coord.
        k(    1) = (   0.0000000   0.0000000   0.0000000), wk =   0.0092593
        k(    2) = (   0.0000000   0.0000000   0.1666667), wk =   0.0185185
        k(    3) = (   0.0000000   0.0000000   0.3333333), wk =   0.0185185
        k(    4) = (   0.0000000   0.0000000  -0.5000000), wk =   0.0092593
        k(    5) = (   0.0000000   0.1666667   0.0000000), wk =   0.0185185
        k(    6) = (   0.0000000   0.1666667   0.1666667), wk =   0.0185185
        k(    7) = (   0.0000000   0.1666667   0.3333333), wk =   0.0185185
        k(    8) = (   0.0000000   0.1666667  -0.5000000), wk =   0.0185185
        k(    9) = (   0.0000000   0.3333333   0.0000000), wk =   0.0185185
        k(   10) = (   0.0000000   0.3333333   0.1666667), wk =   0.0185185
        k(   11) = (   0.0000000   0.3333333   0.3333333), wk =   0.0185185
        k(   12) = (   0.0000000   0.3333333  -0.5000000), wk =   0.0185185
        k(   13) = (   0.0000000  -0.5000000   0.0000000), wk =   0.0092593
        k(   14) = (   0.0000000  -0.5000000   0.1666667), wk =   0.0185185
        k(   15) = (   0.0000000  -0.5000000   0.3333333), wk =   0.0185185
        k(   16) = (   0.0000000  -0.5000000  -0.5000000), wk =   0.0092593
        k(   17) = (   0.1666667   0.0000000   0.0000000), wk =   0.0370370
        k(   18) = (   0.1666667   0.0000000   0.1666667), wk =   0.0370370
        k(   19) = (   0.1666667   0.0000000   0.3333333), wk =   0.0370370
        k(   20) = (   0.1666667   0.0000000  -0.5000000), wk =   0.0370370
        k(   21) = (   0.1666667   0.1666667   0.0000000), wk =   0.0370370
        k(   22) = (   0.1666667   0.1666667   0.1666667), wk =   0.0370370
        k(   23) = (   0.1666667   0.1666667   0.3333333), wk =   0.0370370
        k(   24) = (   0.1666667   0.1666667  -0.5000000), wk =   0.0370370
        k(   25) = (   0.1666667   0.3333333   0.0000000), wk =   0.0185185
        k(   26) = (   0.1666667   0.3333333   0.1666667), wk =   0.0370370
        k(   27) = (   0.1666667   0.3333333   0.3333333), wk =   0.0370370
        k(   28) = (   0.1666667   0.3333333  -0.5000000), wk =   0.0185185
        k(   29) = (   0.1666667  -0.1666667   0.0000000), wk =   0.0185185
        k(   30) = (   0.1666667  -0.1666667   0.1666667), wk =   0.0370370
        k(   31) = (   0.1666667  -0.1666667   0.3333333), wk =   0.0370370
        k(   32) = (   0.1666667  -0.1666667  -0.5000000), wk =   0.0185185
        k(   33) = (   0.3333333   0.0000000   0.0000000), wk =   0.0370370
        k(   34) = (   0.3333333   0.0000000   0.1666667), wk =   0.0370370
        k(   35) = (   0.3333333   0.0000000   0.3333333), wk =   0.0370370
        k(   36) = (   0.3333333   0.0000000  -0.5000000), wk =   0.0370370
        k(   37) = (   0.3333333   0.1666667   0.0000000), wk =   0.0185185
        k(   38) = (   0.3333333   0.1666667   0.1666667), wk =   0.0370370
        k(   39) = (   0.3333333   0.1666667   0.3333333), wk =   0.0370370
        k(   40) = (   0.3333333   0.1666667  -0.5000000), wk =   0.0185185
        k(   41) = (   0.3333333  -0.5000000   0.0000000), wk =   0.0370370
        k(   42) = (   0.3333333  -0.5000000   0.1666667), wk =   0.0370370
        k(   43) = (   0.3333333  -0.5000000   0.3333333), wk =   0.0370370
        k(   44) = (   0.3333333  -0.5000000  -0.5000000), wk =   0.0370370
        k(   45) = (   0.3333333  -0.3333333   0.0000000), wk =   0.0185185
        k(   46) = (   0.3333333  -0.3333333   0.1666667), wk =   0.0370370
        k(   47) = (   0.3333333  -0.3333333   0.3333333), wk =   0.0370370
        k(   48) = (   0.3333333  -0.3333333  -0.5000000), wk =   0.0185185
        k(   49) = (  -0.5000000   0.0000000   0.0000000), wk =   0.0092593
        k(   50) = (  -0.5000000   0.0000000   0.1666667), wk =   0.0185185
        k(   51) = (  -0.5000000   0.0000000   0.3333333), wk =   0.0185185
        k(   52) = (  -0.5000000   0.0000000  -0.5000000), wk =   0.0092593
        k(   53) = (  -0.5000000   0.1666667   0.0000000), wk =   0.0185185
        k(   54) = (  -0.5000000   0.1666667   0.1666667), wk =   0.0185185
        k(   55) = (  -0.5000000   0.1666667   0.3333333), wk =   0.0185185
        k(   56) = (  -0.5000000   0.1666667  -0.5000000), wk =   0.0185185
        k(   57) = (  -0.5000000   0.3333333   0.0000000), wk =   0.0185185
        k(   58) = (  -0.5000000   0.3333333   0.1666667), wk =   0.0185185
        k(   59) = (  -0.5000000   0.3333333   0.3333333), wk =   0.0185185
        k(   60) = (  -0.5000000   0.3333333  -0.5000000), wk =   0.0185185
[...]
        k(   66) = (   0.0000000   0.1666667  -0.3333333), wk =   0.0185185
        k(   67) = (   0.0000000   0.3333333  -0.1666667), wk =   0.0185185
        k(   68) = (   0.0000000   0.3333333  -0.3333333), wk =   0.0185185
        k(   69) = (  -0.1666667   0.3333333  -0.1666667), wk =   0.0370370
        k(   70) = (  -0.1666667   0.3333333  -0.3333333), wk =   0.0370370
        k(   71) = (  -0.1666667   0.5000000  -0.1666667), wk =   0.0370370
        k(   72) = (  -0.1666667   0.5000000  -0.3333333), wk =   0.0370370
        k(   73) = (  -0.3333333   0.6666667  -0.1666667), wk =   0.0370370
        k(   74) = (  -0.3333333   0.6666667  -0.3333333), wk =   0.0370370
        k(   75) = (  -0.3333333   0.1666667  -0.1666667), wk =   0.0370370
        k(   76) = (  -0.3333333   0.1666667  -0.3333333), wk =   0.0370370
        k(   77) = (   0.5000000  -0.8333333  -0.1666667), wk =   0.0185185
        k(   78) = (   0.5000000  -0.8333333  -0.3333333), wk =   0.0185185
        k(   79) = (   0.5000000  -0.6666667  -0.1666667), wk =   0.0185185
        k(   80) = (   0.5000000  -0.6666667  -0.3333333), wk =   0.0185185

     Check: negative core charge=   -0.000001

     Initial potential from superposition of free atoms

     starting charge      71.9851, renormalised to      72.0000
     Starting wfcs are   52 randomized atomic wfcs

     Self-consistent Calculation

     iteration #  1     ecut=    50.00 Ry     beta= 0.30
     Davidson diagonalization with overlap

     ethr =  1.00E-02,  avg # of iterations =  2.0

     total energy              =    -722.74927530 Ry
     estimated scf accuracy    <       1.34853175 Ry

[...]

     total energy              =    -723.01291565 Ry
     estimated scf accuracy    <       0.00000002 Ry

     iteration # 22     ecut=    50.00 Ry     beta= 0.30
     Davidson diagonalization with overlap

     ethr =  2.24E-11,  avg # of iterations =  1.9

     End of self-consistent calculation

          k = 0.0000 0.0000 0.0000 (  3061 PWs)   bands (ev):

    -9.0191  -7.9858  -7.8903  -7.5802   3.2828   3.5013   3.5863   3.9029
     4.1753   4.1755   4.4110   4.5041   4.5042   4.6695   4.7022   5.2951
     5.9897   6.0731   6.0732   6.3818   6.3819   6.4001   6.4764   6.6283
     6.6788   7.0283   7.0885   7.7392   8.3430   9.3849  10.1753  10.1756
    10.2889  11.0783  11.2769  11.2772

     occupation numbers
     1.0000   1.0000   1.0000   1.0000   1.0000   1.0000   1.0000   1.0000
     1.0000   1.0000   1.0000   1.0000   1.0000   1.0000   1.0000   1.0000
     1.0000   1.0000   1.0000   1.0000   1.0000   1.0000   1.0000   1.0000
     1.0000   1.0000   1.0000   1.0000   1.0000   1.0000   1.0000   1.0000
     1.0000   1.0000   1.0000   1.0000

[...]

          k =-0.5000-0.2887 0.0000 (  3056 PWs)   bands (ev):

[...]

          k =-0.3333-0.0962-0.1948 (  3032 PWs)   bands (ev):

[...]

          k = 0.5000-0.0962-0.1948 (  3048 PWs)   bands (ev):

    -7.8155  -7.8155  -7.6487  -7.6486   3.4567   3.4567   3.5509   3.5509
     4.3260   4.3260   4.4883   4.4883   4.8862   4.8862   5.0135   5.0135
     6.0859   6.0859   6.2749   6.2749   6.5232   6.5232   6.6737   6.6737
     6.9695   6.9695   7.4914   7.4914   8.1806   8.1806   8.6245   8.6245
     9.3175   9.3175   9.6226   9.6226

     occupation numbers
     1.0000   1.0000   1.0000   1.0000   1.0000   1.0000   1.0000   1.0000
     1.0000   1.0000   1.0000   1.0000   1.0000   1.0000   1.0000   1.0000
     1.0000   1.0000   1.0000   1.0000   1.0000   1.0000   1.0000   1.0000
     1.0000   1.0000   1.0000   1.0000   1.0000   1.0000   1.0000   1.0000
     1.0000   1.0000   1.0000   1.0000

     highest occupied level (ev):    11.2772

!    total energy              =    -723.01291565 Ry
     estimated scf accuracy    <          9.7E-09 Ry

     The total energy is the sum of the following terms:
     one-electron contribution =    -246.75748392 Ry
     hartree contribution      =     214.94169382 Ry
     xc contribution           =    -220.29348387 Ry
     ewald contribution        =    -470.90364167 Ry

     convergence has been achieved in  22 iterations

     Forces acting on atoms (cartesian axes, Ry/au):

     atom    1 type  1   force =     0.00000000    0.00002685   -0.01356835
     atom    2 type  2   force =     0.00000000   -0.00000397    0.01357145
     atom    3 type  1   force =     0.00000000   -0.00002694   -0.01357539
     atom    4 type  2   force =     0.00000000    0.00000394    0.01357015
     atom    5 type  1   force =     0.00000000    0.00001966   -0.01356657
     atom    6 type  2   force =     0.00000000   -0.00000412    0.01357127
     atom    7 type  1   force =     0.00000000   -0.00002011   -0.01357280
     atom    8 type  2   force =     0.00000000    0.00000470    0.01357025
     The non-local contrib.  to forces
     atom    1 type  1   force =     0.00000000   -0.00002938   -0.08154669
     atom    2 type  2   force =     0.00000000    0.00018276   -0.05993792
     atom    3 type  1   force =     0.00000000    0.00002966   -0.08154826
     atom    4 type  2   force =     0.00000000   -0.00018328   -0.05993572
     atom    5 type  1   force =     0.00000000   -0.00003330   -0.08154657
     atom    6 type  2   force =     0.00000000    0.00018125   -0.05993768
     atom    7 type  1   force =     0.00000000    0.00003331   -0.08154835
     atom    8 type  2   force =     0.00000000   -0.00017974   -0.05993577
     The ionic contribution  to forces
     atom    1 type  1   force =     0.00000000   -0.00000000   -0.82988683
     atom    2 type  2   force =     0.00000000    0.00000000    0.82988683
     atom    3 type  1   force =     0.00000000    0.00000000   -0.82988683
     atom    4 type  2   force =    -0.00000000   -0.00000000    0.82988683
     atom    5 type  1   force =     0.00000000   -0.00000000   -0.82988683
     atom    6 type  2   force =    -0.00000000    0.00000000    0.82988683
     atom    7 type  1   force =    -0.00000000    0.00000000   -0.82988683
     atom    8 type  2   force =     0.00000000   -0.00000000    0.82988683
     The local contribution  to forces
     atom    1 type  1   force =     0.00000000    0.00005136    0.89204504
     atom    2 type  2   force =     0.00000000   -0.00018283   -0.75675154
     atom    3 type  1   force =     0.00000000   -0.00005221    0.89205451
     atom    4 type  2   force =    -0.00000000    0.00018269   -0.75675338
     atom    5 type  1   force =    -0.00000000    0.00006436    0.89204136
     atom    6 type  2   force =     0.00000000   -0.00018363   -0.75675239
     atom    7 type  1   force =     0.00000000   -0.00006366    0.89205027
     atom    8 type  2   force =    -0.00000000    0.00018301   -0.75675441
     The core correction contribution to forces
     atom    1 type  1   force =    -0.00000000   -0.00000358    0.00582595
     atom    2 type  2   force =     0.00000000   -0.00000208    0.00037551
     atom    3 type  1   force =     0.00000000    0.00000360    0.00582579
     atom    4 type  2   force =    -0.00000000    0.00000210    0.00037547
     atom    5 type  1   force =     0.00000000   -0.00000376    0.00582612
     atom    6 type  2   force =    -0.00000000   -0.00000207    0.00037550
     atom    7 type  1   force =     0.00000000    0.00000374    0.00582595
     atom    8 type  2   force =    -0.00000000    0.00000205    0.00037546
     The Hubbard contrib.    to forces
     atom    1 type  1   force =     0.00000000    0.00000000    0.00000000
     atom    2 type  2   force =     0.00000000    0.00000000    0.00000000
     atom    3 type  1   force =     0.00000000    0.00000000    0.00000000
     atom    4 type  2   force =     0.00000000    0.00000000    0.00000000
     atom    5 type  1   force =     0.00000000    0.00000000    0.00000000
     atom    6 type  2   force =     0.00000000    0.00000000    0.00000000
     atom    7 type  1   force =     0.00000000    0.00000000    0.00000000
     atom    8 type  2   force =     0.00000000    0.00000000    0.00000000
     The SCF correction term to forces
     atom    1 type  1   force =     0.00000000    0.00000845   -0.00000650
     atom    2 type  2   force =    -0.00000000   -0.00000182   -0.00000210
     atom    3 type  1   force =    -0.00000000   -0.00000799   -0.00002129
     atom    4 type  2   force =     0.00000000    0.00000244   -0.00000372
     atom    5 type  1   force =    -0.00000000   -0.00000764   -0.00000132
     atom    6 type  2   force =    -0.00000000    0.00000033   -0.00000167
     atom    7 type  1   force =    -0.00000000    0.00000650   -0.00001450
     atom    8 type  2   force =     0.00000000   -0.00000062   -0.00000255

     Total force =     0.038384     Total SCF correction =     0.000031

     General routines

     Parallel routines

   This run was terminated on:  11:35:28  13Jul2025

   JOB DONE.
Note: The following floating-point exceptions are signalling: IEEE_INVALID_FLAG
Note: The following floating-point exceptions are signalling: IEEE_INVALID_FLAG