     Program PWSCF v.7.2 starts on 13Jul2025 at 11: 5:37

     Reading input from /home/jvc/QEspresso7.2/ZnO_database/scripts/cell121.in/ZnO-2.94-1.55-121.in
Warning: card &CELL ignored
Warning: card / ignored
Warning: card &FCP ignored
Warning: card / ignored
Warning: card &RISM ignored
Warning: card / ignored

     Current dimensions of program PWSCF are:
     Max number of different atomic species (ntypx) = 10
     Max number of k-points (npk) =  40000
     Max angular momentum in pseudopotentials (lmaxx) =  4
     file Zn.upf: wavefunction(s)  3D renormalized
     Found identity + (  0.0000 -0.5000  0.0000) symmetry
     This is a supercell, fractional translations are disabled
     Message from routine setup:
     using ibrav=0 with symmetry is DISCOURAGED, use correct ibrav instead

     K-points division:     npool     =       2
     R & G space division:  proc/nbgrp/npool/nimage =       4
     Subspace diagonalization in iterative solution of the eigenvalue problem:
     a serial algorithm will be used

     Using Slab Decomposition

     bravais-lattice index     =            0
     lattice parameter (alat)  =       5.5610  a.u.
     unit-cell volume          =     461.6184 (a.u.)^3
     number of atoms/cell      =            8
     number of atomic types    =            2
     number of electrons       =        72.00
     number of Kohn-Sham states=           36
     kinetic-energy cutoff     =      50.0000  Ry
     charge density cutoff     =     400.0000  Ry
     scf convergence threshold =      1.0E-08
     mixing beta               =       0.3000
     number of iterations used =            8  plain     mixing
     Exchange-correlation= PBE
                           (   1   4   3   4   0   0   0)

     celldm(1)=   5.560969  celldm(2)=   0.000000  celldm(3)=   0.000000
     celldm(4)=   0.000000  celldm(5)=   0.000000  celldm(6)=   0.000000

     crystal axes: (cart. coord. in units of alat)
               a(1) = (   1.000000   0.000000   0.000000 )
               a(2) = (  -1.000000   1.732051   0.000000 )
               a(3) = (   0.000000   0.000000   1.549784 )

     reciprocal axes: (cart. coord. in units 2 pi/alat)
               b(1) = (  1.000000  0.577350 -0.000000 )
               b(2) = (  0.000000  0.577350  0.000000 )
               b(3) = (  0.000000 -0.000000  0.645251 )

     PseudoPot. # 1 for Zn read from file:
     /home/jvc/QEspresso7.2/ZnO_database/pseudos/Zn.upf
     MD5 check sum: 7f56cabf9682ed8c977c2f7d0c5985c5
     Pseudo is Ultrasoft + core correction, Zval = 12.0
     Generated using &quot;atomic&quot; code by A. Dal Corso  v.6.2.2
     Using radial grid of 1201 points,  6 beta functions with:
                l(1) =   0
                l(2) =   0
                l(3) =   1
                l(4) =   1
                l(5) =   2
                l(6) =   2
     Q(r) pseudized with 0 coefficients

     PseudoPot. # 2 for O  read from file:
     /home/jvc/QEspresso7.2/ZnO_database/pseudos/O.upf
     MD5 check sum: 91400c9766925bcf19f520983a725ff0
     Pseudo is Ultrasoft + core correction, Zval =  6.0
     Generated using &quot;atomic&quot; code by A. Dal Corso  v.6.3MaX
     Using radial grid of 1095 points,  4 beta functions with:
                l(1) =   0
                l(2) =   0
                l(3) =   1
                l(4) =   1
     Q(r) pseudized with 0 coefficients

     atomic species   valence    mass     pseudopotential
        Zn            12.00    65.38000     Zn( 1.00)
        O              6.00    15.99900     O ( 1.00)

      2 Sym. Ops. (no inversion) found

                                    s                        frac. trans.

      isym =  1     identity

 cryst.   s( 1) = (     1          0          0      )
                  (     0          1          0      )
                  (     0          0          1      )

 cart.    s( 1) = (  1.0000000  0.0000000  0.0000000 )
                  (  0.0000000  1.0000000  0.0000000 )
                  (  0.0000000  0.0000000  1.0000000 )

      isym =  2     inv. 180 deg rotation - cart. axis [1,0,0]

 cryst.   s( 2) = (    -1          0          0      )
                  (     2          1          0      )
                  (     0          0          1      )

 cart.    s( 2) = ( -1.0000000  0.0000000  0.0000000 )
                  (  0.0000000  1.0000000  0.0000000 )
                  (  0.0000000  0.0000000  1.0000000 )

   Cartesian axes

     site n.     atom                  positions (alat units)
         1           Zn  tau(   1) = (   0.0000000   0.0000000   0.0000000  )
         2           O   tau(   2) = (   0.0000000   0.5773503   0.1723623  )
         3           Zn  tau(   3) = (   0.0000000   0.5773503   0.7748920  )
         4           O   tau(   4) = (   0.0000000   0.0000000   0.9472543  )
         5           Zn  tau(   5) = (  -0.5000000   0.8660254   0.0000000  )
         6           O   tau(   6) = (  -0.5000000   1.4433757   0.1723623  )
         7           Zn  tau(   7) = (  -0.5000000   1.4433757   0.7748920  )
         8           O   tau(   8) = (  -0.5000000   0.8660254   0.9472543  )

   Crystallographic axes

     site n.     atom                  positions (cryst. coord.)
         1           Zn  tau(   1) = (  0.0000000  0.0000000  0.0000000  )
         2           O   tau(   2) = (  0.3333333  0.3333333  0.1112170  )
         3           Zn  tau(   3) = (  0.3333333  0.3333333  0.5000000  )
         4           O   tau(   4) = (  0.0000000  0.0000000  0.6112170  )
         5           Zn  tau(   5) = (  0.0000000  0.5000000  0.0000000  )
         6           O   tau(   6) = (  0.3333333  0.8333333  0.1112170  )
         7           Zn  tau(   7) = (  0.3333333  0.8333333  0.5000000  )
         8           O   tau(   8) = (  0.0000000  0.5000000  0.6112170  )

     number of k points=    80
                       cart. coord. in units 2pi/alat
        k(    1) = (   0.0000000   0.0000000   0.0000000), wk =   0.0092593
        k(    2) = (   0.0000000   0.0000000   0.1075419), wk =   0.0185185
        k(    3) = (   0.0000000   0.0000000   0.2150837), wk =   0.0185185
        k(    4) = (   0.0000000   0.0000000  -0.3226256), wk =   0.0092593
        k(    5) = (   0.0000000   0.0962250   0.0000000), wk =   0.0185185
        k(    6) = (   0.0000000   0.0962250   0.1075419), wk =   0.0185185
        k(    7) = (   0.0000000   0.0962250   0.2150837), wk =   0.0185185
        k(    8) = (   0.0000000   0.0962250  -0.3226256), wk =   0.0185185
        k(    9) = (   0.0000000   0.1924501   0.0000000), wk =   0.0185185
        k(   10) = (   0.0000000   0.1924501   0.1075419), wk =   0.0185185
        k(   11) = (   0.0000000   0.1924501   0.2150837), wk =   0.0185185
        k(   12) = (   0.0000000   0.1924501  -0.3226256), wk =   0.0185185
        k(   13) = (   0.0000000  -0.2886751   0.0000000), wk =   0.0092593
        k(   14) = (   0.0000000  -0.2886751   0.1075419), wk =   0.0185185
        k(   15) = (   0.0000000  -0.2886751   0.2150837), wk =   0.0185185
        k(   16) = (   0.0000000  -0.2886751  -0.3226256), wk =   0.0092593
        k(   17) = (   0.1666667   0.0962250   0.0000000), wk =   0.0370370
        k(   18) = (   0.1666667   0.0962250   0.1075419), wk =   0.0370370
        k(   19) = (   0.1666667   0.0962250   0.2150837), wk =   0.0370370
        k(   20) = (   0.1666667   0.0962250  -0.3226256), wk =   0.0370370
        k(   21) = (   0.1666667   0.1924501   0.0000000), wk =   0.0370370
        k(   22) = (   0.1666667   0.1924501   0.1075419), wk =   0.0370370
        k(   23) = (   0.1666667   0.1924501   0.2150837), wk =   0.0370370
        k(   24) = (   0.1666667   0.1924501  -0.3226256), wk =   0.0370370
        k(   25) = (   0.1666667   0.2886751   0.0000000), wk =   0.0185185
        k(   26) = (   0.1666667   0.2886751   0.1075419), wk =   0.0370370
        k(   27) = (   0.1666667   0.2886751   0.2150837), wk =   0.0370370
        k(   28) = (   0.1666667   0.2886751  -0.3226256), wk =   0.0185185
        k(   29) = (   0.1666667   0.0000000   0.0000000), wk =   0.0185185
        k(   30) = (   0.1666667   0.0000000   0.1075419), wk =   0.0370370
        k(   31) = (   0.1666667   0.0000000   0.2150837), wk =   0.0370370
        k(   32) = (   0.1666667   0.0000000  -0.3226256), wk =   0.0185185
        k(   33) = (   0.3333333   0.1924501   0.0000000), wk =   0.0370370
        k(   34) = (   0.3333333   0.1924501   0.1075419), wk =   0.0370370
        k(   35) = (   0.3333333   0.1924501   0.2150837), wk =   0.0370370
        k(   36) = (   0.3333333   0.1924501  -0.3226256), wk =   0.0370370
        k(   37) = (   0.3333333   0.2886751   0.0000000), wk =   0.0185185
        k(   38) = (   0.3333333   0.2886751   0.1075419), wk =   0.0370370
        k(   39) = (   0.3333333   0.2886751   0.2150837), wk =   0.0370370
        k(   40) = (   0.3333333   0.2886751  -0.3226256), wk =   0.0185185
        k(   41) = (   0.3333333  -0.0962250   0.0000000), wk =   0.0370370
        k(   42) = (   0.3333333  -0.0962250   0.1075419), wk =   0.0370370
        k(   43) = (   0.3333333  -0.0962250   0.2150837), wk =   0.0370370
        k(   44) = (   0.3333333  -0.0962250  -0.3226256), wk =   0.0370370
        k(   45) = (   0.3333333  -0.0000000   0.0000000), wk =   0.0185185
        k(   46) = (   0.3333333  -0.0000000   0.1075419), wk =   0.0370370
        k(   47) = (   0.3333333  -0.0000000   0.2150837), wk =   0.0370370
        k(   48) = (   0.3333333  -0.0000000  -0.3226256), wk =   0.0185185
        k(   49) = (  -0.5000000  -0.2886751   0.0000000), wk =   0.0092593
        k(   50) = (  -0.5000000  -0.2886751   0.1075419), wk =   0.0185185
        k(   51) = (  -0.5000000  -0.2886751   0.2150837), wk =   0.0185185
        k(   52) = (  -0.5000000  -0.2886751  -0.3226256), wk =   0.0092593
        k(   53) = (  -0.5000000  -0.1924501   0.0000000), wk =   0.0185185
        k(   54) = (  -0.5000000  -0.1924501   0.1075419), wk =   0.0185185
        k(   55) = (  -0.5000000  -0.1924501   0.2150837), wk =   0.0185185
        k(   56) = (  -0.5000000  -0.1924501  -0.3226256), wk =   0.0185185
        k(   57) = (  -0.5000000  -0.0962250   0.0000000), wk =   0.0185185
        k(   58) = (  -0.5000000  -0.0962250   0.1075419), wk =   0.0185185
        k(   59) = (  -0.5000000  -0.0962250   0.2150837), wk =   0.0185185
        k(   60) = (  -0.5000000  -0.0962250  -0.3226256), wk =   0.0185185
[...]
        k(   66) = (   0.0000000   0.0962250  -0.2150837), wk =   0.0185185
        k(   67) = (   0.0000000   0.1924501  -0.1075419), wk =   0.0185185
        k(   68) = (   0.0000000   0.1924501  -0.2150837), wk =   0.0185185
        k(   69) = (  -0.1666667   0.0962250  -0.1075419), wk =   0.0370370
        k(   70) = (  -0.1666667   0.0962250  -0.2150837), wk =   0.0370370
        k(   71) = (  -0.1666667   0.1924501  -0.1075419), wk =   0.0370370
        k(   72) = (  -0.1666667   0.1924501  -0.2150837), wk =   0.0370370
        k(   73) = (  -0.3333333   0.1924501  -0.1075419), wk =   0.0370370
        k(   74) = (  -0.3333333   0.1924501  -0.2150837), wk =   0.0370370
        k(   75) = (  -0.3333333  -0.0962250  -0.1075419), wk =   0.0370370
        k(   76) = (  -0.3333333  -0.0962250  -0.2150837), wk =   0.0370370
        k(   77) = (   0.5000000  -0.1924501  -0.1075419), wk =   0.0185185
        k(   78) = (   0.5000000  -0.1924501  -0.2150837), wk =   0.0185185
        k(   79) = (   0.5000000  -0.0962250  -0.1075419), wk =   0.0185185
        k(   80) = (   0.5000000  -0.0962250  -0.2150837), wk =   0.0185185

                       cryst. coord.
        k(    1) = (   0.0000000   0.0000000   0.0000000), wk =   0.0092593
        k(    2) = (   0.0000000   0.0000000   0.1666667), wk =   0.0185185
        k(    3) = (   0.0000000   0.0000000   0.3333333), wk =   0.0185185
        k(    4) = (   0.0000000   0.0000000  -0.5000000), wk =   0.0092593
        k(    5) = (   0.0000000   0.1666667   0.0000000), wk =   0.0185185
        k(    6) = (   0.0000000   0.1666667   0.1666667), wk =   0.0185185
        k(    7) = (   0.0000000   0.1666667   0.3333333), wk =   0.0185185
        k(    8) = (   0.0000000   0.1666667  -0.5000000), wk =   0.0185185
        k(    9) = (   0.0000000   0.3333333   0.0000000), wk =   0.0185185
        k(   10) = (   0.0000000   0.3333333   0.1666667), wk =   0.0185185
        k(   11) = (   0.0000000   0.3333333   0.3333333), wk =   0.0185185
        k(   12) = (   0.0000000   0.3333333  -0.5000000), wk =   0.0185185
        k(   13) = (   0.0000000  -0.5000000   0.0000000), wk =   0.0092593
        k(   14) = (   0.0000000  -0.5000000   0.1666667), wk =   0.0185185
        k(   15) = (   0.0000000  -0.5000000   0.3333333), wk =   0.0185185
        k(   16) = (   0.0000000  -0.5000000  -0.5000000), wk =   0.0092593
        k(   17) = (   0.1666667   0.0000000   0.0000000), wk =   0.0370370
        k(   18) = (   0.1666667   0.0000000   0.1666667), wk =   0.0370370
        k(   19) = (   0.1666667   0.0000000   0.3333333), wk =   0.0370370
        k(   20) = (   0.1666667   0.0000000  -0.5000000), wk =   0.0370370
        k(   21) = (   0.1666667   0.1666667   0.0000000), wk =   0.0370370
        k(   22) = (   0.1666667   0.1666667   0.1666667), wk =   0.0370370
        k(   23) = (   0.1666667   0.1666667   0.3333333), wk =   0.0370370
        k(   24) = (   0.1666667   0.1666667  -0.5000000), wk =   0.0370370
        k(   25) = (   0.1666667   0.3333333   0.0000000), wk =   0.0185185
        k(   26) = (   0.1666667   0.3333333   0.1666667), wk =   0.0370370
        k(   27) = (   0.1666667   0.3333333   0.3333333), wk =   0.0370370
        k(   28) = (   0.1666667   0.3333333  -0.5000000), wk =   0.0185185
        k(   29) = (   0.1666667  -0.1666667   0.0000000), wk =   0.0185185
        k(   30) = (   0.1666667  -0.1666667   0.1666667), wk =   0.0370370
        k(   31) = (   0.1666667  -0.1666667   0.3333333), wk =   0.0370370
        k(   32) = (   0.1666667  -0.1666667  -0.5000000), wk =   0.0185185
        k(   33) = (   0.3333333   0.0000000   0.0000000), wk =   0.0370370
        k(   34) = (   0.3333333   0.0000000   0.1666667), wk =   0.0370370
        k(   35) = (   0.3333333   0.0000000   0.3333333), wk =   0.0370370
        k(   36) = (   0.3333333   0.0000000  -0.5000000), wk =   0.0370370
        k(   37) = (   0.3333333   0.1666667   0.0000000), wk =   0.0185185
        k(   38) = (   0.3333333   0.1666667   0.1666667), wk =   0.0370370
        k(   39) = (   0.3333333   0.1666667   0.3333333), wk =   0.0370370
        k(   40) = (   0.3333333   0.1666667  -0.5000000), wk =   0.0185185
        k(   41) = (   0.3333333  -0.5000000   0.0000000), wk =   0.0370370
        k(   42) = (   0.3333333  -0.5000000   0.1666667), wk =   0.0370370
        k(   43) = (   0.3333333  -0.5000000   0.3333333), wk =   0.0370370
        k(   44) = (   0.3333333  -0.5000000  -0.5000000), wk =   0.0370370
        k(   45) = (   0.3333333  -0.3333333   0.0000000), wk =   0.0185185
        k(   46) = (   0.3333333  -0.3333333   0.1666667), wk =   0.0370370
        k(   47) = (   0.3333333  -0.3333333   0.3333333), wk =   0.0370370
        k(   48) = (   0.3333333  -0.3333333  -0.5000000), wk =   0.0185185
        k(   49) = (  -0.5000000  -0.0000000   0.0000000), wk =   0.0092593
        k(   50) = (  -0.5000000  -0.0000000   0.1666667), wk =   0.0185185
        k(   51) = (  -0.5000000  -0.0000000   0.3333333), wk =   0.0185185
        k(   52) = (  -0.5000000  -0.0000000  -0.5000000), wk =   0.0092593
        k(   53) = (  -0.5000000   0.1666667   0.0000000), wk =   0.0185185
        k(   54) = (  -0.5000000   0.1666667   0.1666667), wk =   0.0185185
        k(   55) = (  -0.5000000   0.1666667   0.3333333), wk =   0.0185185
        k(   56) = (  -0.5000000   0.1666667  -0.5000000), wk =   0.0185185
        k(   57) = (  -0.5000000   0.3333333   0.0000000), wk =   0.0185185
        k(   58) = (  -0.5000000   0.3333333   0.1666667), wk =   0.0185185
        k(   59) = (  -0.5000000   0.3333333   0.3333333), wk =   0.0185185
        k(   60) = (  -0.5000000   0.3333333  -0.5000000), wk =   0.0185185
[...]
        k(   66) = (   0.0000000   0.1666667  -0.3333333), wk =   0.0185185
        k(   67) = (   0.0000000   0.3333333  -0.1666667), wk =   0.0185185
        k(   68) = (   0.0000000   0.3333333  -0.3333333), wk =   0.0185185
        k(   69) = (  -0.1666667   0.3333333  -0.1666667), wk =   0.0370370
        k(   70) = (  -0.1666667   0.3333333  -0.3333333), wk =   0.0370370
        k(   71) = (  -0.1666667   0.5000000  -0.1666667), wk =   0.0370370
        k(   72) = (  -0.1666667   0.5000000  -0.3333333), wk =   0.0370370
        k(   73) = (  -0.3333333   0.6666667  -0.1666667), wk =   0.0370370
        k(   74) = (  -0.3333333   0.6666667  -0.3333333), wk =   0.0370370
        k(   75) = (  -0.3333333   0.1666667  -0.1666667), wk =   0.0370370
        k(   76) = (  -0.3333333   0.1666667  -0.3333333), wk =   0.0370370
        k(   77) = (   0.5000000  -0.8333333  -0.1666667), wk =   0.0185185
        k(   78) = (   0.5000000  -0.8333333  -0.3333333), wk =   0.0185185
        k(   79) = (   0.5000000  -0.6666667  -0.1666667), wk =   0.0185185
        k(   80) = (   0.5000000  -0.6666667  -0.3333333), wk =   0.0185185

     Initial potential from superposition of free atoms

     starting charge      71.9851, renormalised to      72.0000
     Starting wfcs are   52 randomized atomic wfcs

     Self-consistent Calculation

     iteration #  1     ecut=    50.00 Ry     beta= 0.30
     Davidson diagonalization with overlap

     ethr =  1.00E-02,  avg # of iterations =  2.2

     total energy              =    -722.49118373 Ry
     estimated scf accuracy    <       1.38375829 Ry

[...]

     total energy              =    -722.73992914 Ry
     estimated scf accuracy    <       0.00000008 Ry

     iteration # 24     ecut=    50.00 Ry     beta= 0.30
     Davidson diagonalization with overlap

     ethr =  4.40E-11,  avg # of iterations =  5.2

     End of self-consistent calculation

          k = 0.0000 0.0000 0.0000 (  2783 PWs)   bands (ev):

    -8.1440  -6.8766  -6.6883  -6.4283   4.5722   4.6461   4.6507   5.2281
     5.2283   5.4929   5.4930   5.5685   5.7382   5.8479   6.4853   6.5954
     7.6343   7.6343   7.7327   7.9627   8.0745   8.1164   8.1164   8.2186
     8.3890   8.6707   9.0339   9.4889   9.7071  11.5375  11.8459  12.0645
    12.0647  12.9751  13.3099  13.3101

     occupation numbers
     1.0000   1.0000   1.0000   1.0000   1.0000   1.0000   1.0000   1.0000
     1.0000   1.0000   1.0000   1.0000   1.0000   1.0000   1.0000   1.0000
     1.0000   1.0000   1.0000   1.0000   1.0000   1.0000   1.0000   1.0000
     1.0000   1.0000   1.0000   1.0000   1.0000   1.0000   1.0000   1.0000
     1.0000   1.0000   1.0000   1.0000

[...]

          k =-0.5000-0.2887 0.0000 (  2744 PWs)   bands (ev):

[...]

          k =-0.3333-0.0962-0.2151 (  2741 PWs)   bands (ev):

[...]

          k = 0.5000-0.0962-0.2151 (  2744 PWs)   bands (ev):

    -6.7516  -6.7515  -6.5092  -6.5091   4.4473   4.4473   4.5261   4.5261
     5.6017   5.6017   5.6856   5.6857   6.1658   6.1658   6.2727   6.2727
     7.7708   7.7708   7.9445   7.9445   8.1841   8.1841   8.3959   8.3959
     8.7114   8.7114   9.1598   9.1598   9.8057   9.8057  10.6104  10.6104
    11.0195  11.0195  11.7804  11.7804

     occupation numbers
     1.0000   1.0000   1.0000   1.0000   1.0000   1.0000   1.0000   1.0000
     1.0000   1.0000   1.0000   1.0000   1.0000   1.0000   1.0000   1.0000
     1.0000   1.0000   1.0000   1.0000   1.0000   1.0000   1.0000   1.0000
     1.0000   1.0000   1.0000   1.0000   1.0000   1.0000   1.0000   1.0000
     1.0000   1.0000   1.0000   1.0000

     highest occupied level (ev):    13.3101

!    total energy              =    -722.73992915 Ry
     estimated scf accuracy    <          1.0E-09 Ry

     The total energy is the sum of the following terms:
     one-electron contribution =    -223.23979962 Ry
     hartree contribution      =     207.55870384 Ry
     xc contribution           =    -220.90986940 Ry
     ewald contribution        =    -486.14896398 Ry

     convergence has been achieved in  24 iterations

     Forces acting on atoms (cartesian axes, Ry/au):

     atom    1 type  1   force =     0.00000000    0.00003404    0.01902458
     atom    2 type  2   force =     0.00000000    0.00000149   -0.01902935
     atom    3 type  1   force =     0.00000000   -0.00003787    0.01903088
     atom    4 type  2   force =     0.00000000   -0.00000021   -0.01902533
     atom    5 type  1   force =     0.00000000   -0.00001202    0.01901525
     atom    6 type  2   force =     0.00000000    0.00001481   -0.01902304
     atom    7 type  1   force =     0.00000000    0.00001393    0.01902616
     atom    8 type  2   force =     0.00000000   -0.00001416   -0.01901915
     The non-local contrib.  to forces
     atom    1 type  1   force =     0.00000000   -0.00002891    0.08259928
     atom    2 type  2   force =     0.00000000    0.00016153    0.05135947
     atom    3 type  1   force =     0.00000000    0.00002876    0.08259927
     atom    4 type  2   force =     0.00000000   -0.00016240    0.05136091
     atom    5 type  1   force =     0.00000000   -0.00004609    0.08259763
     atom    6 type  2   force =     0.00000000    0.00016448    0.05136314
     atom    7 type  1   force =     0.00000000    0.00004614    0.08259958
     atom    8 type  2   force =     0.00000000   -0.00016578    0.05136374
     The ionic contribution  to forces
     atom    1 type  1   force =     0.00000000   -0.00000000    0.52804223
     atom    2 type  2   force =    -0.00000000    0.00000000   -0.52804223
     atom    3 type  1   force =     0.00000000    0.00000000    0.52804223
     atom    4 type  2   force =     0.00000000   -0.00000000   -0.52804223
     atom    5 type  1   force =     0.00000000   -0.00000000    0.52804223
     atom    6 type  2   force =    -0.00000000    0.00000000   -0.52804223
     atom    7 type  1   force =     0.00000000    0.00000000    0.52804223
     atom    8 type  2   force =     0.00000000   -0.00000000   -0.52804223
     The local contribution  to forces
     atom    1 type  1   force =     0.00000000    0.00002890   -0.58339064
     atom    2 type  2   force =     0.00000000   -0.00013977    0.45795873
     atom    3 type  1   force =    -0.00000000   -0.00002675   -0.58338941
     atom    4 type  2   force =     0.00000000    0.00014454    0.45795704
     atom    5 type  1   force =    -0.00000000    0.00008429   -0.58339084
     atom    6 type  2   force =    -0.00000000   -0.00017471    0.45795016
     atom    7 type  1   force =     0.00000000   -0.00008485   -0.58339235
     atom    8 type  2   force =    -0.00000000    0.00017404    0.45795023
     The core correction contribution to forces
     atom    1 type  1   force =    -0.00000000   -0.00000411   -0.00822979
     atom    2 type  2   force =    -0.00000000   -0.00000177   -0.00029245
     atom    3 type  1   force =     0.00000000    0.00000415   -0.00823007
     atom    4 type  2   force =     0.00000000    0.00000180   -0.00029247
     atom    5 type  1   force =    -0.00000000   -0.00000424   -0.00822943
     atom    6 type  2   force =     0.00000000   -0.00000187   -0.00029252
     atom    7 type  1   force =    -0.00000000    0.00000429   -0.00822977
     atom    8 type  2   force =    -0.00000000    0.00000189   -0.00029252
     The Hubbard contrib.    to forces
     atom    1 type  1   force =     0.00000000    0.00000000    0.00000000
     atom    2 type  2   force =     0.00000000    0.00000000    0.00000000
     atom    3 type  1   force =     0.00000000    0.00000000    0.00000000
     atom    4 type  2   force =     0.00000000    0.00000000    0.00000000
     atom    5 type  1   force =     0.00000000    0.00000000    0.00000000
     atom    6 type  2   force =     0.00000000    0.00000000    0.00000000
     atom    7 type  1   force =     0.00000000    0.00000000    0.00000000
     atom    8 type  2   force =     0.00000000    0.00000000    0.00000000
     The SCF correction term to forces
     atom    1 type  1   force =     0.00000000    0.00003741    0.00000940
     atom    2 type  2   force =    -0.00000000   -0.00001925   -0.00000698
     atom    3 type  1   force =    -0.00000000   -0.00004479    0.00001476
     atom    4 type  2   force =     0.00000000    0.00001509   -0.00000270
     atom    5 type  1   force =     0.00000000   -0.00004673    0.00000156
     atom    6 type  2   force =     0.00000000    0.00002615    0.00000430
     atom    7 type  1   force =    -0.00000000    0.00004760    0.00001238
     atom    8 type  2   force =     0.00000000   -0.00002506    0.00000751

     Total force =     0.053809     Total SCF correction =     0.000102

     General routines

     Parallel routines

   This run was terminated on:  11:10:20  13Jul2025

   JOB DONE.
Note: The following floating-point exceptions are signalling: IEEE_INVALID_FLAG
Note: The following floating-point exceptions are signalling: IEEE_INVALID_FLAG