     Program PWSCF v.7.2 starts on 14Jul2025 at  0:51:23

     Reading input from /home/jvc/QEspresso7.2/ZnO_database/scripts/cell121.in/ZnO-3.60-1.74-121.in
Warning: card &CELL ignored
Warning: card / ignored
Warning: card &FCP ignored
Warning: card / ignored
Warning: card &RISM ignored
Warning: card / ignored

     Current dimensions of program PWSCF are:
     Max number of different atomic species (ntypx) = 10
     Max number of k-points (npk) =  40000
     Max angular momentum in pseudopotentials (lmaxx) =  4
     file Zn.upf: wavefunction(s)  3D renormalized
     Found identity + (  0.0000 -0.5000  0.0000) symmetry
     This is a supercell, fractional translations are disabled
     Message from routine setup:
     using ibrav=0 with symmetry is DISCOURAGED, use correct ibrav instead

     K-points division:     npool     =       2
     R & G space division:  proc/nbgrp/npool/nimage =       4
     Subspace diagonalization in iterative solution of the eigenvalue problem:
     a serial algorithm will be used

     Using Slab Decomposition

     bravais-lattice index     =            0
     lattice parameter (alat)  =       6.7967  a.u.
     unit-cell volume          =     948.1699 (a.u.)^3
     number of atoms/cell      =            8
     number of atomic types    =            2
     number of electrons       =        72.00
     number of Kohn-Sham states=           36
     kinetic-energy cutoff     =      50.0000  Ry
     charge density cutoff     =     400.0000  Ry
     scf convergence threshold =      1.0E-08
     mixing beta               =       0.3000
     number of iterations used =            8  plain     mixing
     Exchange-correlation= PBE
                           (   1   4   3   4   0   0   0)

     celldm(1)=   6.796739  celldm(2)=   0.000000  celldm(3)=   0.000000
     celldm(4)=   0.000000  celldm(5)=   0.000000  celldm(6)=   0.000000

     crystal axes: (cart. coord. in units of alat)
               a(1) = (   1.000000   0.000000   0.000000 )
               a(2) = (  -1.000000   1.732051   0.000000 )
               a(3) = (   0.000000   0.000000   1.743507 )

     reciprocal axes: (cart. coord. in units 2 pi/alat)
               b(1) = (  1.000000  0.577350 -0.000000 )
               b(2) = (  0.000000  0.577350  0.000000 )
               b(3) = (  0.000000 -0.000000  0.573557 )

     PseudoPot. # 1 for Zn read from file:
     /home/jvc/QEspresso7.2/ZnO_database/pseudos/Zn.upf
     MD5 check sum: 7f56cabf9682ed8c977c2f7d0c5985c5
     Pseudo is Ultrasoft + core correction, Zval = 12.0
     Generated using &quot;atomic&quot; code by A. Dal Corso  v.6.2.2
     Using radial grid of 1201 points,  6 beta functions with:
                l(1) =   0
                l(2) =   0
                l(3) =   1
                l(4) =   1
                l(5) =   2
                l(6) =   2
     Q(r) pseudized with 0 coefficients

     PseudoPot. # 2 for O  read from file:
     /home/jvc/QEspresso7.2/ZnO_database/pseudos/O.upf
     MD5 check sum: 91400c9766925bcf19f520983a725ff0
     Pseudo is Ultrasoft + core correction, Zval =  6.0
     Generated using &quot;atomic&quot; code by A. Dal Corso  v.6.3MaX
     Using radial grid of 1095 points,  4 beta functions with:
                l(1) =   0
                l(2) =   0
                l(3) =   1
                l(4) =   1
     Q(r) pseudized with 0 coefficients

     atomic species   valence    mass     pseudopotential
        Zn            12.00    65.38000     Zn( 1.00)
        O              6.00    15.99900     O ( 1.00)

      2 Sym. Ops. (no inversion) found

                                    s                        frac. trans.

      isym =  1     identity

 cryst.   s( 1) = (     1          0          0      )
                  (     0          1          0      )
                  (     0          0          1      )

 cart.    s( 1) = (  1.0000000  0.0000000  0.0000000 )
                  (  0.0000000  1.0000000  0.0000000 )
                  (  0.0000000  0.0000000  1.0000000 )

      isym =  2     inv. 180 deg rotation - cart. axis [1,0,0]

 cryst.   s( 2) = (    -1          0          0      )
                  (     2          1          0      )
                  (     0          0          1      )

 cart.    s( 2) = ( -1.0000000  0.0000000  0.0000000 )
                  (  0.0000000  1.0000000  0.0000000 )
                  (  0.0000000  0.0000000  1.0000000 )

   Cartesian axes

     site n.     atom                  positions (alat units)
         1           Zn  tau(   1) = (   0.0000000   0.0000000   0.0000000  )
         2           O   tau(   2) = (   0.0000000   0.5773503   0.2446912  )
         3           Zn  tau(   3) = (   0.0000000   0.5773503   0.8717535  )
         4           O   tau(   4) = (   0.0000000   0.0000000   1.1164447  )
         5           Zn  tau(   5) = (  -0.5000000   0.8660254   0.0000000  )
         6           O   tau(   6) = (  -0.5000000   1.4433757   0.2446912  )
         7           Zn  tau(   7) = (  -0.5000000   1.4433757   0.8717535  )
         8           O   tau(   8) = (  -0.5000000   0.8660254   1.1164447  )

   Crystallographic axes

     site n.     atom                  positions (cryst. coord.)
         1           Zn  tau(   1) = (  0.0000000  0.0000000  0.0000000  )
         2           O   tau(   2) = (  0.3333333  0.3333333  0.1403443  )
         3           Zn  tau(   3) = (  0.3333333  0.3333333  0.5000000  )
         4           O   tau(   4) = (  0.0000000  0.0000000  0.6403443  )
         5           Zn  tau(   5) = (  0.0000000  0.5000000  0.0000000  )
         6           O   tau(   6) = (  0.3333333  0.8333333  0.1403443  )
         7           Zn  tau(   7) = (  0.3333333  0.8333333  0.5000000  )
         8           O   tau(   8) = (  0.0000000  0.5000000  0.6403443  )

     number of k points=    80
                       cart. coord. in units 2pi/alat
        k(    1) = (   0.0000000   0.0000000   0.0000000), wk =   0.0092593
        k(    2) = (   0.0000000   0.0000000   0.0955928), wk =   0.0185185
        k(    3) = (   0.0000000   0.0000000   0.1911855), wk =   0.0185185
        k(    4) = (   0.0000000   0.0000000  -0.2867783), wk =   0.0092593
        k(    5) = (   0.0000000   0.0962250   0.0000000), wk =   0.0185185
        k(    6) = (   0.0000000   0.0962250   0.0955928), wk =   0.0185185
        k(    7) = (   0.0000000   0.0962250   0.1911855), wk =   0.0185185
        k(    8) = (   0.0000000   0.0962250  -0.2867783), wk =   0.0185185
        k(    9) = (   0.0000000   0.1924501   0.0000000), wk =   0.0185185
        k(   10) = (   0.0000000   0.1924501   0.0955928), wk =   0.0185185
        k(   11) = (   0.0000000   0.1924501   0.1911855), wk =   0.0185185
        k(   12) = (   0.0000000   0.1924501  -0.2867783), wk =   0.0185185
        k(   13) = (   0.0000000  -0.2886751   0.0000000), wk =   0.0092593
        k(   14) = (   0.0000000  -0.2886751   0.0955928), wk =   0.0185185
        k(   15) = (   0.0000000  -0.2886751   0.1911855), wk =   0.0185185
        k(   16) = (   0.0000000  -0.2886751  -0.2867783), wk =   0.0092593
        k(   17) = (   0.1666667   0.0962250   0.0000000), wk =   0.0370370
        k(   18) = (   0.1666667   0.0962250   0.0955928), wk =   0.0370370
        k(   19) = (   0.1666667   0.0962250   0.1911855), wk =   0.0370370
        k(   20) = (   0.1666667   0.0962250  -0.2867783), wk =   0.0370370
        k(   21) = (   0.1666667   0.1924501   0.0000000), wk =   0.0370370
        k(   22) = (   0.1666667   0.1924501   0.0955928), wk =   0.0370370
        k(   23) = (   0.1666667   0.1924501   0.1911855), wk =   0.0370370
        k(   24) = (   0.1666667   0.1924501  -0.2867783), wk =   0.0370370
        k(   25) = (   0.1666667   0.2886751   0.0000000), wk =   0.0185185
        k(   26) = (   0.1666667   0.2886751   0.0955928), wk =   0.0370370
        k(   27) = (   0.1666667   0.2886751   0.1911855), wk =   0.0370370
        k(   28) = (   0.1666667   0.2886751  -0.2867783), wk =   0.0185185
        k(   29) = (   0.1666667   0.0000000   0.0000000), wk =   0.0185185
        k(   30) = (   0.1666667   0.0000000   0.0955928), wk =   0.0370370
        k(   31) = (   0.1666667   0.0000000   0.1911855), wk =   0.0370370
        k(   32) = (   0.1666667   0.0000000  -0.2867783), wk =   0.0185185
        k(   33) = (   0.3333333   0.1924501   0.0000000), wk =   0.0370370
        k(   34) = (   0.3333333   0.1924501   0.0955928), wk =   0.0370370
        k(   35) = (   0.3333333   0.1924501   0.1911855), wk =   0.0370370
        k(   36) = (   0.3333333   0.1924501  -0.2867783), wk =   0.0370370
        k(   37) = (   0.3333333   0.2886751   0.0000000), wk =   0.0185185
        k(   38) = (   0.3333333   0.2886751   0.0955928), wk =   0.0370370
        k(   39) = (   0.3333333   0.2886751   0.1911855), wk =   0.0370370
        k(   40) = (   0.3333333   0.2886751  -0.2867783), wk =   0.0185185
        k(   41) = (   0.3333333  -0.0962250   0.0000000), wk =   0.0370370
        k(   42) = (   0.3333333  -0.0962250   0.0955928), wk =   0.0370370
        k(   43) = (   0.3333333  -0.0962250   0.1911855), wk =   0.0370370
        k(   44) = (   0.3333333  -0.0962250  -0.2867783), wk =   0.0370370
        k(   45) = (   0.3333333  -0.0000000   0.0000000), wk =   0.0185185
        k(   46) = (   0.3333333  -0.0000000   0.0955928), wk =   0.0370370
        k(   47) = (   0.3333333  -0.0000000   0.1911855), wk =   0.0370370
        k(   48) = (   0.3333333  -0.0000000  -0.2867783), wk =   0.0185185
        k(   49) = (  -0.5000000  -0.2886751   0.0000000), wk =   0.0092593
        k(   50) = (  -0.5000000  -0.2886751   0.0955928), wk =   0.0185185
        k(   51) = (  -0.5000000  -0.2886751   0.1911855), wk =   0.0185185
        k(   52) = (  -0.5000000  -0.2886751  -0.2867783), wk =   0.0092593
        k(   53) = (  -0.5000000  -0.1924501   0.0000000), wk =   0.0185185
        k(   54) = (  -0.5000000  -0.1924501   0.0955928), wk =   0.0185185
        k(   55) = (  -0.5000000  -0.1924501   0.1911855), wk =   0.0185185
        k(   56) = (  -0.5000000  -0.1924501  -0.2867783), wk =   0.0185185
        k(   57) = (  -0.5000000  -0.0962250   0.0000000), wk =   0.0185185
        k(   58) = (  -0.5000000  -0.0962250   0.0955928), wk =   0.0185185
        k(   59) = (  -0.5000000  -0.0962250   0.1911855), wk =   0.0185185
        k(   60) = (  -0.5000000  -0.0962250  -0.2867783), wk =   0.0185185
[...]
        k(   66) = (   0.0000000   0.0962250  -0.1911855), wk =   0.0185185
        k(   67) = (   0.0000000   0.1924501  -0.0955928), wk =   0.0185185
        k(   68) = (   0.0000000   0.1924501  -0.1911855), wk =   0.0185185
        k(   69) = (  -0.1666667   0.0962250  -0.0955928), wk =   0.0370370
        k(   70) = (  -0.1666667   0.0962250  -0.1911855), wk =   0.0370370
        k(   71) = (  -0.1666667   0.1924501  -0.0955928), wk =   0.0370370
        k(   72) = (  -0.1666667   0.1924501  -0.1911855), wk =   0.0370370
        k(   73) = (  -0.3333333   0.1924501  -0.0955928), wk =   0.0370370
        k(   74) = (  -0.3333333   0.1924501  -0.1911855), wk =   0.0370370
        k(   75) = (  -0.3333333  -0.0962250  -0.0955928), wk =   0.0370370
        k(   76) = (  -0.3333333  -0.0962250  -0.1911855), wk =   0.0370370
        k(   77) = (   0.5000000  -0.1924501  -0.0955928), wk =   0.0185185
        k(   78) = (   0.5000000  -0.1924501  -0.1911855), wk =   0.0185185
        k(   79) = (   0.5000000  -0.0962250  -0.0955928), wk =   0.0185185
        k(   80) = (   0.5000000  -0.0962250  -0.1911855), wk =   0.0185185

                       cryst. coord.
        k(    1) = (   0.0000000   0.0000000   0.0000000), wk =   0.0092593
        k(    2) = (   0.0000000   0.0000000   0.1666667), wk =   0.0185185
        k(    3) = (   0.0000000   0.0000000   0.3333333), wk =   0.0185185
        k(    4) = (   0.0000000   0.0000000  -0.5000000), wk =   0.0092593
        k(    5) = (   0.0000000   0.1666667   0.0000000), wk =   0.0185185
        k(    6) = (   0.0000000   0.1666667   0.1666667), wk =   0.0185185
        k(    7) = (   0.0000000   0.1666667   0.3333333), wk =   0.0185185
        k(    8) = (   0.0000000   0.1666667  -0.5000000), wk =   0.0185185
        k(    9) = (   0.0000000   0.3333333   0.0000000), wk =   0.0185185
        k(   10) = (   0.0000000   0.3333333   0.1666667), wk =   0.0185185
        k(   11) = (   0.0000000   0.3333333   0.3333333), wk =   0.0185185
        k(   12) = (   0.0000000   0.3333333  -0.5000000), wk =   0.0185185
        k(   13) = (   0.0000000  -0.5000000   0.0000000), wk =   0.0092593
        k(   14) = (   0.0000000  -0.5000000   0.1666667), wk =   0.0185185
        k(   15) = (   0.0000000  -0.5000000   0.3333333), wk =   0.0185185
        k(   16) = (   0.0000000  -0.5000000  -0.5000000), wk =   0.0092593
        k(   17) = (   0.1666667   0.0000000   0.0000000), wk =   0.0370370
        k(   18) = (   0.1666667   0.0000000   0.1666667), wk =   0.0370370
        k(   19) = (   0.1666667   0.0000000   0.3333333), wk =   0.0370370
        k(   20) = (   0.1666667   0.0000000  -0.5000000), wk =   0.0370370
        k(   21) = (   0.1666667   0.1666667   0.0000000), wk =   0.0370370
        k(   22) = (   0.1666667   0.1666667   0.1666667), wk =   0.0370370
        k(   23) = (   0.1666667   0.1666667   0.3333333), wk =   0.0370370
        k(   24) = (   0.1666667   0.1666667  -0.5000000), wk =   0.0370370
        k(   25) = (   0.1666667   0.3333333   0.0000000), wk =   0.0185185
        k(   26) = (   0.1666667   0.3333333   0.1666667), wk =   0.0370370
        k(   27) = (   0.1666667   0.3333333   0.3333333), wk =   0.0370370
        k(   28) = (   0.1666667   0.3333333  -0.5000000), wk =   0.0185185
        k(   29) = (   0.1666667  -0.1666667   0.0000000), wk =   0.0185185
        k(   30) = (   0.1666667  -0.1666667   0.1666667), wk =   0.0370370
        k(   31) = (   0.1666667  -0.1666667   0.3333333), wk =   0.0370370
        k(   32) = (   0.1666667  -0.1666667  -0.5000000), wk =   0.0185185
        k(   33) = (   0.3333333   0.0000000   0.0000000), wk =   0.0370370
        k(   34) = (   0.3333333   0.0000000   0.1666667), wk =   0.0370370
        k(   35) = (   0.3333333   0.0000000   0.3333333), wk =   0.0370370
        k(   36) = (   0.3333333   0.0000000  -0.5000000), wk =   0.0370370
        k(   37) = (   0.3333333   0.1666667   0.0000000), wk =   0.0185185
        k(   38) = (   0.3333333   0.1666667   0.1666667), wk =   0.0370370
        k(   39) = (   0.3333333   0.1666667   0.3333333), wk =   0.0370370
        k(   40) = (   0.3333333   0.1666667  -0.5000000), wk =   0.0185185
        k(   41) = (   0.3333333  -0.5000000   0.0000000), wk =   0.0370370
        k(   42) = (   0.3333333  -0.5000000   0.1666667), wk =   0.0370370
        k(   43) = (   0.3333333  -0.5000000   0.3333333), wk =   0.0370370
        k(   44) = (   0.3333333  -0.5000000  -0.5000000), wk =   0.0370370
        k(   45) = (   0.3333333  -0.3333333   0.0000000), wk =   0.0185185
        k(   46) = (   0.3333333  -0.3333333   0.1666667), wk =   0.0370370
        k(   47) = (   0.3333333  -0.3333333   0.3333333), wk =   0.0370370
        k(   48) = (   0.3333333  -0.3333333  -0.5000000), wk =   0.0185185
        k(   49) = (  -0.5000000   0.0000000   0.0000000), wk =   0.0092593
        k(   50) = (  -0.5000000   0.0000000   0.1666667), wk =   0.0185185
        k(   51) = (  -0.5000000   0.0000000   0.3333333), wk =   0.0185185
        k(   52) = (  -0.5000000   0.0000000  -0.5000000), wk =   0.0092593
        k(   53) = (  -0.5000000   0.1666667   0.0000000), wk =   0.0185185
        k(   54) = (  -0.5000000   0.1666667   0.1666667), wk =   0.0185185
        k(   55) = (  -0.5000000   0.1666667   0.3333333), wk =   0.0185185
        k(   56) = (  -0.5000000   0.1666667  -0.5000000), wk =   0.0185185
        k(   57) = (  -0.5000000   0.3333333   0.0000000), wk =   0.0185185
        k(   58) = (  -0.5000000   0.3333333   0.1666667), wk =   0.0185185
        k(   59) = (  -0.5000000   0.3333333   0.3333333), wk =   0.0185185
        k(   60) = (  -0.5000000   0.3333333  -0.5000000), wk =   0.0185185
[...]
        k(   66) = (   0.0000000   0.1666667  -0.3333333), wk =   0.0185185
        k(   67) = (   0.0000000   0.3333333  -0.1666667), wk =   0.0185185
        k(   68) = (   0.0000000   0.3333333  -0.3333333), wk =   0.0185185
        k(   69) = (  -0.1666667   0.3333333  -0.1666667), wk =   0.0370370
        k(   70) = (  -0.1666667   0.3333333  -0.3333333), wk =   0.0370370
        k(   71) = (  -0.1666667   0.5000000  -0.1666667), wk =   0.0370370
        k(   72) = (  -0.1666667   0.5000000  -0.3333333), wk =   0.0370370
        k(   73) = (  -0.3333333   0.6666667  -0.1666667), wk =   0.0370370
        k(   74) = (  -0.3333333   0.6666667  -0.3333333), wk =   0.0370370
        k(   75) = (  -0.3333333   0.1666667  -0.1666667), wk =   0.0370370
        k(   76) = (  -0.3333333   0.1666667  -0.3333333), wk =   0.0370370
        k(   77) = (   0.5000000  -0.8333333  -0.1666667), wk =   0.0185185
        k(   78) = (   0.5000000  -0.8333333  -0.3333333), wk =   0.0185185
        k(   79) = (   0.5000000  -0.6666667  -0.1666667), wk =   0.0185185
        k(   80) = (   0.5000000  -0.6666667  -0.3333333), wk =   0.0185185

     Check: negative core charge=   -0.000002

     Initial potential from superposition of free atoms

     starting charge      71.9851, renormalised to      72.0000
     Starting wfcs are   52 randomized atomic wfcs

     Self-consistent Calculation

     iteration #  1     ecut=    50.00 Ry     beta= 0.30
     Davidson diagonalization with overlap

     ethr =  1.00E-02,  avg # of iterations =  1.1

     total energy              =    -722.52645627 Ry
     estimated scf accuracy    <       1.85419089 Ry

[...]

     c_bands:  1 eigenvalues not converged
     ethr =  6.69E-10,  avg # of iterations =  8.8

[...]

     total energy              =    -722.98320061 Ry
     estimated scf accuracy    <       0.00000002 Ry

     iteration # 33     ecut=    50.00 Ry     beta= 0.30
     Davidson diagonalization with overlap

     ethr =  2.01E-11,  avg # of iterations =  5.1

     End of self-consistent calculation

          k = 0.0000 0.0000 0.0000 (  5711 PWs)   bands (ev):

   -13.1889 -12.9454 -12.9020 -12.8279  -2.2234  -2.1496  -2.1493  -2.1451
    -2.0723  -2.0722  -2.0705  -2.0126  -1.9861  -1.8645  -1.8325  -1.8160
    -1.8159  -1.7720  -1.7464  -1.7464  -1.7454  -1.7297  -1.6893  -1.6839
    -0.7982  -0.2567   0.2485   0.8307   1.6352   1.7664   2.3083   2.3166
     2.3177   2.4396   2.6957   2.6968

     occupation numbers
     1.0000   1.0000   1.0000   1.0000   1.0000   1.0000   1.0000   1.0000
     1.0000   1.0000   1.0000   1.0000   1.0000   1.0000   1.0000   1.0000
     1.0000   1.0000   1.0000   1.0000   1.0000   1.0000   1.0000   1.0000
     1.0000   1.0000   1.0000   1.0000   1.0000   1.0000   1.0000   1.0000
     1.0000   1.0000   1.0000   1.0000

[...]

          k =-0.5000-0.2887 0.0000 (  5668 PWs)   bands (ev):

[...]

          k =-0.3333-0.0962-0.1912 (  5655 PWs)   bands (ev):

[...]

          k = 0.5000-0.0962-0.1912 (  5652 PWs)   bands (ev):

   -12.8842 -12.8841 -12.8456 -12.8455  -2.1195  -2.1195  -2.0793  -2.0793
    -2.0245  -2.0245  -1.9370  -1.9370  -1.8991  -1.8991  -1.8728  -1.8728
    -1.7923  -1.7923  -1.7648  -1.7648  -1.6974  -1.6974  -1.6610  -1.6609
    -0.1033  -0.1033   0.0851   0.0851   1.2964   1.2965   1.5564   1.5565
     1.7949   1.7950   1.9364   1.9364

     occupation numbers
     1.0000   1.0000   1.0000   1.0000   1.0000   1.0000   1.0000   1.0000
     1.0000   1.0000   1.0000   1.0000   1.0000   1.0000   1.0000   1.0000
     1.0000   1.0000   1.0000   1.0000   1.0000   1.0000   1.0000   1.0000
     1.0000   1.0000   1.0000   1.0000   1.0000   1.0000   1.0000   1.0000
     1.0000   1.0000   1.0000   1.0000

     highest occupied level (ev):     2.6968

!    total energy              =    -722.98320062 Ry
     estimated scf accuracy    <          1.0E-09 Ry

     The total energy is the sum of the following terms:
     one-electron contribution =    -387.22829531 Ry
     hartree contribution      =     265.17198530 Ry
     xc contribution           =    -217.84988950 Ry
     ewald contribution        =    -383.07700111 Ry

     convergence has been achieved in  33 iterations

     Forces acting on atoms (cartesian axes, Ry/au):

     atom    1 type  1   force =     0.00000000   -0.00001130    0.01428585
     atom    2 type  2   force =     0.00000000    0.00001001   -0.01428160
     atom    3 type  1   force =     0.00000000    0.00002101    0.01428167
     atom    4 type  2   force =     0.00000000   -0.00000997   -0.01427993
     atom    5 type  1   force =     0.00000000   -0.00000887    0.01427906
     atom    6 type  2   force =     0.00000000    0.00000959   -0.01428146
     atom    7 type  1   force =     0.00000000   -0.00000110    0.01427690
     atom    8 type  2   force =     0.00000000   -0.00000937   -0.01428049
     The non-local contrib.  to forces
     atom    1 type  1   force =     0.00000000    0.00005641   -0.09031149
     atom    2 type  2   force =     0.00000000    0.00027398   -0.08973378
     atom    3 type  1   force =     0.00000000   -0.00005502   -0.09030560
     atom    4 type  2   force =     0.00000000   -0.00027684   -0.08972999
     atom    5 type  1   force =     0.00000000    0.00005856   -0.09031224
     atom    6 type  2   force =     0.00000000    0.00027610   -0.08973397
     atom    7 type  1   force =     0.00000000   -0.00006151   -0.09030812
     atom    8 type  2   force =     0.00000000   -0.00027545   -0.08973045
     The ionic contribution  to forces
     atom    1 type  1   force =     0.00000000   -0.00000000   -0.72400408
     atom    2 type  2   force =    -0.00000000    0.00000000    0.72400408
     atom    3 type  1   force =     0.00000000    0.00000000   -0.72400408
     atom    4 type  2   force =    -0.00000000   -0.00000000    0.72400408
     atom    5 type  1   force =     0.00000000   -0.00000000   -0.72400408
     atom    6 type  2   force =    -0.00000000    0.00000000    0.72400408
     atom    7 type  1   force =    -0.00000000    0.00000000   -0.72400408
     atom    8 type  2   force =     0.00000000   -0.00000000    0.72400408
     The local contribution  to forces
     atom    1 type  1   force =     0.00000000   -0.00005901    0.82472216
     atom    2 type  2   force =     0.00000000   -0.00026384   -0.64939311
     atom    3 type  1   force =     0.00000000    0.00004614    0.82472429
     atom    4 type  2   force =     0.00000000    0.00026418   -0.64939117
     atom    5 type  1   force =    -0.00000000   -0.00006300    0.82473355
     atom    6 type  2   force =     0.00000000   -0.00026126   -0.64939256
     atom    7 type  1   force =     0.00000000    0.00007809    0.82473230
     atom    8 type  2   force =     0.00000000    0.00026197   -0.64939253
     The core correction contribution to forces
     atom    1 type  1   force =     0.00000000   -0.00000767    0.00386997
     atom    2 type  2   force =    -0.00000000   -0.00000309    0.00083967
     atom    3 type  1   force =     0.00000000    0.00000813    0.00386435
     atom    4 type  2   force =    -0.00000000    0.00000313    0.00083821
     atom    5 type  1   force =    -0.00000000   -0.00000770    0.00386947
     atom    6 type  2   force =     0.00000000   -0.00000312    0.00083968
     atom    7 type  1   force =     0.00000000    0.00000732    0.00386423
     atom    8 type  2   force =    -0.00000000    0.00000311    0.00083819
     The Hubbard contrib.    to forces
     atom    1 type  1   force =     0.00000000    0.00000000    0.00000000
     atom    2 type  2   force =     0.00000000    0.00000000    0.00000000
     atom    3 type  1   force =     0.00000000    0.00000000    0.00000000
     atom    4 type  2   force =     0.00000000    0.00000000    0.00000000
     atom    5 type  1   force =     0.00000000    0.00000000    0.00000000
     atom    6 type  2   force =     0.00000000    0.00000000    0.00000000
     atom    7 type  1   force =     0.00000000    0.00000000    0.00000000
     atom    8 type  2   force =     0.00000000    0.00000000    0.00000000
     The SCF correction term to forces
     atom    1 type  1   force =    -0.00000000   -0.00000136    0.00000794
     atom    2 type  2   force =     0.00000000    0.00000263    0.00000018
     atom    3 type  1   force =     0.00000000    0.00002142    0.00000135
     atom    4 type  2   force =    -0.00000000   -0.00000078   -0.00000241
     atom    5 type  1   force =    -0.00000000    0.00000293   -0.00000899
     atom    6 type  2   force =     0.00000000   -0.00000246   -0.00000005
     atom    7 type  1   force =     0.00000000   -0.00002533   -0.00000879
     atom    8 type  2   force =    -0.00000000    0.00000066   -0.00000115

     Total force =     0.040392     Total SCF correction =     0.000037

     General routines

     Parallel routines

   This run was terminated on:   0:58:21  14Jul2025

   JOB DONE.
Note: The following floating-point exceptions are signalling: IEEE_INVALID_FLAG
Note: The following floating-point exceptions are signalling: IEEE_INVALID_FLAG