     Program PWSCF v.7.2 starts on 13Jul2025 at 14:53:41

     Reading input from /home/jvc/QEspresso7.2/ZnO_database/scripts/cell121.in/ZnO-3.14-1.74-121.in
Warning: card &CELL ignored
Warning: card / ignored
Warning: card &FCP ignored
Warning: card / ignored
Warning: card &RISM ignored
Warning: card / ignored

     Current dimensions of program PWSCF are:
     Max number of different atomic species (ntypx) = 10
     Max number of k-points (npk) =  40000
     Max angular momentum in pseudopotentials (lmaxx) =  4
     file Zn.upf: wavefunction(s)  3D renormalized
     Found identity + (  0.0000 -0.5000  0.0000) symmetry
     This is a supercell, fractional translations are disabled
     Message from routine setup:
     using ibrav=0 with symmetry is DISCOURAGED, use correct ibrav instead

     K-points division:     npool     =       2
     R & G space division:  proc/nbgrp/npool/nimage =       4
     Subspace diagonalization in iterative solution of the eigenvalue problem:
     a serial algorithm will be used

     Using Slab Decomposition

     bravais-lattice index     =            0
     lattice parameter (alat)  =       5.9317  a.u.
     unit-cell volume          =     630.2630 (a.u.)^3
     number of atoms/cell      =            8
     number of atomic types    =            2
     number of electrons       =        72.00
     number of Kohn-Sham states=           36
     kinetic-energy cutoff     =      50.0000  Ry
     charge density cutoff     =     400.0000  Ry
     scf convergence threshold =      1.0E-08
     mixing beta               =       0.3000
     number of iterations used =            8  plain     mixing
     Exchange-correlation= PBE
                           (   1   4   3   4   0   0   0)

     celldm(1)=   5.931700  celldm(2)=   0.000000  celldm(3)=   0.000000
     celldm(4)=   0.000000  celldm(5)=   0.000000  celldm(6)=   0.000000

     crystal axes: (cart. coord. in units of alat)
               a(1) = (   1.000000   0.000000   0.000000 )
               a(2) = (  -1.000000   1.732051   0.000000 )
               a(3) = (   0.000000   0.000000   1.743507 )

     reciprocal axes: (cart. coord. in units 2 pi/alat)
               b(1) = (  1.000000  0.577350 -0.000000 )
               b(2) = (  0.000000  0.577350  0.000000 )
               b(3) = (  0.000000 -0.000000  0.573557 )

     PseudoPot. # 1 for Zn read from file:
     /home/jvc/QEspresso7.2/ZnO_database/pseudos/Zn.upf
     MD5 check sum: 7f56cabf9682ed8c977c2f7d0c5985c5
     Pseudo is Ultrasoft + core correction, Zval = 12.0
     Generated using &quot;atomic&quot; code by A. Dal Corso  v.6.2.2
     Using radial grid of 1201 points,  6 beta functions with:
                l(1) =   0
                l(2) =   0
                l(3) =   1
                l(4) =   1
                l(5) =   2
                l(6) =   2
     Q(r) pseudized with 0 coefficients

     PseudoPot. # 2 for O  read from file:
     /home/jvc/QEspresso7.2/ZnO_database/pseudos/O.upf
     MD5 check sum: 91400c9766925bcf19f520983a725ff0
     Pseudo is Ultrasoft + core correction, Zval =  6.0
     Generated using &quot;atomic&quot; code by A. Dal Corso  v.6.3MaX
     Using radial grid of 1095 points,  4 beta functions with:
                l(1) =   0
                l(2) =   0
                l(3) =   1
                l(4) =   1
     Q(r) pseudized with 0 coefficients

     atomic species   valence    mass     pseudopotential
        Zn            12.00    65.38000     Zn( 1.00)
        O              6.00    15.99900     O ( 1.00)

      2 Sym. Ops. (no inversion) found

                                    s                        frac. trans.

      isym =  1     identity

 cryst.   s( 1) = (     1          0          0      )
                  (     0          1          0      )
                  (     0          0          1      )

 cart.    s( 1) = (  1.0000000  0.0000000  0.0000000 )
                  (  0.0000000  1.0000000  0.0000000 )
                  (  0.0000000  0.0000000  1.0000000 )

      isym =  2     inv. 180 deg rotation - cart. axis [1,0,0]

 cryst.   s( 2) = (    -1          0          0      )
                  (     2          1          0      )
                  (     0          0          1      )

 cart.    s( 2) = ( -1.0000000  0.0000000  0.0000000 )
                  (  0.0000000  1.0000000  0.0000000 )
                  (  0.0000000  0.0000000  1.0000000 )

   Cartesian axes

     site n.     atom                  positions (alat units)
         1           Zn  tau(   1) = (   0.0000000   0.0000000   0.0000000  )
         2           O   tau(   2) = (   0.0000000   0.5773503   0.2446912  )
         3           Zn  tau(   3) = (   0.0000000   0.5773503   0.8717535  )
         4           O   tau(   4) = (   0.0000000   0.0000000   1.1164447  )
         5           Zn  tau(   5) = (  -0.5000000   0.8660254   0.0000000  )
         6           O   tau(   6) = (  -0.5000000   1.4433757   0.2446912  )
         7           Zn  tau(   7) = (  -0.5000000   1.4433757   0.8717535  )
         8           O   tau(   8) = (  -0.5000000   0.8660254   1.1164447  )

   Crystallographic axes

     site n.     atom                  positions (cryst. coord.)
         1           Zn  tau(   1) = (  0.0000000  0.0000000  0.0000000  )
         2           O   tau(   2) = (  0.3333333  0.3333333  0.1403443  )
         3           Zn  tau(   3) = (  0.3333333  0.3333333  0.5000000  )
         4           O   tau(   4) = (  0.0000000  0.0000000  0.6403443  )
         5           Zn  tau(   5) = (  0.0000000  0.5000000  0.0000000  )
         6           O   tau(   6) = (  0.3333333  0.8333333  0.1403443  )
         7           Zn  tau(   7) = (  0.3333333  0.8333333  0.5000000  )
         8           O   tau(   8) = (  0.0000000  0.5000000  0.6403443  )

     number of k points=    80
                       cart. coord. in units 2pi/alat
        k(    1) = (   0.0000000   0.0000000   0.0000000), wk =   0.0092593
        k(    2) = (   0.0000000   0.0000000   0.0955928), wk =   0.0185185
        k(    3) = (   0.0000000   0.0000000   0.1911855), wk =   0.0185185
        k(    4) = (   0.0000000   0.0000000  -0.2867783), wk =   0.0092593
        k(    5) = (   0.0000000   0.0962250   0.0000000), wk =   0.0185185
        k(    6) = (   0.0000000   0.0962250   0.0955928), wk =   0.0185185
        k(    7) = (   0.0000000   0.0962250   0.1911855), wk =   0.0185185
        k(    8) = (   0.0000000   0.0962250  -0.2867783), wk =   0.0185185
        k(    9) = (   0.0000000   0.1924501   0.0000000), wk =   0.0185185
        k(   10) = (   0.0000000   0.1924501   0.0955928), wk =   0.0185185
        k(   11) = (   0.0000000   0.1924501   0.1911855), wk =   0.0185185
        k(   12) = (   0.0000000   0.1924501  -0.2867783), wk =   0.0185185
        k(   13) = (   0.0000000  -0.2886751   0.0000000), wk =   0.0092593
        k(   14) = (   0.0000000  -0.2886751   0.0955928), wk =   0.0185185
        k(   15) = (   0.0000000  -0.2886751   0.1911855), wk =   0.0185185
        k(   16) = (   0.0000000  -0.2886751  -0.2867783), wk =   0.0092593
        k(   17) = (   0.1666667   0.0962250   0.0000000), wk =   0.0370370
        k(   18) = (   0.1666667   0.0962250   0.0955928), wk =   0.0370370
        k(   19) = (   0.1666667   0.0962250   0.1911855), wk =   0.0370370
        k(   20) = (   0.1666667   0.0962250  -0.2867783), wk =   0.0370370
        k(   21) = (   0.1666667   0.1924501   0.0000000), wk =   0.0370370
        k(   22) = (   0.1666667   0.1924501   0.0955928), wk =   0.0370370
        k(   23) = (   0.1666667   0.1924501   0.1911855), wk =   0.0370370
        k(   24) = (   0.1666667   0.1924501  -0.2867783), wk =   0.0370370
        k(   25) = (   0.1666667   0.2886751   0.0000000), wk =   0.0185185
        k(   26) = (   0.1666667   0.2886751   0.0955928), wk =   0.0370370
        k(   27) = (   0.1666667   0.2886751   0.1911855), wk =   0.0370370
        k(   28) = (   0.1666667   0.2886751  -0.2867783), wk =   0.0185185
        k(   29) = (   0.1666667   0.0000000   0.0000000), wk =   0.0185185
        k(   30) = (   0.1666667   0.0000000   0.0955928), wk =   0.0370370
        k(   31) = (   0.1666667   0.0000000   0.1911855), wk =   0.0370370
        k(   32) = (   0.1666667   0.0000000  -0.2867783), wk =   0.0185185
        k(   33) = (   0.3333333   0.1924501   0.0000000), wk =   0.0370370
        k(   34) = (   0.3333333   0.1924501   0.0955928), wk =   0.0370370
        k(   35) = (   0.3333333   0.1924501   0.1911855), wk =   0.0370370
        k(   36) = (   0.3333333   0.1924501  -0.2867783), wk =   0.0370370
        k(   37) = (   0.3333333   0.2886751   0.0000000), wk =   0.0185185
        k(   38) = (   0.3333333   0.2886751   0.0955928), wk =   0.0370370
        k(   39) = (   0.3333333   0.2886751   0.1911855), wk =   0.0370370
        k(   40) = (   0.3333333   0.2886751  -0.2867783), wk =   0.0185185
        k(   41) = (   0.3333333  -0.0962250   0.0000000), wk =   0.0370370
        k(   42) = (   0.3333333  -0.0962250   0.0955928), wk =   0.0370370
        k(   43) = (   0.3333333  -0.0962250   0.1911855), wk =   0.0370370
        k(   44) = (   0.3333333  -0.0962250  -0.2867783), wk =   0.0370370
        k(   45) = (   0.3333333  -0.0000000   0.0000000), wk =   0.0185185
        k(   46) = (   0.3333333  -0.0000000   0.0955928), wk =   0.0370370
        k(   47) = (   0.3333333  -0.0000000   0.1911855), wk =   0.0370370
        k(   48) = (   0.3333333  -0.0000000  -0.2867783), wk =   0.0185185
        k(   49) = (  -0.5000000  -0.2886751   0.0000000), wk =   0.0092593
        k(   50) = (  -0.5000000  -0.2886751   0.0955928), wk =   0.0185185
        k(   51) = (  -0.5000000  -0.2886751   0.1911855), wk =   0.0185185
        k(   52) = (  -0.5000000  -0.2886751  -0.2867783), wk =   0.0092593
        k(   53) = (  -0.5000000  -0.1924501   0.0000000), wk =   0.0185185
        k(   54) = (  -0.5000000  -0.1924501   0.0955928), wk =   0.0185185
        k(   55) = (  -0.5000000  -0.1924501   0.1911855), wk =   0.0185185
        k(   56) = (  -0.5000000  -0.1924501  -0.2867783), wk =   0.0185185
        k(   57) = (  -0.5000000  -0.0962250   0.0000000), wk =   0.0185185
        k(   58) = (  -0.5000000  -0.0962250   0.0955928), wk =   0.0185185
        k(   59) = (  -0.5000000  -0.0962250   0.1911855), wk =   0.0185185
        k(   60) = (  -0.5000000  -0.0962250  -0.2867783), wk =   0.0185185
[...]
        k(   66) = (   0.0000000   0.0962250  -0.1911855), wk =   0.0185185
        k(   67) = (   0.0000000   0.1924501  -0.0955928), wk =   0.0185185
        k(   68) = (   0.0000000   0.1924501  -0.1911855), wk =   0.0185185
        k(   69) = (  -0.1666667   0.0962250  -0.0955928), wk =   0.0370370
        k(   70) = (  -0.1666667   0.0962250  -0.1911855), wk =   0.0370370
        k(   71) = (  -0.1666667   0.1924501  -0.0955928), wk =   0.0370370
        k(   72) = (  -0.1666667   0.1924501  -0.1911855), wk =   0.0370370
        k(   73) = (  -0.3333333   0.1924501  -0.0955928), wk =   0.0370370
        k(   74) = (  -0.3333333   0.1924501  -0.1911855), wk =   0.0370370
        k(   75) = (  -0.3333333  -0.0962250  -0.0955928), wk =   0.0370370
        k(   76) = (  -0.3333333  -0.0962250  -0.1911855), wk =   0.0370370
        k(   77) = (   0.5000000  -0.1924501  -0.0955928), wk =   0.0185185
        k(   78) = (   0.5000000  -0.1924501  -0.1911855), wk =   0.0185185
        k(   79) = (   0.5000000  -0.0962250  -0.0955928), wk =   0.0185185
        k(   80) = (   0.5000000  -0.0962250  -0.1911855), wk =   0.0185185

                       cryst. coord.
        k(    1) = (   0.0000000   0.0000000   0.0000000), wk =   0.0092593
        k(    2) = (   0.0000000   0.0000000   0.1666667), wk =   0.0185185
        k(    3) = (   0.0000000   0.0000000   0.3333333), wk =   0.0185185
        k(    4) = (   0.0000000   0.0000000  -0.5000000), wk =   0.0092593
        k(    5) = (   0.0000000   0.1666667   0.0000000), wk =   0.0185185
        k(    6) = (   0.0000000   0.1666667   0.1666667), wk =   0.0185185
        k(    7) = (   0.0000000   0.1666667   0.3333333), wk =   0.0185185
        k(    8) = (   0.0000000   0.1666667  -0.5000000), wk =   0.0185185
        k(    9) = (   0.0000000   0.3333333   0.0000000), wk =   0.0185185
        k(   10) = (   0.0000000   0.3333333   0.1666667), wk =   0.0185185
        k(   11) = (   0.0000000   0.3333333   0.3333333), wk =   0.0185185
        k(   12) = (   0.0000000   0.3333333  -0.5000000), wk =   0.0185185
        k(   13) = (   0.0000000  -0.5000000   0.0000000), wk =   0.0092593
        k(   14) = (   0.0000000  -0.5000000   0.1666667), wk =   0.0185185
        k(   15) = (   0.0000000  -0.5000000   0.3333333), wk =   0.0185185
        k(   16) = (   0.0000000  -0.5000000  -0.5000000), wk =   0.0092593
        k(   17) = (   0.1666667  -0.0000000   0.0000000), wk =   0.0370370
        k(   18) = (   0.1666667  -0.0000000   0.1666667), wk =   0.0370370
        k(   19) = (   0.1666667  -0.0000000   0.3333333), wk =   0.0370370
        k(   20) = (   0.1666667  -0.0000000  -0.5000000), wk =   0.0370370
        k(   21) = (   0.1666667   0.1666667   0.0000000), wk =   0.0370370
        k(   22) = (   0.1666667   0.1666667   0.1666667), wk =   0.0370370
        k(   23) = (   0.1666667   0.1666667   0.3333333), wk =   0.0370370
        k(   24) = (   0.1666667   0.1666667  -0.5000000), wk =   0.0370370
        k(   25) = (   0.1666667   0.3333333   0.0000000), wk =   0.0185185
        k(   26) = (   0.1666667   0.3333333   0.1666667), wk =   0.0370370
        k(   27) = (   0.1666667   0.3333333   0.3333333), wk =   0.0370370
        k(   28) = (   0.1666667   0.3333333  -0.5000000), wk =   0.0185185
        k(   29) = (   0.1666667  -0.1666667   0.0000000), wk =   0.0185185
        k(   30) = (   0.1666667  -0.1666667   0.1666667), wk =   0.0370370
        k(   31) = (   0.1666667  -0.1666667   0.3333333), wk =   0.0370370
        k(   32) = (   0.1666667  -0.1666667  -0.5000000), wk =   0.0185185
        k(   33) = (   0.3333333  -0.0000000   0.0000000), wk =   0.0370370
        k(   34) = (   0.3333333  -0.0000000   0.1666667), wk =   0.0370370
        k(   35) = (   0.3333333  -0.0000000   0.3333333), wk =   0.0370370
        k(   36) = (   0.3333333  -0.0000000  -0.5000000), wk =   0.0370370
        k(   37) = (   0.3333333   0.1666667   0.0000000), wk =   0.0185185
        k(   38) = (   0.3333333   0.1666667   0.1666667), wk =   0.0370370
        k(   39) = (   0.3333333   0.1666667   0.3333333), wk =   0.0370370
        k(   40) = (   0.3333333   0.1666667  -0.5000000), wk =   0.0185185
        k(   41) = (   0.3333333  -0.5000000   0.0000000), wk =   0.0370370
        k(   42) = (   0.3333333  -0.5000000   0.1666667), wk =   0.0370370
        k(   43) = (   0.3333333  -0.5000000   0.3333333), wk =   0.0370370
        k(   44) = (   0.3333333  -0.5000000  -0.5000000), wk =   0.0370370
        k(   45) = (   0.3333333  -0.3333333   0.0000000), wk =   0.0185185
        k(   46) = (   0.3333333  -0.3333333   0.1666667), wk =   0.0370370
        k(   47) = (   0.3333333  -0.3333333   0.3333333), wk =   0.0370370
        k(   48) = (   0.3333333  -0.3333333  -0.5000000), wk =   0.0185185
        k(   49) = (  -0.5000000   0.0000000   0.0000000), wk =   0.0092593
        k(   50) = (  -0.5000000   0.0000000   0.1666667), wk =   0.0185185
        k(   51) = (  -0.5000000   0.0000000   0.3333333), wk =   0.0185185
        k(   52) = (  -0.5000000   0.0000000  -0.5000000), wk =   0.0092593
        k(   53) = (  -0.5000000   0.1666667   0.0000000), wk =   0.0185185
        k(   54) = (  -0.5000000   0.1666667   0.1666667), wk =   0.0185185
        k(   55) = (  -0.5000000   0.1666667   0.3333333), wk =   0.0185185
        k(   56) = (  -0.5000000   0.1666667  -0.5000000), wk =   0.0185185
        k(   57) = (  -0.5000000   0.3333333   0.0000000), wk =   0.0185185
        k(   58) = (  -0.5000000   0.3333333   0.1666667), wk =   0.0185185
        k(   59) = (  -0.5000000   0.3333333   0.3333333), wk =   0.0185185
        k(   60) = (  -0.5000000   0.3333333  -0.5000000), wk =   0.0185185
[...]
        k(   66) = (   0.0000000   0.1666667  -0.3333333), wk =   0.0185185
        k(   67) = (   0.0000000   0.3333333  -0.1666667), wk =   0.0185185
        k(   68) = (   0.0000000   0.3333333  -0.3333333), wk =   0.0185185
        k(   69) = (  -0.1666667   0.3333333  -0.1666667), wk =   0.0370370
        k(   70) = (  -0.1666667   0.3333333  -0.3333333), wk =   0.0370370
        k(   71) = (  -0.1666667   0.5000000  -0.1666667), wk =   0.0370370
        k(   72) = (  -0.1666667   0.5000000  -0.3333333), wk =   0.0370370
        k(   73) = (  -0.3333333   0.6666667  -0.1666667), wk =   0.0370370
        k(   74) = (  -0.3333333   0.6666667  -0.3333333), wk =   0.0370370
        k(   75) = (  -0.3333333   0.1666667  -0.1666667), wk =   0.0370370
        k(   76) = (  -0.3333333   0.1666667  -0.3333333), wk =   0.0370370
        k(   77) = (   0.5000000  -0.8333333  -0.1666667), wk =   0.0185185
        k(   78) = (   0.5000000  -0.8333333  -0.3333333), wk =   0.0185185
        k(   79) = (   0.5000000  -0.6666667  -0.1666667), wk =   0.0185185
        k(   80) = (   0.5000000  -0.6666667  -0.3333333), wk =   0.0185185

     Check: negative core charge=   -0.000002

     Initial potential from superposition of free atoms

     starting charge      71.9851, renormalised to      72.0000
     Starting wfcs are   52 randomized atomic wfcs

     Self-consistent Calculation

     iteration #  1     ecut=    50.00 Ry     beta= 0.30
     Davidson diagonalization with overlap

     ethr =  1.00E-02,  avg # of iterations =  2.0

     total energy              =    -722.94848896 Ry
     estimated scf accuracy    <       1.36431139 Ry

[...]

     total energy              =    -723.25567634 Ry
     estimated scf accuracy    <       0.00000110 Ry

     iteration # 26     ecut=    50.00 Ry     beta= 0.30
     Davidson diagonalization with overlap

     ethr =  1.53E-09,  avg # of iterations =  4.0

     End of self-consistent calculation

          k = 0.0000 0.0000 0.0000 (  3801 PWs)   bands (ev):

   -10.6589 -10.0046  -9.9029  -9.7069   1.4650   1.5019   1.6050   1.6625
     1.8533   1.8535   2.0150   2.0862   2.0864   2.1515   2.5060   2.6418
     2.9680   3.0060   3.0061   3.1914   3.1914   3.2124   3.2509   3.3556
     3.3953   3.6532   4.1969   4.6512   5.4594   6.0270   6.8076   6.8081
     6.8867   7.3708   7.5983   7.5987

     occupation numbers
     1.0000   1.0000   1.0000   1.0000   1.0000   1.0000   1.0000   1.0000
     1.0000   1.0000   1.0000   1.0000   1.0000   1.0000   1.0000   1.0000
     1.0000   1.0000   1.0000   1.0000   1.0000   1.0000   1.0000   1.0000
     1.0000   1.0000   1.0000   1.0000   1.0000   1.0000   1.0000   1.0000
     1.0000   1.0000   1.0000   1.0000

[...]

          k =-0.5000-0.2887 0.0000 (  3764 PWs)   bands (ev):

[...]

          k =-0.3333-0.0962-0.1912 (  3756 PWs)   bands (ev):

[...]

          k = 0.5000-0.0962-0.1912 (  3760 PWs)   bands (ev):

    -9.8566  -9.8565  -9.7522  -9.7521   1.5014   1.5014   1.5949   1.5949
     2.0122   2.0122   2.1889   2.1889   2.3687   2.3687   2.4608   2.4608
     3.0227   3.0227   3.1305   3.1305   3.3010   3.3010   3.4022   3.4022
     3.8311   3.8311   4.2296   4.2296   5.1861   5.1861   5.4982   5.4983
     6.0620   6.0621   6.2713   6.2713

     occupation numbers
     1.0000   1.0000   1.0000   1.0000   1.0000   1.0000   1.0000   1.0000
     1.0000   1.0000   1.0000   1.0000   1.0000   1.0000   1.0000   1.0000
     1.0000   1.0000   1.0000   1.0000   1.0000   1.0000   1.0000   1.0000
     1.0000   1.0000   1.0000   1.0000   1.0000   1.0000   1.0000   1.0000
     1.0000   1.0000   1.0000   1.0000

     highest occupied level (ev):     7.5987

!    total energy              =    -723.25567671 Ry
     estimated scf accuracy    <          3.9E-09 Ry

     The total energy is the sum of the following terms:
     one-electron contribution =    -297.17867249 Ry
     hartree contribution      =     232.11204182 Ry
     xc contribution           =    -219.24664893 Ry
     ewald contribution        =    -438.94239711 Ry

     convergence has been achieved in  26 iterations

     Forces acting on atoms (cartesian axes, Ry/au):

     atom    1 type  1   force =     0.00000000    0.00000647   -0.00013259
     atom    2 type  2   force =     0.00000000   -0.00000456    0.00012553
     atom    3 type  1   force =     0.00000000    0.00000362   -0.00010306
     atom    4 type  2   force =     0.00000000    0.00000462    0.00012533
     atom    5 type  1   force =     0.00000000    0.00003437   -0.00014537
     atom    6 type  2   force =     0.00000000   -0.00000339    0.00012356
     atom    7 type  1   force =     0.00000000   -0.00004608   -0.00011914
     atom    8 type  2   force =     0.00000000    0.00000495    0.00012574
     The non-local contrib.  to forces
     atom    1 type  1   force =     0.00000000   -0.00002625   -0.10554055
     atom    2 type  2   force =     0.00000000    0.00021863   -0.08828138
     atom    3 type  1   force =     0.00000000    0.00003186   -0.10552463
     atom    4 type  2   force =     0.00000000   -0.00021905   -0.08828057
     atom    5 type  1   force =     0.00000000   -0.00000891   -0.10554384
     atom    6 type  2   force =     0.00000000    0.00022998   -0.08828794
     atom    7 type  1   force =     0.00000000   -0.00000062   -0.10553198
     atom    8 type  2   force =     0.00000000   -0.00022451   -0.08828576
     The ionic contribution  to forces
     atom    1 type  1   force =     0.00000000   -0.00000000   -0.95056960
     atom    2 type  2   force =     0.00000000    0.00000000    0.95056960
     atom    3 type  1   force =     0.00000000    0.00000000   -0.95056960
     atom    4 type  2   force =    -0.00000000   -0.00000000    0.95056960
     atom    5 type  1   force =     0.00000000   -0.00000000   -0.95056960
     atom    6 type  2   force =    -0.00000000    0.00000000    0.95056960
     atom    7 type  1   force =     0.00000000    0.00000000   -0.95056960
     atom    8 type  2   force =    -0.00000000   -0.00000000    0.95056960
     The local contribution  to forces
     atom    1 type  1   force =     0.00000000    0.00006263    1.04970020
     atom    2 type  2   force =    -0.00000000   -0.00023143   -0.86282713
     atom    3 type  1   force =     0.00000000   -0.00008398    1.04964573
     atom    4 type  2   force =    -0.00000000    0.00022644   -0.86282716
     atom    5 type  1   force =    -0.00000000    0.00001606    1.04972613
     atom    6 type  2   force =    -0.00000000   -0.00021724   -0.86282453
     atom    7 type  1   force =    -0.00000000    0.00000932    1.04967283
     atom    8 type  2   force =    -0.00000000    0.00021809   -0.86281969
     The core correction contribution to forces
     atom    1 type  1   force =    -0.00000006   -0.00000547    0.00629058
     atom    2 type  2   force =    -0.00000000   -0.00000251    0.00068120
     atom    3 type  1   force =    -0.00000002    0.00000615    0.00629163
     atom    4 type  2   force =    -0.00000001    0.00000251    0.00068120
     atom    5 type  1   force =     0.00000003   -0.00000514    0.00628940
     atom    6 type  2   force =     0.00000000   -0.00000262    0.00068129
     atom    7 type  1   force =     0.00000006    0.00000457    0.00629103
     atom    8 type  2   force =    -0.00000000    0.00000255    0.00068127
     The Hubbard contrib.    to forces
     atom    1 type  1   force =     0.00000000    0.00000000    0.00000000
     atom    2 type  2   force =     0.00000000    0.00000000    0.00000000
     atom    3 type  1   force =     0.00000000    0.00000000    0.00000000
     atom    4 type  2   force =     0.00000000    0.00000000    0.00000000
     atom    5 type  1   force =     0.00000000    0.00000000    0.00000000
     atom    6 type  2   force =     0.00000000    0.00000000    0.00000000
     atom    7 type  1   force =     0.00000000    0.00000000    0.00000000
     atom    8 type  2   force =     0.00000000    0.00000000    0.00000000
     The SCF correction term to forces
     atom    1 type  1   force =    -0.00000000   -0.00002461   -0.00000245
     atom    2 type  2   force =    -0.00000000    0.00001057   -0.00000599
     atom    3 type  1   force =    -0.00000000    0.00004941    0.00006458
     atom    4 type  2   force =     0.00000000   -0.00000546   -0.00000696
     atom    5 type  1   force =    -0.00000000    0.00003219   -0.00003669
     atom    6 type  2   force =    -0.00000000   -0.00001369   -0.00000409
     atom    7 type  1   force =    -0.00000000   -0.00005952    0.00002934
     atom    8 type  2   force =    -0.00000000    0.00000865   -0.00000890

     Total force =     0.000360     Total SCF correction =     0.000121
     SCF correction compared to forces is large: reduce conv_thr to get better values

     General routines

     Parallel routines

   This run was terminated on:  15: 0:28  13Jul2025

   JOB DONE.
Note: The following floating-point exceptions are signalling: IEEE_INVALID_FLAG
Note: The following floating-point exceptions are signalling: IEEE_INVALID_FLAG