     Program PWSCF v.7.2 starts on 13Jul2025 at 17: 6:46

     Reading input from /home/jvc/QEspresso7.2/ZnO_database/scripts/cell121.in/ZnO-3.27-1.55-121.in
Warning: card &CELL ignored
Warning: card / ignored
Warning: card &FCP ignored
Warning: card / ignored
Warning: card &RISM ignored
Warning: card / ignored

     Current dimensions of program PWSCF are:
     Max number of different atomic species (ntypx) = 10
     Max number of k-points (npk) =  40000
     Max angular momentum in pseudopotentials (lmaxx) =  4
     file Zn.upf: wavefunction(s)  3D renormalized
     Found identity + (  0.0000 -0.5000  0.0000) symmetry
     This is a supercell, fractional translations are disabled
     Message from routine setup:
     using ibrav=0 with symmetry is DISCOURAGED, use correct ibrav instead

     K-points division:     npool     =       2
     R & G space division:  proc/nbgrp/npool/nimage =       4
     Subspace diagonalization in iterative solution of the eigenvalue problem:
     a serial algorithm will be used

     Using Slab Decomposition

     bravais-lattice index     =            0
     lattice parameter (alat)  =       6.1789  a.u.
     unit-cell volume          =     633.2214 (a.u.)^3
     number of atoms/cell      =            8
     number of atomic types    =            2
     number of electrons       =        72.00
     number of Kohn-Sham states=           36
     kinetic-energy cutoff     =      50.0000  Ry
     charge density cutoff     =     400.0000  Ry
     scf convergence threshold =      1.0E-08
     mixing beta               =       0.3000
     number of iterations used =            8  plain     mixing
     Exchange-correlation= PBE
                           (   1   4   3   4   0   0   0)

     celldm(1)=   6.178854  celldm(2)=   0.000000  celldm(3)=   0.000000
     celldm(4)=   0.000000  celldm(5)=   0.000000  celldm(6)=   0.000000

     crystal axes: (cart. coord. in units of alat)
               a(1) = (   1.000000   0.000000   0.000000 )
               a(2) = (  -1.000000   1.732051   0.000000 )
               a(3) = (   0.000000   0.000000   1.549784 )

     reciprocal axes: (cart. coord. in units 2 pi/alat)
               b(1) = (  1.000000  0.577350 -0.000000 )
               b(2) = (  0.000000  0.577350  0.000000 )
               b(3) = (  0.000000 -0.000000  0.645251 )

     PseudoPot. # 1 for Zn read from file:
     /home/jvc/QEspresso7.2/ZnO_database/pseudos/Zn.upf
     MD5 check sum: 7f56cabf9682ed8c977c2f7d0c5985c5
     Pseudo is Ultrasoft + core correction, Zval = 12.0
     Generated using &quot;atomic&quot; code by A. Dal Corso  v.6.2.2
     Using radial grid of 1201 points,  6 beta functions with:
                l(1) =   0
                l(2) =   0
                l(3) =   1
                l(4) =   1
                l(5) =   2
                l(6) =   2
     Q(r) pseudized with 0 coefficients

     PseudoPot. # 2 for O  read from file:
     /home/jvc/QEspresso7.2/ZnO_database/pseudos/O.upf
     MD5 check sum: 91400c9766925bcf19f520983a725ff0
     Pseudo is Ultrasoft + core correction, Zval =  6.0
     Generated using &quot;atomic&quot; code by A. Dal Corso  v.6.3MaX
     Using radial grid of 1095 points,  4 beta functions with:
                l(1) =   0
                l(2) =   0
                l(3) =   1
                l(4) =   1
     Q(r) pseudized with 0 coefficients

     atomic species   valence    mass     pseudopotential
        Zn            12.00    65.38000     Zn( 1.00)
        O              6.00    15.99900     O ( 1.00)

      2 Sym. Ops. (no inversion) found

                                    s                        frac. trans.

      isym =  1     identity

 cryst.   s( 1) = (     1          0          0      )
                  (     0          1          0      )
                  (     0          0          1      )

 cart.    s( 1) = (  1.0000000  0.0000000  0.0000000 )
                  (  0.0000000  1.0000000  0.0000000 )
                  (  0.0000000  0.0000000  1.0000000 )

      isym =  2     inv. 180 deg rotation - cart. axis [1,0,0]

 cryst.   s( 2) = (    -1          0          0      )
                  (     2          1          0      )
                  (     0          0          1      )

 cart.    s( 2) = ( -1.0000000  0.0000000  0.0000000 )
                  (  0.0000000  1.0000000  0.0000000 )
                  (  0.0000000  0.0000000  1.0000000 )

   Cartesian axes

     site n.     atom                  positions (alat units)
         1           Zn  tau(   1) = (   0.0000000   0.0000000   0.0000000  )
         2           O   tau(   2) = (   0.0000000   0.5773503   0.1723623  )
         3           Zn  tau(   3) = (   0.0000000   0.5773503   0.7748920  )
         4           O   tau(   4) = (   0.0000000   0.0000000   0.9472543  )
         5           Zn  tau(   5) = (  -0.5000000   0.8660254   0.0000000  )
         6           O   tau(   6) = (  -0.5000000   1.4433757   0.1723623  )
         7           Zn  tau(   7) = (  -0.5000000   1.4433757   0.7748920  )
         8           O   tau(   8) = (  -0.5000000   0.8660254   0.9472543  )

   Crystallographic axes

     site n.     atom                  positions (cryst. coord.)
         1           Zn  tau(   1) = (  0.0000000  0.0000000  0.0000000  )
         2           O   tau(   2) = (  0.3333333  0.3333333  0.1112170  )
         3           Zn  tau(   3) = (  0.3333333  0.3333333  0.5000000  )
         4           O   tau(   4) = (  0.0000000  0.0000000  0.6112170  )
         5           Zn  tau(   5) = (  0.0000000  0.5000000  0.0000000  )
         6           O   tau(   6) = (  0.3333333  0.8333333  0.1112170  )
         7           Zn  tau(   7) = (  0.3333333  0.8333333  0.5000000  )
         8           O   tau(   8) = (  0.0000000  0.5000000  0.6112170  )

     number of k points=    80
                       cart. coord. in units 2pi/alat
        k(    1) = (   0.0000000   0.0000000   0.0000000), wk =   0.0092593
        k(    2) = (   0.0000000   0.0000000   0.1075419), wk =   0.0185185
        k(    3) = (   0.0000000   0.0000000   0.2150837), wk =   0.0185185
        k(    4) = (   0.0000000   0.0000000  -0.3226256), wk =   0.0092593
        k(    5) = (   0.0000000   0.0962250   0.0000000), wk =   0.0185185
        k(    6) = (   0.0000000   0.0962250   0.1075419), wk =   0.0185185
        k(    7) = (   0.0000000   0.0962250   0.2150837), wk =   0.0185185
        k(    8) = (   0.0000000   0.0962250  -0.3226256), wk =   0.0185185
        k(    9) = (   0.0000000   0.1924501   0.0000000), wk =   0.0185185
        k(   10) = (   0.0000000   0.1924501   0.1075419), wk =   0.0185185
        k(   11) = (   0.0000000   0.1924501   0.2150837), wk =   0.0185185
        k(   12) = (   0.0000000   0.1924501  -0.3226256), wk =   0.0185185
        k(   13) = (   0.0000000  -0.2886751   0.0000000), wk =   0.0092593
        k(   14) = (   0.0000000  -0.2886751   0.1075419), wk =   0.0185185
        k(   15) = (   0.0000000  -0.2886751   0.2150837), wk =   0.0185185
        k(   16) = (   0.0000000  -0.2886751  -0.3226256), wk =   0.0092593
        k(   17) = (   0.1666667   0.0962250   0.0000000), wk =   0.0370370
        k(   18) = (   0.1666667   0.0962250   0.1075419), wk =   0.0370370
        k(   19) = (   0.1666667   0.0962250   0.2150837), wk =   0.0370370
        k(   20) = (   0.1666667   0.0962250  -0.3226256), wk =   0.0370370
        k(   21) = (   0.1666667   0.1924501   0.0000000), wk =   0.0370370
        k(   22) = (   0.1666667   0.1924501   0.1075419), wk =   0.0370370
        k(   23) = (   0.1666667   0.1924501   0.2150837), wk =   0.0370370
        k(   24) = (   0.1666667   0.1924501  -0.3226256), wk =   0.0370370
        k(   25) = (   0.1666667   0.2886751   0.0000000), wk =   0.0185185
        k(   26) = (   0.1666667   0.2886751   0.1075419), wk =   0.0370370
        k(   27) = (   0.1666667   0.2886751   0.2150837), wk =   0.0370370
        k(   28) = (   0.1666667   0.2886751  -0.3226256), wk =   0.0185185
        k(   29) = (   0.1666667   0.0000000   0.0000000), wk =   0.0185185
        k(   30) = (   0.1666667   0.0000000   0.1075419), wk =   0.0370370
        k(   31) = (   0.1666667   0.0000000   0.2150837), wk =   0.0370370
        k(   32) = (   0.1666667   0.0000000  -0.3226256), wk =   0.0185185
        k(   33) = (   0.3333333   0.1924501   0.0000000), wk =   0.0370370
        k(   34) = (   0.3333333   0.1924501   0.1075419), wk =   0.0370370
        k(   35) = (   0.3333333   0.1924501   0.2150837), wk =   0.0370370
        k(   36) = (   0.3333333   0.1924501  -0.3226256), wk =   0.0370370
        k(   37) = (   0.3333333   0.2886751   0.0000000), wk =   0.0185185
        k(   38) = (   0.3333333   0.2886751   0.1075419), wk =   0.0370370
        k(   39) = (   0.3333333   0.2886751   0.2150837), wk =   0.0370370
        k(   40) = (   0.3333333   0.2886751  -0.3226256), wk =   0.0185185
        k(   41) = (   0.3333333  -0.0962250   0.0000000), wk =   0.0370370
        k(   42) = (   0.3333333  -0.0962250   0.1075419), wk =   0.0370370
        k(   43) = (   0.3333333  -0.0962250   0.2150837), wk =   0.0370370
        k(   44) = (   0.3333333  -0.0962250  -0.3226256), wk =   0.0370370
        k(   45) = (   0.3333333  -0.0000000   0.0000000), wk =   0.0185185
        k(   46) = (   0.3333333  -0.0000000   0.1075419), wk =   0.0370370
        k(   47) = (   0.3333333  -0.0000000   0.2150837), wk =   0.0370370
        k(   48) = (   0.3333333  -0.0000000  -0.3226256), wk =   0.0185185
        k(   49) = (  -0.5000000  -0.2886751   0.0000000), wk =   0.0092593
        k(   50) = (  -0.5000000  -0.2886751   0.1075419), wk =   0.0185185
        k(   51) = (  -0.5000000  -0.2886751   0.2150837), wk =   0.0185185
        k(   52) = (  -0.5000000  -0.2886751  -0.3226256), wk =   0.0092593
        k(   53) = (  -0.5000000  -0.1924501   0.0000000), wk =   0.0185185
        k(   54) = (  -0.5000000  -0.1924501   0.1075419), wk =   0.0185185
        k(   55) = (  -0.5000000  -0.1924501   0.2150837), wk =   0.0185185
        k(   56) = (  -0.5000000  -0.1924501  -0.3226256), wk =   0.0185185
        k(   57) = (  -0.5000000  -0.0962250   0.0000000), wk =   0.0185185
        k(   58) = (  -0.5000000  -0.0962250   0.1075419), wk =   0.0185185
        k(   59) = (  -0.5000000  -0.0962250   0.2150837), wk =   0.0185185
        k(   60) = (  -0.5000000  -0.0962250  -0.3226256), wk =   0.0185185
[...]
        k(   66) = (   0.0000000   0.0962250  -0.2150837), wk =   0.0185185
        k(   67) = (   0.0000000   0.1924501  -0.1075419), wk =   0.0185185
        k(   68) = (   0.0000000   0.1924501  -0.2150837), wk =   0.0185185
        k(   69) = (  -0.1666667   0.0962250  -0.1075419), wk =   0.0370370
        k(   70) = (  -0.1666667   0.0962250  -0.2150837), wk =   0.0370370
        k(   71) = (  -0.1666667   0.1924501  -0.1075419), wk =   0.0370370
        k(   72) = (  -0.1666667   0.1924501  -0.2150837), wk =   0.0370370
        k(   73) = (  -0.3333333   0.1924501  -0.1075419), wk =   0.0370370
        k(   74) = (  -0.3333333   0.1924501  -0.2150837), wk =   0.0370370
        k(   75) = (  -0.3333333  -0.0962250  -0.1075419), wk =   0.0370370
        k(   76) = (  -0.3333333  -0.0962250  -0.2150837), wk =   0.0370370
        k(   77) = (   0.5000000  -0.1924501  -0.1075419), wk =   0.0185185
        k(   78) = (   0.5000000  -0.1924501  -0.2150837), wk =   0.0185185
        k(   79) = (   0.5000000  -0.0962250  -0.1075419), wk =   0.0185185
        k(   80) = (   0.5000000  -0.0962250  -0.2150837), wk =   0.0185185

                       cryst. coord.
        k(    1) = (   0.0000000   0.0000000   0.0000000), wk =   0.0092593
        k(    2) = (   0.0000000   0.0000000   0.1666667), wk =   0.0185185
        k(    3) = (   0.0000000   0.0000000   0.3333333), wk =   0.0185185
        k(    4) = (   0.0000000   0.0000000  -0.5000000), wk =   0.0092593
        k(    5) = (   0.0000000   0.1666667   0.0000000), wk =   0.0185185
        k(    6) = (   0.0000000   0.1666667   0.1666667), wk =   0.0185185
        k(    7) = (   0.0000000   0.1666667   0.3333333), wk =   0.0185185
        k(    8) = (   0.0000000   0.1666667  -0.5000000), wk =   0.0185185
        k(    9) = (   0.0000000   0.3333333   0.0000000), wk =   0.0185185
        k(   10) = (   0.0000000   0.3333333   0.1666667), wk =   0.0185185
        k(   11) = (   0.0000000   0.3333333   0.3333333), wk =   0.0185185
        k(   12) = (   0.0000000   0.3333333  -0.5000000), wk =   0.0185185
        k(   13) = (   0.0000000  -0.5000000   0.0000000), wk =   0.0092593
        k(   14) = (   0.0000000  -0.5000000   0.1666667), wk =   0.0185185
        k(   15) = (   0.0000000  -0.5000000   0.3333333), wk =   0.0185185
        k(   16) = (   0.0000000  -0.5000000  -0.5000000), wk =   0.0092593
        k(   17) = (   0.1666667   0.0000000   0.0000000), wk =   0.0370370
        k(   18) = (   0.1666667   0.0000000   0.1666667), wk =   0.0370370
        k(   19) = (   0.1666667   0.0000000   0.3333333), wk =   0.0370370
        k(   20) = (   0.1666667   0.0000000  -0.5000000), wk =   0.0370370
        k(   21) = (   0.1666667   0.1666667   0.0000000), wk =   0.0370370
        k(   22) = (   0.1666667   0.1666667   0.1666667), wk =   0.0370370
        k(   23) = (   0.1666667   0.1666667   0.3333333), wk =   0.0370370
        k(   24) = (   0.1666667   0.1666667  -0.5000000), wk =   0.0370370
        k(   25) = (   0.1666667   0.3333333   0.0000000), wk =   0.0185185
        k(   26) = (   0.1666667   0.3333333   0.1666667), wk =   0.0370370
        k(   27) = (   0.1666667   0.3333333   0.3333333), wk =   0.0370370
        k(   28) = (   0.1666667   0.3333333  -0.5000000), wk =   0.0185185
        k(   29) = (   0.1666667  -0.1666667   0.0000000), wk =   0.0185185
        k(   30) = (   0.1666667  -0.1666667   0.1666667), wk =   0.0370370
        k(   31) = (   0.1666667  -0.1666667   0.3333333), wk =   0.0370370
        k(   32) = (   0.1666667  -0.1666667  -0.5000000), wk =   0.0185185
        k(   33) = (   0.3333333   0.0000000   0.0000000), wk =   0.0370370
        k(   34) = (   0.3333333   0.0000000   0.1666667), wk =   0.0370370
        k(   35) = (   0.3333333   0.0000000   0.3333333), wk =   0.0370370
        k(   36) = (   0.3333333   0.0000000  -0.5000000), wk =   0.0370370
        k(   37) = (   0.3333333   0.1666667   0.0000000), wk =   0.0185185
        k(   38) = (   0.3333333   0.1666667   0.1666667), wk =   0.0370370
        k(   39) = (   0.3333333   0.1666667   0.3333333), wk =   0.0370370
        k(   40) = (   0.3333333   0.1666667  -0.5000000), wk =   0.0185185
        k(   41) = (   0.3333333  -0.5000000   0.0000000), wk =   0.0370370
        k(   42) = (   0.3333333  -0.5000000   0.1666667), wk =   0.0370370
        k(   43) = (   0.3333333  -0.5000000   0.3333333), wk =   0.0370370
        k(   44) = (   0.3333333  -0.5000000  -0.5000000), wk =   0.0370370
        k(   45) = (   0.3333333  -0.3333333   0.0000000), wk =   0.0185185
        k(   46) = (   0.3333333  -0.3333333   0.1666667), wk =   0.0370370
        k(   47) = (   0.3333333  -0.3333333   0.3333333), wk =   0.0370370
        k(   48) = (   0.3333333  -0.3333333  -0.5000000), wk =   0.0185185
        k(   49) = (  -0.5000000   0.0000000   0.0000000), wk =   0.0092593
        k(   50) = (  -0.5000000   0.0000000   0.1666667), wk =   0.0185185
        k(   51) = (  -0.5000000   0.0000000   0.3333333), wk =   0.0185185
        k(   52) = (  -0.5000000   0.0000000  -0.5000000), wk =   0.0092593
        k(   53) = (  -0.5000000   0.1666667   0.0000000), wk =   0.0185185
        k(   54) = (  -0.5000000   0.1666667   0.1666667), wk =   0.0185185
        k(   55) = (  -0.5000000   0.1666667   0.3333333), wk =   0.0185185
        k(   56) = (  -0.5000000   0.1666667  -0.5000000), wk =   0.0185185
        k(   57) = (  -0.5000000   0.3333333   0.0000000), wk =   0.0185185
        k(   58) = (  -0.5000000   0.3333333   0.1666667), wk =   0.0185185
        k(   59) = (  -0.5000000   0.3333333   0.3333333), wk =   0.0185185
        k(   60) = (  -0.5000000   0.3333333  -0.5000000), wk =   0.0185185
[...]
        k(   66) = (   0.0000000   0.1666667  -0.3333333), wk =   0.0185185
        k(   67) = (   0.0000000   0.3333333  -0.1666667), wk =   0.0185185
        k(   68) = (   0.0000000   0.3333333  -0.3333333), wk =   0.0185185
        k(   69) = (  -0.1666667   0.3333333  -0.1666667), wk =   0.0370370
        k(   70) = (  -0.1666667   0.3333333  -0.3333333), wk =   0.0370370
        k(   71) = (  -0.1666667   0.5000000  -0.1666667), wk =   0.0370370
        k(   72) = (  -0.1666667   0.5000000  -0.3333333), wk =   0.0370370
        k(   73) = (  -0.3333333   0.6666667  -0.1666667), wk =   0.0370370
        k(   74) = (  -0.3333333   0.6666667  -0.3333333), wk =   0.0370370
        k(   75) = (  -0.3333333   0.1666667  -0.1666667), wk =   0.0370370
        k(   76) = (  -0.3333333   0.1666667  -0.3333333), wk =   0.0370370
        k(   77) = (   0.5000000  -0.8333333  -0.1666667), wk =   0.0185185
        k(   78) = (   0.5000000  -0.8333333  -0.3333333), wk =   0.0185185
        k(   79) = (   0.5000000  -0.6666667  -0.1666667), wk =   0.0185185
        k(   80) = (   0.5000000  -0.6666667  -0.3333333), wk =   0.0185185

     Check: negative core charge=   -0.000002

     Initial potential from superposition of free atoms

     starting charge      71.9851, renormalised to      72.0000
     Starting wfcs are   52 randomized atomic wfcs

     Self-consistent Calculation

     iteration #  1     ecut=    50.00 Ry     beta= 0.30
     Davidson diagonalization with overlap

     ethr =  1.00E-02,  avg # of iterations =  2.0

     total energy              =    -722.95713686 Ry
     estimated scf accuracy    <       1.36908568 Ry

[...]

     total energy              =    -723.26421039 Ry
     estimated scf accuracy    <       0.00000005 Ry

     iteration # 26     ecut=    50.00 Ry     beta= 0.30
     Davidson diagonalization with overlap

     ethr =  6.46E-11,  avg # of iterations =  4.5

     End of self-consistent calculation

          k = 0.0000 0.0000 0.0000 (  3781 PWs)   bands (ev):

   -10.7081 -10.0152  -9.9062  -9.7668   1.5079   1.6727   1.7173   1.7175
     1.8881   1.8911   1.8912   1.8969   2.0260   2.3341   2.5301   2.5405
     2.9514   2.9514   3.0193   3.1180   3.1935   3.1935   3.2425   3.2969
     3.4906   3.8204   3.8280   4.6694   5.0829   6.2494   6.5620   6.6441
     6.6444   7.3840   7.4698   7.4702

     occupation numbers
     1.0000   1.0000   1.0000   1.0000   1.0000   1.0000   1.0000   1.0000
     1.0000   1.0000   1.0000   1.0000   1.0000   1.0000   1.0000   1.0000
     1.0000   1.0000   1.0000   1.0000   1.0000   1.0000   1.0000   1.0000
     1.0000   1.0000   1.0000   1.0000   1.0000   1.0000   1.0000   1.0000
     1.0000   1.0000   1.0000   1.0000

[...]

          k =-0.5000-0.2887 0.0000 (  3812 PWs)   bands (ev):

[...]

          k =-0.3333-0.0962-0.2151 (  3790 PWs)   bands (ev):

[...]

          k = 0.5000-0.0962-0.2151 (  3796 PWs)   bands (ev):

    -9.9489  -9.9489  -9.8175  -9.8175   1.4513   1.4513   1.5326   1.5326
     2.0305   2.0305   2.1514   2.1514   2.3197   2.3197   2.3769   2.3769
     3.0507   3.0507   3.1126   3.1126   3.2474   3.2474   3.3781   3.3781
     3.8039   3.8039   4.1164   4.1164   4.9637   4.9637   5.6709   5.6709
     5.8967   5.8967   6.5147   6.5147

     occupation numbers
     1.0000   1.0000   1.0000   1.0000   1.0000   1.0000   1.0000   1.0000
     1.0000   1.0000   1.0000   1.0000   1.0000   1.0000   1.0000   1.0000
     1.0000   1.0000   1.0000   1.0000   1.0000   1.0000   1.0000   1.0000
     1.0000   1.0000   1.0000   1.0000   1.0000   1.0000   1.0000   1.0000
     1.0000   1.0000   1.0000   1.0000

     highest occupied level (ev):     7.4702

!    total energy              =    -723.26421040 Ry
     estimated scf accuracy    <          2.7E-10 Ry

     The total energy is the sum of the following terms:
     one-electron contribution =    -299.82832050 Ry
     hartree contribution      =     233.35891897 Ry
     xc contribution           =    -219.26074128 Ry
     ewald contribution        =    -437.53406758 Ry

     convergence has been achieved in  26 iterations

     Forces acting on atoms (cartesian axes, Ry/au):

     atom    1 type  1   force =     0.00000000    0.00000707    0.00256776
     atom    2 type  2   force =     0.00000000    0.00000540   -0.00256819
     atom    3 type  1   force =     0.00000000   -0.00000748    0.00256758
     atom    4 type  2   force =     0.00000000   -0.00000500   -0.00256763
     atom    5 type  1   force =     0.00000000    0.00000200    0.00256947
     atom    6 type  2   force =     0.00000000    0.00000569   -0.00256856
     atom    7 type  1   force =     0.00000000   -0.00000362    0.00256733
     atom    8 type  2   force =     0.00000000   -0.00000406   -0.00256777
     The non-local contrib.  to forces
     atom    1 type  1   force =     0.00000000   -0.00002107    0.07059552
     atom    2 type  2   force =     0.00000000    0.00019722    0.04911004
     atom    3 type  1   force =     0.00000000    0.00002100    0.07059475
     atom    4 type  2   force =     0.00000000   -0.00019759    0.04911099
     atom    5 type  1   force =     0.00000000   -0.00002367    0.07059610
     atom    6 type  2   force =     0.00000000    0.00019789    0.04911013
     atom    7 type  1   force =     0.00000000    0.00002379    0.07059437
     atom    8 type  2   force =     0.00000000   -0.00019435    0.04911152
     The ionic contribution  to forces
     atom    1 type  1   force =    -0.00000000   -0.00000000    0.42771420
     atom    2 type  2   force =    -0.00000000    0.00000000   -0.42771420
     atom    3 type  1   force =     0.00000000    0.00000000    0.42771420
     atom    4 type  2   force =     0.00000000   -0.00000000   -0.42771420
     atom    5 type  1   force =     0.00000000   -0.00000000    0.42771420
     atom    6 type  2   force =    -0.00000000    0.00000000   -0.42771420
     atom    7 type  1   force =    -0.00000000    0.00000000    0.42771420
     atom    8 type  2   force =     0.00000000   -0.00000000   -0.42771420
     The local contribution  to forces
     atom    1 type  1   force =    -0.00000000    0.00003011   -0.49073106
     atom    2 type  2   force =     0.00000000   -0.00019017    0.37639161
     atom    3 type  1   force =    -0.00000000   -0.00003082   -0.49072909
     atom    4 type  2   force =    -0.00000000    0.00018822    0.37639294
     atom    5 type  1   force =     0.00000000    0.00003730   -0.49073269
     atom    6 type  2   force =     0.00000000   -0.00019103    0.37639022
     atom    7 type  1   force =    -0.00000000   -0.00003713   -0.49072887
     atom    8 type  2   force =    -0.00000000    0.00019183    0.37639113
     The core correction contribution to forces
     atom    1 type  1   force =     0.00000000   -0.00000561   -0.00501267
     atom    2 type  2   force =    -0.00000000   -0.00000224   -0.00035974
     atom    3 type  1   force =    -0.00000000    0.00000565   -0.00501260
     atom    4 type  2   force =     0.00000000    0.00000224   -0.00035974
     atom    5 type  1   force =    -0.00000000   -0.00000579   -0.00501258
     atom    6 type  2   force =     0.00000000   -0.00000225   -0.00035975
     atom    7 type  1   force =     0.00000000    0.00000569   -0.00501250
     atom    8 type  2   force =     0.00000000    0.00000221   -0.00035975
     The Hubbard contrib.    to forces
     atom    1 type  1   force =     0.00000000    0.00000000    0.00000000
     atom    2 type  2   force =     0.00000000    0.00000000    0.00000000
     atom    3 type  1   force =     0.00000000    0.00000000    0.00000000
     atom    4 type  2   force =     0.00000000    0.00000000    0.00000000
     atom    5 type  1   force =     0.00000000    0.00000000    0.00000000
     atom    6 type  2   force =     0.00000000    0.00000000    0.00000000
     atom    7 type  1   force =     0.00000000    0.00000000    0.00000000
     atom    8 type  2   force =     0.00000000    0.00000000    0.00000000
     The SCF correction term to forces
     atom    1 type  1   force =    -0.00000000    0.00000399   -0.00000081
     atom    2 type  2   force =     0.00000000    0.00000094    0.00000153
     atom    3 type  1   force =     0.00000000   -0.00000295   -0.00000226
     atom    4 type  2   force =    -0.00000000    0.00000249   -0.00000020
     atom    5 type  1   force =    -0.00000000   -0.00000549    0.00000187
     atom    6 type  2   force =     0.00000000    0.00000143    0.00000246
     atom    7 type  1   force =     0.00000000    0.00000439   -0.00000244
     atom    8 type  2   force =    -0.00000000   -0.00000339    0.00000096

     Total force =     0.007264     Total SCF correction =     0.000011

     General routines

     Parallel routines

   This run was terminated on:  17:14:49  13Jul2025

   JOB DONE.
Note: The following floating-point exceptions are signalling: IEEE_INVALID_FLAG
Note: The following floating-point exceptions are signalling: IEEE_INVALID_FLAG