     Program PWSCF v.7.2 starts on 13Jul2025 at 19:56:56

     Reading input from /home/jvc/QEspresso7.2/ZnO_database/scripts/cell121.in/ZnO-3.40-1.55-121.in
Warning: card &CELL ignored
Warning: card / ignored
Warning: card &FCP ignored
Warning: card / ignored
Warning: card &RISM ignored
Warning: card / ignored

     Current dimensions of program PWSCF are:
     Max number of different atomic species (ntypx) = 10
     Max number of k-points (npk) =  40000
     Max angular momentum in pseudopotentials (lmaxx) =  4
     file Zn.upf: wavefunction(s)  3D renormalized
     Found identity + (  0.0000 -0.5000  0.0000) symmetry
     This is a supercell, fractional translations are disabled
     Message from routine setup:
     using ibrav=0 with symmetry is DISCOURAGED, use correct ibrav instead

     K-points division:     npool     =       2
     R & G space division:  proc/nbgrp/npool/nimage =       4
     Subspace diagonalization in iterative solution of the eigenvalue problem:
     a serial algorithm will be used

     Using Slab Decomposition

     bravais-lattice index     =            0
     lattice parameter (alat)  =       6.4260  a.u.
     unit-cell volume          =     712.2880 (a.u.)^3
     number of atoms/cell      =            8
     number of atomic types    =            2
     number of electrons       =        72.00
     number of Kohn-Sham states=           36
     kinetic-energy cutoff     =      50.0000  Ry
     charge density cutoff     =     400.0000  Ry
     scf convergence threshold =      1.0E-08
     mixing beta               =       0.3000
     number of iterations used =            8  plain     mixing
     Exchange-correlation= PBE
                           (   1   4   3   4   0   0   0)

     celldm(1)=   6.426008  celldm(2)=   0.000000  celldm(3)=   0.000000
     celldm(4)=   0.000000  celldm(5)=   0.000000  celldm(6)=   0.000000

     crystal axes: (cart. coord. in units of alat)
               a(1) = (   1.000000   0.000000   0.000000 )
               a(2) = (  -1.000000   1.732051   0.000000 )
               a(3) = (   0.000000   0.000000   1.549784 )

     reciprocal axes: (cart. coord. in units 2 pi/alat)
               b(1) = (  1.000000  0.577350 -0.000000 )
               b(2) = (  0.000000  0.577350  0.000000 )
               b(3) = (  0.000000 -0.000000  0.645251 )

     PseudoPot. # 1 for Zn read from file:
     /home/jvc/QEspresso7.2/ZnO_database/pseudos/Zn.upf
     MD5 check sum: 7f56cabf9682ed8c977c2f7d0c5985c5
     Pseudo is Ultrasoft + core correction, Zval = 12.0
     Generated using &quot;atomic&quot; code by A. Dal Corso  v.6.2.2
     Using radial grid of 1201 points,  6 beta functions with:
                l(1) =   0
                l(2) =   0
                l(3) =   1
                l(4) =   1
                l(5) =   2
                l(6) =   2
     Q(r) pseudized with 0 coefficients

     PseudoPot. # 2 for O  read from file:
     /home/jvc/QEspresso7.2/ZnO_database/pseudos/O.upf
     MD5 check sum: 91400c9766925bcf19f520983a725ff0
     Pseudo is Ultrasoft + core correction, Zval =  6.0
     Generated using &quot;atomic&quot; code by A. Dal Corso  v.6.3MaX
     Using radial grid of 1095 points,  4 beta functions with:
                l(1) =   0
                l(2) =   0
                l(3) =   1
                l(4) =   1
     Q(r) pseudized with 0 coefficients

     atomic species   valence    mass     pseudopotential
        Zn            12.00    65.38000     Zn( 1.00)
        O              6.00    15.99900     O ( 1.00)

      2 Sym. Ops. (no inversion) found

                                    s                        frac. trans.

      isym =  1     identity

 cryst.   s( 1) = (     1          0          0      )
                  (     0          1          0      )
                  (     0          0          1      )

 cart.    s( 1) = (  1.0000000  0.0000000  0.0000000 )
                  (  0.0000000  1.0000000  0.0000000 )
                  (  0.0000000  0.0000000  1.0000000 )

      isym =  2     inv. 180 deg rotation - cart. axis [1,0,0]

 cryst.   s( 2) = (    -1          0          0      )
                  (     2          1          0      )
                  (     0          0          1      )

 cart.    s( 2) = ( -1.0000000  0.0000000  0.0000000 )
                  (  0.0000000  1.0000000  0.0000000 )
                  (  0.0000000  0.0000000  1.0000000 )

   Cartesian axes

     site n.     atom                  positions (alat units)
         1           Zn  tau(   1) = (   0.0000000   0.0000000   0.0000000  )
         2           O   tau(   2) = (   0.0000000   0.5773503   0.1723623  )
         3           Zn  tau(   3) = (   0.0000000   0.5773503   0.7748920  )
         4           O   tau(   4) = (   0.0000000   0.0000000   0.9472543  )
         5           Zn  tau(   5) = (  -0.5000000   0.8660254   0.0000000  )
         6           O   tau(   6) = (  -0.5000000   1.4433757   0.1723623  )
         7           Zn  tau(   7) = (  -0.5000000   1.4433757   0.7748920  )
         8           O   tau(   8) = (  -0.5000000   0.8660254   0.9472543  )

   Crystallographic axes

     site n.     atom                  positions (cryst. coord.)
         1           Zn  tau(   1) = (  0.0000000  0.0000000  0.0000000  )
         2           O   tau(   2) = (  0.3333333  0.3333333  0.1112170  )
         3           Zn  tau(   3) = (  0.3333333  0.3333333  0.5000000  )
         4           O   tau(   4) = (  0.0000000  0.0000000  0.6112170  )
         5           Zn  tau(   5) = (  0.0000000  0.5000000  0.0000000  )
         6           O   tau(   6) = (  0.3333333  0.8333333  0.1112170  )
         7           Zn  tau(   7) = (  0.3333333  0.8333333  0.5000000  )
         8           O   tau(   8) = (  0.0000000  0.5000000  0.6112170  )

     number of k points=    80
                       cart. coord. in units 2pi/alat
        k(    1) = (   0.0000000   0.0000000   0.0000000), wk =   0.0092593
        k(    2) = (   0.0000000   0.0000000   0.1075419), wk =   0.0185185
        k(    3) = (   0.0000000   0.0000000   0.2150837), wk =   0.0185185
        k(    4) = (   0.0000000   0.0000000  -0.3226256), wk =   0.0092593
        k(    5) = (   0.0000000   0.0962250   0.0000000), wk =   0.0185185
        k(    6) = (   0.0000000   0.0962250   0.1075419), wk =   0.0185185
        k(    7) = (   0.0000000   0.0962250   0.2150837), wk =   0.0185185
        k(    8) = (   0.0000000   0.0962250  -0.3226256), wk =   0.0185185
        k(    9) = (   0.0000000   0.1924501   0.0000000), wk =   0.0185185
        k(   10) = (   0.0000000   0.1924501   0.1075419), wk =   0.0185185
        k(   11) = (   0.0000000   0.1924501   0.2150837), wk =   0.0185185
        k(   12) = (   0.0000000   0.1924501  -0.3226256), wk =   0.0185185
        k(   13) = (   0.0000000  -0.2886751   0.0000000), wk =   0.0092593
        k(   14) = (   0.0000000  -0.2886751   0.1075419), wk =   0.0185185
        k(   15) = (   0.0000000  -0.2886751   0.2150837), wk =   0.0185185
        k(   16) = (   0.0000000  -0.2886751  -0.3226256), wk =   0.0092593
        k(   17) = (   0.1666667   0.0962250   0.0000000), wk =   0.0370370
        k(   18) = (   0.1666667   0.0962250   0.1075419), wk =   0.0370370
        k(   19) = (   0.1666667   0.0962250   0.2150837), wk =   0.0370370
        k(   20) = (   0.1666667   0.0962250  -0.3226256), wk =   0.0370370
        k(   21) = (   0.1666667   0.1924501   0.0000000), wk =   0.0370370
        k(   22) = (   0.1666667   0.1924501   0.1075419), wk =   0.0370370
        k(   23) = (   0.1666667   0.1924501   0.2150837), wk =   0.0370370
        k(   24) = (   0.1666667   0.1924501  -0.3226256), wk =   0.0370370
        k(   25) = (   0.1666667   0.2886751   0.0000000), wk =   0.0185185
        k(   26) = (   0.1666667   0.2886751   0.1075419), wk =   0.0370370
        k(   27) = (   0.1666667   0.2886751   0.2150837), wk =   0.0370370
        k(   28) = (   0.1666667   0.2886751  -0.3226256), wk =   0.0185185
        k(   29) = (   0.1666667   0.0000000   0.0000000), wk =   0.0185185
        k(   30) = (   0.1666667   0.0000000   0.1075419), wk =   0.0370370
        k(   31) = (   0.1666667   0.0000000   0.2150837), wk =   0.0370370
        k(   32) = (   0.1666667   0.0000000  -0.3226256), wk =   0.0185185
        k(   33) = (   0.3333333   0.1924501   0.0000000), wk =   0.0370370
        k(   34) = (   0.3333333   0.1924501   0.1075419), wk =   0.0370370
        k(   35) = (   0.3333333   0.1924501   0.2150837), wk =   0.0370370
        k(   36) = (   0.3333333   0.1924501  -0.3226256), wk =   0.0370370
        k(   37) = (   0.3333333   0.2886751   0.0000000), wk =   0.0185185
        k(   38) = (   0.3333333   0.2886751   0.1075419), wk =   0.0370370
        k(   39) = (   0.3333333   0.2886751   0.2150837), wk =   0.0370370
        k(   40) = (   0.3333333   0.2886751  -0.3226256), wk =   0.0185185
        k(   41) = (   0.3333333  -0.0962250   0.0000000), wk =   0.0370370
        k(   42) = (   0.3333333  -0.0962250   0.1075419), wk =   0.0370370
        k(   43) = (   0.3333333  -0.0962250   0.2150837), wk =   0.0370370
        k(   44) = (   0.3333333  -0.0962250  -0.3226256), wk =   0.0370370
        k(   45) = (   0.3333333  -0.0000000   0.0000000), wk =   0.0185185
        k(   46) = (   0.3333333  -0.0000000   0.1075419), wk =   0.0370370
        k(   47) = (   0.3333333  -0.0000000   0.2150837), wk =   0.0370370
        k(   48) = (   0.3333333  -0.0000000  -0.3226256), wk =   0.0185185
        k(   49) = (  -0.5000000  -0.2886751   0.0000000), wk =   0.0092593
        k(   50) = (  -0.5000000  -0.2886751   0.1075419), wk =   0.0185185
        k(   51) = (  -0.5000000  -0.2886751   0.2150837), wk =   0.0185185
        k(   52) = (  -0.5000000  -0.2886751  -0.3226256), wk =   0.0092593
        k(   53) = (  -0.5000000  -0.1924501   0.0000000), wk =   0.0185185
        k(   54) = (  -0.5000000  -0.1924501   0.1075419), wk =   0.0185185
        k(   55) = (  -0.5000000  -0.1924501   0.2150837), wk =   0.0185185
        k(   56) = (  -0.5000000  -0.1924501  -0.3226256), wk =   0.0185185
        k(   57) = (  -0.5000000  -0.0962250   0.0000000), wk =   0.0185185
        k(   58) = (  -0.5000000  -0.0962250   0.1075419), wk =   0.0185185
        k(   59) = (  -0.5000000  -0.0962250   0.2150837), wk =   0.0185185
        k(   60) = (  -0.5000000  -0.0962250  -0.3226256), wk =   0.0185185
[...]
        k(   66) = (   0.0000000   0.0962250  -0.2150837), wk =   0.0185185
        k(   67) = (   0.0000000   0.1924501  -0.1075419), wk =   0.0185185
        k(   68) = (   0.0000000   0.1924501  -0.2150837), wk =   0.0185185
        k(   69) = (  -0.1666667   0.0962250  -0.1075419), wk =   0.0370370
        k(   70) = (  -0.1666667   0.0962250  -0.2150837), wk =   0.0370370
        k(   71) = (  -0.1666667   0.1924501  -0.1075419), wk =   0.0370370
        k(   72) = (  -0.1666667   0.1924501  -0.2150837), wk =   0.0370370
        k(   73) = (  -0.3333333   0.1924501  -0.1075419), wk =   0.0370370
        k(   74) = (  -0.3333333   0.1924501  -0.2150837), wk =   0.0370370
        k(   75) = (  -0.3333333  -0.0962250  -0.1075419), wk =   0.0370370
        k(   76) = (  -0.3333333  -0.0962250  -0.2150837), wk =   0.0370370
        k(   77) = (   0.5000000  -0.1924501  -0.1075419), wk =   0.0185185
        k(   78) = (   0.5000000  -0.1924501  -0.2150837), wk =   0.0185185
        k(   79) = (   0.5000000  -0.0962250  -0.1075419), wk =   0.0185185
        k(   80) = (   0.5000000  -0.0962250  -0.2150837), wk =   0.0185185

                       cryst. coord.
        k(    1) = (   0.0000000   0.0000000   0.0000000), wk =   0.0092593
        k(    2) = (   0.0000000   0.0000000   0.1666667), wk =   0.0185185
        k(    3) = (   0.0000000   0.0000000   0.3333333), wk =   0.0185185
        k(    4) = (   0.0000000   0.0000000  -0.5000000), wk =   0.0092593
        k(    5) = (   0.0000000   0.1666667   0.0000000), wk =   0.0185185
        k(    6) = (   0.0000000   0.1666667   0.1666667), wk =   0.0185185
        k(    7) = (   0.0000000   0.1666667   0.3333333), wk =   0.0185185
        k(    8) = (   0.0000000   0.1666667  -0.5000000), wk =   0.0185185
        k(    9) = (   0.0000000   0.3333333   0.0000000), wk =   0.0185185
        k(   10) = (   0.0000000   0.3333333   0.1666667), wk =   0.0185185
        k(   11) = (   0.0000000   0.3333333   0.3333333), wk =   0.0185185
        k(   12) = (   0.0000000   0.3333333  -0.5000000), wk =   0.0185185
        k(   13) = (   0.0000000  -0.5000000   0.0000000), wk =   0.0092593
        k(   14) = (   0.0000000  -0.5000000   0.1666667), wk =   0.0185185
        k(   15) = (   0.0000000  -0.5000000   0.3333333), wk =   0.0185185
        k(   16) = (   0.0000000  -0.5000000  -0.5000000), wk =   0.0092593
        k(   17) = (   0.1666667   0.0000000   0.0000000), wk =   0.0370370
        k(   18) = (   0.1666667   0.0000000   0.1666667), wk =   0.0370370
        k(   19) = (   0.1666667   0.0000000   0.3333333), wk =   0.0370370
        k(   20) = (   0.1666667   0.0000000  -0.5000000), wk =   0.0370370
        k(   21) = (   0.1666667   0.1666667   0.0000000), wk =   0.0370370
        k(   22) = (   0.1666667   0.1666667   0.1666667), wk =   0.0370370
        k(   23) = (   0.1666667   0.1666667   0.3333333), wk =   0.0370370
        k(   24) = (   0.1666667   0.1666667  -0.5000000), wk =   0.0370370
        k(   25) = (   0.1666667   0.3333333   0.0000000), wk =   0.0185185
        k(   26) = (   0.1666667   0.3333333   0.1666667), wk =   0.0370370
        k(   27) = (   0.1666667   0.3333333   0.3333333), wk =   0.0370370
        k(   28) = (   0.1666667   0.3333333  -0.5000000), wk =   0.0185185
        k(   29) = (   0.1666667  -0.1666667   0.0000000), wk =   0.0185185
        k(   30) = (   0.1666667  -0.1666667   0.1666667), wk =   0.0370370
        k(   31) = (   0.1666667  -0.1666667   0.3333333), wk =   0.0370370
        k(   32) = (   0.1666667  -0.1666667  -0.5000000), wk =   0.0185185
        k(   33) = (   0.3333333   0.0000000   0.0000000), wk =   0.0370370
        k(   34) = (   0.3333333   0.0000000   0.1666667), wk =   0.0370370
        k(   35) = (   0.3333333   0.0000000   0.3333333), wk =   0.0370370
        k(   36) = (   0.3333333   0.0000000  -0.5000000), wk =   0.0370370
        k(   37) = (   0.3333333   0.1666667   0.0000000), wk =   0.0185185
        k(   38) = (   0.3333333   0.1666667   0.1666667), wk =   0.0370370
        k(   39) = (   0.3333333   0.1666667   0.3333333), wk =   0.0370370
        k(   40) = (   0.3333333   0.1666667  -0.5000000), wk =   0.0185185
        k(   41) = (   0.3333333  -0.5000000   0.0000000), wk =   0.0370370
        k(   42) = (   0.3333333  -0.5000000   0.1666667), wk =   0.0370370
        k(   43) = (   0.3333333  -0.5000000   0.3333333), wk =   0.0370370
        k(   44) = (   0.3333333  -0.5000000  -0.5000000), wk =   0.0370370
        k(   45) = (   0.3333333  -0.3333333   0.0000000), wk =   0.0185185
        k(   46) = (   0.3333333  -0.3333333   0.1666667), wk =   0.0370370
        k(   47) = (   0.3333333  -0.3333333   0.3333333), wk =   0.0370370
        k(   48) = (   0.3333333  -0.3333333  -0.5000000), wk =   0.0185185
        k(   49) = (  -0.5000000   0.0000000   0.0000000), wk =   0.0092593
        k(   50) = (  -0.5000000   0.0000000   0.1666667), wk =   0.0185185
        k(   51) = (  -0.5000000   0.0000000   0.3333333), wk =   0.0185185
        k(   52) = (  -0.5000000   0.0000000  -0.5000000), wk =   0.0092593
        k(   53) = (  -0.5000000   0.1666667   0.0000000), wk =   0.0185185
        k(   54) = (  -0.5000000   0.1666667   0.1666667), wk =   0.0185185
        k(   55) = (  -0.5000000   0.1666667   0.3333333), wk =   0.0185185
        k(   56) = (  -0.5000000   0.1666667  -0.5000000), wk =   0.0185185
        k(   57) = (  -0.5000000   0.3333333   0.0000000), wk =   0.0185185
        k(   58) = (  -0.5000000   0.3333333   0.1666667), wk =   0.0185185
        k(   59) = (  -0.5000000   0.3333333   0.3333333), wk =   0.0185185
        k(   60) = (  -0.5000000   0.3333333  -0.5000000), wk =   0.0185185
[...]
        k(   66) = (   0.0000000   0.1666667  -0.3333333), wk =   0.0185185
        k(   67) = (   0.0000000   0.3333333  -0.1666667), wk =   0.0185185
        k(   68) = (   0.0000000   0.3333333  -0.3333333), wk =   0.0185185
        k(   69) = (  -0.1666667   0.3333333  -0.1666667), wk =   0.0370370
        k(   70) = (  -0.1666667   0.3333333  -0.3333333), wk =   0.0370370
        k(   71) = (  -0.1666667   0.5000000  -0.1666667), wk =   0.0370370
        k(   72) = (  -0.1666667   0.5000000  -0.3333333), wk =   0.0370370
        k(   73) = (  -0.3333333   0.6666667  -0.1666667), wk =   0.0370370
        k(   74) = (  -0.3333333   0.6666667  -0.3333333), wk =   0.0370370
        k(   75) = (  -0.3333333   0.1666667  -0.1666667), wk =   0.0370370
        k(   76) = (  -0.3333333   0.1666667  -0.3333333), wk =   0.0370370
        k(   77) = (   0.5000000  -0.8333333  -0.1666667), wk =   0.0185185
        k(   78) = (   0.5000000  -0.8333333  -0.3333333), wk =   0.0185185
        k(   79) = (   0.5000000  -0.6666667  -0.1666667), wk =   0.0185185
        k(   80) = (   0.5000000  -0.6666667  -0.3333333), wk =   0.0185185

     Check: negative core charge=   -0.000002

     Initial potential from superposition of free atoms

     starting charge      71.9851, renormalised to      72.0000
     Starting wfcs are   52 randomized atomic wfcs

     Self-consistent Calculation

     iteration #  1     ecut=    50.00 Ry     beta= 0.30
     Davidson diagonalization with overlap

     ethr =  1.00E-02,  avg # of iterations =  1.9

     total energy              =    -722.91965502 Ry
     estimated scf accuracy    <       1.44731481 Ry

[...]

     c_bands:  1 eigenvalues not converged
     ethr =  6.97E-07,  avg # of iterations = 11.7

[...]

     total energy              =    -723.25866254 Ry
     estimated scf accuracy    <       0.00000803 Ry

     iteration # 32     ecut=    50.00 Ry     beta= 0.30
     Davidson diagonalization with overlap

     ethr =  5.29E-09,  avg # of iterations =  5.5

     End of self-consistent calculation

          k = 0.0000 0.0000 0.0000 (  4261 PWs)   bands (ev):

   -11.5043 -10.9679 -10.8822 -10.7747   0.4418   0.5368   0.5370   0.6669
     0.6811   0.6812   0.7106   0.7793   1.0471   1.1203   1.1737   1.1880
     1.4347   1.4347   1.5030   1.5633   1.6174   1.6174   1.6548   1.7031
     1.8877   2.2648   2.5395   3.3373   3.7820   4.7450   5.0362   5.0791
     5.0795   5.7560   5.7805   5.7809

     occupation numbers
     1.0000   1.0000   1.0000   1.0000   1.0000   1.0000   1.0000   1.0000
     1.0000   1.0000   1.0000   1.0000   1.0000   1.0000   1.0000   1.0000
     1.0000   1.0000   1.0000   1.0000   1.0000   1.0000   1.0000   1.0000
     1.0000   1.0000   1.0000   1.0000   1.0000   1.0000   1.0000   1.0000
     1.0000   1.0000   1.0000   1.0000

[...]

          k =-0.5000-0.2887 0.0000 (  4240 PWs)   bands (ev):

[...]

          k =-0.3333-0.0962-0.2151 (  4248 PWs)   bands (ev):

[...]

          k = 0.5000-0.0962-0.2151 (  4250 PWs)   bands (ev):

   -10.9169 -10.9168 -10.8154 -10.8153   0.4363   0.4363   0.5335   0.5335
     0.8140   0.8140   0.9431   0.9431   1.0335   1.0335   1.0717   1.0717
     1.5199   1.5199   1.5597   1.5597   1.6680   1.6680   1.7683   1.7683
     2.3434   2.3434   2.6167   2.6167   3.6167   3.6168   4.2692   4.2692
     4.4365   4.4366   5.0016   5.0017

     occupation numbers
     1.0000   1.0000   1.0000   1.0000   1.0000   1.0000   1.0000   1.0000
     1.0000   1.0000   1.0000   1.0000   1.0000   1.0000   1.0000   1.0000
     1.0000   1.0000   1.0000   1.0000   1.0000   1.0000   1.0000   1.0000
     1.0000   1.0000   1.0000   1.0000   1.0000   1.0000   1.0000   1.0000
     1.0000   1.0000   1.0000   1.0000

     highest occupied level (ev):     5.7809

!    total energy              =    -723.25866471 Ry
     estimated scf accuracy    <          2.5E-09 Ry

     The total energy is the sum of the following terms:
     one-electron contribution =    -326.69202137 Ry
     hartree contribution      =     242.92789234 Ry
     xc contribution           =    -218.78870148 Ry
     ewald contribution        =    -420.70583421 Ry

     convergence has been achieved in  32 iterations

     Forces acting on atoms (cartesian axes, Ry/au):

     atom    1 type  1   force =     0.00000000   -0.00000489   -0.00117251
     atom    2 type  2   force =     0.00000000    0.00000206    0.00118112
     atom    3 type  1   force =     0.00000000   -0.00000595   -0.00119026
     atom    4 type  2   force =     0.00000000   -0.00000389    0.00117867
     atom    5 type  1   force =     0.00000000    0.00000484   -0.00116467
     atom    6 type  2   force =     0.00000000    0.00000536    0.00117569
     atom    7 type  1   force =     0.00000000    0.00000348   -0.00118650
     atom    8 type  2   force =     0.00000000   -0.00000101    0.00117846
     The non-local contrib.  to forces
     atom    1 type  1   force =     0.00000000   -0.00001554    0.06723703
     atom    2 type  2   force =     0.00000000    0.00020091    0.04936583
     atom    3 type  1   force =     0.00000000    0.00001407    0.06722958
     atom    4 type  2   force =     0.00000000   -0.00020887    0.04937141
     atom    5 type  1   force =     0.00000000   -0.00001208    0.06723650
     atom    6 type  2   force =     0.00000000    0.00021075    0.04936725
     atom    7 type  1   force =     0.00000000    0.00001570    0.06722607
     atom    8 type  2   force =     0.00000000   -0.00020200    0.04936916
     The ionic contribution  to forces
     atom    1 type  1   force =     0.00000000   -0.00000000    0.39544582
     atom    2 type  2   force =     0.00000000    0.00000000   -0.39544582
     atom    3 type  1   force =     0.00000000    0.00000000    0.39544582
     atom    4 type  2   force =    -0.00000000   -0.00000000   -0.39544582
     atom    5 type  1   force =     0.00000000   -0.00000000    0.39544582
     atom    6 type  2   force =     0.00000000    0.00000000   -0.39544582
     atom    7 type  1   force =     0.00000000    0.00000000    0.39544582
     atom    8 type  2   force =    -0.00000000   -0.00000000   -0.39544582
     The local contribution  to forces
     atom    1 type  1   force =    -0.00000000    0.00002697   -0.45966332
     atom    2 type  2   force =    -0.00000000   -0.00019998    0.34763371
     atom    3 type  1   force =    -0.00000000   -0.00001955   -0.45963477
     atom    4 type  2   force =    -0.00000000    0.00020667    0.34765447
     atom    5 type  1   force =    -0.00000000    0.00001567   -0.45966932
     atom    6 type  2   force =     0.00000000   -0.00020095    0.34764239
     atom    7 type  1   force =    -0.00000000   -0.00002703   -0.45963635
     atom    8 type  2   force =     0.00000000    0.00019979    0.34766249
     The core correction contribution to forces
     atom    1 type  1   force =    -0.00000005   -0.00000586   -0.00421508
     atom    2 type  2   force =     0.00000001   -0.00000224   -0.00039185
     atom    3 type  1   force =     0.00000005    0.00000618   -0.00421544
     atom    4 type  2   force =    -0.00000001    0.00000236   -0.00039184
     atom    5 type  1   force =     0.00000007   -0.00000623   -0.00421490
     atom    6 type  2   force =    -0.00000000   -0.00000241   -0.00039180
     atom    7 type  1   force =    -0.00000007    0.00000598   -0.00421512
     atom    8 type  2   force =     0.00000000    0.00000229   -0.00039176
     The Hubbard contrib.    to forces
     atom    1 type  1   force =     0.00000000    0.00000000    0.00000000
     atom    2 type  2   force =     0.00000000    0.00000000    0.00000000
     atom    3 type  1   force =     0.00000000    0.00000000    0.00000000
     atom    4 type  2   force =     0.00000000    0.00000000    0.00000000
     atom    5 type  1   force =     0.00000000    0.00000000    0.00000000
     atom    6 type  2   force =     0.00000000    0.00000000    0.00000000
     atom    7 type  1   force =     0.00000000    0.00000000    0.00000000
     atom    8 type  2   force =     0.00000000    0.00000000    0.00000000
     The SCF correction term to forces
     atom    1 type  1   force =     0.00000000   -0.00001001    0.00002299
     atom    2 type  2   force =     0.00000000    0.00000380    0.00001919
     atom    3 type  1   force =     0.00000000   -0.00000621   -0.00001551
     atom    4 type  2   force =    -0.00000000   -0.00000361   -0.00000960
     atom    5 type  1   force =    -0.00000000    0.00000792    0.00003718
     atom    6 type  2   force =     0.00000000   -0.00000160    0.00000363
     atom    7 type  1   force =     0.00000000    0.00000927   -0.00000697
     atom    8 type  2   force =    -0.00000000   -0.00000064   -0.00001566

     Total force =     0.003333     Total SCF correction =     0.000057

     General routines

     Parallel routines

   This run was terminated on:  20: 2:53  13Jul2025

   JOB DONE.
Note: The following floating-point exceptions are signalling: IEEE_INVALID_FLAG
Note: The following floating-point exceptions are signalling: IEEE_INVALID_FLAG