     Program PWSCF v.7.2 starts on 13Jul2025 at 23:58: 9

     Reading input from /home/jvc/QEspresso7.2/ZnO_database/scripts/cell121.in/ZnO-3.60-1.49-121.in
Warning: card &CELL ignored
Warning: card / ignored
Warning: card &FCP ignored
Warning: card / ignored
Warning: card &RISM ignored
Warning: card / ignored

     Current dimensions of program PWSCF are:
     Max number of different atomic species (ntypx) = 10
     Max number of k-points (npk) =  40000
     Max angular momentum in pseudopotentials (lmaxx) =  4
     file Zn.upf: wavefunction(s)  3D renormalized
     Found identity + (  0.0000 -0.5000  0.0000) symmetry
     This is a supercell, fractional translations are disabled
     Message from routine setup:
     using ibrav=0 with symmetry is DISCOURAGED, use correct ibrav instead

     K-points division:     npool     =       2
     R & G space division:  proc/nbgrp/npool/nimage =       4
     Subspace diagonalization in iterative solution of the eigenvalue problem:
     a serial algorithm will be used

     Using Slab Decomposition

     bravais-lattice index     =            0
     lattice parameter (alat)  =       6.7967  a.u.
     unit-cell volume          =     807.7003 (a.u.)^3
     number of atoms/cell      =            8
     number of atomic types    =            2
     number of electrons       =        72.00
     number of Kohn-Sham states=           36
     kinetic-energy cutoff     =      50.0000  Ry
     charge density cutoff     =     400.0000  Ry
     scf convergence threshold =      1.0E-08
     mixing beta               =       0.3000
     number of iterations used =            8  plain     mixing
     Exchange-correlation= PBE
                           (   1   4   3   4   0   0   0)

     celldm(1)=   6.796739  celldm(2)=   0.000000  celldm(3)=   0.000000
     celldm(4)=   0.000000  celldm(5)=   0.000000  celldm(6)=   0.000000

     crystal axes: (cart. coord. in units of alat)
               a(1) = (   1.000000   0.000000   0.000000 )
               a(2) = (  -1.000000   1.732051   0.000000 )
               a(3) = (   0.000000   0.000000   1.485210 )

     reciprocal axes: (cart. coord. in units 2 pi/alat)
               b(1) = (  1.000000  0.577350 -0.000000 )
               b(2) = (  0.000000  0.577350  0.000000 )
               b(3) = (  0.000000 -0.000000  0.673306 )

     PseudoPot. # 1 for Zn read from file:
     /home/jvc/QEspresso7.2/ZnO_database/pseudos/Zn.upf
     MD5 check sum: 7f56cabf9682ed8c977c2f7d0c5985c5
     Pseudo is Ultrasoft + core correction, Zval = 12.0
     Generated using &quot;atomic&quot; code by A. Dal Corso  v.6.2.2
     Using radial grid of 1201 points,  6 beta functions with:
                l(1) =   0
                l(2) =   0
                l(3) =   1
                l(4) =   1
                l(5) =   2
                l(6) =   2
     Q(r) pseudized with 0 coefficients

     PseudoPot. # 2 for O  read from file:
     /home/jvc/QEspresso7.2/ZnO_database/pseudos/O.upf
     MD5 check sum: 91400c9766925bcf19f520983a725ff0
     Pseudo is Ultrasoft + core correction, Zval =  6.0
     Generated using &quot;atomic&quot; code by A. Dal Corso  v.6.3MaX
     Using radial grid of 1095 points,  4 beta functions with:
                l(1) =   0
                l(2) =   0
                l(3) =   1
                l(4) =   1
     Q(r) pseudized with 0 coefficients

     atomic species   valence    mass     pseudopotential
        Zn            12.00    65.38000     Zn( 1.00)
        O              6.00    15.99900     O ( 1.00)

      2 Sym. Ops. (no inversion) found

                                    s                        frac. trans.

      isym =  1     identity

 cryst.   s( 1) = (     1          0          0      )
                  (     0          1          0      )
                  (     0          0          1      )

 cart.    s( 1) = (  1.0000000  0.0000000  0.0000000 )
                  (  0.0000000  1.0000000  0.0000000 )
                  (  0.0000000  0.0000000  1.0000000 )

      isym =  2     inv. 180 deg rotation - cart. axis [1,0,0]

 cryst.   s( 2) = (    -1          0          0      )
                  (     2          1          0      )
                  (     0          0          1      )

 cart.    s( 2) = ( -1.0000000  0.0000000  0.0000000 )
                  (  0.0000000  1.0000000  0.0000000 )
                  (  0.0000000  0.0000000  1.0000000 )

   Cartesian axes

     site n.     atom                  positions (alat units)
         1           Zn  tau(   1) = (   0.0000000   0.0000000   0.0000000  )
         2           O   tau(   2) = (   0.0000000   0.5773503   0.1468672  )
         3           Zn  tau(   3) = (   0.0000000   0.5773503   0.7426048  )
         4           O   tau(   4) = (   0.0000000   0.0000000   0.8894721  )
         5           Zn  tau(   5) = (  -0.5000000   0.8660254   0.0000000  )
         6           O   tau(   6) = (  -0.5000000   1.4433757   0.1468672  )
         7           Zn  tau(   7) = (  -0.5000000   1.4433757   0.7426048  )
         8           O   tau(   8) = (  -0.5000000   0.8660254   0.8894721  )

   Crystallographic axes

     site n.     atom                  positions (cryst. coord.)
         1           Zn  tau(   1) = (  0.0000000  0.0000000  0.0000000  )
         2           O   tau(   2) = (  0.3333333  0.3333333  0.0988865  )
         3           Zn  tau(   3) = (  0.3333333  0.3333333  0.5000000  )
         4           O   tau(   4) = (  0.0000000  0.0000000  0.5988865  )
         5           Zn  tau(   5) = (  0.0000000  0.5000000  0.0000000  )
         6           O   tau(   6) = (  0.3333333  0.8333333  0.0988865  )
         7           Zn  tau(   7) = (  0.3333333  0.8333333  0.5000000  )
         8           O   tau(   8) = (  0.0000000  0.5000000  0.5988865  )

     number of k points=    80
                       cart. coord. in units 2pi/alat
        k(    1) = (   0.0000000   0.0000000   0.0000000), wk =   0.0092593
        k(    2) = (   0.0000000   0.0000000   0.1122176), wk =   0.0185185
        k(    3) = (   0.0000000   0.0000000   0.2244352), wk =   0.0185185
        k(    4) = (   0.0000000   0.0000000  -0.3366528), wk =   0.0092593
        k(    5) = (   0.0000000   0.0962250   0.0000000), wk =   0.0185185
        k(    6) = (   0.0000000   0.0962250   0.1122176), wk =   0.0185185
        k(    7) = (   0.0000000   0.0962250   0.2244352), wk =   0.0185185
        k(    8) = (   0.0000000   0.0962250  -0.3366528), wk =   0.0185185
        k(    9) = (   0.0000000   0.1924501   0.0000000), wk =   0.0185185
        k(   10) = (   0.0000000   0.1924501   0.1122176), wk =   0.0185185
        k(   11) = (   0.0000000   0.1924501   0.2244352), wk =   0.0185185
        k(   12) = (   0.0000000   0.1924501  -0.3366528), wk =   0.0185185
        k(   13) = (   0.0000000  -0.2886751   0.0000000), wk =   0.0092593
        k(   14) = (   0.0000000  -0.2886751   0.1122176), wk =   0.0185185
        k(   15) = (   0.0000000  -0.2886751   0.2244352), wk =   0.0185185
        k(   16) = (   0.0000000  -0.2886751  -0.3366528), wk =   0.0092593
        k(   17) = (   0.1666667   0.0962250   0.0000000), wk =   0.0370370
        k(   18) = (   0.1666667   0.0962250   0.1122176), wk =   0.0370370
        k(   19) = (   0.1666667   0.0962250   0.2244352), wk =   0.0370370
        k(   20) = (   0.1666667   0.0962250  -0.3366528), wk =   0.0370370
        k(   21) = (   0.1666667   0.1924501   0.0000000), wk =   0.0370370
        k(   22) = (   0.1666667   0.1924501   0.1122176), wk =   0.0370370
        k(   23) = (   0.1666667   0.1924501   0.2244352), wk =   0.0370370
        k(   24) = (   0.1666667   0.1924501  -0.3366528), wk =   0.0370370
        k(   25) = (   0.1666667   0.2886751   0.0000000), wk =   0.0185185
        k(   26) = (   0.1666667   0.2886751   0.1122176), wk =   0.0370370
        k(   27) = (   0.1666667   0.2886751   0.2244352), wk =   0.0370370
        k(   28) = (   0.1666667   0.2886751  -0.3366528), wk =   0.0185185
        k(   29) = (   0.1666667   0.0000000   0.0000000), wk =   0.0185185
        k(   30) = (   0.1666667   0.0000000   0.1122176), wk =   0.0370370
        k(   31) = (   0.1666667   0.0000000   0.2244352), wk =   0.0370370
        k(   32) = (   0.1666667   0.0000000  -0.3366528), wk =   0.0185185
        k(   33) = (   0.3333333   0.1924501   0.0000000), wk =   0.0370370
        k(   34) = (   0.3333333   0.1924501   0.1122176), wk =   0.0370370
        k(   35) = (   0.3333333   0.1924501   0.2244352), wk =   0.0370370
        k(   36) = (   0.3333333   0.1924501  -0.3366528), wk =   0.0370370
        k(   37) = (   0.3333333   0.2886751   0.0000000), wk =   0.0185185
        k(   38) = (   0.3333333   0.2886751   0.1122176), wk =   0.0370370
        k(   39) = (   0.3333333   0.2886751   0.2244352), wk =   0.0370370
        k(   40) = (   0.3333333   0.2886751  -0.3366528), wk =   0.0185185
        k(   41) = (   0.3333333  -0.0962250   0.0000000), wk =   0.0370370
        k(   42) = (   0.3333333  -0.0962250   0.1122176), wk =   0.0370370
        k(   43) = (   0.3333333  -0.0962250   0.2244352), wk =   0.0370370
        k(   44) = (   0.3333333  -0.0962250  -0.3366528), wk =   0.0370370
        k(   45) = (   0.3333333  -0.0000000   0.0000000), wk =   0.0185185
        k(   46) = (   0.3333333  -0.0000000   0.1122176), wk =   0.0370370
        k(   47) = (   0.3333333  -0.0000000   0.2244352), wk =   0.0370370
        k(   48) = (   0.3333333  -0.0000000  -0.3366528), wk =   0.0185185
        k(   49) = (  -0.5000000  -0.2886751   0.0000000), wk =   0.0092593
        k(   50) = (  -0.5000000  -0.2886751   0.1122176), wk =   0.0185185
        k(   51) = (  -0.5000000  -0.2886751   0.2244352), wk =   0.0185185
        k(   52) = (  -0.5000000  -0.2886751  -0.3366528), wk =   0.0092593
        k(   53) = (  -0.5000000  -0.1924501   0.0000000), wk =   0.0185185
        k(   54) = (  -0.5000000  -0.1924501   0.1122176), wk =   0.0185185
        k(   55) = (  -0.5000000  -0.1924501   0.2244352), wk =   0.0185185
        k(   56) = (  -0.5000000  -0.1924501  -0.3366528), wk =   0.0185185
        k(   57) = (  -0.5000000  -0.0962250   0.0000000), wk =   0.0185185
        k(   58) = (  -0.5000000  -0.0962250   0.1122176), wk =   0.0185185
        k(   59) = (  -0.5000000  -0.0962250   0.2244352), wk =   0.0185185
        k(   60) = (  -0.5000000  -0.0962250  -0.3366528), wk =   0.0185185
[...]
        k(   66) = (   0.0000000   0.0962250  -0.2244352), wk =   0.0185185
        k(   67) = (   0.0000000   0.1924501  -0.1122176), wk =   0.0185185
        k(   68) = (   0.0000000   0.1924501  -0.2244352), wk =   0.0185185
        k(   69) = (  -0.1666667   0.0962250  -0.1122176), wk =   0.0370370
        k(   70) = (  -0.1666667   0.0962250  -0.2244352), wk =   0.0370370
        k(   71) = (  -0.1666667   0.1924501  -0.1122176), wk =   0.0370370
        k(   72) = (  -0.1666667   0.1924501  -0.2244352), wk =   0.0370370
        k(   73) = (  -0.3333333   0.1924501  -0.1122176), wk =   0.0370370
        k(   74) = (  -0.3333333   0.1924501  -0.2244352), wk =   0.0370370
        k(   75) = (  -0.3333333  -0.0962250  -0.1122176), wk =   0.0370370
        k(   76) = (  -0.3333333  -0.0962250  -0.2244352), wk =   0.0370370
        k(   77) = (   0.5000000  -0.1924501  -0.1122176), wk =   0.0185185
        k(   78) = (   0.5000000  -0.1924501  -0.2244352), wk =   0.0185185
        k(   79) = (   0.5000000  -0.0962250  -0.1122176), wk =   0.0185185
        k(   80) = (   0.5000000  -0.0962250  -0.2244352), wk =   0.0185185

                       cryst. coord.
        k(    1) = (   0.0000000   0.0000000   0.0000000), wk =   0.0092593
        k(    2) = (   0.0000000   0.0000000   0.1666667), wk =   0.0185185
        k(    3) = (   0.0000000   0.0000000   0.3333333), wk =   0.0185185
        k(    4) = (   0.0000000   0.0000000  -0.5000000), wk =   0.0092593
        k(    5) = (   0.0000000   0.1666667   0.0000000), wk =   0.0185185
        k(    6) = (   0.0000000   0.1666667   0.1666667), wk =   0.0185185
        k(    7) = (   0.0000000   0.1666667   0.3333333), wk =   0.0185185
        k(    8) = (   0.0000000   0.1666667  -0.5000000), wk =   0.0185185
        k(    9) = (   0.0000000   0.3333333   0.0000000), wk =   0.0185185
        k(   10) = (   0.0000000   0.3333333   0.1666667), wk =   0.0185185
        k(   11) = (   0.0000000   0.3333333   0.3333333), wk =   0.0185185
        k(   12) = (   0.0000000   0.3333333  -0.5000000), wk =   0.0185185
        k(   13) = (   0.0000000  -0.5000000   0.0000000), wk =   0.0092593
        k(   14) = (   0.0000000  -0.5000000   0.1666667), wk =   0.0185185
        k(   15) = (   0.0000000  -0.5000000   0.3333333), wk =   0.0185185
        k(   16) = (   0.0000000  -0.5000000  -0.5000000), wk =   0.0092593
        k(   17) = (   0.1666667   0.0000000   0.0000000), wk =   0.0370370
        k(   18) = (   0.1666667   0.0000000   0.1666667), wk =   0.0370370
        k(   19) = (   0.1666667   0.0000000   0.3333333), wk =   0.0370370
        k(   20) = (   0.1666667   0.0000000  -0.5000000), wk =   0.0370370
        k(   21) = (   0.1666667   0.1666667   0.0000000), wk =   0.0370370
        k(   22) = (   0.1666667   0.1666667   0.1666667), wk =   0.0370370
        k(   23) = (   0.1666667   0.1666667   0.3333333), wk =   0.0370370
        k(   24) = (   0.1666667   0.1666667  -0.5000000), wk =   0.0370370
        k(   25) = (   0.1666667   0.3333333   0.0000000), wk =   0.0185185
        k(   26) = (   0.1666667   0.3333333   0.1666667), wk =   0.0370370
        k(   27) = (   0.1666667   0.3333333   0.3333333), wk =   0.0370370
        k(   28) = (   0.1666667   0.3333333  -0.5000000), wk =   0.0185185
        k(   29) = (   0.1666667  -0.1666667   0.0000000), wk =   0.0185185
        k(   30) = (   0.1666667  -0.1666667   0.1666667), wk =   0.0370370
        k(   31) = (   0.1666667  -0.1666667   0.3333333), wk =   0.0370370
        k(   32) = (   0.1666667  -0.1666667  -0.5000000), wk =   0.0185185
        k(   33) = (   0.3333333   0.0000000   0.0000000), wk =   0.0370370
        k(   34) = (   0.3333333   0.0000000   0.1666667), wk =   0.0370370
        k(   35) = (   0.3333333   0.0000000   0.3333333), wk =   0.0370370
        k(   36) = (   0.3333333   0.0000000  -0.5000000), wk =   0.0370370
        k(   37) = (   0.3333333   0.1666667   0.0000000), wk =   0.0185185
        k(   38) = (   0.3333333   0.1666667   0.1666667), wk =   0.0370370
        k(   39) = (   0.3333333   0.1666667   0.3333333), wk =   0.0370370
        k(   40) = (   0.3333333   0.1666667  -0.5000000), wk =   0.0185185
        k(   41) = (   0.3333333  -0.5000000   0.0000000), wk =   0.0370370
        k(   42) = (   0.3333333  -0.5000000   0.1666667), wk =   0.0370370
        k(   43) = (   0.3333333  -0.5000000   0.3333333), wk =   0.0370370
        k(   44) = (   0.3333333  -0.5000000  -0.5000000), wk =   0.0370370
        k(   45) = (   0.3333333  -0.3333333   0.0000000), wk =   0.0185185
        k(   46) = (   0.3333333  -0.3333333   0.1666667), wk =   0.0370370
        k(   47) = (   0.3333333  -0.3333333   0.3333333), wk =   0.0370370
        k(   48) = (   0.3333333  -0.3333333  -0.5000000), wk =   0.0185185
        k(   49) = (  -0.5000000   0.0000000   0.0000000), wk =   0.0092593
        k(   50) = (  -0.5000000   0.0000000   0.1666667), wk =   0.0185185
        k(   51) = (  -0.5000000   0.0000000   0.3333333), wk =   0.0185185
        k(   52) = (  -0.5000000   0.0000000  -0.5000000), wk =   0.0092593
        k(   53) = (  -0.5000000   0.1666667   0.0000000), wk =   0.0185185
        k(   54) = (  -0.5000000   0.1666667   0.1666667), wk =   0.0185185
        k(   55) = (  -0.5000000   0.1666667   0.3333333), wk =   0.0185185
        k(   56) = (  -0.5000000   0.1666667  -0.5000000), wk =   0.0185185
        k(   57) = (  -0.5000000   0.3333333   0.0000000), wk =   0.0185185
        k(   58) = (  -0.5000000   0.3333333   0.1666667), wk =   0.0185185
        k(   59) = (  -0.5000000   0.3333333   0.3333333), wk =   0.0185185
        k(   60) = (  -0.5000000   0.3333333  -0.5000000), wk =   0.0185185
[...]
        k(   66) = (   0.0000000   0.1666667  -0.3333333), wk =   0.0185185
        k(   67) = (   0.0000000   0.3333333  -0.1666667), wk =   0.0185185
        k(   68) = (   0.0000000   0.3333333  -0.3333333), wk =   0.0185185
        k(   69) = (  -0.1666667   0.3333333  -0.1666667), wk =   0.0370370
        k(   70) = (  -0.1666667   0.3333333  -0.3333333), wk =   0.0370370
        k(   71) = (  -0.1666667   0.5000000  -0.1666667), wk =   0.0370370
        k(   72) = (  -0.1666667   0.5000000  -0.3333333), wk =   0.0370370
        k(   73) = (  -0.3333333   0.6666667  -0.1666667), wk =   0.0370370
        k(   74) = (  -0.3333333   0.6666667  -0.3333333), wk =   0.0370370
        k(   75) = (  -0.3333333   0.1666667  -0.1666667), wk =   0.0370370
        k(   76) = (  -0.3333333   0.1666667  -0.3333333), wk =   0.0370370
        k(   77) = (   0.5000000  -0.8333333  -0.1666667), wk =   0.0185185
        k(   78) = (   0.5000000  -0.8333333  -0.3333333), wk =   0.0185185
        k(   79) = (   0.5000000  -0.6666667  -0.1666667), wk =   0.0185185
        k(   80) = (   0.5000000  -0.6666667  -0.3333333), wk =   0.0185185

     Check: negative core charge=   -0.000002

     Initial potential from superposition of free atoms

     starting charge      71.9851, renormalised to      72.0000
     Starting wfcs are   52 randomized atomic wfcs

     Self-consistent Calculation

     iteration #  1     ecut=    50.00 Ry     beta= 0.30
     Davidson diagonalization with overlap

     ethr =  1.00E-02,  avg # of iterations =  1.4

     total energy              =    -722.78488935 Ry
     estimated scf accuracy    <       1.58905042 Ry

[...]

     c_bands:  1 eigenvalues not converged
     ethr =  2.78E-11,  avg # of iterations = 11.8

[...]

     total energy              =    -723.16636187 Ry
     estimated scf accuracy    <       0.00000007 Ry

     iteration # 46     ecut=    50.00 Ry     beta= 0.30
     Davidson diagonalization with overlap

     ethr =  2.07E-11,  avg # of iterations =  6.3

     End of self-consistent calculation

          k = 0.0000 0.0000 0.0000 (  4831 PWs)   bands (ev):

   -12.2672 -11.8738 -11.7612 -11.7145  -0.6828  -0.6826  -0.6773  -0.5885
    -0.5884  -0.5164  -0.4821  -0.3697  -0.2200  -0.2134  -0.1859  -0.0918
    -0.0918  -0.0012  -0.0007   0.0590   0.0591   0.0882   0.1041   0.1175
     0.6238   0.9490   1.3719   2.2351   2.5286   3.4243   3.5880   3.5983
     3.5988   4.1999   4.2004   4.2484

     occupation numbers
     1.0000   1.0000   1.0000   1.0000   1.0000   1.0000   1.0000   1.0000
     1.0000   1.0000   1.0000   1.0000   1.0000   1.0000   1.0000   1.0000
     1.0000   1.0000   1.0000   1.0000   1.0000   1.0000   1.0000   1.0000
     1.0000   1.0000   1.0000   1.0000   1.0000   1.0000   1.0000   1.0000
     1.0000   1.0000   1.0000   1.0000

[...]

          k =-0.5000-0.2887 0.0000 (  4804 PWs)   bands (ev):

[...]

          k =-0.3333-0.0962-0.2244 (  4815 PWs)   bands (ev):

[...]

          k = 0.5000-0.0962-0.2244 (  4814 PWs)   bands (ev):

   -11.8303 -11.8302 -11.7474 -11.7474  -0.6689  -0.6689  -0.5734  -0.5734
    -0.4429  -0.4429  -0.3549  -0.3549  -0.3030  -0.3030  -0.2736  -0.2736
    -0.0056  -0.0056   0.0088   0.0088   0.0999   0.0999   0.1642   0.1642
     1.0589   1.0589   1.2651   1.2651   2.3703   2.3703   2.9869   2.9869
     3.2070   3.2070   3.7360   3.7360

     occupation numbers
     1.0000   1.0000   1.0000   1.0000   1.0000   1.0000   1.0000   1.0000
     1.0000   1.0000   1.0000   1.0000   1.0000   1.0000   1.0000   1.0000
     1.0000   1.0000   1.0000   1.0000   1.0000   1.0000   1.0000   1.0000
     1.0000   1.0000   1.0000   1.0000   1.0000   1.0000   1.0000   1.0000
     1.0000   1.0000   1.0000   1.0000

     highest occupied level (ev):     4.2484

!    total energy              =    -723.16636189 Ry
     estimated scf accuracy    <          1.3E-09 Ry

     The total energy is the sum of the following terms:
     one-electron contribution =    -354.35049378 Ry
     hartree contribution      =     253.01340298 Ry
     xc contribution           =    -218.33519796 Ry
     ewald contribution        =    -403.49407313 Ry

     convergence has been achieved in  46 iterations

     Forces acting on atoms (cartesian axes, Ry/au):

     atom    1 type  1   force =     0.00000000   -0.00000298   -0.00832816
     atom    2 type  2   force =     0.00000000    0.00000878    0.00832843
     atom    3 type  1   force =     0.00000000    0.00000338   -0.00833070
     atom    4 type  2   force =     0.00000000   -0.00000767    0.00832830
     atom    5 type  1   force =     0.00000000   -0.00001159   -0.00832604
     atom    6 type  2   force =     0.00000000    0.00000882    0.00832833
     atom    7 type  1   force =     0.00000000    0.00000913   -0.00832838
     atom    8 type  2   force =     0.00000000   -0.00000787    0.00832821
     The non-local contrib.  to forces
     atom    1 type  1   force =     0.00000000    0.00001474    0.11473959
     atom    2 type  2   force =     0.00000000    0.00020738    0.10018346
     atom    3 type  1   force =     0.00000000   -0.00001536    0.11473812
     atom    4 type  2   force =     0.00000000   -0.00020758    0.10018388
     atom    5 type  1   force =     0.00000000    0.00001175    0.11473977
     atom    6 type  2   force =     0.00000000    0.00020693    0.10018364
     atom    7 type  1   force =     0.00000000   -0.00001162    0.11473850
     atom    8 type  2   force =     0.00000000   -0.00020764    0.10018360
     The ionic contribution  to forces
     atom    1 type  1   force =     0.00000000   -0.00000000    0.70941626
     atom    2 type  2   force =    -0.00000000    0.00000000   -0.70941626
     atom    3 type  1   force =    -0.00000000    0.00000000    0.70941626
     atom    4 type  2   force =     0.00000000   -0.00000000   -0.70941626
     atom    5 type  1   force =     0.00000000   -0.00000000    0.70941626
     atom    6 type  2   force =    -0.00000000    0.00000000   -0.70941626
     atom    7 type  1   force =    -0.00000000    0.00000000    0.70941626
     atom    8 type  2   force =     0.00000000   -0.00000000   -0.70941626
     The local contribution  to forces
     atom    1 type  1   force =     0.00000000   -0.00001971   -0.82622019
     atom    2 type  2   force =    -0.00000000   -0.00019555    0.61843798
     atom    3 type  1   force =     0.00000000    0.00002095   -0.82621468
     atom    4 type  2   force =     0.00000000    0.00019524    0.61843910
     atom    5 type  1   force =    -0.00000000   -0.00000855   -0.82622364
     atom    6 type  2   force =     0.00000000   -0.00019822    0.61843805
     atom    7 type  1   force =     0.00000000    0.00000939   -0.82621831
     atom    8 type  2   force =    -0.00000000    0.00019871    0.61843832
     The core correction contribution to forces
     atom    1 type  1   force =    -0.00000000   -0.00000697   -0.00626422
     atom    2 type  2   force =     0.00000000   -0.00000234   -0.00087732
     atom    3 type  1   force =     0.00000000    0.00000696   -0.00626439
     atom    4 type  2   force =     0.00000000    0.00000234   -0.00087733
     atom    5 type  1   force =    -0.00000000   -0.00000716   -0.00626407
     atom    6 type  2   force =    -0.00000000   -0.00000233   -0.00087732
     atom    7 type  1   force =     0.00000000    0.00000724   -0.00626425
     atom    8 type  2   force =     0.00000000    0.00000234   -0.00087733
     The Hubbard contrib.    to forces
     atom    1 type  1   force =     0.00000000    0.00000000    0.00000000
     atom    2 type  2   force =     0.00000000    0.00000000    0.00000000
     atom    3 type  1   force =     0.00000000    0.00000000    0.00000000
     atom    4 type  2   force =     0.00000000    0.00000000    0.00000000
     atom    5 type  1   force =     0.00000000    0.00000000    0.00000000
     atom    6 type  2   force =     0.00000000    0.00000000    0.00000000
     atom    7 type  1   force =     0.00000000    0.00000000    0.00000000
     atom    8 type  2   force =     0.00000000    0.00000000    0.00000000
     The SCF correction term to forces
     atom    1 type  1   force =     0.00000000    0.00000841    0.00000124
     atom    2 type  2   force =    -0.00000000   -0.00000127    0.00000141
     atom    3 type  1   force =     0.00000000   -0.00000972   -0.00000518
     atom    4 type  2   force =    -0.00000000    0.00000179   -0.00000024
     atom    5 type  1   force =     0.00000000   -0.00000817    0.00000649
     atom    6 type  2   force =    -0.00000000    0.00000189    0.00000106
     atom    7 type  1   force =     0.00000000    0.00000356    0.00000026
     atom    8 type  2   force =    -0.00000000   -0.00000182    0.00000072

     Total force =     0.023556     Total SCF correction =     0.000018

     General routines

     Parallel routines

   This run was terminated on:   0: 6:49  14Jul2025

   JOB DONE.
Note: The following floating-point exceptions are signalling: IEEE_INVALID_FLAG
Note: The following floating-point exceptions are signalling: IEEE_INVALID_FLAG