     Program PWSCF v.7.2 starts on 13Jul2025 at 15:58:25

     Reading input from /home/jvc/QEspresso7.2/ZnO_database/scripts/cell121.in/ZnO-3.20-1.65-121.in
Warning: card &CELL ignored
Warning: card / ignored
Warning: card &FCP ignored
Warning: card / ignored
Warning: card &RISM ignored
Warning: card / ignored

     Current dimensions of program PWSCF are:
     Max number of different atomic species (ntypx) = 10
     Max number of k-points (npk) =  40000
     Max angular momentum in pseudopotentials (lmaxx) =  4
     file Zn.upf: wavefunction(s)  3D renormalized
     Found identity + (  0.0000 -0.5000  0.0000) symmetry
     This is a supercell, fractional translations are disabled
     Message from routine setup:
     using ibrav=0 with symmetry is DISCOURAGED, use correct ibrav instead

     K-points division:     npool     =       2
     R & G space division:  proc/nbgrp/npool/nimage =       4
     Subspace diagonalization in iterative solution of the eigenvalue problem:
     a serial algorithm will be used

     Using Slab Decomposition

     bravais-lattice index     =            0
     lattice parameter (alat)  =       6.0553  a.u.
     unit-cell volume          =     633.2319 (a.u.)^3
     number of atoms/cell      =            8
     number of atomic types    =            2
     number of electrons       =        72.00
     number of Kohn-Sham states=           36
     kinetic-energy cutoff     =      50.0000  Ry
     charge density cutoff     =     400.0000  Ry
     scf convergence threshold =      1.0E-08
     mixing beta               =       0.3000
     number of iterations used =            8  plain     mixing
     Exchange-correlation= PBE
                           (   1   4   3   4   0   0   0)

     celldm(1)=   6.055277  celldm(2)=   0.000000  celldm(3)=   0.000000
     celldm(4)=   0.000000  celldm(5)=   0.000000  celldm(6)=   0.000000

     crystal axes: (cart. coord. in units of alat)
               a(1) = (   1.000000   0.000000   0.000000 )
               a(2) = (  -1.000000   1.732051   0.000000 )
               a(3) = (   0.000000   0.000000   1.646646 )

     reciprocal axes: (cart. coord. in units 2 pi/alat)
               b(1) = (  1.000000  0.577350 -0.000000 )
               b(2) = (  0.000000  0.577350  0.000000 )
               b(3) = (  0.000000 -0.000000  0.607295 )

     PseudoPot. # 1 for Zn read from file:
     /home/jvc/QEspresso7.2/ZnO_database/pseudos/Zn.upf
     MD5 check sum: 7f56cabf9682ed8c977c2f7d0c5985c5
     Pseudo is Ultrasoft + core correction, Zval = 12.0
     Generated using &quot;atomic&quot; code by A. Dal Corso  v.6.2.2
     Using radial grid of 1201 points,  6 beta functions with:
                l(1) =   0
                l(2) =   0
                l(3) =   1
                l(4) =   1
                l(5) =   2
                l(6) =   2
     Q(r) pseudized with 0 coefficients

     PseudoPot. # 2 for O  read from file:
     /home/jvc/QEspresso7.2/ZnO_database/pseudos/O.upf
     MD5 check sum: 91400c9766925bcf19f520983a725ff0
     Pseudo is Ultrasoft + core correction, Zval =  6.0
     Generated using &quot;atomic&quot; code by A. Dal Corso  v.6.3MaX
     Using radial grid of 1095 points,  4 beta functions with:
                l(1) =   0
                l(2) =   0
                l(3) =   1
                l(4) =   1
     Q(r) pseudized with 0 coefficients

     atomic species   valence    mass     pseudopotential
        Zn            12.00    65.38000     Zn( 1.00)
        O              6.00    15.99900     O ( 1.00)

      2 Sym. Ops. (no inversion) found

                                    s                        frac. trans.

      isym =  1     identity

 cryst.   s( 1) = (     1          0          0      )
                  (     0          1          0      )
                  (     0          0          1      )

 cart.    s( 1) = (  1.0000000  0.0000000  0.0000000 )
                  (  0.0000000  1.0000000  0.0000000 )
                  (  0.0000000  0.0000000  1.0000000 )

      isym =  2     inv. 180 deg rotation - cart. axis [1,0,0]

 cryst.   s( 2) = (    -1          0          0      )
                  (     2          1          0      )
                  (     0          0          1      )

 cart.    s( 2) = ( -1.0000000  0.0000000  0.0000000 )
                  (  0.0000000  1.0000000  0.0000000 )
                  (  0.0000000  0.0000000  1.0000000 )

   Cartesian axes

     site n.     atom                  positions (alat units)
         1           Zn  tau(   1) = (   0.0000000   0.0000000   0.0000000  )
         2           O   tau(   2) = (   0.0000000   0.5773503   0.2092296  )
         3           Zn  tau(   3) = (   0.0000000   0.5773503   0.8233228  )
         4           O   tau(   4) = (   0.0000000   0.0000000   1.0325524  )
         5           Zn  tau(   5) = (  -0.5000000   0.8660254   0.0000000  )
         6           O   tau(   6) = (  -0.5000000   1.4433757   0.2092296  )
         7           Zn  tau(   7) = (  -0.5000000   1.4433757   0.8233228  )
         8           O   tau(   8) = (  -0.5000000   0.8660254   1.0325524  )

   Crystallographic axes

     site n.     atom                  positions (cryst. coord.)
         1           Zn  tau(   1) = (  0.0000000  0.0000000  0.0000000  )
         2           O   tau(   2) = (  0.3333333  0.3333333  0.1270642  )
         3           Zn  tau(   3) = (  0.3333333  0.3333333  0.5000000  )
         4           O   tau(   4) = (  0.0000000  0.0000000  0.6270642  )
         5           Zn  tau(   5) = (  0.0000000  0.5000000  0.0000000  )
         6           O   tau(   6) = (  0.3333333  0.8333333  0.1270642  )
         7           Zn  tau(   7) = (  0.3333333  0.8333333  0.5000000  )
         8           O   tau(   8) = (  0.0000000  0.5000000  0.6270642  )

     number of k points=    80
                       cart. coord. in units 2pi/alat
        k(    1) = (   0.0000000   0.0000000   0.0000000), wk =   0.0092593
        k(    2) = (   0.0000000   0.0000000   0.1012159), wk =   0.0185185
        k(    3) = (   0.0000000   0.0000000   0.2024317), wk =   0.0185185
        k(    4) = (   0.0000000   0.0000000  -0.3036476), wk =   0.0092593
        k(    5) = (   0.0000000   0.0962250   0.0000000), wk =   0.0185185
        k(    6) = (   0.0000000   0.0962250   0.1012159), wk =   0.0185185
        k(    7) = (   0.0000000   0.0962250   0.2024317), wk =   0.0185185
        k(    8) = (   0.0000000   0.0962250  -0.3036476), wk =   0.0185185
        k(    9) = (   0.0000000   0.1924501   0.0000000), wk =   0.0185185
        k(   10) = (   0.0000000   0.1924501   0.1012159), wk =   0.0185185
        k(   11) = (   0.0000000   0.1924501   0.2024317), wk =   0.0185185
        k(   12) = (   0.0000000   0.1924501  -0.3036476), wk =   0.0185185
        k(   13) = (   0.0000000  -0.2886751   0.0000000), wk =   0.0092593
        k(   14) = (   0.0000000  -0.2886751   0.1012159), wk =   0.0185185
        k(   15) = (   0.0000000  -0.2886751   0.2024317), wk =   0.0185185
        k(   16) = (   0.0000000  -0.2886751  -0.3036476), wk =   0.0092593
        k(   17) = (   0.1666667   0.0962250   0.0000000), wk =   0.0370370
        k(   18) = (   0.1666667   0.0962250   0.1012159), wk =   0.0370370
        k(   19) = (   0.1666667   0.0962250   0.2024317), wk =   0.0370370
        k(   20) = (   0.1666667   0.0962250  -0.3036476), wk =   0.0370370
        k(   21) = (   0.1666667   0.1924501   0.0000000), wk =   0.0370370
        k(   22) = (   0.1666667   0.1924501   0.1012159), wk =   0.0370370
        k(   23) = (   0.1666667   0.1924501   0.2024317), wk =   0.0370370
        k(   24) = (   0.1666667   0.1924501  -0.3036476), wk =   0.0370370
        k(   25) = (   0.1666667   0.2886751   0.0000000), wk =   0.0185185
        k(   26) = (   0.1666667   0.2886751   0.1012159), wk =   0.0370370
        k(   27) = (   0.1666667   0.2886751   0.2024317), wk =   0.0370370
        k(   28) = (   0.1666667   0.2886751  -0.3036476), wk =   0.0185185
        k(   29) = (   0.1666667   0.0000000   0.0000000), wk =   0.0185185
        k(   30) = (   0.1666667   0.0000000   0.1012159), wk =   0.0370370
        k(   31) = (   0.1666667   0.0000000   0.2024317), wk =   0.0370370
        k(   32) = (   0.1666667   0.0000000  -0.3036476), wk =   0.0185185
        k(   33) = (   0.3333333   0.1924501   0.0000000), wk =   0.0370370
        k(   34) = (   0.3333333   0.1924501   0.1012159), wk =   0.0370370
        k(   35) = (   0.3333333   0.1924501   0.2024317), wk =   0.0370370
        k(   36) = (   0.3333333   0.1924501  -0.3036476), wk =   0.0370370
        k(   37) = (   0.3333333   0.2886751   0.0000000), wk =   0.0185185
        k(   38) = (   0.3333333   0.2886751   0.1012159), wk =   0.0370370
        k(   39) = (   0.3333333   0.2886751   0.2024317), wk =   0.0370370
        k(   40) = (   0.3333333   0.2886751  -0.3036476), wk =   0.0185185
        k(   41) = (   0.3333333  -0.0962250   0.0000000), wk =   0.0370370
        k(   42) = (   0.3333333  -0.0962250   0.1012159), wk =   0.0370370
        k(   43) = (   0.3333333  -0.0962250   0.2024317), wk =   0.0370370
        k(   44) = (   0.3333333  -0.0962250  -0.3036476), wk =   0.0370370
        k(   45) = (   0.3333333  -0.0000000   0.0000000), wk =   0.0185185
        k(   46) = (   0.3333333  -0.0000000   0.1012159), wk =   0.0370370
        k(   47) = (   0.3333333  -0.0000000   0.2024317), wk =   0.0370370
        k(   48) = (   0.3333333  -0.0000000  -0.3036476), wk =   0.0185185
        k(   49) = (  -0.5000000  -0.2886751   0.0000000), wk =   0.0092593
        k(   50) = (  -0.5000000  -0.2886751   0.1012159), wk =   0.0185185
        k(   51) = (  -0.5000000  -0.2886751   0.2024317), wk =   0.0185185
        k(   52) = (  -0.5000000  -0.2886751  -0.3036476), wk =   0.0092593
        k(   53) = (  -0.5000000  -0.1924501   0.0000000), wk =   0.0185185
        k(   54) = (  -0.5000000  -0.1924501   0.1012159), wk =   0.0185185
        k(   55) = (  -0.5000000  -0.1924501   0.2024317), wk =   0.0185185
        k(   56) = (  -0.5000000  -0.1924501  -0.3036476), wk =   0.0185185
        k(   57) = (  -0.5000000  -0.0962250   0.0000000), wk =   0.0185185
        k(   58) = (  -0.5000000  -0.0962250   0.1012159), wk =   0.0185185
        k(   59) = (  -0.5000000  -0.0962250   0.2024317), wk =   0.0185185
        k(   60) = (  -0.5000000  -0.0962250  -0.3036476), wk =   0.0185185
[...]
        k(   66) = (   0.0000000   0.0962250  -0.2024317), wk =   0.0185185
        k(   67) = (   0.0000000   0.1924501  -0.1012159), wk =   0.0185185
        k(   68) = (   0.0000000   0.1924501  -0.2024317), wk =   0.0185185
        k(   69) = (  -0.1666667   0.0962250  -0.1012159), wk =   0.0370370
        k(   70) = (  -0.1666667   0.0962250  -0.2024317), wk =   0.0370370
        k(   71) = (  -0.1666667   0.1924501  -0.1012159), wk =   0.0370370
        k(   72) = (  -0.1666667   0.1924501  -0.2024317), wk =   0.0370370
        k(   73) = (  -0.3333333   0.1924501  -0.1012159), wk =   0.0370370
        k(   74) = (  -0.3333333   0.1924501  -0.2024317), wk =   0.0370370
        k(   75) = (  -0.3333333  -0.0962250  -0.1012159), wk =   0.0370370
        k(   76) = (  -0.3333333  -0.0962250  -0.2024317), wk =   0.0370370
        k(   77) = (   0.5000000  -0.1924501  -0.1012159), wk =   0.0185185
        k(   78) = (   0.5000000  -0.1924501  -0.2024317), wk =   0.0185185
        k(   79) = (   0.5000000  -0.0962250  -0.1012159), wk =   0.0185185
        k(   80) = (   0.5000000  -0.0962250  -0.2024317), wk =   0.0185185

                       cryst. coord.
        k(    1) = (   0.0000000   0.0000000   0.0000000), wk =   0.0092593
        k(    2) = (   0.0000000   0.0000000   0.1666667), wk =   0.0185185
        k(    3) = (   0.0000000   0.0000000   0.3333333), wk =   0.0185185
        k(    4) = (   0.0000000   0.0000000  -0.5000000), wk =   0.0092593
        k(    5) = (   0.0000000   0.1666667   0.0000000), wk =   0.0185185
        k(    6) = (   0.0000000   0.1666667   0.1666667), wk =   0.0185185
        k(    7) = (   0.0000000   0.1666667   0.3333333), wk =   0.0185185
        k(    8) = (   0.0000000   0.1666667  -0.5000000), wk =   0.0185185
        k(    9) = (   0.0000000   0.3333333   0.0000000), wk =   0.0185185
        k(   10) = (   0.0000000   0.3333333   0.1666667), wk =   0.0185185
        k(   11) = (   0.0000000   0.3333333   0.3333333), wk =   0.0185185
        k(   12) = (   0.0000000   0.3333333  -0.5000000), wk =   0.0185185
        k(   13) = (   0.0000000  -0.5000000   0.0000000), wk =   0.0092593
        k(   14) = (   0.0000000  -0.5000000   0.1666667), wk =   0.0185185
        k(   15) = (   0.0000000  -0.5000000   0.3333333), wk =   0.0185185
        k(   16) = (   0.0000000  -0.5000000  -0.5000000), wk =   0.0092593
        k(   17) = (   0.1666667   0.0000000   0.0000000), wk =   0.0370370
        k(   18) = (   0.1666667   0.0000000   0.1666667), wk =   0.0370370
        k(   19) = (   0.1666667   0.0000000   0.3333333), wk =   0.0370370
        k(   20) = (   0.1666667   0.0000000  -0.5000000), wk =   0.0370370
        k(   21) = (   0.1666667   0.1666667   0.0000000), wk =   0.0370370
        k(   22) = (   0.1666667   0.1666667   0.1666667), wk =   0.0370370
        k(   23) = (   0.1666667   0.1666667   0.3333333), wk =   0.0370370
        k(   24) = (   0.1666667   0.1666667  -0.5000000), wk =   0.0370370
        k(   25) = (   0.1666667   0.3333333   0.0000000), wk =   0.0185185
        k(   26) = (   0.1666667   0.3333333   0.1666667), wk =   0.0370370
        k(   27) = (   0.1666667   0.3333333   0.3333333), wk =   0.0370370
        k(   28) = (   0.1666667   0.3333333  -0.5000000), wk =   0.0185185
        k(   29) = (   0.1666667  -0.1666667   0.0000000), wk =   0.0185185
        k(   30) = (   0.1666667  -0.1666667   0.1666667), wk =   0.0370370
        k(   31) = (   0.1666667  -0.1666667   0.3333333), wk =   0.0370370
        k(   32) = (   0.1666667  -0.1666667  -0.5000000), wk =   0.0185185
        k(   33) = (   0.3333333   0.0000000   0.0000000), wk =   0.0370370
        k(   34) = (   0.3333333   0.0000000   0.1666667), wk =   0.0370370
        k(   35) = (   0.3333333   0.0000000   0.3333333), wk =   0.0370370
        k(   36) = (   0.3333333   0.0000000  -0.5000000), wk =   0.0370370
        k(   37) = (   0.3333333   0.1666667   0.0000000), wk =   0.0185185
        k(   38) = (   0.3333333   0.1666667   0.1666667), wk =   0.0370370
        k(   39) = (   0.3333333   0.1666667   0.3333333), wk =   0.0370370
        k(   40) = (   0.3333333   0.1666667  -0.5000000), wk =   0.0185185
        k(   41) = (   0.3333333  -0.5000000   0.0000000), wk =   0.0370370
        k(   42) = (   0.3333333  -0.5000000   0.1666667), wk =   0.0370370
        k(   43) = (   0.3333333  -0.5000000   0.3333333), wk =   0.0370370
        k(   44) = (   0.3333333  -0.5000000  -0.5000000), wk =   0.0370370
        k(   45) = (   0.3333333  -0.3333333   0.0000000), wk =   0.0185185
        k(   46) = (   0.3333333  -0.3333333   0.1666667), wk =   0.0370370
        k(   47) = (   0.3333333  -0.3333333   0.3333333), wk =   0.0370370
        k(   48) = (   0.3333333  -0.3333333  -0.5000000), wk =   0.0185185
        k(   49) = (  -0.5000000   0.0000000   0.0000000), wk =   0.0092593
        k(   50) = (  -0.5000000   0.0000000   0.1666667), wk =   0.0185185
        k(   51) = (  -0.5000000   0.0000000   0.3333333), wk =   0.0185185
        k(   52) = (  -0.5000000   0.0000000  -0.5000000), wk =   0.0092593
        k(   53) = (  -0.5000000   0.1666667   0.0000000), wk =   0.0185185
        k(   54) = (  -0.5000000   0.1666667   0.1666667), wk =   0.0185185
        k(   55) = (  -0.5000000   0.1666667   0.3333333), wk =   0.0185185
        k(   56) = (  -0.5000000   0.1666667  -0.5000000), wk =   0.0185185
        k(   57) = (  -0.5000000   0.3333333   0.0000000), wk =   0.0185185
        k(   58) = (  -0.5000000   0.3333333   0.1666667), wk =   0.0185185
        k(   59) = (  -0.5000000   0.3333333   0.3333333), wk =   0.0185185
        k(   60) = (  -0.5000000   0.3333333  -0.5000000), wk =   0.0185185
[...]
        k(   66) = (   0.0000000   0.1666667  -0.3333333), wk =   0.0185185
        k(   67) = (   0.0000000   0.3333333  -0.1666667), wk =   0.0185185
        k(   68) = (   0.0000000   0.3333333  -0.3333333), wk =   0.0185185
        k(   69) = (  -0.1666667   0.3333333  -0.1666667), wk =   0.0370370
        k(   70) = (  -0.1666667   0.3333333  -0.3333333), wk =   0.0370370
        k(   71) = (  -0.1666667   0.5000000  -0.1666667), wk =   0.0370370
        k(   72) = (  -0.1666667   0.5000000  -0.3333333), wk =   0.0370370
        k(   73) = (  -0.3333333   0.6666667  -0.1666667), wk =   0.0370370
        k(   74) = (  -0.3333333   0.6666667  -0.3333333), wk =   0.0370370
        k(   75) = (  -0.3333333   0.1666667  -0.1666667), wk =   0.0370370
        k(   76) = (  -0.3333333   0.1666667  -0.3333333), wk =   0.0370370
        k(   77) = (   0.5000000  -0.8333333  -0.1666667), wk =   0.0185185
        k(   78) = (   0.5000000  -0.8333333  -0.3333333), wk =   0.0185185
        k(   79) = (   0.5000000  -0.6666667  -0.1666667), wk =   0.0185185
        k(   80) = (   0.5000000  -0.6666667  -0.3333333), wk =   0.0185185

     Check: negative core charge=   -0.000002

     Initial potential from superposition of free atoms

     starting charge      71.9851, renormalised to      72.0000
     Starting wfcs are   52 randomized atomic wfcs

     Self-consistent Calculation

     iteration #  1     ecut=    50.00 Ry     beta= 0.30
     Davidson diagonalization with overlap

     ethr =  1.00E-02,  avg # of iterations =  2.0

     total energy              =    -722.96142256 Ry
     estimated scf accuracy    <       1.36148463 Ry

[...]

     total energy              =    -723.26586425 Ry
     estimated scf accuracy    <       0.00000013 Ry

     iteration # 26     ecut=    50.00 Ry     beta= 0.30
     Davidson diagonalization with overlap

     ethr =  3.28E-11,  avg # of iterations =  7.1

     End of self-consistent calculation

          k = 0.0000 0.0000 0.0000 (  3801 PWs)   bands (ev):

   -10.7143  -9.9982  -9.9977  -9.7799   1.4727   1.6504   1.6579   1.7059
     1.7512   1.7514   1.9659   1.9661   1.9802   2.3094   2.3854   2.5668
     2.9667   2.9667   2.9772   3.1534   3.1737   3.1738   3.2248   3.3106
     3.4297   3.7307   3.9790   4.6116   5.2390   6.1337   6.6936   6.6940
     6.6985   7.4025   7.5066   7.5070

     occupation numbers
     1.0000   1.0000   1.0000   1.0000   1.0000   1.0000   1.0000   1.0000
     1.0000   1.0000   1.0000   1.0000   1.0000   1.0000   1.0000   1.0000
     1.0000   1.0000   1.0000   1.0000   1.0000   1.0000   1.0000   1.0000
     1.0000   1.0000   1.0000   1.0000   1.0000   1.0000   1.0000   1.0000
     1.0000   1.0000   1.0000   1.0000

[...]

          k =-0.5000-0.2887 0.0000 (  3836 PWs)   bands (ev):

[...]

          k =-0.3333-0.0962-0.2024 (  3784 PWs)   bands (ev):

[...]

          k = 0.5000-0.0962-0.2024 (  3782 PWs)   bands (ev):

    -9.9436  -9.9435  -9.8277  -9.8277   1.4568   1.4568   1.5488   1.5488
     1.9916   1.9917   2.1488   2.1488   2.3431   2.3431   2.3782   2.3782
     3.0214   3.0214   3.1136   3.1136   3.2534   3.2534   3.3791   3.3791
     3.7781   3.7781   4.1521   4.1521   5.0608   5.0608   5.5389   5.5389
     5.9476   5.9476   6.3298   6.3298

     occupation numbers
     1.0000   1.0000   1.0000   1.0000   1.0000   1.0000   1.0000   1.0000
     1.0000   1.0000   1.0000   1.0000   1.0000   1.0000   1.0000   1.0000
     1.0000   1.0000   1.0000   1.0000   1.0000   1.0000   1.0000   1.0000
     1.0000   1.0000   1.0000   1.0000   1.0000   1.0000   1.0000   1.0000
     1.0000   1.0000   1.0000   1.0000

     highest occupied level (ev):     7.5070

!    total energy              =    -723.26586428 Ry
     estimated scf accuracy    <          2.9E-10 Ry

     The total energy is the sum of the following terms:
     one-electron contribution =    -299.40361795 Ry
     hartree contribution      =     233.11973049 Ry
     xc contribution           =    -219.25758478 Ry
     ewald contribution        =    -437.72439204 Ry

     convergence has been achieved in  26 iterations

     Forces acting on atoms (cartesian axes, Ry/au):

     atom    1 type  1   force =     0.00000000    0.00001420    0.00102759
     atom    2 type  2   force =     0.00000000    0.00000093   -0.00102685
     atom    3 type  1   force =     0.00000000   -0.00001918    0.00102413
     atom    4 type  2   force =     0.00000000    0.00000031   -0.00102653
     atom    5 type  1   force =     0.00000000    0.00000615    0.00102941
     atom    6 type  2   force =     0.00000000    0.00000110   -0.00102749
     atom    7 type  1   force =     0.00000000   -0.00000245    0.00102549
     atom    8 type  2   force =     0.00000000   -0.00000107   -0.00102575
     The non-local contrib.  to forces
     atom    1 type  1   force =     0.00000000   -0.00002075   -0.01860971
     atom    2 type  2   force =     0.00000000    0.00020791   -0.02348343
     atom    3 type  1   force =     0.00000000    0.00001914   -0.01861195
     atom    4 type  2   force =     0.00000000   -0.00020761   -0.02348220
     atom    5 type  1   force =     0.00000000   -0.00002563   -0.01860906
     atom    6 type  2   force =     0.00000000    0.00020905   -0.02348410
     atom    7 type  1   force =     0.00000000    0.00002553   -0.01861137
     atom    8 type  2   force =     0.00000000   -0.00020679   -0.02348136
     The ionic contribution  to forces
     atom    1 type  1   force =    -0.00000000   -0.00000000   -0.25306016
     atom    2 type  2   force =    -0.00000000    0.00000000    0.25306016
     atom    3 type  1   force =     0.00000000    0.00000000   -0.25306016
     atom    4 type  2   force =     0.00000000   -0.00000000    0.25306016
     atom    5 type  1   force =     0.00000000   -0.00000000   -0.25306016
     atom    6 type  2   force =    -0.00000000    0.00000000    0.25306016
     atom    7 type  1   force =    -0.00000000    0.00000000   -0.25306016
     atom    8 type  2   force =     0.00000000   -0.00000000    0.25306016
     The local contribution  to forces
     atom    1 type  1   force =     0.00000000    0.00003397    0.27184038
     atom    2 type  2   force =    -0.00000000   -0.00019881   -0.23080350
     atom    3 type  1   force =     0.00000000   -0.00002820    0.27184533
     atom    4 type  2   force =    -0.00000000    0.00020253   -0.23079857
     atom    5 type  1   force =    -0.00000000    0.00004588    0.27183688
     atom    6 type  2   force =    -0.00000000   -0.00021229   -0.23080313
     atom    7 type  1   force =     0.00000000   -0.00004888    0.27184245
     atom    8 type  2   force =     0.00000000    0.00020432   -0.23080078
     The core correction contribution to forces
     atom    1 type  1   force =    -0.00000000   -0.00000521    0.00086110
     atom    2 type  2   force =    -0.00000000   -0.00000237    0.00019912
     atom    3 type  1   force =    -0.00000000    0.00000523    0.00086103
     atom    4 type  2   force =    -0.00000000    0.00000237    0.00019911
     atom    5 type  1   force =    -0.00000000   -0.00000527    0.00086116
     atom    6 type  2   force =     0.00000000   -0.00000240    0.00019913
     atom    7 type  1   force =     0.00000000    0.00000530    0.00086111
     atom    8 type  2   force =    -0.00000000    0.00000235    0.00019910
     The Hubbard contrib.    to forces
     atom    1 type  1   force =     0.00000000    0.00000000    0.00000000
     atom    2 type  2   force =     0.00000000    0.00000000    0.00000000
     atom    3 type  1   force =     0.00000000    0.00000000    0.00000000
     atom    4 type  2   force =     0.00000000    0.00000000    0.00000000
     atom    5 type  1   force =     0.00000000    0.00000000    0.00000000
     atom    6 type  2   force =     0.00000000    0.00000000    0.00000000
     atom    7 type  1   force =     0.00000000    0.00000000    0.00000000
     atom    8 type  2   force =     0.00000000    0.00000000    0.00000000
     The SCF correction term to forces
     atom    1 type  1   force =    -0.00000000    0.00000601   -0.00000159
     atom    2 type  2   force =    -0.00000000   -0.00000598    0.00000321
     atom    3 type  1   force =     0.00000000   -0.00001553   -0.00000769
     atom    4 type  2   force =    -0.00000000    0.00000284   -0.00000261
     atom    5 type  1   force =    -0.00000000   -0.00000900    0.00000303
     atom    6 type  2   force =    -0.00000000    0.00000655    0.00000286
     atom    7 type  1   force =    -0.00000000    0.00001542   -0.00000412
     atom    8 type  2   force =    -0.00000000   -0.00000113   -0.00000044

     Total force =     0.002904     Total SCF correction =     0.000028

     General routines

     Parallel routines

   This run was terminated on:  16: 6:45  13Jul2025

   JOB DONE.
Note: The following floating-point exceptions are signalling: IEEE_INVALID_FLAG
Note: The following floating-point exceptions are signalling: IEEE_INVALID_FLAG