     Program PWSCF v.7.2 starts on 13Jul2025 at 10:56:37

     Reading input from /home/jvc/QEspresso7.2/ZnO_database/scripts/cell121.in/ZnO-2.94-1.49-121.in
Warning: card &CELL ignored
Warning: card / ignored
Warning: card &FCP ignored
Warning: card / ignored
Warning: card &RISM ignored
Warning: card / ignored

     Current dimensions of program PWSCF are:
     Max number of different atomic species (ntypx) = 10
     Max number of k-points (npk) =  40000
     Max angular momentum in pseudopotentials (lmaxx) =  4
     file Zn.upf: wavefunction(s)  3D renormalized
     Found identity + (  0.0000 -0.5000  0.0000) symmetry
     This is a supercell, fractional translations are disabled
     Message from routine setup:
     using ibrav=0 with symmetry is DISCOURAGED, use correct ibrav instead

     K-points division:     npool     =       2
     R & G space division:  proc/nbgrp/npool/nimage =       4
     Subspace diagonalization in iterative solution of the eigenvalue problem:
     a serial algorithm will be used

     Using Slab Decomposition

     bravais-lattice index     =            0
     lattice parameter (alat)  =       5.5610  a.u.
     unit-cell volume          =     442.3843 (a.u.)^3
     number of atoms/cell      =            8
     number of atomic types    =            2
     number of electrons       =        72.00
     number of Kohn-Sham states=           36
     kinetic-energy cutoff     =      50.0000  Ry
     charge density cutoff     =     400.0000  Ry
     scf convergence threshold =      1.0E-08
     mixing beta               =       0.3000
     number of iterations used =            8  plain     mixing
     Exchange-correlation= PBE
                           (   1   4   3   4   0   0   0)

     celldm(1)=   5.560969  celldm(2)=   0.000000  celldm(3)=   0.000000
     celldm(4)=   0.000000  celldm(5)=   0.000000  celldm(6)=   0.000000

     crystal axes: (cart. coord. in units of alat)
               a(1) = (   1.000000   0.000000   0.000000 )
               a(2) = (  -1.000000   1.732051   0.000000 )
               a(3) = (   0.000000   0.000000   1.485210 )

     reciprocal axes: (cart. coord. in units 2 pi/alat)
               b(1) = (  1.000000  0.577350 -0.000000 )
               b(2) = (  0.000000  0.577350  0.000000 )
               b(3) = (  0.000000 -0.000000  0.673306 )

     PseudoPot. # 1 for Zn read from file:
     /home/jvc/QEspresso7.2/ZnO_database/pseudos/Zn.upf
     MD5 check sum: 7f56cabf9682ed8c977c2f7d0c5985c5
     Pseudo is Ultrasoft + core correction, Zval = 12.0
     Generated using &quot;atomic&quot; code by A. Dal Corso  v.6.2.2
     Using radial grid of 1201 points,  6 beta functions with:
                l(1) =   0
                l(2) =   0
                l(3) =   1
                l(4) =   1
                l(5) =   2
                l(6) =   2
     Q(r) pseudized with 0 coefficients

     PseudoPot. # 2 for O  read from file:
     /home/jvc/QEspresso7.2/ZnO_database/pseudos/O.upf
     MD5 check sum: 91400c9766925bcf19f520983a725ff0
     Pseudo is Ultrasoft + core correction, Zval =  6.0
     Generated using &quot;atomic&quot; code by A. Dal Corso  v.6.3MaX
     Using radial grid of 1095 points,  4 beta functions with:
                l(1) =   0
                l(2) =   0
                l(3) =   1
                l(4) =   1
     Q(r) pseudized with 0 coefficients

     atomic species   valence    mass     pseudopotential
        Zn            12.00    65.38000     Zn( 1.00)
        O              6.00    15.99900     O ( 1.00)

      2 Sym. Ops. (no inversion) found

                                    s                        frac. trans.

      isym =  1     identity

 cryst.   s( 1) = (     1          0          0      )
                  (     0          1          0      )
                  (     0          0          1      )

 cart.    s( 1) = (  1.0000000  0.0000000  0.0000000 )
                  (  0.0000000  1.0000000  0.0000000 )
                  (  0.0000000  0.0000000  1.0000000 )

      isym =  2     inv. 180 deg rotation - cart. axis [1,0,0]

 cryst.   s( 2) = (    -1          0          0      )
                  (     2          1          0      )
                  (     0          0          1      )

 cart.    s( 2) = ( -1.0000000  0.0000000  0.0000000 )
                  (  0.0000000  1.0000000  0.0000000 )
                  (  0.0000000  0.0000000  1.0000000 )

   Cartesian axes

     site n.     atom                  positions (alat units)
         1           Zn  tau(   1) = (   0.0000000   0.0000000   0.0000000  )
         2           O   tau(   2) = (   0.0000000   0.5773503   0.1468672  )
         3           Zn  tau(   3) = (   0.0000000   0.5773503   0.7426048  )
         4           O   tau(   4) = (   0.0000000   0.0000000   0.8894721  )
         5           Zn  tau(   5) = (  -0.5000000   0.8660254   0.0000000  )
         6           O   tau(   6) = (  -0.5000000   1.4433757   0.1468672  )
         7           Zn  tau(   7) = (  -0.5000000   1.4433757   0.7426048  )
         8           O   tau(   8) = (  -0.5000000   0.8660254   0.8894721  )

   Crystallographic axes

     site n.     atom                  positions (cryst. coord.)
         1           Zn  tau(   1) = (  0.0000000  0.0000000  0.0000000  )
         2           O   tau(   2) = (  0.3333333  0.3333333  0.0988865  )
         3           Zn  tau(   3) = (  0.3333333  0.3333333  0.5000000  )
         4           O   tau(   4) = (  0.0000000  0.0000000  0.5988865  )
         5           Zn  tau(   5) = (  0.0000000  0.5000000  0.0000000  )
         6           O   tau(   6) = (  0.3333333  0.8333333  0.0988865  )
         7           Zn  tau(   7) = (  0.3333333  0.8333333  0.5000000  )
         8           O   tau(   8) = (  0.0000000  0.5000000  0.5988865  )

     number of k points=    80
                       cart. coord. in units 2pi/alat
        k(    1) = (   0.0000000   0.0000000   0.0000000), wk =   0.0092593
        k(    2) = (   0.0000000   0.0000000   0.1122176), wk =   0.0185185
        k(    3) = (   0.0000000   0.0000000   0.2244352), wk =   0.0185185
        k(    4) = (   0.0000000   0.0000000  -0.3366528), wk =   0.0092593
        k(    5) = (   0.0000000   0.0962250   0.0000000), wk =   0.0185185
        k(    6) = (   0.0000000   0.0962250   0.1122176), wk =   0.0185185
        k(    7) = (   0.0000000   0.0962250   0.2244352), wk =   0.0185185
        k(    8) = (   0.0000000   0.0962250  -0.3366528), wk =   0.0185185
        k(    9) = (   0.0000000   0.1924501   0.0000000), wk =   0.0185185
        k(   10) = (   0.0000000   0.1924501   0.1122176), wk =   0.0185185
        k(   11) = (   0.0000000   0.1924501   0.2244352), wk =   0.0185185
        k(   12) = (   0.0000000   0.1924501  -0.3366528), wk =   0.0185185
        k(   13) = (   0.0000000  -0.2886751   0.0000000), wk =   0.0092593
        k(   14) = (   0.0000000  -0.2886751   0.1122176), wk =   0.0185185
        k(   15) = (   0.0000000  -0.2886751   0.2244352), wk =   0.0185185
        k(   16) = (   0.0000000  -0.2886751  -0.3366528), wk =   0.0092593
        k(   17) = (   0.1666667   0.0962250   0.0000000), wk =   0.0370370
        k(   18) = (   0.1666667   0.0962250   0.1122176), wk =   0.0370370
        k(   19) = (   0.1666667   0.0962250   0.2244352), wk =   0.0370370
        k(   20) = (   0.1666667   0.0962250  -0.3366528), wk =   0.0370370
        k(   21) = (   0.1666667   0.1924501   0.0000000), wk =   0.0370370
        k(   22) = (   0.1666667   0.1924501   0.1122176), wk =   0.0370370
        k(   23) = (   0.1666667   0.1924501   0.2244352), wk =   0.0370370
        k(   24) = (   0.1666667   0.1924501  -0.3366528), wk =   0.0370370
        k(   25) = (   0.1666667   0.2886751   0.0000000), wk =   0.0185185
        k(   26) = (   0.1666667   0.2886751   0.1122176), wk =   0.0370370
        k(   27) = (   0.1666667   0.2886751   0.2244352), wk =   0.0370370
        k(   28) = (   0.1666667   0.2886751  -0.3366528), wk =   0.0185185
        k(   29) = (   0.1666667   0.0000000   0.0000000), wk =   0.0185185
        k(   30) = (   0.1666667   0.0000000   0.1122176), wk =   0.0370370
        k(   31) = (   0.1666667   0.0000000   0.2244352), wk =   0.0370370
        k(   32) = (   0.1666667   0.0000000  -0.3366528), wk =   0.0185185
        k(   33) = (   0.3333333   0.1924501   0.0000000), wk =   0.0370370
        k(   34) = (   0.3333333   0.1924501   0.1122176), wk =   0.0370370
        k(   35) = (   0.3333333   0.1924501   0.2244352), wk =   0.0370370
        k(   36) = (   0.3333333   0.1924501  -0.3366528), wk =   0.0370370
        k(   37) = (   0.3333333   0.2886751   0.0000000), wk =   0.0185185
        k(   38) = (   0.3333333   0.2886751   0.1122176), wk =   0.0370370
        k(   39) = (   0.3333333   0.2886751   0.2244352), wk =   0.0370370
        k(   40) = (   0.3333333   0.2886751  -0.3366528), wk =   0.0185185
        k(   41) = (   0.3333333  -0.0962250   0.0000000), wk =   0.0370370
        k(   42) = (   0.3333333  -0.0962250   0.1122176), wk =   0.0370370
        k(   43) = (   0.3333333  -0.0962250   0.2244352), wk =   0.0370370
        k(   44) = (   0.3333333  -0.0962250  -0.3366528), wk =   0.0370370
        k(   45) = (   0.3333333  -0.0000000   0.0000000), wk =   0.0185185
        k(   46) = (   0.3333333  -0.0000000   0.1122176), wk =   0.0370370
        k(   47) = (   0.3333333  -0.0000000   0.2244352), wk =   0.0370370
        k(   48) = (   0.3333333  -0.0000000  -0.3366528), wk =   0.0185185
        k(   49) = (  -0.5000000  -0.2886751   0.0000000), wk =   0.0092593
        k(   50) = (  -0.5000000  -0.2886751   0.1122176), wk =   0.0185185
        k(   51) = (  -0.5000000  -0.2886751   0.2244352), wk =   0.0185185
        k(   52) = (  -0.5000000  -0.2886751  -0.3366528), wk =   0.0092593
        k(   53) = (  -0.5000000  -0.1924501   0.0000000), wk =   0.0185185
        k(   54) = (  -0.5000000  -0.1924501   0.1122176), wk =   0.0185185
        k(   55) = (  -0.5000000  -0.1924501   0.2244352), wk =   0.0185185
        k(   56) = (  -0.5000000  -0.1924501  -0.3366528), wk =   0.0185185
        k(   57) = (  -0.5000000  -0.0962250   0.0000000), wk =   0.0185185
        k(   58) = (  -0.5000000  -0.0962250   0.1122176), wk =   0.0185185
        k(   59) = (  -0.5000000  -0.0962250   0.2244352), wk =   0.0185185
        k(   60) = (  -0.5000000  -0.0962250  -0.3366528), wk =   0.0185185
[...]
        k(   66) = (   0.0000000   0.0962250  -0.2244352), wk =   0.0185185
        k(   67) = (   0.0000000   0.1924501  -0.1122176), wk =   0.0185185
        k(   68) = (   0.0000000   0.1924501  -0.2244352), wk =   0.0185185
        k(   69) = (  -0.1666667   0.0962250  -0.1122176), wk =   0.0370370
        k(   70) = (  -0.1666667   0.0962250  -0.2244352), wk =   0.0370370
        k(   71) = (  -0.1666667   0.1924501  -0.1122176), wk =   0.0370370
        k(   72) = (  -0.1666667   0.1924501  -0.2244352), wk =   0.0370370
        k(   73) = (  -0.3333333   0.1924501  -0.1122176), wk =   0.0370370
        k(   74) = (  -0.3333333   0.1924501  -0.2244352), wk =   0.0370370
        k(   75) = (  -0.3333333  -0.0962250  -0.1122176), wk =   0.0370370
        k(   76) = (  -0.3333333  -0.0962250  -0.2244352), wk =   0.0370370
        k(   77) = (   0.5000000  -0.1924501  -0.1122176), wk =   0.0185185
        k(   78) = (   0.5000000  -0.1924501  -0.2244352), wk =   0.0185185
        k(   79) = (   0.5000000  -0.0962250  -0.1122176), wk =   0.0185185
        k(   80) = (   0.5000000  -0.0962250  -0.2244352), wk =   0.0185185

                       cryst. coord.
        k(    1) = (   0.0000000   0.0000000   0.0000000), wk =   0.0092593
        k(    2) = (   0.0000000   0.0000000   0.1666667), wk =   0.0185185
        k(    3) = (   0.0000000   0.0000000   0.3333333), wk =   0.0185185
        k(    4) = (   0.0000000   0.0000000  -0.5000000), wk =   0.0092593
        k(    5) = (   0.0000000   0.1666667   0.0000000), wk =   0.0185185
        k(    6) = (   0.0000000   0.1666667   0.1666667), wk =   0.0185185
        k(    7) = (   0.0000000   0.1666667   0.3333333), wk =   0.0185185
        k(    8) = (   0.0000000   0.1666667  -0.5000000), wk =   0.0185185
        k(    9) = (   0.0000000   0.3333333   0.0000000), wk =   0.0185185
        k(   10) = (   0.0000000   0.3333333   0.1666667), wk =   0.0185185
        k(   11) = (   0.0000000   0.3333333   0.3333333), wk =   0.0185185
        k(   12) = (   0.0000000   0.3333333  -0.5000000), wk =   0.0185185
        k(   13) = (   0.0000000  -0.5000000   0.0000000), wk =   0.0092593
        k(   14) = (   0.0000000  -0.5000000   0.1666667), wk =   0.0185185
        k(   15) = (   0.0000000  -0.5000000   0.3333333), wk =   0.0185185
        k(   16) = (   0.0000000  -0.5000000  -0.5000000), wk =   0.0092593
        k(   17) = (   0.1666667   0.0000000   0.0000000), wk =   0.0370370
        k(   18) = (   0.1666667   0.0000000   0.1666667), wk =   0.0370370
        k(   19) = (   0.1666667   0.0000000   0.3333333), wk =   0.0370370
        k(   20) = (   0.1666667   0.0000000  -0.5000000), wk =   0.0370370
        k(   21) = (   0.1666667   0.1666667   0.0000000), wk =   0.0370370
        k(   22) = (   0.1666667   0.1666667   0.1666667), wk =   0.0370370
        k(   23) = (   0.1666667   0.1666667   0.3333333), wk =   0.0370370
        k(   24) = (   0.1666667   0.1666667  -0.5000000), wk =   0.0370370
        k(   25) = (   0.1666667   0.3333333   0.0000000), wk =   0.0185185
        k(   26) = (   0.1666667   0.3333333   0.1666667), wk =   0.0370370
        k(   27) = (   0.1666667   0.3333333   0.3333333), wk =   0.0370370
        k(   28) = (   0.1666667   0.3333333  -0.5000000), wk =   0.0185185
        k(   29) = (   0.1666667  -0.1666667   0.0000000), wk =   0.0185185
        k(   30) = (   0.1666667  -0.1666667   0.1666667), wk =   0.0370370
        k(   31) = (   0.1666667  -0.1666667   0.3333333), wk =   0.0370370
        k(   32) = (   0.1666667  -0.1666667  -0.5000000), wk =   0.0185185
        k(   33) = (   0.3333333   0.0000000   0.0000000), wk =   0.0370370
        k(   34) = (   0.3333333   0.0000000   0.1666667), wk =   0.0370370
        k(   35) = (   0.3333333   0.0000000   0.3333333), wk =   0.0370370
        k(   36) = (   0.3333333   0.0000000  -0.5000000), wk =   0.0370370
        k(   37) = (   0.3333333   0.1666667   0.0000000), wk =   0.0185185
        k(   38) = (   0.3333333   0.1666667   0.1666667), wk =   0.0370370
        k(   39) = (   0.3333333   0.1666667   0.3333333), wk =   0.0370370
        k(   40) = (   0.3333333   0.1666667  -0.5000000), wk =   0.0185185
        k(   41) = (   0.3333333  -0.5000000   0.0000000), wk =   0.0370370
        k(   42) = (   0.3333333  -0.5000000   0.1666667), wk =   0.0370370
        k(   43) = (   0.3333333  -0.5000000   0.3333333), wk =   0.0370370
        k(   44) = (   0.3333333  -0.5000000  -0.5000000), wk =   0.0370370
        k(   45) = (   0.3333333  -0.3333333   0.0000000), wk =   0.0185185
        k(   46) = (   0.3333333  -0.3333333   0.1666667), wk =   0.0370370
        k(   47) = (   0.3333333  -0.3333333   0.3333333), wk =   0.0370370
        k(   48) = (   0.3333333  -0.3333333  -0.5000000), wk =   0.0185185
        k(   49) = (  -0.5000000   0.0000000   0.0000000), wk =   0.0092593
        k(   50) = (  -0.5000000   0.0000000   0.1666667), wk =   0.0185185
        k(   51) = (  -0.5000000   0.0000000   0.3333333), wk =   0.0185185
        k(   52) = (  -0.5000000   0.0000000  -0.5000000), wk =   0.0092593
        k(   53) = (  -0.5000000   0.1666667   0.0000000), wk =   0.0185185
        k(   54) = (  -0.5000000   0.1666667   0.1666667), wk =   0.0185185
        k(   55) = (  -0.5000000   0.1666667   0.3333333), wk =   0.0185185
        k(   56) = (  -0.5000000   0.1666667  -0.5000000), wk =   0.0185185
        k(   57) = (  -0.5000000   0.3333333   0.0000000), wk =   0.0185185
        k(   58) = (  -0.5000000   0.3333333   0.1666667), wk =   0.0185185
        k(   59) = (  -0.5000000   0.3333333   0.3333333), wk =   0.0185185
        k(   60) = (  -0.5000000   0.3333333  -0.5000000), wk =   0.0185185
[...]
        k(   66) = (   0.0000000   0.1666667  -0.3333333), wk =   0.0185185
        k(   67) = (   0.0000000   0.3333333  -0.1666667), wk =   0.0185185
        k(   68) = (   0.0000000   0.3333333  -0.3333333), wk =   0.0185185
        k(   69) = (  -0.1666667   0.3333333  -0.1666667), wk =   0.0370370
        k(   70) = (  -0.1666667   0.3333333  -0.3333333), wk =   0.0370370
        k(   71) = (  -0.1666667   0.5000000  -0.1666667), wk =   0.0370370
        k(   72) = (  -0.1666667   0.5000000  -0.3333333), wk =   0.0370370
        k(   73) = (  -0.3333333   0.6666667  -0.1666667), wk =   0.0370370
        k(   74) = (  -0.3333333   0.6666667  -0.3333333), wk =   0.0370370
        k(   75) = (  -0.3333333   0.1666667  -0.1666667), wk =   0.0370370
        k(   76) = (  -0.3333333   0.1666667  -0.3333333), wk =   0.0370370
        k(   77) = (   0.5000000  -0.8333333  -0.1666667), wk =   0.0185185
        k(   78) = (   0.5000000  -0.8333333  -0.3333333), wk =   0.0185185
        k(   79) = (   0.5000000  -0.6666667  -0.1666667), wk =   0.0185185
        k(   80) = (   0.5000000  -0.6666667  -0.3333333), wk =   0.0185185

     Initial potential from superposition of free atoms

     starting charge      71.9851, renormalised to      72.0000
     Starting wfcs are   52 randomized atomic wfcs

     Self-consistent Calculation

     iteration #  1     ecut=    50.00 Ry     beta= 0.30
     Davidson diagonalization with overlap

     ethr =  1.00E-02,  avg # of iterations =  2.3

     total energy              =    -722.34329167 Ry
     estimated scf accuracy    <       1.41685941 Ry

[...]

     total energy              =    -722.59102924 Ry
     estimated scf accuracy    <       0.00000001 Ry

     iteration # 23     ecut=    50.00 Ry     beta= 0.30
     Davidson diagonalization with overlap

     ethr =  1.72E-11,  avg # of iterations =  2.0

     End of self-consistent calculation

          k = 0.0000 0.0000 0.0000 (  2663 PWs)   bands (ev):

    -7.7222  -6.3819  -6.0407  -5.8582   5.0214   5.2314   5.2767   5.7548
     5.7549   5.9547   5.9548   6.3986   6.4171   6.4387   7.0086   7.5819
     8.3144   8.3145   8.5058   8.5077   8.6271   8.9007   8.9008   9.0178
     9.1514   9.5951   9.8763  10.3454  10.3895  12.4236  12.5254  12.9330
    12.9331  13.6260  14.2151  14.2152

     occupation numbers
     1.0000   1.0000   1.0000   1.0000   1.0000   1.0000   1.0000   1.0000
     1.0000   1.0000   1.0000   1.0000   1.0000   1.0000   1.0000   1.0000
     1.0000   1.0000   1.0000   1.0000   1.0000   1.0000   1.0000   1.0000
     1.0000   1.0000   1.0000   1.0000   1.0000   1.0000   1.0000   1.0000
     1.0000   1.0000   1.0000   1.0000

[...]

          k =-0.5000-0.2887 0.0000 (  2672 PWs)   bands (ev):

[...]

          k =-0.3333-0.0962-0.2244 (  2631 PWs)   bands (ev):

[...]

          k = 0.5000-0.0962-0.2244 (  2636 PWs)   bands (ev):

    -6.2238  -6.2237  -5.9393  -5.9393   4.8959   4.8959   4.9881   4.9881
     6.1908   6.1908   6.2764   6.2764   6.7167   6.7167   6.8706   6.8706
     8.5163   8.5163   8.6526   8.6526   8.9417   8.9417   9.1455   9.1455
     9.5349   9.5349   9.9110   9.9110  10.5484  10.5484  11.4452  11.4452
    11.9308  11.9308  12.8229  12.8230

     occupation numbers
     1.0000   1.0000   1.0000   1.0000   1.0000   1.0000   1.0000   1.0000
     1.0000   1.0000   1.0000   1.0000   1.0000   1.0000   1.0000   1.0000
     1.0000   1.0000   1.0000   1.0000   1.0000   1.0000   1.0000   1.0000
     1.0000   1.0000   1.0000   1.0000   1.0000   1.0000   1.0000   1.0000
     1.0000   1.0000   1.0000   1.0000

     highest occupied level (ev):    14.2152

!    total energy              =    -722.59102924 Ry
     estimated scf accuracy    <          3.8E-09 Ry

     The total energy is the sum of the following terms:
     one-electron contribution =    -212.39520585 Ry
     hartree contribution      =     204.14057193 Ry
     xc contribution           =    -221.17697259 Ry
     ewald contribution        =    -493.15942272 Ry

     convergence has been achieved in  23 iterations

     Forces acting on atoms (cartesian axes, Ry/au):

     atom    1 type  1   force =     0.00000000    0.00000613    0.04072635
     atom    2 type  2   force =     0.00000000    0.00001015   -0.04072729
     atom    3 type  1   force =     0.00000000   -0.00000866    0.04072810
     atom    4 type  2   force =     0.00000000   -0.00001056   -0.04072713
     atom    5 type  1   force =     0.00000000    0.00001137    0.04072642
     atom    6 type  2   force =     0.00000000    0.00001113   -0.04072684
     atom    7 type  1   force =     0.00000000   -0.00000892    0.04072750
     atom    8 type  2   force =     0.00000000   -0.00001065   -0.04072710
     The non-local contrib.  to forces
     atom    1 type  1   force =     0.00000000   -0.00004214    0.14980214
     atom    2 type  2   force =     0.00000000    0.00014887    0.09809741
     atom    3 type  1   force =     0.00000000    0.00004069    0.14980301
     atom    4 type  2   force =     0.00000000   -0.00014767    0.09809673
     atom    5 type  1   force =     0.00000000   -0.00003805    0.14980215
     atom    6 type  2   force =     0.00000000    0.00014865    0.09809744
     atom    7 type  1   force =     0.00000000    0.00003970    0.14980293
     atom    8 type  2   force =     0.00000000   -0.00014827    0.09809686
     The ionic contribution  to forces
     atom    1 type  1   force =    -0.00000000   -0.00000000    1.05974528
     atom    2 type  2   force =     0.00000000    0.00000000   -1.05974528
     atom    3 type  1   force =     0.00000000    0.00000000    1.05974528
     atom    4 type  2   force =    -0.00000000   -0.00000000   -1.05974528
     atom    5 type  1   force =     0.00000000   -0.00000000    1.05974528
     atom    6 type  2   force =    -0.00000000    0.00000000   -1.05974528
     atom    7 type  1   force =    -0.00000000    0.00000000    1.05974528
     atom    8 type  2   force =    -0.00000000   -0.00000000   -1.05974528
     The local contribution  to forces
     atom    1 type  1   force =    -0.00000000    0.00005880   -1.15363970
     atom    2 type  2   force =    -0.00000000   -0.00013829    0.92147818
     atom    3 type  1   force =    -0.00000000   -0.00005322   -1.15364365
     atom    4 type  2   force =     0.00000000    0.00013647    0.92147931
     atom    5 type  1   force =    -0.00000000    0.00004698   -1.15363972
     atom    6 type  2   force =     0.00000000   -0.00013441    0.92147953
     atom    7 type  1   force =    -0.00000000   -0.00005265   -1.15364182
     atom    8 type  2   force =     0.00000000    0.00013436    0.92147901
     The core correction contribution to forces
     atom    1 type  1   force =    -0.00000000   -0.00000429   -0.01518317
     atom    2 type  2   force =     0.00000000   -0.00000164   -0.00055743
     atom    3 type  1   force =     0.00000000    0.00000418   -0.01518304
     atom    4 type  2   force =     0.00000000    0.00000162   -0.00055742
     atom    5 type  1   force =     0.00000000   -0.00000413   -0.01518316
     atom    6 type  2   force =     0.00000000   -0.00000163   -0.00055743
     atom    7 type  1   force =     0.00000000    0.00000427   -0.01518313
     atom    8 type  2   force =     0.00000000    0.00000162   -0.00055742
     The Hubbard contrib.    to forces
     atom    1 type  1   force =     0.00000000    0.00000000    0.00000000
     atom    2 type  2   force =     0.00000000    0.00000000    0.00000000
     atom    3 type  1   force =     0.00000000    0.00000000    0.00000000
     atom    4 type  2   force =     0.00000000    0.00000000    0.00000000
     atom    5 type  1   force =     0.00000000    0.00000000    0.00000000
     atom    6 type  2   force =     0.00000000    0.00000000    0.00000000
     atom    7 type  1   force =     0.00000000    0.00000000    0.00000000
     atom    8 type  2   force =     0.00000000    0.00000000    0.00000000
     The SCF correction term to forces
     atom    1 type  1   force =    -0.00000000   -0.00000621    0.00000197
     atom    2 type  2   force =    -0.00000000    0.00000124    0.00000000
     atom    3 type  1   force =     0.00000000   -0.00000029    0.00000668
     atom    4 type  2   force =    -0.00000000   -0.00000095   -0.00000030
     atom    5 type  1   force =    -0.00000000    0.00000660    0.00000204
     atom    6 type  2   force =    -0.00000000   -0.00000147   -0.00000093
     atom    7 type  1   force =     0.00000000   -0.00000021    0.00000441
     atom    8 type  2   force =    -0.00000000    0.00000166   -0.00000010

     Total force =     0.115194     Total SCF correction =     0.000013

     General routines

     Parallel routines

   This run was terminated on:  11: 1:53  13Jul2025

   JOB DONE.
Note: The following floating-point exceptions are signalling: IEEE_INVALID_FLAG
Note: The following floating-point exceptions are signalling: IEEE_INVALID_FLAG