     Program PWSCF v.7.2 starts on 13Jul2025 at 11: 1:54

     Reading input from /home/jvc/QEspresso7.2/ZnO_database/scripts/cell121.in/ZnO-2.94-1.52-121.in
Warning: card &CELL ignored
Warning: card / ignored
Warning: card &FCP ignored
Warning: card / ignored
Warning: card &RISM ignored
Warning: card / ignored

     Current dimensions of program PWSCF are:
     Max number of different atomic species (ntypx) = 10
     Max number of k-points (npk) =  40000
     Max angular momentum in pseudopotentials (lmaxx) =  4
     file Zn.upf: wavefunction(s)  3D renormalized
     Found identity + (  0.0000 -0.5000  0.0000) symmetry
     This is a supercell, fractional translations are disabled
     Message from routine setup:
     using ibrav=0 with symmetry is DISCOURAGED, use correct ibrav instead

     K-points division:     npool     =       2
     R & G space division:  proc/nbgrp/npool/nimage =       4
     Subspace diagonalization in iterative solution of the eigenvalue problem:
     a serial algorithm will be used

     Using Slab Decomposition

     bravais-lattice index     =            0
     lattice parameter (alat)  =       5.5610  a.u.
     unit-cell volume          =     452.0014 (a.u.)^3
     number of atoms/cell      =            8
     number of atomic types    =            2
     number of electrons       =        72.00
     number of Kohn-Sham states=           36
     kinetic-energy cutoff     =      50.0000  Ry
     charge density cutoff     =     400.0000  Ry
     scf convergence threshold =      1.0E-08
     mixing beta               =       0.3000
     number of iterations used =            8  plain     mixing
     Exchange-correlation= PBE
                           (   1   4   3   4   0   0   0)

     celldm(1)=   5.560969  celldm(2)=   0.000000  celldm(3)=   0.000000
     celldm(4)=   0.000000  celldm(5)=   0.000000  celldm(6)=   0.000000

     crystal axes: (cart. coord. in units of alat)
               a(1) = (   1.000000   0.000000   0.000000 )
               a(2) = (  -1.000000   1.732051   0.000000 )
               a(3) = (   0.000000   0.000000   1.517497 )

     reciprocal axes: (cart. coord. in units 2 pi/alat)
               b(1) = (  1.000000  0.577350 -0.000000 )
               b(2) = (  0.000000  0.577350  0.000000 )
               b(3) = (  0.000000 -0.000000  0.658980 )

     PseudoPot. # 1 for Zn read from file:
     /home/jvc/QEspresso7.2/ZnO_database/pseudos/Zn.upf
     MD5 check sum: 7f56cabf9682ed8c977c2f7d0c5985c5
     Pseudo is Ultrasoft + core correction, Zval = 12.0
     Generated using &quot;atomic&quot; code by A. Dal Corso  v.6.2.2
     Using radial grid of 1201 points,  6 beta functions with:
                l(1) =   0
                l(2) =   0
                l(3) =   1
                l(4) =   1
                l(5) =   2
                l(6) =   2
     Q(r) pseudized with 0 coefficients

     PseudoPot. # 2 for O  read from file:
     /home/jvc/QEspresso7.2/ZnO_database/pseudos/O.upf
     MD5 check sum: 91400c9766925bcf19f520983a725ff0
     Pseudo is Ultrasoft + core correction, Zval =  6.0
     Generated using &quot;atomic&quot; code by A. Dal Corso  v.6.3MaX
     Using radial grid of 1095 points,  4 beta functions with:
                l(1) =   0
                l(2) =   0
                l(3) =   1
                l(4) =   1
     Q(r) pseudized with 0 coefficients

     atomic species   valence    mass     pseudopotential
        Zn            12.00    65.38000     Zn( 1.00)
        O              6.00    15.99900     O ( 1.00)

      2 Sym. Ops. (no inversion) found

                                    s                        frac. trans.

      isym =  1     identity

 cryst.   s( 1) = (     1          0          0      )
                  (     0          1          0      )
                  (     0          0          1      )

 cart.    s( 1) = (  1.0000000  0.0000000  0.0000000 )
                  (  0.0000000  1.0000000  0.0000000 )
                  (  0.0000000  0.0000000  1.0000000 )

      isym =  2     inv. 180 deg rotation - cart. axis [1,0,0]

 cryst.   s( 2) = (    -1          0          0      )
                  (     2          1          0      )
                  (     0          0          1      )

 cart.    s( 2) = ( -1.0000000  0.0000000  0.0000000 )
                  (  0.0000000  1.0000000  0.0000000 )
                  (  0.0000000  0.0000000  1.0000000 )

   Cartesian axes

     site n.     atom                  positions (alat units)
         1           Zn  tau(   1) = (   0.0000000   0.0000000   0.0000000  )
         2           O   tau(   2) = (   0.0000000   0.5773503   0.1597142  )
         3           Zn  tau(   3) = (   0.0000000   0.5773503   0.7587484  )
         4           O   tau(   4) = (   0.0000000   0.0000000   0.9184627  )
         5           Zn  tau(   5) = (  -0.5000000   0.8660254   0.0000000  )
         6           O   tau(   6) = (  -0.5000000   1.4433757   0.1597142  )
         7           Zn  tau(   7) = (  -0.5000000   1.4433757   0.7587484  )
         8           O   tau(   8) = (  -0.5000000   0.8660254   0.9184627  )

   Crystallographic axes

     site n.     atom                  positions (cryst. coord.)
         1           Zn  tau(   1) = (  0.0000000  0.0000000  0.0000000  )
         2           O   tau(   2) = (  0.3333333  0.3333333  0.1052485  )
         3           Zn  tau(   3) = (  0.3333333  0.3333333  0.5000000  )
         4           O   tau(   4) = (  0.0000000  0.0000000  0.6052485  )
         5           Zn  tau(   5) = (  0.0000000  0.5000000  0.0000000  )
         6           O   tau(   6) = (  0.3333333  0.8333333  0.1052485  )
         7           Zn  tau(   7) = (  0.3333333  0.8333333  0.5000000  )
         8           O   tau(   8) = (  0.0000000  0.5000000  0.6052485  )

     number of k points=    80
                       cart. coord. in units 2pi/alat
        k(    1) = (   0.0000000   0.0000000   0.0000000), wk =   0.0092593
        k(    2) = (   0.0000000   0.0000000   0.1098300), wk =   0.0185185
        k(    3) = (   0.0000000   0.0000000   0.2196600), wk =   0.0185185
        k(    4) = (   0.0000000   0.0000000  -0.3294900), wk =   0.0092593
        k(    5) = (   0.0000000   0.0962250   0.0000000), wk =   0.0185185
        k(    6) = (   0.0000000   0.0962250   0.1098300), wk =   0.0185185
        k(    7) = (   0.0000000   0.0962250   0.2196600), wk =   0.0185185
        k(    8) = (   0.0000000   0.0962250  -0.3294900), wk =   0.0185185
        k(    9) = (   0.0000000   0.1924501   0.0000000), wk =   0.0185185
        k(   10) = (   0.0000000   0.1924501   0.1098300), wk =   0.0185185
        k(   11) = (   0.0000000   0.1924501   0.2196600), wk =   0.0185185
        k(   12) = (   0.0000000   0.1924501  -0.3294900), wk =   0.0185185
        k(   13) = (   0.0000000  -0.2886751   0.0000000), wk =   0.0092593
        k(   14) = (   0.0000000  -0.2886751   0.1098300), wk =   0.0185185
        k(   15) = (   0.0000000  -0.2886751   0.2196600), wk =   0.0185185
        k(   16) = (   0.0000000  -0.2886751  -0.3294900), wk =   0.0092593
        k(   17) = (   0.1666667   0.0962250   0.0000000), wk =   0.0370370
        k(   18) = (   0.1666667   0.0962250   0.1098300), wk =   0.0370370
        k(   19) = (   0.1666667   0.0962250   0.2196600), wk =   0.0370370
        k(   20) = (   0.1666667   0.0962250  -0.3294900), wk =   0.0370370
        k(   21) = (   0.1666667   0.1924501   0.0000000), wk =   0.0370370
        k(   22) = (   0.1666667   0.1924501   0.1098300), wk =   0.0370370
        k(   23) = (   0.1666667   0.1924501   0.2196600), wk =   0.0370370
        k(   24) = (   0.1666667   0.1924501  -0.3294900), wk =   0.0370370
        k(   25) = (   0.1666667   0.2886751   0.0000000), wk =   0.0185185
        k(   26) = (   0.1666667   0.2886751   0.1098300), wk =   0.0370370
        k(   27) = (   0.1666667   0.2886751   0.2196600), wk =   0.0370370
        k(   28) = (   0.1666667   0.2886751  -0.3294900), wk =   0.0185185
        k(   29) = (   0.1666667   0.0000000   0.0000000), wk =   0.0185185
        k(   30) = (   0.1666667   0.0000000   0.1098300), wk =   0.0370370
        k(   31) = (   0.1666667   0.0000000   0.2196600), wk =   0.0370370
        k(   32) = (   0.1666667   0.0000000  -0.3294900), wk =   0.0185185
        k(   33) = (   0.3333333   0.1924501   0.0000000), wk =   0.0370370
        k(   34) = (   0.3333333   0.1924501   0.1098300), wk =   0.0370370
        k(   35) = (   0.3333333   0.1924501   0.2196600), wk =   0.0370370
        k(   36) = (   0.3333333   0.1924501  -0.3294900), wk =   0.0370370
        k(   37) = (   0.3333333   0.2886751   0.0000000), wk =   0.0185185
        k(   38) = (   0.3333333   0.2886751   0.1098300), wk =   0.0370370
        k(   39) = (   0.3333333   0.2886751   0.2196600), wk =   0.0370370
        k(   40) = (   0.3333333   0.2886751  -0.3294900), wk =   0.0185185
        k(   41) = (   0.3333333  -0.0962250   0.0000000), wk =   0.0370370
        k(   42) = (   0.3333333  -0.0962250   0.1098300), wk =   0.0370370
        k(   43) = (   0.3333333  -0.0962250   0.2196600), wk =   0.0370370
        k(   44) = (   0.3333333  -0.0962250  -0.3294900), wk =   0.0370370
        k(   45) = (   0.3333333  -0.0000000   0.0000000), wk =   0.0185185
        k(   46) = (   0.3333333  -0.0000000   0.1098300), wk =   0.0370370
        k(   47) = (   0.3333333  -0.0000000   0.2196600), wk =   0.0370370
        k(   48) = (   0.3333333  -0.0000000  -0.3294900), wk =   0.0185185
        k(   49) = (  -0.5000000  -0.2886751   0.0000000), wk =   0.0092593
        k(   50) = (  -0.5000000  -0.2886751   0.1098300), wk =   0.0185185
        k(   51) = (  -0.5000000  -0.2886751   0.2196600), wk =   0.0185185
        k(   52) = (  -0.5000000  -0.2886751  -0.3294900), wk =   0.0092593
        k(   53) = (  -0.5000000  -0.1924501   0.0000000), wk =   0.0185185
        k(   54) = (  -0.5000000  -0.1924501   0.1098300), wk =   0.0185185
        k(   55) = (  -0.5000000  -0.1924501   0.2196600), wk =   0.0185185
        k(   56) = (  -0.5000000  -0.1924501  -0.3294900), wk =   0.0185185
        k(   57) = (  -0.5000000  -0.0962250   0.0000000), wk =   0.0185185
        k(   58) = (  -0.5000000  -0.0962250   0.1098300), wk =   0.0185185
        k(   59) = (  -0.5000000  -0.0962250   0.2196600), wk =   0.0185185
        k(   60) = (  -0.5000000  -0.0962250  -0.3294900), wk =   0.0185185
[...]
        k(   66) = (   0.0000000   0.0962250  -0.2196600), wk =   0.0185185
        k(   67) = (   0.0000000   0.1924501  -0.1098300), wk =   0.0185185
        k(   68) = (   0.0000000   0.1924501  -0.2196600), wk =   0.0185185
        k(   69) = (  -0.1666667   0.0962250  -0.1098300), wk =   0.0370370
        k(   70) = (  -0.1666667   0.0962250  -0.2196600), wk =   0.0370370
        k(   71) = (  -0.1666667   0.1924501  -0.1098300), wk =   0.0370370
        k(   72) = (  -0.1666667   0.1924501  -0.2196600), wk =   0.0370370
        k(   73) = (  -0.3333333   0.1924501  -0.1098300), wk =   0.0370370
        k(   74) = (  -0.3333333   0.1924501  -0.2196600), wk =   0.0370370
        k(   75) = (  -0.3333333  -0.0962250  -0.1098300), wk =   0.0370370
        k(   76) = (  -0.3333333  -0.0962250  -0.2196600), wk =   0.0370370
        k(   77) = (   0.5000000  -0.1924501  -0.1098300), wk =   0.0185185
        k(   78) = (   0.5000000  -0.1924501  -0.2196600), wk =   0.0185185
        k(   79) = (   0.5000000  -0.0962250  -0.1098300), wk =   0.0185185
        k(   80) = (   0.5000000  -0.0962250  -0.2196600), wk =   0.0185185

                       cryst. coord.
        k(    1) = (   0.0000000   0.0000000   0.0000000), wk =   0.0092593
        k(    2) = (   0.0000000   0.0000000   0.1666667), wk =   0.0185185
        k(    3) = (   0.0000000   0.0000000   0.3333333), wk =   0.0185185
        k(    4) = (   0.0000000   0.0000000  -0.5000000), wk =   0.0092593
        k(    5) = (   0.0000000   0.1666667   0.0000000), wk =   0.0185185
        k(    6) = (   0.0000000   0.1666667   0.1666667), wk =   0.0185185
        k(    7) = (   0.0000000   0.1666667   0.3333333), wk =   0.0185185
        k(    8) = (   0.0000000   0.1666667  -0.5000000), wk =   0.0185185
        k(    9) = (   0.0000000   0.3333333   0.0000000), wk =   0.0185185
        k(   10) = (   0.0000000   0.3333333   0.1666667), wk =   0.0185185
        k(   11) = (   0.0000000   0.3333333   0.3333333), wk =   0.0185185
        k(   12) = (   0.0000000   0.3333333  -0.5000000), wk =   0.0185185
        k(   13) = (   0.0000000  -0.5000000   0.0000000), wk =   0.0092593
        k(   14) = (   0.0000000  -0.5000000   0.1666667), wk =   0.0185185
        k(   15) = (   0.0000000  -0.5000000   0.3333333), wk =   0.0185185
        k(   16) = (   0.0000000  -0.5000000  -0.5000000), wk =   0.0092593
        k(   17) = (   0.1666667   0.0000000   0.0000000), wk =   0.0370370
        k(   18) = (   0.1666667   0.0000000   0.1666667), wk =   0.0370370
        k(   19) = (   0.1666667   0.0000000   0.3333333), wk =   0.0370370
        k(   20) = (   0.1666667   0.0000000  -0.5000000), wk =   0.0370370
        k(   21) = (   0.1666667   0.1666667   0.0000000), wk =   0.0370370
        k(   22) = (   0.1666667   0.1666667   0.1666667), wk =   0.0370370
        k(   23) = (   0.1666667   0.1666667   0.3333333), wk =   0.0370370
        k(   24) = (   0.1666667   0.1666667  -0.5000000), wk =   0.0370370
        k(   25) = (   0.1666667   0.3333333   0.0000000), wk =   0.0185185
        k(   26) = (   0.1666667   0.3333333   0.1666667), wk =   0.0370370
        k(   27) = (   0.1666667   0.3333333   0.3333333), wk =   0.0370370
        k(   28) = (   0.1666667   0.3333333  -0.5000000), wk =   0.0185185
        k(   29) = (   0.1666667  -0.1666667   0.0000000), wk =   0.0185185
        k(   30) = (   0.1666667  -0.1666667   0.1666667), wk =   0.0370370
        k(   31) = (   0.1666667  -0.1666667   0.3333333), wk =   0.0370370
        k(   32) = (   0.1666667  -0.1666667  -0.5000000), wk =   0.0185185
        k(   33) = (   0.3333333   0.0000000   0.0000000), wk =   0.0370370
        k(   34) = (   0.3333333   0.0000000   0.1666667), wk =   0.0370370
        k(   35) = (   0.3333333   0.0000000   0.3333333), wk =   0.0370370
        k(   36) = (   0.3333333   0.0000000  -0.5000000), wk =   0.0370370
        k(   37) = (   0.3333333   0.1666667   0.0000000), wk =   0.0185185
        k(   38) = (   0.3333333   0.1666667   0.1666667), wk =   0.0370370
        k(   39) = (   0.3333333   0.1666667   0.3333333), wk =   0.0370370
        k(   40) = (   0.3333333   0.1666667  -0.5000000), wk =   0.0185185
        k(   41) = (   0.3333333  -0.5000000   0.0000000), wk =   0.0370370
        k(   42) = (   0.3333333  -0.5000000   0.1666667), wk =   0.0370370
        k(   43) = (   0.3333333  -0.5000000   0.3333333), wk =   0.0370370
        k(   44) = (   0.3333333  -0.5000000  -0.5000000), wk =   0.0370370
        k(   45) = (   0.3333333  -0.3333333   0.0000000), wk =   0.0185185
        k(   46) = (   0.3333333  -0.3333333   0.1666667), wk =   0.0370370
        k(   47) = (   0.3333333  -0.3333333   0.3333333), wk =   0.0370370
        k(   48) = (   0.3333333  -0.3333333  -0.5000000), wk =   0.0185185
        k(   49) = (  -0.5000000   0.0000000   0.0000000), wk =   0.0092593
        k(   50) = (  -0.5000000   0.0000000   0.1666667), wk =   0.0185185
        k(   51) = (  -0.5000000   0.0000000   0.3333333), wk =   0.0185185
        k(   52) = (  -0.5000000   0.0000000  -0.5000000), wk =   0.0092593
        k(   53) = (  -0.5000000   0.1666667   0.0000000), wk =   0.0185185
        k(   54) = (  -0.5000000   0.1666667   0.1666667), wk =   0.0185185
        k(   55) = (  -0.5000000   0.1666667   0.3333333), wk =   0.0185185
        k(   56) = (  -0.5000000   0.1666667  -0.5000000), wk =   0.0185185
        k(   57) = (  -0.5000000   0.3333333   0.0000000), wk =   0.0185185
        k(   58) = (  -0.5000000   0.3333333   0.1666667), wk =   0.0185185
        k(   59) = (  -0.5000000   0.3333333   0.3333333), wk =   0.0185185
        k(   60) = (  -0.5000000   0.3333333  -0.5000000), wk =   0.0185185
[...]
        k(   66) = (   0.0000000   0.1666667  -0.3333333), wk =   0.0185185
        k(   67) = (   0.0000000   0.3333333  -0.1666667), wk =   0.0185185
        k(   68) = (   0.0000000   0.3333333  -0.3333333), wk =   0.0185185
        k(   69) = (  -0.1666667   0.3333333  -0.1666667), wk =   0.0370370
        k(   70) = (  -0.1666667   0.3333333  -0.3333333), wk =   0.0370370
        k(   71) = (  -0.1666667   0.5000000  -0.1666667), wk =   0.0370370
        k(   72) = (  -0.1666667   0.5000000  -0.3333333), wk =   0.0370370
        k(   73) = (  -0.3333333   0.6666667  -0.1666667), wk =   0.0370370
        k(   74) = (  -0.3333333   0.6666667  -0.3333333), wk =   0.0370370
        k(   75) = (  -0.3333333   0.1666667  -0.1666667), wk =   0.0370370
        k(   76) = (  -0.3333333   0.1666667  -0.3333333), wk =   0.0370370
        k(   77) = (   0.5000000  -0.8333333  -0.1666667), wk =   0.0185185
        k(   78) = (   0.5000000  -0.8333333  -0.3333333), wk =   0.0185185
        k(   79) = (   0.5000000  -0.6666667  -0.1666667), wk =   0.0185185
        k(   80) = (   0.5000000  -0.6666667  -0.3333333), wk =   0.0185185

     Initial potential from superposition of free atoms

     starting charge      71.9851, renormalised to      72.0000
     Starting wfcs are   52 randomized atomic wfcs

     Self-consistent Calculation

     iteration #  1     ecut=    50.00 Ry     beta= 0.30
     Davidson diagonalization with overlap

     ethr =  1.00E-02,  avg # of iterations =  2.3

     total energy              =    -722.42163150 Ry
     estimated scf accuracy    <       1.39993467 Ry

[...]

     total energy              =    -722.66834533 Ry
     estimated scf accuracy    <       0.00000049 Ry

     iteration # 20     ecut=    50.00 Ry     beta= 0.30
     Davidson diagonalization with overlap

     ethr =  6.78E-10,  avg # of iterations =  4.1

     End of self-consistent calculation

          k = 0.0000 0.0000 0.0000 (  2723 PWs)   bands (ev):

    -7.9387  -6.6362  -6.3748  -6.1519   4.7916   4.9267   4.9577   5.4812
     5.4814   5.7169   5.7170   5.9856   6.0641   6.1156   6.7426   7.0699
     7.9689   7.9689   8.1142   8.2898   8.2913   8.4997   8.4997   8.6088
     8.7605   9.1215   9.4494   9.9234  10.0189  11.9807  12.1804  12.4906
    12.4907  13.3091  13.7556  13.7558

     occupation numbers
     1.0000   1.0000   1.0000   1.0000   1.0000   1.0000   1.0000   1.0000
     1.0000   1.0000   1.0000   1.0000   1.0000   1.0000   1.0000   1.0000
     1.0000   1.0000   1.0000   1.0000   1.0000   1.0000   1.0000   1.0000
     1.0000   1.0000   1.0000   1.0000   1.0000   1.0000   1.0000   1.0000
     1.0000   1.0000   1.0000   1.0000

[...]

          k =-0.5000-0.2887 0.0000 (  2696 PWs)   bands (ev):

[...]

          k =-0.3333-0.0962-0.2197 (  2688 PWs)   bands (ev):

[...]

          k = 0.5000-0.0962-0.2197 (  2698 PWs)   bands (ev):

    -6.4959  -6.4959  -6.2335  -6.2335   4.6678   4.6678   4.7501   4.7501
     5.8938   5.8938   5.9665   5.9666   6.4355   6.4356   6.5660   6.5660
     8.1376   8.1376   8.2944   8.2944   8.5533   8.5533   8.7643   8.7643
     9.1128   9.1128   9.5257   9.5257  10.1699  10.1699  11.0356  11.0356
    11.4430  11.4430  12.2884  12.2884

     occupation numbers
     1.0000   1.0000   1.0000   1.0000   1.0000   1.0000   1.0000   1.0000
     1.0000   1.0000   1.0000   1.0000   1.0000   1.0000   1.0000   1.0000
     1.0000   1.0000   1.0000   1.0000   1.0000   1.0000   1.0000   1.0000
     1.0000   1.0000   1.0000   1.0000   1.0000   1.0000   1.0000   1.0000
     1.0000   1.0000   1.0000   1.0000

     highest occupied level (ev):    13.7558

!    total energy              =    -722.66834548 Ry
     estimated scf accuracy    <          1.8E-09 Ry

     The total energy is the sum of the following terms:
     one-electron contribution =    -217.91976204 Ry
     hartree contribution      =     205.87830367 Ry
     xc contribution           =    -221.04109045 Ry
     ewald contribution        =    -489.58579666 Ry

     convergence has been achieved in  20 iterations

     Forces acting on atoms (cartesian axes, Ry/au):

     atom    1 type  1   force =     0.00000000    0.00000466    0.02929392
     atom    2 type  2   force =     0.00000000    0.00000789   -0.02929661
     atom    3 type  1   force =     0.00000000   -0.00001700    0.02930395
     atom    4 type  2   force =     0.00000000   -0.00001094   -0.02929961
     atom    5 type  1   force =     0.00000000    0.00002594    0.02929062
     atom    6 type  2   force =     0.00000000    0.00000540   -0.02929438
     atom    7 type  1   force =     0.00000000   -0.00001143    0.02929856
     atom    8 type  2   force =     0.00000000   -0.00000452   -0.02929646
     The non-local contrib.  to forces
     atom    1 type  1   force =     0.00000000   -0.00003986    0.11657634
     atom    2 type  2   force =     0.00000000    0.00015634    0.07493179
     atom    3 type  1   force =     0.00000000    0.00003552    0.11658063
     atom    4 type  2   force =     0.00000000   -0.00014962    0.07493420
     atom    5 type  1   force =     0.00000000   -0.00003071    0.11657664
     atom    6 type  2   force =     0.00000000    0.00015732    0.07492875
     atom    7 type  1   force =     0.00000000    0.00003988    0.11657620
     atom    8 type  2   force =     0.00000000   -0.00015793    0.07494020
     The ionic contribution  to forces
     atom    1 type  1   force =    -0.00000000   -0.00000000    0.79930868
     atom    2 type  2   force =     0.00000000    0.00000000   -0.79930868
     atom    3 type  1   force =     0.00000000    0.00000000    0.79930868
     atom    4 type  2   force =    -0.00000000   -0.00000000   -0.79930868
     atom    5 type  1   force =    -0.00000000   -0.00000000    0.79930868
     atom    6 type  2   force =    -0.00000000    0.00000000   -0.79930868
     atom    7 type  1   force =    -0.00000000    0.00000000    0.79930868
     atom    8 type  2   force =    -0.00000000   -0.00000000   -0.79930868
     The local contribution  to forces
     atom    1 type  1   force =    -0.00000000    0.00006734   -0.87490563
     atom    2 type  2   force =     0.00000000   -0.00013701    0.69549002
     atom    3 type  1   force =    -0.00000000   -0.00004314   -0.87493830
     atom    4 type  2   force =     0.00000000    0.00013958    0.69550649
     atom    5 type  1   force =    -0.00000000    0.00003227   -0.87490623
     atom    6 type  2   force =    -0.00000000   -0.00014170    0.69549572
     atom    7 type  1   force =     0.00000000   -0.00006204   -0.87492543
     atom    8 type  2   force =    -0.00000000    0.00015074    0.69549248
     The core correction contribution to forces
     atom    1 type  1   force =     0.00000000   -0.00000476   -0.01165354
     atom    2 type  2   force =     0.00000000   -0.00000168   -0.00042612
     atom    3 type  1   force =     0.00000000    0.00000401   -0.01165226
     atom    4 type  2   force =    -0.00000000    0.00000162   -0.00042609
     atom    5 type  1   force =     0.00000000   -0.00000407   -0.01165352
     atom    6 type  2   force =     0.00000000   -0.00000170   -0.00042606
     atom    7 type  1   force =    -0.00000000    0.00000461   -0.01165231
     atom    8 type  2   force =    -0.00000000    0.00000175   -0.00042622
     The Hubbard contrib.    to forces
     atom    1 type  1   force =     0.00000000    0.00000000    0.00000000
     atom    2 type  2   force =     0.00000000    0.00000000    0.00000000
     atom    3 type  1   force =     0.00000000    0.00000000    0.00000000
     atom    4 type  2   force =     0.00000000    0.00000000    0.00000000
     atom    5 type  1   force =     0.00000000    0.00000000    0.00000000
     atom    6 type  2   force =     0.00000000    0.00000000    0.00000000
     atom    7 type  1   force =     0.00000000    0.00000000    0.00000000
     atom    8 type  2   force =     0.00000000    0.00000000    0.00000000
     The SCF correction term to forces
     atom    1 type  1   force =    -0.00000000   -0.00001696   -0.00003190
     atom    2 type  2   force =    -0.00000000   -0.00000867    0.00001642
     atom    3 type  1   force =    -0.00000000   -0.00001230    0.00000522
     atom    4 type  2   force =    -0.00000000   -0.00000143   -0.00000549
     atom    5 type  1   force =    -0.00000000    0.00002955   -0.00003493
     atom    6 type  2   force =    -0.00000000   -0.00000743    0.00001594
     atom    7 type  1   force =    -0.00000000    0.00000721   -0.00000855
     atom    8 type  2   force =    -0.00000000    0.00000201    0.00000580

     Total force =     0.082864     Total SCF correction =     0.000067

     General routines

     Parallel routines

   This run was terminated on:  11: 5:37  13Jul2025

   JOB DONE.
Note: The following floating-point exceptions are signalling: IEEE_INVALID_FLAG
Note: The following floating-point exceptions are signalling: IEEE_INVALID_FLAG