     Program PWSCF v.7.2 starts on 13Jul2025 at 12: 7:15

     Reading input from /home/jvc/QEspresso7.2/ZnO_database/scripts/cell121.in/ZnO-3.01-1.61-121.in
Warning: card &CELL ignored
Warning: card / ignored
Warning: card &FCP ignored
Warning: card / ignored
Warning: card &RISM ignored
Warning: card / ignored

     Current dimensions of program PWSCF are:
     Max number of different atomic species (ntypx) = 10
     Max number of k-points (npk) =  40000
     Max angular momentum in pseudopotentials (lmaxx) =  4
     file Zn.upf: wavefunction(s)  3D renormalized
     Found identity + (  0.0000 -0.5000  0.0000) symmetry
     This is a supercell, fractional translations are disabled
     Message from routine setup:
     using ibrav=0 with symmetry is DISCOURAGED, use correct ibrav instead

     K-points division:     npool     =       2
     R & G space division:  proc/nbgrp/npool/nimage =       4
     Subspace diagonalization in iterative solution of the eigenvalue problem:
     a serial algorithm will be used

     Using Slab Decomposition

     bravais-lattice index     =            0
     lattice parameter (alat)  =       5.6845  a.u.
     unit-cell volume          =     513.6270 (a.u.)^3
     number of atoms/cell      =            8
     number of atomic types    =            2
     number of electrons       =        72.00
     number of Kohn-Sham states=           36
     kinetic-energy cutoff     =      50.0000  Ry
     charge density cutoff     =     400.0000  Ry
     scf convergence threshold =      1.0E-08
     mixing beta               =       0.3000
     number of iterations used =            8  plain     mixing
     Exchange-correlation= PBE
                           (   1   4   3   4   0   0   0)

     celldm(1)=   5.684546  celldm(2)=   0.000000  celldm(3)=   0.000000
     celldm(4)=   0.000000  celldm(5)=   0.000000  celldm(6)=   0.000000

     crystal axes: (cart. coord. in units of alat)
               a(1) = (   1.000000   0.000000   0.000000 )
               a(2) = (  -1.000000   1.732051   0.000000 )
               a(3) = (   0.000000   0.000000   1.614358 )

     reciprocal axes: (cart. coord. in units 2 pi/alat)
               b(1) = (  1.000000  0.577350 -0.000000 )
               b(2) = (  0.000000  0.577350  0.000000 )
               b(3) = (  0.000000 -0.000000  0.619441 )

     PseudoPot. # 1 for Zn read from file:
     /home/jvc/QEspresso7.2/ZnO_database/pseudos/Zn.upf
     MD5 check sum: 7f56cabf9682ed8c977c2f7d0c5985c5
     Pseudo is Ultrasoft + core correction, Zval = 12.0
     Generated using &quot;atomic&quot; code by A. Dal Corso  v.6.2.2
     Using radial grid of 1201 points,  6 beta functions with:
                l(1) =   0
                l(2) =   0
                l(3) =   1
                l(4) =   1
                l(5) =   2
                l(6) =   2
     Q(r) pseudized with 0 coefficients

     PseudoPot. # 2 for O  read from file:
     /home/jvc/QEspresso7.2/ZnO_database/pseudos/O.upf
     MD5 check sum: 91400c9766925bcf19f520983a725ff0
     Pseudo is Ultrasoft + core correction, Zval =  6.0
     Generated using &quot;atomic&quot; code by A. Dal Corso  v.6.3MaX
     Using radial grid of 1095 points,  4 beta functions with:
                l(1) =   0
                l(2) =   0
                l(3) =   1
                l(4) =   1
     Q(r) pseudized with 0 coefficients

     atomic species   valence    mass     pseudopotential
        Zn            12.00    65.38000     Zn( 1.00)
        O              6.00    15.99900     O ( 1.00)

      2 Sym. Ops. (no inversion) found

                                    s                        frac. trans.

      isym =  1     identity

 cryst.   s( 1) = (     1          0          0      )
                  (     0          1          0      )
                  (     0          0          1      )

 cart.    s( 1) = (  1.0000000  0.0000000  0.0000000 )
                  (  0.0000000  1.0000000  0.0000000 )
                  (  0.0000000  0.0000000  1.0000000 )

      isym =  2     inv. 180 deg rotation - cart. axis [1,0,0]

 cryst.   s( 2) = (    -1          0          0      )
                  (     2          1          0      )
                  (     0          0          1      )

 cart.    s( 2) = ( -1.0000000  0.0000000  0.0000000 )
                  (  0.0000000  1.0000000  0.0000000 )
                  (  0.0000000  0.0000000  1.0000000 )

   Cartesian axes

     site n.     atom                  positions (alat units)
         1           Zn  tau(   1) = (   0.0000000   0.0000000   0.0000000  )
         2           O   tau(   2) = (   0.0000000   0.5773503   0.1971092  )
         3           Zn  tau(   3) = (   0.0000000   0.5773503   0.8071792  )
         4           O   tau(   4) = (   0.0000000   0.0000000   1.0042884  )
         5           Zn  tau(   5) = (  -0.5000000   0.8660254   0.0000000  )
         6           O   tau(   6) = (  -0.5000000   1.4433757   0.1971092  )
         7           Zn  tau(   7) = (  -0.5000000   1.4433757   0.8071792  )
         8           O   tau(   8) = (  -0.5000000   0.8660254   1.0042884  )

   Crystallographic axes

     site n.     atom                  positions (cryst. coord.)
         1           Zn  tau(   1) = (  0.0000000  0.0000000  0.0000000  )
         2           O   tau(   2) = (  0.3333333  0.3333333  0.1220976  )
         3           Zn  tau(   3) = (  0.3333333  0.3333333  0.5000000  )
         4           O   tau(   4) = (  0.0000000  0.0000000  0.6220976  )
         5           Zn  tau(   5) = (  0.0000000  0.5000000  0.0000000  )
         6           O   tau(   6) = (  0.3333333  0.8333333  0.1220976  )
         7           Zn  tau(   7) = (  0.3333333  0.8333333  0.5000000  )
         8           O   tau(   8) = (  0.0000000  0.5000000  0.6220976  )

     number of k points=    80
                       cart. coord. in units 2pi/alat
        k(    1) = (   0.0000000   0.0000000   0.0000000), wk =   0.0092593
        k(    2) = (   0.0000000   0.0000000   0.1032402), wk =   0.0185185
        k(    3) = (   0.0000000   0.0000000   0.2064804), wk =   0.0185185
        k(    4) = (   0.0000000   0.0000000  -0.3097206), wk =   0.0092593
        k(    5) = (   0.0000000   0.0962250   0.0000000), wk =   0.0185185
        k(    6) = (   0.0000000   0.0962250   0.1032402), wk =   0.0185185
        k(    7) = (   0.0000000   0.0962250   0.2064804), wk =   0.0185185
        k(    8) = (   0.0000000   0.0962250  -0.3097206), wk =   0.0185185
        k(    9) = (   0.0000000   0.1924501   0.0000000), wk =   0.0185185
        k(   10) = (   0.0000000   0.1924501   0.1032402), wk =   0.0185185
        k(   11) = (   0.0000000   0.1924501   0.2064804), wk =   0.0185185
        k(   12) = (   0.0000000   0.1924501  -0.3097206), wk =   0.0185185
        k(   13) = (   0.0000000  -0.2886751   0.0000000), wk =   0.0092593
        k(   14) = (   0.0000000  -0.2886751   0.1032402), wk =   0.0185185
        k(   15) = (   0.0000000  -0.2886751   0.2064804), wk =   0.0185185
        k(   16) = (   0.0000000  -0.2886751  -0.3097206), wk =   0.0092593
        k(   17) = (   0.1666667   0.0962250   0.0000000), wk =   0.0370370
        k(   18) = (   0.1666667   0.0962250   0.1032402), wk =   0.0370370
        k(   19) = (   0.1666667   0.0962250   0.2064804), wk =   0.0370370
        k(   20) = (   0.1666667   0.0962250  -0.3097206), wk =   0.0370370
        k(   21) = (   0.1666667   0.1924501   0.0000000), wk =   0.0370370
        k(   22) = (   0.1666667   0.1924501   0.1032402), wk =   0.0370370
        k(   23) = (   0.1666667   0.1924501   0.2064804), wk =   0.0370370
        k(   24) = (   0.1666667   0.1924501  -0.3097206), wk =   0.0370370
        k(   25) = (   0.1666667   0.2886751   0.0000000), wk =   0.0185185
        k(   26) = (   0.1666667   0.2886751   0.1032402), wk =   0.0370370
        k(   27) = (   0.1666667   0.2886751   0.2064804), wk =   0.0370370
        k(   28) = (   0.1666667   0.2886751  -0.3097206), wk =   0.0185185
        k(   29) = (   0.1666667   0.0000000   0.0000000), wk =   0.0185185
        k(   30) = (   0.1666667   0.0000000   0.1032402), wk =   0.0370370
        k(   31) = (   0.1666667   0.0000000   0.2064804), wk =   0.0370370
        k(   32) = (   0.1666667   0.0000000  -0.3097206), wk =   0.0185185
        k(   33) = (   0.3333333   0.1924501   0.0000000), wk =   0.0370370
        k(   34) = (   0.3333333   0.1924501   0.1032402), wk =   0.0370370
        k(   35) = (   0.3333333   0.1924501   0.2064804), wk =   0.0370370
        k(   36) = (   0.3333333   0.1924501  -0.3097206), wk =   0.0370370
        k(   37) = (   0.3333333   0.2886751   0.0000000), wk =   0.0185185
        k(   38) = (   0.3333333   0.2886751   0.1032402), wk =   0.0370370
        k(   39) = (   0.3333333   0.2886751   0.2064804), wk =   0.0370370
        k(   40) = (   0.3333333   0.2886751  -0.3097206), wk =   0.0185185
        k(   41) = (   0.3333333  -0.0962250   0.0000000), wk =   0.0370370
        k(   42) = (   0.3333333  -0.0962250   0.1032402), wk =   0.0370370
        k(   43) = (   0.3333333  -0.0962250   0.2064804), wk =   0.0370370
        k(   44) = (   0.3333333  -0.0962250  -0.3097206), wk =   0.0370370
        k(   45) = (   0.3333333  -0.0000000   0.0000000), wk =   0.0185185
        k(   46) = (   0.3333333  -0.0000000   0.1032402), wk =   0.0370370
        k(   47) = (   0.3333333  -0.0000000   0.2064804), wk =   0.0370370
        k(   48) = (   0.3333333  -0.0000000  -0.3097206), wk =   0.0185185
        k(   49) = (  -0.5000000  -0.2886751   0.0000000), wk =   0.0092593
        k(   50) = (  -0.5000000  -0.2886751   0.1032402), wk =   0.0185185
        k(   51) = (  -0.5000000  -0.2886751   0.2064804), wk =   0.0185185
        k(   52) = (  -0.5000000  -0.2886751  -0.3097206), wk =   0.0092593
        k(   53) = (  -0.5000000  -0.1924501   0.0000000), wk =   0.0185185
        k(   54) = (  -0.5000000  -0.1924501   0.1032402), wk =   0.0185185
        k(   55) = (  -0.5000000  -0.1924501   0.2064804), wk =   0.0185185
        k(   56) = (  -0.5000000  -0.1924501  -0.3097206), wk =   0.0185185
        k(   57) = (  -0.5000000  -0.0962250   0.0000000), wk =   0.0185185
        k(   58) = (  -0.5000000  -0.0962250   0.1032402), wk =   0.0185185
        k(   59) = (  -0.5000000  -0.0962250   0.2064804), wk =   0.0185185
        k(   60) = (  -0.5000000  -0.0962250  -0.3097206), wk =   0.0185185
[...]
        k(   66) = (   0.0000000   0.0962250  -0.2064804), wk =   0.0185185
        k(   67) = (   0.0000000   0.1924501  -0.1032402), wk =   0.0185185
        k(   68) = (   0.0000000   0.1924501  -0.2064804), wk =   0.0185185
        k(   69) = (  -0.1666667   0.0962250  -0.1032402), wk =   0.0370370
        k(   70) = (  -0.1666667   0.0962250  -0.2064804), wk =   0.0370370
        k(   71) = (  -0.1666667   0.1924501  -0.1032402), wk =   0.0370370
        k(   72) = (  -0.1666667   0.1924501  -0.2064804), wk =   0.0370370
        k(   73) = (  -0.3333333   0.1924501  -0.1032402), wk =   0.0370370
        k(   74) = (  -0.3333333   0.1924501  -0.2064804), wk =   0.0370370
        k(   75) = (  -0.3333333  -0.0962250  -0.1032402), wk =   0.0370370
        k(   76) = (  -0.3333333  -0.0962250  -0.2064804), wk =   0.0370370
        k(   77) = (   0.5000000  -0.1924501  -0.1032402), wk =   0.0185185
        k(   78) = (   0.5000000  -0.1924501  -0.2064804), wk =   0.0185185
        k(   79) = (   0.5000000  -0.0962250  -0.1032402), wk =   0.0185185
        k(   80) = (   0.5000000  -0.0962250  -0.2064804), wk =   0.0185185

                       cryst. coord.
        k(    1) = (   0.0000000   0.0000000   0.0000000), wk =   0.0092593
        k(    2) = (   0.0000000   0.0000000   0.1666667), wk =   0.0185185
        k(    3) = (   0.0000000   0.0000000   0.3333333), wk =   0.0185185
        k(    4) = (   0.0000000   0.0000000  -0.5000000), wk =   0.0092593
        k(    5) = (   0.0000000   0.1666667   0.0000000), wk =   0.0185185
        k(    6) = (   0.0000000   0.1666667   0.1666667), wk =   0.0185185
        k(    7) = (   0.0000000   0.1666667   0.3333333), wk =   0.0185185
        k(    8) = (   0.0000000   0.1666667  -0.5000000), wk =   0.0185185
        k(    9) = (   0.0000000   0.3333333   0.0000000), wk =   0.0185185
        k(   10) = (   0.0000000   0.3333333   0.1666667), wk =   0.0185185
        k(   11) = (   0.0000000   0.3333333   0.3333333), wk =   0.0185185
        k(   12) = (   0.0000000   0.3333333  -0.5000000), wk =   0.0185185
        k(   13) = (   0.0000000  -0.5000000   0.0000000), wk =   0.0092593
        k(   14) = (   0.0000000  -0.5000000   0.1666667), wk =   0.0185185
        k(   15) = (   0.0000000  -0.5000000   0.3333333), wk =   0.0185185
        k(   16) = (   0.0000000  -0.5000000  -0.5000000), wk =   0.0092593
        k(   17) = (   0.1666667   0.0000000   0.0000000), wk =   0.0370370
        k(   18) = (   0.1666667   0.0000000   0.1666667), wk =   0.0370370
        k(   19) = (   0.1666667   0.0000000   0.3333333), wk =   0.0370370
        k(   20) = (   0.1666667   0.0000000  -0.5000000), wk =   0.0370370
        k(   21) = (   0.1666667   0.1666667   0.0000000), wk =   0.0370370
        k(   22) = (   0.1666667   0.1666667   0.1666667), wk =   0.0370370
        k(   23) = (   0.1666667   0.1666667   0.3333333), wk =   0.0370370
        k(   24) = (   0.1666667   0.1666667  -0.5000000), wk =   0.0370370
        k(   25) = (   0.1666667   0.3333333   0.0000000), wk =   0.0185185
        k(   26) = (   0.1666667   0.3333333   0.1666667), wk =   0.0370370
        k(   27) = (   0.1666667   0.3333333   0.3333333), wk =   0.0370370
        k(   28) = (   0.1666667   0.3333333  -0.5000000), wk =   0.0185185
        k(   29) = (   0.1666667  -0.1666667   0.0000000), wk =   0.0185185
        k(   30) = (   0.1666667  -0.1666667   0.1666667), wk =   0.0370370
        k(   31) = (   0.1666667  -0.1666667   0.3333333), wk =   0.0370370
        k(   32) = (   0.1666667  -0.1666667  -0.5000000), wk =   0.0185185
        k(   33) = (   0.3333333   0.0000000   0.0000000), wk =   0.0370370
        k(   34) = (   0.3333333   0.0000000   0.1666667), wk =   0.0370370
        k(   35) = (   0.3333333   0.0000000   0.3333333), wk =   0.0370370
        k(   36) = (   0.3333333   0.0000000  -0.5000000), wk =   0.0370370
        k(   37) = (   0.3333333   0.1666667   0.0000000), wk =   0.0185185
        k(   38) = (   0.3333333   0.1666667   0.1666667), wk =   0.0370370
        k(   39) = (   0.3333333   0.1666667   0.3333333), wk =   0.0370370
        k(   40) = (   0.3333333   0.1666667  -0.5000000), wk =   0.0185185
        k(   41) = (   0.3333333  -0.5000000   0.0000000), wk =   0.0370370
        k(   42) = (   0.3333333  -0.5000000   0.1666667), wk =   0.0370370
        k(   43) = (   0.3333333  -0.5000000   0.3333333), wk =   0.0370370
        k(   44) = (   0.3333333  -0.5000000  -0.5000000), wk =   0.0370370
        k(   45) = (   0.3333333  -0.3333333   0.0000000), wk =   0.0185185
        k(   46) = (   0.3333333  -0.3333333   0.1666667), wk =   0.0370370
        k(   47) = (   0.3333333  -0.3333333   0.3333333), wk =   0.0370370
        k(   48) = (   0.3333333  -0.3333333  -0.5000000), wk =   0.0185185
        k(   49) = (  -0.5000000   0.0000000   0.0000000), wk =   0.0092593
        k(   50) = (  -0.5000000   0.0000000   0.1666667), wk =   0.0185185
        k(   51) = (  -0.5000000   0.0000000   0.3333333), wk =   0.0185185
        k(   52) = (  -0.5000000   0.0000000  -0.5000000), wk =   0.0092593
        k(   53) = (  -0.5000000   0.1666667   0.0000000), wk =   0.0185185
        k(   54) = (  -0.5000000   0.1666667   0.1666667), wk =   0.0185185
        k(   55) = (  -0.5000000   0.1666667   0.3333333), wk =   0.0185185
        k(   56) = (  -0.5000000   0.1666667  -0.5000000), wk =   0.0185185
        k(   57) = (  -0.5000000   0.3333333   0.0000000), wk =   0.0185185
        k(   58) = (  -0.5000000   0.3333333   0.1666667), wk =   0.0185185
        k(   59) = (  -0.5000000   0.3333333   0.3333333), wk =   0.0185185
        k(   60) = (  -0.5000000   0.3333333  -0.5000000), wk =   0.0185185
[...]
        k(   66) = (   0.0000000   0.1666667  -0.3333333), wk =   0.0185185
        k(   67) = (   0.0000000   0.3333333  -0.1666667), wk =   0.0185185
        k(   68) = (   0.0000000   0.3333333  -0.3333333), wk =   0.0185185
        k(   69) = (  -0.1666667   0.3333333  -0.1666667), wk =   0.0370370
        k(   70) = (  -0.1666667   0.3333333  -0.3333333), wk =   0.0370370
        k(   71) = (  -0.1666667   0.5000000  -0.1666667), wk =   0.0370370
        k(   72) = (  -0.1666667   0.5000000  -0.3333333), wk =   0.0370370
        k(   73) = (  -0.3333333   0.6666667  -0.1666667), wk =   0.0370370
        k(   74) = (  -0.3333333   0.6666667  -0.3333333), wk =   0.0370370
        k(   75) = (  -0.3333333   0.1666667  -0.1666667), wk =   0.0370370
        k(   76) = (  -0.3333333   0.1666667  -0.3333333), wk =   0.0370370
        k(   77) = (   0.5000000  -0.8333333  -0.1666667), wk =   0.0185185
        k(   78) = (   0.5000000  -0.8333333  -0.3333333), wk =   0.0185185
        k(   79) = (   0.5000000  -0.6666667  -0.1666667), wk =   0.0185185
        k(   80) = (   0.5000000  -0.6666667  -0.3333333), wk =   0.0185185

     Check: negative core charge=   -0.000001

     Initial potential from superposition of free atoms

     starting charge      71.9851, renormalised to      72.0000
     Starting wfcs are   52 randomized atomic wfcs

     Self-consistent Calculation

     iteration #  1     ecut=    50.00 Ry     beta= 0.30
     Davidson diagonalization with overlap

     ethr =  1.00E-02,  avg # of iterations =  2.0

     total energy              =    -722.76313744 Ry
     estimated scf accuracy    <       1.35480314 Ry

[...]

     c_bands:  1 eigenvalues not converged
     ethr =  5.98E-07,  avg # of iterations = 12.3

[...]

     total energy              =    -723.02868389 Ry
     estimated scf accuracy    <       0.00000007 Ry

     iteration # 18     ecut=    50.00 Ry     beta= 0.30
     Davidson diagonalization with overlap

     ethr =  7.29E-11,  avg # of iterations =  2.8

     End of self-consistent calculation

          k = 0.0000 0.0000 0.0000 (  3103 PWs)   bands (ev):

    -9.0976  -8.0286  -7.9747  -7.6862   3.4470   3.4660   3.5113   4.0016
     4.0018   4.0515   4.2809   4.2810   4.3517   4.5931   4.8890   5.1229
     5.9608   5.9609   5.9767   6.2499   6.3088   6.3088   6.3905   6.4928
     6.6947   6.7351   7.0531   7.6172   8.0639   9.4548   9.9856  10.0350
    10.0352  10.9646  11.1306  11.1308

     occupation numbers
     1.0000   1.0000   1.0000   1.0000   1.0000   1.0000   1.0000   1.0000
     1.0000   1.0000   1.0000   1.0000   1.0000   1.0000   1.0000   1.0000
     1.0000   1.0000   1.0000   1.0000   1.0000   1.0000   1.0000   1.0000
     1.0000   1.0000   1.0000   1.0000   1.0000   1.0000   1.0000   1.0000
     1.0000   1.0000   1.0000   1.0000

[...]

          k =-0.5000-0.2887 0.0000 (  3116 PWs)   bands (ev):

[...]

          k =-0.3333-0.0962-0.2065 (  3055 PWs)   bands (ev):

[...]

          k = 0.5000-0.0962-0.2065 (  3054 PWs)   bands (ev):

    -7.9398  -7.9398  -7.7559  -7.7559   3.3689   3.3689   3.4499   3.4499
     4.2804   4.2804   4.4092   4.4092   4.8041   4.8041   4.8747   4.8747
     6.0381   6.0381   6.1989   6.1989   6.3993   6.3993   6.5816   6.5816
     6.8699   6.8699   7.3347   7.3347   8.0165   8.0165   8.6355   8.6355
     9.1233   9.1233   9.6471   9.6471

     occupation numbers
     1.0000   1.0000   1.0000   1.0000   1.0000   1.0000   1.0000   1.0000
     1.0000   1.0000   1.0000   1.0000   1.0000   1.0000   1.0000   1.0000
     1.0000   1.0000   1.0000   1.0000   1.0000   1.0000   1.0000   1.0000
     1.0000   1.0000   1.0000   1.0000   1.0000   1.0000   1.0000   1.0000
     1.0000   1.0000   1.0000   1.0000

     highest occupied level (ev):    11.1308

!    total energy              =    -723.02868389 Ry
     estimated scf accuracy    <          9.7E-09 Ry

     The total energy is the sum of the following terms:
     one-electron contribution =    -249.61249429 Ry
     hartree contribution      =     216.11197866 Ry
     xc contribution           =    -220.27912104 Ry
     ewald contribution        =    -469.24904721 Ry

     convergence has been achieved in  18 iterations

     Forces acting on atoms (cartesian axes, Ry/au):

     atom    1 type  1   force =     0.00000000    0.00001602    0.00206025
     atom    2 type  2   force =     0.00000000   -0.00000019   -0.00206173
     atom    3 type  1   force =     0.00000000   -0.00001850    0.00206297
     atom    4 type  2   force =     0.00000000    0.00000041   -0.00206250
     atom    5 type  1   force =     0.00000000    0.00001787    0.00206124
     atom    6 type  2   force =     0.00000000    0.00000052   -0.00206095
     atom    7 type  1   force =     0.00000000   -0.00001598    0.00206271
     atom    8 type  2   force =     0.00000000   -0.00000015   -0.00206199
     The non-local contrib.  to forces
     atom    1 type  1   force =     0.00000000   -0.00003236    0.01366925
     atom    2 type  2   force =     0.00000000    0.00018347    0.00324331
     atom    3 type  1   force =     0.00000000    0.00003369    0.01366967
     atom    4 type  2   force =     0.00000000   -0.00017882    0.00324212
     atom    5 type  1   force =     0.00000000   -0.00003264    0.01366962
     atom    6 type  2   force =     0.00000000    0.00017873    0.00324351
     atom    7 type  1   force =     0.00000000    0.00003290    0.01367082
     atom    8 type  2   force =     0.00000000   -0.00018125    0.00324282
     The ionic contribution  to forces
     atom    1 type  1   force =     0.00000000   -0.00000000   -0.02454789
     atom    2 type  2   force =    -0.00000000    0.00000000    0.02454789
     atom    3 type  1   force =     0.00000000    0.00000000   -0.02454789
     atom    4 type  2   force =     0.00000000   -0.00000000    0.02454789
     atom    5 type  1   force =     0.00000000   -0.00000000   -0.02454789
     atom    6 type  2   force =    -0.00000000    0.00000000    0.02454789
     atom    7 type  1   force =    -0.00000000    0.00000000   -0.02454789
     atom    8 type  2   force =     0.00000000   -0.00000000    0.02454789
     The local contribution  to forces
     atom    1 type  1   force =     0.00000000    0.00005371    0.01460682
     atom    2 type  2   force =     0.00000000   -0.00018059   -0.02984659
     atom    3 type  1   force =    -0.00000000   -0.00005270    0.01460373
     atom    4 type  2   force =    -0.00000000    0.00017742   -0.02984751
     atom    5 type  1   force =    -0.00000000    0.00005271    0.01460531
     atom    6 type  2   force =    -0.00000000   -0.00017615   -0.02984641
     atom    7 type  1   force =     0.00000000   -0.00005542    0.01460228
     atom    8 type  2   force =     0.00000000    0.00017798   -0.02984678
     The core correction contribution to forces
     atom    1 type  1   force =    -0.00000005   -0.00000438   -0.00166651
     atom    2 type  2   force =     0.00000000   -0.00000211   -0.00000824
     atom    3 type  1   force =    -0.00000002    0.00000429   -0.00166644
     atom    4 type  2   force =     0.00000000    0.00000204   -0.00000823
     atom    5 type  1   force =     0.00000000   -0.00000452   -0.00166644
     atom    6 type  2   force =    -0.00000000   -0.00000204   -0.00000824
     atom    7 type  1   force =     0.00000001    0.00000451   -0.00166643
     atom    8 type  2   force =     0.00000000    0.00000207   -0.00000823
     The Hubbard contrib.    to forces
     atom    1 type  1   force =     0.00000000    0.00000000    0.00000000
     atom    2 type  2   force =     0.00000000    0.00000000    0.00000000
     atom    3 type  1   force =     0.00000000    0.00000000    0.00000000
     atom    4 type  2   force =     0.00000000    0.00000000    0.00000000
     atom    5 type  1   force =     0.00000000    0.00000000    0.00000000
     atom    6 type  2   force =     0.00000000    0.00000000    0.00000000
     atom    7 type  1   force =     0.00000000    0.00000000    0.00000000
     atom    8 type  2   force =     0.00000000    0.00000000    0.00000000
     The SCF correction term to forces
     atom    1 type  1   force =     0.00000000   -0.00000069   -0.00000193
     atom    2 type  2   force =    -0.00000000   -0.00000070    0.00000140
     atom    3 type  1   force =     0.00000000   -0.00000352    0.00000340
     atom    4 type  2   force =    -0.00000000    0.00000002    0.00000273
     atom    5 type  1   force =    -0.00000000    0.00000258    0.00000013
     atom    6 type  2   force =     0.00000000    0.00000022    0.00000180
     atom    7 type  1   force =    -0.00000000    0.00000228    0.00000343
     atom    8 type  2   force =    -0.00000000    0.00000130    0.00000181

     Total force =     0.005832     Total SCF correction =     0.000008

     General routines

     Parallel routines

   This run was terminated on:  12:12: 8  13Jul2025

   JOB DONE.
Note: The following floating-point exceptions are signalling: IEEE_INVALID_FLAG
Note: The following floating-point exceptions are signalling: IEEE_INVALID_FLAG