     Program PWSCF v.7.2 starts on 13Jul2025 at 19:29: 2

     Reading input from /home/jvc/QEspresso7.2/ZnO_database/scripts/cell121.in/ZnO-3.34-1.78-121.in
Warning: card &CELL ignored
Warning: card / ignored
Warning: card &FCP ignored
Warning: card / ignored
Warning: card &RISM ignored
Warning: card / ignored

     Current dimensions of program PWSCF are:
     Max number of different atomic species (ntypx) = 10
     Max number of k-points (npk) =  40000
     Max angular momentum in pseudopotentials (lmaxx) =  4
     file Zn.upf: wavefunction(s)  3D renormalized
     Found identity + ( -0.0000  0.5000  0.0000) symmetry
     This is a supercell, fractional translations are disabled
     Message from routine setup:
     using ibrav=0 with symmetry is DISCOURAGED, use correct ibrav instead

     K-points division:     npool     =       2
     R & G space division:  proc/nbgrp/npool/nimage =       4
     Subspace diagonalization in iterative solution of the eigenvalue problem:
     a serial algorithm will be used

     Using Slab Decomposition

     bravais-lattice index     =            0
     lattice parameter (alat)  =       6.3024  a.u.
     unit-cell volume          =     769.9767 (a.u.)^3
     number of atoms/cell      =            8
     number of atomic types    =            2
     number of electrons       =        72.00
     number of Kohn-Sham states=           36
     kinetic-energy cutoff     =      50.0000  Ry
     charge density cutoff     =     400.0000  Ry
     scf convergence threshold =      1.0E-08
     mixing beta               =       0.3000
     number of iterations used =            8  plain     mixing
     Exchange-correlation= PBE
                           (   1   4   3   4   0   0   0)

     celldm(1)=   6.302431  celldm(2)=   0.000000  celldm(3)=   0.000000
     celldm(4)=   0.000000  celldm(5)=   0.000000  celldm(6)=   0.000000

     crystal axes: (cart. coord. in units of alat)
               a(1) = (   1.000000   0.000000   0.000000 )
               a(2) = (  -1.000000   1.732051   0.000000 )
               a(3) = (   0.000000   0.000000   1.775794 )

     reciprocal axes: (cart. coord. in units 2 pi/alat)
               b(1) = (  1.000000  0.577350 -0.000000 )
               b(2) = (  0.000000  0.577350  0.000000 )
               b(3) = (  0.000000 -0.000000  0.563128 )

     PseudoPot. # 1 for Zn read from file:
     /home/jvc/QEspresso7.2/ZnO_database/pseudos/Zn.upf
     MD5 check sum: 7f56cabf9682ed8c977c2f7d0c5985c5
     Pseudo is Ultrasoft + core correction, Zval = 12.0
     Generated using &quot;atomic&quot; code by A. Dal Corso  v.6.2.2
     Using radial grid of 1201 points,  6 beta functions with:
                l(1) =   0
                l(2) =   0
                l(3) =   1
                l(4) =   1
                l(5) =   2
                l(6) =   2
     Q(r) pseudized with 0 coefficients

     PseudoPot. # 2 for O  read from file:
     /home/jvc/QEspresso7.2/ZnO_database/pseudos/O.upf
     MD5 check sum: 91400c9766925bcf19f520983a725ff0
     Pseudo is Ultrasoft + core correction, Zval =  6.0
     Generated using &quot;atomic&quot; code by A. Dal Corso  v.6.3MaX
     Using radial grid of 1095 points,  4 beta functions with:
                l(1) =   0
                l(2) =   0
                l(3) =   1
                l(4) =   1
     Q(r) pseudized with 0 coefficients

     atomic species   valence    mass     pseudopotential
        Zn            12.00    65.38000     Zn( 1.00)
        O              6.00    15.99900     O ( 1.00)

      2 Sym. Ops. (no inversion) found

                                    s                        frac. trans.

      isym =  1     identity

 cryst.   s( 1) = (     1          0          0      )
                  (     0          1          0      )
                  (     0          0          1      )

 cart.    s( 1) = (  1.0000000  0.0000000  0.0000000 )
                  (  0.0000000  1.0000000  0.0000000 )
                  (  0.0000000  0.0000000  1.0000000 )

      isym =  2     inv. 180 deg rotation - cart. axis [1,0,0]

 cryst.   s( 2) = (    -1          0          0      )
                  (     2          1          0      )
                  (     0          0          1      )

 cart.    s( 2) = ( -1.0000000  0.0000000  0.0000000 )
                  (  0.0000000  1.0000000  0.0000000 )
                  (  0.0000000  0.0000000  1.0000000 )

   Cartesian axes

     site n.     atom                  positions (alat units)
         1           Zn  tau(   1) = (   0.0000000   0.0000000   0.0000000  )
         2           O   tau(   2) = (   0.0000000   0.5773503   0.2562391  )
         3           Zn  tau(   3) = (   0.0000000   0.5773503   0.8878971  )
         4           O   tau(   4) = (   0.0000000   0.0000000   1.1441362  )
         5           Zn  tau(   5) = (  -0.5000000   0.8660254   0.0000000  )
         6           O   tau(   6) = (  -0.5000000   1.4433757   0.2562391  )
         7           Zn  tau(   7) = (  -0.5000000   1.4433757   0.8878971  )
         8           O   tau(   8) = (  -0.5000000   0.8660254   1.1441362  )

   Crystallographic axes

     site n.     atom                  positions (cryst. coord.)
         1           Zn  tau(   1) = (  0.0000000  0.0000000  0.0000000  )
         2           O   tau(   2) = (  0.3333333  0.3333333  0.1442955  )
         3           Zn  tau(   3) = (  0.3333333  0.3333333  0.5000000  )
         4           O   tau(   4) = (  0.0000000  0.0000000  0.6442955  )
         5           Zn  tau(   5) = ( -0.0000000  0.5000000  0.0000000  )
         6           O   tau(   6) = (  0.3333333  0.8333333  0.1442955  )
         7           Zn  tau(   7) = (  0.3333333  0.8333333  0.5000000  )
         8           O   tau(   8) = ( -0.0000000  0.5000000  0.6442955  )

     number of k points=    80
                       cart. coord. in units 2pi/alat
        k(    1) = (   0.0000000   0.0000000   0.0000000), wk =   0.0092593
        k(    2) = (   0.0000000   0.0000000   0.0938547), wk =   0.0185185
        k(    3) = (   0.0000000   0.0000000   0.1877094), wk =   0.0185185
        k(    4) = (   0.0000000   0.0000000  -0.2815642), wk =   0.0092593
        k(    5) = (   0.0000000   0.0962250   0.0000000), wk =   0.0185185
        k(    6) = (   0.0000000   0.0962250   0.0938547), wk =   0.0185185
        k(    7) = (   0.0000000   0.0962250   0.1877094), wk =   0.0185185
        k(    8) = (   0.0000000   0.0962250  -0.2815642), wk =   0.0185185
        k(    9) = (   0.0000000   0.1924501   0.0000000), wk =   0.0185185
        k(   10) = (   0.0000000   0.1924501   0.0938547), wk =   0.0185185
        k(   11) = (   0.0000000   0.1924501   0.1877094), wk =   0.0185185
        k(   12) = (   0.0000000   0.1924501  -0.2815642), wk =   0.0185185
        k(   13) = (   0.0000000  -0.2886751   0.0000000), wk =   0.0092593
        k(   14) = (   0.0000000  -0.2886751   0.0938547), wk =   0.0185185
        k(   15) = (   0.0000000  -0.2886751   0.1877094), wk =   0.0185185
        k(   16) = (   0.0000000  -0.2886751  -0.2815642), wk =   0.0092593
        k(   17) = (   0.1666667   0.0962250   0.0000000), wk =   0.0370370
        k(   18) = (   0.1666667   0.0962250   0.0938547), wk =   0.0370370
        k(   19) = (   0.1666667   0.0962250   0.1877094), wk =   0.0370370
        k(   20) = (   0.1666667   0.0962250  -0.2815642), wk =   0.0370370
        k(   21) = (   0.1666667   0.1924501   0.0000000), wk =   0.0370370
        k(   22) = (   0.1666667   0.1924501   0.0938547), wk =   0.0370370
        k(   23) = (   0.1666667   0.1924501   0.1877094), wk =   0.0370370
        k(   24) = (   0.1666667   0.1924501  -0.2815642), wk =   0.0370370
        k(   25) = (   0.1666667   0.2886751   0.0000000), wk =   0.0185185
        k(   26) = (   0.1666667   0.2886751   0.0938547), wk =   0.0370370
        k(   27) = (   0.1666667   0.2886751   0.1877094), wk =   0.0370370
        k(   28) = (   0.1666667   0.2886751  -0.2815642), wk =   0.0185185
        k(   29) = (   0.1666667   0.0000000   0.0000000), wk =   0.0185185
        k(   30) = (   0.1666667   0.0000000   0.0938547), wk =   0.0370370
        k(   31) = (   0.1666667   0.0000000   0.1877094), wk =   0.0370370
        k(   32) = (   0.1666667   0.0000000  -0.2815642), wk =   0.0185185
        k(   33) = (   0.3333333   0.1924501   0.0000000), wk =   0.0370370
        k(   34) = (   0.3333333   0.1924501   0.0938547), wk =   0.0370370
        k(   35) = (   0.3333333   0.1924501   0.1877094), wk =   0.0370370
        k(   36) = (   0.3333333   0.1924501  -0.2815642), wk =   0.0370370
        k(   37) = (   0.3333333   0.2886751   0.0000000), wk =   0.0185185
        k(   38) = (   0.3333333   0.2886751   0.0938547), wk =   0.0370370
        k(   39) = (   0.3333333   0.2886751   0.1877094), wk =   0.0370370
        k(   40) = (   0.3333333   0.2886751  -0.2815642), wk =   0.0185185
        k(   41) = (   0.3333333  -0.0962250   0.0000000), wk =   0.0370370
        k(   42) = (   0.3333333  -0.0962250   0.0938547), wk =   0.0370370
        k(   43) = (   0.3333333  -0.0962250   0.1877094), wk =   0.0370370
        k(   44) = (   0.3333333  -0.0962250  -0.2815642), wk =   0.0370370
        k(   45) = (   0.3333333  -0.0000000   0.0000000), wk =   0.0185185
        k(   46) = (   0.3333333  -0.0000000   0.0938547), wk =   0.0370370
        k(   47) = (   0.3333333  -0.0000000   0.1877094), wk =   0.0370370
        k(   48) = (   0.3333333  -0.0000000  -0.2815642), wk =   0.0185185
        k(   49) = (  -0.5000000  -0.2886751   0.0000000), wk =   0.0092593
        k(   50) = (  -0.5000000  -0.2886751   0.0938547), wk =   0.0185185
        k(   51) = (  -0.5000000  -0.2886751   0.1877094), wk =   0.0185185
        k(   52) = (  -0.5000000  -0.2886751  -0.2815642), wk =   0.0092593
        k(   53) = (  -0.5000000  -0.1924501   0.0000000), wk =   0.0185185
        k(   54) = (  -0.5000000  -0.1924501   0.0938547), wk =   0.0185185
        k(   55) = (  -0.5000000  -0.1924501   0.1877094), wk =   0.0185185
        k(   56) = (  -0.5000000  -0.1924501  -0.2815642), wk =   0.0185185
        k(   57) = (  -0.5000000  -0.0962250   0.0000000), wk =   0.0185185
        k(   58) = (  -0.5000000  -0.0962250   0.0938547), wk =   0.0185185
        k(   59) = (  -0.5000000  -0.0962250   0.1877094), wk =   0.0185185
        k(   60) = (  -0.5000000  -0.0962250  -0.2815642), wk =   0.0185185
[...]
        k(   66) = (   0.0000000   0.0962250  -0.1877094), wk =   0.0185185
        k(   67) = (   0.0000000   0.1924501  -0.0938547), wk =   0.0185185
        k(   68) = (   0.0000000   0.1924501  -0.1877094), wk =   0.0185185
        k(   69) = (  -0.1666667   0.0962250  -0.0938547), wk =   0.0370370
        k(   70) = (  -0.1666667   0.0962250  -0.1877094), wk =   0.0370370
        k(   71) = (  -0.1666667   0.1924501  -0.0938547), wk =   0.0370370
        k(   72) = (  -0.1666667   0.1924501  -0.1877094), wk =   0.0370370
        k(   73) = (  -0.3333333   0.1924501  -0.0938547), wk =   0.0370370
        k(   74) = (  -0.3333333   0.1924501  -0.1877094), wk =   0.0370370
        k(   75) = (  -0.3333333  -0.0962250  -0.0938547), wk =   0.0370370
        k(   76) = (  -0.3333333  -0.0962250  -0.1877094), wk =   0.0370370
        k(   77) = (   0.5000000  -0.1924501  -0.0938547), wk =   0.0185185
        k(   78) = (   0.5000000  -0.1924501  -0.1877094), wk =   0.0185185
        k(   79) = (   0.5000000  -0.0962250  -0.0938547), wk =   0.0185185
        k(   80) = (   0.5000000  -0.0962250  -0.1877094), wk =   0.0185185

                       cryst. coord.
        k(    1) = (   0.0000000   0.0000000   0.0000000), wk =   0.0092593
        k(    2) = (   0.0000000   0.0000000   0.1666667), wk =   0.0185185
        k(    3) = (   0.0000000   0.0000000   0.3333333), wk =   0.0185185
        k(    4) = (   0.0000000   0.0000000  -0.5000000), wk =   0.0092593
        k(    5) = (   0.0000000   0.1666667   0.0000000), wk =   0.0185185
        k(    6) = (   0.0000000   0.1666667   0.1666667), wk =   0.0185185
        k(    7) = (   0.0000000   0.1666667   0.3333333), wk =   0.0185185
        k(    8) = (   0.0000000   0.1666667  -0.5000000), wk =   0.0185185
        k(    9) = (   0.0000000   0.3333333   0.0000000), wk =   0.0185185
        k(   10) = (   0.0000000   0.3333333   0.1666667), wk =   0.0185185
        k(   11) = (   0.0000000   0.3333333   0.3333333), wk =   0.0185185
        k(   12) = (   0.0000000   0.3333333  -0.5000000), wk =   0.0185185
        k(   13) = (   0.0000000  -0.5000000   0.0000000), wk =   0.0092593
        k(   14) = (   0.0000000  -0.5000000   0.1666667), wk =   0.0185185
        k(   15) = (   0.0000000  -0.5000000   0.3333333), wk =   0.0185185
        k(   16) = (   0.0000000  -0.5000000  -0.5000000), wk =   0.0092593
        k(   17) = (   0.1666667  -0.0000000   0.0000000), wk =   0.0370370
        k(   18) = (   0.1666667  -0.0000000   0.1666667), wk =   0.0370370
        k(   19) = (   0.1666667  -0.0000000   0.3333333), wk =   0.0370370
        k(   20) = (   0.1666667  -0.0000000  -0.5000000), wk =   0.0370370
        k(   21) = (   0.1666667   0.1666667   0.0000000), wk =   0.0370370
        k(   22) = (   0.1666667   0.1666667   0.1666667), wk =   0.0370370
        k(   23) = (   0.1666667   0.1666667   0.3333333), wk =   0.0370370
        k(   24) = (   0.1666667   0.1666667  -0.5000000), wk =   0.0370370
        k(   25) = (   0.1666667   0.3333333   0.0000000), wk =   0.0185185
        k(   26) = (   0.1666667   0.3333333   0.1666667), wk =   0.0370370
        k(   27) = (   0.1666667   0.3333333   0.3333333), wk =   0.0370370
        k(   28) = (   0.1666667   0.3333333  -0.5000000), wk =   0.0185185
        k(   29) = (   0.1666667  -0.1666667   0.0000000), wk =   0.0185185
        k(   30) = (   0.1666667  -0.1666667   0.1666667), wk =   0.0370370
        k(   31) = (   0.1666667  -0.1666667   0.3333333), wk =   0.0370370
        k(   32) = (   0.1666667  -0.1666667  -0.5000000), wk =   0.0185185
        k(   33) = (   0.3333333  -0.0000000   0.0000000), wk =   0.0370370
        k(   34) = (   0.3333333  -0.0000000   0.1666667), wk =   0.0370370
        k(   35) = (   0.3333333  -0.0000000   0.3333333), wk =   0.0370370
        k(   36) = (   0.3333333  -0.0000000  -0.5000000), wk =   0.0370370
        k(   37) = (   0.3333333   0.1666667   0.0000000), wk =   0.0185185
        k(   38) = (   0.3333333   0.1666667   0.1666667), wk =   0.0370370
        k(   39) = (   0.3333333   0.1666667   0.3333333), wk =   0.0370370
        k(   40) = (   0.3333333   0.1666667  -0.5000000), wk =   0.0185185
        k(   41) = (   0.3333333  -0.5000000   0.0000000), wk =   0.0370370
        k(   42) = (   0.3333333  -0.5000000   0.1666667), wk =   0.0370370
        k(   43) = (   0.3333333  -0.5000000   0.3333333), wk =   0.0370370
        k(   44) = (   0.3333333  -0.5000000  -0.5000000), wk =   0.0370370
        k(   45) = (   0.3333333  -0.3333333   0.0000000), wk =   0.0185185
        k(   46) = (   0.3333333  -0.3333333   0.1666667), wk =   0.0370370
        k(   47) = (   0.3333333  -0.3333333   0.3333333), wk =   0.0370370
        k(   48) = (   0.3333333  -0.3333333  -0.5000000), wk =   0.0185185
        k(   49) = (  -0.5000000   0.0000000   0.0000000), wk =   0.0092593
        k(   50) = (  -0.5000000   0.0000000   0.1666667), wk =   0.0185185
        k(   51) = (  -0.5000000   0.0000000   0.3333333), wk =   0.0185185
        k(   52) = (  -0.5000000   0.0000000  -0.5000000), wk =   0.0092593
        k(   53) = (  -0.5000000   0.1666667   0.0000000), wk =   0.0185185
        k(   54) = (  -0.5000000   0.1666667   0.1666667), wk =   0.0185185
        k(   55) = (  -0.5000000   0.1666667   0.3333333), wk =   0.0185185
        k(   56) = (  -0.5000000   0.1666667  -0.5000000), wk =   0.0185185
        k(   57) = (  -0.5000000   0.3333333   0.0000000), wk =   0.0185185
        k(   58) = (  -0.5000000   0.3333333   0.1666667), wk =   0.0185185
        k(   59) = (  -0.5000000   0.3333333   0.3333333), wk =   0.0185185
        k(   60) = (  -0.5000000   0.3333333  -0.5000000), wk =   0.0185185
[...]
        k(   66) = (   0.0000000   0.1666667  -0.3333333), wk =   0.0185185
        k(   67) = (   0.0000000   0.3333333  -0.1666667), wk =   0.0185185
        k(   68) = (   0.0000000   0.3333333  -0.3333333), wk =   0.0185185
        k(   69) = (  -0.1666667   0.3333333  -0.1666667), wk =   0.0370370
        k(   70) = (  -0.1666667   0.3333333  -0.3333333), wk =   0.0370370
        k(   71) = (  -0.1666667   0.5000000  -0.1666667), wk =   0.0370370
        k(   72) = (  -0.1666667   0.5000000  -0.3333333), wk =   0.0370370
        k(   73) = (  -0.3333333   0.6666667  -0.1666667), wk =   0.0370370
        k(   74) = (  -0.3333333   0.6666667  -0.3333333), wk =   0.0370370
        k(   75) = (  -0.3333333   0.1666667  -0.1666667), wk =   0.0370370
        k(   76) = (  -0.3333333   0.1666667  -0.3333333), wk =   0.0370370
        k(   77) = (   0.5000000  -0.8333333  -0.1666667), wk =   0.0185185
        k(   78) = (   0.5000000  -0.8333333  -0.3333333), wk =   0.0185185
        k(   79) = (   0.5000000  -0.6666667  -0.1666667), wk =   0.0185185
        k(   80) = (   0.5000000  -0.6666667  -0.3333333), wk =   0.0185185

     Check: negative core charge=   -0.000002

     Initial potential from superposition of free atoms

     starting charge      71.9851, renormalised to      72.0000
     Starting wfcs are   52 randomized atomic wfcs

     Self-consistent Calculation

     iteration #  1     ecut=    50.00 Ry     beta= 0.30
     Davidson diagonalization with overlap

     ethr =  1.00E-02,  avg # of iterations =  1.5

     total energy              =    -722.83139554 Ry
     estimated scf accuracy    <       1.54032975 Ry

[...]

     c_bands:  3 eigenvalues not converged
     ethr =  8.18E-09,  avg # of iterations = 14.1

[...]

     c_bands:  2 eigenvalues not converged
     ethr =  8.18E-09,  avg # of iterations = 12.6

[...]

     total energy              =    -723.19728956 Ry
     estimated scf accuracy    <       0.00000008 Ry

     iteration # 33     ecut=    50.00 Ry     beta= 0.30
     Davidson diagonalization with overlap

     ethr =  1.08E-10,  avg # of iterations =  4.3

     End of self-consistent calculation

          k = 0.0000 0.0000 0.0000 (  4579 PWs)   bands (ev):

   -11.9723 -11.5708 -11.4798 -11.3595  -0.3605  -0.2834  -0.1750  -0.1747
    -0.1140  -0.0649  -0.0308  -0.0306   0.0071   0.0128   0.3225   0.3954
     0.4649   0.4650   0.5791   0.5792   0.5915   0.6089   0.6128   0.6827
     0.8083   1.2348   1.9928   2.4382   3.3871   3.5967   4.3466   4.3473
     4.3741   4.5935   4.8936   4.8944

     occupation numbers
     1.0000   1.0000   1.0000   1.0000   1.0000   1.0000   1.0000   1.0000
     1.0000   1.0000   1.0000   1.0000   1.0000   1.0000   1.0000   1.0000
     1.0000   1.0000   1.0000   1.0000   1.0000   1.0000   1.0000   1.0000
     1.0000   1.0000   1.0000   1.0000   1.0000   1.0000   1.0000   1.0000
     1.0000   1.0000   1.0000   1.0000

[...]

          k =-0.5000-0.2887 0.0000 (  4584 PWs)   bands (ev):

[...]

          k =-0.3333-0.0962-0.1877 (  4609 PWs)   bands (ev):

[...]

          k = 0.5000-0.0962-0.1877 (  4608 PWs)   bands (ev):

   -11.4515 -11.4514 -11.3880 -11.3879  -0.2609  -0.2609  -0.1905  -0.1904
    -0.0225  -0.0225   0.1457   0.1457   0.1855   0.1855   0.2504   0.2504
     0.4826   0.4826   0.5423   0.5423   0.6585   0.6585   0.7184   0.7184
     1.5442   1.5442   1.8426   1.8426   3.0043   3.0044   3.2880   3.2880
     3.6782   3.6782   3.8328   3.8329

     occupation numbers
     1.0000   1.0000   1.0000   1.0000   1.0000   1.0000   1.0000   1.0000
     1.0000   1.0000   1.0000   1.0000   1.0000   1.0000   1.0000   1.0000
     1.0000   1.0000   1.0000   1.0000   1.0000   1.0000   1.0000   1.0000
     1.0000   1.0000   1.0000   1.0000   1.0000   1.0000   1.0000   1.0000
     1.0000   1.0000   1.0000   1.0000

     highest occupied level (ev):     4.8944

!    total energy              =    -723.19728959 Ry
     estimated scf accuracy    <          2.9E-09 Ry

     The total energy is the sum of the following terms:
     one-electron contribution =    -342.06592926 Ry
     hartree contribution      =     248.16973483 Ry
     xc contribution           =    -218.46949550 Ry
     ewald contribution        =    -410.83159966 Ry

     convergence has been achieved in  33 iterations

     Forces acting on atoms (cartesian axes, Ry/au):

     atom    1 type  1   force =     0.00000000    0.00004468    0.01171928
     atom    2 type  2   force =     0.00000000   -0.00000263   -0.01171556
     atom    3 type  1   force =     0.00000000   -0.00001743    0.01169782
     atom    4 type  2   force =     0.00000000    0.00000038   -0.01171404
     atom    5 type  1   force =     0.00000000   -0.00002582    0.01172206
     atom    6 type  2   force =     0.00000000   -0.00000052   -0.01171237
     atom    7 type  1   force =     0.00000000    0.00000075    0.01171597
     atom    8 type  2   force =     0.00000000    0.00000059   -0.01171316
     The non-local contrib.  to forces
     atom    1 type  1   force =     0.00000000    0.00002535   -0.12434570
     atom    2 type  2   force =     0.00000000    0.00026569   -0.11109453
     atom    3 type  1   force =     0.00000000   -0.00001796   -0.12434869
     atom    4 type  2   force =     0.00000000   -0.00027059   -0.11109732
     atom    5 type  1   force =     0.00000000   -0.00000156   -0.12434386
     atom    6 type  2   force =     0.00000000    0.00026236   -0.11109072
     atom    7 type  1   force =     0.00000000   -0.00000554   -0.12434637
     atom    8 type  2   force =     0.00000000   -0.00025900   -0.11109786
     The ionic contribution  to forces
     atom    1 type  1   force =     0.00000000   -0.00000000   -1.02969394
     atom    2 type  2   force =    -0.00000000    0.00000000    1.02969394
     atom    3 type  1   force =     0.00000000    0.00000000   -1.02969394
     atom    4 type  2   force =    -0.00000000   -0.00000000    1.02969394
     atom    5 type  1   force =    -0.00000000   -0.00000000   -1.02969394
     atom    6 type  2   force =     0.00000000    0.00000000    1.02969394
     atom    7 type  1   force =     0.00000000    0.00000000   -1.02969394
     atom    8 type  2   force =    -0.00000000   -0.00000000    1.02969394
     The local contribution  to forces
     atom    1 type  1   force =    -0.00000000   -0.00004550    1.15954281
     atom    2 type  2   force =    -0.00000000   -0.00024812   -0.93126506
     atom    3 type  1   force =    -0.00000000    0.00001054    1.15956591
     atom    4 type  2   force =    -0.00000000    0.00025739   -0.93126615
     atom    5 type  1   force =    -0.00000000    0.00004859    1.15953488
     atom    6 type  2   force =    -0.00000000   -0.00026995   -0.93126996
     atom    7 type  1   force =    -0.00000000   -0.00001511    1.15954252
     atom    8 type  2   force =     0.00000000    0.00027085   -0.93126576
     The core correction contribution to forces
     atom    1 type  1   force =     0.00000001   -0.00000579    0.00620701
     atom    2 type  2   force =     0.00000000   -0.00000300    0.00095683
     atom    3 type  1   force =    -0.00000001    0.00000661    0.00620635
     atom    4 type  2   force =    -0.00000000    0.00000309    0.00095688
     atom    5 type  1   force =    -0.00000003   -0.00000734    0.00620730
     atom    6 type  2   force =    -0.00000001   -0.00000297    0.00095679
     atom    7 type  1   force =     0.00000003    0.00000648    0.00620723
     atom    8 type  2   force =     0.00000001    0.00000293    0.00095688
     The Hubbard contrib.    to forces
     atom    1 type  1   force =     0.00000000    0.00000000    0.00000000
     atom    2 type  2   force =     0.00000000    0.00000000    0.00000000
     atom    3 type  1   force =     0.00000000    0.00000000    0.00000000
     atom    4 type  2   force =     0.00000000    0.00000000    0.00000000
     atom    5 type  1   force =     0.00000000    0.00000000    0.00000000
     atom    6 type  2   force =     0.00000000    0.00000000    0.00000000
     atom    7 type  1   force =     0.00000000    0.00000000    0.00000000
     atom    8 type  2   force =     0.00000000    0.00000000    0.00000000
     The SCF correction term to forces
     atom    1 type  1   force =     0.00000000    0.00007107    0.00000898
     atom    2 type  2   force =     0.00000000   -0.00001676   -0.00000687
     atom    3 type  1   force =    -0.00000000   -0.00001617   -0.00003194
     atom    4 type  2   force =    -0.00000000    0.00001094   -0.00000153
     atom    5 type  1   force =    -0.00000000   -0.00006506    0.00001755
     atom    6 type  2   force =    -0.00000000    0.00001048   -0.00000255
     atom    7 type  1   force =     0.00000000    0.00001536    0.00000640
     atom    8 type  2   force =     0.00000000   -0.00001374   -0.00000049

     Total force =     0.033132     Total SCF correction =     0.000109

     General routines

     Parallel routines

   This run was terminated on:  19:36: 8  13Jul2025

   JOB DONE.
Note: The following floating-point exceptions are signalling: IEEE_INVALID_FLAG
Note: The following floating-point exceptions are signalling: IEEE_INVALID_FLAG