     Program PWSCF v.7.2 starts on 13Jul2025 at 13: 6: 8

     Reading input from /home/jvc/QEspresso7.2/ZnO_database/scripts/cell121.in/ZnO-3.07-1.58-121.in
Warning: card &CELL ignored
Warning: card / ignored
Warning: card &FCP ignored
Warning: card / ignored
Warning: card &RISM ignored
Warning: card / ignored

     Current dimensions of program PWSCF are:
     Max number of different atomic species (ntypx) = 10
     Max number of k-points (npk) =  40000
     Max angular momentum in pseudopotentials (lmaxx) =  4
     file Zn.upf: wavefunction(s)  3D renormalized
     Found identity + (  0.0000 -0.5000  0.0000) symmetry
     This is a supercell, fractional translations are disabled
     Message from routine setup:
     using ibrav=0 with symmetry is DISCOURAGED, use correct ibrav instead

     K-points division:     npool     =       2
     R & G space division:  proc/nbgrp/npool/nimage =       4
     Subspace diagonalization in iterative solution of the eigenvalue problem:
     a serial algorithm will be used

     Using Slab Decomposition

     bravais-lattice index     =            0
     lattice parameter (alat)  =       5.8081  a.u.
     unit-cell volume          =     536.9007 (a.u.)^3
     number of atoms/cell      =            8
     number of atomic types    =            2
     number of electrons       =        72.00
     number of Kohn-Sham states=           36
     kinetic-energy cutoff     =      50.0000  Ry
     charge density cutoff     =     400.0000  Ry
     scf convergence threshold =      1.0E-08
     mixing beta               =       0.3000
     number of iterations used =            8  plain     mixing
     Exchange-correlation= PBE
                           (   1   4   3   4   0   0   0)

     celldm(1)=   5.808123  celldm(2)=   0.000000  celldm(3)=   0.000000
     celldm(4)=   0.000000  celldm(5)=   0.000000  celldm(6)=   0.000000

     crystal axes: (cart. coord. in units of alat)
               a(1) = (   1.000000   0.000000   0.000000 )
               a(2) = (  -1.000000   1.732051   0.000000 )
               a(3) = (   0.000000   0.000000   1.582071 )

     reciprocal axes: (cart. coord. in units 2 pi/alat)
               b(1) = (  1.000000  0.577350 -0.000000 )
               b(2) = (  0.000000  0.577350  0.000000 )
               b(3) = (  0.000000 -0.000000  0.632083 )

     PseudoPot. # 1 for Zn read from file:
     /home/jvc/QEspresso7.2/ZnO_database/pseudos/Zn.upf
     MD5 check sum: 7f56cabf9682ed8c977c2f7d0c5985c5
     Pseudo is Ultrasoft + core correction, Zval = 12.0
     Generated using &quot;atomic&quot; code by A. Dal Corso  v.6.2.2
     Using radial grid of 1201 points,  6 beta functions with:
                l(1) =   0
                l(2) =   0
                l(3) =   1
                l(4) =   1
                l(5) =   2
                l(6) =   2
     Q(r) pseudized with 0 coefficients

     PseudoPot. # 2 for O  read from file:
     /home/jvc/QEspresso7.2/ZnO_database/pseudos/O.upf
     MD5 check sum: 91400c9766925bcf19f520983a725ff0
     Pseudo is Ultrasoft + core correction, Zval =  6.0
     Generated using &quot;atomic&quot; code by A. Dal Corso  v.6.3MaX
     Using radial grid of 1095 points,  4 beta functions with:
                l(1) =   0
                l(2) =   0
                l(3) =   1
                l(4) =   1
     Q(r) pseudized with 0 coefficients

     atomic species   valence    mass     pseudopotential
        Zn            12.00    65.38000     Zn( 1.00)
        O              6.00    15.99900     O ( 1.00)

      2 Sym. Ops. (no inversion) found

                                    s                        frac. trans.

      isym =  1     identity

 cryst.   s( 1) = (     1          0          0      )
                  (     0          1          0      )
                  (     0          0          1      )

 cart.    s( 1) = (  1.0000000  0.0000000  0.0000000 )
                  (  0.0000000  1.0000000  0.0000000 )
                  (  0.0000000  0.0000000  1.0000000 )

      isym =  2     inv. 180 deg rotation - cart. axis [1,0,0]

 cryst.   s( 2) = (    -1          0          0      )
                  (     2          1          0      )
                  (     0          0          1      )

 cart.    s( 2) = ( -1.0000000  0.0000000  0.0000000 )
                  (  0.0000000  1.0000000  0.0000000 )
                  (  0.0000000  0.0000000  1.0000000 )

   Cartesian axes

     site n.     atom                  positions (alat units)
         1           Zn  tau(   1) = (   0.0000000   0.0000000   0.0000000  )
         2           O   tau(   2) = (   0.0000000   0.5773503   0.1848235  )
         3           Zn  tau(   3) = (   0.0000000   0.5773503   0.7910356  )
         4           O   tau(   4) = (   0.0000000   0.0000000   0.9758591  )
         5           Zn  tau(   5) = (  -0.5000000   0.8660254   0.0000000  )
         6           O   tau(   6) = (  -0.5000000   1.4433757   0.1848235  )
         7           Zn  tau(   7) = (  -0.5000000   1.4433757   0.7910356  )
         8           O   tau(   8) = (  -0.5000000   0.8660254   0.9758591  )

   Crystallographic axes

     site n.     atom                  positions (cryst. coord.)
         1           Zn  tau(   1) = (  0.0000000  0.0000000  0.0000000  )
         2           O   tau(   2) = (  0.3333333  0.3333333  0.1168238  )
         3           Zn  tau(   3) = (  0.3333333  0.3333333  0.5000000  )
         4           O   tau(   4) = (  0.0000000  0.0000000  0.6168238  )
         5           Zn  tau(   5) = (  0.0000000  0.5000000  0.0000000  )
         6           O   tau(   6) = (  0.3333333  0.8333333  0.1168238  )
         7           Zn  tau(   7) = (  0.3333333  0.8333333  0.5000000  )
         8           O   tau(   8) = (  0.0000000  0.5000000  0.6168238  )

     number of k points=    80
                       cart. coord. in units 2pi/alat
        k(    1) = (   0.0000000   0.0000000   0.0000000), wk =   0.0092593
        k(    2) = (   0.0000000   0.0000000   0.1053471), wk =   0.0185185
        k(    3) = (   0.0000000   0.0000000   0.2106943), wk =   0.0185185
        k(    4) = (   0.0000000   0.0000000  -0.3160414), wk =   0.0092593
        k(    5) = (   0.0000000   0.0962250   0.0000000), wk =   0.0185185
        k(    6) = (   0.0000000   0.0962250   0.1053471), wk =   0.0185185
        k(    7) = (   0.0000000   0.0962250   0.2106943), wk =   0.0185185
        k(    8) = (   0.0000000   0.0962250  -0.3160414), wk =   0.0185185
        k(    9) = (   0.0000000   0.1924501   0.0000000), wk =   0.0185185
        k(   10) = (   0.0000000   0.1924501   0.1053471), wk =   0.0185185
        k(   11) = (   0.0000000   0.1924501   0.2106943), wk =   0.0185185
        k(   12) = (   0.0000000   0.1924501  -0.3160414), wk =   0.0185185
        k(   13) = (   0.0000000  -0.2886751   0.0000000), wk =   0.0092593
        k(   14) = (   0.0000000  -0.2886751   0.1053471), wk =   0.0185185
        k(   15) = (   0.0000000  -0.2886751   0.2106943), wk =   0.0185185
        k(   16) = (   0.0000000  -0.2886751  -0.3160414), wk =   0.0092593
        k(   17) = (   0.1666667   0.0962250   0.0000000), wk =   0.0370370
        k(   18) = (   0.1666667   0.0962250   0.1053471), wk =   0.0370370
        k(   19) = (   0.1666667   0.0962250   0.2106943), wk =   0.0370370
        k(   20) = (   0.1666667   0.0962250  -0.3160414), wk =   0.0370370
        k(   21) = (   0.1666667   0.1924501   0.0000000), wk =   0.0370370
        k(   22) = (   0.1666667   0.1924501   0.1053471), wk =   0.0370370
        k(   23) = (   0.1666667   0.1924501   0.2106943), wk =   0.0370370
        k(   24) = (   0.1666667   0.1924501  -0.3160414), wk =   0.0370370
        k(   25) = (   0.1666667   0.2886751   0.0000000), wk =   0.0185185
        k(   26) = (   0.1666667   0.2886751   0.1053471), wk =   0.0370370
        k(   27) = (   0.1666667   0.2886751   0.2106943), wk =   0.0370370
        k(   28) = (   0.1666667   0.2886751  -0.3160414), wk =   0.0185185
        k(   29) = (   0.1666667   0.0000000   0.0000000), wk =   0.0185185
        k(   30) = (   0.1666667   0.0000000   0.1053471), wk =   0.0370370
        k(   31) = (   0.1666667   0.0000000   0.2106943), wk =   0.0370370
        k(   32) = (   0.1666667   0.0000000  -0.3160414), wk =   0.0185185
        k(   33) = (   0.3333333   0.1924501   0.0000000), wk =   0.0370370
        k(   34) = (   0.3333333   0.1924501   0.1053471), wk =   0.0370370
        k(   35) = (   0.3333333   0.1924501   0.2106943), wk =   0.0370370
        k(   36) = (   0.3333333   0.1924501  -0.3160414), wk =   0.0370370
        k(   37) = (   0.3333333   0.2886751   0.0000000), wk =   0.0185185
        k(   38) = (   0.3333333   0.2886751   0.1053471), wk =   0.0370370
        k(   39) = (   0.3333333   0.2886751   0.2106943), wk =   0.0370370
        k(   40) = (   0.3333333   0.2886751  -0.3160414), wk =   0.0185185
        k(   41) = (   0.3333333  -0.0962250   0.0000000), wk =   0.0370370
        k(   42) = (   0.3333333  -0.0962250   0.1053471), wk =   0.0370370
        k(   43) = (   0.3333333  -0.0962250   0.2106943), wk =   0.0370370
        k(   44) = (   0.3333333  -0.0962250  -0.3160414), wk =   0.0370370
        k(   45) = (   0.3333333  -0.0000000   0.0000000), wk =   0.0185185
        k(   46) = (   0.3333333  -0.0000000   0.1053471), wk =   0.0370370
        k(   47) = (   0.3333333  -0.0000000   0.2106943), wk =   0.0370370
        k(   48) = (   0.3333333  -0.0000000  -0.3160414), wk =   0.0185185
        k(   49) = (  -0.5000000  -0.2886751   0.0000000), wk =   0.0092593
        k(   50) = (  -0.5000000  -0.2886751   0.1053471), wk =   0.0185185
        k(   51) = (  -0.5000000  -0.2886751   0.2106943), wk =   0.0185185
        k(   52) = (  -0.5000000  -0.2886751  -0.3160414), wk =   0.0092593
        k(   53) = (  -0.5000000  -0.1924501   0.0000000), wk =   0.0185185
        k(   54) = (  -0.5000000  -0.1924501   0.1053471), wk =   0.0185185
        k(   55) = (  -0.5000000  -0.1924501   0.2106943), wk =   0.0185185
        k(   56) = (  -0.5000000  -0.1924501  -0.3160414), wk =   0.0185185
        k(   57) = (  -0.5000000  -0.0962250   0.0000000), wk =   0.0185185
        k(   58) = (  -0.5000000  -0.0962250   0.1053471), wk =   0.0185185
        k(   59) = (  -0.5000000  -0.0962250   0.2106943), wk =   0.0185185
        k(   60) = (  -0.5000000  -0.0962250  -0.3160414), wk =   0.0185185
[...]
        k(   66) = (   0.0000000   0.0962250  -0.2106943), wk =   0.0185185
        k(   67) = (   0.0000000   0.1924501  -0.1053471), wk =   0.0185185
        k(   68) = (   0.0000000   0.1924501  -0.2106943), wk =   0.0185185
        k(   69) = (  -0.1666667   0.0962250  -0.1053471), wk =   0.0370370
        k(   70) = (  -0.1666667   0.0962250  -0.2106943), wk =   0.0370370
        k(   71) = (  -0.1666667   0.1924501  -0.1053471), wk =   0.0370370
        k(   72) = (  -0.1666667   0.1924501  -0.2106943), wk =   0.0370370
        k(   73) = (  -0.3333333   0.1924501  -0.1053471), wk =   0.0370370
        k(   74) = (  -0.3333333   0.1924501  -0.2106943), wk =   0.0370370
        k(   75) = (  -0.3333333  -0.0962250  -0.1053471), wk =   0.0370370
        k(   76) = (  -0.3333333  -0.0962250  -0.2106943), wk =   0.0370370
        k(   77) = (   0.5000000  -0.1924501  -0.1053471), wk =   0.0185185
        k(   78) = (   0.5000000  -0.1924501  -0.2106943), wk =   0.0185185
        k(   79) = (   0.5000000  -0.0962250  -0.1053471), wk =   0.0185185
        k(   80) = (   0.5000000  -0.0962250  -0.2106943), wk =   0.0185185

                       cryst. coord.
        k(    1) = (   0.0000000   0.0000000   0.0000000), wk =   0.0092593
        k(    2) = (   0.0000000   0.0000000   0.1666667), wk =   0.0185185
        k(    3) = (   0.0000000   0.0000000   0.3333333), wk =   0.0185185
        k(    4) = (   0.0000000   0.0000000  -0.5000000), wk =   0.0092593
        k(    5) = (   0.0000000   0.1666667   0.0000000), wk =   0.0185185
        k(    6) = (   0.0000000   0.1666667   0.1666667), wk =   0.0185185
        k(    7) = (   0.0000000   0.1666667   0.3333333), wk =   0.0185185
        k(    8) = (   0.0000000   0.1666667  -0.5000000), wk =   0.0185185
        k(    9) = (   0.0000000   0.3333333   0.0000000), wk =   0.0185185
        k(   10) = (   0.0000000   0.3333333   0.1666667), wk =   0.0185185
        k(   11) = (   0.0000000   0.3333333   0.3333333), wk =   0.0185185
        k(   12) = (   0.0000000   0.3333333  -0.5000000), wk =   0.0185185
        k(   13) = (   0.0000000  -0.5000000   0.0000000), wk =   0.0092593
        k(   14) = (   0.0000000  -0.5000000   0.1666667), wk =   0.0185185
        k(   15) = (   0.0000000  -0.5000000   0.3333333), wk =   0.0185185
        k(   16) = (   0.0000000  -0.5000000  -0.5000000), wk =   0.0092593
        k(   17) = (   0.1666667  -0.0000000   0.0000000), wk =   0.0370370
        k(   18) = (   0.1666667  -0.0000000   0.1666667), wk =   0.0370370
        k(   19) = (   0.1666667  -0.0000000   0.3333333), wk =   0.0370370
        k(   20) = (   0.1666667  -0.0000000  -0.5000000), wk =   0.0370370
        k(   21) = (   0.1666667   0.1666667   0.0000000), wk =   0.0370370
        k(   22) = (   0.1666667   0.1666667   0.1666667), wk =   0.0370370
        k(   23) = (   0.1666667   0.1666667   0.3333333), wk =   0.0370370
        k(   24) = (   0.1666667   0.1666667  -0.5000000), wk =   0.0370370
        k(   25) = (   0.1666667   0.3333333   0.0000000), wk =   0.0185185
        k(   26) = (   0.1666667   0.3333333   0.1666667), wk =   0.0370370
        k(   27) = (   0.1666667   0.3333333   0.3333333), wk =   0.0370370
        k(   28) = (   0.1666667   0.3333333  -0.5000000), wk =   0.0185185
        k(   29) = (   0.1666667  -0.1666667   0.0000000), wk =   0.0185185
        k(   30) = (   0.1666667  -0.1666667   0.1666667), wk =   0.0370370
        k(   31) = (   0.1666667  -0.1666667   0.3333333), wk =   0.0370370
        k(   32) = (   0.1666667  -0.1666667  -0.5000000), wk =   0.0185185
        k(   33) = (   0.3333333  -0.0000000   0.0000000), wk =   0.0370370
        k(   34) = (   0.3333333  -0.0000000   0.1666667), wk =   0.0370370
        k(   35) = (   0.3333333  -0.0000000   0.3333333), wk =   0.0370370
        k(   36) = (   0.3333333  -0.0000000  -0.5000000), wk =   0.0370370
        k(   37) = (   0.3333333   0.1666667   0.0000000), wk =   0.0185185
        k(   38) = (   0.3333333   0.1666667   0.1666667), wk =   0.0370370
        k(   39) = (   0.3333333   0.1666667   0.3333333), wk =   0.0370370
        k(   40) = (   0.3333333   0.1666667  -0.5000000), wk =   0.0185185
        k(   41) = (   0.3333333  -0.5000000   0.0000000), wk =   0.0370370
        k(   42) = (   0.3333333  -0.5000000   0.1666667), wk =   0.0370370
        k(   43) = (   0.3333333  -0.5000000   0.3333333), wk =   0.0370370
        k(   44) = (   0.3333333  -0.5000000  -0.5000000), wk =   0.0370370
        k(   45) = (   0.3333333  -0.3333333   0.0000000), wk =   0.0185185
        k(   46) = (   0.3333333  -0.3333333   0.1666667), wk =   0.0370370
        k(   47) = (   0.3333333  -0.3333333   0.3333333), wk =   0.0370370
        k(   48) = (   0.3333333  -0.3333333  -0.5000000), wk =   0.0185185
        k(   49) = (  -0.5000000   0.0000000   0.0000000), wk =   0.0092593
        k(   50) = (  -0.5000000   0.0000000   0.1666667), wk =   0.0185185
        k(   51) = (  -0.5000000   0.0000000   0.3333333), wk =   0.0185185
        k(   52) = (  -0.5000000   0.0000000  -0.5000000), wk =   0.0092593
        k(   53) = (  -0.5000000   0.1666667   0.0000000), wk =   0.0185185
        k(   54) = (  -0.5000000   0.1666667   0.1666667), wk =   0.0185185
        k(   55) = (  -0.5000000   0.1666667   0.3333333), wk =   0.0185185
        k(   56) = (  -0.5000000   0.1666667  -0.5000000), wk =   0.0185185
        k(   57) = (  -0.5000000   0.3333333   0.0000000), wk =   0.0185185
        k(   58) = (  -0.5000000   0.3333333   0.1666667), wk =   0.0185185
        k(   59) = (  -0.5000000   0.3333333   0.3333333), wk =   0.0185185
        k(   60) = (  -0.5000000   0.3333333  -0.5000000), wk =   0.0185185
[...]
        k(   66) = (   0.0000000   0.1666667  -0.3333333), wk =   0.0185185
        k(   67) = (   0.0000000   0.3333333  -0.1666667), wk =   0.0185185
        k(   68) = (   0.0000000   0.3333333  -0.3333333), wk =   0.0185185
        k(   69) = (  -0.1666667   0.3333333  -0.1666667), wk =   0.0370370
        k(   70) = (  -0.1666667   0.3333333  -0.3333333), wk =   0.0370370
        k(   71) = (  -0.1666667   0.5000000  -0.1666667), wk =   0.0370370
        k(   72) = (  -0.1666667   0.5000000  -0.3333333), wk =   0.0370370
        k(   73) = (  -0.3333333   0.6666667  -0.1666667), wk =   0.0370370
        k(   74) = (  -0.3333333   0.6666667  -0.3333333), wk =   0.0370370
        k(   75) = (  -0.3333333   0.1666667  -0.1666667), wk =   0.0370370
        k(   76) = (  -0.3333333   0.1666667  -0.3333333), wk =   0.0370370
        k(   77) = (   0.5000000  -0.8333333  -0.1666667), wk =   0.0185185
        k(   78) = (   0.5000000  -0.8333333  -0.3333333), wk =   0.0185185
        k(   79) = (   0.5000000  -0.6666667  -0.1666667), wk =   0.0185185
        k(   80) = (   0.5000000  -0.6666667  -0.3333333), wk =   0.0185185

     Check: negative core charge=   -0.000002

     Initial potential from superposition of free atoms

     starting charge      71.9851, renormalised to      72.0000
     Starting wfcs are   52 randomized atomic wfcs

     Self-consistent Calculation

     iteration #  1     ecut=    50.00 Ry     beta= 0.30
     Davidson diagonalization with overlap

     ethr =  1.00E-02,  avg # of iterations =  2.0

     total energy              =    -722.83696926 Ry
     estimated scf accuracy    <       1.34828706 Ry

[...]

     total energy              =    -723.11113871 Ry
     estimated scf accuracy    <       0.00000006 Ry

     iteration # 24     ecut=    50.00 Ry     beta= 0.30
     Davidson diagonalization with overlap

     ethr =  7.93E-11,  avg # of iterations =  5.4

     End of self-consistent calculation

          k = 0.0000 0.0000 0.0000 (  3215 PWs)   bands (ev):

    -9.4632  -8.4902  -8.3923  -8.1615   3.0474   3.0955   3.1328   3.4844
     3.4846   3.6346   3.7254   3.7256   3.8529   4.0970   4.4481   4.5352
     5.2865   5.2865   5.3352   5.5388   5.6201   5.6201   5.6923   5.7624
     5.9995   6.0221   6.3429   6.9367   7.3397   8.7389   9.1554   9.2506
     9.2508  10.1158  10.2807  10.2809

     occupation numbers
     1.0000   1.0000   1.0000   1.0000   1.0000   1.0000   1.0000   1.0000
     1.0000   1.0000   1.0000   1.0000   1.0000   1.0000   1.0000   1.0000
     1.0000   1.0000   1.0000   1.0000   1.0000   1.0000   1.0000   1.0000
     1.0000   1.0000   1.0000   1.0000   1.0000   1.0000   1.0000   1.0000
     1.0000   1.0000   1.0000   1.0000

[...]

          k =-0.5000-0.2887 0.0000 (  3196 PWs)   bands (ev):

[...]

          k =-0.3333-0.0962-0.2107 (  3209 PWs)   bands (ev):

[...]

          k = 0.5000-0.0962-0.2107 (  3190 PWs)   bands (ev):

    -8.4032  -8.4031  -8.2272  -8.2272   2.9402   2.9402   3.0162   3.0162
     3.7978   3.7978   3.9160   3.9161   4.2511   4.2511   4.3195   4.3196
     5.3842   5.3842   5.5112   5.5112   5.6913   5.6913   5.8660   5.8660
     6.1798   6.1798   6.5914   6.5914   7.2940   7.2941   7.9778   7.9779
     8.3558   8.3559   8.9597   8.9597

     occupation numbers
     1.0000   1.0000   1.0000   1.0000   1.0000   1.0000   1.0000   1.0000
     1.0000   1.0000   1.0000   1.0000   1.0000   1.0000   1.0000   1.0000
     1.0000   1.0000   1.0000   1.0000   1.0000   1.0000   1.0000   1.0000
     1.0000   1.0000   1.0000   1.0000   1.0000   1.0000   1.0000   1.0000
     1.0000   1.0000   1.0000   1.0000

     highest occupied level (ev):    10.2809

!    total energy              =    -723.11113874 Ry
     estimated scf accuracy    <          5.3E-09 Ry

     The total energy is the sum of the following terms:
     one-electron contribution =    -260.59851040 Ry
     hartree contribution      =     219.83208296 Ry
     xc contribution           =    -220.04425901 Ry
     ewald contribution        =    -462.30045229 Ry

     convergence has been achieved in  24 iterations

     Forces acting on atoms (cartesian axes, Ry/au):

     atom    1 type  1   force =     0.00000000    0.00000518    0.00591219
     atom    2 type  2   force =     0.00000000    0.00000355   -0.00591066
     atom    3 type  1   force =     0.00000000    0.00000029    0.00591540
     atom    4 type  2   force =     0.00000000   -0.00000371   -0.00590984
     atom    5 type  1   force =     0.00000000    0.00001500    0.00590549
     atom    6 type  2   force =     0.00000000    0.00000340   -0.00591163
     atom    7 type  1   force =     0.00000000   -0.00001978    0.00590935
     atom    8 type  2   force =     0.00000000   -0.00000394   -0.00591031
     The non-local contrib.  to forces
     atom    1 type  1   force =     0.00000000   -0.00003632    0.04477088
     atom    2 type  2   force =     0.00000000    0.00018117    0.02560255
     atom    3 type  1   force =     0.00000000    0.00003952    0.04477077
     atom    4 type  2   force =     0.00000000   -0.00018368    0.02560505
     atom    5 type  1   force =     0.00000000   -0.00002920    0.04476769
     atom    6 type  2   force =     0.00000000    0.00018213    0.02559890
     atom    7 type  1   force =     0.00000000    0.00002643    0.04476817
     atom    8 type  2   force =     0.00000000   -0.00018328    0.02560216
     The ionic contribution  to forces
     atom    1 type  1   force =     0.00000000   -0.00000000    0.23060815
     atom    2 type  2   force =     0.00000000    0.00000000   -0.23060815
     atom    3 type  1   force =    -0.00000000    0.00000000    0.23060815
     atom    4 type  2   force =    -0.00000000   -0.00000000   -0.23060815
     atom    5 type  1   force =     0.00000000   -0.00000000    0.23060815
     atom    6 type  2   force =     0.00000000    0.00000000   -0.23060815
     atom    7 type  1   force =    -0.00000000    0.00000000    0.23060815
     atom    8 type  2   force =    -0.00000000   -0.00000000   -0.23060815
     The local contribution  to forces
     atom    1 type  1   force =    -0.00000000    0.00006200   -0.26548241
     atom    2 type  2   force =    -0.00000000   -0.00018181    0.19924868
     atom    3 type  1   force =     0.00000000   -0.00007185   -0.26548482
     atom    4 type  2   force =    -0.00000000    0.00018421    0.19924398
     atom    5 type  1   force =    -0.00000000    0.00003777   -0.26546719
     atom    6 type  2   force =     0.00000000   -0.00016858    0.19924945
     atom    7 type  1   force =     0.00000000   -0.00002857   -0.26547234
     atom    8 type  2   force =    -0.00000000    0.00016991    0.19925008
     The core correction contribution to forces
     atom    1 type  1   force =     0.00000003   -0.00000490   -0.00398688
     atom    2 type  2   force =    -0.00000000   -0.00000207   -0.00015503
     atom    3 type  1   force =    -0.00000002    0.00000507   -0.00398685
     atom    4 type  2   force =    -0.00000000    0.00000210   -0.00015507
     atom    5 type  1   force =     0.00000001   -0.00000435   -0.00398741
     atom    6 type  2   force =     0.00000000   -0.00000201   -0.00015498
     atom    7 type  1   force =     0.00000007    0.00000421   -0.00398717
     atom    8 type  2   force =    -0.00000000    0.00000203   -0.00015502
     The Hubbard contrib.    to forces
     atom    1 type  1   force =     0.00000000    0.00000000    0.00000000
     atom    2 type  2   force =     0.00000000    0.00000000    0.00000000
     atom    3 type  1   force =     0.00000000    0.00000000    0.00000000
     atom    4 type  2   force =     0.00000000    0.00000000    0.00000000
     atom    5 type  1   force =     0.00000000    0.00000000    0.00000000
     atom    6 type  2   force =     0.00000000    0.00000000    0.00000000
     atom    7 type  1   force =     0.00000000    0.00000000    0.00000000
     atom    8 type  2   force =     0.00000000    0.00000000    0.00000000
     The SCF correction term to forces
     atom    1 type  1   force =    -0.00000000   -0.00001549    0.00000102
     atom    2 type  2   force =     0.00000000    0.00000636   -0.00000013
     atom    3 type  1   force =     0.00000000    0.00002765    0.00000673
     atom    4 type  2   force =     0.00000000   -0.00000623    0.00000293
     atom    5 type  1   force =    -0.00000000    0.00001090   -0.00001717
     atom    6 type  2   force =    -0.00000000   -0.00000803    0.00000173
     atom    7 type  1   force =    -0.00000000   -0.00002174   -0.00000888
     atom    8 type  2   force =    -0.00000000    0.00000750   -0.00000081

     Total force =     0.016718     Total SCF correction =     0.000047

     General routines

     Parallel routines

   This run was terminated on:  13:11:48  13Jul2025

   JOB DONE.
Note: The following floating-point exceptions are signalling: IEEE_INVALID_FLAG
Note: The following floating-point exceptions are signalling: IEEE_INVALID_FLAG