     Program PWSCF v.7.2 starts on 13Jul2025 at 16:17: 4

     Reading input from /home/jvc/QEspresso7.2/ZnO_database/scripts/cell121.in/ZnO-3.20-1.71-121.in
Warning: card &CELL ignored
Warning: card / ignored
Warning: card &FCP ignored
Warning: card / ignored
Warning: card &RISM ignored
Warning: card / ignored

     Current dimensions of program PWSCF are:
     Max number of different atomic species (ntypx) = 10
     Max number of k-points (npk) =  40000
     Max angular momentum in pseudopotentials (lmaxx) =  4
     file Zn.upf: wavefunction(s)  3D renormalized
     Found identity + (  0.0000 -0.5000  0.0000) symmetry
     This is a supercell, fractional translations are disabled
     Message from routine setup:
     using ibrav=0 with symmetry is DISCOURAGED, use correct ibrav instead

     K-points division:     npool     =       2
     R & G space division:  proc/nbgrp/npool/nimage =       4
     Subspace diagonalization in iterative solution of the eigenvalue problem:
     a serial algorithm will be used

     Using Slab Decomposition

     bravais-lattice index     =            0
     lattice parameter (alat)  =       6.0553  a.u.
     unit-cell volume          =     658.0645 (a.u.)^3
     number of atoms/cell      =            8
     number of atomic types    =            2
     number of electrons       =        72.00
     number of Kohn-Sham states=           36
     kinetic-energy cutoff     =      50.0000  Ry
     charge density cutoff     =     400.0000  Ry
     scf convergence threshold =      1.0E-08
     mixing beta               =       0.3000
     number of iterations used =            8  plain     mixing
     Exchange-correlation= PBE
                           (   1   4   3   4   0   0   0)

     celldm(1)=   6.055277  celldm(2)=   0.000000  celldm(3)=   0.000000
     celldm(4)=   0.000000  celldm(5)=   0.000000  celldm(6)=   0.000000

     crystal axes: (cart. coord. in units of alat)
               a(1) = (   1.000000   0.000000   0.000000 )
               a(2) = (  -1.000000   1.732051   0.000000 )
               a(3) = (   0.000000   0.000000   1.711220 )

     reciprocal axes: (cart. coord. in units 2 pi/alat)
               b(1) = (  1.000000  0.577350 -0.000000 )
               b(2) = (  0.000000  0.577350  0.000000 )
               b(3) = (  0.000000 -0.000000  0.584378 )

     PseudoPot. # 1 for Zn read from file:
     /home/jvc/QEspresso7.2/ZnO_database/pseudos/Zn.upf
     MD5 check sum: 7f56cabf9682ed8c977c2f7d0c5985c5
     Pseudo is Ultrasoft + core correction, Zval = 12.0
     Generated using &quot;atomic&quot; code by A. Dal Corso  v.6.2.2
     Using radial grid of 1201 points,  6 beta functions with:
                l(1) =   0
                l(2) =   0
                l(3) =   1
                l(4) =   1
                l(5) =   2
                l(6) =   2
     Q(r) pseudized with 0 coefficients

     PseudoPot. # 2 for O  read from file:
     /home/jvc/QEspresso7.2/ZnO_database/pseudos/O.upf
     MD5 check sum: 91400c9766925bcf19f520983a725ff0
     Pseudo is Ultrasoft + core correction, Zval =  6.0
     Generated using &quot;atomic&quot; code by A. Dal Corso  v.6.3MaX
     Using radial grid of 1095 points,  4 beta functions with:
                l(1) =   0
                l(2) =   0
                l(3) =   1
                l(4) =   1
     Q(r) pseudized with 0 coefficients

     atomic species   valence    mass     pseudopotential
        Zn            12.00    65.38000     Zn( 1.00)
        O              6.00    15.99900     O ( 1.00)

      2 Sym. Ops. (no inversion) found

                                    s                        frac. trans.

      isym =  1     identity

 cryst.   s( 1) = (     1          0          0      )
                  (     0          1          0      )
                  (     0          0          1      )

 cart.    s( 1) = (  1.0000000  0.0000000  0.0000000 )
                  (  0.0000000  1.0000000  0.0000000 )
                  (  0.0000000  0.0000000  1.0000000 )

      isym =  2     inv. 180 deg rotation - cart. axis [1,0,0]

 cryst.   s( 2) = (    -1          0          0      )
                  (     2          1          0      )
                  (     0          0          1      )

 cart.    s( 2) = ( -1.0000000  0.0000000  0.0000000 )
                  (  0.0000000  1.0000000  0.0000000 )
                  (  0.0000000  0.0000000  1.0000000 )

   Cartesian axes

     site n.     atom                  positions (alat units)
         1           Zn  tau(   1) = (   0.0000000   0.0000000   0.0000000  )
         2           O   tau(   2) = (   0.0000000   0.5773503   0.2330121  )
         3           Zn  tau(   3) = (   0.0000000   0.5773503   0.8556099  )
         4           O   tau(   4) = (   0.0000000   0.0000000   1.0886221  )
         5           Zn  tau(   5) = (  -0.5000000   0.8660254   0.0000000  )
         6           O   tau(   6) = (  -0.5000000   1.4433757   0.2330121  )
         7           Zn  tau(   7) = (  -0.5000000   1.4433757   0.8556099  )
         8           O   tau(   8) = (  -0.5000000   0.8660254   1.0886221  )

   Crystallographic axes

     site n.     atom                  positions (cryst. coord.)
         1           Zn  tau(   1) = (  0.0000000  0.0000000  0.0000000  )
         2           O   tau(   2) = (  0.3333333  0.3333333  0.1361673  )
         3           Zn  tau(   3) = (  0.3333333  0.3333333  0.5000000  )
         4           O   tau(   4) = (  0.0000000  0.0000000  0.6361673  )
         5           Zn  tau(   5) = (  0.0000000  0.5000000  0.0000000  )
         6           O   tau(   6) = (  0.3333333  0.8333333  0.1361673  )
         7           Zn  tau(   7) = (  0.3333333  0.8333333  0.5000000  )
         8           O   tau(   8) = (  0.0000000  0.5000000  0.6361673  )

     number of k points=    80
                       cart. coord. in units 2pi/alat
        k(    1) = (   0.0000000   0.0000000   0.0000000), wk =   0.0092593
        k(    2) = (   0.0000000   0.0000000   0.0973964), wk =   0.0185185
        k(    3) = (   0.0000000   0.0000000   0.1947928), wk =   0.0185185
        k(    4) = (   0.0000000   0.0000000  -0.2921892), wk =   0.0092593
        k(    5) = (   0.0000000   0.0962250   0.0000000), wk =   0.0185185
        k(    6) = (   0.0000000   0.0962250   0.0973964), wk =   0.0185185
        k(    7) = (   0.0000000   0.0962250   0.1947928), wk =   0.0185185
        k(    8) = (   0.0000000   0.0962250  -0.2921892), wk =   0.0185185
        k(    9) = (   0.0000000   0.1924501   0.0000000), wk =   0.0185185
        k(   10) = (   0.0000000   0.1924501   0.0973964), wk =   0.0185185
        k(   11) = (   0.0000000   0.1924501   0.1947928), wk =   0.0185185
        k(   12) = (   0.0000000   0.1924501  -0.2921892), wk =   0.0185185
        k(   13) = (   0.0000000  -0.2886751   0.0000000), wk =   0.0092593
        k(   14) = (   0.0000000  -0.2886751   0.0973964), wk =   0.0185185
        k(   15) = (   0.0000000  -0.2886751   0.1947928), wk =   0.0185185
        k(   16) = (   0.0000000  -0.2886751  -0.2921892), wk =   0.0092593
        k(   17) = (   0.1666667   0.0962250   0.0000000), wk =   0.0370370
        k(   18) = (   0.1666667   0.0962250   0.0973964), wk =   0.0370370
        k(   19) = (   0.1666667   0.0962250   0.1947928), wk =   0.0370370
        k(   20) = (   0.1666667   0.0962250  -0.2921892), wk =   0.0370370
        k(   21) = (   0.1666667   0.1924501   0.0000000), wk =   0.0370370
        k(   22) = (   0.1666667   0.1924501   0.0973964), wk =   0.0370370
        k(   23) = (   0.1666667   0.1924501   0.1947928), wk =   0.0370370
        k(   24) = (   0.1666667   0.1924501  -0.2921892), wk =   0.0370370
        k(   25) = (   0.1666667   0.2886751   0.0000000), wk =   0.0185185
        k(   26) = (   0.1666667   0.2886751   0.0973964), wk =   0.0370370
        k(   27) = (   0.1666667   0.2886751   0.1947928), wk =   0.0370370
        k(   28) = (   0.1666667   0.2886751  -0.2921892), wk =   0.0185185
        k(   29) = (   0.1666667   0.0000000   0.0000000), wk =   0.0185185
        k(   30) = (   0.1666667   0.0000000   0.0973964), wk =   0.0370370
        k(   31) = (   0.1666667   0.0000000   0.1947928), wk =   0.0370370
        k(   32) = (   0.1666667   0.0000000  -0.2921892), wk =   0.0185185
        k(   33) = (   0.3333333   0.1924501   0.0000000), wk =   0.0370370
        k(   34) = (   0.3333333   0.1924501   0.0973964), wk =   0.0370370
        k(   35) = (   0.3333333   0.1924501   0.1947928), wk =   0.0370370
        k(   36) = (   0.3333333   0.1924501  -0.2921892), wk =   0.0370370
        k(   37) = (   0.3333333   0.2886751   0.0000000), wk =   0.0185185
        k(   38) = (   0.3333333   0.2886751   0.0973964), wk =   0.0370370
        k(   39) = (   0.3333333   0.2886751   0.1947928), wk =   0.0370370
        k(   40) = (   0.3333333   0.2886751  -0.2921892), wk =   0.0185185
        k(   41) = (   0.3333333  -0.0962250   0.0000000), wk =   0.0370370
        k(   42) = (   0.3333333  -0.0962250   0.0973964), wk =   0.0370370
        k(   43) = (   0.3333333  -0.0962250   0.1947928), wk =   0.0370370
        k(   44) = (   0.3333333  -0.0962250  -0.2921892), wk =   0.0370370
        k(   45) = (   0.3333333  -0.0000000   0.0000000), wk =   0.0185185
        k(   46) = (   0.3333333  -0.0000000   0.0973964), wk =   0.0370370
        k(   47) = (   0.3333333  -0.0000000   0.1947928), wk =   0.0370370
        k(   48) = (   0.3333333  -0.0000000  -0.2921892), wk =   0.0185185
        k(   49) = (  -0.5000000  -0.2886751   0.0000000), wk =   0.0092593
        k(   50) = (  -0.5000000  -0.2886751   0.0973964), wk =   0.0185185
        k(   51) = (  -0.5000000  -0.2886751   0.1947928), wk =   0.0185185
        k(   52) = (  -0.5000000  -0.2886751  -0.2921892), wk =   0.0092593
        k(   53) = (  -0.5000000  -0.1924501   0.0000000), wk =   0.0185185
        k(   54) = (  -0.5000000  -0.1924501   0.0973964), wk =   0.0185185
        k(   55) = (  -0.5000000  -0.1924501   0.1947928), wk =   0.0185185
        k(   56) = (  -0.5000000  -0.1924501  -0.2921892), wk =   0.0185185
        k(   57) = (  -0.5000000  -0.0962250   0.0000000), wk =   0.0185185
        k(   58) = (  -0.5000000  -0.0962250   0.0973964), wk =   0.0185185
        k(   59) = (  -0.5000000  -0.0962250   0.1947928), wk =   0.0185185
        k(   60) = (  -0.5000000  -0.0962250  -0.2921892), wk =   0.0185185
[...]
        k(   66) = (   0.0000000   0.0962250  -0.1947928), wk =   0.0185185
        k(   67) = (   0.0000000   0.1924501  -0.0973964), wk =   0.0185185
        k(   68) = (   0.0000000   0.1924501  -0.1947928), wk =   0.0185185
        k(   69) = (  -0.1666667   0.0962250  -0.0973964), wk =   0.0370370
        k(   70) = (  -0.1666667   0.0962250  -0.1947928), wk =   0.0370370
        k(   71) = (  -0.1666667   0.1924501  -0.0973964), wk =   0.0370370
        k(   72) = (  -0.1666667   0.1924501  -0.1947928), wk =   0.0370370
        k(   73) = (  -0.3333333   0.1924501  -0.0973964), wk =   0.0370370
        k(   74) = (  -0.3333333   0.1924501  -0.1947928), wk =   0.0370370
        k(   75) = (  -0.3333333  -0.0962250  -0.0973964), wk =   0.0370370
        k(   76) = (  -0.3333333  -0.0962250  -0.1947928), wk =   0.0370370
        k(   77) = (   0.5000000  -0.1924501  -0.0973964), wk =   0.0185185
        k(   78) = (   0.5000000  -0.1924501  -0.1947928), wk =   0.0185185
        k(   79) = (   0.5000000  -0.0962250  -0.0973964), wk =   0.0185185
        k(   80) = (   0.5000000  -0.0962250  -0.1947928), wk =   0.0185185

                       cryst. coord.
        k(    1) = (   0.0000000   0.0000000   0.0000000), wk =   0.0092593
        k(    2) = (   0.0000000   0.0000000   0.1666667), wk =   0.0185185
        k(    3) = (   0.0000000   0.0000000   0.3333333), wk =   0.0185185
        k(    4) = (   0.0000000   0.0000000  -0.5000000), wk =   0.0092593
        k(    5) = (   0.0000000   0.1666667   0.0000000), wk =   0.0185185
        k(    6) = (   0.0000000   0.1666667   0.1666667), wk =   0.0185185
        k(    7) = (   0.0000000   0.1666667   0.3333333), wk =   0.0185185
        k(    8) = (   0.0000000   0.1666667  -0.5000000), wk =   0.0185185
        k(    9) = (   0.0000000   0.3333333   0.0000000), wk =   0.0185185
        k(   10) = (   0.0000000   0.3333333   0.1666667), wk =   0.0185185
        k(   11) = (   0.0000000   0.3333333   0.3333333), wk =   0.0185185
        k(   12) = (   0.0000000   0.3333333  -0.5000000), wk =   0.0185185
        k(   13) = (   0.0000000  -0.5000000   0.0000000), wk =   0.0092593
        k(   14) = (   0.0000000  -0.5000000   0.1666667), wk =   0.0185185
        k(   15) = (   0.0000000  -0.5000000   0.3333333), wk =   0.0185185
        k(   16) = (   0.0000000  -0.5000000  -0.5000000), wk =   0.0092593
        k(   17) = (   0.1666667   0.0000000   0.0000000), wk =   0.0370370
        k(   18) = (   0.1666667   0.0000000   0.1666667), wk =   0.0370370
        k(   19) = (   0.1666667   0.0000000   0.3333333), wk =   0.0370370
        k(   20) = (   0.1666667   0.0000000  -0.5000000), wk =   0.0370370
        k(   21) = (   0.1666667   0.1666667   0.0000000), wk =   0.0370370
        k(   22) = (   0.1666667   0.1666667   0.1666667), wk =   0.0370370
        k(   23) = (   0.1666667   0.1666667   0.3333333), wk =   0.0370370
        k(   24) = (   0.1666667   0.1666667  -0.5000000), wk =   0.0370370
        k(   25) = (   0.1666667   0.3333333   0.0000000), wk =   0.0185185
        k(   26) = (   0.1666667   0.3333333   0.1666667), wk =   0.0370370
        k(   27) = (   0.1666667   0.3333333   0.3333333), wk =   0.0370370
        k(   28) = (   0.1666667   0.3333333  -0.5000000), wk =   0.0185185
        k(   29) = (   0.1666667  -0.1666667   0.0000000), wk =   0.0185185
        k(   30) = (   0.1666667  -0.1666667   0.1666667), wk =   0.0370370
        k(   31) = (   0.1666667  -0.1666667   0.3333333), wk =   0.0370370
        k(   32) = (   0.1666667  -0.1666667  -0.5000000), wk =   0.0185185
        k(   33) = (   0.3333333   0.0000000   0.0000000), wk =   0.0370370
        k(   34) = (   0.3333333   0.0000000   0.1666667), wk =   0.0370370
        k(   35) = (   0.3333333   0.0000000   0.3333333), wk =   0.0370370
        k(   36) = (   0.3333333   0.0000000  -0.5000000), wk =   0.0370370
        k(   37) = (   0.3333333   0.1666667   0.0000000), wk =   0.0185185
        k(   38) = (   0.3333333   0.1666667   0.1666667), wk =   0.0370370
        k(   39) = (   0.3333333   0.1666667   0.3333333), wk =   0.0370370
        k(   40) = (   0.3333333   0.1666667  -0.5000000), wk =   0.0185185
        k(   41) = (   0.3333333  -0.5000000   0.0000000), wk =   0.0370370
        k(   42) = (   0.3333333  -0.5000000   0.1666667), wk =   0.0370370
        k(   43) = (   0.3333333  -0.5000000   0.3333333), wk =   0.0370370
        k(   44) = (   0.3333333  -0.5000000  -0.5000000), wk =   0.0370370
        k(   45) = (   0.3333333  -0.3333333   0.0000000), wk =   0.0185185
        k(   46) = (   0.3333333  -0.3333333   0.1666667), wk =   0.0370370
        k(   47) = (   0.3333333  -0.3333333   0.3333333), wk =   0.0370370
        k(   48) = (   0.3333333  -0.3333333  -0.5000000), wk =   0.0185185
        k(   49) = (  -0.5000000   0.0000000   0.0000000), wk =   0.0092593
        k(   50) = (  -0.5000000   0.0000000   0.1666667), wk =   0.0185185
        k(   51) = (  -0.5000000   0.0000000   0.3333333), wk =   0.0185185
        k(   52) = (  -0.5000000   0.0000000  -0.5000000), wk =   0.0092593
        k(   53) = (  -0.5000000   0.1666667   0.0000000), wk =   0.0185185
        k(   54) = (  -0.5000000   0.1666667   0.1666667), wk =   0.0185185
        k(   55) = (  -0.5000000   0.1666667   0.3333333), wk =   0.0185185
        k(   56) = (  -0.5000000   0.1666667  -0.5000000), wk =   0.0185185
        k(   57) = (  -0.5000000   0.3333333   0.0000000), wk =   0.0185185
        k(   58) = (  -0.5000000   0.3333333   0.1666667), wk =   0.0185185
        k(   59) = (  -0.5000000   0.3333333   0.3333333), wk =   0.0185185
        k(   60) = (  -0.5000000   0.3333333  -0.5000000), wk =   0.0185185
[...]
        k(   66) = (   0.0000000   0.1666667  -0.3333333), wk =   0.0185185
        k(   67) = (   0.0000000   0.3333333  -0.1666667), wk =   0.0185185
        k(   68) = (   0.0000000   0.3333333  -0.3333333), wk =   0.0185185
        k(   69) = (  -0.1666667   0.3333333  -0.1666667), wk =   0.0370370
        k(   70) = (  -0.1666667   0.3333333  -0.3333333), wk =   0.0370370
        k(   71) = (  -0.1666667   0.5000000  -0.1666667), wk =   0.0370370
        k(   72) = (  -0.1666667   0.5000000  -0.3333333), wk =   0.0370370
        k(   73) = (  -0.3333333   0.6666667  -0.1666667), wk =   0.0370370
        k(   74) = (  -0.3333333   0.6666667  -0.3333333), wk =   0.0370370
        k(   75) = (  -0.3333333   0.1666667  -0.1666667), wk =   0.0370370
        k(   76) = (  -0.3333333   0.1666667  -0.3333333), wk =   0.0370370
        k(   77) = (   0.5000000  -0.8333333  -0.1666667), wk =   0.0185185
        k(   78) = (   0.5000000  -0.8333333  -0.3333333), wk =   0.0185185
        k(   79) = (   0.5000000  -0.6666667  -0.1666667), wk =   0.0185185
        k(   80) = (   0.5000000  -0.6666667  -0.3333333), wk =   0.0185185

     Check: negative core charge=   -0.000002

     Initial potential from superposition of free atoms

     starting charge      71.9851, renormalised to      72.0000
     Starting wfcs are   52 randomized atomic wfcs

     Self-consistent Calculation

     iteration #  1     ecut=    50.00 Ry     beta= 0.30
     Davidson diagonalization with overlap

     ethr =  1.00E-02,  avg # of iterations =  1.9

     total energy              =    -722.95174450 Ry
     estimated scf accuracy    <       1.38450128 Ry

[...]

     total energy              =    -723.26785749 Ry
     estimated scf accuracy    <       0.00000009 Ry

     iteration # 33     ecut=    50.00 Ry     beta= 0.30
     Davidson diagonalization with overlap

     ethr =  1.49E-11,  avg # of iterations =  7.1

     End of self-consistent calculation

          k = 0.0000 0.0000 0.0000 (  3921 PWs)   bands (ev):

   -10.9715 -10.3556 -10.2925 -10.1068   1.1195   1.2192   1.2229   1.3088
     1.3866   1.3868   1.5589   1.5982   1.5984   1.7503   2.0528   2.1270
     2.4381   2.4464   2.4465   2.6209   2.6210   2.6276   2.6712   2.7622
     2.8374   3.1103   3.6193   4.1222   4.8962   5.5157   6.1982   6.1986
     6.2458   6.7738   6.9469   6.9473

     occupation numbers
     1.0000   1.0000   1.0000   1.0000   1.0000   1.0000   1.0000   1.0000
     1.0000   1.0000   1.0000   1.0000   1.0000   1.0000   1.0000   1.0000
     1.0000   1.0000   1.0000   1.0000   1.0000   1.0000   1.0000   1.0000
     1.0000   1.0000   1.0000   1.0000   1.0000   1.0000   1.0000   1.0000
     1.0000   1.0000   1.0000   1.0000

[...]

          k =-0.5000-0.2887 0.0000 (  3908 PWs)   bands (ev):

[...]

          k =-0.3333-0.0962-0.1948 (  3928 PWs)   bands (ev):

[...]

          k = 0.5000-0.0962-0.1948 (  3936 PWs)   bands (ev):

   -10.2477 -10.2477 -10.1492 -10.1492   1.1238   1.1238   1.2173   1.2173
     1.5773   1.5774   1.7497   1.7497   1.9010   1.9010   1.9614   1.9614
     2.4765   2.4765   2.5683   2.5683   2.7136   2.7136   2.8165   2.8165
     3.2749   3.2749   3.6501   3.6501   4.6457   4.6457   4.9900   4.9900
     5.4838   5.4838   5.7229   5.7229

     occupation numbers
     1.0000   1.0000   1.0000   1.0000   1.0000   1.0000   1.0000   1.0000
     1.0000   1.0000   1.0000   1.0000   1.0000   1.0000   1.0000   1.0000
     1.0000   1.0000   1.0000   1.0000   1.0000   1.0000   1.0000   1.0000
     1.0000   1.0000   1.0000   1.0000   1.0000   1.0000   1.0000   1.0000
     1.0000   1.0000   1.0000   1.0000

     highest occupied level (ev):     6.9473

!    total energy              =    -723.26785750 Ry
     estimated scf accuracy    <          1.6E-09 Ry

     The total energy is the sum of the following terms:
     one-electron contribution =    -307.61833934 Ry
     hartree contribution      =     235.89296912 Ry
     xc contribution           =    -219.07995921 Ry
     ewald contribution        =    -432.46252806 Ry

     convergence has been achieved in  33 iterations

     Forces acting on atoms (cartesian axes, Ry/au):

     atom    1 type  1   force =     0.00000000    0.00001483    0.00204787
     atom    2 type  2   force =     0.00000000   -0.00000251   -0.00204257
     atom    3 type  1   force =     0.00000000   -0.00000955    0.00203969
     atom    4 type  2   force =     0.00000000    0.00000241   -0.00204184
     atom    5 type  1   force =     0.00000000    0.00001244    0.00204301
     atom    6 type  2   force =     0.00000000   -0.00000242   -0.00204263
     atom    7 type  1   force =     0.00000000   -0.00001837    0.00203892
     atom    8 type  2   force =     0.00000000    0.00000315   -0.00204246
     The non-local contrib.  to forces
     atom    1 type  1   force =     0.00000000   -0.00001732   -0.07626005
     atom    2 type  2   force =     0.00000000    0.00022133   -0.06854777
     atom    3 type  1   force =     0.00000000    0.00001859   -0.07626347
     atom    4 type  2   force =     0.00000000   -0.00022328   -0.06854667
     atom    5 type  1   force =     0.00000000   -0.00001714   -0.07626109
     atom    6 type  2   force =     0.00000000    0.00022278   -0.06854705
     atom    7 type  1   force =     0.00000000    0.00001585   -0.07626431
     atom    8 type  2   force =     0.00000000   -0.00022085   -0.06854723
     The ionic contribution  to forces
     atom    1 type  1   force =    -0.00000000   -0.00000000   -0.69992538
     atom    2 type  2   force =    -0.00000000    0.00000000    0.69992538
     atom    3 type  1   force =     0.00000000    0.00000000   -0.69992538
     atom    4 type  2   force =     0.00000000   -0.00000000    0.69992538
     atom    5 type  1   force =    -0.00000000   -0.00000000   -0.69992538
     atom    6 type  2   force =    -0.00000000    0.00000000    0.69992538
     atom    7 type  1   force =    -0.00000000    0.00000000   -0.69992538
     atom    8 type  2   force =     0.00000000   -0.00000000    0.69992538
     The local contribution  to forces
     atom    1 type  1   force =    -0.00000000    0.00003537    0.77388341
     atom    2 type  2   force =    -0.00000000   -0.00022204   -0.63396768
     atom    3 type  1   force =     0.00000000   -0.00004168    0.77389656
     atom    4 type  2   force =    -0.00000000    0.00022240   -0.63396869
     atom    5 type  1   force =    -0.00000000    0.00003654    0.77388870
     atom    6 type  2   force =     0.00000000   -0.00022211   -0.63396824
     atom    7 type  1   force =     0.00000000   -0.00002982    0.77389865
     atom    8 type  2   force =    -0.00000000    0.00022140   -0.63396873
     The core correction contribution to forces
     atom    1 type  1   force =    -0.00000000   -0.00000536    0.00433976
     atom    2 type  2   force =     0.00000000   -0.00000252    0.00055149
     atom    3 type  1   force =     0.00000000    0.00000553    0.00433942
     atom    4 type  2   force =     0.00000000    0.00000254    0.00055147
     atom    5 type  1   force =    -0.00000000   -0.00000539    0.00433965
     atom    6 type  2   force =     0.00000000   -0.00000254    0.00055148
     atom    7 type  1   force =     0.00000000    0.00000525    0.00433939
     atom    8 type  2   force =     0.00000000    0.00000251    0.00055148
     The Hubbard contrib.    to forces
     atom    1 type  1   force =     0.00000000    0.00000000    0.00000000
     atom    2 type  2   force =     0.00000000    0.00000000    0.00000000
     atom    3 type  1   force =     0.00000000    0.00000000    0.00000000
     atom    4 type  2   force =     0.00000000    0.00000000    0.00000000
     atom    5 type  1   force =     0.00000000    0.00000000    0.00000000
     atom    6 type  2   force =     0.00000000    0.00000000    0.00000000
     atom    7 type  1   force =     0.00000000    0.00000000    0.00000000
     atom    8 type  2   force =     0.00000000    0.00000000    0.00000000
     The SCF correction term to forces
     atom    1 type  1   force =     0.00000000    0.00000198    0.00001321
     atom    2 type  2   force =     0.00000000    0.00000056   -0.00000092
     atom    3 type  1   force =     0.00000000    0.00000786   -0.00000437
     atom    4 type  2   force =    -0.00000000    0.00000059   -0.00000025
     atom    5 type  1   force =     0.00000000   -0.00000172    0.00000421
     atom    6 type  2   force =     0.00000000   -0.00000072   -0.00000112
     atom    7 type  1   force =     0.00000000   -0.00000982   -0.00000634
     atom    8 type  2   force =    -0.00000000   -0.00000007   -0.00000028

     Total force =     0.005777     Total SCF correction =     0.000020

     General routines

     Parallel routines

   This run was terminated on:  16:26: 6  13Jul2025

   JOB DONE.
Note: The following floating-point exceptions are signalling: IEEE_INVALID_FLAG
Note: The following floating-point exceptions are signalling: IEEE_INVALID_FLAG