     Program PWSCF v.7.2 starts on 22Jul2025 at 18:46:59

     Reading input from /home/jvc/QEspresso7.2/ZnO_database/scripts/cell312.in/ZnO-3.14-1.55-312.in
Warning: card &CELL ignored
Warning: card / ignored
Warning: card &FCP ignored
Warning: card / ignored
Warning: card &RISM ignored
Warning: card / ignored

     Current dimensions of program PWSCF are:
     Max number of different atomic species (ntypx) = 10
     Max number of k-points (npk) =  40000
     Max angular momentum in pseudopotentials (lmaxx) =  4
     file Zn.upf: wavefunction(s)  3D renormalized
     Found identity + (  0.0000  0.0000  0.5000) symmetry
     This is a supercell, fractional translations are disabled
     Message from routine setup:
     using ibrav=0 with symmetry is DISCOURAGED, use correct ibrav instead

     K-points division:     npool     =       8
     R & G space division:  proc/nbgrp/npool/nimage =       4
     Subspace diagonalization in iterative solution of the eigenvalue problem:
     a serial algorithm will be used

     Using Slab Decomposition

     bravais-lattice index     =            0
     lattice parameter (alat)  =      18.5365  a.u.
     unit-cell volume          =    1978.7861 (a.u.)^3
     number of atoms/cell      =           24
     number of atomic types    =            2
     number of electrons       =       216.00
     number of Kohn-Sham states=          108
     kinetic-energy cutoff     =      50.0000  Ry
     charge density cutoff     =     400.0000  Ry
     scf convergence threshold =      1.0E-08
     mixing beta               =       0.3000
     number of iterations used =            8  plain     mixing
     Exchange-correlation= PBE
                           (   1   4   3   4   0   0   0)

     celldm(1)=  18.536466  celldm(2)=   0.000000  celldm(3)=   0.000000
     celldm(4)=   0.000000  celldm(5)=   0.000000  celldm(6)=   0.000000

     crystal axes: (cart. coord. in units of alat)
               a(1) = (   1.000000   0.000000   0.000000 )
               a(2) = (  -0.166667   0.288675   0.000000 )
               a(3) = (   0.000000   0.000000   1.076239 )

     reciprocal axes: (cart. coord. in units 2 pi/alat)
               b(1) = (  1.000000  0.577350 -0.000000 )
               b(2) = (  0.000000  3.464102  0.000000 )
               b(3) = (  0.000000 -0.000000  0.929162 )

     PseudoPot. # 1 for Zn read from file:
     /home/jvc/QEspresso7.2/ZnO_database/pseudos/Zn.upf
     MD5 check sum: 7f56cabf9682ed8c977c2f7d0c5985c5
     Pseudo is Ultrasoft + core correction, Zval = 12.0
     Generated using &quot;atomic&quot; code by A. Dal Corso  v.6.2.2
     Using radial grid of 1201 points,  6 beta functions with:
                l(1) =   0
                l(2) =   0
                l(3) =   1
                l(4) =   1
                l(5) =   2
                l(6) =   2
     Q(r) pseudized with 0 coefficients

     PseudoPot. # 2 for O  read from file:
     /home/jvc/QEspresso7.2/ZnO_database/pseudos/O.upf
     MD5 check sum: 91400c9766925bcf19f520983a725ff0
     Pseudo is Ultrasoft + core correction, Zval =  6.0
     Generated using &quot;atomic&quot; code by A. Dal Corso  v.6.3MaX
     Using radial grid of 1095 points,  4 beta functions with:
                l(1) =   0
                l(2) =   0
                l(3) =   1
                l(4) =   1
     Q(r) pseudized with 0 coefficients

     atomic species   valence    mass     pseudopotential
        Zn            12.00    65.38000     Zn( 1.00)
        O              6.00    15.99900     O ( 1.00)

      2 Sym. Ops. (no inversion) found

                                    s                        frac. trans.

      isym =  1     identity

 cryst.   s( 1) = (     1          0          0      )
                  (     0          1          0      )
                  (     0          0          1      )

 cart.    s( 1) = (  1.0000000  0.0000000  0.0000000 )
                  (  0.0000000  1.0000000  0.0000000 )
                  (  0.0000000  0.0000000  1.0000000 )

      isym =  2     inv. 180 deg rotation - cryst. axis [0,1,0]

 cryst.   s( 2) = (     1          3          0      )
                  (     0         -1          0      )
                  (     0          0          1      )

 cart.    s( 2) = (  0.5000000  0.8660254  0.0000000 )
                  (  0.8660254 -0.5000000  0.0000000 )
                  (  0.0000000  0.0000000  1.0000000 )

   Cartesian axes

     site n.     atom                  positions (alat units)
         1           Zn  tau(   1) = (   0.1666667   0.0962250   0.2694007  )
         2           Zn  tau(   2) = (   0.0000000   0.1924501   0.0003409  )
         3           O   tau(   3) = (   0.1666667   0.0962250   0.4733710  )
         4           O   tau(   4) = (   0.0000000   0.1924501   0.2043113  )
         5           Zn  tau(   5) = (   0.1666667   0.0962250   0.8075201  )
         6           Zn  tau(   6) = (   0.0000000   0.1924501   0.5384604  )
         7           O   tau(   7) = (   0.1666667   0.0962250   1.0114904  )
         8           O   tau(   8) = (   0.0000000   0.1924501   0.7424307  )
         9           Zn  tau(   9) = (   0.5000000   0.0962250   0.2694007  )
        10           Zn  tau(  10) = (   0.3333333   0.1924501   0.0003409  )
        11           O   tau(  11) = (   0.5000000   0.0962250   0.4733710  )
        12           O   tau(  12) = (   0.3333333   0.1924501   0.2043113  )
        13           Zn  tau(  13) = (   0.5000000   0.0962250   0.8075201  )
        14           Zn  tau(  14) = (   0.3333333   0.1924501   0.5384604  )
        15           O   tau(  15) = (   0.5000000   0.0962250   1.0114904  )
        16           O   tau(  16) = (   0.3333333   0.1924501   0.7424307  )
        17           Zn  tau(  17) = (   0.8333333   0.0962250   0.2694007  )
        18           Zn  tau(  18) = (   0.6666667   0.1924501   0.0003409  )
        19           O   tau(  19) = (   0.8333333   0.0962250   0.4733710  )
        20           O   tau(  20) = (   0.6666667   0.1924501   0.2043113  )
        21           Zn  tau(  21) = (   0.8333333   0.0962250   0.8075201  )
        22           Zn  tau(  22) = (   0.6666667   0.1924501   0.5384604  )
        23           O   tau(  23) = (   0.8333333   0.0962250   1.0114904  )
        24           O   tau(  24) = (   0.6666667   0.1924501   0.7424307  )

   Crystallographic axes

     site n.     atom                  positions (cryst. coord.)
         1           Zn  tau(   1) = (  0.2222222  0.3333333  0.2503168  )
         2           Zn  tau(   2) = (  0.1111111  0.6666667  0.0003168  )
         3           O   tau(   3) = (  0.2222222  0.3333333  0.4398382  )
         4           O   tau(   4) = (  0.1111111  0.6666667  0.1898382  )
         5           Zn  tau(   5) = (  0.2222222  0.3333333  0.7503168  )
         6           Zn  tau(   6) = (  0.1111111  0.6666667  0.5003168  )
         7           O   tau(   7) = (  0.2222222  0.3333333  0.9398382  )
         8           O   tau(   8) = (  0.1111111  0.6666667  0.6898382  )
         9           Zn  tau(   9) = (  0.5555556  0.3333333  0.2503168  )
        10           Zn  tau(  10) = (  0.4444444  0.6666667  0.0003168  )
        11           O   tau(  11) = (  0.5555556  0.3333333  0.4398382  )
        12           O   tau(  12) = (  0.4444444  0.6666667  0.1898382  )
        13           Zn  tau(  13) = (  0.5555556  0.3333333  0.7503168  )
        14           Zn  tau(  14) = (  0.4444444  0.6666667  0.5003168  )
        15           O   tau(  15) = (  0.5555556  0.3333333  0.9398382  )
        16           O   tau(  16) = (  0.4444444  0.6666667  0.6898382  )
        17           Zn  tau(  17) = (  0.8888889  0.3333333  0.2503168  )
        18           Zn  tau(  18) = (  0.7777778  0.6666667  0.0003168  )
        19           O   tau(  19) = (  0.8888889  0.3333333  0.4398382  )
        20           O   tau(  20) = (  0.7777778  0.6666667  0.1898382  )
        21           Zn  tau(  21) = (  0.8888889  0.3333333  0.7503168  )
        22           Zn  tau(  22) = (  0.7777778  0.6666667  0.5003168  )
        23           O   tau(  23) = (  0.8888889  0.3333333  0.9398382  )
        24           O   tau(  24) = (  0.7777778  0.6666667  0.6898382  )

     number of k points=    13
                       cart. coord. in units 2pi/alat
        k(    1) = (   0.0000000   0.0000000   0.0000000), wk =   0.0555556
        k(    2) = (   0.0000000   0.0000000   0.3097206), wk =   0.1111111
        k(    3) = (   0.0000000   0.5773503   0.0000000), wk =   0.2222222
        k(    4) = (   0.0000000   0.5773503   0.3097206), wk =   0.2222222
        k(    5) = (   0.0000000   1.1547005   0.0000000), wk =   0.1111111
        k(    6) = (   0.0000000   1.1547005   0.3097206), wk =   0.2222222
        k(    7) = (   0.0000000  -1.7320508   0.0000000), wk =   0.1111111
        k(    8) = (   0.0000000  -1.7320508   0.3097206), wk =   0.2222222
        k(    9) = (  -0.5000000  -0.2886751   0.0000000), wk =   0.0555556
        k(   10) = (  -0.5000000  -0.2886751   0.3097206), wk =   0.1111111
        k(   11) = (  -0.5000000   0.8660254   0.0000000), wk =   0.1111111
        k(   12) = (  -0.5000000   0.8660254   0.3097206), wk =   0.2222222
        k(   13) = (   0.5000000  -0.2886751  -0.3097206), wk =   0.2222222

                       cryst. coord.
        k(    1) = (   0.0000000   0.0000000   0.0000000), wk =   0.0555556
        k(    2) = (   0.0000000   0.0000000   0.3333333), wk =   0.1111111
        k(    3) = (   0.0000000   0.1666667   0.0000000), wk =   0.2222222
        k(    4) = (   0.0000000   0.1666667   0.3333333), wk =   0.2222222
        k(    5) = (   0.0000000   0.3333333   0.0000000), wk =   0.1111111
        k(    6) = (   0.0000000   0.3333333   0.3333333), wk =   0.2222222
        k(    7) = (   0.0000000  -0.5000000   0.0000000), wk =   0.1111111
        k(    8) = (   0.0000000  -0.5000000   0.3333333), wk =   0.2222222
        k(    9) = (  -0.5000000   0.0000000   0.0000000), wk =   0.0555556
        k(   10) = (  -0.5000000   0.0000000   0.3333333), wk =   0.1111111
        k(   11) = (  -0.5000000   0.3333333   0.0000000), wk =   0.1111111
        k(   12) = (  -0.5000000   0.3333333   0.3333333), wk =   0.2222222
        k(   13) = (   0.5000000  -0.1666667  -0.3333333), wk =   0.2222222

     Check: negative core charge=   -0.000002

     Initial potential from superposition of free atoms

     starting charge     215.9553, renormalised to     216.0000
     Starting wfcs are  156 randomized atomic wfcs

     Self-consistent Calculation

     iteration #  1     ecut=    50.00 Ry     beta= 0.30
     Davidson diagonalization with overlap

     ethr =  1.00E-02,  avg # of iterations =  2.0

     total energy              =   -2168.87930138 Ry
     estimated scf accuracy    <       4.14160316 Ry

[...]

     c_bands:  5 eigenvalues not converged
     c_bands:  1 eigenvalues not converged
     ethr =  5.30E-08,  avg # of iterations = 14.8

[...]

     c_bands:  1 eigenvalues not converged
     ethr =  5.30E-08,  avg # of iterations = 14.2

[...]

     total energy              =   -2169.82132743 Ry
[...]
     1.0000   1.0000   1.0000   1.0000

[...]

          k =-0.5000-0.2887 0.0000 ( 11762 PWs)   bands (ev):

[...]

          k =-0.5000 0.8660 0.3097 ( 11848 PWs)   bands (ev):

[...]

          k = 0.5000-0.2887-0.3097 ( 11800 PWs)   bands (ev):

   -10.8204 -10.7129 -10.6016 -10.5179 -10.4121 -10.3402 -10.2997 -10.2962
   -10.2905 -10.2082 -10.1859 -10.1496   1.0368   1.0820   1.1038   1.1086
     1.1268   1.1443   1.1496   1.1780   1.1968   1.2850   1.3367   1.3762
     1.4035   1.4331   1.4425   1.4548   1.5169   1.5188   1.5220   1.5381
     1.5437   1.5573   1.5636   1.5839   1.5905   1.5969   1.6853   1.7338
     1.7417   1.7730   1.8092   1.8094   1.8904   1.9133   1.9824   2.0290
     2.3643   2.4014   2.4172   2.4440   2.4609   2.4695   2.4789   2.4884
     2.4958   2.5183   2.5393   2.5677   2.5935   2.6056   2.6172   2.6256
     2.6364   2.6725   2.6725   2.6804   2.6913   2.7501   2.8116   2.8696
     3.1154   3.2560   3.2568   3.3752   3.5916   3.6971   3.8659   3.9342
     4.2091   4.4657   4.5349   4.5550   4.6101   4.6167   4.9825   5.0817
     5.1229   5.2327   5.2750   5.3663   5.3813   5.5972   5.5974   5.6314
     5.7986   5.8447   5.8519   5.9569   6.0234   6.0904   6.1732   6.2738
     6.2837   6.4800   6.5472   6.6435

     occupation numbers
     1.0000   1.0000   1.0000   1.0000   1.0000   1.0000   1.0000   1.0000
     1.0000   1.0000   1.0000   1.0000   1.0000   1.0000   1.0000   1.0000
     1.0000   1.0000   1.0000   1.0000   1.0000   1.0000   1.0000   1.0000
     1.0000   1.0000   1.0000   1.0000   1.0000   1.0000   1.0000   1.0000
     1.0000   1.0000   1.0000   1.0000   1.0000   1.0000   1.0000   1.0000
     1.0000   1.0000   1.0000   1.0000   1.0000   1.0000   1.0000   1.0000
     1.0000   1.0000   1.0000   1.0000   1.0000   1.0000   1.0000   1.0000
     1.0000   1.0000   1.0000   1.0000   1.0000   1.0000   1.0000   1.0000
     1.0000   1.0000   1.0000   1.0000   1.0000   1.0000   1.0000   1.0000
     1.0000   1.0000   1.0000   1.0000   1.0000   1.0000   1.0000   1.0000
     1.0000   1.0000   1.0000   1.0000   1.0000   1.0000   1.0000   1.0000
     1.0000   1.0000   1.0000   1.0000   1.0000   1.0000   1.0000   1.0000
     1.0000   1.0000   1.0000   1.0000   1.0000   1.0000   1.0000   1.0000
     1.0000   1.0000   1.0000   1.0000

     highest occupied level (ev):     6.8873

!    total energy              =   -2169.82132746 Ry
     estimated scf accuracy    <          6.2E-09 Ry

     The total energy is the sum of the following terms:
     one-electron contribution =    -927.15144989 Ry
     hartree contribution      =     709.73528111 Ry
     xc contribution           =    -657.27676676 Ry
     ewald contribution        =   -1295.12839192 Ry

     convergence has been achieved in  24 iterations

     Forces acting on atoms (cartesian axes, Ry/au):

     atom    1 type  1   force =    -0.00000065   -0.00000038    0.00005211
     atom    2 type  1   force =    -0.00000095   -0.00000055    0.00005801
     atom    3 type  2   force =     0.00000033    0.00000019   -0.00006247
     atom    4 type  2   force =    -0.00000009   -0.00000005   -0.00006282
     atom    5 type  1   force =    -0.00000455   -0.00000262    0.00007181
     atom    6 type  1   force =     0.00000079    0.00000046    0.00006632
     atom    7 type  2   force =    -0.00000016   -0.00000009   -0.00006220
     atom    8 type  2   force =    -0.00000013   -0.00000008   -0.00006302
     atom    9 type  1   force =    -0.00000099   -0.00000057    0.00005038
     atom   10 type  1   force =     0.00000070    0.00000041    0.00006691
     atom   11 type  2   force =     0.00000028    0.00000016   -0.00006252
     atom   12 type  2   force =    -0.00000038   -0.00000022   -0.00006228
     atom   13 type  1   force =    -0.00000270   -0.00000156    0.00007008
     atom   14 type  1   force =     0.00000552    0.00000319    0.00006180
     atom   15 type  2   force =     0.00000026    0.00000015   -0.00006291
     atom   16 type  2   force =    -0.00000042   -0.00000024   -0.00006226
     atom   17 type  1   force =    -0.00000182   -0.00000105    0.00005390
     atom   18 type  1   force =    -0.00000001   -0.00000001    0.00006089
     atom   19 type  2   force =     0.00000027    0.00000015   -0.00006234
     atom   20 type  2   force =    -0.00000010   -0.00000006   -0.00006244
     atom   21 type  1   force =    -0.00000116   -0.00000067    0.00007234
     atom   22 type  1   force =     0.00000644    0.00000372    0.00006546
     atom   23 type  2   force =    -0.00000004   -0.00000002   -0.00006213
     atom   24 type  2   force =    -0.00000047   -0.00000027   -0.00006260
     The non-local contrib.  to forces
     atom    1 type  1   force =     0.00000001    0.00000000   -0.00483712
     atom    2 type  1   force =    -0.00000036   -0.00000021   -0.00483478
     atom    3 type  2   force =     0.00000109    0.00000063    0.00575409
     atom    4 type  2   force =     0.00000025    0.00000014    0.00575747
     atom    5 type  1   force =    -0.00000163   -0.00000094   -0.00482702
     atom    6 type  1   force =    -0.00000066   -0.00000038   -0.00483184
     atom    7 type  2   force =    -0.00000076   -0.00000044    0.00575526
     atom    8 type  2   force =    -0.00000031   -0.00000018    0.00575097
     atom    9 type  1   force =     0.00000078    0.00000045   -0.00483951
     atom   10 type  1   force =     0.00000096    0.00000055   -0.00483250
     atom   11 type  2   force =     0.00000115    0.00000066    0.00575449
     atom   12 type  2   force =    -0.00000141   -0.00000081    0.00575805
     atom   13 type  1   force =     0.00000035    0.00000020   -0.00482729
     atom   14 type  1   force =     0.00000044    0.00000025   -0.00483296
     atom   15 type  2   force =     0.00000053    0.00000031    0.00575227
     atom   16 type  2   force =     0.00000009    0.00000005    0.00575119
     atom   17 type  1   force =    -0.00000037   -0.00000021   -0.00483862
     atom   18 type  1   force =    -0.00000069   -0.00000040   -0.00483244
     atom   19 type  2   force =    -0.00000036   -0.00000021    0.00575383
     atom   20 type  2   force =    -0.00000014   -0.00000008    0.00575787
     atom   21 type  1   force =     0.00000085    0.00000049   -0.00482853
     atom   22 type  1   force =     0.00000152    0.00000088   -0.00483139
     atom   23 type  2   force =     0.00000019    0.00000011    0.00575402
     atom   24 type  2   force =    -0.00000133   -0.00000077    0.00575035
     The ionic contribution  to forces
     atom    1 type  1   force =     0.00000001    0.00000000    0.06271747
     atom    2 type  1   force =     0.00000000    0.00000000    0.06271747
     atom    3 type  2   force =     0.00000001    0.00000000   -0.06271747
     atom    4 type  2   force =     0.00000000    0.00000000   -0.06271747
     atom    5 type  1   force =     0.00000001    0.00000000    0.06271747
     atom    6 type  1   force =     0.00000000    0.00000000    0.06271747
     atom    7 type  2   force =     0.00000001    0.00000000   -0.06271747
     atom    8 type  2   force =     0.00000000    0.00000000   -0.06271747
     atom    9 type  1   force =    -0.00000001    0.00000000    0.06271747
     atom   10 type  1   force =     0.00000001   -0.00000000    0.06271747
     atom   11 type  2   force =    -0.00000000    0.00000000   -0.06271747
     atom   12 type  2   force =     0.00000000   -0.00000000   -0.06271747
     atom   13 type  1   force =    -0.00000001    0.00000000    0.06271747
     atom   14 type  1   force =     0.00000001   -0.00000000    0.06271747
     atom   15 type  2   force =    -0.00000000    0.00000000   -0.06271747
     atom   16 type  2   force =     0.00000000   -0.00000000   -0.06271747
     atom   17 type  1   force =    -0.00000000   -0.00000000    0.06271747
     atom   18 type  1   force =    -0.00000001   -0.00000000    0.06271747
     atom   19 type  2   force =    -0.00000000   -0.00000000   -0.06271747
     atom   20 type  2   force =    -0.00000001   -0.00000000   -0.06271747
     atom   21 type  1   force =    -0.00000000   -0.00000000    0.06271747
     atom   22 type  1   force =    -0.00000001   -0.00000000    0.06271747
     atom   23 type  2   force =    -0.00000000   -0.00000000   -0.06271747
     atom   24 type  2   force =    -0.00000001   -0.00000000   -0.06271747
     The local contribution  to forces
     atom    1 type  1   force =    -0.00000119   -0.00000069   -0.05827729
     atom    2 type  1   force =     0.00000085    0.00000044   -0.05828223
     atom    3 type  2   force =    -0.00000067   -0.00000039    0.05696806
     atom    4 type  2   force =     0.00000090    0.00000050    0.05697387
     atom    5 type  1   force =     0.00000507    0.00000293   -0.05830313
     atom    6 type  1   force =     0.00000194    0.00000107   -0.05829360
     atom    7 type  2   force =     0.00000036    0.00000021    0.05696951
     atom    8 type  2   force =     0.00000311    0.00000178    0.05696006
     atom    9 type  1   force =    -0.00000109   -0.00000053   -0.05827270
     atom   10 type  1   force =    -0.00000179   -0.00000113   -0.05828972
     atom   11 type  2   force =    -0.00000047   -0.00000024    0.05696690
     atom   12 type  2   force =     0.00000009    0.00000003    0.05697440
     atom   13 type  1   force =    -0.00000069   -0.00000030   -0.05830314
     atom   14 type  1   force =    -0.00000236   -0.00000146   -0.05828901
     atom   15 type  2   force =     0.00000072    0.00000044    0.05696649
     atom   16 type  2   force =     0.00000049    0.00000026    0.05696253
     atom   17 type  1   force =     0.00000290    0.00000173   -0.05827567
     atom   18 type  1   force =     0.00000149    0.00000086   -0.05828854
     atom   19 type  2   force =    -0.00000103   -0.00000058    0.05696597
     atom   20 type  2   force =     0.00000090    0.00000052    0.05697361
     atom   21 type  1   force =    -0.00000164   -0.00000090   -0.05830095
     atom   22 type  1   force =    -0.00000499   -0.00000288   -0.05829361
     atom   23 type  2   force =    -0.00000201   -0.00000114    0.05697033
     atom   24 type  2   force =    -0.00000129   -0.00000075    0.05696412
     The core correction contribution to forces
     atom    1 type  1   force =     0.00000011    0.00000007    0.00046399
     atom    2 type  1   force =     0.00000002    0.00000001    0.00046380
     atom    3 type  2   force =    -0.00000002   -0.00000001   -0.00006502
     atom    4 type  2   force =     0.00000000    0.00000000   -0.00006505
     atom    5 type  1   force =    -0.00000003   -0.00000002    0.00046404
     atom    6 type  1   force =    -0.00000008   -0.00000005    0.00046409
     atom    7 type  2   force =     0.00000001    0.00000001   -0.00006502
     atom    8 type  2   force =     0.00000001    0.00000001   -0.00006500
     atom    9 type  1   force =     0.00000004    0.00000004    0.00046394
     atom   10 type  1   force =     0.00000001   -0.00000001    0.00046381
     atom   11 type  2   force =    -0.00000002   -0.00000001   -0.00006503
     atom   12 type  2   force =     0.00000002    0.00000001   -0.00006506
     atom   13 type  1   force =     0.00000010    0.00000007    0.00046413
     atom   14 type  1   force =    -0.00000007   -0.00000005    0.00046403
     atom   15 type  2   force =    -0.00000000   -0.00000000   -0.00006500
     atom   16 type  2   force =     0.00000000    0.00000000   -0.00006499
     atom   17 type  1   force =    -0.00000011   -0.00000005    0.00046395
     atom   18 type  1   force =    -0.00000003   -0.00000002    0.00046393
     atom   19 type  2   force =    -0.00000000   -0.00000000   -0.00006502
     atom   20 type  2   force =     0.00000000    0.00000000   -0.00006506
     atom   21 type  1   force =     0.00000005    0.00000004    0.00046402
     atom   22 type  1   force =    -0.00000002   -0.00000001    0.00046406
     atom   23 type  2   force =    -0.00000001   -0.00000001   -0.00006501
     atom   24 type  2   force =     0.00000001    0.00000001   -0.00006497
     The Hubbard contrib.    to forces
     atom    1 type  1   force =     0.00000000    0.00000000    0.00000000
     atom    2 type  1   force =     0.00000000    0.00000000    0.00000000
     atom    3 type  2   force =     0.00000000    0.00000000    0.00000000
     atom    4 type  2   force =     0.00000000    0.00000000    0.00000000
     atom    5 type  1   force =     0.00000000    0.00000000    0.00000000
     atom    6 type  1   force =     0.00000000    0.00000000    0.00000000
     atom    7 type  2   force =     0.00000000    0.00000000    0.00000000
     atom    8 type  2   force =     0.00000000    0.00000000    0.00000000
     atom    9 type  1   force =     0.00000000    0.00000000    0.00000000
     atom   10 type  1   force =     0.00000000    0.00000000    0.00000000
     atom   11 type  2   force =     0.00000000    0.00000000    0.00000000
     atom   12 type  2   force =     0.00000000    0.00000000    0.00000000
     atom   13 type  1   force =     0.00000000    0.00000000    0.00000000
     atom   14 type  1   force =     0.00000000    0.00000000    0.00000000
     atom   15 type  2   force =     0.00000000    0.00000000    0.00000000
     atom   16 type  2   force =     0.00000000    0.00000000    0.00000000
     atom   17 type  1   force =     0.00000000    0.00000000    0.00000000
     atom   18 type  1   force =     0.00000000    0.00000000    0.00000000
     atom   19 type  2   force =     0.00000000    0.00000000    0.00000000
     atom   20 type  2   force =     0.00000000    0.00000000    0.00000000
     atom   21 type  1   force =     0.00000000    0.00000000    0.00000000
     atom   22 type  1   force =     0.00000000    0.00000000    0.00000000
     atom   23 type  2   force =     0.00000000    0.00000000    0.00000000
     atom   24 type  2   force =     0.00000000    0.00000000    0.00000000
     The SCF correction term to forces
     atom    1 type  1   force =     0.00000035    0.00000020   -0.00001533
     atom    2 type  1   force =    -0.00000149   -0.00000086   -0.00000666
     atom    3 type  2   force =    -0.00000012   -0.00000007   -0.00000252
     atom    4 type  2   force =    -0.00000129   -0.00000074   -0.00001203
     atom    5 type  1   force =    -0.00000801   -0.00000463    0.00002005
     atom    6 type  1   force =    -0.00000044   -0.00000025    0.00000979
     atom    7 type  2   force =     0.00000016    0.00000009   -0.00000487
     atom    8 type  2   force =    -0.00000299   -0.00000173    0.00000801
     atom    9 type  1   force =    -0.00000082   -0.00000047   -0.00001922
     atom   10 type  1   force =     0.00000151    0.00000087    0.00000746
     atom   11 type  2   force =    -0.00000044   -0.00000025   -0.00000181
     atom   12 type  2   force =     0.00000087    0.00000050   -0.00001259
     atom   13 type  1   force =    -0.00000257   -0.00000148    0.00001851
     atom   14 type  1   force =     0.00000750    0.00000433    0.00000188
     atom   15 type  2   force =    -0.00000105   -0.00000061    0.00000039
     atom   16 type  2   force =    -0.00000104   -0.00000060    0.00000608
     atom   17 type  1   force =    -0.00000432   -0.00000249   -0.00001363
     atom   18 type  1   force =    -0.00000083   -0.00000048    0.00000007
     atom   19 type  2   force =     0.00000160    0.00000092   -0.00000005
     atom   20 type  2   force =    -0.00000091   -0.00000052   -0.00001179
     atom   21 type  1   force =    -0.00000049   -0.00000028    0.00001993
     atom   22 type  1   force =     0.00000989    0.00000571    0.00000852
     atom   23 type  2   force =     0.00000173    0.00000100   -0.00000439
     atom   24 type  2   force =     0.00000209    0.00000121    0.00000498

     Total force =     0.000307     Total SCF correction =     0.000056
     SCF correction compared to forces is large: reduce conv_thr to get better values

     General routines

     Parallel routines

   This run was terminated on:  18:51: 3  22Jul2025

   JOB DONE.
Note: The following floating-point exceptions are signalling: IEEE_INVALID_FLAG
Note: The following floating-point exceptions are signalling: IEEE_INVALID_FLAG
Note: The following floating-point exceptions are signalling: IEEE_INVALID_FLAG
Note: The following floating-point exceptions are signalling: IEEE_INVALID_FLAG
Note: The following floating-point exceptions are signalling: IEEE_INVALID_FLAG
Note: The following floating-point exceptions are signalling: IEEE_INVALID_FLAG
Note: The following floating-point exceptions are signalling: IEEE_INVALID_FLAG
Note: The following floating-point exceptions are signalling: IEEE_INVALID_FLAG