     Program PWSCF v.7.0 starts on  5Sep2025 at  1: 2: 6

     K-points division:     npool     =       8
     R & G space division:  proc/nbgrp/npool/nimage =       4

     Reading input from /home/jvc/QEspresso7.2/ZnO_database/scripts/cell213.in/ZnO-3.20-1.65-213.in
Warning: card &CELL ignored
Warning: card / ignored
Warning: card &FCP ignored
Warning: card / ignored
Warning: card &RISM ignored
Warning: card / ignored

     Current dimensions of program PWSCF are:
     Max number of different atomic species (ntypx) = 10
     Max number of k-points (npk) =  40000
     Max angular momentum in pseudopotentials (lmaxx) =  4
     file Zn.upf: wavefunction(s)  3D renormalized
     Found identity + (  0.0000  0.0000  0.3333) symmetry
     This is a supercell, fractional translations are disabled
     Message from routine setup:
     using ibrav=0 with symmetry is DISCOURAGED, use correct ibrav instead

     Using Slab Decomposition

     bravais-lattice index     =            0
     lattice parameter (alat)  =      12.1106  a.u.
     unit-cell volume          =    1899.6956 (a.u.)^3
     number of atoms/cell      =           24
     number of atomic types    =            2
     number of electrons       =       216.00
     number of Kohn-Sham states=          108
     kinetic-energy cutoff     =      50.0000  Ry
     charge density cutoff     =     400.0000  Ry
     scf convergence threshold =      1.0E-08
     mixing beta               =       0.3000
     number of iterations used =            8  plain     mixing
     Exchange-correlation= PBE
                           (   1   4   3   4   0   0   0)

     celldm(1)=  12.110554  celldm(2)=   0.000000  celldm(3)=   0.000000
     celldm(4)=   0.000000  celldm(5)=   0.000000  celldm(6)=   0.000000

     crystal axes: (cart. coord. in units of alat)
               a(1) = (   1.000000   0.000000   0.000000 )
               a(2) = (  -0.250000   0.433013   0.000000 )
               a(3) = (   0.000000   0.000000   2.469968 )

     reciprocal axes: (cart. coord. in units 2 pi/alat)
               b(1) = (  1.000000  0.577350 -0.000000 )
               b(2) = (  0.000000  2.309401  0.000000 )
               b(3) = (  0.000000 -0.000000  0.404863 )

     PseudoPot. # 1 for Zn read from file:
     /home/jvc/QEspresso7.2/ZnO_database/pseudos/Zn.upf
     MD5 check sum: 7f56cabf9682ed8c977c2f7d0c5985c5
     Pseudo is Ultrasoft + core correction, Zval = 12.0
     Generated using &quot;atomic&quot; code by A. Dal Corso  v.6.2.2
     Using radial grid of 1201 points,  6 beta functions with:
                l(1) =   0
                l(2) =   0
                l(3) =   1
                l(4) =   1
                l(5) =   2
                l(6) =   2
     Q(r) pseudized with 0 coefficients

     PseudoPot. # 2 for O  read from file:
     /home/jvc/QEspresso7.2/ZnO_database/pseudos/O.upf
     MD5 check sum: 91400c9766925bcf19f520983a725ff0
     Pseudo is Ultrasoft + core correction, Zval =  6.0
     Generated using &quot;atomic&quot; code by A. Dal Corso  v.6.3MaX
     Using radial grid of 1095 points,  4 beta functions with:
                l(1) =   0
                l(2) =   0
                l(3) =   1
                l(4) =   1
     Q(r) pseudized with 0 coefficients

     atomic species   valence    mass     pseudopotential
        Zn            12.00    65.38000     Zn( 1.00)
        O              6.00    15.99900     O ( 1.00)

      2 Sym. Ops. (no inversion) found

                                    s                        frac. trans.

      isym =  1     identity

 cryst.   s( 1) = (     1          0          0      )
                  (     0          1          0      )
                  (     0          0          1      )

 cart.    s( 1) = (  1.0000000  0.0000000  0.0000000 )
                  (  0.0000000  1.0000000  0.0000000 )
                  (  0.0000000  0.0000000  1.0000000 )

      isym =  2     inv. 180 deg rotation - cryst. axis [0,1,0]

 cryst.   s( 2) = (     1          2          0      )
                  (     0         -1          0      )
                  (     0          0          1      )

 cart.    s( 2) = (  0.5000000  0.8660254  0.0000000 )
                  (  0.8660254 -0.5000000  0.0000000 )
                  (  0.0000000  0.0000000  1.0000000 )

   Cartesian axes

     site n.     atom                  positions (alat units)
         1           Zn  tau(   1) = (   0.2500000   0.1443376   0.4121830  )
         2           Zn  tau(   2) = (   0.0000000   0.2886751   0.0005216  )
         3           O   tau(   3) = (   0.2500000   0.1443376   0.7242576  )
         4           O   tau(   4) = (   0.0000000   0.2886751   0.3125962  )
         5           Zn  tau(   5) = (   0.2500000   0.1443376   1.2355058  )
         6           Zn  tau(   6) = (   0.0000000   0.2886751   0.8238444  )
         7           O   tau(   7) = (   0.2500000   0.1443376   1.5475804  )
         8           O   tau(   8) = (   0.0000000   0.2886751   1.1359190  )
         9           Zn  tau(   9) = (   0.2500000   0.1443376   2.0588285  )
        10           Zn  tau(  10) = (   0.0000000   0.2886751   1.6471672  )
        11           O   tau(  11) = (   0.2500000   0.1443376   2.3709031  )
        12           O   tau(  12) = (   0.0000000   0.2886751   1.9592418  )
        13           Zn  tau(  13) = (   0.7500000   0.1443376   0.4121830  )
        14           Zn  tau(  14) = (   0.5000000   0.2886751   0.0005216  )
        15           O   tau(  15) = (   0.7500000   0.1443376   0.7242576  )
        16           O   tau(  16) = (   0.5000000   0.2886751   0.3125962  )
        17           Zn  tau(  17) = (   0.7500000   0.1443376   1.2355058  )
        18           Zn  tau(  18) = (   0.5000000   0.2886751   0.8238444  )
        19           O   tau(  19) = (   0.7500000   0.1443376   1.5475804  )
        20           O   tau(  20) = (   0.5000000   0.2886751   1.1359190  )
        21           Zn  tau(  21) = (   0.7500000   0.1443376   2.0588285  )
        22           Zn  tau(  22) = (   0.5000000   0.2886751   1.6471672  )
        23           O   tau(  23) = (   0.7500000   0.1443376   2.3709031  )
        24           O   tau(  24) = (   0.5000000   0.2886751   1.9592418  )

   Crystallographic axes

     site n.     atom                  positions (cryst. coord.)
         1           Zn  tau(   1) = (  0.3333333  0.3333333  0.1668779  )
         2           Zn  tau(   2) = (  0.1666667  0.6666667  0.0002112  )
         3           O   tau(   3) = (  0.3333333  0.3333333  0.2932255  )
         4           O   tau(   4) = (  0.1666667  0.6666667  0.1265588  )
         5           Zn  tau(   5) = (  0.3333333  0.3333333  0.5002112  )
         6           Zn  tau(   6) = (  0.1666667  0.6666667  0.3335445  )
         7           O   tau(   7) = (  0.3333333  0.3333333  0.6265588  )
         8           O   tau(   8) = (  0.1666667  0.6666667  0.4598921  )
         9           Zn  tau(   9) = (  0.3333333  0.3333333  0.8335445  )
        10           Zn  tau(  10) = (  0.1666667  0.6666667  0.6668779  )
        11           O   tau(  11) = (  0.3333333  0.3333333  0.9598921  )
        12           O   tau(  12) = (  0.1666667  0.6666667  0.7932255  )
        13           Zn  tau(  13) = (  0.8333333  0.3333333  0.1668779  )
        14           Zn  tau(  14) = (  0.6666667  0.6666667  0.0002112  )
        15           O   tau(  15) = (  0.8333333  0.3333333  0.2932255  )
        16           O   tau(  16) = (  0.6666667  0.6666667  0.1265588  )
        17           Zn  tau(  17) = (  0.8333333  0.3333333  0.5002112  )
        18           Zn  tau(  18) = (  0.6666667  0.6666667  0.3335445  )
        19           O   tau(  19) = (  0.8333333  0.3333333  0.6265588  )
        20           O   tau(  20) = (  0.6666667  0.6666667  0.4598921  )
        21           Zn  tau(  21) = (  0.8333333  0.3333333  0.8335445  )
        22           Zn  tau(  22) = (  0.6666667  0.6666667  0.6668779  )
        23           O   tau(  23) = (  0.8333333  0.3333333  0.9598921  )
        24           O   tau(  24) = (  0.6666667  0.6666667  0.7932255  )

     number of k points=    80
                       cart. coord. in units 2pi/alat
        k(    1) = (   0.0000000   0.0000000   0.0000000), wk =   0.0092593
        k(    2) = (   0.0000000   0.0000000   0.0674772), wk =   0.0185185
        k(    3) = (   0.0000000   0.0000000   0.1349545), wk =   0.0185185
        k(    4) = (   0.0000000   0.0000000  -0.2024317), wk =   0.0092593
        k(    5) = (   0.0000000   0.3849002   0.0000000), wk =   0.0370370
        k(    6) = (   0.0000000   0.3849002   0.0674772), wk =   0.0370370
        k(    7) = (   0.0000000   0.3849002   0.1349545), wk =   0.0370370
        k(    8) = (   0.0000000   0.3849002  -0.2024317), wk =   0.0370370
        k(    9) = (   0.0000000   0.7698004   0.0000000), wk =   0.0370370
        k(   10) = (   0.0000000   0.7698004   0.0674772), wk =   0.0370370
        k(   11) = (   0.0000000   0.7698004   0.1349545), wk =   0.0370370
        k(   12) = (   0.0000000   0.7698004  -0.2024317), wk =   0.0370370
        k(   13) = (   0.0000000  -1.1547005   0.0000000), wk =   0.0092593
        k(   14) = (   0.0000000  -1.1547005   0.0674772), wk =   0.0185185
        k(   15) = (   0.0000000  -1.1547005   0.1349545), wk =   0.0185185
        k(   16) = (   0.0000000  -1.1547005  -0.2024317), wk =   0.0092593
        k(   17) = (   0.1666667   0.0962250   0.0000000), wk =   0.0185185
        k(   18) = (   0.1666667   0.0962250   0.0674772), wk =   0.0185185
        k(   19) = (   0.1666667   0.0962250   0.1349545), wk =   0.0185185
        k(   20) = (   0.1666667   0.0962250  -0.2024317), wk =   0.0185185
        k(   21) = (   0.1666667   0.4811252   0.0000000), wk =   0.0370370
        k(   22) = (   0.1666667   0.4811252   0.0674772), wk =   0.0370370
        k(   23) = (   0.1666667   0.4811252   0.1349545), wk =   0.0370370
        k(   24) = (   0.1666667   0.4811252  -0.2024317), wk =   0.0370370
        k(   25) = (   0.1666667   0.8660254   0.0000000), wk =   0.0185185
        k(   26) = (   0.1666667   0.8660254   0.0674772), wk =   0.0370370
        k(   27) = (   0.1666667   0.8660254   0.1349545), wk =   0.0370370
        k(   28) = (   0.1666667   0.8660254  -0.2024317), wk =   0.0185185
        k(   29) = (   0.1666667  -1.0584755   0.0000000), wk =   0.0185185
        k(   30) = (   0.1666667  -1.0584755   0.0674772), wk =   0.0185185
        k(   31) = (   0.1666667  -1.0584755   0.1349545), wk =   0.0185185
        k(   32) = (   0.1666667  -1.0584755  -0.2024317), wk =   0.0185185
        k(   33) = (   0.1666667  -0.6735753   0.0000000), wk =   0.0370370
        k(   34) = (   0.1666667  -0.6735753   0.0674772), wk =   0.0370370
        k(   35) = (   0.1666667  -0.6735753   0.1349545), wk =   0.0370370
        k(   36) = (   0.1666667  -0.6735753  -0.2024317), wk =   0.0370370
        k(   37) = (   0.1666667  -0.2886751   0.0000000), wk =   0.0185185
        k(   38) = (   0.1666667  -0.2886751   0.0674772), wk =   0.0370370
        k(   39) = (   0.1666667  -0.2886751   0.1349545), wk =   0.0370370
[...]

!    total energy              =   -2169.79519027 Ry
     estimated scf accuracy    <          9.6E-09 Ry

     The total energy is the sum of the following terms:
     one-electron contribution =    -898.75385773 Ry
     hartree contribution      =     699.64473808 Ry
     xc contribution           =    -657.78431533 Ry
     ewald contribution        =   -1312.90175529 Ry

     convergence has been achieved in  36 iterations

     Forces acting on atoms (cartesian axes, Ry/au):

     atom    1 type  1   force =     0.00000591    0.00000341    0.00736744
     atom    2 type  1   force =    -0.00000551   -0.00000318    0.00736025
     atom    3 type  2   force =    -0.00000275   -0.00000159   -0.00736205
     atom    4 type  2   force =     0.00000240    0.00000139   -0.00736207
     atom    5 type  1   force =     0.00000442    0.00000255    0.00736547
     atom    6 type  1   force =    -0.00000609   -0.00000351    0.00736559
     atom    7 type  2   force =    -0.00000239   -0.00000138   -0.00736452
     atom    8 type  2   force =     0.00000188    0.00000109   -0.00736327
     atom    9 type  1   force =     0.00000605    0.00000350    0.00736054
     atom   10 type  1   force =    -0.00000724   -0.00000418    0.00735876
     atom   11 type  2   force =    -0.00000207   -0.00000120   -0.00736233
     atom   12 type  2   force =     0.00000321    0.00000185   -0.00736411
     atom   13 type  1   force =     0.00000660    0.00000381    0.00736837
     atom   14 type  1   force =    -0.00000778   -0.00000449    0.00736121
     atom   15 type  2   force =    -0.00000341   -0.00000197   -0.00736356
     atom   16 type  2   force =     0.00000301    0.00000174   -0.00736258
     atom   17 type  1   force =     0.00000882    0.00000509    0.00736409
     atom   18 type  1   force =    -0.00000684   -0.00000395    0.00736600
     atom   19 type  2   force =    -0.00000232   -0.00000134   -0.00736306
     atom   20 type  2   force =     0.00000318    0.00000184   -0.00736499
     atom   21 type  1   force =     0.00000675    0.00000390    0.00736131
     atom   22 type  1   force =    -0.00000561   -0.00000324    0.00736168
     atom   23 type  2   force =    -0.00000208   -0.00000120   -0.00736311
     atom   24 type  2   force =     0.00000185    0.00000107   -0.00736508
     The non-local contrib.  to forces
     atom    1 type  1   force =    -0.00002308   -0.00001333    0.05223217
     atom    2 type  1   force =     0.00002259    0.00001304    0.05223164
     atom    3 type  2   force =    -0.00017668   -0.00010201    0.05261040
     atom    4 type  2   force =     0.00017656    0.00010193    0.05260975
     atom    5 type  1   force =    -0.00002297   -0.00001326    0.05223140
     atom    6 type  1   force =     0.00002307    0.00001332    0.05222936
     atom    7 type  2   force =    -0.00017623   -0.00010174    0.05260964
     atom    8 type  2   force =     0.00017608    0.00010166    0.05261017
     atom    9 type  1   force =    -0.00002310   -0.00001334    0.05223242
     atom   10 type  1   force =     0.00002304    0.00001330    0.05223315
     atom   11 type  2   force =    -0.00017647   -0.00010188    0.05261062
     atom   12 type  2   force =     0.00017669    0.00010201    0.05261045
     atom   13 type  1   force =    -0.00002274   -0.00001313    0.05223124
     atom   14 type  1   force =     0.00002345    0.00001354    0.05223132
     atom   15 type  2   force =    -0.00017705   -0.00010222    0.05260970
     atom   16 type  2   force =     0.00017656    0.00010194    0.05260875
     atom   17 type  1   force =    -0.00002282   -0.00001317    0.05223175
     atom   18 type  1   force =     0.00002257    0.00001303    0.05222972
     atom   19 type  2   force =    -0.00017714   -0.00010227    0.05260980
     atom   20 type  2   force =     0.00017685    0.00010210    0.05261001
     atom   21 type  1   force =    -0.00002274   -0.00001313    0.05223253
     atom   22 type  1   force =     0.00002282    0.00001317    0.05223365
     atom   23 type  2   force =    -0.00017640   -0.00010184    0.05261106
     atom   24 type  2   force =     0.00017609    0.00010167    0.05260918
     The ionic contribution  to forces
     atom    1 type  1   force =     0.00000001    0.00000001    0.48421522
     atom    2 type  1   force =     0.00000000    0.00000000    0.48421526
     atom    3 type  2   force =     0.00000001    0.00000000   -0.48421523
     atom    4 type  2   force =     0.00000000    0.00000000   -0.48421525
     atom    5 type  1   force =     0.00000001    0.00000001    0.48421526
     atom    6 type  1   force =     0.00000000    0.00000000    0.48421522
     atom    7 type  2   force =     0.00000001    0.00000000   -0.48421524
     atom    8 type  2   force =     0.00000000    0.00000000   -0.48421522
     atom    9 type  1   force =     0.00000001    0.00000001    0.48421522
     atom   10 type  1   force =     0.00000000    0.00000000    0.48421522
     atom   11 type  2   force =     0.00000001    0.00000000   -0.48421522
     atom   12 type  2   force =     0.00000000    0.00000000   -0.48421524
     atom   13 type  1   force =    -0.00000001   -0.00000000    0.48421522
     atom   14 type  1   force =    -0.00000000   -0.00000001    0.48421526
     atom   15 type  2   force =    -0.00000001    0.00000000   -0.48421523
     atom   16 type  2   force =    -0.00000000   -0.00000001   -0.48421524
     atom   17 type  1   force =    -0.00000001   -0.00000000    0.48421526
     atom   18 type  1   force =    -0.00000000   -0.00000001    0.48421522
     atom   19 type  2   force =    -0.00000001    0.00000000   -0.48421524
     atom   20 type  2   force =    -0.00000000   -0.00000001   -0.48421522
     atom   21 type  1   force =    -0.00000001   -0.00000000    0.48421522
     atom   22 type  1   force =    -0.00000000   -0.00000001    0.48421522
     atom   23 type  2   force =    -0.00000001    0.00000000   -0.48421522
     atom   24 type  2   force =    -0.00000000   -0.00000001   -0.48421523
     The local contribution  to forces
     atom    1 type  1   force =     0.00003643    0.00002103   -0.52528936
     atom    2 type  1   force =    -0.00003468   -0.00002002   -0.52528694
     atom    3 type  2   force =     0.00017180    0.00009919    0.42466155
     atom    4 type  2   force =    -0.00017253   -0.00009961    0.42465908
     atom    5 type  1   force =     0.00003614    0.00002087   -0.52528745
     atom    6 type  1   force =    -0.00003641   -0.00002102   -0.52528372
     atom    7 type  2   force =     0.00017336    0.00010009    0.42465976
     atom    8 type  2   force =    -0.00017250   -0.00009959    0.42465947
     atom    9 type  1   force =     0.00003597    0.00002077   -0.52528739
     atom   10 type  1   force =    -0.00003549   -0.00002049   -0.52528780
     atom   11 type  2   force =     0.00017283    0.00009979    0.42466106
     atom   12 type  2   force =    -0.00017212   -0.00009937    0.42465939
     atom   13 type  1   force =     0.00003424    0.00001987   -0.52528768
     atom   14 type  1   force =    -0.00003654   -0.00002110   -0.52528540
     atom   15 type  2   force =     0.00017267    0.00009971    0.42466079
     atom   16 type  2   force =    -0.00017226   -0.00009945    0.42466003
     atom   17 type  1   force =     0.00003423    0.00001986   -0.52528755
     atom   18 type  1   force =    -0.00003413   -0.00001971   -0.52528410
     atom   19 type  2   force =     0.00017221    0.00009945    0.42465956
     atom   20 type  2   force =    -0.00017249   -0.00009959    0.42466002
     atom   21 type  1   force =     0.00003483    0.00002021   -0.52528808
     atom   22 type  1   force =    -0.00003501   -0.00002021   -0.52528917
     atom   23 type  2   force =     0.00017246    0.00009960    0.42466060
     atom   24 type  2   force =    -0.00017240   -0.00009953    0.42466070
     The core correction contribution to forces
     atom    1 type  1   force =    -0.00000532   -0.00000307   -0.00379292
     atom    2 type  1   force =     0.00000522    0.00000301   -0.00379280
     atom    3 type  2   force =     0.00000201    0.00000116   -0.00042092
     atom    4 type  2   force =    -0.00000201   -0.00000116   -0.00042092
     atom    5 type  1   force =    -0.00000526   -0.00000304   -0.00379281
     atom    6 type  1   force =     0.00000531    0.00000306   -0.00379293
     atom    7 type  2   force =     0.00000201    0.00000116   -0.00042091
     atom    8 type  2   force =    -0.00000200   -0.00000116   -0.00042093
     atom    9 type  1   force =    -0.00000526   -0.00000304   -0.00379287
     atom   10 type  1   force =     0.00000528    0.00000305   -0.00379286
     atom   11 type  2   force =     0.00000201    0.00000116   -0.00042092
     atom   12 type  2   force =    -0.00000201   -0.00000116   -0.00042093
     atom   13 type  1   force =    -0.00000519   -0.00000298   -0.00379293
     atom   14 type  1   force =     0.00000527    0.00000305   -0.00379290
     atom   15 type  2   force =     0.00000201    0.00000116   -0.00042092
     atom   16 type  2   force =    -0.00000201   -0.00000116   -0.00042090
     atom   17 type  1   force =    -0.00000525   -0.00000302   -0.00379285
     atom   18 type  1   force =     0.00000521    0.00000301   -0.00379294
     atom   19 type  2   force =     0.00000202    0.00000116   -0.00042091
     atom   20 type  2   force =    -0.00000201   -0.00000116   -0.00042093
     atom   21 type  1   force =    -0.00000525   -0.00000302   -0.00379283
     atom   22 type  1   force =     0.00000523    0.00000302   -0.00379288
     atom   23 type  2   force =     0.00000201    0.00000116   -0.00042093
     atom   24 type  2   force =    -0.00000201   -0.00000116   -0.00042091
     The Hubbard contrib.    to forces
     atom    1 type  1   force =     0.00000000    0.00000000    0.00000000
     atom    2 type  1   force =     0.00000000    0.00000000    0.00000000
     atom    3 type  2   force =     0.00000000    0.00000000    0.00000000
     atom    4 type  2   force =     0.00000000    0.00000000    0.00000000
     atom    5 type  1   force =     0.00000000    0.00000000    0.00000000
     atom    6 type  1   force =     0.00000000    0.00000000    0.00000000
     atom    7 type  2   force =     0.00000000    0.00000000    0.00000000
     atom    8 type  2   force =     0.00000000    0.00000000    0.00000000
     atom    9 type  1   force =     0.00000000    0.00000000    0.00000000
     atom   10 type  1   force =     0.00000000    0.00000000    0.00000000
     atom   11 type  2   force =     0.00000000    0.00000000    0.00000000
     atom   12 type  2   force =     0.00000000    0.00000000    0.00000000
     atom   13 type  1   force =     0.00000000    0.00000000    0.00000000
     atom   14 type  1   force =     0.00000000    0.00000000    0.00000000
     atom   15 type  2   force =     0.00000000    0.00000000    0.00000000
     atom   16 type  2   force =     0.00000000    0.00000000    0.00000000
     atom   17 type  1   force =     0.00000000    0.00000000    0.00000000
     atom   18 type  1   force =     0.00000000    0.00000000    0.00000000
     atom   19 type  2   force =     0.00000000    0.00000000    0.00000000
     atom   20 type  2   force =     0.00000000    0.00000000    0.00000000
     atom   21 type  1   force =     0.00000000    0.00000000    0.00000000
     atom   22 type  1   force =     0.00000000    0.00000000    0.00000000
     atom   23 type  2   force =     0.00000000    0.00000000    0.00000000
     atom   24 type  2   force =     0.00000000    0.00000000    0.00000000
     The SCF correction term to forces
     atom    1 type  1   force =    -0.00000223   -0.00000129   -0.00000055
     atom    2 type  1   force =     0.00000126    0.00000073   -0.00000980
     atom    3 type  2   force =     0.00000001    0.00000001   -0.00000072
     atom    4 type  2   force =     0.00000028    0.00000016    0.00000237
     atom    5 type  1   force =    -0.00000361   -0.00000208   -0.00000382
     atom    6 type  1   force =     0.00000184    0.00000106   -0.00000522
     atom    7 type  2   force =    -0.00000164   -0.00000095   -0.00000065
     atom    8 type  2   force =     0.00000020    0.00000012    0.00000035
     atom    9 type  1   force =    -0.00000167   -0.00000097   -0.00000973
     atom   10 type  1   force =    -0.00000018   -0.00000010   -0.00001185
     atom   11 type  2   force =    -0.00000056   -0.00000032   -0.00000075
     atom   12 type  2   force =     0.00000054    0.00000031   -0.00000067
     atom   13 type  1   force =     0.00000014    0.00000008   -0.00000037
     atom   14 type  1   force =    -0.00000006   -0.00000003   -0.00000996
     atom   15 type  2   force =    -0.00000114   -0.00000066   -0.00000078
     atom   16 type  2   force =     0.00000062    0.00000036    0.00000189
     atom   17 type  1   force =     0.00000252    0.00000145   -0.00000541
     atom   18 type  1   force =    -0.00000058   -0.00000034   -0.00000478
     atom   19 type  2   force =     0.00000049    0.00000028    0.00000085
     atom   20 type  2   force =     0.00000074    0.00000043   -0.00000177
     atom   21 type  1   force =    -0.00000024   -0.00000014   -0.00000843
     atom   22 type  1   force =     0.00000125    0.00000072   -0.00000804
     atom   23 type  2   force =    -0.00000027   -0.00000015   -0.00000151
     atom   24 type  2   force =     0.00000007    0.00000004   -0.00000171

     Total force =     0.036073     Total SCF correction =     0.000027

     General routines

     Parallel routines

   This run was terminated on:   1:29: 9   5Sep2025

   JOB DONE.
Note: The following floating-point exceptions are signalling: IEEE_UNDERFLOW_FLAG IEEE_DENORMAL
Note: The following floating-point exceptions are signalling: IEEE_UNDERFLOW_FLAG IEEE_DENORMAL
Note: The following floating-point exceptions are signalling: IEEE_UNDERFLOW_FLAG IEEE_DENORMAL
Note: The following floating-point exceptions are signalling: IEEE_UNDERFLOW_FLAG IEEE_DENORMAL
Note: The following floating-point exceptions are signalling: IEEE_UNDERFLOW_FLAG IEEE_DENORMAL
Note: The following floating-point exceptions are signalling: IEEE_UNDERFLOW_FLAG IEEE_DENORMAL
Note: The following floating-point exceptions are signalling: IEEE_UNDERFLOW_FLAG IEEE_DENORMAL
Note: The following floating-point exceptions are signalling: IEEE_UNDERFLOW_FLAG IEEE_DENORMAL
Note: The following floating-point exceptions are signalling: IEEE_UNDERFLOW_FLAG IEEE_DENORMAL
Note: The following floating-point exceptions are signalling: IEEE_UNDERFLOW_FLAG IEEE_DENORMAL
Note: The following floating-point exceptions are signalling: IEEE_UNDERFLOW_FLAG IEEE_DENORMAL
Note: The following floating-point exceptions are signalling: IEEE_UNDERFLOW_FLAG IEEE_DENORMAL
Note: The following floating-point exceptions are signalling: IEEE_UNDERFLOW_FLAG IEEE_DENORMAL
Note: The following floating-point exceptions are signalling: IEEE_UNDERFLOW_FLAG IEEE_DENORMAL
Note: The following floating-point exceptions are signalling: IEEE_UNDERFLOW_FLAG IEEE_DENORMAL
Note: The following floating-point exceptions are signalling: IEEE_UNDERFLOW_FLAG IEEE_DENORMAL
Note: The following floating-point exceptions are signalling: IEEE_UNDERFLOW_FLAG IEEE_DENORMAL
Note: The following floating-point exceptions are signalling: IEEE_UNDERFLOW_FLAG IEEE_DENORMAL
Note: The following floating-point exceptions are signalling: IEEE_UNDERFLOW_FLAG IEEE_DENORMAL
Note: The following floating-point exceptions are signalling: IEEE_UNDERFLOW_FLAG IEEE_DENORMAL
Note: The following floating-point exceptions are signalling: IEEE_UNDERFLOW_FLAG IEEE_DENORMAL
Note: The following floating-point exceptions are signalling: IEEE_UNDERFLOW_FLAG IEEE_DENORMAL
Note: The following floating-point exceptions are signalling: IEEE_UNDERFLOW_FLAG IEEE_DENORMAL
Note: The following floating-point exceptions are signalling: IEEE_UNDERFLOW_FLAG IEEE_DENORMAL
Note: The following floating-point exceptions are signalling: IEEE_UNDERFLOW_FLAG IEEE_DENORMAL
Note: The following floating-point exceptions are signalling: IEEE_UNDERFLOW_FLAG IEEE_DENORMAL
Note: The following floating-point exceptions are signalling: IEEE_UNDERFLOW_FLAG IEEE_DENORMAL
Note: The following floating-point exceptions are signalling: IEEE_UNDERFLOW_FLAG IEEE_DENORMAL
Note: The following floating-point exceptions are signalling: IEEE_UNDERFLOW_FLAG IEEE_DENORMAL
Note: The following floating-point exceptions are signalling: IEEE_UNDERFLOW_FLAG IEEE_DENORMAL
Note: The following floating-point exceptions are signalling: IEEE_UNDERFLOW_FLAG IEEE_DENORMAL
Note: The following floating-point exceptions are signalling: IEEE_UNDERFLOW_FLAG IEEE_DENORMAL