     Program PWSCF v.7.0 starts on  5Sep2025 at  9:22:29

     K-points division:     npool     =       8
     R & G space division:  proc/nbgrp/npool/nimage =       4

     Reading input from /home/jvc/QEspresso7.2/ZnO_database/scripts/cell213.in/ZnO-3.34-1.61-213.in
Warning: card &CELL ignored
Warning: card / ignored
Warning: card &FCP ignored
Warning: card / ignored
Warning: card &RISM ignored
Warning: card / ignored

     Current dimensions of program PWSCF are:
     Max number of different atomic species (ntypx) = 10
     Max number of k-points (npk) =  40000
     Max angular momentum in pseudopotentials (lmaxx) =  4
     file Zn.upf: wavefunction(s)  3D renormalized
     Found identity + (  0.0000  0.0000  0.3333) symmetry
     This is a supercell, fractional translations are disabled
     Message from routine setup:
     using ibrav=0 with symmetry is DISCOURAGED, use correct ibrav instead

     Using Slab Decomposition

     bravais-lattice index     =            0
     lattice parameter (alat)  =      12.6049  a.u.
     unit-cell volume          =    2099.9364 (a.u.)^3
     number of atoms/cell      =           24
     number of atomic types    =            2
     number of electrons       =       216.00
     number of Kohn-Sham states=          108
     kinetic-energy cutoff     =      50.0000  Ry
     charge density cutoff     =     400.0000  Ry
     scf convergence threshold =      1.0E-08
     mixing beta               =       0.3000
     number of iterations used =            8  plain     mixing
     Exchange-correlation= PBE
                           (   1   4   3   4   0   0   0)

     celldm(1)=  12.604862  celldm(2)=   0.000000  celldm(3)=   0.000000
     celldm(4)=   0.000000  celldm(5)=   0.000000  celldm(6)=   0.000000

     crystal axes: (cart. coord. in units of alat)
               a(1) = (   1.000000   0.000000   0.000000 )
               a(2) = (  -0.250000   0.433013   0.000000 )
               a(3) = (   0.000000   0.000000   2.421538 )

     reciprocal axes: (cart. coord. in units 2 pi/alat)
               b(1) = (  1.000000  0.577350 -0.000000 )
               b(2) = (  0.000000  2.309401  0.000000 )
               b(3) = (  0.000000 -0.000000  0.412961 )

     PseudoPot. # 1 for Zn read from file:
     /home/jvc/QEspresso7.2/ZnO_database/pseudos/Zn.upf
     MD5 check sum: 7f56cabf9682ed8c977c2f7d0c5985c5
     Pseudo is Ultrasoft + core correction, Zval = 12.0
     Generated using &quot;atomic&quot; code by A. Dal Corso  v.6.2.2
     Using radial grid of 1201 points,  6 beta functions with:
                l(1) =   0
                l(2) =   0
                l(3) =   1
                l(4) =   1
                l(5) =   2
                l(6) =   2
     Q(r) pseudized with 0 coefficients

     PseudoPot. # 2 for O  read from file:
     /home/jvc/QEspresso7.2/ZnO_database/pseudos/O.upf
     MD5 check sum: 91400c9766925bcf19f520983a725ff0
     Pseudo is Ultrasoft + core correction, Zval =  6.0
     Generated using &quot;atomic&quot; code by A. Dal Corso  v.6.3MaX
     Using radial grid of 1095 points,  4 beta functions with:
                l(1) =   0
                l(2) =   0
                l(3) =   1
                l(4) =   1
     Q(r) pseudized with 0 coefficients

     atomic species   valence    mass     pseudopotential
        Zn            12.00    65.38000     Zn( 1.00)
        O              6.00    15.99900     O ( 1.00)

      2 Sym. Ops. (no inversion) found

                                    s                        frac. trans.

      isym =  1     identity

 cryst.   s( 1) = (     1          0          0      )
                  (     0          1          0      )
                  (     0          0          1      )

 cart.    s( 1) = (  1.0000000  0.0000000  0.0000000 )
                  (  0.0000000  1.0000000  0.0000000 )
                  (  0.0000000  0.0000000  1.0000000 )

      isym =  2     inv. 180 deg rotation - cryst. axis [0,1,0]

 cryst.   s( 2) = (     1          2          0      )
                  (     0         -1          0      )
                  (     0          0          1      )

 cart.    s( 2) = (  0.5000000  0.8660254  0.0000000 )
                  (  0.8660254 -0.5000000  0.0000000 )
                  (  0.0000000  0.0000000  1.0000000 )

   Cartesian axes

     site n.     atom                  positions (alat units)
         1           Zn  tau(   1) = (   0.2500000   0.1443376   0.4041010  )
         2           Zn  tau(   2) = (  -0.0000000   0.2886751   0.0005114  )
         3           O   tau(   3) = (   0.2500000   0.1443376   0.7100565  )
         4           O   tau(   4) = (  -0.0000000   0.2886751   0.3064669  )
         5           Zn  tau(   5) = (   0.2500000   0.1443376   1.2112802  )
         6           Zn  tau(   6) = (  -0.0000000   0.2886751   0.8076906  )
         7           O   tau(   7) = (   0.2500000   0.1443376   1.5172357  )
         8           O   tau(   8) = (  -0.0000000   0.2886751   1.1136461  )
         9           Zn  tau(   9) = (   0.2500000   0.1443376   2.0184594  )
        10           Zn  tau(  10) = (  -0.0000000   0.2886751   1.6148698  )
        11           O   tau(  11) = (   0.2500000   0.1443376   2.3244148  )
        12           O   tau(  12) = (  -0.0000000   0.2886751   1.9208253  )
        13           Zn  tau(  13) = (   0.7500000   0.1443376   0.4041010  )
        14           Zn  tau(  14) = (   0.5000000   0.2886751   0.0005114  )
        15           O   tau(  15) = (   0.7500000   0.1443376   0.7100565  )
        16           O   tau(  16) = (   0.5000000   0.2886751   0.3064669  )
        17           Zn  tau(  17) = (   0.7500000   0.1443376   1.2112802  )
        18           Zn  tau(  18) = (   0.5000000   0.2886751   0.8076906  )
        19           O   tau(  19) = (   0.7500000   0.1443376   1.5172357  )
        20           O   tau(  20) = (   0.5000000   0.2886751   1.1136461  )
        21           Zn  tau(  21) = (   0.7500000   0.1443376   2.0184594  )
        22           Zn  tau(  22) = (   0.5000000   0.2886751   1.6148698  )
        23           O   tau(  23) = (   0.7500000   0.1443376   2.3244148  )
        24           O   tau(  24) = (   0.5000000   0.2886751   1.9208253  )

   Crystallographic axes

     site n.     atom                  positions (cryst. coord.)
         1           Zn  tau(   1) = (  0.3333333  0.3333333  0.1668779  )
         2           Zn  tau(   2) = (  0.1666667  0.6666667  0.0002112  )
         3           O   tau(   3) = (  0.3333333  0.3333333  0.2932255  )
         4           O   tau(   4) = (  0.1666667  0.6666667  0.1265588  )
         5           Zn  tau(   5) = (  0.3333333  0.3333333  0.5002112  )
         6           Zn  tau(   6) = (  0.1666667  0.6666667  0.3335445  )
         7           O   tau(   7) = (  0.3333333  0.3333333  0.6265588  )
         8           O   tau(   8) = (  0.1666667  0.6666667  0.4598921  )
         9           Zn  tau(   9) = (  0.3333333  0.3333333  0.8335445  )
        10           Zn  tau(  10) = (  0.1666667  0.6666667  0.6668779  )
        11           O   tau(  11) = (  0.3333333  0.3333333  0.9598921  )
        12           O   tau(  12) = (  0.1666667  0.6666667  0.7932255  )
        13           Zn  tau(  13) = (  0.8333333  0.3333333  0.1668779  )
        14           Zn  tau(  14) = (  0.6666667  0.6666667  0.0002112  )
        15           O   tau(  15) = (  0.8333333  0.3333333  0.2932255  )
        16           O   tau(  16) = (  0.6666667  0.6666667  0.1265588  )
        17           Zn  tau(  17) = (  0.8333333  0.3333333  0.5002112  )
        18           Zn  tau(  18) = (  0.6666667  0.6666667  0.3335445  )
        19           O   tau(  19) = (  0.8333333  0.3333333  0.6265588  )
        20           O   tau(  20) = (  0.6666667  0.6666667  0.4598921  )
        21           Zn  tau(  21) = (  0.8333333  0.3333333  0.8335445  )
        22           Zn  tau(  22) = (  0.6666667  0.6666667  0.6668779  )
        23           O   tau(  23) = (  0.8333333  0.3333333  0.9598921  )
        24           O   tau(  24) = (  0.6666667  0.6666667  0.7932255  )

     number of k points=    80
                       cart. coord. in units 2pi/alat
        k(    1) = (   0.0000000   0.0000000   0.0000000), wk =   0.0092593
        k(    2) = (   0.0000000   0.0000000   0.0688268), wk =   0.0185185
        k(    3) = (   0.0000000   0.0000000   0.1376536), wk =   0.0185185
        k(    4) = (   0.0000000   0.0000000  -0.2064804), wk =   0.0092593
        k(    5) = (   0.0000000   0.3849002   0.0000000), wk =   0.0370370
        k(    6) = (   0.0000000   0.3849002   0.0688268), wk =   0.0370370
        k(    7) = (   0.0000000   0.3849002   0.1376536), wk =   0.0370370
        k(    8) = (   0.0000000   0.3849002  -0.2064804), wk =   0.0370370
        k(    9) = (   0.0000000   0.7698004   0.0000000), wk =   0.0370370
        k(   10) = (   0.0000000   0.7698004   0.0688268), wk =   0.0370370
        k(   11) = (   0.0000000   0.7698004   0.1376536), wk =   0.0370370
        k(   12) = (   0.0000000   0.7698004  -0.2064804), wk =   0.0370370
        k(   13) = (   0.0000000  -1.1547005   0.0000000), wk =   0.0092593
        k(   14) = (   0.0000000  -1.1547005   0.0688268), wk =   0.0185185
        k(   15) = (   0.0000000  -1.1547005   0.1376536), wk =   0.0185185
        k(   16) = (   0.0000000  -1.1547005  -0.2064804), wk =   0.0092593
        k(   17) = (   0.1666667   0.0962250   0.0000000), wk =   0.0185185
        k(   18) = (   0.1666667   0.0962250   0.0688268), wk =   0.0185185
        k(   19) = (   0.1666667   0.0962250   0.1376536), wk =   0.0185185
        k(   20) = (   0.1666667   0.0962250  -0.2064804), wk =   0.0185185
        k(   21) = (   0.1666667   0.4811252   0.0000000), wk =   0.0370370
        k(   22) = (   0.1666667   0.4811252   0.0688268), wk =   0.0370370
        k(   23) = (   0.1666667   0.4811252   0.1376536), wk =   0.0370370
        k(   24) = (   0.1666667   0.4811252  -0.2064804), wk =   0.0370370
        k(   25) = (   0.1666667   0.8660254   0.0000000), wk =   0.0185185
        k(   26) = (   0.1666667   0.8660254   0.0688268), wk =   0.0370370
        k(   27) = (   0.1666667   0.8660254   0.1376536), wk =   0.0370370
        k(   28) = (   0.1666667   0.8660254  -0.2064804), wk =   0.0185185
        k(   29) = (   0.1666667  -1.0584755   0.0000000), wk =   0.0185185
        k(   30) = (   0.1666667  -1.0584755   0.0688268), wk =   0.0185185
        k(   31) = (   0.1666667  -1.0584755   0.1376536), wk =   0.0185185
        k(   32) = (   0.1666667  -1.0584755  -0.2064804), wk =   0.0185185
        k(   33) = (   0.1666667  -0.6735753   0.0000000), wk =   0.0370370
        k(   34) = (   0.1666667  -0.6735753   0.0688268), wk =   0.0370370
        k(   35) = (   0.1666667  -0.6735753   0.1376536), wk =   0.0370370
        k(   36) = (   0.1666667  -0.6735753  -0.2064804), wk =   0.0370370
        k(   37) = (   0.1666667  -0.2886751   0.0000000), wk =   0.0185185
        k(   38) = (   0.1666667  -0.2886751   0.0688268), wk =   0.0370370
        k(   39) = (   0.1666667  -0.2886751   0.1376536), wk =   0.0370370
[...]
     estimated scf accuracy    <          2.1E-09 Ry

     The total energy is the sum of the following terms:
     one-electron contribution =    -967.73498790 Ry
     hartree contribution      =     724.22925589 Ry
     xc contribution           =    -656.56898049 Ry
     ewald contribution        =   -1269.72711683 Ry

     convergence has been achieved in  28 iterations

     Forces acting on atoms (cartesian axes, Ry/au):

     atom    1 type  1   force =     0.00001129    0.00000652   -0.00004495
     atom    2 type  1   force =     0.00000025    0.00000014   -0.00005252
     atom    3 type  2   force =    -0.00000271   -0.00000157    0.00004290
     atom    4 type  2   force =     0.00000246    0.00000142    0.00004633
     atom    5 type  1   force =     0.00000257    0.00000148   -0.00005820
     atom    6 type  1   force =    -0.00000513   -0.00000296   -0.00004823
     atom    7 type  2   force =    -0.00000245   -0.00000141    0.00004627
     atom    8 type  2   force =     0.00000270    0.00000156    0.00004627
     atom    9 type  1   force =    -0.00000342   -0.00000197   -0.00003887
     atom   10 type  1   force =    -0.00000386   -0.00000223   -0.00002828
     atom   11 type  2   force =    -0.00000273   -0.00000158    0.00004611
     atom   12 type  2   force =     0.00000225    0.00000130    0.00004308
     atom   13 type  1   force =    -0.00000501   -0.00000289   -0.00004366
     atom   14 type  1   force =    -0.00000655   -0.00000378   -0.00003925
     atom   15 type  2   force =    -0.00000248   -0.00000143    0.00004327
     atom   16 type  2   force =     0.00000250    0.00000144    0.00004641
     atom   17 type  1   force =     0.00000419    0.00000242   -0.00005700
     atom   18 type  1   force =    -0.00000070   -0.00000040   -0.00005256
     atom   19 type  2   force =    -0.00000277   -0.00000160    0.00004649
     atom   20 type  2   force =     0.00000226    0.00000130    0.00004602
     atom   21 type  1   force =     0.00000942    0.00000544   -0.00004223
     atom   22 type  1   force =    -0.00000227   -0.00000131   -0.00003563
     atom   23 type  2   force =    -0.00000246   -0.00000142    0.00004559
     atom   24 type  2   force =     0.00000265    0.00000153    0.00004263
     The non-local contrib.  to forces
     atom    1 type  1   force =    -0.00001029   -0.00000594   -0.00462204
     atom    2 type  1   force =     0.00001442    0.00000833   -0.00462215
     atom    3 type  2   force =    -0.00018286   -0.00010557    0.00596052
     atom    4 type  2   force =     0.00018193    0.00010503    0.00596454
     atom    5 type  1   force =    -0.00001415   -0.00000817   -0.00462735
     atom    6 type  1   force =     0.00001299    0.00000750   -0.00462731
     atom    7 type  2   force =    -0.00018071   -0.00010433    0.00596136
     atom    8 type  2   force =     0.00018283    0.00010556    0.00597136
     atom    9 type  1   force =    -0.00001566   -0.00000904   -0.00462137
     atom   10 type  1   force =     0.00001305    0.00000754   -0.00461496
     atom   11 type  2   force =    -0.00018206   -0.00010511    0.00596725
     atom   12 type  2   force =     0.00018116    0.00010459    0.00595568
     atom   13 type  1   force =    -0.00001665   -0.00000961   -0.00462135
     atom   14 type  1   force =     0.00001264    0.00000730   -0.00461734
     atom   15 type  2   force =    -0.00018033   -0.00010412    0.00596253
     atom   16 type  2   force =     0.00018160    0.00010485    0.00596367
     atom   17 type  1   force =    -0.00001279   -0.00000738   -0.00462719
     atom   18 type  1   force =     0.00001413    0.00000816   -0.00462976
     atom   19 type  2   force =    -0.00018256   -0.00010540    0.00596232
     atom   20 type  2   force =     0.00018070    0.00010433    0.00597100
     atom   21 type  1   force =    -0.00001159   -0.00000669   -0.00462286
     atom   22 type  1   force =     0.00001403    0.00000810   -0.00461673
     atom   23 type  2   force =    -0.00018142   -0.00010474    0.00596396
     atom   24 type  2   force =     0.00018240    0.00010531    0.00595553
     The ionic contribution  to forces
     atom    1 type  1   force =     0.00000000    0.00000001    0.06028144
     atom    2 type  1   force =     0.00000001    0.00000000    0.06028148
     atom    3 type  2   force =     0.00000000    0.00000000   -0.06028145
     atom    4 type  2   force =     0.00000001    0.00000000   -0.06028146
     atom    5 type  1   force =     0.00000000    0.00000001    0.06028148
     atom    6 type  1   force =     0.00000001    0.00000000    0.06028144
     atom    7 type  2   force =     0.00000000    0.00000000   -0.06028146
     atom    8 type  2   force =     0.00000001    0.00000000   -0.06028144
     atom    9 type  1   force =     0.00000000    0.00000001    0.06028144
     atom   10 type  1   force =     0.00000001    0.00000000    0.06028144
     atom   11 type  2   force =     0.00000000    0.00000000   -0.06028144
     atom   12 type  2   force =     0.00000001    0.00000000   -0.06028145
     atom   13 type  1   force =    -0.00000002   -0.00000000    0.06028144
     atom   14 type  1   force =     0.00000000   -0.00000001    0.06028147
     atom   15 type  2   force =    -0.00000001    0.00000000   -0.06028145
     atom   16 type  2   force =     0.00000000   -0.00000001   -0.06028146
     atom   17 type  1   force =    -0.00000002   -0.00000000    0.06028148
     atom   18 type  1   force =     0.00000000   -0.00000001    0.06028143
     atom   19 type  2   force =    -0.00000001    0.00000000   -0.06028146
     atom   20 type  2   force =     0.00000000   -0.00000001   -0.06028144
     atom   21 type  1   force =    -0.00000002   -0.00000000    0.06028144
     atom   22 type  1   force =     0.00000000   -0.00000001    0.06028144
     atom   23 type  2   force =    -0.00000001    0.00000000   -0.06028144
     atom   24 type  2   force =     0.00000000   -0.00000001   -0.06028145
     The local contribution  to forces
     atom    1 type  1   force =     0.00000838    0.00000484   -0.05611334
     atom    2 type  1   force =    -0.00002838   -0.00001649   -0.05609233
     atom    3 type  2   force =     0.00017720    0.00010230    0.05443425
     atom    4 type  2   force =    -0.00017802   -0.00010281    0.05442972
     atom    5 type  1   force =     0.00002426    0.00001400   -0.05608218
     atom    6 type  1   force =    -0.00001911   -0.00001113   -0.05610031
     atom    7 type  2   force =     0.00017682    0.00010209    0.05442155
     atom    8 type  2   force =    -0.00017721   -0.00010234    0.05443802
     atom    9 type  1   force =     0.00003320    0.00001917   -0.05611412
     atom   10 type  1   force =    -0.00002115   -0.00001231   -0.05613950
     atom   11 type  2   force =     0.00017922    0.00010347    0.05443305
     atom   12 type  2   force =    -0.00017724   -0.00010236    0.05442667
     atom   13 type  1   force =     0.00003758    0.00002180   -0.05611532
     atom   14 type  1   force =    -0.00001771   -0.00001033   -0.05611366
     atom   15 type  2   force =     0.00017746    0.00010248    0.05443364
     atom   16 type  2   force =    -0.00017721   -0.00010234    0.05442826
     atom   17 type  1   force =     0.00002159    0.00001257   -0.05608352
     atom   18 type  1   force =    -0.00002713   -0.00001576   -0.05609371
     atom   19 type  2   force =     0.00017787    0.00010272    0.05442259
     atom   20 type  2   force =    -0.00017715   -0.00010230    0.05443873
     atom   21 type  1   force =     0.00001317    0.00000770   -0.05610924
     atom   22 type  1   force =    -0.00002497   -0.00001452   -0.05612837
     atom   23 type  2   force =     0.00017603    0.00010166    0.05443338
     atom   24 type  2   force =    -0.00017826   -0.00010295    0.05442804
     The core correction contribution to forces
     atom    1 type  1   force =    -0.00000460   -0.00000257    0.00040162
     atom    2 type  1   force =     0.00000531    0.00000310    0.00040130
     atom    3 type  2   force =     0.00000209    0.00000121   -0.00006725
     atom    4 type  2   force =    -0.00000207   -0.00000119   -0.00006642
     atom    5 type  1   force =    -0.00000500   -0.00000281    0.00040140
     atom    6 type  1   force =     0.00000498    0.00000291    0.00040392
     atom    7 type  2   force =     0.00000205    0.00000119   -0.00006638
     atom    8 type  2   force =    -0.00000208   -0.00000120   -0.00006881
     atom    9 type  1   force =    -0.00000529   -0.00000297    0.00040396
     atom   10 type  1   force =     0.00000510    0.00000297    0.00040213
     atom   11 type  2   force =     0.00000208    0.00000121   -0.00006876
     atom   12 type  2   force =    -0.00000206   -0.00000118   -0.00006720
     atom   13 type  1   force =    -0.00000557   -0.00000324    0.00040160
     atom   14 type  1   force =     0.00000485    0.00000270    0.00040188
     atom   15 type  2   force =     0.00000205    0.00000118   -0.00006728
     atom   16 type  2   force =    -0.00000207   -0.00000120   -0.00006640
     atom   17 type  1   force =    -0.00000515   -0.00000300    0.00040141
     atom   18 type  1   force =     0.00000517    0.00000289    0.00040390
     atom   19 type  2   force =     0.00000208    0.00000119   -0.00006640
     atom   20 type  2   force =    -0.00000205   -0.00000119   -0.00006880
     atom   21 type  1   force =    -0.00000486   -0.00000283    0.00040389
     atom   22 type  1   force =     0.00000507    0.00000283    0.00040179
     atom   23 type  2   force =     0.00000206    0.00000118   -0.00006872
     atom   24 type  2   force =    -0.00000208   -0.00000121   -0.00006719
     The Hubbard contrib.    to forces
     atom    1 type  1   force =     0.00000000    0.00000000    0.00000000
     atom    2 type  1   force =     0.00000000    0.00000000    0.00000000
     atom    3 type  2   force =     0.00000000    0.00000000    0.00000000
     atom    4 type  2   force =     0.00000000    0.00000000    0.00000000
     atom    5 type  1   force =     0.00000000    0.00000000    0.00000000
     atom    6 type  1   force =     0.00000000    0.00000000    0.00000000
     atom    7 type  2   force =     0.00000000    0.00000000    0.00000000
     atom    8 type  2   force =     0.00000000    0.00000000    0.00000000
     atom    9 type  1   force =     0.00000000    0.00000000    0.00000000
     atom   10 type  1   force =     0.00000000    0.00000000    0.00000000
     atom   11 type  2   force =     0.00000000    0.00000000    0.00000000
     atom   12 type  2   force =     0.00000000    0.00000000    0.00000000
     atom   13 type  1   force =     0.00000000    0.00000000    0.00000000
     atom   14 type  1   force =     0.00000000    0.00000000    0.00000000
     atom   15 type  2   force =     0.00000000    0.00000000    0.00000000
     atom   16 type  2   force =     0.00000000    0.00000000    0.00000000
     atom   17 type  1   force =     0.00000000    0.00000000    0.00000000
     atom   18 type  1   force =     0.00000000    0.00000000    0.00000000
     atom   19 type  2   force =     0.00000000    0.00000000    0.00000000
     atom   20 type  2   force =     0.00000000    0.00000000    0.00000000
     atom   21 type  1   force =     0.00000000    0.00000000    0.00000000
     atom   22 type  1   force =     0.00000000    0.00000000    0.00000000
     atom   23 type  2   force =     0.00000000    0.00000000    0.00000000
     atom   24 type  2   force =     0.00000000    0.00000000    0.00000000
     The SCF correction term to forces
     atom    1 type  1   force =     0.00001780    0.00001028    0.00000784
     atom    2 type  1   force =     0.00000896    0.00000518   -0.00002036
     atom    3 type  2   force =     0.00000091    0.00000053   -0.00000272
     atom    4 type  2   force =     0.00000068    0.00000039    0.00000040
     atom    5 type  1   force =    -0.00000253   -0.00000146   -0.00003109
     atom    6 type  1   force =    -0.00000392   -0.00000226   -0.00000551
     atom    7 type  2   force =    -0.00000057   -0.00000033    0.00001165
     atom    8 type  2   force =    -0.00000078   -0.00000045   -0.00001239
     atom    9 type  1   force =    -0.00001565   -0.00000904    0.00001167
     atom   10 type  1   force =    -0.00000078   -0.00000045    0.00004306
     atom   11 type  2   force =    -0.00000193   -0.00000112   -0.00000354
     atom   12 type  2   force =     0.00000044    0.00000025    0.00000984
     atom   13 type  1   force =    -0.00002034   -0.00001175    0.00001042
     atom   14 type  1   force =    -0.00000619   -0.00000358    0.00000885
     atom   15 type  2   force =    -0.00000160   -0.00000092   -0.00000371
     atom   16 type  2   force =     0.00000024    0.00000014    0.00000280
     atom   17 type  1   force =     0.00000057    0.00000033   -0.00002873
     atom   18 type  1   force =     0.00000726    0.00000419   -0.00001396
     atom   19 type  2   force =    -0.00000011   -0.00000007    0.00000990
     atom   20 type  2   force =     0.00000082    0.00000047   -0.00001302
     atom   21 type  1   force =     0.00001274    0.00000735    0.00000501
     atom   22 type  1   force =     0.00000373    0.00000215    0.00002670
     atom   23 type  2   force =     0.00000092    0.00000053   -0.00000113
     atom   24 type  2   force =     0.00000065    0.00000037    0.00000816

     Total force =     0.000224     Total SCF correction =     0.000089
     SCF correction compared to forces is large: reduce conv_thr to get better values

     General routines

     Parallel routines

   This run was terminated on:   9:43: 5   5Sep2025

   JOB DONE.
Note: The following floating-point exceptions are signalling: IEEE_UNDERFLOW_FLAG IEEE_DENORMAL
Note: The following floating-point exceptions are signalling: IEEE_UNDERFLOW_FLAG IEEE_DENORMAL
Note: The following floating-point exceptions are signalling: IEEE_UNDERFLOW_FLAG IEEE_DENORMAL
Note: The following floating-point exceptions are signalling: IEEE_UNDERFLOW_FLAG IEEE_DENORMAL
Note: The following floating-point exceptions are signalling: IEEE_UNDERFLOW_FLAG IEEE_DENORMAL
Note: The following floating-point exceptions are signalling: IEEE_UNDERFLOW_FLAG IEEE_DENORMAL
Note: The following floating-point exceptions are signalling: IEEE_UNDERFLOW_FLAG IEEE_DENORMAL
Note: The following floating-point exceptions are signalling: IEEE_UNDERFLOW_FLAG IEEE_DENORMAL
Note: The following floating-point exceptions are signalling: IEEE_UNDERFLOW_FLAG IEEE_DENORMAL
Note: The following floating-point exceptions are signalling: IEEE_UNDERFLOW_FLAG IEEE_DENORMAL
Note: The following floating-point exceptions are signalling: IEEE_UNDERFLOW_FLAG IEEE_DENORMAL
Note: The following floating-point exceptions are signalling: IEEE_UNDERFLOW_FLAG IEEE_DENORMAL
Note: The following floating-point exceptions are signalling: IEEE_UNDERFLOW_FLAG IEEE_DENORMAL
Note: The following floating-point exceptions are signalling: IEEE_UNDERFLOW_FLAG IEEE_DENORMAL
Note: The following floating-point exceptions are signalling: IEEE_UNDERFLOW_FLAG IEEE_DENORMAL
Note: The following floating-point exceptions are signalling: IEEE_UNDERFLOW_FLAG IEEE_DENORMAL
Note: The following floating-point exceptions are signalling: IEEE_UNDERFLOW_FLAG IEEE_DENORMAL
Note: The following floating-point exceptions are signalling: IEEE_UNDERFLOW_FLAG IEEE_DENORMAL
Note: The following floating-point exceptions are signalling: IEEE_UNDERFLOW_FLAG IEEE_DENORMAL
Note: The following floating-point exceptions are signalling: IEEE_UNDERFLOW_FLAG IEEE_DENORMAL
Note: The following floating-point exceptions are signalling: IEEE_UNDERFLOW_FLAG IEEE_DENORMAL
Note: The following floating-point exceptions are signalling: IEEE_UNDERFLOW_FLAG IEEE_DENORMAL
Note: The following floating-point exceptions are signalling: IEEE_UNDERFLOW_FLAG IEEE_DENORMAL
Note: The following floating-point exceptions are signalling: IEEE_UNDERFLOW_FLAG IEEE_DENORMAL
Note: The following floating-point exceptions are signalling: IEEE_UNDERFLOW_FLAG IEEE_DENORMAL
Note: The following floating-point exceptions are signalling: IEEE_UNDERFLOW_FLAG IEEE_DENORMAL
Note: The following floating-point exceptions are signalling: IEEE_UNDERFLOW_FLAG IEEE_DENORMAL
Note: The following floating-point exceptions are signalling: IEEE_UNDERFLOW_FLAG IEEE_DENORMAL
Note: The following floating-point exceptions are signalling: IEEE_UNDERFLOW_FLAG IEEE_DENORMAL
Note: The following floating-point exceptions are signalling: IEEE_UNDERFLOW_FLAG IEEE_DENORMAL
Note: The following floating-point exceptions are signalling: IEEE_UNDERFLOW_FLAG IEEE_DENORMAL
Note: The following floating-point exceptions are signalling: IEEE_UNDERFLOW_FLAG IEEE_DENORMAL