     Program PWSCF v.7.0 starts on  5Sep2025 at  7: 5:55

     K-points division:     npool     =       8
     R & G space division:  proc/nbgrp/npool/nimage =       4

     Reading input from /home/jvc/QEspresso7.2/ZnO_database/scripts/cell213.in/ZnO-3.27-1.78-213.in
Warning: card &CELL ignored
Warning: card / ignored
Warning: card &FCP ignored
Warning: card / ignored
Warning: card &RISM ignored
Warning: card / ignored

     Current dimensions of program PWSCF are:
     Max number of different atomic species (ntypx) = 10
     Max number of k-points (npk) =  40000
     Max angular momentum in pseudopotentials (lmaxx) =  4
     file Zn.upf: wavefunction(s)  3D renormalized
     Found identity + (  0.0000  0.0000  0.3333) symmetry
     This is a supercell, fractional translations are disabled
     Message from routine setup:
     using ibrav=0 with symmetry is DISCOURAGED, use correct ibrav instead

     Using Slab Decomposition

     bravais-lattice index     =            0
     lattice parameter (alat)  =      12.3577  a.u.
     unit-cell volume          =    2176.6987 (a.u.)^3
     number of atoms/cell      =           24
     number of atomic types    =            2
     number of electrons       =       216.00
     number of Kohn-Sham states=          108
     kinetic-energy cutoff     =      50.0000  Ry
     charge density cutoff     =     400.0000  Ry
     scf convergence threshold =      1.0E-08
     mixing beta               =       0.3000
     number of iterations used =            8  plain     mixing
     Exchange-correlation= PBE
                           (   1   4   3   4   0   0   0)

     celldm(1)=  12.357708  celldm(2)=   0.000000  celldm(3)=   0.000000
     celldm(4)=   0.000000  celldm(5)=   0.000000  celldm(6)=   0.000000

     crystal axes: (cart. coord. in units of alat)
               a(1) = (   1.000000   0.000000   0.000000 )
               a(2) = (  -0.250000   0.433013   0.000000 )
               a(3) = (   0.000000   0.000000   2.663691 )

     reciprocal axes: (cart. coord. in units 2 pi/alat)
               b(1) = (  1.000000  0.577350 -0.000000 )
               b(2) = (  0.000000  2.309401  0.000000 )
               b(3) = (  0.000000 -0.000000  0.375419 )

     PseudoPot. # 1 for Zn read from file:
     /home/jvc/QEspresso7.2/ZnO_database/pseudos/Zn.upf
     MD5 check sum: 7f56cabf9682ed8c977c2f7d0c5985c5
     Pseudo is Ultrasoft + core correction, Zval = 12.0
     Generated using &quot;atomic&quot; code by A. Dal Corso  v.6.2.2
     Using radial grid of 1201 points,  6 beta functions with:
                l(1) =   0
                l(2) =   0
                l(3) =   1
                l(4) =   1
                l(5) =   2
                l(6) =   2
     Q(r) pseudized with 0 coefficients

     PseudoPot. # 2 for O  read from file:
     /home/jvc/QEspresso7.2/ZnO_database/pseudos/O.upf
     MD5 check sum: 91400c9766925bcf19f520983a725ff0
     Pseudo is Ultrasoft + core correction, Zval =  6.0
     Generated using &quot;atomic&quot; code by A. Dal Corso  v.6.3MaX
     Using radial grid of 1095 points,  4 beta functions with:
                l(1) =   0
                l(2) =   0
                l(3) =   1
                l(4) =   1
     Q(r) pseudized with 0 coefficients

     atomic species   valence    mass     pseudopotential
        Zn            12.00    65.38000     Zn( 1.00)
        O              6.00    15.99900     O ( 1.00)

      2 Sym. Ops. (no inversion) found

                                    s                        frac. trans.

      isym =  1     identity

 cryst.   s( 1) = (     1          0          0      )
                  (     0          1          0      )
                  (     0          0          1      )

 cart.    s( 1) = (  1.0000000  0.0000000  0.0000000 )
                  (  0.0000000  1.0000000  0.0000000 )
                  (  0.0000000  0.0000000  1.0000000 )

      isym =  2     inv. 180 deg rotation - cryst. axis [0,1,0]

 cryst.   s( 2) = (     1          2          0      )
                  (     0         -1          0      )
                  (     0          0          1      )

 cart.    s( 2) = (  0.5000000  0.8660254  0.0000000 )
                  (  0.8660254 -0.5000000  0.0000000 )
                  (  0.0000000  0.0000000  1.0000000 )

   Cartesian axes

     site n.     atom                  positions (alat units)
         1           Zn  tau(   1) = (   0.2500000   0.1443376   0.4445111  )
         2           Zn  tau(   2) = (  -0.0000000   0.2886751   0.0005626  )
         3           O   tau(   3) = (   0.2500000   0.1443376   0.7810621  )
         4           O   tau(   4) = (  -0.0000000   0.2886751   0.3371136  )
         5           Zn  tau(   5) = (   0.2500000   0.1443376   1.3324082  )
         6           Zn  tau(   6) = (  -0.0000000   0.2886751   0.8884597  )
         7           O   tau(   7) = (   0.2500000   0.1443376   1.6689592  )
         8           O   tau(   8) = (  -0.0000000   0.2886751   1.2250107  )
         9           Zn  tau(   9) = (   0.2500000   0.1443376   2.2203053  )
        10           Zn  tau(  10) = (  -0.0000000   0.2886751   1.7763568  )
        11           O   tau(  11) = (   0.2500000   0.1443376   2.5568563  )
        12           O   tau(  12) = (  -0.0000000   0.2886751   2.1129078  )
        13           Zn  tau(  13) = (   0.7500000   0.1443376   0.4445111  )
        14           Zn  tau(  14) = (   0.5000000   0.2886751   0.0005626  )
        15           O   tau(  15) = (   0.7500000   0.1443376   0.7810621  )
        16           O   tau(  16) = (   0.5000000   0.2886751   0.3371136  )
        17           Zn  tau(  17) = (   0.7500000   0.1443376   1.3324082  )
        18           Zn  tau(  18) = (   0.5000000   0.2886751   0.8884597  )
        19           O   tau(  19) = (   0.7500000   0.1443376   1.6689592  )
        20           O   tau(  20) = (   0.5000000   0.2886751   1.2250107  )
        21           Zn  tau(  21) = (   0.7500000   0.1443376   2.2203053  )
        22           Zn  tau(  22) = (   0.5000000   0.2886751   1.7763568  )
        23           O   tau(  23) = (   0.7500000   0.1443376   2.5568563  )
        24           O   tau(  24) = (   0.5000000   0.2886751   2.1129078  )

   Crystallographic axes

     site n.     atom                  positions (cryst. coord.)
         1           Zn  tau(   1) = (  0.3333333  0.3333333  0.1668779  )
         2           Zn  tau(   2) = (  0.1666667  0.6666667  0.0002112  )
         3           O   tau(   3) = (  0.3333333  0.3333333  0.2932255  )
         4           O   tau(   4) = (  0.1666667  0.6666667  0.1265588  )
         5           Zn  tau(   5) = (  0.3333333  0.3333333  0.5002112  )
         6           Zn  tau(   6) = (  0.1666667  0.6666667  0.3335445  )
         7           O   tau(   7) = (  0.3333333  0.3333333  0.6265588  )
         8           O   tau(   8) = (  0.1666667  0.6666667  0.4598921  )
         9           Zn  tau(   9) = (  0.3333333  0.3333333  0.8335445  )
        10           Zn  tau(  10) = (  0.1666667  0.6666667  0.6668779  )
        11           O   tau(  11) = (  0.3333333  0.3333333  0.9598921  )
        12           O   tau(  12) = (  0.1666667  0.6666667  0.7932255  )
        13           Zn  tau(  13) = (  0.8333333  0.3333333  0.1668779  )
        14           Zn  tau(  14) = (  0.6666667  0.6666667  0.0002112  )
        15           O   tau(  15) = (  0.8333333  0.3333333  0.2932255  )
        16           O   tau(  16) = (  0.6666667  0.6666667  0.1265588  )
        17           Zn  tau(  17) = (  0.8333333  0.3333333  0.5002112  )
        18           Zn  tau(  18) = (  0.6666667  0.6666667  0.3335445  )
        19           O   tau(  19) = (  0.8333333  0.3333333  0.6265588  )
        20           O   tau(  20) = (  0.6666667  0.6666667  0.4598921  )
        21           Zn  tau(  21) = (  0.8333333  0.3333333  0.8335445  )
        22           Zn  tau(  22) = (  0.6666667  0.6666667  0.6668779  )
        23           O   tau(  23) = (  0.8333333  0.3333333  0.9598921  )
        24           O   tau(  24) = (  0.6666667  0.6666667  0.7932255  )

     number of k points=    80
                       cart. coord. in units 2pi/alat
        k(    1) = (   0.0000000   0.0000000   0.0000000), wk =   0.0092593
        k(    2) = (   0.0000000   0.0000000   0.0625698), wk =   0.0185185
        k(    3) = (   0.0000000   0.0000000   0.1251396), wk =   0.0185185
        k(    4) = (   0.0000000   0.0000000  -0.1877094), wk =   0.0092593
        k(    5) = (   0.0000000   0.3849002   0.0000000), wk =   0.0370370
        k(    6) = (   0.0000000   0.3849002   0.0625698), wk =   0.0370370
        k(    7) = (   0.0000000   0.3849002   0.1251396), wk =   0.0370370
        k(    8) = (   0.0000000   0.3849002  -0.1877094), wk =   0.0370370
        k(    9) = (   0.0000000   0.7698004   0.0000000), wk =   0.0370370
        k(   10) = (   0.0000000   0.7698004   0.0625698), wk =   0.0370370
        k(   11) = (   0.0000000   0.7698004   0.1251396), wk =   0.0370370
        k(   12) = (   0.0000000   0.7698004  -0.1877094), wk =   0.0370370
        k(   13) = (   0.0000000  -1.1547005   0.0000000), wk =   0.0092593
        k(   14) = (   0.0000000  -1.1547005   0.0625698), wk =   0.0185185
        k(   15) = (   0.0000000  -1.1547005   0.1251396), wk =   0.0185185
        k(   16) = (   0.0000000  -1.1547005  -0.1877094), wk =   0.0092593
        k(   17) = (   0.1666667   0.0962250   0.0000000), wk =   0.0185185
        k(   18) = (   0.1666667   0.0962250   0.0625698), wk =   0.0185185
        k(   19) = (   0.1666667   0.0962250   0.1251396), wk =   0.0185185
        k(   20) = (   0.1666667   0.0962250  -0.1877094), wk =   0.0185185
        k(   21) = (   0.1666667   0.4811252   0.0000000), wk =   0.0370370
        k(   22) = (   0.1666667   0.4811252   0.0625698), wk =   0.0370370
        k(   23) = (   0.1666667   0.4811252   0.1251396), wk =   0.0370370
        k(   24) = (   0.1666667   0.4811252  -0.1877094), wk =   0.0370370
        k(   25) = (   0.1666667   0.8660254   0.0000000), wk =   0.0185185
        k(   26) = (   0.1666667   0.8660254   0.0625698), wk =   0.0370370
        k(   27) = (   0.1666667   0.8660254   0.1251396), wk =   0.0370370
        k(   28) = (   0.1666667   0.8660254  -0.1877094), wk =   0.0185185
        k(   29) = (   0.1666667  -1.0584755   0.0000000), wk =   0.0185185
        k(   30) = (   0.1666667  -1.0584755   0.0625698), wk =   0.0185185
        k(   31) = (   0.1666667  -1.0584755   0.1251396), wk =   0.0185185
        k(   32) = (   0.1666667  -1.0584755  -0.1877094), wk =   0.0185185
        k(   33) = (   0.1666667  -0.6735753   0.0000000), wk =   0.0370370
        k(   34) = (   0.1666667  -0.6735753   0.0625698), wk =   0.0370370
        k(   35) = (   0.1666667  -0.6735753   0.1251396), wk =   0.0370370
        k(   36) = (   0.1666667  -0.6735753  -0.1877094), wk =   0.0370370
        k(   37) = (   0.1666667  -0.2886751   0.0000000), wk =   0.0185185
        k(   38) = (   0.1666667  -0.2886751   0.0625698), wk =   0.0370370
        k(   39) = (   0.1666667  -0.2886751   0.1251396), wk =   0.0370370
[...]

!    total energy              =   -2169.70321555 Ry
     estimated scf accuracy    <          4.7E-10 Ry

     The total energy is the sum of the following terms:
     one-electron contribution =    -995.90341256 Ry
     hartree contribution      =     734.83931944 Ry
     xc contribution           =    -656.20998586 Ry
     ewald contribution        =   -1252.42913657 Ry

     convergence has been achieved in  25 iterations

     Forces acting on atoms (cartesian axes, Ry/au):

     atom    1 type  1   force =     0.00000144    0.00000083    0.00560357
     atom    2 type  1   force =    -0.00000181   -0.00000105    0.00560118
     atom    3 type  2   force =    -0.00000556   -0.00000321   -0.00560510
     atom    4 type  2   force =     0.00000519    0.00000300   -0.00560494
     atom    5 type  1   force =     0.00000046    0.00000027    0.00560669
     atom    6 type  1   force =    -0.00000150   -0.00000086    0.00560796
     atom    7 type  2   force =    -0.00000542   -0.00000313   -0.00560482
     atom    8 type  2   force =     0.00000542    0.00000313   -0.00560506
     atom    9 type  1   force =    -0.00000009   -0.00000005    0.00560250
     atom   10 type  1   force =    -0.00000116   -0.00000067    0.00560447
     atom   11 type  2   force =    -0.00000536   -0.00000310   -0.00560450
     atom   12 type  2   force =     0.00000538    0.00000311   -0.00560475
     atom   13 type  1   force =     0.00000076    0.00000044    0.00560638
     atom   14 type  1   force =     0.00000015    0.00000009    0.00560280
     atom   15 type  2   force =    -0.00000516   -0.00000298   -0.00560520
     atom   16 type  2   force =     0.00000565    0.00000326   -0.00560494
     atom   17 type  1   force =     0.00000139    0.00000080    0.00560716
     atom   18 type  1   force =    -0.00000062   -0.00000036    0.00560785
     atom   19 type  2   force =    -0.00000526   -0.00000304   -0.00560482
     atom   20 type  2   force =     0.00000550    0.00000318   -0.00560483
     atom   21 type  1   force =     0.00000176    0.00000102    0.00560188
     atom   22 type  1   force =    -0.00000138   -0.00000080    0.00560602
     atom   23 type  2   force =    -0.00000528   -0.00000305   -0.00560484
     atom   24 type  2   force =     0.00000548    0.00000317   -0.00560468
     The non-local contrib.  to forces
     atom    1 type  1   force =    -0.00001028   -0.00000594    0.24377935
     atom    2 type  1   force =     0.00001000    0.00000578    0.24377785
     atom    3 type  2   force =    -0.00019469   -0.00011240    0.24927398
     atom    4 type  2   force =     0.00019364    0.00011180    0.24927478
     atom    5 type  1   force =    -0.00001046   -0.00000604    0.24378129
     atom    6 type  1   force =     0.00001031    0.00000595    0.24378165
     atom    7 type  2   force =    -0.00019398   -0.00011199    0.24927436
     atom    8 type  2   force =     0.00019413    0.00011208    0.24927321
     atom    9 type  1   force =    -0.00001056   -0.00000609    0.24377878
     atom   10 type  1   force =     0.00001024    0.00000591    0.24378013
     atom   11 type  2   force =    -0.00019402   -0.00011202    0.24927626
     atom   12 type  2   force =     0.00019400    0.00011200    0.24927484
     atom   13 type  1   force =    -0.00001020   -0.00000589    0.24377985
     atom   14 type  1   force =     0.00001060    0.00000612    0.24377812
     atom   15 type  2   force =    -0.00019341   -0.00011166    0.24927404
     atom   16 type  2   force =     0.00019441    0.00011224    0.24927500
     atom   17 type  1   force =    -0.00000998   -0.00000576    0.24378122
     atom   18 type  1   force =     0.00001035    0.00000598    0.24378161
     atom   19 type  2   force =    -0.00019384   -0.00011192    0.24927464
     atom   20 type  2   force =     0.00019381    0.00011190    0.24927420
     atom   21 type  1   force =    -0.00000992   -0.00000573    0.24377848
     atom   22 type  1   force =     0.00001032    0.00000596    0.24378063
     atom   23 type  2   force =    -0.00019415   -0.00011209    0.24927537
     atom   24 type  2   force =     0.00019404    0.00011203    0.24927538
     The ionic contribution  to forces
     atom    1 type  1   force =     0.00000000    0.00000001    1.91317510
     atom    2 type  1   force =     0.00000001    0.00000000    1.91317513
     atom    3 type  2   force =     0.00000000    0.00000001   -1.91317511
     atom    4 type  2   force =     0.00000001   -0.00000000   -1.91317512
     atom    5 type  1   force =     0.00000000    0.00000001    1.91317513
     atom    6 type  1   force =     0.00000001    0.00000000    1.91317510
     atom    7 type  2   force =     0.00000000    0.00000001   -1.91317512
     atom    8 type  2   force =     0.00000001   -0.00000000   -1.91317510
     atom    9 type  1   force =     0.00000000    0.00000001    1.91317509
     atom   10 type  1   force =     0.00000001    0.00000000    1.91317510
     atom   11 type  2   force =     0.00000000    0.00000001   -1.91317510
     atom   12 type  2   force =     0.00000001   -0.00000000   -1.91317511
     atom   13 type  1   force =    -0.00000000   -0.00000000    1.91317510
     atom   14 type  1   force =    -0.00000001   -0.00000001    1.91317513
     atom   15 type  2   force =    -0.00000000   -0.00000000   -1.91317511
     atom   16 type  2   force =    -0.00000001   -0.00000000   -1.91317512
     atom   17 type  1   force =    -0.00000000   -0.00000000    1.91317514
     atom   18 type  1   force =    -0.00000001   -0.00000001    1.91317510
     atom   19 type  2   force =    -0.00000000   -0.00000000   -1.91317512
     atom   20 type  2   force =    -0.00000001   -0.00000000   -1.91317510
     atom   21 type  1   force =    -0.00000000   -0.00000000    1.91317510
     atom   22 type  1   force =    -0.00000001   -0.00000001    1.91317510
     atom   23 type  2   force =    -0.00000000   -0.00000000   -1.91317510
     atom   24 type  2   force =    -0.00000001   -0.00000000   -1.91317511
     The local contribution  to forces
     atom    1 type  1   force =     0.00001726    0.00000997   -2.13529521
     atom    2 type  1   force =    -0.00001664   -0.00000971   -2.13529137
     atom    3 type  2   force =     0.00018602    0.00010740    1.66043410
     atom    4 type  2   force =    -0.00018604   -0.00010743    1.66043384
     atom    5 type  1   force =     0.00001800    0.00001039   -2.13529948
     atom    6 type  1   force =    -0.00001706   -0.00000995   -2.13530081
     atom    7 type  2   force =     0.00018568    0.00010720    1.66043543
     atom    8 type  2   force =    -0.00018543   -0.00010708    1.66043378
     atom    9 type  1   force =     0.00001863    0.00001076   -2.13529306
     atom   10 type  1   force =    -0.00001727   -0.00001007   -2.13529654
     atom   11 type  2   force =     0.00018631    0.00010756    1.66043691
     atom   12 type  2   force =    -0.00018549   -0.00010712    1.66043729
     atom   13 type  1   force =     0.00001753    0.00001012   -2.13529715
     atom   14 type  1   force =    -0.00001844   -0.00001064   -2.13529235
     atom   15 type  2   force =     0.00018627    0.00010754    1.66043316
     atom   16 type  2   force =    -0.00018490   -0.00010675    1.66043456
     atom   17 type  1   force =     0.00001684    0.00000972   -2.13529956
     atom   18 type  1   force =    -0.00001787   -0.00001032   -2.13530058
     atom   19 type  2   force =     0.00018543    0.00010706    1.66043461
     atom   20 type  2   force =    -0.00018527   -0.00010697    1.66043427
     atom   21 type  1   force =     0.00001638    0.00000946   -2.13529258
     atom   22 type  1   force =    -0.00001741   -0.00001005   -2.13529755
     atom   23 type  2   force =     0.00018688    0.00010790    1.66043602
     atom   24 type  2   force =    -0.00018582   -0.00010728    1.66043768
     The core correction contribution to forces
     atom    1 type  1   force =    -0.00000826   -0.00000477   -0.01605221
     atom    2 type  1   force =     0.00000827    0.00000476   -0.01605224
     atom    3 type  2   force =     0.00000221    0.00000127   -0.00214219
     atom    4 type  2   force =    -0.00000219   -0.00000126   -0.00214221
     atom    5 type  1   force =    -0.00000826   -0.00000477   -0.01605221
     atom    6 type  1   force =     0.00000826    0.00000476   -0.01605220
     atom    7 type  2   force =     0.00000219    0.00000127   -0.00214219
     atom    8 type  2   force =    -0.00000219   -0.00000127   -0.00214218
     atom    9 type  1   force =    -0.00000827   -0.00000478   -0.01605225
     atom   10 type  1   force =     0.00000827    0.00000476   -0.01605221
     atom   11 type  2   force =     0.00000220    0.00000127   -0.00214222
     atom   12 type  2   force =    -0.00000219   -0.00000127   -0.00214220
     atom   13 type  1   force =    -0.00000827   -0.00000477   -0.01605222
     atom   14 type  1   force =     0.00000826    0.00000477   -0.01605224
     atom   15 type  2   force =     0.00000219    0.00000126   -0.00214219
     atom   16 type  2   force =    -0.00000220   -0.00000127   -0.00214221
     atom   17 type  1   force =    -0.00000827   -0.00000477   -0.01605222
     atom   18 type  1   force =     0.00000827    0.00000478   -0.01605219
     atom   19 type  2   force =     0.00000219    0.00000126   -0.00214220
     atom   20 type  2   force =    -0.00000219   -0.00000126   -0.00214219
     atom   21 type  1   force =    -0.00000825   -0.00000476   -0.01605224
     atom   22 type  1   force =     0.00000827    0.00000477   -0.01605224
     atom   23 type  2   force =     0.00000220    0.00000127   -0.00214221
     atom   24 type  2   force =    -0.00000220   -0.00000127   -0.00214220
     The Hubbard contrib.    to forces
     atom    1 type  1   force =     0.00000000    0.00000000    0.00000000
     atom    2 type  1   force =     0.00000000    0.00000000    0.00000000
     atom    3 type  2   force =     0.00000000    0.00000000    0.00000000
     atom    4 type  2   force =     0.00000000    0.00000000    0.00000000
     atom    5 type  1   force =     0.00000000    0.00000000    0.00000000
     atom    6 type  1   force =     0.00000000    0.00000000    0.00000000
     atom    7 type  2   force =     0.00000000    0.00000000    0.00000000
     atom    8 type  2   force =     0.00000000    0.00000000    0.00000000
     atom    9 type  1   force =     0.00000000    0.00000000    0.00000000
     atom   10 type  1   force =     0.00000000    0.00000000    0.00000000
     atom   11 type  2   force =     0.00000000    0.00000000    0.00000000
     atom   12 type  2   force =     0.00000000    0.00000000    0.00000000
     atom   13 type  1   force =     0.00000000    0.00000000    0.00000000
     atom   14 type  1   force =     0.00000000    0.00000000    0.00000000
     atom   15 type  2   force =     0.00000000    0.00000000    0.00000000
     atom   16 type  2   force =     0.00000000    0.00000000    0.00000000
     atom   17 type  1   force =     0.00000000    0.00000000    0.00000000
     atom   18 type  1   force =     0.00000000    0.00000000    0.00000000
     atom   19 type  2   force =     0.00000000    0.00000000    0.00000000
     atom   20 type  2   force =     0.00000000    0.00000000    0.00000000
     atom   21 type  1   force =     0.00000000    0.00000000    0.00000000
     atom   22 type  1   force =     0.00000000    0.00000000    0.00000000
     atom   23 type  2   force =     0.00000000    0.00000000    0.00000000
     atom   24 type  2   force =     0.00000000    0.00000000    0.00000000
     The SCF correction term to forces
     atom    1 type  1   force =     0.00000270    0.00000156   -0.00000461
     atom    2 type  1   force =    -0.00000343   -0.00000198   -0.00000935
     atom    3 type  2   force =     0.00000088    0.00000051    0.00000297
     atom    4 type  2   force =    -0.00000023   -0.00000013    0.00000261
     atom    5 type  1   force =     0.00000115    0.00000067    0.00000080
     atom    6 type  1   force =    -0.00000299   -0.00000172    0.00000307
     atom    7 type  2   force =     0.00000066    0.00000038    0.00000154
     atom    8 type  2   force =    -0.00000111   -0.00000064    0.00000407
     atom    9 type  1   force =     0.00000009    0.00000005   -0.00000722
     atom   10 type  1   force =    -0.00000238   -0.00000137   -0.00000317
     atom   11 type  2   force =     0.00000013    0.00000008   -0.00000151
     atom   12 type  2   force =    -0.00000095   -0.00000055   -0.00000072
     atom   13 type  1   force =     0.00000168    0.00000097   -0.00000036
     atom   14 type  1   force =    -0.00000029   -0.00000017   -0.00000702
     atom   15 type  2   force =    -0.00000023   -0.00000013    0.00000376
     atom   16 type  2   force =    -0.00000167   -0.00000096    0.00000167
     atom   17 type  1   force =     0.00000278    0.00000160    0.00000143
     atom   18 type  1   force =    -0.00000139   -0.00000080    0.00000276
     atom   19 type  2   force =     0.00000095    0.00000055    0.00000209
     atom   20 type  2   force =    -0.00000086   -0.00000050    0.00000283
     atom   21 type  1   force =     0.00000353    0.00000204   -0.00000804
     atom   22 type  1   force =    -0.00000257   -0.00000148   -0.00000107
     atom   23 type  2   force =    -0.00000024   -0.00000014   -0.00000007
     atom   24 type  2   force =    -0.00000056   -0.00000032   -0.00000158

     Total force =     0.027458     Total SCF correction =     0.000022

     General routines

     Parallel routines

   This run was terminated on:   7:29:12   5Sep2025

   JOB DONE.
Note: The following floating-point exceptions are signalling: IEEE_UNDERFLOW_FLAG IEEE_DENORMAL
Note: The following floating-point exceptions are signalling: IEEE_UNDERFLOW_FLAG IEEE_DENORMAL
Note: The following floating-point exceptions are signalling: IEEE_UNDERFLOW_FLAG IEEE_DENORMAL
Note: The following floating-point exceptions are signalling: IEEE_UNDERFLOW_FLAG IEEE_DENORMAL
Note: The following floating-point exceptions are signalling: IEEE_UNDERFLOW_FLAG IEEE_DENORMAL
Note: The following floating-point exceptions are signalling: IEEE_UNDERFLOW_FLAG IEEE_DENORMAL
Note: The following floating-point exceptions are signalling: IEEE_UNDERFLOW_FLAG IEEE_DENORMAL
Note: The following floating-point exceptions are signalling: IEEE_UNDERFLOW_FLAG IEEE_DENORMAL
Note: The following floating-point exceptions are signalling: IEEE_UNDERFLOW_FLAG IEEE_DENORMAL
Note: The following floating-point exceptions are signalling: IEEE_UNDERFLOW_FLAG IEEE_DENORMAL
Note: The following floating-point exceptions are signalling: IEEE_UNDERFLOW_FLAG IEEE_DENORMAL
Note: The following floating-point exceptions are signalling: IEEE_UNDERFLOW_FLAG IEEE_DENORMAL
Note: The following floating-point exceptions are signalling: IEEE_UNDERFLOW_FLAG IEEE_DENORMAL
Note: The following floating-point exceptions are signalling: IEEE_UNDERFLOW_FLAG IEEE_DENORMAL
Note: The following floating-point exceptions are signalling: IEEE_UNDERFLOW_FLAG IEEE_DENORMAL
Note: The following floating-point exceptions are signalling: IEEE_UNDERFLOW_FLAG IEEE_DENORMAL
Note: The following floating-point exceptions are signalling: IEEE_UNDERFLOW_FLAG IEEE_DENORMAL
Note: The following floating-point exceptions are signalling: IEEE_UNDERFLOW_FLAG IEEE_DENORMAL
Note: The following floating-point exceptions are signalling: IEEE_UNDERFLOW_FLAG IEEE_DENORMAL
Note: The following floating-point exceptions are signalling: IEEE_UNDERFLOW_FLAG IEEE_DENORMAL
Note: The following floating-point exceptions are signalling: IEEE_UNDERFLOW_FLAG IEEE_DENORMAL
Note: The following floating-point exceptions are signalling: IEEE_UNDERFLOW_FLAG IEEE_DENORMAL
Note: The following floating-point exceptions are signalling: IEEE_UNDERFLOW_FLAG IEEE_DENORMAL
Note: The following floating-point exceptions are signalling: IEEE_UNDERFLOW_FLAG IEEE_DENORMAL
Note: The following floating-point exceptions are signalling: IEEE_UNDERFLOW_FLAG IEEE_DENORMAL
Note: The following floating-point exceptions are signalling: IEEE_UNDERFLOW_FLAG IEEE_DENORMAL
Note: The following floating-point exceptions are signalling: IEEE_UNDERFLOW_FLAG IEEE_DENORMAL
Note: The following floating-point exceptions are signalling: IEEE_UNDERFLOW_FLAG IEEE_DENORMAL
Note: The following floating-point exceptions are signalling: IEEE_UNDERFLOW_FLAG IEEE_DENORMAL
Note: The following floating-point exceptions are signalling: IEEE_UNDERFLOW_FLAG IEEE_DENORMAL
Note: The following floating-point exceptions are signalling: IEEE_UNDERFLOW_FLAG IEEE_DENORMAL
Note: The following floating-point exceptions are signalling: IEEE_UNDERFLOW_FLAG IEEE_DENORMAL