     Program PWSCF v.7.0 starts on  5Sep2025 at  0:39:13

     K-points division:     npool     =       8
     R & G space division:  proc/nbgrp/npool/nimage =       4

     Reading input from /home/jvc/QEspresso7.2/ZnO_database/scripts/cell213.in/ZnO-3.20-1.61-213.in
Warning: card &CELL ignored
Warning: card / ignored
Warning: card &FCP ignored
Warning: card / ignored
Warning: card &RISM ignored
Warning: card / ignored

     Current dimensions of program PWSCF are:
     Max number of different atomic species (ntypx) = 10
     Max number of k-points (npk) =  40000
     Max angular momentum in pseudopotentials (lmaxx) =  4
     file Zn.upf: wavefunction(s)  3D renormalized
     Found identity + (  0.0000  0.0000  0.3333) symmetry
     This is a supercell, fractional translations are disabled
     Message from routine setup:
     using ibrav=0 with symmetry is DISCOURAGED, use correct ibrav instead

     Using Slab Decomposition

     bravais-lattice index     =            0
     lattice parameter (alat)  =      12.1106  a.u.
     unit-cell volume          =    1862.4467 (a.u.)^3
     number of atoms/cell      =           24
     number of atomic types    =            2
     number of electrons       =       216.00
     number of Kohn-Sham states=          108
     kinetic-energy cutoff     =      50.0000  Ry
     charge density cutoff     =     400.0000  Ry
     scf convergence threshold =      1.0E-08
     mixing beta               =       0.3000
     number of iterations used =            8  plain     mixing
     Exchange-correlation= PBE
                           (   1   4   3   4   0   0   0)

     celldm(1)=  12.110554  celldm(2)=   0.000000  celldm(3)=   0.000000
     celldm(4)=   0.000000  celldm(5)=   0.000000  celldm(6)=   0.000000

     crystal axes: (cart. coord. in units of alat)
               a(1) = (   1.000000   0.000000   0.000000 )
               a(2) = (  -0.250000   0.433013   0.000000 )
               a(3) = (   0.000000   0.000000   2.421538 )

     reciprocal axes: (cart. coord. in units 2 pi/alat)
               b(1) = (  1.000000  0.577350 -0.000000 )
               b(2) = (  0.000000  2.309401  0.000000 )
               b(3) = (  0.000000 -0.000000  0.412961 )

     PseudoPot. # 1 for Zn read from file:
     /home/jvc/QEspresso7.2/ZnO_database/pseudos/Zn.upf
     MD5 check sum: 7f56cabf9682ed8c977c2f7d0c5985c5
     Pseudo is Ultrasoft + core correction, Zval = 12.0
     Generated using &quot;atomic&quot; code by A. Dal Corso  v.6.2.2
     Using radial grid of 1201 points,  6 beta functions with:
                l(1) =   0
                l(2) =   0
                l(3) =   1
                l(4) =   1
                l(5) =   2
                l(6) =   2
     Q(r) pseudized with 0 coefficients

     PseudoPot. # 2 for O  read from file:
     /home/jvc/QEspresso7.2/ZnO_database/pseudos/O.upf
     MD5 check sum: 91400c9766925bcf19f520983a725ff0
     Pseudo is Ultrasoft + core correction, Zval =  6.0
     Generated using &quot;atomic&quot; code by A. Dal Corso  v.6.3MaX
     Using radial grid of 1095 points,  4 beta functions with:
                l(1) =   0
                l(2) =   0
                l(3) =   1
                l(4) =   1
     Q(r) pseudized with 0 coefficients

     atomic species   valence    mass     pseudopotential
        Zn            12.00    65.38000     Zn( 1.00)
        O              6.00    15.99900     O ( 1.00)

      2 Sym. Ops. (no inversion) found

                                    s                        frac. trans.

      isym =  1     identity

 cryst.   s( 1) = (     1          0          0      )
                  (     0          1          0      )
                  (     0          0          1      )

 cart.    s( 1) = (  1.0000000  0.0000000  0.0000000 )
                  (  0.0000000  1.0000000  0.0000000 )
                  (  0.0000000  0.0000000  1.0000000 )

      isym =  2     inv. 180 deg rotation - cryst. axis [0,1,0]

 cryst.   s( 2) = (     1          2          0      )
                  (     0         -1          0      )
                  (     0          0          1      )

 cart.    s( 2) = (  0.5000000  0.8660254  0.0000000 )
                  (  0.8660254 -0.5000000  0.0000000 )
                  (  0.0000000  0.0000000  1.0000000 )

   Cartesian axes

     site n.     atom                  positions (alat units)
         1           Zn  tau(   1) = (   0.2500000   0.1443376   0.4041010  )
         2           Zn  tau(   2) = (   0.0000000   0.2886751   0.0005114  )
         3           O   tau(   3) = (   0.2500000   0.1443376   0.7100565  )
         4           O   tau(   4) = (   0.0000000   0.2886751   0.3064669  )
         5           Zn  tau(   5) = (   0.2500000   0.1443376   1.2112802  )
         6           Zn  tau(   6) = (   0.0000000   0.2886751   0.8076906  )
         7           O   tau(   7) = (   0.2500000   0.1443376   1.5172357  )
         8           O   tau(   8) = (   0.0000000   0.2886751   1.1136461  )
         9           Zn  tau(   9) = (   0.2500000   0.1443376   2.0184594  )
        10           Zn  tau(  10) = (   0.0000000   0.2886751   1.6148698  )
        11           O   tau(  11) = (   0.2500000   0.1443376   2.3244148  )
        12           O   tau(  12) = (   0.0000000   0.2886751   1.9208253  )
        13           Zn  tau(  13) = (   0.7500000   0.1443376   0.4041010  )
        14           Zn  tau(  14) = (   0.5000000   0.2886751   0.0005114  )
        15           O   tau(  15) = (   0.7500000   0.1443376   0.7100565  )
        16           O   tau(  16) = (   0.5000000   0.2886751   0.3064669  )
        17           Zn  tau(  17) = (   0.7500000   0.1443376   1.2112802  )
        18           Zn  tau(  18) = (   0.5000000   0.2886751   0.8076906  )
        19           O   tau(  19) = (   0.7500000   0.1443376   1.5172357  )
        20           O   tau(  20) = (   0.5000000   0.2886751   1.1136461  )
        21           Zn  tau(  21) = (   0.7500000   0.1443376   2.0184594  )
        22           Zn  tau(  22) = (   0.5000000   0.2886751   1.6148698  )
        23           O   tau(  23) = (   0.7500000   0.1443376   2.3244148  )
        24           O   tau(  24) = (   0.5000000   0.2886751   1.9208253  )

   Crystallographic axes

     site n.     atom                  positions (cryst. coord.)
         1           Zn  tau(   1) = (  0.3333333  0.3333333  0.1668779  )
         2           Zn  tau(   2) = (  0.1666667  0.6666667  0.0002112  )
         3           O   tau(   3) = (  0.3333333  0.3333333  0.2932255  )
         4           O   tau(   4) = (  0.1666667  0.6666667  0.1265588  )
         5           Zn  tau(   5) = (  0.3333333  0.3333333  0.5002112  )
         6           Zn  tau(   6) = (  0.1666667  0.6666667  0.3335445  )
         7           O   tau(   7) = (  0.3333333  0.3333333  0.6265588  )
         8           O   tau(   8) = (  0.1666667  0.6666667  0.4598921  )
         9           Zn  tau(   9) = (  0.3333333  0.3333333  0.8335445  )
        10           Zn  tau(  10) = (  0.1666667  0.6666667  0.6668779  )
        11           O   tau(  11) = (  0.3333333  0.3333333  0.9598921  )
        12           O   tau(  12) = (  0.1666667  0.6666667  0.7932255  )
        13           Zn  tau(  13) = (  0.8333333  0.3333333  0.1668779  )
        14           Zn  tau(  14) = (  0.6666667  0.6666667  0.0002112  )
        15           O   tau(  15) = (  0.8333333  0.3333333  0.2932255  )
        16           O   tau(  16) = (  0.6666667  0.6666667  0.1265588  )
        17           Zn  tau(  17) = (  0.8333333  0.3333333  0.5002112  )
        18           Zn  tau(  18) = (  0.6666667  0.6666667  0.3335445  )
        19           O   tau(  19) = (  0.8333333  0.3333333  0.6265588  )
        20           O   tau(  20) = (  0.6666667  0.6666667  0.4598921  )
        21           Zn  tau(  21) = (  0.8333333  0.3333333  0.8335445  )
        22           Zn  tau(  22) = (  0.6666667  0.6666667  0.6668779  )
        23           O   tau(  23) = (  0.8333333  0.3333333  0.9598921  )
        24           O   tau(  24) = (  0.6666667  0.6666667  0.7932255  )

     number of k points=    80
                       cart. coord. in units 2pi/alat
        k(    1) = (   0.0000000   0.0000000   0.0000000), wk =   0.0092593
        k(    2) = (   0.0000000   0.0000000   0.0688268), wk =   0.0185185
        k(    3) = (   0.0000000   0.0000000   0.1376536), wk =   0.0185185
        k(    4) = (   0.0000000   0.0000000  -0.2064804), wk =   0.0092593
        k(    5) = (   0.0000000   0.3849002   0.0000000), wk =   0.0370370
        k(    6) = (   0.0000000   0.3849002   0.0688268), wk =   0.0370370
        k(    7) = (   0.0000000   0.3849002   0.1376536), wk =   0.0370370
        k(    8) = (   0.0000000   0.3849002  -0.2064804), wk =   0.0370370
        k(    9) = (   0.0000000   0.7698004   0.0000000), wk =   0.0370370
        k(   10) = (   0.0000000   0.7698004   0.0688268), wk =   0.0370370
        k(   11) = (   0.0000000   0.7698004   0.1376536), wk =   0.0370370
        k(   12) = (   0.0000000   0.7698004  -0.2064804), wk =   0.0370370
        k(   13) = (   0.0000000  -1.1547005   0.0000000), wk =   0.0092593
        k(   14) = (   0.0000000  -1.1547005   0.0688268), wk =   0.0185185
        k(   15) = (   0.0000000  -1.1547005   0.1376536), wk =   0.0185185
        k(   16) = (   0.0000000  -1.1547005  -0.2064804), wk =   0.0092593
        k(   17) = (   0.1666667   0.0962250   0.0000000), wk =   0.0185185
        k(   18) = (   0.1666667   0.0962250   0.0688268), wk =   0.0185185
        k(   19) = (   0.1666667   0.0962250   0.1376536), wk =   0.0185185
        k(   20) = (   0.1666667   0.0962250  -0.2064804), wk =   0.0185185
        k(   21) = (   0.1666667   0.4811252   0.0000000), wk =   0.0370370
        k(   22) = (   0.1666667   0.4811252   0.0688268), wk =   0.0370370
        k(   23) = (   0.1666667   0.4811252   0.1376536), wk =   0.0370370
        k(   24) = (   0.1666667   0.4811252  -0.2064804), wk =   0.0370370
        k(   25) = (   0.1666667   0.8660254   0.0000000), wk =   0.0185185
        k(   26) = (   0.1666667   0.8660254   0.0688268), wk =   0.0370370
        k(   27) = (   0.1666667   0.8660254   0.1376536), wk =   0.0370370
        k(   28) = (   0.1666667   0.8660254  -0.2064804), wk =   0.0185185
        k(   29) = (   0.1666667  -1.0584755   0.0000000), wk =   0.0185185
        k(   30) = (   0.1666667  -1.0584755   0.0688268), wk =   0.0185185
        k(   31) = (   0.1666667  -1.0584755   0.1376536), wk =   0.0185185
        k(   32) = (   0.1666667  -1.0584755  -0.2064804), wk =   0.0185185
        k(   33) = (   0.1666667  -0.6735753   0.0000000), wk =   0.0370370
        k(   34) = (   0.1666667  -0.6735753   0.0688268), wk =   0.0370370
        k(   35) = (   0.1666667  -0.6735753   0.1376536), wk =   0.0370370
        k(   36) = (   0.1666667  -0.6735753  -0.2064804), wk =   0.0370370
        k(   37) = (   0.1666667  -0.2886751   0.0000000), wk =   0.0185185
        k(   38) = (   0.1666667  -0.2886751   0.0688268), wk =   0.0370370
        k(   39) = (   0.1666667  -0.2886751   0.1376536), wk =   0.0370370
[...]

!    total energy              =   -2169.77675888 Ry
     estimated scf accuracy    <          3.6E-09 Ry

     The total energy is the sum of the following terms:
     one-electron contribution =    -885.06476588 Ry
     hartree contribution      =     694.88363071 Ry
     xc contribution           =    -658.04291028 Ry
     ewald contribution        =   -1321.55271343 Ry

     convergence has been achieved in  30 iterations

     Forces acting on atoms (cartesian axes, Ry/au):

     atom    1 type  1   force =     0.00000740    0.00000427    0.00020468
     atom    2 type  1   force =    -0.00000839   -0.00000485    0.00020690
     atom    3 type  2   force =    -0.00000202   -0.00000116   -0.00020668
     atom    4 type  2   force =     0.00000185    0.00000107   -0.00020621
     atom    5 type  1   force =     0.00000990    0.00000572    0.00020897
     atom    6 type  1   force =    -0.00000665   -0.00000384    0.00020665
     atom    7 type  2   force =    -0.00000187   -0.00000108   -0.00020811
     atom    8 type  2   force =     0.00000191    0.00000111   -0.00020674
     atom    9 type  1   force =     0.00000894    0.00000516    0.00020818
     atom   10 type  1   force =    -0.00000712   -0.00000411    0.00020749
     atom   11 type  2   force =    -0.00000197   -0.00000114   -0.00020699
     atom   12 type  2   force =     0.00000184    0.00000106   -0.00020787
     atom   13 type  1   force =     0.00000871    0.00000503    0.00020436
     atom   14 type  1   force =    -0.00000841   -0.00000486    0.00020581
     atom   15 type  2   force =    -0.00000187   -0.00000108   -0.00020699
     atom   16 type  2   force =     0.00000204    0.00000118   -0.00020574
     atom   17 type  1   force =     0.00000665    0.00000384    0.00020912
     atom   18 type  1   force =    -0.00000934   -0.00000539    0.00020742
     atom   19 type  2   force =    -0.00000192   -0.00000111   -0.00020827
     atom   20 type  2   force =     0.00000153    0.00000089   -0.00020736
     atom   21 type  1   force =     0.00000757    0.00000437    0.00020863
     atom   22 type  1   force =    -0.00000872   -0.00000504    0.00020755
     atom   23 type  2   force =    -0.00000198   -0.00000114   -0.00020710
     atom   24 type  2   force =     0.00000190    0.00000110   -0.00020772
     The non-local contrib.  to forces
     atom    1 type  1   force =    -0.00002296   -0.00001326   -0.00501846
     atom    2 type  1   force =     0.00002213    0.00001278   -0.00501507
     atom    3 type  2   force =    -0.00017217   -0.00009940    0.00488827
     atom    4 type  2   force =     0.00017236    0.00009951    0.00488791
     atom    5 type  1   force =    -0.00002381   -0.00001375   -0.00501686
     atom    6 type  1   force =     0.00002227    0.00001286   -0.00501521
     atom    7 type  2   force =    -0.00017215   -0.00009939    0.00488779
     atom    8 type  2   force =     0.00017185    0.00009922    0.00488749
     atom    9 type  1   force =    -0.00002320   -0.00001340   -0.00501647
     atom   10 type  1   force =     0.00002191    0.00001265   -0.00501567
     atom   11 type  2   force =    -0.00017220   -0.00009942    0.00488743
     atom   12 type  2   force =     0.00017219    0.00009941    0.00488680
     atom   13 type  1   force =    -0.00002241   -0.00001294   -0.00501765
     atom   14 type  1   force =     0.00002335    0.00001348   -0.00501528
     atom   15 type  2   force =    -0.00017183   -0.00009920    0.00488827
     atom   16 type  2   force =     0.00017237    0.00009952    0.00488887
     atom   17 type  1   force =    -0.00002211   -0.00001276   -0.00501523
     atom   18 type  1   force =     0.00002319    0.00001339   -0.00501711
     atom   19 type  2   force =    -0.00017187   -0.00009923    0.00488718
     atom   20 type  2   force =     0.00017258    0.00009964    0.00488756
     atom   21 type  1   force =    -0.00002252   -0.00001300   -0.00501551
     atom   22 type  1   force =     0.00002364    0.00001365   -0.00501628
     atom   23 type  2   force =    -0.00017177   -0.00009917    0.00488721
     atom   24 type  2   force =     0.00017209    0.00009935    0.00488672
     The ionic contribution  to forces
     atom    1 type  1   force =     0.00000001    0.00000001    0.06530280
     atom    2 type  1   force =     0.00000000    0.00000000    0.06530284
     atom    3 type  2   force =     0.00000001    0.00000000   -0.06530281
     atom    4 type  2   force =     0.00000000    0.00000000   -0.06530283
     atom    5 type  1   force =     0.00000001    0.00000001    0.06530284
     atom    6 type  1   force =     0.00000000    0.00000000    0.06530280
     atom    7 type  2   force =     0.00000001    0.00000000   -0.06530282
     atom    8 type  2   force =     0.00000000    0.00000000   -0.06530280
     atom    9 type  1   force =     0.00000001    0.00000001    0.06530280
     atom   10 type  1   force =     0.00000000    0.00000000    0.06530280
     atom   11 type  2   force =     0.00000001    0.00000000   -0.06530280
     atom   12 type  2   force =     0.00000000    0.00000000   -0.06530282
     atom   13 type  1   force =    -0.00000001   -0.00000000    0.06530280
     atom   14 type  1   force =    -0.00000000   -0.00000001    0.06530284
     atom   15 type  2   force =    -0.00000001    0.00000000   -0.06530281
     atom   16 type  2   force =    -0.00000000   -0.00000001   -0.06530282
     atom   17 type  1   force =    -0.00000001   -0.00000000    0.06530284
     atom   18 type  1   force =    -0.00000000   -0.00000001    0.06530279
     atom   19 type  2   force =    -0.00000001    0.00000000   -0.06530282
     atom   20 type  2   force =    -0.00000000   -0.00000001   -0.06530280
     atom   21 type  1   force =    -0.00000001   -0.00000000    0.06530280
     atom   22 type  1   force =    -0.00000000   -0.00000001    0.06530280
     atom   23 type  2   force =    -0.00000001    0.00000000   -0.06530280
     atom   24 type  2   force =    -0.00000000   -0.00000001   -0.06530281
     The local contribution  to forces
     atom    1 type  1   force =     0.00003618    0.00002089   -0.06062325
     atom    2 type  1   force =    -0.00003348   -0.00001933   -0.06063012
     atom    3 type  2   force =     0.00016692    0.00009637    0.06026313
     atom    4 type  2   force =    -0.00016882   -0.00009747    0.06026669
     atom    5 type  1   force =     0.00003654    0.00002109   -0.06062741
     atom    6 type  1   force =    -0.00003505   -0.00002023   -0.06063027
     atom    7 type  2   force =     0.00016708    0.00009646    0.06025905
     atom    8 type  2   force =    -0.00016914   -0.00009766    0.06026007
     atom    9 type  1   force =     0.00003570    0.00002061   -0.06062723
     atom   10 type  1   force =    -0.00003395   -0.00001960   -0.06062917
     atom   11 type  2   force =     0.00016751    0.00009671    0.06026416
     atom   12 type  2   force =    -0.00016888   -0.00009750    0.06025937
     atom   13 type  1   force =     0.00003411    0.00001979   -0.06062441
     atom   14 type  1   force =    -0.00003680   -0.00002125   -0.06062846
     atom   15 type  2   force =     0.00016923    0.00009773    0.06026190
     atom   16 type  2   force =    -0.00016763   -0.00009678    0.06026722
     atom   17 type  1   force =     0.00003414    0.00001980   -0.06063055
     atom   18 type  1   force =    -0.00003549   -0.00002049   -0.06062705
     atom   19 type  2   force =     0.00016958    0.00009793    0.06025952
     atom   20 type  2   force =    -0.00016828   -0.00009716    0.06025948
     atom   21 type  1   force =     0.00003488    0.00002023   -0.06062977
     atom   22 type  1   force =    -0.00003676   -0.00002122   -0.06062773
     atom   23 type  2   force =     0.00016823    0.00009715    0.06026405
     atom   24 type  2   force =    -0.00016712   -0.00009648    0.06026036
     The core correction contribution to forces
     atom    1 type  1   force =    -0.00000467   -0.00000270    0.00055019
     atom    2 type  1   force =     0.00000460    0.00000265    0.00055025
     atom    3 type  2   force =     0.00000196    0.00000113   -0.00005633
     atom    4 type  2   force =    -0.00000197   -0.00000114   -0.00005631
     atom    5 type  1   force =    -0.00000471   -0.00000272    0.00055017
     atom    6 type  1   force =     0.00000463    0.00000267    0.00055029
     atom    7 type  2   force =     0.00000196    0.00000113   -0.00005634
     atom    8 type  2   force =    -0.00000196   -0.00000113   -0.00005633
     atom    9 type  1   force =    -0.00000468   -0.00000270    0.00055013
     atom   10 type  1   force =     0.00000461    0.00000266    0.00055024
     atom   11 type  2   force =     0.00000196    0.00000113   -0.00005631
     atom   12 type  2   force =    -0.00000197   -0.00000114   -0.00005632
     atom   13 type  1   force =    -0.00000465   -0.00000267    0.00055021
     atom   14 type  1   force =     0.00000471    0.00000272    0.00055019
     atom   15 type  2   force =     0.00000197    0.00000113   -0.00005633
     atom   16 type  2   force =    -0.00000197   -0.00000114   -0.00005632
     atom   17 type  1   force =    -0.00000460   -0.00000264    0.00055023
     atom   18 type  1   force =     0.00000467    0.00000270    0.00055022
     atom   19 type  2   force =     0.00000197    0.00000114   -0.00005633
     atom   20 type  2   force =    -0.00000197   -0.00000114   -0.00005633
     atom   21 type  1   force =    -0.00000463   -0.00000266    0.00055021
     atom   22 type  1   force =     0.00000469    0.00000271    0.00055021
     atom   23 type  2   force =     0.00000196    0.00000113   -0.00005631
     atom   24 type  2   force =    -0.00000196   -0.00000113   -0.00005632
     The Hubbard contrib.    to forces
     atom    1 type  1   force =     0.00000000    0.00000000    0.00000000
     atom    2 type  1   force =     0.00000000    0.00000000    0.00000000
     atom    3 type  2   force =     0.00000000    0.00000000    0.00000000
     atom    4 type  2   force =     0.00000000    0.00000000    0.00000000
     atom    5 type  1   force =     0.00000000    0.00000000    0.00000000
     atom    6 type  1   force =     0.00000000    0.00000000    0.00000000
     atom    7 type  2   force =     0.00000000    0.00000000    0.00000000
     atom    8 type  2   force =     0.00000000    0.00000000    0.00000000
     atom    9 type  1   force =     0.00000000    0.00000000    0.00000000
     atom   10 type  1   force =     0.00000000    0.00000000    0.00000000
     atom   11 type  2   force =     0.00000000    0.00000000    0.00000000
     atom   12 type  2   force =     0.00000000    0.00000000    0.00000000
     atom   13 type  1   force =     0.00000000    0.00000000    0.00000000
     atom   14 type  1   force =     0.00000000    0.00000000    0.00000000
     atom   15 type  2   force =     0.00000000    0.00000000    0.00000000
     atom   16 type  2   force =     0.00000000    0.00000000    0.00000000
     atom   17 type  1   force =     0.00000000    0.00000000    0.00000000
     atom   18 type  1   force =     0.00000000    0.00000000    0.00000000
     atom   19 type  2   force =     0.00000000    0.00000000    0.00000000
     atom   20 type  2   force =     0.00000000    0.00000000    0.00000000
     atom   21 type  1   force =     0.00000000    0.00000000    0.00000000
     atom   22 type  1   force =     0.00000000    0.00000000    0.00000000
     atom   23 type  2   force =     0.00000000    0.00000000    0.00000000
     atom   24 type  2   force =     0.00000000    0.00000000    0.00000000
     The SCF correction term to forces
     atom    1 type  1   force =    -0.00000109   -0.00000063   -0.00000886
     atom    2 type  1   force =    -0.00000157   -0.00000091   -0.00000326
     atom    3 type  2   force =     0.00000135    0.00000078   -0.00000120
     atom    4 type  2   force =     0.00000035    0.00000020   -0.00000393
     atom    5 type  1   force =     0.00000195    0.00000113   -0.00000202
     atom    6 type  1   force =     0.00000157    0.00000090   -0.00000322
     atom    7 type  2   force =     0.00000131    0.00000076    0.00000195
     atom    8 type  2   force =     0.00000124    0.00000072    0.00000257
     atom    9 type  1   force =     0.00000118    0.00000068   -0.00000332
     atom   10 type  1   force =     0.00000039    0.00000023   -0.00000297
     atom   11 type  2   force =     0.00000083    0.00000048   -0.00000173
     atom   12 type  2   force =     0.00000057    0.00000033    0.00000283
     atom   13 type  1   force =     0.00000171    0.00000098   -0.00000885
     atom   14 type  1   force =     0.00000040    0.00000023   -0.00000574
     atom   15 type  2   force =    -0.00000117   -0.00000067   -0.00000028
     atom   16 type  2   force =    -0.00000065   -0.00000038   -0.00000495
     atom   17 type  1   force =    -0.00000075   -0.00000043   -0.00000043
     atom   18 type  1   force =    -0.00000163   -0.00000094   -0.00000369
     atom   19 type  2   force =    -0.00000153   -0.00000088    0.00000193
     atom   20 type  2   force =    -0.00000071   -0.00000041    0.00000247
     atom   21 type  1   force =    -0.00000012   -0.00000007   -0.00000135
     atom   22 type  1   force =    -0.00000022   -0.00000012   -0.00000370
     atom   23 type  2   force =    -0.00000033   -0.00000019   -0.00000151
     atom   24 type  2   force =    -0.00000103   -0.00000059    0.00000207

     Total force =     0.001015     Total SCF correction =     0.000020

     General routines

     Parallel routines

   This run was terminated on:   1: 2: 5   5Sep2025

   JOB DONE.
Note: The following floating-point exceptions are signalling: IEEE_UNDERFLOW_FLAG IEEE_DENORMAL
Note: The following floating-point exceptions are signalling: IEEE_UNDERFLOW_FLAG IEEE_DENORMAL
Note: The following floating-point exceptions are signalling: IEEE_UNDERFLOW_FLAG IEEE_DENORMAL
Note: The following floating-point exceptions are signalling: IEEE_UNDERFLOW_FLAG IEEE_DENORMAL
Note: The following floating-point exceptions are signalling: IEEE_UNDERFLOW_FLAG IEEE_DENORMAL
Note: The following floating-point exceptions are signalling: IEEE_UNDERFLOW_FLAG IEEE_DENORMAL
Note: The following floating-point exceptions are signalling: IEEE_UNDERFLOW_FLAG IEEE_DENORMAL
Note: The following floating-point exceptions are signalling: IEEE_UNDERFLOW_FLAG IEEE_DENORMAL
Note: The following floating-point exceptions are signalling: IEEE_UNDERFLOW_FLAG IEEE_DENORMAL
Note: The following floating-point exceptions are signalling: IEEE_UNDERFLOW_FLAG IEEE_DENORMAL
Note: The following floating-point exceptions are signalling: IEEE_UNDERFLOW_FLAG IEEE_DENORMAL
Note: The following floating-point exceptions are signalling: IEEE_UNDERFLOW_FLAG IEEE_DENORMAL
Note: The following floating-point exceptions are signalling: IEEE_UNDERFLOW_FLAG IEEE_DENORMAL
Note: The following floating-point exceptions are signalling: IEEE_UNDERFLOW_FLAG IEEE_DENORMAL
Note: The following floating-point exceptions are signalling: IEEE_UNDERFLOW_FLAG IEEE_DENORMAL
Note: The following floating-point exceptions are signalling: IEEE_UNDERFLOW_FLAG IEEE_DENORMAL
Note: The following floating-point exceptions are signalling: IEEE_UNDERFLOW_FLAG IEEE_DENORMAL
Note: The following floating-point exceptions are signalling: IEEE_UNDERFLOW_FLAG IEEE_DENORMAL
Note: The following floating-point exceptions are signalling: IEEE_UNDERFLOW_FLAG IEEE_DENORMAL
Note: The following floating-point exceptions are signalling: IEEE_UNDERFLOW_FLAG IEEE_DENORMAL
Note: The following floating-point exceptions are signalling: IEEE_UNDERFLOW_FLAG IEEE_DENORMAL
Note: The following floating-point exceptions are signalling: IEEE_UNDERFLOW_FLAG IEEE_DENORMAL
Note: The following floating-point exceptions are signalling: IEEE_UNDERFLOW_FLAG IEEE_DENORMAL
Note: The following floating-point exceptions are signalling: IEEE_UNDERFLOW_FLAG IEEE_DENORMAL
Note: The following floating-point exceptions are signalling: IEEE_UNDERFLOW_FLAG IEEE_DENORMAL
Note: The following floating-point exceptions are signalling: IEEE_UNDERFLOW_FLAG IEEE_DENORMAL
Note: The following floating-point exceptions are signalling: IEEE_UNDERFLOW_FLAG IEEE_DENORMAL
Note: The following floating-point exceptions are signalling: IEEE_UNDERFLOW_FLAG IEEE_DENORMAL
Note: The following floating-point exceptions are signalling: IEEE_UNDERFLOW_FLAG IEEE_DENORMAL
Note: The following floating-point exceptions are signalling: IEEE_UNDERFLOW_FLAG IEEE_DENORMAL
Note: The following floating-point exceptions are signalling: IEEE_UNDERFLOW_FLAG IEEE_DENORMAL
Note: The following floating-point exceptions are signalling: IEEE_UNDERFLOW_FLAG IEEE_DENORMAL