     Program PWSCF v.7.0 starts on  6Sep2025 at  7:25:55

     K-points division:     npool     =       8
     R & G space division:  proc/nbgrp/npool/nimage =       4

     Reading input from /home/jvc/QEspresso7.2/ZnO_database/scripts/cell213.in/ZnO-3.60-1.65-213.in
Warning: card &CELL ignored
Warning: card / ignored
Warning: card &FCP ignored
Warning: card / ignored
Warning: card &RISM ignored
Warning: card / ignored

     Current dimensions of program PWSCF are:
     Max number of different atomic species (ntypx) = 10
     Max number of k-points (npk) =  40000
     Max angular momentum in pseudopotentials (lmaxx) =  4
     file Zn.upf: wavefunction(s)  3D renormalized
     Found identity + (  0.0000  0.0000  0.3333) symmetry
     This is a supercell, fractional translations are disabled
     Message from routine setup:
     using ibrav=0 with symmetry is DISCOURAGED, use correct ibrav instead

     Using Slab Decomposition

     bravais-lattice index     =            0
     lattice parameter (alat)  =      13.5935  a.u.
     unit-cell volume          =    2686.4815 (a.u.)^3
     number of atoms/cell      =           24
     number of atomic types    =            2
     number of electrons       =       216.00
     number of Kohn-Sham states=          108
     kinetic-energy cutoff     =      50.0000  Ry
     charge density cutoff     =     400.0000  Ry
     scf convergence threshold =      1.0E-08
     mixing beta               =       0.3000
     number of iterations used =            8  plain     mixing
     Exchange-correlation= PBE
                           (   1   4   3   4   0   0   0)

     celldm(1)=  13.593479  celldm(2)=   0.000000  celldm(3)=   0.000000
     celldm(4)=   0.000000  celldm(5)=   0.000000  celldm(6)=   0.000000

     crystal axes: (cart. coord. in units of alat)
               a(1) = (   1.000000   0.000000   0.000000 )
               a(2) = (  -0.250000   0.433013   0.000000 )
               a(3) = (   0.000000   0.000000   2.469968 )

     reciprocal axes: (cart. coord. in units 2 pi/alat)
               b(1) = (  1.000000  0.577350 -0.000000 )
               b(2) = (  0.000000  2.309401  0.000000 )
               b(3) = (  0.000000 -0.000000  0.404863 )

     PseudoPot. # 1 for Zn read from file:
     /home/jvc/QEspresso7.2/ZnO_database/pseudos/Zn.upf
     MD5 check sum: 7f56cabf9682ed8c977c2f7d0c5985c5
     Pseudo is Ultrasoft + core correction, Zval = 12.0
     Generated using &quot;atomic&quot; code by A. Dal Corso  v.6.2.2
     Using radial grid of 1201 points,  6 beta functions with:
                l(1) =   0
                l(2) =   0
                l(3) =   1
                l(4) =   1
                l(5) =   2
                l(6) =   2
     Q(r) pseudized with 0 coefficients

     PseudoPot. # 2 for O  read from file:
     /home/jvc/QEspresso7.2/ZnO_database/pseudos/O.upf
     MD5 check sum: 91400c9766925bcf19f520983a725ff0
     Pseudo is Ultrasoft + core correction, Zval =  6.0
     Generated using &quot;atomic&quot; code by A. Dal Corso  v.6.3MaX
     Using radial grid of 1095 points,  4 beta functions with:
                l(1) =   0
                l(2) =   0
                l(3) =   1
                l(4) =   1
     Q(r) pseudized with 0 coefficients

     atomic species   valence    mass     pseudopotential
        Zn            12.00    65.38000     Zn( 1.00)
        O              6.00    15.99900     O ( 1.00)

      2 Sym. Ops. (no inversion) found

                                    s                        frac. trans.

      isym =  1     identity

 cryst.   s( 1) = (     1          0          0      )
                  (     0          1          0      )
                  (     0          0          1      )

 cart.    s( 1) = (  1.0000000  0.0000000  0.0000000 )
                  (  0.0000000  1.0000000  0.0000000 )
                  (  0.0000000  0.0000000  1.0000000 )

      isym =  2     inv. 180 deg rotation - cryst. axis [0,1,0]

 cryst.   s( 2) = (     1          2          0      )
                  (     0         -1          0      )
                  (     0          0          1      )

 cart.    s( 2) = (  0.5000000  0.8660254  0.0000000 )
                  (  0.8660254 -0.5000000  0.0000000 )
                  (  0.0000000  0.0000000  1.0000000 )

   Cartesian axes

     site n.     atom                  positions (alat units)
         1           Zn  tau(   1) = (   0.2500000   0.1443376   0.4121830  )
         2           Zn  tau(   2) = (  -0.0000000   0.2886751   0.0005216  )
         3           O   tau(   3) = (   0.2500000   0.1443376   0.7242576  )
         4           O   tau(   4) = (  -0.0000000   0.2886751   0.3125962  )
         5           Zn  tau(   5) = (   0.2500000   0.1443376   1.2355058  )
         6           Zn  tau(   6) = (  -0.0000000   0.2886751   0.8238444  )
         7           O   tau(   7) = (   0.2500000   0.1443376   1.5475804  )
         8           O   tau(   8) = (  -0.0000000   0.2886751   1.1359190  )
         9           Zn  tau(   9) = (   0.2500000   0.1443376   2.0588285  )
        10           Zn  tau(  10) = (  -0.0000000   0.2886751   1.6471672  )
        11           O   tau(  11) = (   0.2500000   0.1443376   2.3709031  )
        12           O   tau(  12) = (  -0.0000000   0.2886751   1.9592418  )
        13           Zn  tau(  13) = (   0.7500000   0.1443376   0.4121830  )
        14           Zn  tau(  14) = (   0.5000000   0.2886751   0.0005216  )
        15           O   tau(  15) = (   0.7500000   0.1443376   0.7242576  )
        16           O   tau(  16) = (   0.5000000   0.2886751   0.3125962  )
        17           Zn  tau(  17) = (   0.7500000   0.1443376   1.2355058  )
        18           Zn  tau(  18) = (   0.5000000   0.2886751   0.8238444  )
        19           O   tau(  19) = (   0.7500000   0.1443376   1.5475804  )
        20           O   tau(  20) = (   0.5000000   0.2886751   1.1359190  )
        21           Zn  tau(  21) = (   0.7500000   0.1443376   2.0588285  )
        22           Zn  tau(  22) = (   0.5000000   0.2886751   1.6471672  )
        23           O   tau(  23) = (   0.7500000   0.1443376   2.3709031  )
        24           O   tau(  24) = (   0.5000000   0.2886751   1.9592418  )

   Crystallographic axes

     site n.     atom                  positions (cryst. coord.)
         1           Zn  tau(   1) = (  0.3333333  0.3333333  0.1668779  )
         2           Zn  tau(   2) = (  0.1666667  0.6666667  0.0002112  )
         3           O   tau(   3) = (  0.3333333  0.3333333  0.2932255  )
         4           O   tau(   4) = (  0.1666667  0.6666667  0.1265588  )
         5           Zn  tau(   5) = (  0.3333333  0.3333333  0.5002112  )
         6           Zn  tau(   6) = (  0.1666667  0.6666667  0.3335445  )
         7           O   tau(   7) = (  0.3333333  0.3333333  0.6265588  )
         8           O   tau(   8) = (  0.1666667  0.6666667  0.4598921  )
         9           Zn  tau(   9) = (  0.3333333  0.3333333  0.8335445  )
        10           Zn  tau(  10) = (  0.1666667  0.6666667  0.6668779  )
        11           O   tau(  11) = (  0.3333333  0.3333333  0.9598921  )
        12           O   tau(  12) = (  0.1666667  0.6666667  0.7932255  )
        13           Zn  tau(  13) = (  0.8333333  0.3333333  0.1668779  )
        14           Zn  tau(  14) = (  0.6666667  0.6666667  0.0002112  )
        15           O   tau(  15) = (  0.8333333  0.3333333  0.2932255  )
        16           O   tau(  16) = (  0.6666667  0.6666667  0.1265588  )
        17           Zn  tau(  17) = (  0.8333333  0.3333333  0.5002112  )
        18           Zn  tau(  18) = (  0.6666667  0.6666667  0.3335445  )
        19           O   tau(  19) = (  0.8333333  0.3333333  0.6265588  )
        20           O   tau(  20) = (  0.6666667  0.6666667  0.4598921  )
        21           Zn  tau(  21) = (  0.8333333  0.3333333  0.8335445  )
        22           Zn  tau(  22) = (  0.6666667  0.6666667  0.6668779  )
        23           O   tau(  23) = (  0.8333333  0.3333333  0.9598921  )
        24           O   tau(  24) = (  0.6666667  0.6666667  0.7932255  )

     number of k points=    80
                       cart. coord. in units 2pi/alat
        k(    1) = (   0.0000000   0.0000000   0.0000000), wk =   0.0092593
        k(    2) = (   0.0000000   0.0000000   0.0674772), wk =   0.0185185
        k(    3) = (   0.0000000   0.0000000   0.1349545), wk =   0.0185185
        k(    4) = (   0.0000000   0.0000000  -0.2024317), wk =   0.0092593
        k(    5) = (   0.0000000   0.3849002   0.0000000), wk =   0.0370370
        k(    6) = (   0.0000000   0.3849002   0.0674772), wk =   0.0370370
        k(    7) = (   0.0000000   0.3849002   0.1349545), wk =   0.0370370
        k(    8) = (   0.0000000   0.3849002  -0.2024317), wk =   0.0370370
        k(    9) = (   0.0000000   0.7698004   0.0000000), wk =   0.0370370
        k(   10) = (   0.0000000   0.7698004   0.0674772), wk =   0.0370370
        k(   11) = (   0.0000000   0.7698004   0.1349545), wk =   0.0370370
        k(   12) = (   0.0000000   0.7698004  -0.2024317), wk =   0.0370370
        k(   13) = (   0.0000000  -1.1547005   0.0000000), wk =   0.0092593
        k(   14) = (   0.0000000  -1.1547005   0.0674772), wk =   0.0185185
        k(   15) = (   0.0000000  -1.1547005   0.1349545), wk =   0.0185185
        k(   16) = (   0.0000000  -1.1547005  -0.2024317), wk =   0.0092593
        k(   17) = (   0.1666667   0.0962250   0.0000000), wk =   0.0185185
        k(   18) = (   0.1666667   0.0962250   0.0674772), wk =   0.0185185
        k(   19) = (   0.1666667   0.0962250   0.1349545), wk =   0.0185185
        k(   20) = (   0.1666667   0.0962250  -0.2024317), wk =   0.0185185
        k(   21) = (   0.1666667   0.4811252   0.0000000), wk =   0.0370370
        k(   22) = (   0.1666667   0.4811252   0.0674772), wk =   0.0370370
        k(   23) = (   0.1666667   0.4811252   0.1349545), wk =   0.0370370
        k(   24) = (   0.1666667   0.4811252  -0.2024317), wk =   0.0370370
        k(   25) = (   0.1666667   0.8660254   0.0000000), wk =   0.0185185
        k(   26) = (   0.1666667   0.8660254   0.0674772), wk =   0.0370370
        k(   27) = (   0.1666667   0.8660254   0.1349545), wk =   0.0370370
        k(   28) = (   0.1666667   0.8660254  -0.2024317), wk =   0.0185185
        k(   29) = (   0.1666667  -1.0584755   0.0000000), wk =   0.0185185
        k(   30) = (   0.1666667  -1.0584755   0.0674772), wk =   0.0185185
        k(   31) = (   0.1666667  -1.0584755   0.1349545), wk =   0.0185185
        k(   32) = (   0.1666667  -1.0584755  -0.2024317), wk =   0.0185185
        k(   33) = (   0.1666667  -0.6735753   0.0000000), wk =   0.0370370
        k(   34) = (   0.1666667  -0.6735753   0.0674772), wk =   0.0370370
        k(   35) = (   0.1666667  -0.6735753   0.1349545), wk =   0.0370370
        k(   36) = (   0.1666667  -0.6735753  -0.2024317), wk =   0.0370370
        k(   37) = (   0.1666667  -0.2886751   0.0000000), wk =   0.0185185
        k(   38) = (   0.1666667  -0.2886751   0.0674772), wk =   0.0370370
        k(   39) = (   0.1666667  -0.2886751   0.1349545), wk =   0.0370370
[...]

!    total energy              =   -2169.21611704 Ry
     estimated scf accuracy    <          2.5E-09 Ry

     The total energy is the sum of the following terms:
     one-electron contribution =   -1129.15366053 Ry
     hartree contribution      =     783.71494739 Ry
     xc contribution           =    -654.10129464 Ry
     ewald contribution        =   -1169.67610926 Ry

     convergence has been achieved in  44 iterations

     Forces acting on atoms (cartesian axes, Ry/au):

     atom    1 type  1   force =    -0.00000762   -0.00000440   -0.00243534
     atom    2 type  1   force =     0.00000805    0.00000465   -0.00243518
     atom    3 type  2   force =    -0.00000805   -0.00000465    0.00243248
     atom    4 type  2   force =     0.00000803    0.00000463    0.00243355
     atom    5 type  1   force =    -0.00000662   -0.00000382   -0.00242589
     atom    6 type  1   force =     0.00000920    0.00000531   -0.00243748
     atom    7 type  2   force =    -0.00000786   -0.00000454    0.00243270
     atom    8 type  2   force =     0.00000798    0.00000461    0.00243189
     atom    9 type  1   force =    -0.00000845   -0.00000488   -0.00243585
     atom   10 type  1   force =     0.00000863    0.00000498   -0.00242981
     atom   11 type  2   force =    -0.00000824   -0.00000475    0.00243485
     atom   12 type  2   force =     0.00000812    0.00000469    0.00243247
     atom   13 type  1   force =    -0.00000781   -0.00000451   -0.00243706
     atom   14 type  1   force =     0.00000748    0.00000432   -0.00243504
     atom   15 type  2   force =    -0.00000784   -0.00000452    0.00243253
     atom   16 type  2   force =     0.00000820    0.00000473    0.00243385
     atom   17 type  1   force =    -0.00000857   -0.00000495   -0.00242815
     atom   18 type  1   force =     0.00000641    0.00000370   -0.00243472
     atom   19 type  2   force =    -0.00000819   -0.00000473    0.00243261
     atom   20 type  2   force =     0.00000820    0.00000473    0.00243183
     atom   21 type  1   force =    -0.00000783   -0.00000452   -0.00243567
     atom   22 type  1   force =     0.00000678    0.00000391   -0.00242725
     atom   23 type  2   force =    -0.00000808   -0.00000467    0.00243460
     atom   24 type  2   force =     0.00000807    0.00000466    0.00243407
     The non-local contrib.  to forces
     atom    1 type  1   force =     0.00001996    0.00001152    0.04270731
     atom    2 type  1   force =    -0.00001939   -0.00001120    0.04270637
     atom    3 type  2   force =    -0.00020151   -0.00011634    0.05829383
     atom    4 type  2   force =     0.00020082    0.00011594    0.05829342
     atom    5 type  1   force =     0.00002058    0.00001188    0.04271566
     atom    6 type  1   force =    -0.00001852   -0.00001069    0.04270715
     atom    7 type  2   force =    -0.00019966   -0.00011527    0.05828782
     atom    8 type  2   force =     0.00020132    0.00011623    0.05829191
     atom    9 type  1   force =     0.00001899    0.00001096    0.04270784
     atom   10 type  1   force =    -0.00001928   -0.00001113    0.04271243
     atom   11 type  2   force =    -0.00020304   -0.00011723    0.05829415
     atom   12 type  2   force =     0.00020177    0.00011649    0.05829308
     atom   13 type  1   force =     0.00001977    0.00001141    0.04270655
     atom   14 type  1   force =    -0.00002032   -0.00001173    0.04270604
     atom   15 type  2   force =    -0.00020083   -0.00011595    0.05829269
     atom   16 type  2   force =     0.00020147    0.00011632    0.05829270
     atom   17 type  1   force =     0.00001892    0.00001093    0.04271477
     atom   18 type  1   force =    -0.00002117   -0.00001222    0.04270849
     atom   19 type  2   force =    -0.00020215   -0.00011671    0.05828837
     atom   20 type  2   force =     0.00020135    0.00011625    0.05829029
     atom   21 type  1   force =     0.00002017    0.00001164    0.04270748
     atom   22 type  1   force =    -0.00002027   -0.00001170    0.04271779
     atom   23 type  2   force =    -0.00020017   -0.00011557    0.05829578
     atom   24 type  2   force =     0.00020029    0.00011564    0.05829698
     The ionic contribution  to forces
     atom    1 type  1   force =     0.00000000    0.00000001    0.38433082
     atom    2 type  1   force =     0.00000001    0.00000000    0.38433086
     atom    3 type  2   force =     0.00000000    0.00000000   -0.38433084
     atom    4 type  2   force =     0.00000001    0.00000000   -0.38433085
     atom    5 type  1   force =     0.00000000    0.00000001    0.38433086
     atom    6 type  1   force =     0.00000001    0.00000000    0.38433082
     atom    7 type  2   force =     0.00000000    0.00000000   -0.38433084
     atom    8 type  2   force =     0.00000001    0.00000000   -0.38433083
     atom    9 type  1   force =     0.00000000    0.00000001    0.38433082
     atom   10 type  1   force =     0.00000001    0.00000000    0.38433083
     atom   11 type  2   force =     0.00000000    0.00000000   -0.38433082
     atom   12 type  2   force =     0.00000001    0.00000000   -0.38433084
     atom   13 type  1   force =    -0.00000002   -0.00000000    0.38433082
     atom   14 type  1   force =     0.00000000   -0.00000001    0.38433085
     atom   15 type  2   force =    -0.00000001    0.00000000   -0.38433084
     atom   16 type  2   force =     0.00000000   -0.00000000   -0.38433084
     atom   17 type  1   force =    -0.00000002   -0.00000000    0.38433086
     atom   18 type  1   force =     0.00000000   -0.00000001    0.38433082
     atom   19 type  2   force =    -0.00000001    0.00000000   -0.38433084
     atom   20 type  2   force =     0.00000000   -0.00000000   -0.38433082
     atom   21 type  1   force =    -0.00000002   -0.00000000    0.38433082
     atom   22 type  1   force =     0.00000000   -0.00000001    0.38433082
     atom   23 type  2   force =    -0.00000001    0.00000000   -0.38433082
     atom   24 type  2   force =     0.00000000   -0.00000000   -0.38433083
     The local contribution  to forces
     atom    1 type  1   force =    -0.00002136   -0.00001233   -0.42706433
     atom    2 type  1   force =     0.00002100    0.00001202   -0.42706363
     atom    3 type  2   force =     0.00019101    0.00011028    0.32902332
     atom    4 type  2   force =    -0.00019093   -0.00011026    0.32902548
     atom    5 type  1   force =    -0.00002393   -0.00001381   -0.42708337
     atom    6 type  1   force =     0.00001817    0.00001038   -0.42706128
     atom    7 type  2   force =     0.00018938    0.00010934    0.32902277
     atom    8 type  2   force =    -0.00019128   -0.00011047    0.32901802
     atom    9 type  1   force =    -0.00002154   -0.00001244   -0.42706542
     atom   10 type  1   force =     0.00001918    0.00001096   -0.42707292
     atom   11 type  2   force =     0.00019301    0.00011143    0.32902680
     atom   12 type  2   force =    -0.00019120   -0.00011042    0.32902133
     atom   13 type  1   force =    -0.00002170   -0.00001242   -0.42706169
     atom   14 type  1   force =     0.00002215    0.00001268   -0.42706298
     atom   15 type  2   force =     0.00019069    0.00011012    0.32902489
     atom   16 type  2   force =    -0.00019046   -0.00010999    0.32902676
     atom   17 type  1   force =    -0.00001888   -0.00001079   -0.42707949
     atom   18 type  1   force =     0.00002485    0.00001424   -0.42706627
     atom   19 type  2   force =     0.00019137    0.00011052    0.32902189
     atom   20 type  2   force =    -0.00019087   -0.00011023    0.32902018
     atom   21 type  1   force =    -0.00002055   -0.00001175   -0.42706439
     atom   22 type  1   force =     0.00002369    0.00001356   -0.42708240
     atom   23 type  2   force =     0.00018930    0.00010932    0.32902430
     atom   24 type  2   force =    -0.00019028   -0.00010989    0.32902083
     The core correction contribution to forces
     atom    1 type  1   force =    -0.00000645   -0.00000373   -0.00240556
     atom    2 type  1   force =     0.00000642    0.00000370   -0.00240550
     atom    3 type  2   force =     0.00000228    0.00000131   -0.00055361
     atom    4 type  2   force =    -0.00000227   -0.00000131   -0.00055360
     atom    5 type  1   force =    -0.00000632   -0.00000365   -0.00240505
     atom    6 type  1   force =     0.00000648    0.00000373   -0.00240567
     atom    7 type  2   force =     0.00000225    0.00000130   -0.00055353
     atom    8 type  2   force =    -0.00000227   -0.00000131   -0.00055358
     atom    9 type  1   force =    -0.00000622   -0.00000359   -0.00240565
     atom   10 type  1   force =     0.00000654    0.00000376   -0.00240576
     atom   11 type  2   force =     0.00000230    0.00000133   -0.00055361
     atom   12 type  2   force =    -0.00000228   -0.00000132   -0.00055361
     atom   13 type  1   force =    -0.00000640   -0.00000368   -0.00240562
     atom   14 type  1   force =     0.00000644    0.00000370   -0.00240554
     atom   15 type  2   force =     0.00000227    0.00000131   -0.00055359
     atom   16 type  2   force =    -0.00000228   -0.00000131   -0.00055359
     atom   17 type  1   force =    -0.00000652   -0.00000375   -0.00240521
     atom   18 type  1   force =     0.00000638    0.00000367   -0.00240553
     atom   19 type  2   force =     0.00000228    0.00000132   -0.00055353
     atom   20 type  2   force =    -0.00000227   -0.00000131   -0.00055356
     atom   21 type  1   force =    -0.00000660   -0.00000380   -0.00240572
     atom   22 type  1   force =     0.00000631    0.00000363   -0.00240581
     atom   23 type  2   force =     0.00000226    0.00000130   -0.00055364
     atom   24 type  2   force =    -0.00000226   -0.00000131   -0.00055365
     The Hubbard contrib.    to forces
     atom    1 type  1   force =     0.00000000    0.00000000    0.00000000
     atom    2 type  1   force =     0.00000000    0.00000000    0.00000000
     atom    3 type  2   force =     0.00000000    0.00000000    0.00000000
     atom    4 type  2   force =     0.00000000    0.00000000    0.00000000
     atom    5 type  1   force =     0.00000000    0.00000000    0.00000000
     atom    6 type  1   force =     0.00000000    0.00000000    0.00000000
     atom    7 type  2   force =     0.00000000    0.00000000    0.00000000
     atom    8 type  2   force =     0.00000000    0.00000000    0.00000000
     atom    9 type  1   force =     0.00000000    0.00000000    0.00000000
     atom   10 type  1   force =     0.00000000    0.00000000    0.00000000
     atom   11 type  2   force =     0.00000000    0.00000000    0.00000000
     atom   12 type  2   force =     0.00000000    0.00000000    0.00000000
     atom   13 type  1   force =     0.00000000    0.00000000    0.00000000
     atom   14 type  1   force =     0.00000000    0.00000000    0.00000000
     atom   15 type  2   force =     0.00000000    0.00000000    0.00000000
     atom   16 type  2   force =     0.00000000    0.00000000    0.00000000
     atom   17 type  1   force =     0.00000000    0.00000000    0.00000000
     atom   18 type  1   force =     0.00000000    0.00000000    0.00000000
     atom   19 type  2   force =     0.00000000    0.00000000    0.00000000
     atom   20 type  2   force =     0.00000000    0.00000000    0.00000000
     atom   21 type  1   force =     0.00000000    0.00000000    0.00000000
     atom   22 type  1   force =     0.00000000    0.00000000    0.00000000
     atom   23 type  2   force =     0.00000000    0.00000000    0.00000000
     atom   24 type  2   force =     0.00000000    0.00000000    0.00000000
     The SCF correction term to forces
     atom    1 type  1   force =     0.00000018    0.00000010   -0.00000465
     atom    2 type  1   force =     0.00000000    0.00000000   -0.00000435
     atom    3 type  2   force =     0.00000011    0.00000007   -0.00000130
     atom    4 type  2   force =     0.00000035    0.00000020   -0.00000198
     atom    5 type  1   force =     0.00000298    0.00000172    0.00001495
     atom    6 type  1   force =     0.00000305    0.00000176   -0.00000957
     atom    7 type  2   force =     0.00000010    0.00000006    0.00000541
     atom    8 type  2   force =     0.00000016    0.00000009    0.00000530
     atom    9 type  1   force =     0.00000025    0.00000015   -0.00000451
     atom   10 type  1   force =     0.00000218    0.00000126    0.00000455
     atom   11 type  2   force =    -0.00000056   -0.00000033   -0.00000273
     atom   12 type  2   force =    -0.00000022   -0.00000013    0.00000144
     atom   13 type  1   force =     0.00000041    0.00000024   -0.00000820
     atom   14 type  1   force =    -0.00000079   -0.00000046   -0.00000447
     atom   15 type  2   force =    -0.00000002   -0.00000001   -0.00000169
     atom   16 type  2   force =    -0.00000059   -0.00000034   -0.00000225
     atom   17 type  1   force =    -0.00000220   -0.00000127    0.00000985
     atom   18 type  1   force =    -0.00000366   -0.00000211   -0.00000331
     atom   19 type  2   force =     0.00000024    0.00000014    0.00000566
     atom   20 type  2   force =    -0.00000006   -0.00000004    0.00000467
     atom   21 type  1   force =    -0.00000095   -0.00000055   -0.00000494
     atom   22 type  1   force =    -0.00000296   -0.00000171    0.00001127
     atom   23 type  2   force =     0.00000046    0.00000027   -0.00000209
     atom   24 type  2   force =     0.00000026    0.00000015   -0.00000033

     Total force =     0.011920     Total SCF correction =     0.000031

     General routines

     Parallel routines

   This run was terminated on:   7:57: 6   6Sep2025

   JOB DONE.
Note: The following floating-point exceptions are signalling: IEEE_UNDERFLOW_FLAG IEEE_DENORMAL
Note: The following floating-point exceptions are signalling: IEEE_UNDERFLOW_FLAG IEEE_DENORMAL
Note: The following floating-point exceptions are signalling: IEEE_UNDERFLOW_FLAG IEEE_DENORMAL
Note: The following floating-point exceptions are signalling: IEEE_UNDERFLOW_FLAG IEEE_DENORMAL
Note: The following floating-point exceptions are signalling: IEEE_UNDERFLOW_FLAG IEEE_DENORMAL
Note: The following floating-point exceptions are signalling: IEEE_UNDERFLOW_FLAG IEEE_DENORMAL
Note: The following floating-point exceptions are signalling: IEEE_UNDERFLOW_FLAG IEEE_DENORMAL
Note: The following floating-point exceptions are signalling: IEEE_UNDERFLOW_FLAG IEEE_DENORMAL
Note: The following floating-point exceptions are signalling: IEEE_UNDERFLOW_FLAG IEEE_DENORMAL
Note: The following floating-point exceptions are signalling: IEEE_UNDERFLOW_FLAG IEEE_DENORMAL
Note: The following floating-point exceptions are signalling: IEEE_UNDERFLOW_FLAG IEEE_DENORMAL
Note: The following floating-point exceptions are signalling: IEEE_UNDERFLOW_FLAG IEEE_DENORMAL
Note: The following floating-point exceptions are signalling: IEEE_UNDERFLOW_FLAG IEEE_DENORMAL
Note: The following floating-point exceptions are signalling: IEEE_UNDERFLOW_FLAG IEEE_DENORMAL
Note: The following floating-point exceptions are signalling: IEEE_UNDERFLOW_FLAG IEEE_DENORMAL
Note: The following floating-point exceptions are signalling: IEEE_UNDERFLOW_FLAG IEEE_DENORMAL
Note: The following floating-point exceptions are signalling: IEEE_UNDERFLOW_FLAG IEEE_DENORMAL
Note: The following floating-point exceptions are signalling: IEEE_UNDERFLOW_FLAG IEEE_DENORMAL
Note: The following floating-point exceptions are signalling: IEEE_UNDERFLOW_FLAG IEEE_DENORMAL
Note: The following floating-point exceptions are signalling: IEEE_UNDERFLOW_FLAG IEEE_DENORMAL
Note: The following floating-point exceptions are signalling: IEEE_UNDERFLOW_FLAG IEEE_DENORMAL
Note: The following floating-point exceptions are signalling: IEEE_UNDERFLOW_FLAG IEEE_DENORMAL
Note: The following floating-point exceptions are signalling: IEEE_UNDERFLOW_FLAG IEEE_DENORMAL
Note: The following floating-point exceptions are signalling: IEEE_UNDERFLOW_FLAG IEEE_DENORMAL
Note: The following floating-point exceptions are signalling: IEEE_UNDERFLOW_FLAG IEEE_DENORMAL
Note: The following floating-point exceptions are signalling: IEEE_UNDERFLOW_FLAG IEEE_DENORMAL
Note: The following floating-point exceptions are signalling: IEEE_UNDERFLOW_FLAG IEEE_DENORMAL
Note: The following floating-point exceptions are signalling: IEEE_UNDERFLOW_FLAG IEEE_DENORMAL
Note: The following floating-point exceptions are signalling: IEEE_UNDERFLOW_FLAG IEEE_DENORMAL
Note: The following floating-point exceptions are signalling: IEEE_UNDERFLOW_FLAG IEEE_DENORMAL
Note: The following floating-point exceptions are signalling: IEEE_UNDERFLOW_FLAG IEEE_DENORMAL
Note: The following floating-point exceptions are signalling: IEEE_UNDERFLOW_FLAG IEEE_DENORMAL