     Program PWSCF v.7.0 starts on  4Sep2025 at 20: 3:41

     K-points division:     npool     =       8
     R & G space division:  proc/nbgrp/npool/nimage =       4

     Reading input from /home/jvc/QEspresso7.2/ZnO_database/scripts/cell213.in/ZnO-3.14-1.55-213.in
Warning: card &CELL ignored
Warning: card / ignored
Warning: card &FCP ignored
Warning: card / ignored
Warning: card &RISM ignored
Warning: card / ignored

     Current dimensions of program PWSCF are:
     Max number of different atomic species (ntypx) = 10
     Max number of k-points (npk) =  40000
     Max angular momentum in pseudopotentials (lmaxx) =  4
     file Zn.upf: wavefunction(s)  3D renormalized
     Found identity + (  0.0000  0.0000  0.3333) symmetry
     This is a supercell, fractional translations are disabled
     Message from routine setup:
     using ibrav=0 with symmetry is DISCOURAGED, use correct ibrav instead

     Using Slab Decomposition

     bravais-lattice index     =            0
     lattice parameter (alat)  =      11.8634  a.u.
     unit-cell volume          =    1680.7014 (a.u.)^3
     number of atoms/cell      =           24
     number of atomic types    =            2
     number of electrons       =       216.00
     number of Kohn-Sham states=          108
     kinetic-energy cutoff     =      50.0000  Ry
     charge density cutoff     =     400.0000  Ry
     scf convergence threshold =      1.0E-08
     mixing beta               =       0.3000
     number of iterations used =            8  plain     mixing
     Exchange-correlation= PBE
                           (   1   4   3   4   0   0   0)

     celldm(1)=  11.863400  celldm(2)=   0.000000  celldm(3)=   0.000000
     celldm(4)=   0.000000  celldm(5)=   0.000000  celldm(6)=   0.000000

     crystal axes: (cart. coord. in units of alat)
               a(1) = (   1.000000   0.000000   0.000000 )
               a(2) = (  -0.250000   0.433013   0.000000 )
               a(3) = (   0.000000   0.000000   2.324676 )

     reciprocal axes: (cart. coord. in units 2 pi/alat)
               b(1) = (  1.000000  0.577350 -0.000000 )
               b(2) = (  0.000000  2.309401  0.000000 )
               b(3) = (  0.000000 -0.000000  0.430167 )

     PseudoPot. # 1 for Zn read from file:
     /home/jvc/QEspresso7.2/ZnO_database/pseudos/Zn.upf
     MD5 check sum: 7f56cabf9682ed8c977c2f7d0c5985c5
     Pseudo is Ultrasoft + core correction, Zval = 12.0
     Generated using &quot;atomic&quot; code by A. Dal Corso  v.6.2.2
     Using radial grid of 1201 points,  6 beta functions with:
                l(1) =   0
                l(2) =   0
                l(3) =   1
                l(4) =   1
                l(5) =   2
                l(6) =   2
     Q(r) pseudized with 0 coefficients

     PseudoPot. # 2 for O  read from file:
     /home/jvc/QEspresso7.2/ZnO_database/pseudos/O.upf
     MD5 check sum: 91400c9766925bcf19f520983a725ff0
     Pseudo is Ultrasoft + core correction, Zval =  6.0
     Generated using &quot;atomic&quot; code by A. Dal Corso  v.6.3MaX
     Using radial grid of 1095 points,  4 beta functions with:
                l(1) =   0
                l(2) =   0
                l(3) =   1
                l(4) =   1
     Q(r) pseudized with 0 coefficients

     atomic species   valence    mass     pseudopotential
        Zn            12.00    65.38000     Zn( 1.00)
        O              6.00    15.99900     O ( 1.00)

      2 Sym. Ops. (no inversion) found

                                    s                        frac. trans.

      isym =  1     identity

 cryst.   s( 1) = (     1          0          0      )
                  (     0          1          0      )
                  (     0          0          1      )

 cart.    s( 1) = (  1.0000000  0.0000000  0.0000000 )
                  (  0.0000000  1.0000000  0.0000000 )
                  (  0.0000000  0.0000000  1.0000000 )

      isym =  2     inv. 180 deg rotation - cryst. axis [0,1,0]

 cryst.   s( 2) = (     1          2          0      )
                  (     0         -1          0      )
                  (     0          0          1      )

 cart.    s( 2) = (  0.5000000  0.8660254  0.0000000 )
                  (  0.8660254 -0.5000000  0.0000000 )
                  (  0.0000000  0.0000000  1.0000000 )

   Cartesian axes

     site n.     atom                  positions (alat units)
         1           Zn  tau(   1) = (   0.2500000   0.1443376   0.3879370  )
         2           Zn  tau(   2) = (  -0.0000000   0.2886751   0.0004910  )
         3           O   tau(   3) = (   0.2500000   0.1443376   0.6816542  )
         4           O   tau(   4) = (  -0.0000000   0.2886751   0.2942082  )
         5           Zn  tau(   5) = (   0.2500000   0.1443376   1.1628290  )
         6           Zn  tau(   6) = (  -0.0000000   0.2886751   0.7753830  )
         7           O   tau(   7) = (   0.2500000   0.1443376   1.4565462  )
         8           O   tau(   8) = (  -0.0000000   0.2886751   1.0691002  )
         9           Zn  tau(   9) = (   0.2500000   0.1443376   1.9377210  )
        10           Zn  tau(  10) = (  -0.0000000   0.2886751   1.5502750  )
        11           O   tau(  11) = (   0.2500000   0.1443376   2.2314382  )
        12           O   tau(  12) = (  -0.0000000   0.2886751   1.8439922  )
        13           Zn  tau(  13) = (   0.7500000   0.1443376   0.3879370  )
        14           Zn  tau(  14) = (   0.5000000   0.2886751   0.0004910  )
        15           O   tau(  15) = (   0.7500000   0.1443376   0.6816542  )
        16           O   tau(  16) = (   0.5000000   0.2886751   0.2942082  )
        17           Zn  tau(  17) = (   0.7500000   0.1443376   1.1628290  )
        18           Zn  tau(  18) = (   0.5000000   0.2886751   0.7753830  )
        19           O   tau(  19) = (   0.7500000   0.1443376   1.4565462  )
        20           O   tau(  20) = (   0.5000000   0.2886751   1.0691002  )
        21           Zn  tau(  21) = (   0.7500000   0.1443376   1.9377210  )
        22           Zn  tau(  22) = (   0.5000000   0.2886751   1.5502750  )
        23           O   tau(  23) = (   0.7500000   0.1443376   2.2314382  )
        24           O   tau(  24) = (   0.5000000   0.2886751   1.8439922  )

   Crystallographic axes

     site n.     atom                  positions (cryst. coord.)
         1           Zn  tau(   1) = (  0.3333333  0.3333333  0.1668779  )
         2           Zn  tau(   2) = (  0.1666667  0.6666667  0.0002112  )
         3           O   tau(   3) = (  0.3333333  0.3333333  0.2932255  )
         4           O   tau(   4) = (  0.1666667  0.6666667  0.1265588  )
         5           Zn  tau(   5) = (  0.3333333  0.3333333  0.5002112  )
         6           Zn  tau(   6) = (  0.1666667  0.6666667  0.3335445  )
         7           O   tau(   7) = (  0.3333333  0.3333333  0.6265588  )
         8           O   tau(   8) = (  0.1666667  0.6666667  0.4598921  )
         9           Zn  tau(   9) = (  0.3333333  0.3333333  0.8335445  )
        10           Zn  tau(  10) = (  0.1666667  0.6666667  0.6668779  )
        11           O   tau(  11) = (  0.3333333  0.3333333  0.9598921  )
        12           O   tau(  12) = (  0.1666667  0.6666667  0.7932255  )
        13           Zn  tau(  13) = (  0.8333333  0.3333333  0.1668779  )
        14           Zn  tau(  14) = (  0.6666667  0.6666667  0.0002112  )
        15           O   tau(  15) = (  0.8333333  0.3333333  0.2932255  )
        16           O   tau(  16) = (  0.6666667  0.6666667  0.1265588  )
        17           Zn  tau(  17) = (  0.8333333  0.3333333  0.5002112  )
        18           Zn  tau(  18) = (  0.6666667  0.6666667  0.3335445  )
        19           O   tau(  19) = (  0.8333333  0.3333333  0.6265588  )
        20           O   tau(  20) = (  0.6666667  0.6666667  0.4598921  )
        21           Zn  tau(  21) = (  0.8333333  0.3333333  0.8335445  )
        22           Zn  tau(  22) = (  0.6666667  0.6666667  0.6668779  )
        23           O   tau(  23) = (  0.8333333  0.3333333  0.9598921  )
        24           O   tau(  24) = (  0.6666667  0.6666667  0.7932255  )

     number of k points=    80
                       cart. coord. in units 2pi/alat
        k(    1) = (   0.0000000   0.0000000   0.0000000), wk =   0.0092593
        k(    2) = (   0.0000000   0.0000000   0.0716946), wk =   0.0185185
        k(    3) = (   0.0000000   0.0000000   0.1433892), wk =   0.0185185
        k(    4) = (   0.0000000   0.0000000  -0.2150837), wk =   0.0092593
        k(    5) = (   0.0000000   0.3849002   0.0000000), wk =   0.0370370
        k(    6) = (   0.0000000   0.3849002   0.0716946), wk =   0.0370370
        k(    7) = (   0.0000000   0.3849002   0.1433892), wk =   0.0370370
        k(    8) = (   0.0000000   0.3849002  -0.2150837), wk =   0.0370370
        k(    9) = (   0.0000000   0.7698004   0.0000000), wk =   0.0370370
        k(   10) = (   0.0000000   0.7698004   0.0716946), wk =   0.0370370
        k(   11) = (   0.0000000   0.7698004   0.1433892), wk =   0.0370370
        k(   12) = (   0.0000000   0.7698004  -0.2150837), wk =   0.0370370
        k(   13) = (   0.0000000  -1.1547005   0.0000000), wk =   0.0092593
        k(   14) = (   0.0000000  -1.1547005   0.0716946), wk =   0.0185185
        k(   15) = (   0.0000000  -1.1547005   0.1433892), wk =   0.0185185
        k(   16) = (   0.0000000  -1.1547005  -0.2150837), wk =   0.0092593
        k(   17) = (   0.1666667   0.0962250   0.0000000), wk =   0.0185185
        k(   18) = (   0.1666667   0.0962250   0.0716946), wk =   0.0185185
        k(   19) = (   0.1666667   0.0962250   0.1433892), wk =   0.0185185
        k(   20) = (   0.1666667   0.0962250  -0.2150837), wk =   0.0185185
        k(   21) = (   0.1666667   0.4811252   0.0000000), wk =   0.0370370
        k(   22) = (   0.1666667   0.4811252   0.0716946), wk =   0.0370370
        k(   23) = (   0.1666667   0.4811252   0.1433892), wk =   0.0370370
        k(   24) = (   0.1666667   0.4811252  -0.2150837), wk =   0.0370370
        k(   25) = (   0.1666667   0.8660254   0.0000000), wk =   0.0185185
        k(   26) = (   0.1666667   0.8660254   0.0716946), wk =   0.0370370
        k(   27) = (   0.1666667   0.8660254   0.1433892), wk =   0.0370370
        k(   28) = (   0.1666667   0.8660254  -0.2150837), wk =   0.0185185
        k(   29) = (   0.1666667  -1.0584755   0.0000000), wk =   0.0185185
        k(   30) = (   0.1666667  -1.0584755   0.0716946), wk =   0.0185185
        k(   31) = (   0.1666667  -1.0584755   0.1433892), wk =   0.0185185
        k(   32) = (   0.1666667  -1.0584755  -0.2150837), wk =   0.0185185
        k(   33) = (   0.1666667  -0.6735753   0.0000000), wk =   0.0370370
        k(   34) = (   0.1666667  -0.6735753   0.0716946), wk =   0.0370370
        k(   35) = (   0.1666667  -0.6735753   0.1433892), wk =   0.0370370
        k(   36) = (   0.1666667  -0.6735753  -0.2150837), wk =   0.0370370
        k(   37) = (   0.1666667  -0.2886751   0.0000000), wk =   0.0185185
        k(   38) = (   0.1666667  -0.2886751   0.0716946), wk =   0.0370370
        k(   39) = (   0.1666667  -0.2886751   0.1433892), wk =   0.0370370
[...]

!    total energy              =   -2169.49531907 Ry
     estimated scf accuracy    <          3.8E-09 Ry

     The total energy is the sum of the following terms:
     one-electron contribution =    -814.09165461 Ry
     hartree contribution      =     670.68724233 Ry
     xc contribution           =    -659.50476596 Ry
     ewald contribution        =   -1366.58614084 Ry

     convergence has been achieved in  29 iterations

     Forces acting on atoms (cartesian axes, Ry/au):

     atom    1 type  1   force =     0.00000705    0.00000407   -0.03108091
     atom    2 type  1   force =    -0.00002261   -0.00001305   -0.03107387
     atom    3 type  2   force =    -0.00000154   -0.00000089    0.03106145
     atom    4 type  2   force =     0.00000073    0.00000042    0.03106003
     atom    5 type  1   force =     0.00001617    0.00000933   -0.03104317
     atom    6 type  1   force =    -0.00001104   -0.00000637   -0.03106202
     atom    7 type  2   force =    -0.00000094   -0.00000054    0.03106193
     atom    8 type  2   force =     0.00000153    0.00000088    0.03106182
     atom    9 type  1   force =     0.00000112    0.00000065   -0.03106067
     atom   10 type  1   force =    -0.00000320   -0.00000185   -0.03104171
     atom   11 type  2   force =    -0.00000189   -0.00000109    0.03105920
     atom   12 type  2   force =     0.00000130    0.00000075    0.03106161
     atom   13 type  1   force =     0.00001742    0.00001006   -0.03108206
     atom   14 type  1   force =    -0.00000154   -0.00000089   -0.03107723
     atom   15 type  2   force =    -0.00000095   -0.00000055    0.03106153
     atom   16 type  2   force =     0.00000243    0.00000140    0.03106039
     atom   17 type  1   force =     0.00000787    0.00000454   -0.03105501
     atom   18 type  1   force =    -0.00001306   -0.00000754   -0.03105614
     atom   19 type  2   force =    -0.00000153   -0.00000089    0.03106056
     atom   20 type  2   force =     0.00000103    0.00000060    0.03106184
     atom   21 type  1   force =     0.00002257    0.00001303   -0.03104455
     atom   22 type  1   force =    -0.00002114   -0.00001221   -0.03105243
     atom   23 type  2   force =    -0.00000084   -0.00000048    0.03105854
     atom   24 type  2   force =     0.00000106    0.00000061    0.03106084
     The non-local contrib.  to forces
     atom    1 type  1   force =    -0.00002473   -0.00001428   -0.13325733
     atom    2 type  1   force =     0.00001794    0.00001036   -0.13325278
     atom    3 type  2   force =    -0.00015687   -0.00009057   -0.08598146
     atom    4 type  2   force =     0.00015799    0.00009122   -0.08597622
     atom    5 type  1   force =    -0.00002087   -0.00001205   -0.13323829
     atom    6 type  1   force =     0.00002322    0.00001341   -0.13324863
     atom    7 type  2   force =    -0.00015722   -0.00009077   -0.08598642
     atom    8 type  2   force =     0.00015647    0.00009034   -0.08598500
     atom    9 type  1   force =    -0.00002645   -0.00001527   -0.13324472
     atom   10 type  1   force =     0.00002537    0.00001464   -0.13323790
     atom   11 type  2   force =    -0.00015551   -0.00008978   -0.08597829
     atom   12 type  2   force =     0.00015700    0.00009064   -0.08598380
     atom   13 type  1   force =    -0.00002073   -0.00001197   -0.13325874
     atom   14 type  1   force =     0.00002715    0.00001567   -0.13325274
     atom   15 type  2   force =    -0.00015719   -0.00009075   -0.08598210
     atom   16 type  2   force =     0.00015711    0.00009071   -0.08597563
     atom   17 type  1   force =    -0.00002466   -0.00001424   -0.13324207
     atom   18 type  1   force =     0.00002183    0.00001261   -0.13324641
     atom   19 type  2   force =    -0.00015691   -0.00009059   -0.08598560
     atom   20 type  2   force =     0.00015754    0.00009096   -0.08598545
     atom   21 type  1   force =    -0.00001880   -0.00001086   -0.13323950
     atom   22 type  1   force =     0.00001933    0.00001116   -0.13324195
     atom   23 type  2   force =    -0.00015922   -0.00009193   -0.08597960
     atom   24 type  2   force =     0.00015719    0.00009075   -0.08598586
     The ionic contribution  to forces
     atom    1 type  1   force =     0.00000001    0.00000001   -0.86727420
     atom    2 type  1   force =     0.00000002    0.00000001   -0.86727415
     atom    3 type  2   force =     0.00000001    0.00000001    0.86727418
     atom    4 type  2   force =     0.00000001    0.00000000    0.86727417
     atom    5 type  1   force =     0.00000001    0.00000001   -0.86727415
     atom    6 type  1   force =     0.00000002    0.00000001   -0.86727419
     atom    7 type  2   force =     0.00000001    0.00000001    0.86727417
     atom    8 type  2   force =     0.00000001    0.00000000    0.86727419
     atom    9 type  1   force =     0.00000001    0.00000001   -0.86727420
     atom   10 type  1   force =     0.00000002    0.00000001   -0.86727419
     atom   11 type  2   force =     0.00000001    0.00000001    0.86727420
     atom   12 type  2   force =     0.00000001    0.00000000    0.86727418
     atom   13 type  1   force =    -0.00000002   -0.00000001   -0.86727419
     atom   14 type  1   force =    -0.00000001   -0.00000001   -0.86727415
     atom   15 type  2   force =    -0.00000001   -0.00000000    0.86727418
     atom   16 type  2   force =    -0.00000001   -0.00000001    0.86727417
     atom   17 type  1   force =    -0.00000002   -0.00000001   -0.86727415
     atom   18 type  1   force =    -0.00000001   -0.00000001   -0.86727420
     atom   19 type  2   force =    -0.00000001   -0.00000000    0.86727417
     atom   20 type  2   force =    -0.00000001   -0.00000001    0.86727420
     atom   21 type  1   force =    -0.00000002   -0.00000001   -0.86727419
     atom   22 type  1   force =    -0.00000001   -0.00000001   -0.86727420
     atom   23 type  2   force =    -0.00000001   -0.00000000    0.86727419
     atom   24 type  2   force =    -0.00000001   -0.00000001    0.86727418
     The local contribution  to forces
     atom    1 type  1   force =     0.00004396    0.00002538    0.95781416
     atom    2 type  1   force =    -0.00002312   -0.00001344    0.95780451
     atom    3 type  2   force =     0.00015248    0.00008804   -0.75077774
     atom    4 type  2   force =    -0.00015120   -0.00008732   -0.75076525
     atom    5 type  1   force =     0.00003158    0.00001823    0.95776234
     atom    6 type  1   force =    -0.00003923   -0.00002274    0.95779036
     atom    7 type  2   force =     0.00015365    0.00008871   -0.75078821
     atom    8 type  2   force =    -0.00015358   -0.00008869   -0.75078843
     atom    9 type  1   force =     0.00005139    0.00002967    0.95778562
     atom   10 type  1   force =    -0.00004862   -0.00002817    0.95776080
     atom   11 type  2   force =     0.00015504    0.00008951   -0.75077203
     atom   12 type  2   force =    -0.00015349   -0.00008864   -0.75078472
     atom   13 type  1   force =     0.00003080    0.00001788    0.95781739
     atom   14 type  1   force =    -0.00005152   -0.00002975    0.95780858
     atom   15 type  2   force =     0.00015321    0.00008848   -0.75077591
     atom   16 type  2   force =    -0.00015404   -0.00008894   -0.75076658
     atom   17 type  1   force =     0.00004357    0.00002525    0.95777723
     atom   18 type  1   force =    -0.00003539   -0.00002043    0.95778233
     atom   19 type  2   force =     0.00015188    0.00008771   -0.75078710
     atom   20 type  2   force =    -0.00015220   -0.00008787   -0.75078719
     atom   21 type  1   force =     0.00002370    0.00001378    0.95776546
     atom   22 type  1   force =    -0.00002576   -0.00001487    0.95777502
     atom   23 type  2   force =     0.00015159    0.00008754   -0.75077488
     atom   24 type  2   force =    -0.00015327   -0.00008849   -0.75078510
     The core correction contribution to forces
     atom    1 type  1   force =    -0.00000350   -0.00000208    0.01168269
     atom    2 type  1   force =     0.00000312    0.00000179    0.01168258
     atom    3 type  2   force =     0.00000176    0.00000103    0.00054078
     atom    4 type  2   force =    -0.00000182   -0.00000105    0.00054073
     atom    5 type  1   force =    -0.00000341   -0.00000202    0.01168286
     atom    6 type  1   force =     0.00000325    0.00000187    0.01168279
     atom    7 type  2   force =     0.00000177    0.00000104    0.00054083
     atom    8 type  2   force =    -0.00000180   -0.00000104    0.00054082
     atom    9 type  1   force =    -0.00000358   -0.00000213    0.01168253
     atom   10 type  1   force =     0.00000333    0.00000191    0.01168286
     atom   11 type  2   force =     0.00000174    0.00000102    0.00054075
     atom   12 type  2   force =    -0.00000181   -0.00000104    0.00054081
     atom   13 type  1   force =    -0.00000317   -0.00000182    0.01168270
     atom   14 type  1   force =     0.00000354    0.00000210    0.01168239
     atom   15 type  2   force =     0.00000181    0.00000104    0.00054080
     atom   16 type  2   force =    -0.00000176   -0.00000103    0.00054071
     atom   17 type  1   force =    -0.00000325   -0.00000187    0.01168275
     atom   18 type  1   force =     0.00000343    0.00000204    0.01168284
     atom   19 type  2   force =     0.00000180    0.00000103    0.00054083
     atom   20 type  2   force =    -0.00000177   -0.00000104    0.00054082
     atom   21 type  1   force =    -0.00000307   -0.00000177    0.01168278
     atom   22 type  1   force =     0.00000335    0.00000199    0.01168271
     atom   23 type  2   force =     0.00000184    0.00000106    0.00054076
     atom   24 type  2   force =    -0.00000177   -0.00000103    0.00054082
     The Hubbard contrib.    to forces
     atom    1 type  1   force =     0.00000000    0.00000000    0.00000000
     atom    2 type  1   force =     0.00000000    0.00000000    0.00000000
     atom    3 type  2   force =     0.00000000    0.00000000    0.00000000
     atom    4 type  2   force =     0.00000000    0.00000000    0.00000000
     atom    5 type  1   force =     0.00000000    0.00000000    0.00000000
     atom    6 type  1   force =     0.00000000    0.00000000    0.00000000
     atom    7 type  2   force =     0.00000000    0.00000000    0.00000000
     atom    8 type  2   force =     0.00000000    0.00000000    0.00000000
     atom    9 type  1   force =     0.00000000    0.00000000    0.00000000
     atom   10 type  1   force =     0.00000000    0.00000000    0.00000000
     atom   11 type  2   force =     0.00000000    0.00000000    0.00000000
     atom   12 type  2   force =     0.00000000    0.00000000    0.00000000
     atom   13 type  1   force =     0.00000000    0.00000000    0.00000000
     atom   14 type  1   force =     0.00000000    0.00000000    0.00000000
     atom   15 type  2   force =     0.00000000    0.00000000    0.00000000
     atom   16 type  2   force =     0.00000000    0.00000000    0.00000000
     atom   17 type  1   force =     0.00000000    0.00000000    0.00000000
     atom   18 type  1   force =     0.00000000    0.00000000    0.00000000
     atom   19 type  2   force =     0.00000000    0.00000000    0.00000000
     atom   20 type  2   force =     0.00000000    0.00000000    0.00000000
     atom   21 type  1   force =     0.00000000    0.00000000    0.00000000
     atom   22 type  1   force =     0.00000000    0.00000000    0.00000000
     atom   23 type  2   force =     0.00000000    0.00000000    0.00000000
     atom   24 type  2   force =     0.00000000    0.00000000    0.00000000
     The SCF correction term to forces
     atom    1 type  1   force =    -0.00000874   -0.00000505   -0.00005109
     atom    2 type  1   force =    -0.00002060   -0.00001189   -0.00003890
     atom    3 type  2   force =     0.00000101    0.00000058    0.00000082
     atom    4 type  2   force =    -0.00000432   -0.00000250   -0.00001826
     atom    5 type  1   force =     0.00000880    0.00000508    0.00001922
     atom    6 type  1   force =     0.00000168    0.00000097   -0.00001721
     atom    7 type  2   force =     0.00000078    0.00000045    0.00001669
     atom    8 type  2   force =     0.00000036    0.00000021    0.00001538
     atom    9 type  1   force =    -0.00002030   -0.00001172   -0.00001475
     atom   10 type  1   force =     0.00001667    0.00000963    0.00002185
     atom   11 type  2   force =    -0.00000325   -0.00000188   -0.00001028
     atom   12 type  2   force =    -0.00000048   -0.00000028    0.00001029
     atom   13 type  1   force =     0.00001042    0.00000601   -0.00005408
     atom   14 type  1   force =     0.00001922    0.00001109   -0.00004617
     atom   15 type  2   force =     0.00000115    0.00000066   -0.00000029
     atom   16 type  2   force =     0.00000106    0.00000061   -0.00001714
     atom   17 type  1   force =    -0.00000788   -0.00000455   -0.00000362
     atom   18 type  1   force =    -0.00000301   -0.00000174   -0.00000557
     atom   19 type  2   force =     0.00000163    0.00000094    0.00001341
     atom   20 type  2   force =    -0.00000260   -0.00000150    0.00001460
     atom   21 type  1   force =     0.00002065    0.00001192    0.00001605
     atom   22 type  1   force =    -0.00001815   -0.00001048    0.00000112
     atom   23 type  2   force =     0.00000489    0.00000282   -0.00000679
     atom   24 type  2   force =    -0.00000114   -0.00000066    0.00001194

     Total force =     0.152166     Total SCF correction =     0.000128

     General routines

     Parallel routines

   This run was terminated on:  20:25: 4   4Sep2025

   JOB DONE.
Note: The following floating-point exceptions are signalling: IEEE_UNDERFLOW_FLAG IEEE_DENORMAL
Note: The following floating-point exceptions are signalling: IEEE_UNDERFLOW_FLAG IEEE_DENORMAL
Note: The following floating-point exceptions are signalling: IEEE_UNDERFLOW_FLAG IEEE_DENORMAL
Note: The following floating-point exceptions are signalling: IEEE_UNDERFLOW_FLAG IEEE_DENORMAL
Note: The following floating-point exceptions are signalling: IEEE_UNDERFLOW_FLAG IEEE_DENORMAL
Note: The following floating-point exceptions are signalling: IEEE_UNDERFLOW_FLAG IEEE_DENORMAL
Note: The following floating-point exceptions are signalling: IEEE_UNDERFLOW_FLAG IEEE_DENORMAL
Note: The following floating-point exceptions are signalling: IEEE_UNDERFLOW_FLAG IEEE_DENORMAL
Note: The following floating-point exceptions are signalling: IEEE_UNDERFLOW_FLAG IEEE_DENORMAL
Note: The following floating-point exceptions are signalling: IEEE_UNDERFLOW_FLAG IEEE_DENORMAL
Note: The following floating-point exceptions are signalling: IEEE_UNDERFLOW_FLAG IEEE_DENORMAL
Note: The following floating-point exceptions are signalling: IEEE_UNDERFLOW_FLAG IEEE_DENORMAL
Note: The following floating-point exceptions are signalling: IEEE_UNDERFLOW_FLAG IEEE_DENORMAL
Note: The following floating-point exceptions are signalling: IEEE_UNDERFLOW_FLAG IEEE_DENORMAL
Note: The following floating-point exceptions are signalling: IEEE_UNDERFLOW_FLAG IEEE_DENORMAL
Note: The following floating-point exceptions are signalling: IEEE_UNDERFLOW_FLAG IEEE_DENORMAL
Note: The following floating-point exceptions are signalling: IEEE_UNDERFLOW_FLAG IEEE_DENORMAL
Note: The following floating-point exceptions are signalling: IEEE_UNDERFLOW_FLAG IEEE_DENORMAL
Note: The following floating-point exceptions are signalling: IEEE_UNDERFLOW_FLAG IEEE_DENORMAL
Note: The following floating-point exceptions are signalling: IEEE_UNDERFLOW_FLAG IEEE_DENORMAL
Note: The following floating-point exceptions are signalling: IEEE_UNDERFLOW_FLAG IEEE_DENORMAL
Note: The following floating-point exceptions are signalling: IEEE_UNDERFLOW_FLAG IEEE_DENORMAL
Note: The following floating-point exceptions are signalling: IEEE_UNDERFLOW_FLAG IEEE_DENORMAL
Note: The following floating-point exceptions are signalling: IEEE_UNDERFLOW_FLAG IEEE_DENORMAL
Note: The following floating-point exceptions are signalling: IEEE_UNDERFLOW_FLAG IEEE_DENORMAL
Note: The following floating-point exceptions are signalling: IEEE_UNDERFLOW_FLAG IEEE_DENORMAL
Note: The following floating-point exceptions are signalling: IEEE_UNDERFLOW_FLAG IEEE_DENORMAL
Note: The following floating-point exceptions are signalling: IEEE_UNDERFLOW_FLAG IEEE_DENORMAL
Note: The following floating-point exceptions are signalling: IEEE_UNDERFLOW_FLAG IEEE_DENORMAL
Note: The following floating-point exceptions are signalling: IEEE_UNDERFLOW_FLAG IEEE_DENORMAL
Note: The following floating-point exceptions are signalling: IEEE_UNDERFLOW_FLAG IEEE_DENORMAL
Note: The following floating-point exceptions are signalling: IEEE_UNDERFLOW_FLAG IEEE_DENORMAL