     Program PWSCF v.7.0 starts on  5Sep2025 at 14:21:54

     K-points division:     npool     =       8
     R & G space division:  proc/nbgrp/npool/nimage =       4

     Reading input from /home/jvc/QEspresso7.2/ZnO_database/scripts/cell213.in/ZnO-3.40-1.61-213.in
Warning: card &CELL ignored
Warning: card / ignored
Warning: card &FCP ignored
Warning: card / ignored
Warning: card &RISM ignored
Warning: card / ignored

     Current dimensions of program PWSCF are:
     Max number of different atomic species (ntypx) = 10
     Max number of k-points (npk) =  40000
     Max angular momentum in pseudopotentials (lmaxx) =  4
     file Zn.upf: wavefunction(s)  3D renormalized
     Found identity + (  0.0000  0.0000  0.3333) symmetry
     This is a supercell, fractional translations are disabled
     Message from routine setup:
     using ibrav=0 with symmetry is DISCOURAGED, use correct ibrav instead

     Using Slab Decomposition

     bravais-lattice index     =            0
     lattice parameter (alat)  =      12.8520  a.u.
     unit-cell volume          =    2225.9000 (a.u.)^3
     number of atoms/cell      =           24
     number of atomic types    =            2
     number of electrons       =       216.00
     number of Kohn-Sham states=          108
     kinetic-energy cutoff     =      50.0000  Ry
     charge density cutoff     =     400.0000  Ry
     scf convergence threshold =      1.0E-08
     mixing beta               =       0.3000
     number of iterations used =            8  plain     mixing
     Exchange-correlation= PBE
                           (   1   4   3   4   0   0   0)

     celldm(1)=  12.852016  celldm(2)=   0.000000  celldm(3)=   0.000000
     celldm(4)=   0.000000  celldm(5)=   0.000000  celldm(6)=   0.000000

     crystal axes: (cart. coord. in units of alat)
               a(1) = (   1.000000   0.000000   0.000000 )
               a(2) = (  -0.250000   0.433013   0.000000 )
               a(3) = (   0.000000   0.000000   2.421538 )

     reciprocal axes: (cart. coord. in units 2 pi/alat)
               b(1) = (  1.000000  0.577350 -0.000000 )
               b(2) = (  0.000000  2.309401  0.000000 )
               b(3) = (  0.000000 -0.000000  0.412961 )

     PseudoPot. # 1 for Zn read from file:
     /home/jvc/QEspresso7.2/ZnO_database/pseudos/Zn.upf
     MD5 check sum: 7f56cabf9682ed8c977c2f7d0c5985c5
     Pseudo is Ultrasoft + core correction, Zval = 12.0
     Generated using &quot;atomic&quot; code by A. Dal Corso  v.6.2.2
     Using radial grid of 1201 points,  6 beta functions with:
                l(1) =   0
                l(2) =   0
                l(3) =   1
                l(4) =   1
                l(5) =   2
                l(6) =   2
     Q(r) pseudized with 0 coefficients

     PseudoPot. # 2 for O  read from file:
     /home/jvc/QEspresso7.2/ZnO_database/pseudos/O.upf
     MD5 check sum: 91400c9766925bcf19f520983a725ff0
     Pseudo is Ultrasoft + core correction, Zval =  6.0
     Generated using &quot;atomic&quot; code by A. Dal Corso  v.6.3MaX
     Using radial grid of 1095 points,  4 beta functions with:
                l(1) =   0
                l(2) =   0
                l(3) =   1
                l(4) =   1
     Q(r) pseudized with 0 coefficients

     atomic species   valence    mass     pseudopotential
        Zn            12.00    65.38000     Zn( 1.00)
        O              6.00    15.99900     O ( 1.00)

      2 Sym. Ops. (no inversion) found

                                    s                        frac. trans.

      isym =  1     identity

 cryst.   s( 1) = (     1          0          0      )
                  (     0          1          0      )
                  (     0          0          1      )

 cart.    s( 1) = (  1.0000000  0.0000000  0.0000000 )
                  (  0.0000000  1.0000000  0.0000000 )
                  (  0.0000000  0.0000000  1.0000000 )

      isym =  2     inv. 180 deg rotation - cryst. axis [0,1,0]

 cryst.   s( 2) = (     1          2          0      )
                  (     0         -1          0      )
                  (     0          0          1      )

 cart.    s( 2) = (  0.5000000  0.8660254  0.0000000 )
                  (  0.8660254 -0.5000000  0.0000000 )
                  (  0.0000000  0.0000000  1.0000000 )

   Cartesian axes

     site n.     atom                  positions (alat units)
         1           Zn  tau(   1) = (   0.2500000   0.1443376   0.4041010  )
         2           Zn  tau(   2) = (  -0.0000000   0.2886751   0.0005114  )
         3           O   tau(   3) = (   0.2500000   0.1443376   0.7100565  )
         4           O   tau(   4) = (  -0.0000000   0.2886751   0.3064669  )
         5           Zn  tau(   5) = (   0.2500000   0.1443376   1.2112802  )
         6           Zn  tau(   6) = (  -0.0000000   0.2886751   0.8076906  )
         7           O   tau(   7) = (   0.2500000   0.1443376   1.5172357  )
         8           O   tau(   8) = (  -0.0000000   0.2886751   1.1136461  )
         9           Zn  tau(   9) = (   0.2500000   0.1443376   2.0184594  )
        10           Zn  tau(  10) = (  -0.0000000   0.2886751   1.6148698  )
        11           O   tau(  11) = (   0.2500000   0.1443376   2.3244148  )
        12           O   tau(  12) = (  -0.0000000   0.2886751   1.9208253  )
        13           Zn  tau(  13) = (   0.7500000   0.1443376   0.4041010  )
        14           Zn  tau(  14) = (   0.5000000   0.2886751   0.0005114  )
        15           O   tau(  15) = (   0.7500000   0.1443376   0.7100565  )
        16           O   tau(  16) = (   0.5000000   0.2886751   0.3064669  )
        17           Zn  tau(  17) = (   0.7500000   0.1443376   1.2112802  )
        18           Zn  tau(  18) = (   0.5000000   0.2886751   0.8076906  )
        19           O   tau(  19) = (   0.7500000   0.1443376   1.5172357  )
        20           O   tau(  20) = (   0.5000000   0.2886751   1.1136461  )
        21           Zn  tau(  21) = (   0.7500000   0.1443376   2.0184594  )
        22           Zn  tau(  22) = (   0.5000000   0.2886751   1.6148698  )
        23           O   tau(  23) = (   0.7500000   0.1443376   2.3244148  )
        24           O   tau(  24) = (   0.5000000   0.2886751   1.9208253  )

   Crystallographic axes

     site n.     atom                  positions (cryst. coord.)
         1           Zn  tau(   1) = (  0.3333333  0.3333333  0.1668779  )
         2           Zn  tau(   2) = (  0.1666667  0.6666667  0.0002112  )
         3           O   tau(   3) = (  0.3333333  0.3333333  0.2932255  )
         4           O   tau(   4) = (  0.1666667  0.6666667  0.1265588  )
         5           Zn  tau(   5) = (  0.3333333  0.3333333  0.5002112  )
         6           Zn  tau(   6) = (  0.1666667  0.6666667  0.3335445  )
         7           O   tau(   7) = (  0.3333333  0.3333333  0.6265588  )
         8           O   tau(   8) = (  0.1666667  0.6666667  0.4598921  )
         9           Zn  tau(   9) = (  0.3333333  0.3333333  0.8335445  )
        10           Zn  tau(  10) = (  0.1666667  0.6666667  0.6668779  )
        11           O   tau(  11) = (  0.3333333  0.3333333  0.9598921  )
        12           O   tau(  12) = (  0.1666667  0.6666667  0.7932255  )
        13           Zn  tau(  13) = (  0.8333333  0.3333333  0.1668779  )
        14           Zn  tau(  14) = (  0.6666667  0.6666667  0.0002112  )
        15           O   tau(  15) = (  0.8333333  0.3333333  0.2932255  )
        16           O   tau(  16) = (  0.6666667  0.6666667  0.1265588  )
        17           Zn  tau(  17) = (  0.8333333  0.3333333  0.5002112  )
        18           Zn  tau(  18) = (  0.6666667  0.6666667  0.3335445  )
        19           O   tau(  19) = (  0.8333333  0.3333333  0.6265588  )
        20           O   tau(  20) = (  0.6666667  0.6666667  0.4598921  )
        21           Zn  tau(  21) = (  0.8333333  0.3333333  0.8335445  )
        22           Zn  tau(  22) = (  0.6666667  0.6666667  0.6668779  )
        23           O   tau(  23) = (  0.8333333  0.3333333  0.9598921  )
        24           O   tau(  24) = (  0.6666667  0.6666667  0.7932255  )

     number of k points=    80
                       cart. coord. in units 2pi/alat
        k(    1) = (   0.0000000   0.0000000   0.0000000), wk =   0.0092593
        k(    2) = (   0.0000000   0.0000000   0.0688268), wk =   0.0185185
        k(    3) = (   0.0000000   0.0000000   0.1376536), wk =   0.0185185
        k(    4) = (   0.0000000   0.0000000  -0.2064804), wk =   0.0092593
        k(    5) = (   0.0000000   0.3849002   0.0000000), wk =   0.0370370
        k(    6) = (   0.0000000   0.3849002   0.0688268), wk =   0.0370370
        k(    7) = (   0.0000000   0.3849002   0.1376536), wk =   0.0370370
        k(    8) = (   0.0000000   0.3849002  -0.2064804), wk =   0.0370370
        k(    9) = (   0.0000000   0.7698004   0.0000000), wk =   0.0370370
        k(   10) = (   0.0000000   0.7698004   0.0688268), wk =   0.0370370
        k(   11) = (   0.0000000   0.7698004   0.1376536), wk =   0.0370370
        k(   12) = (   0.0000000   0.7698004  -0.2064804), wk =   0.0370370
        k(   13) = (   0.0000000  -1.1547005   0.0000000), wk =   0.0092593
        k(   14) = (   0.0000000  -1.1547005   0.0688268), wk =   0.0185185
        k(   15) = (   0.0000000  -1.1547005   0.1376536), wk =   0.0185185
        k(   16) = (   0.0000000  -1.1547005  -0.2064804), wk =   0.0092593
        k(   17) = (   0.1666667   0.0962250   0.0000000), wk =   0.0185185
        k(   18) = (   0.1666667   0.0962250   0.0688268), wk =   0.0185185
        k(   19) = (   0.1666667   0.0962250   0.1376536), wk =   0.0185185
        k(   20) = (   0.1666667   0.0962250  -0.2064804), wk =   0.0185185
        k(   21) = (   0.1666667   0.4811252   0.0000000), wk =   0.0370370
        k(   22) = (   0.1666667   0.4811252   0.0688268), wk =   0.0370370
        k(   23) = (   0.1666667   0.4811252   0.1376536), wk =   0.0370370
        k(   24) = (   0.1666667   0.4811252  -0.2064804), wk =   0.0370370
        k(   25) = (   0.1666667   0.8660254   0.0000000), wk =   0.0185185
        k(   26) = (   0.1666667   0.8660254   0.0688268), wk =   0.0370370
        k(   27) = (   0.1666667   0.8660254   0.1376536), wk =   0.0370370
        k(   28) = (   0.1666667   0.8660254  -0.2064804), wk =   0.0185185
        k(   29) = (   0.1666667  -1.0584755   0.0000000), wk =   0.0185185
        k(   30) = (   0.1666667  -1.0584755   0.0688268), wk =   0.0185185
        k(   31) = (   0.1666667  -1.0584755   0.1376536), wk =   0.0185185
        k(   32) = (   0.1666667  -1.0584755  -0.2064804), wk =   0.0185185
        k(   33) = (   0.1666667  -0.6735753   0.0000000), wk =   0.0370370
        k(   34) = (   0.1666667  -0.6735753   0.0688268), wk =   0.0370370
        k(   35) = (   0.1666667  -0.6735753   0.1376536), wk =   0.0370370
        k(   36) = (   0.1666667  -0.6735753  -0.2064804), wk =   0.0370370
        k(   37) = (   0.1666667  -0.2886751   0.0000000), wk =   0.0185185
        k(   38) = (   0.1666667  -0.2886751   0.0688268), wk =   0.0370370
        k(   39) = (   0.1666667  -0.2886751   0.1376536), wk =   0.0370370
[...]
     estimated scf accuracy    <          2.0E-09 Ry

     The total energy is the sum of the following terms:
     one-electron contribution =   -1006.90247623 Ry
     hartree contribution      =     738.40595980 Ry
     xc contribution           =    -655.92300171 Ry
     ewald contribution        =   -1245.30928766 Ry

     convergence has been achieved in  23 iterations

     Forces acting on atoms (cartesian axes, Ry/au):

     atom    1 type  1   force =     0.00000743    0.00000429   -0.00007439
     atom    2 type  1   force =    -0.00000278   -0.00000160   -0.00008709
     atom    3 type  2   force =    -0.00000331   -0.00000191    0.00009153
     atom    4 type  2   force =     0.00000337    0.00000194    0.00009363
     atom    5 type  1   force =     0.00000112    0.00000065   -0.00010289
     atom    6 type  1   force =    -0.00000101   -0.00000058   -0.00008174
     atom    7 type  2   force =    -0.00000338   -0.00000195    0.00009459
     atom    8 type  2   force =     0.00000320    0.00000185    0.00009421
     atom    9 type  1   force =     0.00000531    0.00000307   -0.00010999
     atom   10 type  1   force =    -0.00000450   -0.00000260   -0.00010505
     atom   11 type  2   force =    -0.00000332   -0.00000192    0.00009473
     atom   12 type  2   force =     0.00000337    0.00000195    0.00009230
     atom   13 type  1   force =    -0.00000255   -0.00000147   -0.00007825
     atom   14 type  1   force =    -0.00000197   -0.00000114   -0.00008497
     atom   15 type  2   force =    -0.00000328   -0.00000190    0.00009167
     atom   16 type  2   force =     0.00000325    0.00000188    0.00009383
     atom   17 type  1   force =     0.00000344    0.00000199   -0.00010340
     atom   18 type  1   force =    -0.00000314   -0.00000181   -0.00008210
     atom   19 type  2   force =    -0.00000320   -0.00000185    0.00009461
     atom   20 type  2   force =     0.00000337    0.00000194    0.00009405
     atom   21 type  1   force =    -0.00000079   -0.00000046   -0.00010980
     atom   22 type  1   force =    -0.00000060   -0.00000035   -0.00010235
     atom   23 type  2   force =    -0.00000320   -0.00000185    0.00009455
     atom   24 type  2   force =     0.00000316    0.00000183    0.00009232
     The non-local contrib.  to forces
     atom    1 type  1   force =    -0.00000520   -0.00000300   -0.00452254
     atom    2 type  1   force =     0.00000719    0.00000415   -0.00453271
     atom    3 type  2   force =    -0.00018675   -0.00010782    0.00621618
     atom    4 type  2   force =     0.00018640    0.00010762    0.00621602
     atom    5 type  1   force =    -0.00000778   -0.00000449   -0.00453995
     atom    6 type  1   force =     0.00000774    0.00000447   -0.00452943
     atom    7 type  2   force =    -0.00018647   -0.00010766    0.00622916
     atom    8 type  2   force =     0.00018683    0.00010786    0.00622687
     atom    9 type  1   force =    -0.00000613   -0.00000354   -0.00454736
     atom   10 type  1   force =     0.00000612    0.00000353   -0.00454110
     atom   11 type  2   force =    -0.00018733   -0.00010816    0.00622555
     atom   12 type  2   force =     0.00018689    0.00010790    0.00622709
     atom   13 type  1   force =    -0.00000912   -0.00000526   -0.00452404
     atom   14 type  1   force =     0.00000704    0.00000406   -0.00453194
     atom   15 type  2   force =    -0.00018640   -0.00010762    0.00621630
     atom   16 type  2   force =     0.00018661    0.00010774    0.00621679
     atom   17 type  1   force =    -0.00000653   -0.00000377   -0.00454013
     atom   18 type  1   force =     0.00000677    0.00000391   -0.00452998
     atom   19 type  2   force =    -0.00018635   -0.00010759    0.00622908
     atom   20 type  2   force =     0.00018614    0.00010747    0.00622634
     atom   21 type  1   force =    -0.00000831   -0.00000480   -0.00454735
     atom   22 type  1   force =     0.00000816    0.00000471   -0.00454006
     atom   23 type  2   force =    -0.00018553   -0.00010712    0.00622533
     atom   24 type  2   force =     0.00018602    0.00010740    0.00622693
     The ionic contribution  to forces
     atom    1 type  1   force =    -0.00000000    0.00000000    0.05798521
     atom    2 type  1   force =     0.00000000   -0.00000000    0.05798525
     atom    3 type  2   force =    -0.00000000    0.00000000   -0.05798523
     atom    4 type  2   force =     0.00000000   -0.00000000   -0.05798524
     atom    5 type  1   force =    -0.00000000    0.00000000    0.05798525
     atom    6 type  1   force =     0.00000000   -0.00000000    0.05798521
     atom    7 type  2   force =    -0.00000000    0.00000000   -0.05798524
     atom    8 type  2   force =     0.00000000   -0.00000000   -0.05798521
     atom    9 type  1   force =    -0.00000000    0.00000000    0.05798521
     atom   10 type  1   force =     0.00000000   -0.00000000    0.05798521
     atom   11 type  2   force =    -0.00000000    0.00000000   -0.05798521
     atom   12 type  2   force =     0.00000000   -0.00000000   -0.05798523
     atom   13 type  1   force =    -0.00000000    0.00000000    0.05798521
     atom   14 type  1   force =     0.00000000   -0.00000000    0.05798525
     atom   15 type  2   force =    -0.00000000    0.00000000   -0.05798523
     atom   16 type  2   force =     0.00000000   -0.00000000   -0.05798524
     atom   17 type  1   force =    -0.00000000    0.00000000    0.05798525
     atom   18 type  1   force =     0.00000000   -0.00000000    0.05798521
     atom   19 type  2   force =    -0.00000000    0.00000000   -0.05798524
     atom   20 type  2   force =     0.00000000   -0.00000000   -0.05798521
     atom   21 type  1   force =    -0.00000000    0.00000000    0.05798521
     atom   22 type  1   force =     0.00000000   -0.00000000    0.05798521
     atom   23 type  2   force =    -0.00000000    0.00000000   -0.05798521
     atom   24 type  2   force =     0.00000000   -0.00000000   -0.05798523
     The local contribution  to forces
     atom    1 type  1   force =     0.00000690    0.00000398   -0.05392287
     atom    2 type  1   force =    -0.00001348   -0.00000788   -0.05389664
     atom    3 type  2   force =     0.00018039    0.00010415    0.05191699
     atom    4 type  2   force =    -0.00018166   -0.00010491    0.05191248
     atom    5 type  1   force =     0.00001571    0.00000907   -0.05387301
     atom    6 type  1   force =    -0.00001695   -0.00000989   -0.05391091
     atom    7 type  2   force =     0.00018151    0.00010479    0.05192958
     atom    8 type  2   force =    -0.00017955   -0.00010369    0.05193166
     atom    9 type  1   force =     0.00000988    0.00000570   -0.05386698
     atom   10 type  1   force =    -0.00001150   -0.00000674   -0.05387643
     atom   11 type  2   force =     0.00017974    0.00010377    0.05192356
     atom   12 type  2   force =    -0.00018090   -0.00010447    0.05193341
     atom   13 type  1   force =     0.00002187    0.00001263   -0.05391684
     atom   14 type  1   force =    -0.00001515   -0.00000885   -0.05390098
     atom   15 type  2   force =     0.00018135    0.00010470    0.05191548
     atom   16 type  2   force =    -0.00017960   -0.00010372    0.05191215
     atom   17 type  1   force =     0.00001319    0.00000762   -0.05387345
     atom   18 type  1   force =    -0.00001210   -0.00000709   -0.05391034
     atom   19 type  2   force =     0.00017951    0.00010364    0.05192923
     atom   20 type  2   force =    -0.00018207   -0.00010514    0.05193268
     atom   21 type  1   force =     0.00001910    0.00001103   -0.05386751
     atom   22 type  1   force =    -0.00001701   -0.00000992   -0.05388066
     atom   23 type  2   force =     0.00018171    0.00010491    0.05192389
     atom   24 type  2   force =    -0.00018054   -0.00010426    0.05193217
     The core correction contribution to forces
     atom    1 type  1   force =    -0.00000507   -0.00000293    0.00034797
     atom    2 type  1   force =     0.00000536    0.00000304    0.00035089
     atom    3 type  2   force =     0.00000211    0.00000122   -0.00007100
     atom    4 type  2   force =    -0.00000211   -0.00000122   -0.00006940
     atom    5 type  1   force =    -0.00000523   -0.00000302    0.00035047
     atom    6 type  1   force =     0.00000551    0.00000312    0.00034915
     atom    7 type  2   force =     0.00000211    0.00000122   -0.00006955
     atom    8 type  2   force =    -0.00000211   -0.00000122   -0.00007183
     atom    9 type  1   force =    -0.00000512   -0.00000296    0.00034894
     atom   10 type  1   force =     0.00000541    0.00000306    0.00034766
     atom   11 type  2   force =     0.00000212    0.00000122   -0.00007181
     atom   12 type  2   force =    -0.00000211   -0.00000122   -0.00007113
     atom   13 type  1   force =    -0.00000558   -0.00000318    0.00034781
     atom   14 type  1   force =     0.00000531    0.00000305    0.00035108
     atom   15 type  2   force =     0.00000211    0.00000122   -0.00007101
     atom   16 type  2   force =    -0.00000211   -0.00000122   -0.00006940
     atom   17 type  1   force =    -0.00000542   -0.00000308    0.00035053
     atom   18 type  1   force =     0.00000515    0.00000296    0.00034920
     atom   19 type  2   force =     0.00000210    0.00000122   -0.00006956
     atom   20 type  2   force =    -0.00000211   -0.00000122   -0.00007181
     atom   21 type  1   force =    -0.00000552   -0.00000314    0.00034894
     atom   22 type  1   force =     0.00000527    0.00000303    0.00034776
     atom   23 type  2   force =     0.00000210    0.00000122   -0.00007182
     atom   24 type  2   force =    -0.00000211   -0.00000121   -0.00007112
     The Hubbard contrib.    to forces
     atom    1 type  1   force =     0.00000000    0.00000000    0.00000000
     atom    2 type  1   force =     0.00000000    0.00000000    0.00000000
     atom    3 type  2   force =     0.00000000    0.00000000    0.00000000
     atom    4 type  2   force =     0.00000000    0.00000000    0.00000000
     atom    5 type  1   force =     0.00000000    0.00000000    0.00000000
     atom    6 type  1   force =     0.00000000    0.00000000    0.00000000
     atom    7 type  2   force =     0.00000000    0.00000000    0.00000000
     atom    8 type  2   force =     0.00000000    0.00000000    0.00000000
     atom    9 type  1   force =     0.00000000    0.00000000    0.00000000
     atom   10 type  1   force =     0.00000000    0.00000000    0.00000000
     atom   11 type  2   force =     0.00000000    0.00000000    0.00000000
     atom   12 type  2   force =     0.00000000    0.00000000    0.00000000
     atom   13 type  1   force =     0.00000000    0.00000000    0.00000000
     atom   14 type  1   force =     0.00000000    0.00000000    0.00000000
     atom   15 type  2   force =     0.00000000    0.00000000    0.00000000
     atom   16 type  2   force =     0.00000000    0.00000000    0.00000000
     atom   17 type  1   force =     0.00000000    0.00000000    0.00000000
     atom   18 type  1   force =     0.00000000    0.00000000    0.00000000
     atom   19 type  2   force =     0.00000000    0.00000000    0.00000000
     atom   20 type  2   force =     0.00000000    0.00000000    0.00000000
     atom   21 type  1   force =     0.00000000    0.00000000    0.00000000
     atom   22 type  1   force =     0.00000000    0.00000000    0.00000000
     atom   23 type  2   force =     0.00000000    0.00000000    0.00000000
     atom   24 type  2   force =     0.00000000    0.00000000    0.00000000
     The SCF correction term to forces
     atom    1 type  1   force =     0.00001078    0.00000622    0.00003785
     atom    2 type  1   force =    -0.00000181   -0.00000105    0.00000614
     atom    3 type  2   force =     0.00000091    0.00000053    0.00001460
     atom    4 type  2   force =     0.00000072    0.00000042    0.00001977
     atom    5 type  1   force =    -0.00000161   -0.00000093   -0.00002564
     atom    6 type  1   force =     0.00000274    0.00000158    0.00002427
     atom    7 type  2   force =    -0.00000056   -0.00000032   -0.00000936
     atom    8 type  2   force =    -0.00000198   -0.00000114   -0.00000725
     atom    9 type  1   force =     0.00000666    0.00000384   -0.00002979
     atom   10 type  1   force =    -0.00000449   -0.00000259   -0.00002038
     atom   11 type  2   force =     0.00000213    0.00000123    0.00000266
     atom   12 type  2   force =    -0.00000051   -0.00000030   -0.00001182
     atom   13 type  1   force =    -0.00000977   -0.00000564    0.00002963
     atom   14 type  1   force =     0.00000086    0.00000049    0.00001164
     atom   15 type  2   force =    -0.00000038   -0.00000022    0.00001615
     atom   16 type  2   force =    -0.00000167   -0.00000096    0.00001954
     atom   17 type  1   force =     0.00000215    0.00000124   -0.00002559
     atom   18 type  1   force =    -0.00000293   -0.00000169    0.00002382
     atom   19 type  2   force =     0.00000151    0.00000087   -0.00000890
     atom   20 type  2   force =     0.00000139    0.00000080   -0.00000793
     atom   21 type  1   force =    -0.00000611   -0.00000353   -0.00002907
     atom   22 type  1   force =     0.00000300    0.00000173   -0.00001458
     atom   23 type  2   force =    -0.00000150   -0.00000086    0.00000238
     atom   24 type  2   force =    -0.00000022   -0.00000013   -0.00001042

     Total force =     0.000461     Total SCF correction =     0.000098
     SCF correction compared to forces is large: reduce conv_thr to get better values

     General routines

     Parallel routines

   This run was terminated on:  14:45:12   5Sep2025

   JOB DONE.
Note: The following floating-point exceptions are signalling: IEEE_UNDERFLOW_FLAG IEEE_DENORMAL
Note: The following floating-point exceptions are signalling: IEEE_UNDERFLOW_FLAG IEEE_DENORMAL
Note: The following floating-point exceptions are signalling: IEEE_UNDERFLOW_FLAG IEEE_DENORMAL
Note: The following floating-point exceptions are signalling: IEEE_UNDERFLOW_FLAG IEEE_DENORMAL
Note: The following floating-point exceptions are signalling: IEEE_UNDERFLOW_FLAG IEEE_DENORMAL
Note: The following floating-point exceptions are signalling: IEEE_UNDERFLOW_FLAG IEEE_DENORMAL
Note: The following floating-point exceptions are signalling: IEEE_UNDERFLOW_FLAG IEEE_DENORMAL
Note: The following floating-point exceptions are signalling: IEEE_UNDERFLOW_FLAG IEEE_DENORMAL
Note: The following floating-point exceptions are signalling: IEEE_UNDERFLOW_FLAG IEEE_DENORMAL
Note: The following floating-point exceptions are signalling: IEEE_UNDERFLOW_FLAG IEEE_DENORMAL
Note: The following floating-point exceptions are signalling: IEEE_UNDERFLOW_FLAG IEEE_DENORMAL
Note: The following floating-point exceptions are signalling: IEEE_UNDERFLOW_FLAG IEEE_DENORMAL
Note: The following floating-point exceptions are signalling: IEEE_UNDERFLOW_FLAG IEEE_DENORMAL
Note: The following floating-point exceptions are signalling: IEEE_UNDERFLOW_FLAG IEEE_DENORMAL
Note: The following floating-point exceptions are signalling: IEEE_UNDERFLOW_FLAG IEEE_DENORMAL
Note: The following floating-point exceptions are signalling: IEEE_UNDERFLOW_FLAG IEEE_DENORMAL
Note: The following floating-point exceptions are signalling: IEEE_UNDERFLOW_FLAG IEEE_DENORMAL
Note: The following floating-point exceptions are signalling: IEEE_UNDERFLOW_FLAG IEEE_DENORMAL
Note: The following floating-point exceptions are signalling: IEEE_UNDERFLOW_FLAG IEEE_DENORMAL
Note: The following floating-point exceptions are signalling: IEEE_UNDERFLOW_FLAG IEEE_DENORMAL
Note: The following floating-point exceptions are signalling: IEEE_UNDERFLOW_FLAG IEEE_DENORMAL
Note: The following floating-point exceptions are signalling: IEEE_UNDERFLOW_FLAG IEEE_DENORMAL
Note: The following floating-point exceptions are signalling: IEEE_UNDERFLOW_FLAG IEEE_DENORMAL
Note: The following floating-point exceptions are signalling: IEEE_UNDERFLOW_FLAG IEEE_DENORMAL
Note: The following floating-point exceptions are signalling: IEEE_UNDERFLOW_FLAG IEEE_DENORMAL
Note: The following floating-point exceptions are signalling: IEEE_UNDERFLOW_FLAG IEEE_DENORMAL
Note: The following floating-point exceptions are signalling: IEEE_UNDERFLOW_FLAG IEEE_DENORMAL
Note: The following floating-point exceptions are signalling: IEEE_UNDERFLOW_FLAG IEEE_DENORMAL
Note: The following floating-point exceptions are signalling: IEEE_UNDERFLOW_FLAG IEEE_DENORMAL
Note: The following floating-point exceptions are signalling: IEEE_UNDERFLOW_FLAG IEEE_DENORMAL
Note: The following floating-point exceptions are signalling: IEEE_UNDERFLOW_FLAG IEEE_DENORMAL
Note: The following floating-point exceptions are signalling: IEEE_UNDERFLOW_FLAG IEEE_DENORMAL