     Program PWSCF v.7.0 starts on  5Sep2025 at  9:43: 6

     K-points division:     npool     =       8
     R & G space division:  proc/nbgrp/npool/nimage =       4

     Reading input from /home/jvc/QEspresso7.2/ZnO_database/scripts/cell213.in/ZnO-3.34-1.65-213.in
Warning: card &CELL ignored
Warning: card / ignored
Warning: card &FCP ignored
Warning: card / ignored
Warning: card &RISM ignored
Warning: card / ignored

     Current dimensions of program PWSCF are:
     Max number of different atomic species (ntypx) = 10
     Max number of k-points (npk) =  40000
     Max angular momentum in pseudopotentials (lmaxx) =  4
     file Zn.upf: wavefunction(s)  3D renormalized
     Found identity + (  0.0000  0.0000  0.3333) symmetry
     This is a supercell, fractional translations are disabled
     Message from routine setup:
     using ibrav=0 with symmetry is DISCOURAGED, use correct ibrav instead

     Using Slab Decomposition

     bravais-lattice index     =            0
     lattice parameter (alat)  =      12.6049  a.u.
     unit-cell volume          =    2141.9351 (a.u.)^3
     number of atoms/cell      =           24
     number of atomic types    =            2
     number of electrons       =       216.00
     number of Kohn-Sham states=          108
     kinetic-energy cutoff     =      50.0000  Ry
     charge density cutoff     =     400.0000  Ry
     scf convergence threshold =      1.0E-08
     mixing beta               =       0.3000
     number of iterations used =            8  plain     mixing
     Exchange-correlation= PBE
                           (   1   4   3   4   0   0   0)

     celldm(1)=  12.604862  celldm(2)=   0.000000  celldm(3)=   0.000000
     celldm(4)=   0.000000  celldm(5)=   0.000000  celldm(6)=   0.000000

     crystal axes: (cart. coord. in units of alat)
               a(1) = (   1.000000   0.000000   0.000000 )
               a(2) = (  -0.250000   0.433013   0.000000 )
               a(3) = (   0.000000   0.000000   2.469968 )

     reciprocal axes: (cart. coord. in units 2 pi/alat)
               b(1) = (  1.000000  0.577350 -0.000000 )
               b(2) = (  0.000000  2.309401  0.000000 )
               b(3) = (  0.000000 -0.000000  0.404863 )

     PseudoPot. # 1 for Zn read from file:
     /home/jvc/QEspresso7.2/ZnO_database/pseudos/Zn.upf
     MD5 check sum: 7f56cabf9682ed8c977c2f7d0c5985c5
     Pseudo is Ultrasoft + core correction, Zval = 12.0
     Generated using &quot;atomic&quot; code by A. Dal Corso  v.6.2.2
     Using radial grid of 1201 points,  6 beta functions with:
                l(1) =   0
                l(2) =   0
                l(3) =   1
                l(4) =   1
                l(5) =   2
                l(6) =   2
     Q(r) pseudized with 0 coefficients

     PseudoPot. # 2 for O  read from file:
     /home/jvc/QEspresso7.2/ZnO_database/pseudos/O.upf
     MD5 check sum: 91400c9766925bcf19f520983a725ff0
     Pseudo is Ultrasoft + core correction, Zval =  6.0
     Generated using &quot;atomic&quot; code by A. Dal Corso  v.6.3MaX
     Using radial grid of 1095 points,  4 beta functions with:
                l(1) =   0
                l(2) =   0
                l(3) =   1
                l(4) =   1
     Q(r) pseudized with 0 coefficients

     atomic species   valence    mass     pseudopotential
        Zn            12.00    65.38000     Zn( 1.00)
        O              6.00    15.99900     O ( 1.00)

      2 Sym. Ops. (no inversion) found

                                    s                        frac. trans.

      isym =  1     identity

 cryst.   s( 1) = (     1          0          0      )
                  (     0          1          0      )
                  (     0          0          1      )

 cart.    s( 1) = (  1.0000000  0.0000000  0.0000000 )
                  (  0.0000000  1.0000000  0.0000000 )
                  (  0.0000000  0.0000000  1.0000000 )

      isym =  2     inv. 180 deg rotation - cryst. axis [0,1,0]

 cryst.   s( 2) = (     1          2          0      )
                  (     0         -1          0      )
                  (     0          0          1      )

 cart.    s( 2) = (  0.5000000  0.8660254  0.0000000 )
                  (  0.8660254 -0.5000000  0.0000000 )
                  (  0.0000000  0.0000000  1.0000000 )

   Cartesian axes

     site n.     atom                  positions (alat units)
         1           Zn  tau(   1) = (   0.2500000   0.1443376   0.4121830  )
         2           Zn  tau(   2) = (  -0.0000000   0.2886751   0.0005216  )
         3           O   tau(   3) = (   0.2500000   0.1443376   0.7242576  )
         4           O   tau(   4) = (  -0.0000000   0.2886751   0.3125962  )
         5           Zn  tau(   5) = (   0.2500000   0.1443376   1.2355058  )
         6           Zn  tau(   6) = (  -0.0000000   0.2886751   0.8238444  )
         7           O   tau(   7) = (   0.2500000   0.1443376   1.5475804  )
         8           O   tau(   8) = (  -0.0000000   0.2886751   1.1359190  )
         9           Zn  tau(   9) = (   0.2500000   0.1443376   2.0588285  )
        10           Zn  tau(  10) = (  -0.0000000   0.2886751   1.6471672  )
        11           O   tau(  11) = (   0.2500000   0.1443376   2.3709031  )
        12           O   tau(  12) = (  -0.0000000   0.2886751   1.9592418  )
        13           Zn  tau(  13) = (   0.7500000   0.1443376   0.4121830  )
        14           Zn  tau(  14) = (   0.5000000   0.2886751   0.0005216  )
        15           O   tau(  15) = (   0.7500000   0.1443376   0.7242576  )
        16           O   tau(  16) = (   0.5000000   0.2886751   0.3125962  )
        17           Zn  tau(  17) = (   0.7500000   0.1443376   1.2355058  )
        18           Zn  tau(  18) = (   0.5000000   0.2886751   0.8238444  )
        19           O   tau(  19) = (   0.7500000   0.1443376   1.5475804  )
        20           O   tau(  20) = (   0.5000000   0.2886751   1.1359190  )
        21           Zn  tau(  21) = (   0.7500000   0.1443376   2.0588285  )
        22           Zn  tau(  22) = (   0.5000000   0.2886751   1.6471672  )
        23           O   tau(  23) = (   0.7500000   0.1443376   2.3709031  )
        24           O   tau(  24) = (   0.5000000   0.2886751   1.9592418  )

   Crystallographic axes

     site n.     atom                  positions (cryst. coord.)
         1           Zn  tau(   1) = (  0.3333333  0.3333333  0.1668779  )
         2           Zn  tau(   2) = (  0.1666667  0.6666667  0.0002112  )
         3           O   tau(   3) = (  0.3333333  0.3333333  0.2932255  )
         4           O   tau(   4) = (  0.1666667  0.6666667  0.1265588  )
         5           Zn  tau(   5) = (  0.3333333  0.3333333  0.5002112  )
         6           Zn  tau(   6) = (  0.1666667  0.6666667  0.3335445  )
         7           O   tau(   7) = (  0.3333333  0.3333333  0.6265588  )
         8           O   tau(   8) = (  0.1666667  0.6666667  0.4598921  )
         9           Zn  tau(   9) = (  0.3333333  0.3333333  0.8335445  )
        10           Zn  tau(  10) = (  0.1666667  0.6666667  0.6668779  )
        11           O   tau(  11) = (  0.3333333  0.3333333  0.9598921  )
        12           O   tau(  12) = (  0.1666667  0.6666667  0.7932255  )
        13           Zn  tau(  13) = (  0.8333333  0.3333333  0.1668779  )
        14           Zn  tau(  14) = (  0.6666667  0.6666667  0.0002112  )
        15           O   tau(  15) = (  0.8333333  0.3333333  0.2932255  )
        16           O   tau(  16) = (  0.6666667  0.6666667  0.1265588  )
        17           Zn  tau(  17) = (  0.8333333  0.3333333  0.5002112  )
        18           Zn  tau(  18) = (  0.6666667  0.6666667  0.3335445  )
        19           O   tau(  19) = (  0.8333333  0.3333333  0.6265588  )
        20           O   tau(  20) = (  0.6666667  0.6666667  0.4598921  )
        21           Zn  tau(  21) = (  0.8333333  0.3333333  0.8335445  )
        22           Zn  tau(  22) = (  0.6666667  0.6666667  0.6668779  )
        23           O   tau(  23) = (  0.8333333  0.3333333  0.9598921  )
        24           O   tau(  24) = (  0.6666667  0.6666667  0.7932255  )

     number of k points=    80
                       cart. coord. in units 2pi/alat
        k(    1) = (   0.0000000   0.0000000   0.0000000), wk =   0.0092593
        k(    2) = (   0.0000000   0.0000000   0.0674772), wk =   0.0185185
        k(    3) = (   0.0000000   0.0000000   0.1349545), wk =   0.0185185
        k(    4) = (   0.0000000   0.0000000  -0.2024317), wk =   0.0092593
        k(    5) = (   0.0000000   0.3849002   0.0000000), wk =   0.0370370
        k(    6) = (   0.0000000   0.3849002   0.0674772), wk =   0.0370370
        k(    7) = (   0.0000000   0.3849002   0.1349545), wk =   0.0370370
        k(    8) = (   0.0000000   0.3849002  -0.2024317), wk =   0.0370370
        k(    9) = (   0.0000000   0.7698004   0.0000000), wk =   0.0370370
        k(   10) = (   0.0000000   0.7698004   0.0674772), wk =   0.0370370
        k(   11) = (   0.0000000   0.7698004   0.1349545), wk =   0.0370370
        k(   12) = (   0.0000000   0.7698004  -0.2024317), wk =   0.0370370
        k(   13) = (   0.0000000  -1.1547005   0.0000000), wk =   0.0092593
        k(   14) = (   0.0000000  -1.1547005   0.0674772), wk =   0.0185185
        k(   15) = (   0.0000000  -1.1547005   0.1349545), wk =   0.0185185
        k(   16) = (   0.0000000  -1.1547005  -0.2024317), wk =   0.0092593
        k(   17) = (   0.1666667   0.0962250   0.0000000), wk =   0.0185185
        k(   18) = (   0.1666667   0.0962250   0.0674772), wk =   0.0185185
        k(   19) = (   0.1666667   0.0962250   0.1349545), wk =   0.0185185
        k(   20) = (   0.1666667   0.0962250  -0.2024317), wk =   0.0185185
        k(   21) = (   0.1666667   0.4811252   0.0000000), wk =   0.0370370
        k(   22) = (   0.1666667   0.4811252   0.0674772), wk =   0.0370370
        k(   23) = (   0.1666667   0.4811252   0.1349545), wk =   0.0370370
        k(   24) = (   0.1666667   0.4811252  -0.2024317), wk =   0.0370370
        k(   25) = (   0.1666667   0.8660254   0.0000000), wk =   0.0185185
        k(   26) = (   0.1666667   0.8660254   0.0674772), wk =   0.0370370
        k(   27) = (   0.1666667   0.8660254   0.1349545), wk =   0.0370370
        k(   28) = (   0.1666667   0.8660254  -0.2024317), wk =   0.0185185
        k(   29) = (   0.1666667  -1.0584755   0.0000000), wk =   0.0185185
        k(   30) = (   0.1666667  -1.0584755   0.0674772), wk =   0.0185185
        k(   31) = (   0.1666667  -1.0584755   0.1349545), wk =   0.0185185
        k(   32) = (   0.1666667  -1.0584755  -0.2024317), wk =   0.0185185
        k(   33) = (   0.1666667  -0.6735753   0.0000000), wk =   0.0370370
        k(   34) = (   0.1666667  -0.6735753   0.0674772), wk =   0.0370370
        k(   35) = (   0.1666667  -0.6735753   0.1349545), wk =   0.0370370
        k(   36) = (   0.1666667  -0.6735753  -0.2024317), wk =   0.0370370
        k(   37) = (   0.1666667  -0.2886751   0.0000000), wk =   0.0185185
        k(   38) = (   0.1666667  -0.2886751   0.0674772), wk =   0.0370370
        k(   39) = (   0.1666667  -0.2886751   0.1349545), wk =   0.0370370
[...]

!    total energy              =   -2169.77978693 Ry
     estimated scf accuracy    <          1.4E-10 Ry

     The total energy is the sum of the following terms:
     one-electron contribution =    -980.99558810 Ry
     hartree contribution      =     728.97585142 Ry
     xc contribution           =    -656.34463831 Ry
     ewald contribution        =   -1261.41541195 Ry

     convergence has been achieved in  28 iterations

     Forces acting on atoms (cartesian axes, Ry/au):

     atom    1 type  1   force =     0.00000321    0.00000185    0.00276969
     atom    2 type  1   force =    -0.00000262   -0.00000152    0.00277303
     atom    3 type  2   force =    -0.00000323   -0.00000187   -0.00277197
     atom    4 type  2   force =     0.00000315    0.00000182   -0.00276983
     atom    5 type  1   force =     0.00000286    0.00000165    0.00277347
     atom    6 type  1   force =    -0.00000223   -0.00000129    0.00276815
     atom    7 type  2   force =    -0.00000325   -0.00000188   -0.00276975
     atom    8 type  2   force =     0.00000328    0.00000189   -0.00276945
     atom    9 type  1   force =     0.00000467    0.00000270    0.00276910
     atom   10 type  1   force =    -0.00000186   -0.00000108    0.00276965
     atom   11 type  2   force =    -0.00000326   -0.00000188   -0.00276958
     atom   12 type  2   force =     0.00000315    0.00000182   -0.00277169
     atom   13 type  1   force =     0.00000295    0.00000171    0.00276886
     atom   14 type  1   force =    -0.00000396   -0.00000229    0.00277372
     atom   15 type  2   force =    -0.00000320   -0.00000185   -0.00277179
     atom   16 type  2   force =     0.00000322    0.00000186   -0.00276977
     atom   17 type  1   force =     0.00000340    0.00000196    0.00277299
     atom   18 type  1   force =    -0.00000516   -0.00000298    0.00276620
     atom   19 type  2   force =    -0.00000323   -0.00000186   -0.00276973
     atom   20 type  2   force =     0.00000330    0.00000190   -0.00276957
     atom   21 type  1   force =     0.00000272    0.00000157    0.00276960
     atom   22 type  1   force =    -0.00000404   -0.00000233    0.00276995
     atom   23 type  2   force =    -0.00000315   -0.00000182   -0.00276951
     atom   24 type  2   force =     0.00000329    0.00000190   -0.00277179
     The non-local contrib.  to forces
     atom    1 type  1   force =    -0.00001248   -0.00000721    0.04909594
     atom    2 type  1   force =     0.00001283    0.00000741    0.04909631
     atom    3 type  2   force =    -0.00018627   -0.00010754    0.05554622
     atom    4 type  2   force =     0.00018592    0.00010734    0.05554737
     atom    5 type  1   force =    -0.00001269   -0.00000733    0.04909620
     atom    6 type  1   force =     0.00001315    0.00000759    0.04909081
     atom    7 type  2   force =    -0.00018633   -0.00010757    0.05554764
     atom    8 type  2   force =     0.00018612    0.00010746    0.05554849
     atom    9 type  1   force =    -0.00001207   -0.00000697    0.04909143
     atom   10 type  1   force =     0.00001345    0.00000776    0.04909572
     atom   11 type  2   force =    -0.00018625   -0.00010753    0.05554834
     atom   12 type  2   force =     0.00018569    0.00010721    0.05554620
     atom   13 type  1   force =    -0.00001297   -0.00000749    0.04909606
     atom   14 type  1   force =     0.00001243    0.00000718    0.04909625
     atom   15 type  2   force =    -0.00018586   -0.00010731    0.05554675
     atom   16 type  2   force =     0.00018630    0.00010756    0.05554765
     atom   17 type  1   force =    -0.00001262   -0.00000728    0.04909642
     atom   18 type  1   force =     0.00001214    0.00000701    0.04909039
     atom   19 type  2   force =    -0.00018590   -0.00010733    0.05554768
     atom   20 type  2   force =     0.00018639    0.00010761    0.05554816
     atom   21 type  1   force =    -0.00001328   -0.00000766    0.04909187
     atom   22 type  1   force =     0.00001193    0.00000689    0.04909573
     atom   23 type  2   force =    -0.00018577   -0.00010725    0.05554837
     atom   24 type  2   force =     0.00018679    0.00010784    0.05554631
     The ionic contribution  to forces
     atom    1 type  1   force =     0.00000000    0.00000001    0.44698222
     atom    2 type  1   force =     0.00000001    0.00000000    0.44698225
     atom    3 type  2   force =     0.00000000    0.00000000   -0.44698223
     atom    4 type  2   force =     0.00000001    0.00000000   -0.44698224
     atom    5 type  1   force =     0.00000000    0.00000001    0.44698225
     atom    6 type  1   force =     0.00000001    0.00000000    0.44698222
     atom    7 type  2   force =     0.00000000    0.00000000   -0.44698224
     atom    8 type  2   force =     0.00000001    0.00000000   -0.44698222
     atom    9 type  1   force =     0.00000000    0.00000001    0.44698221
     atom   10 type  1   force =     0.00000001    0.00000000    0.44698222
     atom   11 type  2   force =     0.00000000    0.00000000   -0.44698222
     atom   12 type  2   force =     0.00000001    0.00000000   -0.44698223
     atom   13 type  1   force =    -0.00000002   -0.00000000    0.44698222
     atom   14 type  1   force =     0.00000000   -0.00000001    0.44698225
     atom   15 type  2   force =    -0.00000001    0.00000000   -0.44698223
     atom   16 type  2   force =     0.00000000   -0.00000001   -0.44698224
     atom   17 type  1   force =    -0.00000002   -0.00000000    0.44698225
     atom   18 type  1   force =     0.00000000   -0.00000001    0.44698221
     atom   19 type  2   force =    -0.00000001    0.00000000   -0.44698224
     atom   20 type  2   force =     0.00000000   -0.00000001   -0.44698221
     atom   21 type  1   force =    -0.00000002   -0.00000000    0.44698221
     atom   22 type  1   force =     0.00000000   -0.00000001    0.44698221
     atom   23 type  2   force =    -0.00000001    0.00000000   -0.44698222
     atom   24 type  2   force =     0.00000000   -0.00000001   -0.44698223
     The local contribution  to forces
     atom    1 type  1   force =     0.00002080    0.00001201   -0.49004959
     atom    2 type  1   force =    -0.00002150   -0.00001252   -0.49004851
     atom    3 type  2   force =     0.00017923    0.00010348    0.38915072
     atom    4 type  2   force =    -0.00018029   -0.00010411    0.38914905
     atom    5 type  1   force =     0.00002141    0.00001236   -0.49004813
     atom    6 type  1   force =    -0.00002222   -0.00001293   -0.49004554
     atom    7 type  2   force =     0.00017963    0.00010371    0.38914799
     atom    8 type  2   force =    -0.00018045   -0.00010421    0.38915004
     atom    9 type  1   force =     0.00001966    0.00001135   -0.49004690
     atom   10 type  1   force =    -0.00002258   -0.00001314   -0.49004965
     atom   11 type  2   force =     0.00017990    0.00010386    0.38915104
     atom   12 type  2   force =    -0.00018120   -0.00010464    0.38914872
     atom   13 type  1   force =     0.00002153    0.00001253   -0.49004947
     atom   14 type  1   force =    -0.00002042   -0.00001189   -0.49004852
     atom   15 type  2   force =     0.00018100    0.00010453    0.38915062
     atom   16 type  2   force =    -0.00018028   -0.00010411    0.38914875
     atom   17 type  1   force =     0.00002078    0.00001210   -0.49004853
     atom   18 type  1   force =    -0.00001948   -0.00001135   -0.49004404
     atom   19 type  2   force =     0.00018095    0.00010450    0.38914879
     atom   20 type  2   force =    -0.00018096   -0.00010451    0.38915074
     atom   21 type  1   force =     0.00002207    0.00001284   -0.49004790
     atom   22 type  1   force =    -0.00001966   -0.00001145   -0.49004970
     atom   23 type  2   force =     0.00017992    0.00010390    0.38915065
     atom   24 type  2   force =    -0.00017974   -0.00010380    0.38914960
     The core correction contribution to forces
     atom    1 type  1   force =    -0.00000566   -0.00000319   -0.00326370
     atom    2 type  1   force =     0.00000577    0.00000335   -0.00326043
     atom    3 type  2   force =     0.00000211    0.00000122   -0.00048043
     atom    4 type  2   force =    -0.00000211   -0.00000121   -0.00047895
     atom    5 type  1   force =    -0.00000567   -0.00000319   -0.00326045
     atom    6 type  1   force =     0.00000578    0.00000336   -0.00326210
     atom    7 type  2   force =     0.00000211    0.00000122   -0.00047896
     atom    8 type  2   force =    -0.00000211   -0.00000121   -0.00048110
     atom    9 type  1   force =    -0.00000567   -0.00000320   -0.00326210
     atom   10 type  1   force =     0.00000576    0.00000334   -0.00326369
     atom   11 type  2   force =     0.00000211    0.00000122   -0.00048109
     atom   12 type  2   force =    -0.00000211   -0.00000121   -0.00048043
     atom   13 type  1   force =    -0.00000577   -0.00000335   -0.00326369
     atom   14 type  1   force =     0.00000568    0.00000319   -0.00326043
     atom   15 type  2   force =     0.00000211    0.00000121   -0.00048044
     atom   16 type  2   force =    -0.00000211   -0.00000122   -0.00047896
     atom   17 type  1   force =    -0.00000577   -0.00000335   -0.00326043
     atom   18 type  1   force =     0.00000568    0.00000319   -0.00326208
     atom   19 type  2   force =     0.00000211    0.00000121   -0.00047896
     atom   20 type  2   force =    -0.00000212   -0.00000122   -0.00048110
     atom   21 type  1   force =    -0.00000578   -0.00000336   -0.00326210
     atom   22 type  1   force =     0.00000567    0.00000319   -0.00326369
     atom   23 type  2   force =     0.00000210    0.00000121   -0.00048110
     atom   24 type  2   force =    -0.00000212   -0.00000122   -0.00048043
     The Hubbard contrib.    to forces
     atom    1 type  1   force =     0.00000000    0.00000000    0.00000000
     atom    2 type  1   force =     0.00000000    0.00000000    0.00000000
     atom    3 type  2   force =     0.00000000    0.00000000    0.00000000
     atom    4 type  2   force =     0.00000000    0.00000000    0.00000000
     atom    5 type  1   force =     0.00000000    0.00000000    0.00000000
     atom    6 type  1   force =     0.00000000    0.00000000    0.00000000
     atom    7 type  2   force =     0.00000000    0.00000000    0.00000000
     atom    8 type  2   force =     0.00000000    0.00000000    0.00000000
     atom    9 type  1   force =     0.00000000    0.00000000    0.00000000
     atom   10 type  1   force =     0.00000000    0.00000000    0.00000000
     atom   11 type  2   force =     0.00000000    0.00000000    0.00000000
     atom   12 type  2   force =     0.00000000    0.00000000    0.00000000
     atom   13 type  1   force =     0.00000000    0.00000000    0.00000000
     atom   14 type  1   force =     0.00000000    0.00000000    0.00000000
     atom   15 type  2   force =     0.00000000    0.00000000    0.00000000
     atom   16 type  2   force =     0.00000000    0.00000000    0.00000000
     atom   17 type  1   force =     0.00000000    0.00000000    0.00000000
     atom   18 type  1   force =     0.00000000    0.00000000    0.00000000
     atom   19 type  2   force =     0.00000000    0.00000000    0.00000000
     atom   20 type  2   force =     0.00000000    0.00000000    0.00000000
     atom   21 type  1   force =     0.00000000    0.00000000    0.00000000
     atom   22 type  1   force =     0.00000000    0.00000000    0.00000000
     atom   23 type  2   force =     0.00000000    0.00000000    0.00000000
     atom   24 type  2   force =     0.00000000    0.00000000    0.00000000
     The SCF correction term to forces
     atom    1 type  1   force =     0.00000051    0.00000030    0.00000703
     atom    2 type  1   force =     0.00000031    0.00000018    0.00000562
     atom    3 type  2   force =     0.00000170    0.00000098   -0.00000404
     atom    4 type  2   force =    -0.00000037   -0.00000021   -0.00000285
     atom    5 type  1   force =    -0.00000023   -0.00000013    0.00000580
     atom    6 type  1   force =     0.00000109    0.00000063    0.00000496
     atom    7 type  2   force =     0.00000133    0.00000077   -0.00000197
     atom    8 type  2   force =    -0.00000028   -0.00000016   -0.00000246
     atom    9 type  1   force =     0.00000272    0.00000157    0.00000666
     atom   10 type  1   force =     0.00000154    0.00000089    0.00000724
     atom   11 type  2   force =     0.00000098    0.00000057   -0.00000345
     atom   12 type  2   force =     0.00000077    0.00000045   -0.00000173
     atom   13 type  1   force =     0.00000014    0.00000008    0.00000595
     atom   14 type  1   force =    -0.00000156   -0.00000090    0.00000639
     atom   15 type  2   force =    -0.00000044   -0.00000026   -0.00000429
     atom   16 type  2   force =    -0.00000068   -0.00000039   -0.00000277
     atom   17 type  1   force =     0.00000100    0.00000058    0.00000548
     atom   18 type  1   force =    -0.00000341   -0.00000197    0.00000191
     atom   19 type  2   force =    -0.00000039   -0.00000022   -0.00000280
     atom   20 type  2   force =     0.00000000    0.00000000   -0.00000295
     atom   21 type  1   force =    -0.00000031   -0.00000018    0.00000773
     atom   22 type  1   force =    -0.00000190   -0.00000110    0.00000761
     atom   23 type  2   force =     0.00000060    0.00000035   -0.00000301
     atom   24 type  2   force =    -0.00000163   -0.00000094   -0.00000284

     Total force =     0.013572     Total SCF correction =     0.000025

     General routines

     Parallel routines

   This run was terminated on:  10: 9:46   5Sep2025

   JOB DONE.
Note: The following floating-point exceptions are signalling: IEEE_UNDERFLOW_FLAG IEEE_DENORMAL
Note: The following floating-point exceptions are signalling: IEEE_UNDERFLOW_FLAG IEEE_DENORMAL
Note: The following floating-point exceptions are signalling: IEEE_UNDERFLOW_FLAG IEEE_DENORMAL
Note: The following floating-point exceptions are signalling: IEEE_UNDERFLOW_FLAG IEEE_DENORMAL
Note: The following floating-point exceptions are signalling: IEEE_UNDERFLOW_FLAG IEEE_DENORMAL
Note: The following floating-point exceptions are signalling: IEEE_UNDERFLOW_FLAG IEEE_DENORMAL
Note: The following floating-point exceptions are signalling: IEEE_UNDERFLOW_FLAG IEEE_DENORMAL
Note: The following floating-point exceptions are signalling: IEEE_UNDERFLOW_FLAG IEEE_DENORMAL
Note: The following floating-point exceptions are signalling: IEEE_UNDERFLOW_FLAG IEEE_DENORMAL
Note: The following floating-point exceptions are signalling: IEEE_UNDERFLOW_FLAG IEEE_DENORMAL
Note: The following floating-point exceptions are signalling: IEEE_UNDERFLOW_FLAG IEEE_DENORMAL
Note: The following floating-point exceptions are signalling: IEEE_UNDERFLOW_FLAG IEEE_DENORMAL
Note: The following floating-point exceptions are signalling: IEEE_UNDERFLOW_FLAG IEEE_DENORMAL
Note: The following floating-point exceptions are signalling: IEEE_UNDERFLOW_FLAG IEEE_DENORMAL
Note: The following floating-point exceptions are signalling: IEEE_UNDERFLOW_FLAG IEEE_DENORMAL
Note: The following floating-point exceptions are signalling: IEEE_UNDERFLOW_FLAG IEEE_DENORMAL
Note: The following floating-point exceptions are signalling: IEEE_UNDERFLOW_FLAG IEEE_DENORMAL
Note: The following floating-point exceptions are signalling: IEEE_UNDERFLOW_FLAG IEEE_DENORMAL
Note: The following floating-point exceptions are signalling: IEEE_UNDERFLOW_FLAG IEEE_DENORMAL
Note: The following floating-point exceptions are signalling: IEEE_UNDERFLOW_FLAG IEEE_DENORMAL
Note: The following floating-point exceptions are signalling: IEEE_UNDERFLOW_FLAG IEEE_DENORMAL
Note: The following floating-point exceptions are signalling: IEEE_UNDERFLOW_FLAG IEEE_DENORMAL
Note: The following floating-point exceptions are signalling: IEEE_UNDERFLOW_FLAG IEEE_DENORMAL
Note: The following floating-point exceptions are signalling: IEEE_UNDERFLOW_FLAG IEEE_DENORMAL
Note: The following floating-point exceptions are signalling: IEEE_UNDERFLOW_FLAG IEEE_DENORMAL
Note: The following floating-point exceptions are signalling: IEEE_UNDERFLOW_FLAG IEEE_DENORMAL
Note: The following floating-point exceptions are signalling: IEEE_UNDERFLOW_FLAG IEEE_DENORMAL
Note: The following floating-point exceptions are signalling: IEEE_UNDERFLOW_FLAG IEEE_DENORMAL
Note: The following floating-point exceptions are signalling: IEEE_UNDERFLOW_FLAG IEEE_DENORMAL
Note: The following floating-point exceptions are signalling: IEEE_UNDERFLOW_FLAG IEEE_DENORMAL
Note: The following floating-point exceptions are signalling: IEEE_UNDERFLOW_FLAG IEEE_DENORMAL
Note: The following floating-point exceptions are signalling: IEEE_UNDERFLOW_FLAG IEEE_DENORMAL