     Program PWSCF v.7.0 starts on  4Sep2025 at 10: 3: 6

     K-points division:     npool     =       8
     R & G space division:  proc/nbgrp/npool/nimage =       4

     Reading input from /home/jvc/QEspresso7.2/ZnO_database/scripts/cell213.in/ZnO-2.94-1.49-213.in
Warning: card &CELL ignored
Warning: card / ignored
Warning: card &FCP ignored
Warning: card / ignored
Warning: card &RISM ignored
Warning: card / ignored

     Current dimensions of program PWSCF are:
     Max number of different atomic species (ntypx) = 10
     Max number of k-points (npk) =  40000
     Max angular momentum in pseudopotentials (lmaxx) =  4
     file Zn.upf: wavefunction(s)  3D renormalized
     Found identity + (  0.0000  0.0000  0.3333) symmetry
     This is a supercell, fractional translations are disabled
     Message from routine setup:
     using ibrav=0 with symmetry is DISCOURAGED, use correct ibrav instead

     Using Slab Decomposition

     bravais-lattice index     =            0
     lattice parameter (alat)  =      11.1219  a.u.
     unit-cell volume          =    1327.1530 (a.u.)^3
     number of atoms/cell      =           24
     number of atomic types    =            2
     number of electrons       =       216.00
     number of Kohn-Sham states=          108
     kinetic-energy cutoff     =      50.0000  Ry
     charge density cutoff     =     400.0000  Ry
     scf convergence threshold =      1.0E-08
     mixing beta               =       0.3000
     number of iterations used =            8  plain     mixing
     Exchange-correlation= PBE
                           (   1   4   3   4   0   0   0)

     celldm(1)=  11.121937  celldm(2)=   0.000000  celldm(3)=   0.000000
     celldm(4)=   0.000000  celldm(5)=   0.000000  celldm(6)=   0.000000

     crystal axes: (cart. coord. in units of alat)
               a(1) = (   1.000000   0.000000   0.000000 )
               a(2) = (  -0.250000   0.433013   0.000000 )
               a(3) = (   0.000000   0.000000   2.227815 )

     reciprocal axes: (cart. coord. in units 2 pi/alat)
               b(1) = (  1.000000  0.577350 -0.000000 )
               b(2) = (  0.000000  2.309401  0.000000 )
               b(3) = (  0.000000 -0.000000  0.448870 )

     PseudoPot. # 1 for Zn read from file:
     /home/jvc/QEspresso7.2/ZnO_database/pseudos/Zn.upf
     MD5 check sum: 7f56cabf9682ed8c977c2f7d0c5985c5
     Pseudo is Ultrasoft + core correction, Zval = 12.0
     Generated using &quot;atomic&quot; code by A. Dal Corso  v.6.2.2
     Using radial grid of 1201 points,  6 beta functions with:
                l(1) =   0
                l(2) =   0
                l(3) =   1
                l(4) =   1
                l(5) =   2
                l(6) =   2
     Q(r) pseudized with 0 coefficients

     PseudoPot. # 2 for O  read from file:
     /home/jvc/QEspresso7.2/ZnO_database/pseudos/O.upf
     MD5 check sum: 91400c9766925bcf19f520983a725ff0
     Pseudo is Ultrasoft + core correction, Zval =  6.0
     Generated using &quot;atomic&quot; code by A. Dal Corso  v.6.3MaX
     Using radial grid of 1095 points,  4 beta functions with:
                l(1) =   0
                l(2) =   0
                l(3) =   1
                l(4) =   1
     Q(r) pseudized with 0 coefficients

     atomic species   valence    mass     pseudopotential
        Zn            12.00    65.38000     Zn( 1.00)
        O              6.00    15.99900     O ( 1.00)

      2 Sym. Ops. (no inversion) found

                                    s                        frac. trans.

      isym =  1     identity

 cryst.   s( 1) = (     1          0          0      )
                  (     0          1          0      )
                  (     0          0          1      )

 cart.    s( 1) = (  1.0000000  0.0000000  0.0000000 )
                  (  0.0000000  1.0000000  0.0000000 )
                  (  0.0000000  0.0000000  1.0000000 )

      isym =  2     inv. 180 deg rotation - cryst. axis [0,1,0]

 cryst.   s( 2) = (     1          2          0      )
                  (     0         -1          0      )
                  (     0          0          1      )

 cart.    s( 2) = (  0.5000000  0.8660254  0.0000000 )
                  (  0.8660254 -0.5000000  0.0000000 )
                  (  0.0000000  0.0000000  1.0000000 )

   Cartesian axes

     site n.     atom                  positions (alat units)
         1           Zn  tau(   1) = (   0.2500000   0.1443376   0.3717729  )
         2           Zn  tau(   2) = (  -0.0000000   0.2886751   0.0004705  )
         3           O   tau(   3) = (   0.2500000   0.1443376   0.6532520  )
         4           O   tau(   4) = (  -0.0000000   0.2886751   0.2819495  )
         5           Zn  tau(   5) = (   0.2500000   0.1443376   1.1143778  )
         6           Zn  tau(   6) = (  -0.0000000   0.2886751   0.7430753  )
         7           O   tau(   7) = (   0.2500000   0.1443376   1.3958568  )
         8           O   tau(   8) = (  -0.0000000   0.2886751   1.0245544  )
         9           Zn  tau(   9) = (   0.2500000   0.1443376   1.8569826  )
        10           Zn  tau(  10) = (  -0.0000000   0.2886751   1.4856802  )
        11           O   tau(  11) = (   0.2500000   0.1443376   2.1384617  )
        12           O   tau(  12) = (  -0.0000000   0.2886751   1.7671592  )
        13           Zn  tau(  13) = (   0.7500000   0.1443376   0.3717729  )
        14           Zn  tau(  14) = (   0.5000000   0.2886751   0.0004705  )
        15           O   tau(  15) = (   0.7500000   0.1443376   0.6532520  )
        16           O   tau(  16) = (   0.5000000   0.2886751   0.2819495  )
        17           Zn  tau(  17) = (   0.7500000   0.1443376   1.1143778  )
        18           Zn  tau(  18) = (   0.5000000   0.2886751   0.7430753  )
        19           O   tau(  19) = (   0.7500000   0.1443376   1.3958568  )
        20           O   tau(  20) = (   0.5000000   0.2886751   1.0245544  )
        21           Zn  tau(  21) = (   0.7500000   0.1443376   1.8569826  )
        22           Zn  tau(  22) = (   0.5000000   0.2886751   1.4856802  )
        23           O   tau(  23) = (   0.7500000   0.1443376   2.1384617  )
        24           O   tau(  24) = (   0.5000000   0.2886751   1.7671592  )

   Crystallographic axes

     site n.     atom                  positions (cryst. coord.)
         1           Zn  tau(   1) = (  0.3333333  0.3333333  0.1668779  )
         2           Zn  tau(   2) = (  0.1666667  0.6666667  0.0002112  )
         3           O   tau(   3) = (  0.3333333  0.3333333  0.2932255  )
         4           O   tau(   4) = (  0.1666667  0.6666667  0.1265588  )
         5           Zn  tau(   5) = (  0.3333333  0.3333333  0.5002112  )
         6           Zn  tau(   6) = (  0.1666667  0.6666667  0.3335445  )
         7           O   tau(   7) = (  0.3333333  0.3333333  0.6265588  )
         8           O   tau(   8) = (  0.1666667  0.6666667  0.4598921  )
         9           Zn  tau(   9) = (  0.3333333  0.3333333  0.8335445  )
        10           Zn  tau(  10) = (  0.1666667  0.6666667  0.6668779  )
        11           O   tau(  11) = (  0.3333333  0.3333333  0.9598921  )
        12           O   tau(  12) = (  0.1666667  0.6666667  0.7932255  )
        13           Zn  tau(  13) = (  0.8333333  0.3333333  0.1668779  )
        14           Zn  tau(  14) = (  0.6666667  0.6666667  0.0002112  )
        15           O   tau(  15) = (  0.8333333  0.3333333  0.2932255  )
        16           O   tau(  16) = (  0.6666667  0.6666667  0.1265588  )
        17           Zn  tau(  17) = (  0.8333333  0.3333333  0.5002112  )
        18           Zn  tau(  18) = (  0.6666667  0.6666667  0.3335445  )
        19           O   tau(  19) = (  0.8333333  0.3333333  0.6265588  )
        20           O   tau(  20) = (  0.6666667  0.6666667  0.4598921  )
        21           Zn  tau(  21) = (  0.8333333  0.3333333  0.8335445  )
        22           Zn  tau(  22) = (  0.6666667  0.6666667  0.6668779  )
        23           O   tau(  23) = (  0.8333333  0.3333333  0.9598921  )
        24           O   tau(  24) = (  0.6666667  0.6666667  0.7932255  )

     number of k points=    80
                       cart. coord. in units 2pi/alat
        k(    1) = (   0.0000000   0.0000000   0.0000000), wk =   0.0092593
        k(    2) = (   0.0000000   0.0000000   0.0748117), wk =   0.0185185
        k(    3) = (   0.0000000   0.0000000   0.1496235), wk =   0.0185185
        k(    4) = (   0.0000000   0.0000000  -0.2244352), wk =   0.0092593
        k(    5) = (   0.0000000   0.3849002   0.0000000), wk =   0.0370370
        k(    6) = (   0.0000000   0.3849002   0.0748117), wk =   0.0370370
        k(    7) = (   0.0000000   0.3849002   0.1496235), wk =   0.0370370
        k(    8) = (   0.0000000   0.3849002  -0.2244352), wk =   0.0370370
        k(    9) = (   0.0000000   0.7698004   0.0000000), wk =   0.0370370
        k(   10) = (   0.0000000   0.7698004   0.0748117), wk =   0.0370370
        k(   11) = (   0.0000000   0.7698004   0.1496235), wk =   0.0370370
        k(   12) = (   0.0000000   0.7698004  -0.2244352), wk =   0.0370370
        k(   13) = (   0.0000000  -1.1547005   0.0000000), wk =   0.0092593
        k(   14) = (   0.0000000  -1.1547005   0.0748117), wk =   0.0185185
        k(   15) = (   0.0000000  -1.1547005   0.1496235), wk =   0.0185185
        k(   16) = (   0.0000000  -1.1547005  -0.2244352), wk =   0.0092593
        k(   17) = (   0.1666667   0.0962250   0.0000000), wk =   0.0185185
        k(   18) = (   0.1666667   0.0962250   0.0748117), wk =   0.0185185
        k(   19) = (   0.1666667   0.0962250   0.1496235), wk =   0.0185185
        k(   20) = (   0.1666667   0.0962250  -0.2244352), wk =   0.0185185
        k(   21) = (   0.1666667   0.4811252   0.0000000), wk =   0.0370370
        k(   22) = (   0.1666667   0.4811252   0.0748117), wk =   0.0370370
        k(   23) = (   0.1666667   0.4811252   0.1496235), wk =   0.0370370
        k(   24) = (   0.1666667   0.4811252  -0.2244352), wk =   0.0370370
        k(   25) = (   0.1666667   0.8660254   0.0000000), wk =   0.0185185
        k(   26) = (   0.1666667   0.8660254   0.0748117), wk =   0.0370370
        k(   27) = (   0.1666667   0.8660254   0.1496235), wk =   0.0370370
        k(   28) = (   0.1666667   0.8660254  -0.2244352), wk =   0.0185185
        k(   29) = (   0.1666667  -1.0584755   0.0000000), wk =   0.0185185
        k(   30) = (   0.1666667  -1.0584755   0.0748117), wk =   0.0185185
        k(   31) = (   0.1666667  -1.0584755   0.1496235), wk =   0.0185185
        k(   32) = (   0.1666667  -1.0584755  -0.2244352), wk =   0.0185185
        k(   33) = (   0.1666667  -0.6735753   0.0000000), wk =   0.0370370
        k(   34) = (   0.1666667  -0.6735753   0.0748117), wk =   0.0370370
        k(   35) = (   0.1666667  -0.6735753   0.1496235), wk =   0.0370370
        k(   36) = (   0.1666667  -0.6735753  -0.2244352), wk =   0.0370370
        k(   37) = (   0.1666667  -0.2886751   0.0000000), wk =   0.0185185
        k(   38) = (   0.1666667  -0.2886751   0.0748117), wk =   0.0370370
        k(   39) = (   0.1666667  -0.2886751   0.1496235), wk =   0.0370370
[...]

!    total energy              =   -2167.57257265 Ry
     estimated scf accuracy    <          2.9E-09 Ry

     The total energy is the sum of the following terms:
     one-electron contribution =    -643.06364243 Ry
     hartree contribution      =     615.19734416 Ry
     xc contribution           =    -663.66440358 Ry
     ewald contribution        =   -1476.04187079 Ry

     convergence has been achieved in  21 iterations

     Forces acting on atoms (cartesian axes, Ry/au):

     atom    1 type  1   force =     0.00001874    0.00001082   -0.15379295
     atom    2 type  1   force =    -0.00001675   -0.00000967   -0.15379176
     atom    3 type  2   force =    -0.00000298   -0.00000172    0.15379878
     atom    4 type  2   force =     0.00000389    0.00000224    0.15380451
     atom    5 type  1   force =     0.00001823    0.00001053   -0.15379268
     atom    6 type  1   force =    -0.00001401   -0.00000809   -0.15380902
     atom    7 type  2   force =    -0.00000267   -0.00000154    0.15380518
     atom    8 type  2   force =     0.00000343    0.00000198    0.15379457
     atom    9 type  1   force =     0.00001909    0.00001102   -0.15380892
     atom   10 type  1   force =    -0.00001575   -0.00000909   -0.15380275
     atom   11 type  2   force =    -0.00000284   -0.00000164    0.15379389
     atom   12 type  2   force =     0.00000350    0.00000202    0.15379995
     atom   13 type  1   force =     0.00001486    0.00000858   -0.15379759
     atom   14 type  1   force =    -0.00001687   -0.00000974   -0.15379126
     atom   15 type  2   force =    -0.00000347   -0.00000200    0.15379939
     atom   16 type  2   force =     0.00000262    0.00000151    0.15380414
     atom   17 type  1   force =     0.00001491    0.00000861   -0.15379328
     atom   18 type  1   force =    -0.00001891   -0.00001092   -0.15380594
     atom   19 type  2   force =    -0.00000353   -0.00000204    0.15380460
     atom   20 type  2   force =     0.00000275    0.00000159    0.15379525
     atom   21 type  1   force =     0.00001395    0.00000806   -0.15380761
     atom   22 type  1   force =    -0.00001735   -0.00001002   -0.15380044
     atom   23 type  2   force =    -0.00000326   -0.00000188    0.15379359
     atom   24 type  2   force =     0.00000241    0.00000139    0.15380037
     The non-local contrib.  to forces
     atom    1 type  1   force =    -0.00002318   -0.00001338   -0.30119729
     atom    2 type  1   force =     0.00002373    0.00001370   -0.30118667
     atom    3 type  2   force =    -0.00012792   -0.00007386   -0.15046450
     atom    4 type  2   force =     0.00012876    0.00007434   -0.15045771
     atom    5 type  1   force =    -0.00002333   -0.00001347   -0.30118854
     atom    6 type  1   force =     0.00002406    0.00001389   -0.30118814
     atom    7 type  2   force =    -0.00012868   -0.00007429   -0.15045354
     atom    8 type  2   force =     0.00012837    0.00007411   -0.15046282
     atom    9 type  1   force =    -0.00002328   -0.00001344   -0.30119013
     atom   10 type  1   force =     0.00002356    0.00001360   -0.30120222
     atom   11 type  2   force =    -0.00012891   -0.00007443   -0.15046474
     atom   12 type  2   force =     0.00012902    0.00007449   -0.15046154
     atom   13 type  1   force =    -0.00002389   -0.00001379   -0.30119814
     atom   14 type  1   force =     0.00002306    0.00001332   -0.30118640
     atom   15 type  2   force =    -0.00012906   -0.00007451   -0.15046464
     atom   16 type  2   force =     0.00012879    0.00007436   -0.15045787
     atom   17 type  1   force =    -0.00002371   -0.00001369   -0.30118846
     atom   18 type  1   force =     0.00002305    0.00001331   -0.30118785
     atom   19 type  2   force =    -0.00012861   -0.00007425   -0.15045410
     atom   20 type  2   force =     0.00012773    0.00007375   -0.15046295
     atom   21 type  1   force =    -0.00002429   -0.00001402   -0.30118989
     atom   22 type  1   force =     0.00002364    0.00001365   -0.30120144
     atom   23 type  2   force =    -0.00012813   -0.00007398   -0.15046425
     atom   24 type  2   force =     0.00012781    0.00007379   -0.15046228
     The ionic contribution  to forces
     atom    1 type  1   force =    -0.00000000    0.00000000   -2.15847729
     atom    2 type  1   force =     0.00000000   -0.00000000   -2.15847724
     atom    3 type  2   force =    -0.00000000    0.00000000    2.15847727
     atom    4 type  2   force =     0.00000000   -0.00000000    2.15847726
     atom    5 type  1   force =    -0.00000000    0.00000000   -2.15847724
     atom    6 type  1   force =     0.00000000   -0.00000000   -2.15847729
     atom    7 type  2   force =    -0.00000000    0.00000000    2.15847726
     atom    8 type  2   force =     0.00000000   -0.00000000    2.15847729
     atom    9 type  1   force =    -0.00000000    0.00000000   -2.15847729
     atom   10 type  1   force =     0.00000000   -0.00000000   -2.15847729
     atom   11 type  2   force =    -0.00000000    0.00000000    2.15847729
     atom   12 type  2   force =     0.00000000   -0.00000000    2.15847727
     atom   13 type  1   force =    -0.00000000    0.00000000   -2.15847729
     atom   14 type  1   force =     0.00000000   -0.00000000   -2.15847724
     atom   15 type  2   force =    -0.00000000    0.00000000    2.15847727
     atom   16 type  2   force =     0.00000000   -0.00000000    2.15847726
     atom   17 type  1   force =    -0.00000000    0.00000000   -2.15847724
     atom   18 type  1   force =     0.00000000   -0.00000000   -2.15847729
     atom   19 type  2   force =    -0.00000000    0.00000000    2.15847726
     atom   20 type  2   force =     0.00000000   -0.00000000    2.15847729
     atom   21 type  1   force =    -0.00000000    0.00000000   -2.15847729
     atom   22 type  1   force =     0.00000000   -0.00000000   -2.15847729
     atom   23 type  2   force =    -0.00000000    0.00000000    2.15847729
     atom   24 type  2   force =     0.00000000   -0.00000000    2.15847727
     The local contribution  to forces
     atom    1 type  1   force =     0.00003866    0.00002232    2.27260974
     atom    2 type  1   force =    -0.00004073   -0.00002360    2.27261028
     atom    3 type  2   force =     0.00012290    0.00007095   -1.85475218
     atom    4 type  2   force =    -0.00012348   -0.00007131   -1.85475313
     atom    5 type  1   force =     0.00003897    0.00002250    2.27261358
     atom    6 type  1   force =    -0.00004477   -0.00002594    2.27261459
     atom    7 type  2   force =     0.00012390    0.00007153   -1.85474989
     atom    8 type  2   force =    -0.00012301   -0.00007104   -1.85475301
     atom    9 type  1   force =     0.00003792    0.00002189    2.27261567
     atom   10 type  1   force =    -0.00004178   -0.00002421    2.27262631
     atom   11 type  2   force =     0.00012273    0.00007086   -1.85475418
     atom   12 type  2   force =    -0.00012335   -0.00007124   -1.85474891
     atom   13 type  1   force =     0.00004344    0.00002508    2.27261642
     atom   14 type  1   force =    -0.00004105   -0.00002379    2.27260883
     atom   15 type  2   force =     0.00012362    0.00007137   -1.85475125
     atom   16 type  2   force =    -0.00012366   -0.00007142   -1.85475278
     atom   17 type  1   force =     0.00004326    0.00002498    2.27261471
     atom   18 type  1   force =    -0.00003738   -0.00002167    2.27261029
     atom   19 type  2   force =     0.00012317    0.00007111   -1.85474967
     atom   20 type  2   force =    -0.00012255   -0.00007078   -1.85475284
     atom   21 type  1   force =     0.00004462    0.00002576    2.27261440
     atom   22 type  1   force =    -0.00004042   -0.00002343    2.27262200
     atom   23 type  2   force =     0.00012415    0.00007168   -1.85475420
     atom   24 type  2   force =    -0.00012357   -0.00007136   -1.85474871
     The core correction contribution to forces
     atom    1 type  1   force =    -0.00000152   -0.00000088    0.03325349
     atom    2 type  1   force =     0.00000152    0.00000087    0.03325656
     atom    3 type  2   force =     0.00000143    0.00000082    0.00053548
     atom    4 type  2   force =    -0.00000143   -0.00000083    0.00053188
     atom    5 type  1   force =    -0.00000150   -0.00000086    0.03325650
     atom    6 type  1   force =     0.00000165    0.00000094    0.03324219
     atom    7 type  2   force =     0.00000143    0.00000083    0.00053183
     atom    8 type  2   force =    -0.00000143   -0.00000082    0.00053486
     atom    9 type  1   force =    -0.00000147   -0.00000085    0.03324230
     atom   10 type  1   force =     0.00000158    0.00000090    0.03325329
     atom   11 type  2   force =     0.00000144    0.00000083    0.00053488
     atom   12 type  2   force =    -0.00000144   -0.00000083    0.00053545
     atom   13 type  1   force =    -0.00000160   -0.00000092    0.03325334
     atom   14 type  1   force =     0.00000162    0.00000092    0.03325660
     atom   15 type  2   force =     0.00000144    0.00000083    0.00053549
     atom   16 type  2   force =    -0.00000144   -0.00000083    0.00053188
     atom   17 type  1   force =    -0.00000161   -0.00000093    0.03325647
     atom   18 type  1   force =     0.00000146    0.00000083    0.03324226
     atom   19 type  2   force =     0.00000143    0.00000083    0.00053184
     atom   20 type  2   force =    -0.00000142   -0.00000082    0.00053486
     atom   21 type  1   force =    -0.00000162   -0.00000093    0.03324231
     atom   22 type  1   force =     0.00000154    0.00000088    0.03325339
     atom   23 type  2   force =     0.00000143    0.00000082    0.00053487
     atom   24 type  2   force =    -0.00000142   -0.00000082    0.00053546
     The Hubbard contrib.    to forces
     atom    1 type  1   force =     0.00000000    0.00000000    0.00000000
     atom    2 type  1   force =     0.00000000    0.00000000    0.00000000
     atom    3 type  2   force =     0.00000000    0.00000000    0.00000000
     atom    4 type  2   force =     0.00000000    0.00000000    0.00000000
     atom    5 type  1   force =     0.00000000    0.00000000    0.00000000
     atom    6 type  1   force =     0.00000000    0.00000000    0.00000000
     atom    7 type  2   force =     0.00000000    0.00000000    0.00000000
     atom    8 type  2   force =     0.00000000    0.00000000    0.00000000
     atom    9 type  1   force =     0.00000000    0.00000000    0.00000000
     atom   10 type  1   force =     0.00000000    0.00000000    0.00000000
     atom   11 type  2   force =     0.00000000    0.00000000    0.00000000
     atom   12 type  2   force =     0.00000000    0.00000000    0.00000000
     atom   13 type  1   force =     0.00000000    0.00000000    0.00000000
     atom   14 type  1   force =     0.00000000    0.00000000    0.00000000
     atom   15 type  2   force =     0.00000000    0.00000000    0.00000000
     atom   16 type  2   force =     0.00000000    0.00000000    0.00000000
     atom   17 type  1   force =     0.00000000    0.00000000    0.00000000
     atom   18 type  1   force =     0.00000000    0.00000000    0.00000000
     atom   19 type  2   force =     0.00000000    0.00000000    0.00000000
     atom   20 type  2   force =     0.00000000    0.00000000    0.00000000
     atom   21 type  1   force =     0.00000000    0.00000000    0.00000000
     atom   22 type  1   force =     0.00000000    0.00000000    0.00000000
     atom   23 type  2   force =     0.00000000    0.00000000    0.00000000
     atom   24 type  2   force =     0.00000000    0.00000000    0.00000000
     The SCF correction term to forces
     atom    1 type  1   force =     0.00000478    0.00000276    0.00001940
     atom    2 type  1   force =    -0.00000123   -0.00000071    0.00000630
     atom    3 type  2   force =     0.00000062    0.00000036    0.00000369
     atom    4 type  2   force =     0.00000004    0.00000003    0.00000719
     atom    5 type  1   force =     0.00000409    0.00000236    0.00000399
     atom    6 type  1   force =     0.00000510    0.00000294    0.00000062
     atom    7 type  2   force =     0.00000067    0.00000039    0.00000052
     atom    8 type  2   force =    -0.00000049   -0.00000028   -0.00000076
     atom    9 type  1   force =     0.00000592    0.00000342    0.00000151
     atom   10 type  1   force =     0.00000093    0.00000054   -0.00000185
     atom   11 type  2   force =     0.00000191    0.00000110    0.00000162
     atom   12 type  2   force =    -0.00000072   -0.00000042   -0.00000135
     atom   13 type  1   force =    -0.00000309   -0.00000178    0.00000906
     atom   14 type  1   force =    -0.00000046   -0.00000026    0.00000795
     atom   15 type  2   force =     0.00000053    0.00000031    0.00000350
     atom   16 type  2   force =    -0.00000107   -0.00000062    0.00000663
     atom   17 type  1   force =    -0.00000303   -0.00000175    0.00000223
     atom   18 type  1   force =    -0.00000600   -0.00000346    0.00000763
     atom   19 type  2   force =     0.00000048    0.00000028    0.00000026
     atom   20 type  2   force =    -0.00000100   -0.00000058   -0.00000012
     atom   21 type  1   force =    -0.00000475   -0.00000275    0.00000385
     atom   22 type  1   force =    -0.00000206   -0.00000119    0.00000389
     atom   23 type  2   force =    -0.00000069   -0.00000040    0.00000086
     atom   24 type  2   force =    -0.00000040   -0.00000023   -0.00000040

     Total force =     0.753461     Total SCF correction =     0.000033

     General routines

     Parallel routines

   This run was terminated on:  10:15:36   4Sep2025

   JOB DONE.
Note: The following floating-point exceptions are signalling: IEEE_UNDERFLOW_FLAG IEEE_DENORMAL
Note: The following floating-point exceptions are signalling: IEEE_UNDERFLOW_FLAG IEEE_DENORMAL
Note: The following floating-point exceptions are signalling: IEEE_UNDERFLOW_FLAG IEEE_DENORMAL
Note: The following floating-point exceptions are signalling: IEEE_UNDERFLOW_FLAG IEEE_DENORMAL
Note: The following floating-point exceptions are signalling: IEEE_UNDERFLOW_FLAG IEEE_DENORMAL
Note: The following floating-point exceptions are signalling: IEEE_UNDERFLOW_FLAG IEEE_DENORMAL
Note: The following floating-point exceptions are signalling: IEEE_UNDERFLOW_FLAG IEEE_DENORMAL
Note: The following floating-point exceptions are signalling: IEEE_UNDERFLOW_FLAG IEEE_DENORMAL
Note: The following floating-point exceptions are signalling: IEEE_UNDERFLOW_FLAG IEEE_DENORMAL
Note: The following floating-point exceptions are signalling: IEEE_UNDERFLOW_FLAG IEEE_DENORMAL
Note: The following floating-point exceptions are signalling: IEEE_UNDERFLOW_FLAG IEEE_DENORMAL
Note: The following floating-point exceptions are signalling: IEEE_UNDERFLOW_FLAG IEEE_DENORMAL
Note: The following floating-point exceptions are signalling: IEEE_UNDERFLOW_FLAG IEEE_DENORMAL
Note: The following floating-point exceptions are signalling: IEEE_UNDERFLOW_FLAG IEEE_DENORMAL
Note: The following floating-point exceptions are signalling: IEEE_UNDERFLOW_FLAG IEEE_DENORMAL
Note: The following floating-point exceptions are signalling: IEEE_UNDERFLOW_FLAG IEEE_DENORMAL
Note: The following floating-point exceptions are signalling: IEEE_UNDERFLOW_FLAG IEEE_DENORMAL
Note: The following floating-point exceptions are signalling: IEEE_UNDERFLOW_FLAG IEEE_DENORMAL
Note: The following floating-point exceptions are signalling: IEEE_UNDERFLOW_FLAG IEEE_DENORMAL
Note: The following floating-point exceptions are signalling: IEEE_UNDERFLOW_FLAG IEEE_DENORMAL
Note: The following floating-point exceptions are signalling: IEEE_UNDERFLOW_FLAG IEEE_DENORMAL
Note: The following floating-point exceptions are signalling: IEEE_UNDERFLOW_FLAG IEEE_DENORMAL
Note: The following floating-point exceptions are signalling: IEEE_UNDERFLOW_FLAG IEEE_DENORMAL
Note: The following floating-point exceptions are signalling: IEEE_UNDERFLOW_FLAG IEEE_DENORMAL
Note: The following floating-point exceptions are signalling: IEEE_UNDERFLOW_FLAG IEEE_DENORMAL
Note: The following floating-point exceptions are signalling: IEEE_UNDERFLOW_FLAG IEEE_DENORMAL
Note: The following floating-point exceptions are signalling: IEEE_UNDERFLOW_FLAG IEEE_DENORMAL
Note: The following floating-point exceptions are signalling: IEEE_UNDERFLOW_FLAG IEEE_DENORMAL
Note: The following floating-point exceptions are signalling: IEEE_UNDERFLOW_FLAG IEEE_DENORMAL
Note: The following floating-point exceptions are signalling: IEEE_UNDERFLOW_FLAG IEEE_DENORMAL
Note: The following floating-point exceptions are signalling: IEEE_UNDERFLOW_FLAG IEEE_DENORMAL
Note: The following floating-point exceptions are signalling: IEEE_UNDERFLOW_FLAG IEEE_DENORMAL