     Program PWSCF v.7.0 starts on  5Sep2025 at  5: 5: 6

     K-points division:     npool     =       8
     R & G space division:  proc/nbgrp/npool/nimage =       4

     Reading input from /home/jvc/QEspresso7.2/ZnO_database/scripts/cell213.in/ZnO-3.27-1.61-213.in
Warning: card &CELL ignored
Warning: card / ignored
Warning: card &FCP ignored
Warning: card / ignored
Warning: card &RISM ignored
Warning: card / ignored

     Current dimensions of program PWSCF are:
     Max number of different atomic species (ntypx) = 10
     Max number of k-points (npk) =  40000
     Max angular momentum in pseudopotentials (lmaxx) =  4
     file Zn.upf: wavefunction(s)  3D renormalized
     Found identity + (  0.0000  0.0000  0.3333) symmetry
     This is a supercell, fractional translations are disabled
     Message from routine setup:
     using ibrav=0 with symmetry is DISCOURAGED, use correct ibrav instead

     Using Slab Decomposition

     bravais-lattice index     =            0
     lattice parameter (alat)  =      12.3577  a.u.
     unit-cell volume          =    1978.8170 (a.u.)^3
     number of atoms/cell      =           24
     number of atomic types    =            2
     number of electrons       =       216.00
     number of Kohn-Sham states=          108
     kinetic-energy cutoff     =      50.0000  Ry
     charge density cutoff     =     400.0000  Ry
     scf convergence threshold =      1.0E-08
     mixing beta               =       0.3000
     number of iterations used =            8  plain     mixing
     Exchange-correlation= PBE
                           (   1   4   3   4   0   0   0)

     celldm(1)=  12.357708  celldm(2)=   0.000000  celldm(3)=   0.000000
     celldm(4)=   0.000000  celldm(5)=   0.000000  celldm(6)=   0.000000

     crystal axes: (cart. coord. in units of alat)
               a(1) = (   1.000000   0.000000   0.000000 )
               a(2) = (  -0.250000   0.433013   0.000000 )
               a(3) = (   0.000000   0.000000   2.421538 )

     reciprocal axes: (cart. coord. in units 2 pi/alat)
               b(1) = (  1.000000  0.577350 -0.000000 )
               b(2) = (  0.000000  2.309401  0.000000 )
               b(3) = (  0.000000 -0.000000  0.412961 )

     PseudoPot. # 1 for Zn read from file:
     /home/jvc/QEspresso7.2/ZnO_database/pseudos/Zn.upf
     MD5 check sum: 7f56cabf9682ed8c977c2f7d0c5985c5
     Pseudo is Ultrasoft + core correction, Zval = 12.0
     Generated using &quot;atomic&quot; code by A. Dal Corso  v.6.2.2
     Using radial grid of 1201 points,  6 beta functions with:
                l(1) =   0
                l(2) =   0
                l(3) =   1
                l(4) =   1
                l(5) =   2
                l(6) =   2
     Q(r) pseudized with 0 coefficients

     PseudoPot. # 2 for O  read from file:
     /home/jvc/QEspresso7.2/ZnO_database/pseudos/O.upf
     MD5 check sum: 91400c9766925bcf19f520983a725ff0
     Pseudo is Ultrasoft + core correction, Zval =  6.0
     Generated using &quot;atomic&quot; code by A. Dal Corso  v.6.3MaX
     Using radial grid of 1095 points,  4 beta functions with:
                l(1) =   0
                l(2) =   0
                l(3) =   1
                l(4) =   1
     Q(r) pseudized with 0 coefficients

     atomic species   valence    mass     pseudopotential
        Zn            12.00    65.38000     Zn( 1.00)
        O              6.00    15.99900     O ( 1.00)

      2 Sym. Ops. (no inversion) found

                                    s                        frac. trans.

      isym =  1     identity

 cryst.   s( 1) = (     1          0          0      )
                  (     0          1          0      )
                  (     0          0          1      )

 cart.    s( 1) = (  1.0000000  0.0000000  0.0000000 )
                  (  0.0000000  1.0000000  0.0000000 )
                  (  0.0000000  0.0000000  1.0000000 )

      isym =  2     inv. 180 deg rotation - cryst. axis [0,1,0]

 cryst.   s( 2) = (     1          2          0      )
                  (     0         -1          0      )
                  (     0          0          1      )

 cart.    s( 2) = (  0.5000000  0.8660254  0.0000000 )
                  (  0.8660254 -0.5000000  0.0000000 )
                  (  0.0000000  0.0000000  1.0000000 )

   Cartesian axes

     site n.     atom                  positions (alat units)
         1           Zn  tau(   1) = (   0.2500000   0.1443376   0.4041010  )
         2           Zn  tau(   2) = (  -0.0000000   0.2886751   0.0005114  )
         3           O   tau(   3) = (   0.2500000   0.1443376   0.7100565  )
         4           O   tau(   4) = (  -0.0000000   0.2886751   0.3064669  )
         5           Zn  tau(   5) = (   0.2500000   0.1443376   1.2112802  )
         6           Zn  tau(   6) = (  -0.0000000   0.2886751   0.8076906  )
         7           O   tau(   7) = (   0.2500000   0.1443376   1.5172357  )
         8           O   tau(   8) = (  -0.0000000   0.2886751   1.1136461  )
         9           Zn  tau(   9) = (   0.2500000   0.1443376   2.0184594  )
        10           Zn  tau(  10) = (  -0.0000000   0.2886751   1.6148698  )
        11           O   tau(  11) = (   0.2500000   0.1443376   2.3244148  )
        12           O   tau(  12) = (  -0.0000000   0.2886751   1.9208253  )
        13           Zn  tau(  13) = (   0.7500000   0.1443376   0.4041010  )
        14           Zn  tau(  14) = (   0.5000000   0.2886751   0.0005114  )
        15           O   tau(  15) = (   0.7500000   0.1443376   0.7100565  )
        16           O   tau(  16) = (   0.5000000   0.2886751   0.3064669  )
        17           Zn  tau(  17) = (   0.7500000   0.1443376   1.2112802  )
        18           Zn  tau(  18) = (   0.5000000   0.2886751   0.8076906  )
        19           O   tau(  19) = (   0.7500000   0.1443376   1.5172357  )
        20           O   tau(  20) = (   0.5000000   0.2886751   1.1136461  )
        21           Zn  tau(  21) = (   0.7500000   0.1443376   2.0184594  )
        22           Zn  tau(  22) = (   0.5000000   0.2886751   1.6148698  )
        23           O   tau(  23) = (   0.7500000   0.1443376   2.3244148  )
        24           O   tau(  24) = (   0.5000000   0.2886751   1.9208253  )

   Crystallographic axes

     site n.     atom                  positions (cryst. coord.)
         1           Zn  tau(   1) = (  0.3333333  0.3333333  0.1668779  )
         2           Zn  tau(   2) = (  0.1666667  0.6666667  0.0002112  )
         3           O   tau(   3) = (  0.3333333  0.3333333  0.2932255  )
         4           O   tau(   4) = (  0.1666667  0.6666667  0.1265588  )
         5           Zn  tau(   5) = (  0.3333333  0.3333333  0.5002112  )
         6           Zn  tau(   6) = (  0.1666667  0.6666667  0.3335445  )
         7           O   tau(   7) = (  0.3333333  0.3333333  0.6265588  )
         8           O   tau(   8) = (  0.1666667  0.6666667  0.4598921  )
         9           Zn  tau(   9) = (  0.3333333  0.3333333  0.8335445  )
        10           Zn  tau(  10) = (  0.1666667  0.6666667  0.6668779  )
        11           O   tau(  11) = (  0.3333333  0.3333333  0.9598921  )
        12           O   tau(  12) = (  0.1666667  0.6666667  0.7932255  )
        13           Zn  tau(  13) = (  0.8333333  0.3333333  0.1668779  )
        14           Zn  tau(  14) = (  0.6666667  0.6666667  0.0002112  )
        15           O   tau(  15) = (  0.8333333  0.3333333  0.2932255  )
        16           O   tau(  16) = (  0.6666667  0.6666667  0.1265588  )
        17           Zn  tau(  17) = (  0.8333333  0.3333333  0.5002112  )
        18           Zn  tau(  18) = (  0.6666667  0.6666667  0.3335445  )
        19           O   tau(  19) = (  0.8333333  0.3333333  0.6265588  )
        20           O   tau(  20) = (  0.6666667  0.6666667  0.4598921  )
        21           Zn  tau(  21) = (  0.8333333  0.3333333  0.8335445  )
        22           Zn  tau(  22) = (  0.6666667  0.6666667  0.6668779  )
        23           O   tau(  23) = (  0.8333333  0.3333333  0.9598921  )
        24           O   tau(  24) = (  0.6666667  0.6666667  0.7932255  )

     number of k points=    80
                       cart. coord. in units 2pi/alat
        k(    1) = (   0.0000000   0.0000000   0.0000000), wk =   0.0092593
        k(    2) = (   0.0000000   0.0000000   0.0688268), wk =   0.0185185
        k(    3) = (   0.0000000   0.0000000   0.1376536), wk =   0.0185185
        k(    4) = (   0.0000000   0.0000000  -0.2064804), wk =   0.0092593
        k(    5) = (   0.0000000   0.3849002   0.0000000), wk =   0.0370370
        k(    6) = (   0.0000000   0.3849002   0.0688268), wk =   0.0370370
        k(    7) = (   0.0000000   0.3849002   0.1376536), wk =   0.0370370
        k(    8) = (   0.0000000   0.3849002  -0.2064804), wk =   0.0370370
        k(    9) = (   0.0000000   0.7698004   0.0000000), wk =   0.0370370
        k(   10) = (   0.0000000   0.7698004   0.0688268), wk =   0.0370370
        k(   11) = (   0.0000000   0.7698004   0.1376536), wk =   0.0370370
        k(   12) = (   0.0000000   0.7698004  -0.2064804), wk =   0.0370370
        k(   13) = (   0.0000000  -1.1547005   0.0000000), wk =   0.0092593
        k(   14) = (   0.0000000  -1.1547005   0.0688268), wk =   0.0185185
        k(   15) = (   0.0000000  -1.1547005   0.1376536), wk =   0.0185185
        k(   16) = (   0.0000000  -1.1547005  -0.2064804), wk =   0.0092593
        k(   17) = (   0.1666667   0.0962250   0.0000000), wk =   0.0185185
        k(   18) = (   0.1666667   0.0962250   0.0688268), wk =   0.0185185
        k(   19) = (   0.1666667   0.0962250   0.1376536), wk =   0.0185185
        k(   20) = (   0.1666667   0.0962250  -0.2064804), wk =   0.0185185
        k(   21) = (   0.1666667   0.4811252   0.0000000), wk =   0.0370370
        k(   22) = (   0.1666667   0.4811252   0.0688268), wk =   0.0370370
        k(   23) = (   0.1666667   0.4811252   0.1376536), wk =   0.0370370
        k(   24) = (   0.1666667   0.4811252  -0.2064804), wk =   0.0370370
        k(   25) = (   0.1666667   0.8660254   0.0000000), wk =   0.0185185
        k(   26) = (   0.1666667   0.8660254   0.0688268), wk =   0.0370370
        k(   27) = (   0.1666667   0.8660254   0.1376536), wk =   0.0370370
        k(   28) = (   0.1666667   0.8660254  -0.2064804), wk =   0.0185185
        k(   29) = (   0.1666667  -1.0584755   0.0000000), wk =   0.0185185
        k(   30) = (   0.1666667  -1.0584755   0.0688268), wk =   0.0185185
        k(   31) = (   0.1666667  -1.0584755   0.1376536), wk =   0.0185185
        k(   32) = (   0.1666667  -1.0584755  -0.2064804), wk =   0.0185185
        k(   33) = (   0.1666667  -0.6735753   0.0000000), wk =   0.0370370
        k(   34) = (   0.1666667  -0.6735753   0.0688268), wk =   0.0370370
        k(   35) = (   0.1666667  -0.6735753   0.1376536), wk =   0.0370370
        k(   36) = (   0.1666667  -0.6735753  -0.2064804), wk =   0.0370370
        k(   37) = (   0.1666667  -0.2886751   0.0000000), wk =   0.0185185
        k(   38) = (   0.1666667  -0.2886751   0.0688268), wk =   0.0370370
        k(   39) = (   0.1666667  -0.2886751   0.1376536), wk =   0.0370370
[...]
     estimated scf accuracy    <          1.5E-09 Ry

     The total energy is the sum of the following terms:
     one-electron contribution =    -927.15007009 Ry
     hartree contribution      =     709.72278693 Ry
     xc contribution           =    -657.27297968 Ry
     ewald contribution        =   -1295.12165916 Ry

     convergence has been achieved in  27 iterations

     Forces acting on atoms (cartesian axes, Ry/au):

     atom    1 type  1   force =     0.00000708    0.00000409    0.00005469
     atom    2 type  1   force =    -0.00000787   -0.00000454    0.00004798
     atom    3 type  2   force =    -0.00000168   -0.00000097   -0.00005388
     atom    4 type  2   force =     0.00000204    0.00000118   -0.00005359
     atom    5 type  1   force =     0.00000452    0.00000261    0.00005369
     atom    6 type  1   force =    -0.00000772   -0.00000445    0.00005426
     atom    7 type  2   force =    -0.00000163   -0.00000094   -0.00005524
     atom    8 type  2   force =     0.00000214    0.00000124   -0.00005436
     atom    9 type  1   force =     0.00000952    0.00000550    0.00005446
     atom   10 type  1   force =    -0.00000945   -0.00000546    0.00005843
     atom   11 type  2   force =    -0.00000174   -0.00000100   -0.00005351
     atom   12 type  2   force =     0.00000212    0.00000122   -0.00005469
     atom   13 type  1   force =     0.00000608    0.00000351    0.00005490
     atom   14 type  1   force =    -0.00000533   -0.00000308    0.00004788
     atom   15 type  2   force =    -0.00000183   -0.00000105   -0.00005389
     atom   16 type  2   force =     0.00000204    0.00000118   -0.00005365
     atom   17 type  1   force =     0.00000961    0.00000555    0.00005693
     atom   18 type  1   force =    -0.00000695   -0.00000402    0.00005258
     atom   19 type  2   force =    -0.00000176   -0.00000101   -0.00005578
     atom   20 type  2   force =     0.00000200    0.00000115   -0.00005448
     atom   21 type  1   force =     0.00000304    0.00000175    0.00005394
     atom   22 type  1   force =    -0.00000423   -0.00000244    0.00006129
     atom   23 type  2   force =    -0.00000188   -0.00000109   -0.00005315
     atom   24 type  2   force =     0.00000187    0.00000108   -0.00005480
     The non-local contrib.  to forces
     atom    1 type  1   force =    -0.00001836   -0.00001060   -0.00477536
     atom    2 type  1   force =     0.00001767    0.00001020   -0.00477828
     atom    3 type  2   force =    -0.00017631   -0.00010179    0.00552565
     atom    4 type  2   force =     0.00017677    0.00010206    0.00552811
     atom    5 type  1   force =    -0.00001934   -0.00001117   -0.00477384
     atom    6 type  1   force =     0.00001810    0.00001045   -0.00477429
     atom    7 type  2   force =    -0.00017707   -0.00010223    0.00552127
     atom    8 type  2   force =     0.00017744    0.00010244    0.00552479
     atom    9 type  1   force =    -0.00001696   -0.00000979   -0.00477259
     atom   10 type  1   force =     0.00001694    0.00000978   -0.00477028
     atom   11 type  2   force =    -0.00017695   -0.00010216    0.00552791
     atom   12 type  2   force =     0.00017785    0.00010268    0.00552204
     atom   13 type  1   force =    -0.00001805   -0.00001042   -0.00477546
     atom   14 type  1   force =     0.00001864    0.00001076   -0.00477878
     atom   15 type  2   force =    -0.00017732   -0.00010238    0.00552601
     atom   16 type  2   force =     0.00017673    0.00010204    0.00552807
     atom   17 type  1   force =    -0.00001707   -0.00000985   -0.00477266
     atom   18 type  1   force =     0.00001806    0.00001043   -0.00477522
     atom   19 type  2   force =    -0.00017670   -0.00010202    0.00551991
     atom   20 type  2   force =     0.00017684    0.00010210    0.00552414
     atom   21 type  1   force =    -0.00001955   -0.00001129   -0.00477308
     atom   22 type  1   force =     0.00001953    0.00001127   -0.00476850
     atom   23 type  2   force =    -0.00017714   -0.00010227    0.00552952
     atom   24 type  2   force =     0.00017604    0.00010164    0.00552219
     The ionic contribution  to forces
     atom    1 type  1   force =     0.00000000    0.00000001    0.06271681
     atom    2 type  1   force =     0.00000001    0.00000000    0.06271685
     atom    3 type  2   force =     0.00000000    0.00000001   -0.06271682
     atom    4 type  2   force =     0.00000001   -0.00000000   -0.06271683
     atom    5 type  1   force =     0.00000000    0.00000001    0.06271684
     atom    6 type  1   force =     0.00000001    0.00000000    0.06271681
     atom    7 type  2   force =     0.00000000    0.00000001   -0.06271683
     atom    8 type  2   force =     0.00000001   -0.00000000   -0.06271681
     atom    9 type  1   force =     0.00000000    0.00000001    0.06271680
     atom   10 type  1   force =     0.00000001    0.00000000    0.06271681
     atom   11 type  2   force =     0.00000000    0.00000001   -0.06271681
     atom   12 type  2   force =     0.00000001   -0.00000000   -0.06271682
     atom   13 type  1   force =    -0.00000000   -0.00000000    0.06271681
     atom   14 type  1   force =    -0.00000001   -0.00000001    0.06271685
     atom   15 type  2   force =    -0.00000000   -0.00000000   -0.06271682
     atom   16 type  2   force =    -0.00000001   -0.00000000   -0.06271683
     atom   17 type  1   force =    -0.00000000   -0.00000000    0.06271685
     atom   18 type  1   force =    -0.00000001   -0.00000001    0.06271681
     atom   19 type  2   force =    -0.00000000   -0.00000000   -0.06271683
     atom   20 type  2   force =    -0.00000001   -0.00000000   -0.06271681
     atom   21 type  1   force =    -0.00000000   -0.00000000    0.06271681
     atom   22 type  1   force =    -0.00000001   -0.00000001    0.06271681
     atom   23 type  2   force =    -0.00000000   -0.00000000   -0.06271681
     atom   24 type  2   force =    -0.00000001   -0.00000000   -0.06271682
     The local contribution  to forces
     atom    1 type  1   force =     0.00002941    0.00001698   -0.05835625
     atom    2 type  1   force =    -0.00002774   -0.00001612   -0.05834694
     atom    3 type  2   force =     0.00017238    0.00009952    0.05719894
     atom    4 type  2   force =    -0.00017286   -0.00009983    0.05719808
     atom    5 type  1   force =     0.00003274    0.00001891   -0.05835753
     atom    6 type  1   force =    -0.00002882   -0.00001674   -0.05835760
     atom    7 type  2   force =     0.00017403    0.00010048    0.05719894
     atom    8 type  2   force =    -0.00017330   -0.00010008    0.05719777
     atom    9 type  1   force =     0.00002470    0.00001426   -0.05835919
     atom   10 type  1   force =    -0.00002544   -0.00001479   -0.05836614
     atom   11 type  2   force =     0.00017373    0.00010030    0.05719794
     atom   12 type  2   force =    -0.00017362   -0.00010026    0.05719821
     atom   13 type  1   force =     0.00002928    0.00001690   -0.05835588
     atom   14 type  1   force =    -0.00003073   -0.00001774   -0.05834575
     atom   15 type  2   force =     0.00017339    0.00010011    0.05719860
     atom   16 type  2   force =    -0.00017249   -0.00009959    0.05719740
     atom   17 type  1   force =     0.00002564    0.00001480   -0.05836210
     atom   18 type  1   force =    -0.00002896   -0.00001672   -0.05835458
     atom   19 type  2   force =     0.00017262    0.00009966    0.05719938
     atom   20 type  2   force =    -0.00017364   -0.00010025    0.05719940
     atom   21 type  1   force =     0.00003436    0.00001984   -0.05835779
     atom   22 type  1   force =    -0.00003309   -0.00001911   -0.05837170
     atom   23 type  2   force =     0.00017301    0.00009989    0.05719678
     atom   24 type  2   force =    -0.00017315   -0.00009997    0.05719747
     The core correction contribution to forces
     atom    1 type  1   force =    -0.00000490   -0.00000283    0.00046933
     atom    2 type  1   force =     0.00000490    0.00000282    0.00046919
     atom    3 type  2   force =     0.00000201    0.00000116   -0.00006238
     atom    4 type  2   force =    -0.00000201   -0.00000116   -0.00006242
     atom    5 type  1   force =    -0.00000495   -0.00000286    0.00046930
     atom    6 type  1   force =     0.00000493    0.00000283    0.00046932
     atom    7 type  2   force =     0.00000202    0.00000117   -0.00006232
     atom    8 type  2   force =    -0.00000202   -0.00000117   -0.00006237
     atom    9 type  1   force =    -0.00000479   -0.00000277    0.00046922
     atom   10 type  1   force =     0.00000486    0.00000279    0.00046937
     atom   11 type  2   force =     0.00000202    0.00000117   -0.00006242
     atom   12 type  2   force =    -0.00000203   -0.00000117   -0.00006234
     atom   13 type  1   force =    -0.00000489   -0.00000282    0.00046931
     atom   14 type  1   force =     0.00000492    0.00000284    0.00046916
     atom   15 type  2   force =     0.00000202    0.00000117   -0.00006239
     atom   16 type  2   force =    -0.00000201   -0.00000116   -0.00006242
     atom   17 type  1   force =    -0.00000485   -0.00000280    0.00046939
     atom   18 type  1   force =     0.00000491    0.00000283    0.00046927
     atom   19 type  2   force =     0.00000201    0.00000116   -0.00006230
     atom   20 type  2   force =    -0.00000202   -0.00000116   -0.00006236
     atom   21 type  1   force =    -0.00000499   -0.00000288    0.00046919
     atom   22 type  1   force =     0.00000495    0.00000286    0.00046948
     atom   23 type  2   force =     0.00000202    0.00000117   -0.00006244
     atom   24 type  2   force =    -0.00000201   -0.00000116   -0.00006234
     The Hubbard contrib.    to forces
     atom    1 type  1   force =     0.00000000    0.00000000    0.00000000
     atom    2 type  1   force =     0.00000000    0.00000000    0.00000000
     atom    3 type  2   force =     0.00000000    0.00000000    0.00000000
     atom    4 type  2   force =     0.00000000    0.00000000    0.00000000
     atom    5 type  1   force =     0.00000000    0.00000000    0.00000000
     atom    6 type  1   force =     0.00000000    0.00000000    0.00000000
     atom    7 type  2   force =     0.00000000    0.00000000    0.00000000
     atom    8 type  2   force =     0.00000000    0.00000000    0.00000000
     atom    9 type  1   force =     0.00000000    0.00000000    0.00000000
     atom   10 type  1   force =     0.00000000    0.00000000    0.00000000
     atom   11 type  2   force =     0.00000000    0.00000000    0.00000000
     atom   12 type  2   force =     0.00000000    0.00000000    0.00000000
     atom   13 type  1   force =     0.00000000    0.00000000    0.00000000
     atom   14 type  1   force =     0.00000000    0.00000000    0.00000000
     atom   15 type  2   force =     0.00000000    0.00000000    0.00000000
     atom   16 type  2   force =     0.00000000    0.00000000    0.00000000
     atom   17 type  1   force =     0.00000000    0.00000000    0.00000000
     atom   18 type  1   force =     0.00000000    0.00000000    0.00000000
     atom   19 type  2   force =     0.00000000    0.00000000    0.00000000
     atom   20 type  2   force =     0.00000000    0.00000000    0.00000000
     atom   21 type  1   force =     0.00000000    0.00000000    0.00000000
     atom   22 type  1   force =     0.00000000    0.00000000    0.00000000
     atom   23 type  2   force =     0.00000000    0.00000000    0.00000000
     atom   24 type  2   force =     0.00000000    0.00000000    0.00000000
     The SCF correction term to forces
     atom    1 type  1   force =     0.00000080    0.00000046   -0.00000261
     atom    2 type  1   force =    -0.00000279   -0.00000161   -0.00001561
     atom    3 type  2   force =     0.00000011    0.00000006   -0.00000203
     atom    4 type  2   force =     0.00000003    0.00000002   -0.00000330
     atom    5 type  1   force =    -0.00000405   -0.00000234   -0.00000385
     atom    6 type  1   force =    -0.00000202   -0.00000116   -0.00000274
     atom    7 type  2   force =    -0.00000074   -0.00000043    0.00000093
     atom    8 type  2   force =    -0.00000009   -0.00000005   -0.00000051
     atom    9 type  1   force =     0.00000645    0.00000372   -0.00000255
     atom   10 type  1   force =    -0.00000589   -0.00000340    0.00000591
     atom   11 type  2   force =    -0.00000067   -0.00000039   -0.00000290
     atom   12 type  2   force =    -0.00000021   -0.00000012    0.00000144
     atom   13 type  1   force =    -0.00000038   -0.00000022   -0.00000264
     atom   14 type  1   force =     0.00000173    0.00000100   -0.00001637
     atom   15 type  2   force =    -0.00000004   -0.00000003   -0.00000205
     atom   16 type  2   force =    -0.00000030   -0.00000018   -0.00000264
     atom   17 type  1   force =     0.00000577    0.00000333    0.00000268
     atom   18 type  1   force =    -0.00000108   -0.00000062   -0.00000646
     atom   19 type  2   force =     0.00000019    0.00000011    0.00000130
     atom   20 type  2   force =     0.00000070    0.00000040   -0.00000162
     atom   21 type  1   force =    -0.00000690   -0.00000399   -0.00000396
     atom   22 type  1   force =     0.00000427    0.00000246    0.00001243
     atom   23 type  2   force =     0.00000010    0.00000006   -0.00000297
     atom   24 type  2   force =     0.00000087    0.00000050    0.00000193

     Total force =     0.000268     Total SCF correction =     0.000034
     SCF correction compared to forces is large: reduce conv_thr to get better values

     General routines

     Parallel routines

   This run was terminated on:   5:25:55   5Sep2025

   JOB DONE.
Note: The following floating-point exceptions are signalling: IEEE_UNDERFLOW_FLAG IEEE_DENORMAL
Note: The following floating-point exceptions are signalling: IEEE_UNDERFLOW_FLAG IEEE_DENORMAL
Note: The following floating-point exceptions are signalling: IEEE_UNDERFLOW_FLAG IEEE_DENORMAL
Note: The following floating-point exceptions are signalling: IEEE_UNDERFLOW_FLAG IEEE_DENORMAL
Note: The following floating-point exceptions are signalling: IEEE_UNDERFLOW_FLAG IEEE_DENORMAL
Note: The following floating-point exceptions are signalling: IEEE_UNDERFLOW_FLAG IEEE_DENORMAL
Note: The following floating-point exceptions are signalling: IEEE_UNDERFLOW_FLAG IEEE_DENORMAL
Note: The following floating-point exceptions are signalling: IEEE_UNDERFLOW_FLAG IEEE_DENORMAL
Note: The following floating-point exceptions are signalling: IEEE_UNDERFLOW_FLAG IEEE_DENORMAL
Note: The following floating-point exceptions are signalling: IEEE_UNDERFLOW_FLAG IEEE_DENORMAL
Note: The following floating-point exceptions are signalling: IEEE_UNDERFLOW_FLAG IEEE_DENORMAL
Note: The following floating-point exceptions are signalling: IEEE_UNDERFLOW_FLAG IEEE_DENORMAL
Note: The following floating-point exceptions are signalling: IEEE_UNDERFLOW_FLAG IEEE_DENORMAL
Note: The following floating-point exceptions are signalling: IEEE_UNDERFLOW_FLAG IEEE_DENORMAL
Note: The following floating-point exceptions are signalling: IEEE_UNDERFLOW_FLAG IEEE_DENORMAL
Note: The following floating-point exceptions are signalling: IEEE_UNDERFLOW_FLAG IEEE_DENORMAL
Note: The following floating-point exceptions are signalling: IEEE_UNDERFLOW_FLAG IEEE_DENORMAL
Note: The following floating-point exceptions are signalling: IEEE_UNDERFLOW_FLAG IEEE_DENORMAL
Note: The following floating-point exceptions are signalling: IEEE_UNDERFLOW_FLAG IEEE_DENORMAL
Note: The following floating-point exceptions are signalling: IEEE_UNDERFLOW_FLAG IEEE_DENORMAL
Note: The following floating-point exceptions are signalling: IEEE_UNDERFLOW_FLAG IEEE_DENORMAL
Note: The following floating-point exceptions are signalling: IEEE_UNDERFLOW_FLAG IEEE_DENORMAL
Note: The following floating-point exceptions are signalling: IEEE_UNDERFLOW_FLAG IEEE_DENORMAL
Note: The following floating-point exceptions are signalling: IEEE_UNDERFLOW_FLAG IEEE_DENORMAL
Note: The following floating-point exceptions are signalling: IEEE_UNDERFLOW_FLAG IEEE_DENORMAL
Note: The following floating-point exceptions are signalling: IEEE_UNDERFLOW_FLAG IEEE_DENORMAL
Note: The following floating-point exceptions are signalling: IEEE_UNDERFLOW_FLAG IEEE_DENORMAL
Note: The following floating-point exceptions are signalling: IEEE_UNDERFLOW_FLAG IEEE_DENORMAL
Note: The following floating-point exceptions are signalling: IEEE_UNDERFLOW_FLAG IEEE_DENORMAL
Note: The following floating-point exceptions are signalling: IEEE_UNDERFLOW_FLAG IEEE_DENORMAL
Note: The following floating-point exceptions are signalling: IEEE_UNDERFLOW_FLAG IEEE_DENORMAL
Note: The following floating-point exceptions are signalling: IEEE_UNDERFLOW_FLAG IEEE_DENORMAL