     Program PWSCF v.7.0 starts on  4Sep2025 at 12:49:14

     K-points division:     npool     =       8
     R & G space division:  proc/nbgrp/npool/nimage =       4

     Reading input from /home/jvc/QEspresso7.2/ZnO_database/scripts/cell213.in/ZnO-3.01-1.45-213.in
Warning: card &CELL ignored
Warning: card / ignored
Warning: card &FCP ignored
Warning: card / ignored
Warning: card &RISM ignored
Warning: card / ignored

     Current dimensions of program PWSCF are:
     Max number of different atomic species (ntypx) = 10
     Max number of k-points (npk) =  40000
     Max angular momentum in pseudopotentials (lmaxx) =  4
     file Zn.upf: wavefunction(s)  3D renormalized
     Found identity + (  0.0000  0.0000  0.3333) symmetry
     This is a supercell, fractional translations are disabled
     Message from routine setup:
     using ibrav=0 with symmetry is DISCOURAGED, use correct ibrav instead

     Using Slab Decomposition

     bravais-lattice index     =            0
     lattice parameter (alat)  =      11.3691  a.u.
     unit-cell volume          =    1386.7929 (a.u.)^3
     number of atoms/cell      =           24
     number of atomic types    =            2
     number of electrons       =       216.00
     number of Kohn-Sham states=          108
     kinetic-energy cutoff     =      50.0000  Ry
     charge density cutoff     =     400.0000  Ry
     scf convergence threshold =      1.0E-08
     mixing beta               =       0.3000
     number of iterations used =            8  plain     mixing
     Exchange-correlation= PBE
                           (   1   4   3   4   0   0   0)

     celldm(1)=  11.369091  celldm(2)=   0.000000  celldm(3)=   0.000000
     celldm(4)=   0.000000  celldm(5)=   0.000000  celldm(6)=   0.000000

     crystal axes: (cart. coord. in units of alat)
               a(1) = (   1.000000   0.000000   0.000000 )
               a(2) = (  -0.250000   0.433013   0.000000 )
               a(3) = (   0.000000   0.000000   2.179384 )

     reciprocal axes: (cart. coord. in units 2 pi/alat)
               b(1) = (  1.000000  0.577350 -0.000000 )
               b(2) = (  0.000000  2.309401  0.000000 )
               b(3) = (  0.000000 -0.000000  0.458845 )

     PseudoPot. # 1 for Zn read from file:
     /home/jvc/QEspresso7.2/ZnO_database/pseudos/Zn.upf
     MD5 check sum: 7f56cabf9682ed8c977c2f7d0c5985c5
     Pseudo is Ultrasoft + core correction, Zval = 12.0
     Generated using &quot;atomic&quot; code by A. Dal Corso  v.6.2.2
     Using radial grid of 1201 points,  6 beta functions with:
                l(1) =   0
                l(2) =   0
                l(3) =   1
                l(4) =   1
                l(5) =   2
                l(6) =   2
     Q(r) pseudized with 0 coefficients

     PseudoPot. # 2 for O  read from file:
     /home/jvc/QEspresso7.2/ZnO_database/pseudos/O.upf
     MD5 check sum: 91400c9766925bcf19f520983a725ff0
     Pseudo is Ultrasoft + core correction, Zval =  6.0
     Generated using &quot;atomic&quot; code by A. Dal Corso  v.6.3MaX
     Using radial grid of 1095 points,  4 beta functions with:
                l(1) =   0
                l(2) =   0
                l(3) =   1
                l(4) =   1
     Q(r) pseudized with 0 coefficients

     atomic species   valence    mass     pseudopotential
        Zn            12.00    65.38000     Zn( 1.00)
        O              6.00    15.99900     O ( 1.00)

      2 Sym. Ops. (no inversion) found

                                    s                        frac. trans.

      isym =  1     identity

 cryst.   s( 1) = (     1          0          0      )
                  (     0          1          0      )
                  (     0          0          1      )

 cart.    s( 1) = (  1.0000000  0.0000000  0.0000000 )
                  (  0.0000000  1.0000000  0.0000000 )
                  (  0.0000000  0.0000000  1.0000000 )

      isym =  2     inv. 180 deg rotation - cryst. axis [0,1,0]

 cryst.   s( 2) = (     1          2          0      )
                  (     0         -1          0      )
                  (     0          0          1      )

 cart.    s( 2) = (  0.5000000  0.8660254  0.0000000 )
                  (  0.8660254 -0.5000000  0.0000000 )
                  (  0.0000000  0.0000000  1.0000000 )

   Cartesian axes

     site n.     atom                  positions (alat units)
         1           Zn  tau(   1) = (   0.2500000   0.1443376   0.3636909  )
         2           Zn  tau(   2) = (  -0.0000000   0.2886751   0.0004603  )
         3           O   tau(   3) = (   0.2500000   0.1443376   0.6390508  )
         4           O   tau(   4) = (  -0.0000000   0.2886751   0.2758202  )
         5           Zn  tau(   5) = (   0.2500000   0.1443376   1.0901522  )
         6           Zn  tau(   6) = (  -0.0000000   0.2886751   0.7269215  )
         7           O   tau(   7) = (   0.2500000   0.1443376   1.3655121  )
         8           O   tau(   8) = (  -0.0000000   0.2886751   1.0022815  )
         9           Zn  tau(   9) = (   0.2500000   0.1443376   1.8166134  )
        10           Zn  tau(  10) = (  -0.0000000   0.2886751   1.4533828  )
        11           O   tau(  11) = (   0.2500000   0.1443376   2.0919734  )
        12           O   tau(  12) = (  -0.0000000   0.2886751   1.7287427  )
        13           Zn  tau(  13) = (   0.7500000   0.1443376   0.3636909  )
        14           Zn  tau(  14) = (   0.5000000   0.2886751   0.0004603  )
        15           O   tau(  15) = (   0.7500000   0.1443376   0.6390508  )
        16           O   tau(  16) = (   0.5000000   0.2886751   0.2758202  )
        17           Zn  tau(  17) = (   0.7500000   0.1443376   1.0901522  )
        18           Zn  tau(  18) = (   0.5000000   0.2886751   0.7269215  )
        19           O   tau(  19) = (   0.7500000   0.1443376   1.3655121  )
        20           O   tau(  20) = (   0.5000000   0.2886751   1.0022815  )
        21           Zn  tau(  21) = (   0.7500000   0.1443376   1.8166134  )
        22           Zn  tau(  22) = (   0.5000000   0.2886751   1.4533828  )
        23           O   tau(  23) = (   0.7500000   0.1443376   2.0919734  )
        24           O   tau(  24) = (   0.5000000   0.2886751   1.7287427  )

   Crystallographic axes

     site n.     atom                  positions (cryst. coord.)
         1           Zn  tau(   1) = (  0.3333333  0.3333333  0.1668779  )
         2           Zn  tau(   2) = (  0.1666667  0.6666667  0.0002112  )
         3           O   tau(   3) = (  0.3333333  0.3333333  0.2932255  )
         4           O   tau(   4) = (  0.1666667  0.6666667  0.1265588  )
         5           Zn  tau(   5) = (  0.3333333  0.3333333  0.5002112  )
         6           Zn  tau(   6) = (  0.1666667  0.6666667  0.3335445  )
         7           O   tau(   7) = (  0.3333333  0.3333333  0.6265588  )
         8           O   tau(   8) = (  0.1666667  0.6666667  0.4598921  )
         9           Zn  tau(   9) = (  0.3333333  0.3333333  0.8335445  )
        10           Zn  tau(  10) = (  0.1666667  0.6666667  0.6668779  )
        11           O   tau(  11) = (  0.3333333  0.3333333  0.9598921  )
        12           O   tau(  12) = (  0.1666667  0.6666667  0.7932255  )
        13           Zn  tau(  13) = (  0.8333333  0.3333333  0.1668779  )
        14           Zn  tau(  14) = (  0.6666667  0.6666667  0.0002112  )
        15           O   tau(  15) = (  0.8333333  0.3333333  0.2932255  )
        16           O   tau(  16) = (  0.6666667  0.6666667  0.1265588  )
        17           Zn  tau(  17) = (  0.8333333  0.3333333  0.5002112  )
        18           Zn  tau(  18) = (  0.6666667  0.6666667  0.3335445  )
        19           O   tau(  19) = (  0.8333333  0.3333333  0.6265588  )
        20           O   tau(  20) = (  0.6666667  0.6666667  0.4598921  )
        21           Zn  tau(  21) = (  0.8333333  0.3333333  0.8335445  )
        22           Zn  tau(  22) = (  0.6666667  0.6666667  0.6668779  )
        23           O   tau(  23) = (  0.8333333  0.3333333  0.9598921  )
        24           O   tau(  24) = (  0.6666667  0.6666667  0.7932255  )

     number of k points=    80
                       cart. coord. in units 2pi/alat
        k(    1) = (   0.0000000   0.0000000   0.0000000), wk =   0.0092593
        k(    2) = (   0.0000000   0.0000000   0.0764742), wk =   0.0185185
        k(    3) = (   0.0000000   0.0000000   0.1529484), wk =   0.0185185
        k(    4) = (   0.0000000   0.0000000  -0.2294226), wk =   0.0092593
        k(    5) = (   0.0000000   0.3849002   0.0000000), wk =   0.0370370
        k(    6) = (   0.0000000   0.3849002   0.0764742), wk =   0.0370370
        k(    7) = (   0.0000000   0.3849002   0.1529484), wk =   0.0370370
        k(    8) = (   0.0000000   0.3849002  -0.2294226), wk =   0.0370370
        k(    9) = (   0.0000000   0.7698004   0.0000000), wk =   0.0370370
        k(   10) = (   0.0000000   0.7698004   0.0764742), wk =   0.0370370
        k(   11) = (   0.0000000   0.7698004   0.1529484), wk =   0.0370370
        k(   12) = (   0.0000000   0.7698004  -0.2294226), wk =   0.0370370
        k(   13) = (   0.0000000  -1.1547005   0.0000000), wk =   0.0092593
        k(   14) = (   0.0000000  -1.1547005   0.0764742), wk =   0.0185185
        k(   15) = (   0.0000000  -1.1547005   0.1529484), wk =   0.0185185
        k(   16) = (   0.0000000  -1.1547005  -0.2294226), wk =   0.0092593
        k(   17) = (   0.1666667   0.0962250   0.0000000), wk =   0.0185185
        k(   18) = (   0.1666667   0.0962250   0.0764742), wk =   0.0185185
        k(   19) = (   0.1666667   0.0962250   0.1529484), wk =   0.0185185
        k(   20) = (   0.1666667   0.0962250  -0.2294226), wk =   0.0185185
        k(   21) = (   0.1666667   0.4811252   0.0000000), wk =   0.0370370
        k(   22) = (   0.1666667   0.4811252   0.0764742), wk =   0.0370370
        k(   23) = (   0.1666667   0.4811252   0.1529484), wk =   0.0370370
        k(   24) = (   0.1666667   0.4811252  -0.2294226), wk =   0.0370370
        k(   25) = (   0.1666667   0.8660254   0.0000000), wk =   0.0185185
        k(   26) = (   0.1666667   0.8660254   0.0764742), wk =   0.0370370
        k(   27) = (   0.1666667   0.8660254   0.1529484), wk =   0.0370370
        k(   28) = (   0.1666667   0.8660254  -0.2294226), wk =   0.0185185
        k(   29) = (   0.1666667  -1.0584755   0.0000000), wk =   0.0185185
        k(   30) = (   0.1666667  -1.0584755   0.0764742), wk =   0.0185185
        k(   31) = (   0.1666667  -1.0584755   0.1529484), wk =   0.0185185
        k(   32) = (   0.1666667  -1.0584755  -0.2294226), wk =   0.0185185
        k(   33) = (   0.1666667  -0.6735753   0.0000000), wk =   0.0370370
        k(   34) = (   0.1666667  -0.6735753   0.0764742), wk =   0.0370370
        k(   35) = (   0.1666667  -0.6735753   0.1529484), wk =   0.0370370
        k(   36) = (   0.1666667  -0.6735753  -0.2294226), wk =   0.0370370
        k(   37) = (   0.1666667  -0.2886751   0.0000000), wk =   0.0185185
        k(   38) = (   0.1666667  -0.2886751   0.0764742), wk =   0.0370370
        k(   39) = (   0.1666667  -0.2886751   0.1529484), wk =   0.0370370
[...]

!    total energy              =   -2167.96880643 Ry
     estimated scf accuracy    <          4.1E-09 Ry

     The total energy is the sum of the following terms:
     one-electron contribution =    -679.84468983 Ry
     hartree contribution      =     627.51957932 Ry
     xc contribution           =    -662.86982362 Ry
     ewald contribution        =   -1452.77387231 Ry

     convergence has been achieved in  25 iterations

     Forces acting on atoms (cartesian axes, Ry/au):

     atom    1 type  1   force =     0.00001564    0.00000903   -0.17908486
     atom    2 type  1   force =    -0.00001418   -0.00000819   -0.17909493
     atom    3 type  2   force =    -0.00000129   -0.00000075    0.17908804
     atom    4 type  2   force =     0.00000101    0.00000058    0.17909207
     atom    5 type  1   force =     0.00002028    0.00001171   -0.17908439
     atom    6 type  1   force =    -0.00001323   -0.00000764   -0.17908897
     atom    7 type  2   force =    -0.00000142   -0.00000082    0.17909180
     atom    8 type  2   force =     0.00000051    0.00000030    0.17908384
     atom    9 type  1   force =     0.00001614    0.00000932   -0.17909632
     atom   10 type  1   force =    -0.00001442   -0.00000833   -0.17908084
     atom   11 type  2   force =    -0.00000136   -0.00000078    0.17908396
     atom   12 type  2   force =     0.00000113    0.00000065    0.17908933
     atom   13 type  1   force =     0.00001500    0.00000866   -0.17908623
     atom   14 type  1   force =    -0.00001604   -0.00000926   -0.17909471
     atom   15 type  2   force =    -0.00000126   -0.00000073    0.17908806
     atom   16 type  2   force =     0.00000131    0.00000076    0.17909187
     atom   17 type  1   force =     0.00001029    0.00000594   -0.17908487
     atom   18 type  1   force =    -0.00001789   -0.00001033   -0.17908310
     atom   19 type  2   force =    -0.00000087   -0.00000050    0.17909144
     atom   20 type  2   force =     0.00000171    0.00000099    0.17908384
     atom   21 type  1   force =     0.00001481    0.00000855   -0.17909721
     atom   22 type  1   force =    -0.00001595   -0.00000921   -0.17908124
     atom   23 type  2   force =    -0.00000117   -0.00000068    0.17908412
     atom   24 type  2   force =     0.00000126    0.00000073    0.17908930
     The non-local contrib.  to forces
     atom    1 type  1   force =    -0.00002040   -0.00001178   -0.37108467
     atom    2 type  1   force =     0.00002125    0.00001227   -0.37108464
     atom    3 type  2   force =    -0.00012817   -0.00007400   -0.19047895
     atom    4 type  2   force =     0.00012673    0.00007317   -0.19046646
     atom    5 type  1   force =    -0.00001750   -0.00001010   -0.37107690
     atom    6 type  1   force =     0.00002237    0.00001291   -0.37107161
     atom    7 type  2   force =    -0.00012859   -0.00007424   -0.19046907
     atom    8 type  2   force =     0.00012564    0.00007254   -0.19047472
     atom    9 type  1   force =    -0.00001990   -0.00001149   -0.37107761
     atom   10 type  1   force =     0.00002162    0.00001248   -0.37108246
     atom   11 type  2   force =    -0.00012779   -0.00007378   -0.19046864
     atom   12 type  2   force =     0.00012693    0.00007328   -0.19047464
     atom   13 type  1   force =    -0.00002096   -0.00001210   -0.37108572
     atom   14 type  1   force =     0.00002016    0.00001164   -0.37108536
     atom   15 type  2   force =    -0.00012653   -0.00007305   -0.19047989
     atom   16 type  2   force =     0.00012804    0.00007393   -0.19046657
     atom   17 type  1   force =    -0.00002386   -0.00001378   -0.37107653
     atom   18 type  1   force =     0.00001916    0.00001106   -0.37106825
     atom   19 type  2   force =    -0.00012585   -0.00007266   -0.19046877
     atom   20 type  2   force =     0.00012814    0.00007398   -0.19047402
     atom   21 type  1   force =    -0.00002135   -0.00001233   -0.37107831
     atom   22 type  1   force =     0.00001988    0.00001148   -0.37108272
     atom   23 type  2   force =    -0.00012715   -0.00007341   -0.19046821
     atom   24 type  2   force =     0.00012730    0.00007349   -0.19047471
     The ionic contribution  to forces
     atom    1 type  1   force =     0.00000000    0.00000001   -2.67035679
     atom    2 type  1   force =     0.00000002    0.00000000   -2.67035674
     atom    3 type  2   force =     0.00000000    0.00000001    2.67035677
     atom    4 type  2   force =     0.00000001   -0.00000000    2.67035675
     atom    5 type  1   force =     0.00000000    0.00000001   -2.67035674
     atom    6 type  1   force =     0.00000002    0.00000000   -2.67035679
     atom    7 type  2   force =     0.00000000    0.00000001    2.67035676
     atom    8 type  2   force =     0.00000001   -0.00000000    2.67035678
     atom    9 type  1   force =     0.00000000    0.00000001   -2.67035679
     atom   10 type  1   force =     0.00000002    0.00000000   -2.67035678
     atom   11 type  2   force =     0.00000000    0.00000001    2.67035679
     atom   12 type  2   force =     0.00000001   -0.00000000    2.67035677
     atom   13 type  1   force =    -0.00000000   -0.00000000   -2.67035678
     atom   14 type  1   force =    -0.00000002   -0.00000001   -2.67035674
     atom   15 type  2   force =    -0.00000000   -0.00000000    2.67035677
     atom   16 type  2   force =    -0.00000001   -0.00000000    2.67035675
     atom   17 type  1   force =    -0.00000000   -0.00000000   -2.67035673
     atom   18 type  1   force =    -0.00000002   -0.00000001   -2.67035679
     atom   19 type  2   force =    -0.00000000   -0.00000000    2.67035675
     atom   20 type  2   force =    -0.00000001   -0.00000000    2.67035678
     atom   21 type  1   force =    -0.00000000   -0.00000000   -2.67035678
     atom   22 type  1   force =    -0.00000002   -0.00000001   -2.67035678
     atom   23 type  2   force =    -0.00000000   -0.00000000    2.67035678
     atom   24 type  2   force =    -0.00000001   -0.00000000    2.67035677
     The local contribution  to forces
     atom    1 type  1   force =     0.00003738    0.00002158    2.82272944
     atom    2 type  1   force =    -0.00003938   -0.00002282    2.82275589
     atom    3 type  2   force =     0.00012428    0.00007175   -2.30153925
     atom    4 type  2   force =    -0.00012604   -0.00007279   -2.30153687
     atom    5 type  1   force =     0.00002832    0.00001635    2.82273693
     atom    6 type  1   force =    -0.00004151   -0.00002405    2.82272385
     atom    7 type  2   force =     0.00012461    0.00007194   -2.30153786
     atom    8 type  2   force =    -0.00012550   -0.00007248   -2.30153916
     atom    9 type  1   force =     0.00003495    0.00002018    2.82273651
     atom   10 type  1   force =    -0.00003895   -0.00002257    2.82272463
     atom   11 type  2   force =     0.00012672    0.00007316   -2.30153218
     atom   12 type  2   force =    -0.00012523   -0.00007232   -2.30153661
     atom   13 type  1   force =     0.00003723    0.00002150    2.82273238
     atom   14 type  1   force =    -0.00003546   -0.00002047    2.82275758
     atom   15 type  2   force =     0.00012625    0.00007289   -2.30154095
     atom   16 type  2   force =    -0.00012511   -0.00007223   -2.30153702
     atom   17 type  1   force =     0.00004647    0.00002683    2.82273739
     atom   18 type  1   force =    -0.00003327   -0.00001921    2.82271243
     atom   19 type  2   force =     0.00012631    0.00007292   -2.30153995
     atom   20 type  2   force =    -0.00012420   -0.00007171   -2.30154064
     atom   21 type  1   force =     0.00003961    0.00002287    2.82273956
     atom   22 type  1   force =    -0.00003598   -0.00002077    2.82272401
     atom   23 type  2   force =     0.00012511    0.00007223   -2.30153322
     atom   24 type  2   force =    -0.00012452   -0.00007189   -2.30153449
     The core correction contribution to forces
     atom    1 type  1   force =    -0.00000139   -0.00000081    0.03962042
     atom    2 type  1   force =     0.00000140    0.00000077    0.03962323
     atom    3 type  2   force =     0.00000148    0.00000086    0.00073835
     atom    4 type  2   force =    -0.00000142   -0.00000083    0.00073474
     atom    5 type  1   force =    -0.00000119   -0.00000070    0.03962335
     atom    6 type  1   force =     0.00000140    0.00000077    0.03960924
     atom    7 type  2   force =     0.00000149    0.00000086    0.00073478
     atom    8 type  2   force =    -0.00000140   -0.00000082    0.00073761
     atom    9 type  1   force =    -0.00000127   -0.00000075    0.03960915
     atom   10 type  1   force =     0.00000134    0.00000074    0.03962030
     atom   11 type  2   force =     0.00000148    0.00000086    0.00073755
     atom   12 type  2   force =    -0.00000142   -0.00000083    0.00073829
     atom   13 type  1   force =    -0.00000131   -0.00000073    0.03962038
     atom   14 type  1   force =     0.00000129    0.00000075    0.03962320
     atom   15 type  2   force =     0.00000142    0.00000083    0.00073835
     atom   16 type  2   force =    -0.00000148   -0.00000086    0.00073474
     atom   17 type  1   force =    -0.00000149   -0.00000084    0.03962327
     atom   18 type  1   force =     0.00000129    0.00000076    0.03960945
     atom   19 type  2   force =     0.00000141    0.00000082    0.00073476
     atom   20 type  2   force =    -0.00000148   -0.00000086    0.00073760
     atom   21 type  1   force =    -0.00000142   -0.00000080    0.03960904
     atom   22 type  1   force =     0.00000134    0.00000079    0.03962039
     atom   23 type  2   force =     0.00000142    0.00000083    0.00073753
     atom   24 type  2   force =    -0.00000147   -0.00000085    0.00073830
     The Hubbard contrib.    to forces
     atom    1 type  1   force =     0.00000000    0.00000000    0.00000000
     atom    2 type  1   force =     0.00000000    0.00000000    0.00000000
     atom    3 type  2   force =     0.00000000    0.00000000    0.00000000
     atom    4 type  2   force =     0.00000000    0.00000000    0.00000000
     atom    5 type  1   force =     0.00000000    0.00000000    0.00000000
     atom    6 type  1   force =     0.00000000    0.00000000    0.00000000
     atom    7 type  2   force =     0.00000000    0.00000000    0.00000000
     atom    8 type  2   force =     0.00000000    0.00000000    0.00000000
     atom    9 type  1   force =     0.00000000    0.00000000    0.00000000
     atom   10 type  1   force =     0.00000000    0.00000000    0.00000000
     atom   11 type  2   force =     0.00000000    0.00000000    0.00000000
     atom   12 type  2   force =     0.00000000    0.00000000    0.00000000
     atom   13 type  1   force =     0.00000000    0.00000000    0.00000000
     atom   14 type  1   force =     0.00000000    0.00000000    0.00000000
     atom   15 type  2   force =     0.00000000    0.00000000    0.00000000
     atom   16 type  2   force =     0.00000000    0.00000000    0.00000000
     atom   17 type  1   force =     0.00000000    0.00000000    0.00000000
     atom   18 type  1   force =     0.00000000    0.00000000    0.00000000
     atom   19 type  2   force =     0.00000000    0.00000000    0.00000000
     atom   20 type  2   force =     0.00000000    0.00000000    0.00000000
     atom   21 type  1   force =     0.00000000    0.00000000    0.00000000
     atom   22 type  1   force =     0.00000000    0.00000000    0.00000000
     atom   23 type  2   force =     0.00000000    0.00000000    0.00000000
     atom   24 type  2   force =     0.00000000    0.00000000    0.00000000
     The SCF correction term to forces
     atom    1 type  1   force =     0.00000006    0.00000003    0.00000668
     atom    2 type  1   force =     0.00000259    0.00000149   -0.00003273
     atom    3 type  2   force =     0.00000113    0.00000065    0.00001108
     atom    4 type  2   force =     0.00000175    0.00000101    0.00000387
     atom    5 type  1   force =     0.00001066    0.00000616   -0.00001108
     atom    6 type  1   force =     0.00000455    0.00000263    0.00000629
     atom    7 type  2   force =     0.00000108    0.00000062    0.00000716
     atom    8 type  2   force =     0.00000179    0.00000103    0.00000327
     atom    9 type  1   force =     0.00000236    0.00000137   -0.00000763
     atom   10 type  1   force =     0.00000161    0.00000093    0.00001343
     atom   11 type  2   force =    -0.00000177   -0.00000102   -0.00000959
     atom   12 type  2   force =     0.00000087    0.00000050    0.00000547
     atom   13 type  1   force =     0.00000003    0.00000002    0.00000347
     atom   14 type  1   force =    -0.00000200   -0.00000116   -0.00003345
     atom   15 type  2   force =    -0.00000239   -0.00000138    0.00001373
     atom   16 type  2   force =    -0.00000013   -0.00000007    0.00000391
     atom   17 type  1   force =    -0.00001082   -0.00000625   -0.00001232
     atom   18 type  1   force =    -0.00000505   -0.00000292    0.00002001
     atom   19 type  2   force =    -0.00000273   -0.00000158    0.00000861
     atom   20 type  2   force =    -0.00000073   -0.00000042    0.00000406
     atom   21 type  1   force =    -0.00000202   -0.00000117   -0.00001077
     atom   22 type  1   force =    -0.00000117   -0.00000068    0.00001382
     atom   23 type  2   force =    -0.00000055   -0.00000032   -0.00000882
     atom   24 type  2   force =    -0.00000003   -0.00000002    0.00000338

     Total force =     0.877349     Total SCF correction =     0.000068

     General routines

     Parallel routines

   This run was terminated on:  13: 3:35   4Sep2025

   JOB DONE.
Note: The following floating-point exceptions are signalling: IEEE_UNDERFLOW_FLAG IEEE_DENORMAL
Note: The following floating-point exceptions are signalling: IEEE_UNDERFLOW_FLAG IEEE_DENORMAL
Note: The following floating-point exceptions are signalling: IEEE_UNDERFLOW_FLAG IEEE_DENORMAL
Note: The following floating-point exceptions are signalling: IEEE_UNDERFLOW_FLAG IEEE_DENORMAL
Note: The following floating-point exceptions are signalling: IEEE_UNDERFLOW_FLAG IEEE_DENORMAL
Note: The following floating-point exceptions are signalling: IEEE_UNDERFLOW_FLAG IEEE_DENORMAL
Note: The following floating-point exceptions are signalling: IEEE_UNDERFLOW_FLAG IEEE_DENORMAL
Note: The following floating-point exceptions are signalling: IEEE_UNDERFLOW_FLAG IEEE_DENORMAL
Note: The following floating-point exceptions are signalling: IEEE_UNDERFLOW_FLAG IEEE_DENORMAL
Note: The following floating-point exceptions are signalling: IEEE_UNDERFLOW_FLAG IEEE_DENORMAL
Note: The following floating-point exceptions are signalling: IEEE_UNDERFLOW_FLAG IEEE_DENORMAL
Note: The following floating-point exceptions are signalling: IEEE_UNDERFLOW_FLAG IEEE_DENORMAL
Note: The following floating-point exceptions are signalling: IEEE_UNDERFLOW_FLAG IEEE_DENORMAL
Note: The following floating-point exceptions are signalling: IEEE_UNDERFLOW_FLAG IEEE_DENORMAL
Note: The following floating-point exceptions are signalling: IEEE_UNDERFLOW_FLAG IEEE_DENORMAL
Note: The following floating-point exceptions are signalling: IEEE_UNDERFLOW_FLAG IEEE_DENORMAL
Note: The following floating-point exceptions are signalling: IEEE_UNDERFLOW_FLAG IEEE_DENORMAL
Note: The following floating-point exceptions are signalling: IEEE_UNDERFLOW_FLAG IEEE_DENORMAL
Note: The following floating-point exceptions are signalling: IEEE_UNDERFLOW_FLAG IEEE_DENORMAL
Note: The following floating-point exceptions are signalling: IEEE_UNDERFLOW_FLAG IEEE_DENORMAL
Note: The following floating-point exceptions are signalling: IEEE_UNDERFLOW_FLAG IEEE_DENORMAL
Note: The following floating-point exceptions are signalling: IEEE_UNDERFLOW_FLAG IEEE_DENORMAL
Note: The following floating-point exceptions are signalling: IEEE_UNDERFLOW_FLAG IEEE_DENORMAL
Note: The following floating-point exceptions are signalling: IEEE_UNDERFLOW_FLAG IEEE_DENORMAL
Note: The following floating-point exceptions are signalling: IEEE_UNDERFLOW_FLAG IEEE_DENORMAL
Note: The following floating-point exceptions are signalling: IEEE_UNDERFLOW_FLAG IEEE_DENORMAL
Note: The following floating-point exceptions are signalling: IEEE_UNDERFLOW_FLAG IEEE_DENORMAL
Note: The following floating-point exceptions are signalling: IEEE_UNDERFLOW_FLAG IEEE_DENORMAL
Note: The following floating-point exceptions are signalling: IEEE_UNDERFLOW_FLAG IEEE_DENORMAL
Note: The following floating-point exceptions are signalling: IEEE_UNDERFLOW_FLAG IEEE_DENORMAL
Note: The following floating-point exceptions are signalling: IEEE_UNDERFLOW_FLAG IEEE_DENORMAL
Note: The following floating-point exceptions are signalling: IEEE_UNDERFLOW_FLAG IEEE_DENORMAL