     Program PWSCF v.7.0 starts on  4Sep2025 at 17:19: 5

     K-points division:     npool     =       8
     R & G space division:  proc/nbgrp/npool/nimage =       4

     Reading input from /home/jvc/QEspresso7.2/ZnO_database/scripts/cell213.in/ZnO-3.07-1.61-213.in
Warning: card &CELL ignored
Warning: card / ignored
Warning: card &FCP ignored
Warning: card / ignored
Warning: card &RISM ignored
Warning: card / ignored

     Current dimensions of program PWSCF are:
     Max number of different atomic species (ntypx) = 10
     Max number of k-points (npk) =  40000
     Max angular momentum in pseudopotentials (lmaxx) =  4
     file Zn.upf: wavefunction(s)  3D renormalized
     Found identity + (  0.0000  0.0000  0.3333) symmetry
     This is a supercell, fractional translations are disabled
     Message from routine setup:
     using ibrav=0 with symmetry is DISCOURAGED, use correct ibrav instead

     Using Slab Decomposition

     bravais-lattice index     =            0
     lattice parameter (alat)  =      11.6162  a.u.
     unit-cell volume          =    1643.5737 (a.u.)^3
     number of atoms/cell      =           24
     number of atomic types    =            2
     number of electrons       =       216.00
     number of Kohn-Sham states=          108
     kinetic-energy cutoff     =      50.0000  Ry
     charge density cutoff     =     400.0000  Ry
     scf convergence threshold =      1.0E-08
     mixing beta               =       0.3000
     number of iterations used =            8  plain     mixing
     Exchange-correlation= PBE
                           (   1   4   3   4   0   0   0)

     celldm(1)=  11.616245  celldm(2)=   0.000000  celldm(3)=   0.000000
     celldm(4)=   0.000000  celldm(5)=   0.000000  celldm(6)=   0.000000

     crystal axes: (cart. coord. in units of alat)
               a(1) = (   1.000000   0.000000   0.000000 )
               a(2) = (  -0.250000   0.433013   0.000000 )
               a(3) = (   0.000000   0.000000   2.421538 )

     reciprocal axes: (cart. coord. in units 2 pi/alat)
               b(1) = (  1.000000  0.577350 -0.000000 )
               b(2) = (  0.000000  2.309401  0.000000 )
               b(3) = (  0.000000 -0.000000  0.412961 )

     PseudoPot. # 1 for Zn read from file:
     /home/jvc/QEspresso7.2/ZnO_database/pseudos/Zn.upf
     MD5 check sum: 7f56cabf9682ed8c977c2f7d0c5985c5
     Pseudo is Ultrasoft + core correction, Zval = 12.0
     Generated using &quot;atomic&quot; code by A. Dal Corso  v.6.2.2
     Using radial grid of 1201 points,  6 beta functions with:
                l(1) =   0
                l(2) =   0
                l(3) =   1
                l(4) =   1
                l(5) =   2
                l(6) =   2
     Q(r) pseudized with 0 coefficients

     PseudoPot. # 2 for O  read from file:
     /home/jvc/QEspresso7.2/ZnO_database/pseudos/O.upf
     MD5 check sum: 91400c9766925bcf19f520983a725ff0
     Pseudo is Ultrasoft + core correction, Zval =  6.0
     Generated using &quot;atomic&quot; code by A. Dal Corso  v.6.3MaX
     Using radial grid of 1095 points,  4 beta functions with:
                l(1) =   0
                l(2) =   0
                l(3) =   1
                l(4) =   1
     Q(r) pseudized with 0 coefficients

     atomic species   valence    mass     pseudopotential
        Zn            12.00    65.38000     Zn( 1.00)
        O              6.00    15.99900     O ( 1.00)

      2 Sym. Ops. (no inversion) found

                                    s                        frac. trans.

      isym =  1     identity

 cryst.   s( 1) = (     1          0          0      )
                  (     0          1          0      )
                  (     0          0          1      )

 cart.    s( 1) = (  1.0000000  0.0000000  0.0000000 )
                  (  0.0000000  1.0000000  0.0000000 )
                  (  0.0000000  0.0000000  1.0000000 )

      isym =  2     inv. 180 deg rotation - cryst. axis [0,1,0]

 cryst.   s( 2) = (     1          2          0      )
                  (     0         -1          0      )
                  (     0          0          1      )

 cart.    s( 2) = (  0.5000000  0.8660254  0.0000000 )
                  (  0.8660254 -0.5000000  0.0000000 )
                  (  0.0000000  0.0000000  1.0000000 )

   Cartesian axes

     site n.     atom                  positions (alat units)
         1           Zn  tau(   1) = (   0.2500000   0.1443376   0.4041010  )
         2           Zn  tau(   2) = (  -0.0000000   0.2886751   0.0005114  )
         3           O   tau(   3) = (   0.2500000   0.1443376   0.7100565  )
         4           O   tau(   4) = (  -0.0000000   0.2886751   0.3064669  )
         5           Zn  tau(   5) = (   0.2500000   0.1443376   1.2112802  )
         6           Zn  tau(   6) = (  -0.0000000   0.2886751   0.8076906  )
         7           O   tau(   7) = (   0.2500000   0.1443376   1.5172357  )
         8           O   tau(   8) = (  -0.0000000   0.2886751   1.1136461  )
         9           Zn  tau(   9) = (   0.2500000   0.1443376   2.0184594  )
        10           Zn  tau(  10) = (  -0.0000000   0.2886751   1.6148698  )
        11           O   tau(  11) = (   0.2500000   0.1443376   2.3244148  )
        12           O   tau(  12) = (  -0.0000000   0.2886751   1.9208253  )
        13           Zn  tau(  13) = (   0.7500000   0.1443376   0.4041010  )
        14           Zn  tau(  14) = (   0.5000000   0.2886751   0.0005114  )
        15           O   tau(  15) = (   0.7500000   0.1443376   0.7100565  )
        16           O   tau(  16) = (   0.5000000   0.2886751   0.3064669  )
        17           Zn  tau(  17) = (   0.7500000   0.1443376   1.2112802  )
        18           Zn  tau(  18) = (   0.5000000   0.2886751   0.8076906  )
        19           O   tau(  19) = (   0.7500000   0.1443376   1.5172357  )
        20           O   tau(  20) = (   0.5000000   0.2886751   1.1136461  )
        21           Zn  tau(  21) = (   0.7500000   0.1443376   2.0184594  )
        22           Zn  tau(  22) = (   0.5000000   0.2886751   1.6148698  )
        23           O   tau(  23) = (   0.7500000   0.1443376   2.3244148  )
        24           O   tau(  24) = (   0.5000000   0.2886751   1.9208253  )

   Crystallographic axes

     site n.     atom                  positions (cryst. coord.)
         1           Zn  tau(   1) = (  0.3333333  0.3333333  0.1668779  )
         2           Zn  tau(   2) = (  0.1666667  0.6666667  0.0002112  )
         3           O   tau(   3) = (  0.3333333  0.3333333  0.2932255  )
         4           O   tau(   4) = (  0.1666667  0.6666667  0.1265588  )
         5           Zn  tau(   5) = (  0.3333333  0.3333333  0.5002112  )
         6           Zn  tau(   6) = (  0.1666667  0.6666667  0.3335445  )
         7           O   tau(   7) = (  0.3333333  0.3333333  0.6265588  )
         8           O   tau(   8) = (  0.1666667  0.6666667  0.4598921  )
         9           Zn  tau(   9) = (  0.3333333  0.3333333  0.8335445  )
        10           Zn  tau(  10) = (  0.1666667  0.6666667  0.6668779  )
        11           O   tau(  11) = (  0.3333333  0.3333333  0.9598921  )
        12           O   tau(  12) = (  0.1666667  0.6666667  0.7932255  )
        13           Zn  tau(  13) = (  0.8333333  0.3333333  0.1668779  )
        14           Zn  tau(  14) = (  0.6666667  0.6666667  0.0002112  )
        15           O   tau(  15) = (  0.8333333  0.3333333  0.2932255  )
        16           O   tau(  16) = (  0.6666667  0.6666667  0.1265588  )
        17           Zn  tau(  17) = (  0.8333333  0.3333333  0.5002112  )
        18           Zn  tau(  18) = (  0.6666667  0.6666667  0.3335445  )
        19           O   tau(  19) = (  0.8333333  0.3333333  0.6265588  )
        20           O   tau(  20) = (  0.6666667  0.6666667  0.4598921  )
        21           Zn  tau(  21) = (  0.8333333  0.3333333  0.8335445  )
        22           Zn  tau(  22) = (  0.6666667  0.6666667  0.6668779  )
        23           O   tau(  23) = (  0.8333333  0.3333333  0.9598921  )
        24           O   tau(  24) = (  0.6666667  0.6666667  0.7932255  )

     number of k points=    80
                       cart. coord. in units 2pi/alat
        k(    1) = (   0.0000000   0.0000000   0.0000000), wk =   0.0092593
        k(    2) = (   0.0000000   0.0000000   0.0688268), wk =   0.0185185
        k(    3) = (   0.0000000   0.0000000   0.1376536), wk =   0.0185185
        k(    4) = (   0.0000000   0.0000000  -0.2064804), wk =   0.0092593
        k(    5) = (   0.0000000   0.3849002   0.0000000), wk =   0.0370370
        k(    6) = (   0.0000000   0.3849002   0.0688268), wk =   0.0370370
        k(    7) = (   0.0000000   0.3849002   0.1376536), wk =   0.0370370
        k(    8) = (   0.0000000   0.3849002  -0.2064804), wk =   0.0370370
        k(    9) = (   0.0000000   0.7698004   0.0000000), wk =   0.0370370
        k(   10) = (   0.0000000   0.7698004   0.0688268), wk =   0.0370370
        k(   11) = (   0.0000000   0.7698004   0.1376536), wk =   0.0370370
        k(   12) = (   0.0000000   0.7698004  -0.2064804), wk =   0.0370370
        k(   13) = (   0.0000000  -1.1547005   0.0000000), wk =   0.0092593
        k(   14) = (   0.0000000  -1.1547005   0.0688268), wk =   0.0185185
        k(   15) = (   0.0000000  -1.1547005   0.1376536), wk =   0.0185185
        k(   16) = (   0.0000000  -1.1547005  -0.2064804), wk =   0.0092593
        k(   17) = (   0.1666667   0.0962250   0.0000000), wk =   0.0185185
        k(   18) = (   0.1666667   0.0962250   0.0688268), wk =   0.0185185
        k(   19) = (   0.1666667   0.0962250   0.1376536), wk =   0.0185185
        k(   20) = (   0.1666667   0.0962250  -0.2064804), wk =   0.0185185
        k(   21) = (   0.1666667   0.4811252   0.0000000), wk =   0.0370370
        k(   22) = (   0.1666667   0.4811252   0.0688268), wk =   0.0370370
        k(   23) = (   0.1666667   0.4811252   0.1376536), wk =   0.0370370
        k(   24) = (   0.1666667   0.4811252  -0.2064804), wk =   0.0370370
        k(   25) = (   0.1666667   0.8660254   0.0000000), wk =   0.0185185
        k(   26) = (   0.1666667   0.8660254   0.0688268), wk =   0.0370370
        k(   27) = (   0.1666667   0.8660254   0.1376536), wk =   0.0370370
        k(   28) = (   0.1666667   0.8660254  -0.2064804), wk =   0.0185185
        k(   29) = (   0.1666667  -1.0584755   0.0000000), wk =   0.0185185
        k(   30) = (   0.1666667  -1.0584755   0.0688268), wk =   0.0185185
        k(   31) = (   0.1666667  -1.0584755   0.1376536), wk =   0.0185185
        k(   32) = (   0.1666667  -1.0584755  -0.2064804), wk =   0.0185185
        k(   33) = (   0.1666667  -0.6735753   0.0000000), wk =   0.0370370
        k(   34) = (   0.1666667  -0.6735753   0.0688268), wk =   0.0370370
        k(   35) = (   0.1666667  -0.6735753   0.1376536), wk =   0.0370370
        k(   36) = (   0.1666667  -0.6735753  -0.2064804), wk =   0.0370370
        k(   37) = (   0.1666667  -0.2886751   0.0000000), wk =   0.0185185
        k(   38) = (   0.1666667  -0.2886751   0.0688268), wk =   0.0370370
        k(   39) = (   0.1666667  -0.2886751   0.1376536), wk =   0.0370370
[...]

!    total energy              =   -2169.42846680 Ry
     estimated scf accuracy    <          7.9E-09 Ry

     The total energy is the sum of the following terms:
     one-electron contribution =    -796.01941464 Ry
     hartree contribution      =     664.19452754 Ry
     xc contribution           =    -659.81458059 Ry
     ewald contribution        =   -1377.78899911 Ry

     convergence has been achieved in  26 iterations

     Forces acting on atoms (cartesian axes, Ry/au):

     atom    1 type  1   force =     0.00001187    0.00000685    0.00077647
     atom    2 type  1   force =    -0.00001074   -0.00000620    0.00077643
     atom    3 type  2   force =    -0.00000260   -0.00000150   -0.00077432
     atom    4 type  2   force =     0.00000220    0.00000127   -0.00077472
     atom    5 type  1   force =     0.00001271    0.00000734    0.00077599
     atom    6 type  1   force =    -0.00000931   -0.00000537    0.00077600
     atom    7 type  2   force =    -0.00000250   -0.00000145   -0.00077736
     atom    8 type  2   force =     0.00000186    0.00000107   -0.00077610
     atom    9 type  1   force =     0.00001036    0.00000598    0.00077199
     atom   10 type  1   force =    -0.00001212   -0.00000700    0.00077617
     atom   11 type  2   force =    -0.00000220   -0.00000127   -0.00077532
     atom   12 type  2   force =     0.00000203    0.00000117   -0.00077750
     atom   13 type  1   force =     0.00000912    0.00000527    0.00077434
     atom   14 type  1   force =    -0.00001028   -0.00000593    0.00077829
     atom   15 type  2   force =    -0.00000168   -0.00000097   -0.00077488
     atom   16 type  2   force =     0.00000219    0.00000127   -0.00077474
     atom   17 type  1   force =     0.00000886    0.00000512    0.00077715
     atom   18 type  1   force =    -0.00001160   -0.00000669    0.00077975
     atom   19 type  2   force =    -0.00000195   -0.00000113   -0.00077680
     atom   20 type  2   force =     0.00000170    0.00000098   -0.00077571
     atom   21 type  1   force =     0.00001117    0.00000645    0.00077233
     atom   22 type  1   force =    -0.00000979   -0.00000565    0.00077502
     atom   23 type  2   force =    -0.00000188   -0.00000109   -0.00077538
     atom   24 type  2   force =     0.00000258    0.00000149   -0.00077711
     The non-local contrib.  to forces
     atom    1 type  1   force =    -0.00002948   -0.00001702   -0.00584059
     atom    2 type  1   force =     0.00002967    0.00001713   -0.00583914
     atom    3 type  2   force =    -0.00016123   -0.00009309    0.00276119
     atom    4 type  2   force =     0.00016101    0.00009296    0.00276130
     atom    5 type  1   force =    -0.00002981   -0.00001721   -0.00584017
     atom    6 type  1   force =     0.00002950    0.00001703   -0.00583866
     atom    7 type  2   force =    -0.00016140   -0.00009319    0.00276092
     atom    8 type  2   force =     0.00016068    0.00009277    0.00276137
     atom    9 type  1   force =    -0.00002947   -0.00001701   -0.00583893
     atom   10 type  1   force =     0.00003003    0.00001734   -0.00583846
     atom   11 type  2   force =    -0.00016146   -0.00009322    0.00276241
     atom   12 type  2   force =     0.00016131    0.00009313    0.00276281
     atom   13 type  1   force =    -0.00002943   -0.00001699   -0.00584064
     atom   14 type  1   force =     0.00002955    0.00001706   -0.00583910
     atom   15 type  2   force =    -0.00016065   -0.00009275    0.00276132
     atom   16 type  2   force =     0.00016158    0.00009329    0.00276130
     atom   17 type  1   force =    -0.00002962   -0.00001710   -0.00583998
     atom   18 type  1   force =     0.00002950    0.00001703   -0.00583976
     atom   19 type  2   force =    -0.00016106   -0.00009299    0.00276104
     atom   20 type  2   force =     0.00016084    0.00009286    0.00276057
     atom   21 type  1   force =    -0.00002955   -0.00001706   -0.00583890
     atom   22 type  1   force =     0.00002904    0.00001677   -0.00583839
     atom   23 type  2   force =    -0.00016102   -0.00009297    0.00276243
     atom   24 type  2   force =     0.00016138    0.00009317    0.00276265
     The ionic contribution  to forces
     atom    1 type  1   force =     0.00000000    0.00000001    0.07097873
     atom    2 type  1   force =     0.00000001    0.00000000    0.07097878
     atom    3 type  2   force =     0.00000000    0.00000001   -0.07097875
     atom    4 type  2   force =     0.00000001   -0.00000000   -0.07097876
     atom    5 type  1   force =     0.00000000    0.00000001    0.07097877
     atom    6 type  1   force =     0.00000001    0.00000000    0.07097873
     atom    7 type  2   force =     0.00000000    0.00000001   -0.07097876
     atom    8 type  2   force =     0.00000001   -0.00000000   -0.07097873
     atom    9 type  1   force =     0.00000000    0.00000001    0.07097873
     atom   10 type  1   force =     0.00000001    0.00000000    0.07097873
     atom   11 type  2   force =     0.00000000    0.00000001   -0.07097873
     atom   12 type  2   force =     0.00000001   -0.00000000   -0.07097875
     atom   13 type  1   force =    -0.00000000   -0.00000000    0.07097874
     atom   14 type  1   force =    -0.00000001   -0.00000001    0.07097878
     atom   15 type  2   force =    -0.00000000   -0.00000000   -0.07097875
     atom   16 type  2   force =    -0.00000001   -0.00000000   -0.07097876
     atom   17 type  1   force =    -0.00000000   -0.00000000    0.07097878
     atom   18 type  1   force =    -0.00000001   -0.00000001    0.07097873
     atom   19 type  2   force =    -0.00000000   -0.00000000   -0.07097876
     atom   20 type  2   force =    -0.00000001   -0.00000000   -0.07097873
     atom   21 type  1   force =    -0.00000000   -0.00000000    0.07097873
     atom   22 type  1   force =    -0.00000001   -0.00000001    0.07097873
     atom   23 type  2   force =    -0.00000000   -0.00000000   -0.07097874
     atom   24 type  2   force =    -0.00000001   -0.00000000   -0.07097875
     The local contribution  to forces
     atom    1 type  1   force =     0.00004251    0.00002454   -0.06513729
     atom    2 type  1   force =    -0.00004465   -0.00002587   -0.06514037
     atom    3 type  2   force =     0.00015685    0.00009056    0.06747905
     atom    4 type  2   force =    -0.00015726   -0.00009082    0.06748041
     atom    5 type  1   force =     0.00004113    0.00002375   -0.06513911
     atom    6 type  1   force =    -0.00004681   -0.00002712   -0.06513775
     atom    7 type  2   force =     0.00015667    0.00009045    0.06747825
     atom    8 type  2   force =    -0.00015754   -0.00009098    0.06747819
     atom    9 type  1   force =     0.00004447    0.00002567   -0.06513332
     atom   10 type  1   force =    -0.00004400   -0.00002549   -0.06513984
     atom   11 type  2   force =     0.00015765    0.00009102    0.06747868
     atom   12 type  2   force =    -0.00015754   -0.00009098    0.06747747
     atom   13 type  1   force =     0.00004647    0.00002683   -0.06513369
     atom   14 type  1   force =    -0.00004454   -0.00002571   -0.06514279
     atom   15 type  2   force =     0.00015708    0.00009069    0.06747776
     atom   16 type  2   force =    -0.00015786   -0.00009114    0.06748074
     atom   17 type  1   force =     0.00004811    0.00002777   -0.06513949
     atom   18 type  1   force =    -0.00004227   -0.00002441   -0.06514177
     atom   19 type  2   force =     0.00015740    0.00009088    0.06747878
     atom   20 type  2   force =    -0.00015701   -0.00009065    0.06747935
     atom   21 type  1   force =     0.00004431    0.00002558   -0.06513352
     atom   22 type  1   force =    -0.00004460   -0.00002575   -0.06513887
     atom   23 type  2   force =     0.00015766    0.00009102    0.06747827
     atom   24 type  2   force =    -0.00015711   -0.00009071    0.06747851
     The core correction contribution to forces
     atom    1 type  1   force =    -0.00000385   -0.00000224    0.00077561
     atom    2 type  1   force =     0.00000412    0.00000230    0.00077567
     atom    3 type  2   force =     0.00000184    0.00000106   -0.00003424
     atom    4 type  2   force =    -0.00000182   -0.00000105   -0.00003424
     atom    5 type  1   force =    -0.00000379   -0.00000220    0.00077569
     atom    6 type  1   force =     0.00000420    0.00000235    0.00077552
     atom    7 type  2   force =     0.00000184    0.00000106   -0.00003424
     atom    8 type  2   force =    -0.00000181   -0.00000105   -0.00003425
     atom    9 type  1   force =    -0.00000390   -0.00000227    0.00077543
     atom   10 type  1   force =     0.00000414    0.00000231    0.00077559
     atom   11 type  2   force =     0.00000185    0.00000106   -0.00003425
     atom   12 type  2   force =    -0.00000182   -0.00000106   -0.00003428
     atom   13 type  1   force =    -0.00000417   -0.00000235    0.00077552
     atom   14 type  1   force =     0.00000390    0.00000227    0.00077570
     atom   15 type  2   force =     0.00000181    0.00000105   -0.00003425
     atom   16 type  2   force =    -0.00000185   -0.00000107   -0.00003424
     atom   17 type  1   force =    -0.00000422   -0.00000238    0.00077565
     atom   18 type  1   force =     0.00000382    0.00000222    0.00077568
     atom   19 type  2   force =     0.00000182    0.00000106   -0.00003424
     atom   20 type  2   force =    -0.00000184   -0.00000106   -0.00003423
     atom   21 type  1   force =    -0.00000413   -0.00000232    0.00077545
     atom   22 type  1   force =     0.00000390    0.00000227    0.00077557
     atom   23 type  2   force =     0.00000182    0.00000106   -0.00003426
     atom   24 type  2   force =    -0.00000184   -0.00000106   -0.00003427
     The Hubbard contrib.    to forces
     atom    1 type  1   force =     0.00000000    0.00000000    0.00000000
     atom    2 type  1   force =     0.00000000    0.00000000    0.00000000
     atom    3 type  2   force =     0.00000000    0.00000000    0.00000000
     atom    4 type  2   force =     0.00000000    0.00000000    0.00000000
     atom    5 type  1   force =     0.00000000    0.00000000    0.00000000
     atom    6 type  1   force =     0.00000000    0.00000000    0.00000000
     atom    7 type  2   force =     0.00000000    0.00000000    0.00000000
     atom    8 type  2   force =     0.00000000    0.00000000    0.00000000
     atom    9 type  1   force =     0.00000000    0.00000000    0.00000000
     atom   10 type  1   force =     0.00000000    0.00000000    0.00000000
     atom   11 type  2   force =     0.00000000    0.00000000    0.00000000
     atom   12 type  2   force =     0.00000000    0.00000000    0.00000000
     atom   13 type  1   force =     0.00000000    0.00000000    0.00000000
     atom   14 type  1   force =     0.00000000    0.00000000    0.00000000
     atom   15 type  2   force =     0.00000000    0.00000000    0.00000000
     atom   16 type  2   force =     0.00000000    0.00000000    0.00000000
     atom   17 type  1   force =     0.00000000    0.00000000    0.00000000
     atom   18 type  1   force =     0.00000000    0.00000000    0.00000000
     atom   19 type  2   force =     0.00000000    0.00000000    0.00000000
     atom   20 type  2   force =     0.00000000    0.00000000    0.00000000
     atom   21 type  1   force =     0.00000000    0.00000000    0.00000000
     atom   22 type  1   force =     0.00000000    0.00000000    0.00000000
     atom   23 type  2   force =     0.00000000    0.00000000    0.00000000
     atom   24 type  2   force =     0.00000000    0.00000000    0.00000000
     The SCF correction term to forces
     atom    1 type  1   force =     0.00000266    0.00000154    0.00000256
     atom    2 type  1   force =     0.00000015    0.00000008    0.00000405
     atom    3 type  2   force =    -0.00000010   -0.00000006    0.00000099
     atom    4 type  2   force =     0.00000024    0.00000014   -0.00000086
     atom    5 type  1   force =     0.00000514    0.00000297    0.00000337
     atom    6 type  1   force =     0.00000384    0.00000222    0.00000073
     atom    7 type  2   force =     0.00000035    0.00000020   -0.00000096
     atom    8 type  2   force =     0.00000051    0.00000030   -0.00000011
     atom    9 type  1   force =    -0.00000076   -0.00000044   -0.00000736
     atom   10 type  1   force =    -0.00000226   -0.00000130    0.00000270
     atom   11 type  2   force =    -0.00000027   -0.00000016   -0.00000087
     atom   12 type  2   force =     0.00000006    0.00000004   -0.00000219
     atom   13 type  1   force =    -0.00000380   -0.00000219   -0.00000302
     atom   14 type  1   force =     0.00000078    0.00000045    0.00000827
     atom   15 type  2   force =     0.00000003    0.00000002    0.00000161
     atom   16 type  2   force =     0.00000030    0.00000017   -0.00000122
     atom   17 type  1   force =    -0.00000545   -0.00000315    0.00000475
     atom   18 type  1   force =    -0.00000267   -0.00000154    0.00000944
     atom   19 type  2   force =    -0.00000015   -0.00000008   -0.00000106
     atom   20 type  2   force =    -0.00000032   -0.00000018   -0.00000009
     atom   21 type  1   force =     0.00000048    0.00000028   -0.00000686
     atom   22 type  1   force =     0.00000184    0.00000106    0.00000054
     atom   23 type  2   force =    -0.00000037   -0.00000021   -0.00000052
     atom   24 type  2   force =     0.00000012    0.00000007   -0.00000268

     Total force =     0.003801     Total SCF correction =     0.000022

     General routines

     Parallel routines

   This run was terminated on:  17:34:23   4Sep2025

   JOB DONE.
Note: The following floating-point exceptions are signalling: IEEE_UNDERFLOW_FLAG IEEE_DENORMAL
Note: The following floating-point exceptions are signalling: IEEE_UNDERFLOW_FLAG IEEE_DENORMAL
Note: The following floating-point exceptions are signalling: IEEE_UNDERFLOW_FLAG IEEE_DENORMAL
Note: The following floating-point exceptions are signalling: IEEE_UNDERFLOW_FLAG IEEE_DENORMAL
Note: The following floating-point exceptions are signalling: IEEE_UNDERFLOW_FLAG IEEE_DENORMAL
Note: The following floating-point exceptions are signalling: IEEE_UNDERFLOW_FLAG IEEE_DENORMAL
Note: The following floating-point exceptions are signalling: IEEE_UNDERFLOW_FLAG IEEE_DENORMAL
Note: The following floating-point exceptions are signalling: IEEE_UNDERFLOW_FLAG IEEE_DENORMAL
Note: The following floating-point exceptions are signalling: IEEE_UNDERFLOW_FLAG IEEE_DENORMAL
Note: The following floating-point exceptions are signalling: IEEE_UNDERFLOW_FLAG IEEE_DENORMAL
Note: The following floating-point exceptions are signalling: IEEE_UNDERFLOW_FLAG IEEE_DENORMAL
Note: The following floating-point exceptions are signalling: IEEE_UNDERFLOW_FLAG IEEE_DENORMAL
Note: The following floating-point exceptions are signalling: IEEE_UNDERFLOW_FLAG IEEE_DENORMAL
Note: The following floating-point exceptions are signalling: IEEE_UNDERFLOW_FLAG IEEE_DENORMAL
Note: The following floating-point exceptions are signalling: IEEE_UNDERFLOW_FLAG IEEE_DENORMAL
Note: The following floating-point exceptions are signalling: IEEE_UNDERFLOW_FLAG IEEE_DENORMAL
Note: The following floating-point exceptions are signalling: IEEE_UNDERFLOW_FLAG IEEE_DENORMAL
Note: The following floating-point exceptions are signalling: IEEE_UNDERFLOW_FLAG IEEE_DENORMAL
Note: The following floating-point exceptions are signalling: IEEE_UNDERFLOW_FLAG IEEE_DENORMAL
Note: The following floating-point exceptions are signalling: IEEE_UNDERFLOW_FLAG IEEE_DENORMAL
Note: The following floating-point exceptions are signalling: IEEE_UNDERFLOW_FLAG IEEE_DENORMAL
Note: The following floating-point exceptions are signalling: IEEE_UNDERFLOW_FLAG IEEE_DENORMAL
Note: The following floating-point exceptions are signalling: IEEE_UNDERFLOW_FLAG IEEE_DENORMAL
Note: The following floating-point exceptions are signalling: IEEE_UNDERFLOW_FLAG IEEE_DENORMAL
Note: The following floating-point exceptions are signalling: IEEE_UNDERFLOW_FLAG IEEE_DENORMAL
Note: The following floating-point exceptions are signalling: IEEE_UNDERFLOW_FLAG IEEE_DENORMAL
Note: The following floating-point exceptions are signalling: IEEE_UNDERFLOW_FLAG IEEE_DENORMAL
Note: The following floating-point exceptions are signalling: IEEE_UNDERFLOW_FLAG IEEE_DENORMAL
Note: The following floating-point exceptions are signalling: IEEE_UNDERFLOW_FLAG IEEE_DENORMAL
Note: The following floating-point exceptions are signalling: IEEE_UNDERFLOW_FLAG IEEE_DENORMAL
Note: The following floating-point exceptions are signalling: IEEE_UNDERFLOW_FLAG IEEE_DENORMAL
Note: The following floating-point exceptions are signalling: IEEE_UNDERFLOW_FLAG IEEE_DENORMAL