     Program PWSCF v.7.0 starts on  4Sep2025 at 18:52: 7

     K-points division:     npool     =       8
     R & G space division:  proc/nbgrp/npool/nimage =       4

     Reading input from /home/jvc/QEspresso7.2/ZnO_database/scripts/cell213.in/ZnO-3.07-1.78-213.in
Warning: card &CELL ignored
Warning: card / ignored
Warning: card &FCP ignored
Warning: card / ignored
Warning: card &RISM ignored
Warning: card / ignored

     Current dimensions of program PWSCF are:
     Max number of different atomic species (ntypx) = 10
     Max number of k-points (npk) =  40000
     Max angular momentum in pseudopotentials (lmaxx) =  4
     file Zn.upf: wavefunction(s)  3D renormalized
     Found identity + (  0.0000  0.0000  0.3333) symmetry
     This is a supercell, fractional translations are disabled
     Message from routine setup:
     using ibrav=0 with symmetry is DISCOURAGED, use correct ibrav instead

     Using Slab Decomposition

     bravais-lattice index     =            0
     lattice parameter (alat)  =      11.6162  a.u.
     unit-cell volume          =    1807.9311 (a.u.)^3
     number of atoms/cell      =           24
     number of atomic types    =            2
     number of electrons       =       216.00
     number of Kohn-Sham states=          108
     kinetic-energy cutoff     =      50.0000  Ry
     charge density cutoff     =     400.0000  Ry
     scf convergence threshold =      1.0E-08
     mixing beta               =       0.3000
     number of iterations used =            8  plain     mixing
     Exchange-correlation= PBE
                           (   1   4   3   4   0   0   0)

     celldm(1)=  11.616245  celldm(2)=   0.000000  celldm(3)=   0.000000
     celldm(4)=   0.000000  celldm(5)=   0.000000  celldm(6)=   0.000000

     crystal axes: (cart. coord. in units of alat)
               a(1) = (   1.000000   0.000000   0.000000 )
               a(2) = (  -0.250000   0.433013   0.000000 )
               a(3) = (   0.000000   0.000000   2.663691 )

     reciprocal axes: (cart. coord. in units 2 pi/alat)
               b(1) = (  1.000000  0.577350 -0.000000 )
               b(2) = (  0.000000  2.309401  0.000000 )
               b(3) = (  0.000000 -0.000000  0.375419 )

     PseudoPot. # 1 for Zn read from file:
     /home/jvc/QEspresso7.2/ZnO_database/pseudos/Zn.upf
     MD5 check sum: 7f56cabf9682ed8c977c2f7d0c5985c5
     Pseudo is Ultrasoft + core correction, Zval = 12.0
     Generated using &quot;atomic&quot; code by A. Dal Corso  v.6.2.2
     Using radial grid of 1201 points,  6 beta functions with:
                l(1) =   0
                l(2) =   0
                l(3) =   1
                l(4) =   1
                l(5) =   2
                l(6) =   2
     Q(r) pseudized with 0 coefficients

     PseudoPot. # 2 for O  read from file:
     /home/jvc/QEspresso7.2/ZnO_database/pseudos/O.upf
     MD5 check sum: 91400c9766925bcf19f520983a725ff0
     Pseudo is Ultrasoft + core correction, Zval =  6.0
     Generated using &quot;atomic&quot; code by A. Dal Corso  v.6.3MaX
     Using radial grid of 1095 points,  4 beta functions with:
                l(1) =   0
                l(2) =   0
                l(3) =   1
                l(4) =   1
     Q(r) pseudized with 0 coefficients

     atomic species   valence    mass     pseudopotential
        Zn            12.00    65.38000     Zn( 1.00)
        O              6.00    15.99900     O ( 1.00)

      2 Sym. Ops. (no inversion) found

                                    s                        frac. trans.

      isym =  1     identity

 cryst.   s( 1) = (     1          0          0      )
                  (     0          1          0      )
                  (     0          0          1      )

 cart.    s( 1) = (  1.0000000  0.0000000  0.0000000 )
                  (  0.0000000  1.0000000  0.0000000 )
                  (  0.0000000  0.0000000  1.0000000 )

      isym =  2     inv. 180 deg rotation - cryst. axis [0,1,0]

 cryst.   s( 2) = (     1          2          0      )
                  (     0         -1          0      )
                  (     0          0          1      )

 cart.    s( 2) = (  0.5000000  0.8660254  0.0000000 )
                  (  0.8660254 -0.5000000  0.0000000 )
                  (  0.0000000  0.0000000  1.0000000 )

   Cartesian axes

     site n.     atom                  positions (alat units)
         1           Zn  tau(   1) = (   0.2500000   0.1443376   0.4445111  )
         2           Zn  tau(   2) = (  -0.0000000   0.2886751   0.0005626  )
         3           O   tau(   3) = (   0.2500000   0.1443376   0.7810621  )
         4           O   tau(   4) = (  -0.0000000   0.2886751   0.3371136  )
         5           Zn  tau(   5) = (   0.2500000   0.1443376   1.3324082  )
         6           Zn  tau(   6) = (  -0.0000000   0.2886751   0.8884597  )
         7           O   tau(   7) = (   0.2500000   0.1443376   1.6689592  )
         8           O   tau(   8) = (  -0.0000000   0.2886751   1.2250107  )
         9           Zn  tau(   9) = (   0.2500000   0.1443376   2.2203053  )
        10           Zn  tau(  10) = (  -0.0000000   0.2886751   1.7763568  )
        11           O   tau(  11) = (   0.2500000   0.1443376   2.5568563  )
        12           O   tau(  12) = (  -0.0000000   0.2886751   2.1129078  )
        13           Zn  tau(  13) = (   0.7500000   0.1443376   0.4445111  )
        14           Zn  tau(  14) = (   0.5000000   0.2886751   0.0005626  )
        15           O   tau(  15) = (   0.7500000   0.1443376   0.7810621  )
        16           O   tau(  16) = (   0.5000000   0.2886751   0.3371136  )
        17           Zn  tau(  17) = (   0.7500000   0.1443376   1.3324082  )
        18           Zn  tau(  18) = (   0.5000000   0.2886751   0.8884597  )
        19           O   tau(  19) = (   0.7500000   0.1443376   1.6689592  )
        20           O   tau(  20) = (   0.5000000   0.2886751   1.2250107  )
        21           Zn  tau(  21) = (   0.7500000   0.1443376   2.2203053  )
        22           Zn  tau(  22) = (   0.5000000   0.2886751   1.7763568  )
        23           O   tau(  23) = (   0.7500000   0.1443376   2.5568563  )
        24           O   tau(  24) = (   0.5000000   0.2886751   2.1129078  )

   Crystallographic axes

     site n.     atom                  positions (cryst. coord.)
         1           Zn  tau(   1) = (  0.3333333  0.3333333  0.1668779  )
         2           Zn  tau(   2) = (  0.1666667  0.6666667  0.0002112  )
         3           O   tau(   3) = (  0.3333333  0.3333333  0.2932255  )
         4           O   tau(   4) = (  0.1666667  0.6666667  0.1265588  )
         5           Zn  tau(   5) = (  0.3333333  0.3333333  0.5002112  )
         6           Zn  tau(   6) = (  0.1666667  0.6666667  0.3335445  )
         7           O   tau(   7) = (  0.3333333  0.3333333  0.6265588  )
         8           O   tau(   8) = (  0.1666667  0.6666667  0.4598921  )
         9           Zn  tau(   9) = (  0.3333333  0.3333333  0.8335445  )
        10           Zn  tau(  10) = (  0.1666667  0.6666667  0.6668779  )
        11           O   tau(  11) = (  0.3333333  0.3333333  0.9598921  )
        12           O   tau(  12) = (  0.1666667  0.6666667  0.7932255  )
        13           Zn  tau(  13) = (  0.8333333  0.3333333  0.1668779  )
        14           Zn  tau(  14) = (  0.6666667  0.6666667  0.0002112  )
        15           O   tau(  15) = (  0.8333333  0.3333333  0.2932255  )
        16           O   tau(  16) = (  0.6666667  0.6666667  0.1265588  )
        17           Zn  tau(  17) = (  0.8333333  0.3333333  0.5002112  )
        18           Zn  tau(  18) = (  0.6666667  0.6666667  0.3335445  )
        19           O   tau(  19) = (  0.8333333  0.3333333  0.6265588  )
        20           O   tau(  20) = (  0.6666667  0.6666667  0.4598921  )
        21           Zn  tau(  21) = (  0.8333333  0.3333333  0.8335445  )
        22           Zn  tau(  22) = (  0.6666667  0.6666667  0.6668779  )
        23           O   tau(  23) = (  0.8333333  0.3333333  0.9598921  )
        24           O   tau(  24) = (  0.6666667  0.6666667  0.7932255  )

     number of k points=    80
                       cart. coord. in units 2pi/alat
        k(    1) = (   0.0000000   0.0000000   0.0000000), wk =   0.0092593
        k(    2) = (   0.0000000   0.0000000   0.0625698), wk =   0.0185185
        k(    3) = (   0.0000000   0.0000000   0.1251396), wk =   0.0185185
        k(    4) = (   0.0000000   0.0000000  -0.1877094), wk =   0.0092593
        k(    5) = (   0.0000000   0.3849002   0.0000000), wk =   0.0370370
        k(    6) = (   0.0000000   0.3849002   0.0625698), wk =   0.0370370
        k(    7) = (   0.0000000   0.3849002   0.1251396), wk =   0.0370370
        k(    8) = (   0.0000000   0.3849002  -0.1877094), wk =   0.0370370
        k(    9) = (   0.0000000   0.7698004   0.0000000), wk =   0.0370370
        k(   10) = (   0.0000000   0.7698004   0.0625698), wk =   0.0370370
        k(   11) = (   0.0000000   0.7698004   0.1251396), wk =   0.0370370
        k(   12) = (   0.0000000   0.7698004  -0.1877094), wk =   0.0370370
        k(   13) = (   0.0000000  -1.1547005   0.0000000), wk =   0.0092593
        k(   14) = (   0.0000000  -1.1547005   0.0625698), wk =   0.0185185
        k(   15) = (   0.0000000  -1.1547005   0.1251396), wk =   0.0185185
        k(   16) = (   0.0000000  -1.1547005  -0.1877094), wk =   0.0092593
        k(   17) = (   0.1666667   0.0962250   0.0000000), wk =   0.0185185
        k(   18) = (   0.1666667   0.0962250   0.0625698), wk =   0.0185185
        k(   19) = (   0.1666667   0.0962250   0.1251396), wk =   0.0185185
        k(   20) = (   0.1666667   0.0962250  -0.1877094), wk =   0.0185185
        k(   21) = (   0.1666667   0.4811252   0.0000000), wk =   0.0370370
        k(   22) = (   0.1666667   0.4811252   0.0625698), wk =   0.0370370
        k(   23) = (   0.1666667   0.4811252   0.1251396), wk =   0.0370370
        k(   24) = (   0.1666667   0.4811252  -0.1877094), wk =   0.0370370
        k(   25) = (   0.1666667   0.8660254   0.0000000), wk =   0.0185185
        k(   26) = (   0.1666667   0.8660254   0.0625698), wk =   0.0370370
        k(   27) = (   0.1666667   0.8660254   0.1251396), wk =   0.0370370
        k(   28) = (   0.1666667   0.8660254  -0.1877094), wk =   0.0185185
        k(   29) = (   0.1666667  -1.0584755   0.0000000), wk =   0.0185185
        k(   30) = (   0.1666667  -1.0584755   0.0625698), wk =   0.0185185
        k(   31) = (   0.1666667  -1.0584755   0.1251396), wk =   0.0185185
        k(   32) = (   0.1666667  -1.0584755  -0.1877094), wk =   0.0185185
        k(   33) = (   0.1666667  -0.6735753   0.0000000), wk =   0.0370370
        k(   34) = (   0.1666667  -0.6735753   0.0625698), wk =   0.0370370
        k(   35) = (   0.1666667  -0.6735753   0.1251396), wk =   0.0370370
        k(   36) = (   0.1666667  -0.6735753  -0.1877094), wk =   0.0370370
        k(   37) = (   0.1666667  -0.2886751   0.0000000), wk =   0.0185185
        k(   38) = (   0.1666667  -0.2886751   0.0625698), wk =   0.0370370
        k(   39) = (   0.1666667  -0.2886751   0.1251396), wk =   0.0370370
[...]

!    total energy              =   -2169.62487284 Ry
     estimated scf accuracy    <          7.0E-09 Ry

     The total energy is the sum of the following terms:
     one-electron contribution =    -868.21847993 Ry
     hartree contribution      =     689.45463681 Ry
     xc contribution           =    -658.48960784 Ry
     ewald contribution        =   -1332.37142188 Ry

     convergence has been achieved in  34 iterations

     Forces acting on atoms (cartesian axes, Ry/au):

     atom    1 type  1   force =     0.00000663    0.00000383    0.03740785
     atom    2 type  1   force =    -0.00000682   -0.00000394    0.03741568
     atom    3 type  2   force =    -0.00000129   -0.00000075   -0.03741026
     atom    4 type  2   force =     0.00000534    0.00000308   -0.03741060
     atom    5 type  1   force =     0.00000801    0.00000462    0.03741440
     atom    6 type  1   force =    -0.00000900   -0.00000520    0.03740223
     atom    7 type  2   force =    -0.00000444   -0.00000257   -0.03741749
     atom    8 type  2   force =     0.00000385    0.00000222   -0.03741192
     atom    9 type  1   force =     0.00000548    0.00000317    0.03742300
     atom   10 type  1   force =    -0.00000464   -0.00000268    0.03741686
     atom   11 type  2   force =    -0.00000159   -0.00000092   -0.03741065
     atom   12 type  2   force =     0.00000461    0.00000266   -0.03742423
     atom   13 type  1   force =     0.00000734    0.00000424    0.03741052
     atom   14 type  1   force =    -0.00000661   -0.00000382    0.03741637
     atom   15 type  2   force =    -0.00000545   -0.00000315   -0.03741023
     atom   16 type  2   force =     0.00000155    0.00000090   -0.03740928
     atom   17 type  1   force =     0.00000391    0.00000226    0.03741508
     atom   18 type  1   force =    -0.00000495   -0.00000286    0.03740553
     atom   19 type  2   force =    -0.00000244   -0.00000141   -0.03741709
     atom   20 type  2   force =     0.00000294    0.00000170   -0.03741189
     atom   21 type  1   force =     0.00000668    0.00000386    0.03742133
     atom   22 type  1   force =    -0.00000617   -0.00000356    0.03741947
     atom   23 type  2   force =    -0.00000514   -0.00000297   -0.03741446
     atom   24 type  2   force =     0.00000220    0.00000127   -0.03742021
     The non-local contrib.  to forces
     atom    1 type  1   force =    -0.00002649   -0.00001529    0.26930810
     atom    2 type  1   force =     0.00001911    0.00001103    0.26931395
     atom    3 type  2   force =    -0.00017653   -0.00010192    0.23497563
     atom    4 type  2   force =     0.00018165    0.00010487    0.23497675
     atom    5 type  1   force =    -0.00002152   -0.00001243    0.26931136
     atom    6 type  1   force =     0.00002001    0.00001155    0.26929591
     atom    7 type  2   force =    -0.00017950   -0.00010364    0.23497548
     atom    8 type  2   force =     0.00017939    0.00010357    0.23497687
     atom    9 type  1   force =    -0.00002625   -0.00001516    0.26931738
     atom   10 type  1   force =     0.00002306    0.00001332    0.26931266
     atom   11 type  2   force =    -0.00017678   -0.00010207    0.23498007
     atom   12 type  2   force =     0.00018118    0.00010461    0.23496826
     atom   13 type  1   force =    -0.00001926   -0.00001112    0.26930818
     atom   14 type  1   force =     0.00002642    0.00001525    0.26931447
     atom   15 type  2   force =    -0.00018144   -0.00010475    0.23497458
     atom   16 type  2   force =     0.00017744    0.00010244    0.23497809
     atom   17 type  1   force =    -0.00002425   -0.00001400    0.26931023
     atom   18 type  1   force =     0.00002557    0.00001476    0.26929840
     atom   19 type  2   force =    -0.00017876   -0.00010321    0.23497619
     atom   20 type  2   force =     0.00017943    0.00010359    0.23497655
     atom   21 type  1   force =    -0.00001967   -0.00001136    0.26931648
     atom   22 type  1   force =     0.00002303    0.00001329    0.26931270
     atom   23 type  2   force =    -0.00018170   -0.00010490    0.23497740
     atom   24 type  2   force =     0.00017752    0.00010249    0.23497033
     The ionic contribution  to forces
     atom    1 type  1   force =     0.00000000    0.00000001    2.16520495
     atom    2 type  1   force =     0.00000001    0.00000000    2.16520500
     atom    3 type  2   force =     0.00000000    0.00000001   -2.16520497
     atom    4 type  2   force =     0.00000001   -0.00000000   -2.16520498
     atom    5 type  1   force =     0.00000000    0.00000001    2.16520499
     atom    6 type  1   force =     0.00000001    0.00000000    2.16520495
     atom    7 type  2   force =     0.00000000    0.00000001   -2.16520498
     atom    8 type  2   force =     0.00000001   -0.00000000   -2.16520495
     atom    9 type  1   force =     0.00000000    0.00000001    2.16520495
     atom   10 type  1   force =     0.00000001    0.00000000    2.16520495
     atom   11 type  2   force =     0.00000000    0.00000001   -2.16520495
     atom   12 type  2   force =     0.00000001   -0.00000000   -2.16520497
     atom   13 type  1   force =    -0.00000000   -0.00000000    2.16520496
     atom   14 type  1   force =    -0.00000001   -0.00000001    2.16520500
     atom   15 type  2   force =    -0.00000000   -0.00000000   -2.16520497
     atom   16 type  2   force =    -0.00000001   -0.00000000   -2.16520498
     atom   17 type  1   force =    -0.00000000   -0.00000000    2.16520500
     atom   18 type  1   force =    -0.00000001   -0.00000001    2.16520495
     atom   19 type  2   force =    -0.00000000   -0.00000000   -2.16520498
     atom   20 type  2   force =    -0.00000001   -0.00000000   -2.16520495
     atom   21 type  1   force =    -0.00000000   -0.00000000    2.16520496
     atom   22 type  1   force =    -0.00000001   -0.00000001    2.16520495
     atom   23 type  2   force =    -0.00000000   -0.00000000   -2.16520496
     atom   24 type  2   force =    -0.00000001   -0.00000000   -2.16520497
     The local contribution  to forces
     atom    1 type  1   force =     0.00004358    0.00002516   -2.37636254
     atom    2 type  1   force =    -0.00003016   -0.00001750   -2.37636717
     atom    3 type  2   force =     0.00017781    0.00010266    1.89461860
     atom    4 type  2   force =    -0.00017031   -0.00009835    1.89460672
     atom    5 type  1   force =     0.00003242    0.00001872   -2.37636341
     atom    6 type  1   force =    -0.00003023   -0.00001755   -2.37634093
     atom    7 type  2   force =     0.00017171    0.00009914    1.89458935
     atom    8 type  2   force =    -0.00017344   -0.00010016    1.89460703
     atom    9 type  1   force =     0.00004370    0.00002523   -2.37638612
     atom   10 type  1   force =    -0.00003862   -0.00002239   -2.37637746
     atom   11 type  2   force =     0.00017637    0.00010183    1.89460615
     atom   12 type  2   force =    -0.00017227   -0.00009948    1.89458537
     atom   13 type  1   force =     0.00002996    0.00001730   -2.37636576
     atom   14 type  1   force =    -0.00004347   -0.00002510   -2.37636664
     atom   15 type  2   force =     0.00016903    0.00009759    1.89461917
     atom   16 type  2   force =    -0.00017644   -0.00010187    1.89460806
     atom   17 type  1   force =     0.00004200    0.00002425   -2.37636093
     atom   18 type  1   force =    -0.00004335   -0.00002503   -2.37634670
     atom   19 type  2   force =     0.00017569    0.00010143    1.89459108
     atom   20 type  2   force =    -0.00017410   -0.00010052    1.89460496
     atom   21 type  1   force =     0.00003070    0.00001772   -2.37638597
     atom   22 type  1   force =    -0.00003654   -0.00002110   -2.37637689
     atom   23 type  2   force =     0.00017055    0.00009847    1.89460137
     atom   24 type  2   force =    -0.00017427   -0.00010061    1.89459243
     The core correction contribution to forces
     atom    1 type  1   force =    -0.00000796   -0.00000459   -0.02073678
     atom    2 type  1   force =     0.00000791    0.00000452   -0.02073576
     atom    3 type  2   force =     0.00000201    0.00000116   -0.00179117
     atom    4 type  2   force =    -0.00000202   -0.00000116   -0.00178950
     atom    5 type  1   force =    -0.00000772   -0.00000445   -0.02073579
     atom    6 type  1   force =     0.00000791    0.00000452   -0.02073483
     atom    7 type  2   force =     0.00000203    0.00000117   -0.00178952
     atom    8 type  2   force =    -0.00000201   -0.00000115   -0.00179214
     atom    9 type  1   force =    -0.00000798   -0.00000460   -0.02073472
     atom   10 type  1   force =     0.00000803    0.00000459   -0.02073670
     atom   11 type  2   force =     0.00000201    0.00000116   -0.00179218
     atom   12 type  2   force =    -0.00000202   -0.00000116   -0.00179117
     atom   13 type  1   force =    -0.00000792   -0.00000454   -0.02073664
     atom   14 type  1   force =     0.00000798    0.00000460   -0.02073593
     atom   15 type  2   force =     0.00000202    0.00000116   -0.00179117
     atom   16 type  2   force =    -0.00000202   -0.00000116   -0.00178950
     atom   17 type  1   force =    -0.00000814   -0.00000467   -0.02073590
     atom   18 type  1   force =     0.00000797    0.00000459   -0.02073477
     atom   19 type  2   force =     0.00000201    0.00000116   -0.00178952
     atom   20 type  2   force =    -0.00000204   -0.00000117   -0.00179214
     atom   21 type  1   force =    -0.00000787   -0.00000451   -0.02073452
     atom   22 type  1   force =     0.00000780    0.00000450   -0.02073686
     atom   23 type  2   force =     0.00000202    0.00000116   -0.00179218
     atom   24 type  2   force =    -0.00000202   -0.00000116   -0.00179116
     The Hubbard contrib.    to forces
     atom    1 type  1   force =     0.00000000    0.00000000    0.00000000
     atom    2 type  1   force =     0.00000000    0.00000000    0.00000000
     atom    3 type  2   force =     0.00000000    0.00000000    0.00000000
     atom    4 type  2   force =     0.00000000    0.00000000    0.00000000
     atom    5 type  1   force =     0.00000000    0.00000000    0.00000000
     atom    6 type  1   force =     0.00000000    0.00000000    0.00000000
     atom    7 type  2   force =     0.00000000    0.00000000    0.00000000
     atom    8 type  2   force =     0.00000000    0.00000000    0.00000000
     atom    9 type  1   force =     0.00000000    0.00000000    0.00000000
     atom   10 type  1   force =     0.00000000    0.00000000    0.00000000
     atom   11 type  2   force =     0.00000000    0.00000000    0.00000000
     atom   12 type  2   force =     0.00000000    0.00000000    0.00000000
     atom   13 type  1   force =     0.00000000    0.00000000    0.00000000
     atom   14 type  1   force =     0.00000000    0.00000000    0.00000000
     atom   15 type  2   force =     0.00000000    0.00000000    0.00000000
     atom   16 type  2   force =     0.00000000    0.00000000    0.00000000
     atom   17 type  1   force =     0.00000000    0.00000000    0.00000000
     atom   18 type  1   force =     0.00000000    0.00000000    0.00000000
     atom   19 type  2   force =     0.00000000    0.00000000    0.00000000
     atom   20 type  2   force =     0.00000000    0.00000000    0.00000000
     atom   21 type  1   force =     0.00000000    0.00000000    0.00000000
     atom   22 type  1   force =     0.00000000    0.00000000    0.00000000
     atom   23 type  2   force =     0.00000000    0.00000000    0.00000000
     atom   24 type  2   force =     0.00000000    0.00000000    0.00000000
     The SCF correction term to forces
     atom    1 type  1   force =    -0.00000242   -0.00000139   -0.00000627
     atom    2 type  1   force =    -0.00000354   -0.00000204   -0.00000074
     atom    3 type  2   force =    -0.00000450   -0.00000260   -0.00000875
     atom    4 type  2   force =    -0.00000387   -0.00000224    0.00000001
     atom    5 type  1   force =     0.00000491    0.00000284   -0.00000315
     atom    6 type  1   force =    -0.00000655   -0.00000378   -0.00002327
     atom    7 type  2   force =     0.00000141    0.00000082    0.00001178
     atom    8 type  2   force =     0.00000000    0.00000000    0.00000090
     atom    9 type  1   force =    -0.00000390   -0.00000225    0.00002111
     atom   10 type  1   force =     0.00000303    0.00000175    0.00001301
     atom   11 type  2   force =    -0.00000310   -0.00000179   -0.00000014
     atom   12 type  2   force =    -0.00000218   -0.00000126    0.00001789
     atom   13 type  1   force =     0.00000465    0.00000269   -0.00000060
     atom   14 type  1   force =     0.00000257    0.00000148   -0.00000092
     atom   15 type  2   force =     0.00000504    0.00000291   -0.00000824
     atom   16 type  2   force =     0.00000268    0.00000155   -0.00000134
     atom   17 type  1   force =    -0.00000562   -0.00000324   -0.00000371
     atom   18 type  1   force =     0.00000498    0.00000288   -0.00001674
     atom   19 type  2   force =    -0.00000128   -0.00000074    0.00000975
     atom   20 type  2   force =    -0.00000025   -0.00000014    0.00000330
     atom   21 type  1   force =     0.00000361    0.00000208    0.00001998
     atom   22 type  1   force =    -0.00000035   -0.00000020    0.00001516
     atom   23 type  2   force =     0.00000409    0.00000236    0.00000352
     atom   24 type  2   force =     0.00000107    0.00000062    0.00001277

     Total force =     0.183291     Total SCF correction =     0.000059

     General routines

     Parallel routines

   This run was terminated on:  19:11: 6   4Sep2025

   JOB DONE.
Note: The following floating-point exceptions are signalling: IEEE_UNDERFLOW_FLAG IEEE_DENORMAL
Note: The following floating-point exceptions are signalling: IEEE_UNDERFLOW_FLAG IEEE_DENORMAL
Note: The following floating-point exceptions are signalling: IEEE_UNDERFLOW_FLAG IEEE_DENORMAL
Note: The following floating-point exceptions are signalling: IEEE_UNDERFLOW_FLAG IEEE_DENORMAL
Note: The following floating-point exceptions are signalling: IEEE_UNDERFLOW_FLAG IEEE_DENORMAL
Note: The following floating-point exceptions are signalling: IEEE_UNDERFLOW_FLAG IEEE_DENORMAL
Note: The following floating-point exceptions are signalling: IEEE_UNDERFLOW_FLAG IEEE_DENORMAL
Note: The following floating-point exceptions are signalling: IEEE_UNDERFLOW_FLAG IEEE_DENORMAL
Note: The following floating-point exceptions are signalling: IEEE_UNDERFLOW_FLAG IEEE_DENORMAL
Note: The following floating-point exceptions are signalling: IEEE_UNDERFLOW_FLAG IEEE_DENORMAL
Note: The following floating-point exceptions are signalling: IEEE_UNDERFLOW_FLAG IEEE_DENORMAL
Note: The following floating-point exceptions are signalling: IEEE_UNDERFLOW_FLAG IEEE_DENORMAL
Note: The following floating-point exceptions are signalling: IEEE_UNDERFLOW_FLAG IEEE_DENORMAL
Note: The following floating-point exceptions are signalling: IEEE_UNDERFLOW_FLAG IEEE_DENORMAL
Note: The following floating-point exceptions are signalling: IEEE_UNDERFLOW_FLAG IEEE_DENORMAL
Note: The following floating-point exceptions are signalling: IEEE_UNDERFLOW_FLAG IEEE_DENORMAL
Note: The following floating-point exceptions are signalling: IEEE_UNDERFLOW_FLAG IEEE_DENORMAL
Note: The following floating-point exceptions are signalling: IEEE_UNDERFLOW_FLAG IEEE_DENORMAL
Note: The following floating-point exceptions are signalling: IEEE_UNDERFLOW_FLAG IEEE_DENORMAL
Note: The following floating-point exceptions are signalling: IEEE_UNDERFLOW_FLAG IEEE_DENORMAL
Note: The following floating-point exceptions are signalling: IEEE_UNDERFLOW_FLAG IEEE_DENORMAL
Note: The following floating-point exceptions are signalling: IEEE_UNDERFLOW_FLAG IEEE_DENORMAL
Note: The following floating-point exceptions are signalling: IEEE_UNDERFLOW_FLAG IEEE_DENORMAL
Note: The following floating-point exceptions are signalling: IEEE_UNDERFLOW_FLAG IEEE_DENORMAL
Note: The following floating-point exceptions are signalling: IEEE_UNDERFLOW_FLAG IEEE_DENORMAL
Note: The following floating-point exceptions are signalling: IEEE_UNDERFLOW_FLAG IEEE_DENORMAL
Note: The following floating-point exceptions are signalling: IEEE_UNDERFLOW_FLAG IEEE_DENORMAL
Note: The following floating-point exceptions are signalling: IEEE_UNDERFLOW_FLAG IEEE_DENORMAL
Note: The following floating-point exceptions are signalling: IEEE_UNDERFLOW_FLAG IEEE_DENORMAL
Note: The following floating-point exceptions are signalling: IEEE_UNDERFLOW_FLAG IEEE_DENORMAL
Note: The following floating-point exceptions are signalling: IEEE_UNDERFLOW_FLAG IEEE_DENORMAL
Note: The following floating-point exceptions are signalling: IEEE_UNDERFLOW_FLAG IEEE_DENORMAL