     Program PWSCF v.7.0 starts on  4Sep2025 at 10:15:37

     K-points division:     npool     =       8
     R & G space division:  proc/nbgrp/npool/nimage =       4

     Reading input from /home/jvc/QEspresso7.2/ZnO_database/scripts/cell213.in/ZnO-2.94-1.52-213.in
Warning: card &CELL ignored
Warning: card / ignored
Warning: card &FCP ignored
Warning: card / ignored
Warning: card &RISM ignored
Warning: card / ignored

     Current dimensions of program PWSCF are:
     Max number of different atomic species (ntypx) = 10
     Max number of k-points (npk) =  40000
     Max angular momentum in pseudopotentials (lmaxx) =  4
     file Zn.upf: wavefunction(s)  3D renormalized
     Found identity + (  0.0000  0.0000  0.3333) symmetry
     This is a supercell, fractional translations are disabled
     Message from routine setup:
     using ibrav=0 with symmetry is DISCOURAGED, use correct ibrav instead

     Using Slab Decomposition

     bravais-lattice index     =            0
     lattice parameter (alat)  =      11.1219  a.u.
     unit-cell volume          =    1356.0041 (a.u.)^3
     number of atoms/cell      =           24
     number of atomic types    =            2
     number of electrons       =       216.00
     number of Kohn-Sham states=          108
     kinetic-energy cutoff     =      50.0000  Ry
     charge density cutoff     =     400.0000  Ry
     scf convergence threshold =      1.0E-08
     mixing beta               =       0.3000
     number of iterations used =            8  plain     mixing
     Exchange-correlation= PBE
                           (   1   4   3   4   0   0   0)

     celldm(1)=  11.121937  celldm(2)=   0.000000  celldm(3)=   0.000000
     celldm(4)=   0.000000  celldm(5)=   0.000000  celldm(6)=   0.000000

     crystal axes: (cart. coord. in units of alat)
               a(1) = (   1.000000   0.000000   0.000000 )
               a(2) = (  -0.250000   0.433013   0.000000 )
               a(3) = (   0.000000   0.000000   2.276245 )

     reciprocal axes: (cart. coord. in units 2 pi/alat)
               b(1) = (  1.000000  0.577350 -0.000000 )
               b(2) = (  0.000000  2.309401  0.000000 )
               b(3) = (  0.000000 -0.000000  0.439320 )

     PseudoPot. # 1 for Zn read from file:
     /home/jvc/QEspresso7.2/ZnO_database/pseudos/Zn.upf
     MD5 check sum: 7f56cabf9682ed8c977c2f7d0c5985c5
     Pseudo is Ultrasoft + core correction, Zval = 12.0
     Generated using &quot;atomic&quot; code by A. Dal Corso  v.6.2.2
     Using radial grid of 1201 points,  6 beta functions with:
                l(1) =   0
                l(2) =   0
                l(3) =   1
                l(4) =   1
                l(5) =   2
                l(6) =   2
     Q(r) pseudized with 0 coefficients

     PseudoPot. # 2 for O  read from file:
     /home/jvc/QEspresso7.2/ZnO_database/pseudos/O.upf
     MD5 check sum: 91400c9766925bcf19f520983a725ff0
     Pseudo is Ultrasoft + core correction, Zval =  6.0
     Generated using &quot;atomic&quot; code by A. Dal Corso  v.6.3MaX
     Using radial grid of 1095 points,  4 beta functions with:
                l(1) =   0
                l(2) =   0
                l(3) =   1
                l(4) =   1
     Q(r) pseudized with 0 coefficients

     atomic species   valence    mass     pseudopotential
        Zn            12.00    65.38000     Zn( 1.00)
        O              6.00    15.99900     O ( 1.00)

      2 Sym. Ops. (no inversion) found

                                    s                        frac. trans.

      isym =  1     identity

 cryst.   s( 1) = (     1          0          0      )
                  (     0          1          0      )
                  (     0          0          1      )

 cart.    s( 1) = (  1.0000000  0.0000000  0.0000000 )
                  (  0.0000000  1.0000000  0.0000000 )
                  (  0.0000000  0.0000000  1.0000000 )

      isym =  2     inv. 180 deg rotation - cryst. axis [0,1,0]

 cryst.   s( 2) = (     1          2          0      )
                  (     0         -1          0      )
                  (     0          0          1      )

 cart.    s( 2) = (  0.5000000  0.8660254  0.0000000 )
                  (  0.8660254 -0.5000000  0.0000000 )
                  (  0.0000000  0.0000000  1.0000000 )

   Cartesian axes

     site n.     atom                  positions (alat units)
         1           Zn  tau(   1) = (   0.2500000   0.1443376   0.3798549  )
         2           Zn  tau(   2) = (  -0.0000000   0.2886751   0.0004807  )
         3           O   tau(   3) = (   0.2500000   0.1443376   0.6674531  )
         4           O   tau(   4) = (  -0.0000000   0.2886751   0.2880789  )
         5           Zn  tau(   5) = (   0.2500000   0.1443376   1.1386034  )
         6           Zn  tau(   6) = (  -0.0000000   0.2886751   0.7592292  )
         7           O   tau(   7) = (   0.2500000   0.1443376   1.4262015  )
         8           O   tau(   8) = (  -0.0000000   0.2886751   1.0468273  )
         9           Zn  tau(   9) = (   0.2500000   0.1443376   1.8973518  )
        10           Zn  tau(  10) = (  -0.0000000   0.2886751   1.5179776  )
        11           O   tau(  11) = (   0.2500000   0.1443376   2.1849500  )
        12           O   tau(  12) = (  -0.0000000   0.2886751   1.8055757  )
        13           Zn  tau(  13) = (   0.7500000   0.1443376   0.3798549  )
        14           Zn  tau(  14) = (   0.5000000   0.2886751   0.0004807  )
        15           O   tau(  15) = (   0.7500000   0.1443376   0.6674531  )
        16           O   tau(  16) = (   0.5000000   0.2886751   0.2880789  )
        17           Zn  tau(  17) = (   0.7500000   0.1443376   1.1386034  )
        18           Zn  tau(  18) = (   0.5000000   0.2886751   0.7592292  )
        19           O   tau(  19) = (   0.7500000   0.1443376   1.4262015  )
        20           O   tau(  20) = (   0.5000000   0.2886751   1.0468273  )
        21           Zn  tau(  21) = (   0.7500000   0.1443376   1.8973518  )
        22           Zn  tau(  22) = (   0.5000000   0.2886751   1.5179776  )
        23           O   tau(  23) = (   0.7500000   0.1443376   2.1849500  )
        24           O   tau(  24) = (   0.5000000   0.2886751   1.8055757  )

   Crystallographic axes

     site n.     atom                  positions (cryst. coord.)
         1           Zn  tau(   1) = (  0.3333333  0.3333333  0.1668779  )
         2           Zn  tau(   2) = (  0.1666667  0.6666667  0.0002112  )
         3           O   tau(   3) = (  0.3333333  0.3333333  0.2932255  )
         4           O   tau(   4) = (  0.1666667  0.6666667  0.1265588  )
         5           Zn  tau(   5) = (  0.3333333  0.3333333  0.5002112  )
         6           Zn  tau(   6) = (  0.1666667  0.6666667  0.3335445  )
         7           O   tau(   7) = (  0.3333333  0.3333333  0.6265588  )
         8           O   tau(   8) = (  0.1666667  0.6666667  0.4598921  )
         9           Zn  tau(   9) = (  0.3333333  0.3333333  0.8335445  )
        10           Zn  tau(  10) = (  0.1666667  0.6666667  0.6668779  )
        11           O   tau(  11) = (  0.3333333  0.3333333  0.9598921  )
        12           O   tau(  12) = (  0.1666667  0.6666667  0.7932255  )
        13           Zn  tau(  13) = (  0.8333333  0.3333333  0.1668779  )
        14           Zn  tau(  14) = (  0.6666667  0.6666667  0.0002112  )
        15           O   tau(  15) = (  0.8333333  0.3333333  0.2932255  )
        16           O   tau(  16) = (  0.6666667  0.6666667  0.1265588  )
        17           Zn  tau(  17) = (  0.8333333  0.3333333  0.5002112  )
        18           Zn  tau(  18) = (  0.6666667  0.6666667  0.3335445  )
        19           O   tau(  19) = (  0.8333333  0.3333333  0.6265588  )
        20           O   tau(  20) = (  0.6666667  0.6666667  0.4598921  )
        21           Zn  tau(  21) = (  0.8333333  0.3333333  0.8335445  )
        22           Zn  tau(  22) = (  0.6666667  0.6666667  0.6668779  )
        23           O   tau(  23) = (  0.8333333  0.3333333  0.9598921  )
        24           O   tau(  24) = (  0.6666667  0.6666667  0.7932255  )

     number of k points=    80
                       cart. coord. in units 2pi/alat
        k(    1) = (   0.0000000   0.0000000   0.0000000), wk =   0.0092593
        k(    2) = (   0.0000000   0.0000000   0.0732200), wk =   0.0185185
        k(    3) = (   0.0000000   0.0000000   0.1464400), wk =   0.0185185
        k(    4) = (   0.0000000   0.0000000  -0.2196600), wk =   0.0092593
        k(    5) = (   0.0000000   0.3849002   0.0000000), wk =   0.0370370
        k(    6) = (   0.0000000   0.3849002   0.0732200), wk =   0.0370370
        k(    7) = (   0.0000000   0.3849002   0.1464400), wk =   0.0370370
        k(    8) = (   0.0000000   0.3849002  -0.2196600), wk =   0.0370370
        k(    9) = (   0.0000000   0.7698004   0.0000000), wk =   0.0370370
        k(   10) = (   0.0000000   0.7698004   0.0732200), wk =   0.0370370
        k(   11) = (   0.0000000   0.7698004   0.1464400), wk =   0.0370370
        k(   12) = (   0.0000000   0.7698004  -0.2196600), wk =   0.0370370
        k(   13) = (   0.0000000  -1.1547005   0.0000000), wk =   0.0092593
        k(   14) = (   0.0000000  -1.1547005   0.0732200), wk =   0.0185185
        k(   15) = (   0.0000000  -1.1547005   0.1464400), wk =   0.0185185
        k(   16) = (   0.0000000  -1.1547005  -0.2196600), wk =   0.0092593
        k(   17) = (   0.1666667   0.0962250   0.0000000), wk =   0.0185185
        k(   18) = (   0.1666667   0.0962250   0.0732200), wk =   0.0185185
        k(   19) = (   0.1666667   0.0962250   0.1464400), wk =   0.0185185
        k(   20) = (   0.1666667   0.0962250  -0.2196600), wk =   0.0185185
        k(   21) = (   0.1666667   0.4811252   0.0000000), wk =   0.0370370
        k(   22) = (   0.1666667   0.4811252   0.0732200), wk =   0.0370370
        k(   23) = (   0.1666667   0.4811252   0.1464400), wk =   0.0370370
        k(   24) = (   0.1666667   0.4811252  -0.2196600), wk =   0.0370370
        k(   25) = (   0.1666667   0.8660254   0.0000000), wk =   0.0185185
        k(   26) = (   0.1666667   0.8660254   0.0732200), wk =   0.0370370
        k(   27) = (   0.1666667   0.8660254   0.1464400), wk =   0.0370370
        k(   28) = (   0.1666667   0.8660254  -0.2196600), wk =   0.0185185
        k(   29) = (   0.1666667  -1.0584755   0.0000000), wk =   0.0185185
        k(   30) = (   0.1666667  -1.0584755   0.0732200), wk =   0.0185185
        k(   31) = (   0.1666667  -1.0584755   0.1464400), wk =   0.0185185
        k(   32) = (   0.1666667  -1.0584755  -0.2196600), wk =   0.0185185
        k(   33) = (   0.1666667  -0.6735753   0.0000000), wk =   0.0370370
        k(   34) = (   0.1666667  -0.6735753   0.0732200), wk =   0.0370370
        k(   35) = (   0.1666667  -0.6735753   0.1464400), wk =   0.0370370
        k(   36) = (   0.1666667  -0.6735753  -0.2196600), wk =   0.0370370
        k(   37) = (   0.1666667  -0.2886751   0.0000000), wk =   0.0185185
        k(   38) = (   0.1666667  -0.2886751   0.0732200), wk =   0.0370370
        k(   39) = (   0.1666667  -0.2886751   0.1464400), wk =   0.0370370
[...]

!    total energy              =   -2167.90466817 Ry
     estimated scf accuracy    <          6.8E-10 Ry

     The total energy is the sum of the following terms:
     one-electron contribution =    -656.91724549 Ry
     hartree contribution      =     619.11961940 Ry
     xc contribution           =    -663.19295212 Ry
     ewald contribution        =   -1466.91408996 Ry

     convergence has been achieved in  36 iterations

     Forces acting on atoms (cartesian axes, Ry/au):

     atom    1 type  1   force =     0.00001742    0.00001006   -0.10227311
     atom    2 type  1   force =    -0.00001508   -0.00000871   -0.10227476
     atom    3 type  2   force =    -0.00000158   -0.00000091    0.10227321
     atom    4 type  2   force =     0.00000217    0.00000125    0.10227310
     atom    5 type  1   force =     0.00001689    0.00000975   -0.10227125
     atom    6 type  1   force =    -0.00001402   -0.00000809   -0.10227244
     atom    7 type  2   force =    -0.00000159   -0.00000092    0.10227331
     atom    8 type  2   force =     0.00000213    0.00000123    0.10227349
     atom    9 type  1   force =     0.00001803    0.00001041   -0.10227399
     atom   10 type  1   force =    -0.00001455   -0.00000840   -0.10227340
     atom   11 type  2   force =    -0.00000154   -0.00000089    0.10227301
     atom   12 type  2   force =     0.00000223    0.00000129    0.10227315
     atom   13 type  1   force =     0.00001550    0.00000895   -0.10227500
     atom   14 type  1   force =    -0.00001790   -0.00001033   -0.10227432
     atom   15 type  2   force =    -0.00000209   -0.00000121    0.10227324
     atom   16 type  2   force =     0.00000160    0.00000092    0.10227319
     atom   17 type  1   force =     0.00001576    0.00000910   -0.10227244
     atom   18 type  1   force =    -0.00001896   -0.00001095   -0.10227209
     atom   19 type  2   force =    -0.00000198   -0.00000115    0.10227340
     atom   20 type  2   force =     0.00000167    0.00000097    0.10227351
     atom   21 type  1   force =     0.00001487    0.00000858   -0.10227445
     atom   22 type  1   force =    -0.00001839   -0.00001062   -0.10227171
     atom   23 type  2   force =    -0.00000211   -0.00000122    0.10227315
     atom   24 type  2   force =     0.00000152    0.00000087    0.10227317
     The non-local contrib.  to forces
     atom    1 type  1   force =    -0.00002585   -0.00001493   -0.22285687
     atom    2 type  1   force =     0.00002664    0.00001538   -0.22285703
     atom    3 type  2   force =    -0.00013388   -0.00007729   -0.11665377
     atom    4 type  2   force =     0.00013392    0.00007732   -0.11665402
     atom    5 type  1   force =    -0.00002599   -0.00001500   -0.22285599
     atom    6 type  1   force =     0.00002681    0.00001548   -0.22285631
     atom    7 type  2   force =    -0.00013386   -0.00007728   -0.11665344
     atom    8 type  2   force =     0.00013388    0.00007729   -0.11665374
     atom    9 type  1   force =    -0.00002569   -0.00001483   -0.22285690
     atom   10 type  1   force =     0.00002662    0.00001537   -0.22285638
     atom   11 type  2   force =    -0.00013379   -0.00007724   -0.11665378
     atom   12 type  2   force =     0.00013399    0.00007736   -0.11665362
     atom   13 type  1   force =    -0.00002648   -0.00001529   -0.22285713
     atom   14 type  1   force =     0.00002573    0.00001486   -0.22285693
     atom   15 type  2   force =    -0.00013398   -0.00007735   -0.11665392
     atom   16 type  2   force =     0.00013369    0.00007719   -0.11665373
     atom   17 type  1   force =    -0.00002643   -0.00001526   -0.22285615
     atom   18 type  1   force =     0.00002545    0.00001469   -0.22285623
     atom   19 type  2   force =    -0.00013373   -0.00007721   -0.11665350
     atom   20 type  2   force =     0.00013379    0.00007724   -0.11665357
     atom   21 type  1   force =    -0.00002674   -0.00001544   -0.22285680
     atom   22 type  1   force =     0.00002575    0.00001487   -0.22285617
     atom   23 type  2   force =    -0.00013391   -0.00007731   -0.11665334
     atom   24 type  2   force =     0.00013369    0.00007719   -0.11665366
     The ionic contribution  to forces
     atom    1 type  1   force =    -0.00000000    0.00000000   -1.55809775
     atom    2 type  1   force =     0.00000000   -0.00000000   -1.55809770
     atom    3 type  2   force =    -0.00000000    0.00000000    1.55809773
     atom    4 type  2   force =     0.00000000   -0.00000000    1.55809771
     atom    5 type  1   force =    -0.00000000    0.00000000   -1.55809770
     atom    6 type  1   force =     0.00000000   -0.00000000   -1.55809775
     atom    7 type  2   force =    -0.00000000    0.00000000    1.55809771
     atom    8 type  2   force =     0.00000000   -0.00000000    1.55809775
     atom    9 type  1   force =    -0.00000000    0.00000000   -1.55809775
     atom   10 type  1   force =     0.00000000   -0.00000000   -1.55809775
     atom   11 type  2   force =    -0.00000000    0.00000000    1.55809775
     atom   12 type  2   force =     0.00000000   -0.00000000    1.55809773
     atom   13 type  1   force =    -0.00000000    0.00000000   -1.55809775
     atom   14 type  1   force =     0.00000000   -0.00000000   -1.55809770
     atom   15 type  2   force =    -0.00000000    0.00000000    1.55809773
     atom   16 type  2   force =     0.00000000   -0.00000000    1.55809771
     atom   17 type  1   force =    -0.00000000    0.00000000   -1.55809770
     atom   18 type  1   force =     0.00000000   -0.00000000   -1.55809775
     atom   19 type  2   force =    -0.00000000    0.00000000    1.55809771
     atom   20 type  2   force =     0.00000000   -0.00000000    1.55809775
     atom   21 type  1   force =    -0.00000000    0.00000000   -1.55809775
     atom   22 type  1   force =     0.00000000   -0.00000000   -1.55809775
     atom   23 type  2   force =    -0.00000000    0.00000000    1.55809775
     atom   24 type  2   force =     0.00000000   -0.00000000    1.55809773
     The local contribution  to forces
     atom    1 type  1   force =     0.00004319    0.00002493    1.65469895
     atom    2 type  1   force =    -0.00004639   -0.00002687    1.65470097
     atom    3 type  2   force =     0.00013019    0.00007516   -1.33964825
     atom    4 type  2   force =    -0.00013123   -0.00007579   -1.33964652
     atom    5 type  1   force =     0.00004377    0.00002527    1.65469662
     atom    6 type  1   force =    -0.00004775   -0.00002766    1.65469846
     atom    7 type  2   force =     0.00013065    0.00007543   -1.33964888
     atom    8 type  2   force =    -0.00013119   -0.00007576   -1.33964932
     atom    9 type  1   force =     0.00004232    0.00002443    1.65469968
     atom   10 type  1   force =    -0.00004712   -0.00002729    1.65469971
     atom   11 type  2   force =     0.00013017    0.00007515   -1.33964693
     atom   12 type  2   force =    -0.00013122   -0.00007578   -1.33964702
     atom   13 type  1   force =     0.00004572    0.00002639    1.65470226
     atom   14 type  1   force =    -0.00004249   -0.00002462    1.65470003
     atom   15 type  2   force =     0.00013126    0.00007578   -1.33964757
     atom   16 type  2   force =    -0.00012983   -0.00007498   -1.33964667
     atom   17 type  1   force =     0.00004530    0.00002616    1.65469901
     atom   18 type  1   force =    -0.00004100   -0.00002376    1.65469759
     atom   19 type  2   force =     0.00013070    0.00007546   -1.33964848
     atom   20 type  2   force =    -0.00012997   -0.00007506   -1.33964946
     atom   21 type  1   force =     0.00004667    0.00002694    1.65470097
     atom   22 type  1   force =    -0.00004176   -0.00002420    1.65469712
     atom   23 type  2   force =     0.00013104    0.00007566   -1.33964676
     atom   24 type  2   force =    -0.00012998   -0.00007507   -1.33964758
     The core correction contribution to forces
     atom    1 type  1   force =    -0.00000199   -0.00000115    0.02398639
     atom    2 type  1   force =     0.00000203    0.00000116    0.02398636
     atom    3 type  2   force =     0.00000150    0.00000087    0.00047844
     atom    4 type  2   force =    -0.00000150   -0.00000087    0.00047845
     atom    5 type  1   force =    -0.00000199   -0.00000115    0.02398639
     atom    6 type  1   force =     0.00000206    0.00000118    0.02398636
     atom    7 type  2   force =     0.00000150    0.00000087    0.00047843
     atom    8 type  2   force =    -0.00000150   -0.00000087    0.00047844
     atom    9 type  1   force =    -0.00000197   -0.00000114    0.02398639
     atom   10 type  1   force =     0.00000205    0.00000117    0.02398633
     atom   11 type  2   force =     0.00000150    0.00000087    0.00047844
     atom   12 type  2   force =    -0.00000150   -0.00000087    0.00047844
     atom   13 type  1   force =    -0.00000202   -0.00000116    0.02398632
     atom   14 type  1   force =     0.00000199    0.00000114    0.02398638
     atom   15 type  2   force =     0.00000150    0.00000087    0.00047844
     atom   16 type  2   force =    -0.00000150   -0.00000087    0.00047844
     atom   17 type  1   force =    -0.00000200   -0.00000116    0.02398633
     atom   18 type  1   force =     0.00000196    0.00000112    0.02398640
     atom   19 type  2   force =     0.00000150    0.00000087    0.00047843
     atom   20 type  2   force =    -0.00000150   -0.00000087    0.00047843
     atom   21 type  1   force =    -0.00000203   -0.00000117    0.02398634
     atom   22 type  1   force =     0.00000196    0.00000112    0.02398640
     atom   23 type  2   force =     0.00000150    0.00000087    0.00047844
     atom   24 type  2   force =    -0.00000150   -0.00000087    0.00047844
     The Hubbard contrib.    to forces
     atom    1 type  1   force =     0.00000000    0.00000000    0.00000000
     atom    2 type  1   force =     0.00000000    0.00000000    0.00000000
     atom    3 type  2   force =     0.00000000    0.00000000    0.00000000
     atom    4 type  2   force =     0.00000000    0.00000000    0.00000000
     atom    5 type  1   force =     0.00000000    0.00000000    0.00000000
     atom    6 type  1   force =     0.00000000    0.00000000    0.00000000
     atom    7 type  2   force =     0.00000000    0.00000000    0.00000000
     atom    8 type  2   force =     0.00000000    0.00000000    0.00000000
     atom    9 type  1   force =     0.00000000    0.00000000    0.00000000
     atom   10 type  1   force =     0.00000000    0.00000000    0.00000000
     atom   11 type  2   force =     0.00000000    0.00000000    0.00000000
     atom   12 type  2   force =     0.00000000    0.00000000    0.00000000
     atom   13 type  1   force =     0.00000000    0.00000000    0.00000000
     atom   14 type  1   force =     0.00000000    0.00000000    0.00000000
     atom   15 type  2   force =     0.00000000    0.00000000    0.00000000
     atom   16 type  2   force =     0.00000000    0.00000000    0.00000000
     atom   17 type  1   force =     0.00000000    0.00000000    0.00000000
     atom   18 type  1   force =     0.00000000    0.00000000    0.00000000
     atom   19 type  2   force =     0.00000000    0.00000000    0.00000000
     atom   20 type  2   force =     0.00000000    0.00000000    0.00000000
     atom   21 type  1   force =     0.00000000    0.00000000    0.00000000
     atom   22 type  1   force =     0.00000000    0.00000000    0.00000000
     atom   23 type  2   force =     0.00000000    0.00000000    0.00000000
     atom   24 type  2   force =     0.00000000    0.00000000    0.00000000
     The SCF correction term to forces
     atom    1 type  1   force =     0.00000206    0.00000119   -0.00000231
     atom    2 type  1   force =     0.00000267    0.00000154   -0.00000584
     atom    3 type  2   force =     0.00000060    0.00000035    0.00000059
     atom    4 type  2   force =     0.00000099    0.00000057   -0.00000100
     atom    5 type  1   force =     0.00000110    0.00000063    0.00000095
     atom    6 type  1   force =     0.00000489    0.00000283   -0.00000168
     atom    7 type  2   force =     0.00000010    0.00000006    0.00000101
     atom    8 type  2   force =     0.00000094    0.00000054    0.00000190
     atom    9 type  1   force =     0.00000336    0.00000194   -0.00000389
     atom   10 type  1   force =     0.00000393    0.00000227   -0.00000380
     atom   11 type  2   force =     0.00000057    0.00000033   -0.00000095
     atom   12 type  2   force =     0.00000095    0.00000055   -0.00000085
     atom   13 type  1   force =    -0.00000172   -0.00000099   -0.00000719
     atom   14 type  1   force =    -0.00000310   -0.00000179   -0.00000459
     atom   15 type  2   force =    -0.00000088   -0.00000051    0.00000009
     atom   16 type  2   force =    -0.00000076   -0.00000044   -0.00000105
     atom   17 type  1   force =    -0.00000111   -0.00000064   -0.00000241
     atom   18 type  1   force =    -0.00000534   -0.00000308   -0.00000058
     atom   19 type  2   force =    -0.00000046   -0.00000026    0.00000076
     atom   20 type  2   force =    -0.00000065   -0.00000038    0.00000189
     atom   21 type  1   force =    -0.00000304   -0.00000176   -0.00000569
     atom   22 type  1   force =    -0.00000431   -0.00000249    0.00000021
     atom   23 type  2   force =    -0.00000076   -0.00000044   -0.00000141
     atom   24 type  2   force =    -0.00000070   -0.00000040   -0.00000023

     Total force =     0.501035     Total SCF correction =     0.000020

     General routines

     Parallel routines

   This run was terminated on:  10:36:10   4Sep2025

   JOB DONE.
Note: The following floating-point exceptions are signalling: IEEE_UNDERFLOW_FLAG IEEE_DENORMAL
Note: The following floating-point exceptions are signalling: IEEE_UNDERFLOW_FLAG IEEE_DENORMAL
Note: The following floating-point exceptions are signalling: IEEE_UNDERFLOW_FLAG IEEE_DENORMAL
Note: The following floating-point exceptions are signalling: IEEE_UNDERFLOW_FLAG IEEE_DENORMAL
Note: The following floating-point exceptions are signalling: IEEE_UNDERFLOW_FLAG IEEE_DENORMAL
Note: The following floating-point exceptions are signalling: IEEE_UNDERFLOW_FLAG IEEE_DENORMAL
Note: The following floating-point exceptions are signalling: IEEE_UNDERFLOW_FLAG IEEE_DENORMAL
Note: The following floating-point exceptions are signalling: IEEE_UNDERFLOW_FLAG IEEE_DENORMAL
Note: The following floating-point exceptions are signalling: IEEE_UNDERFLOW_FLAG IEEE_DENORMAL
Note: The following floating-point exceptions are signalling: IEEE_UNDERFLOW_FLAG IEEE_DENORMAL
Note: The following floating-point exceptions are signalling: IEEE_UNDERFLOW_FLAG IEEE_DENORMAL
Note: The following floating-point exceptions are signalling: IEEE_UNDERFLOW_FLAG IEEE_DENORMAL
Note: The following floating-point exceptions are signalling: IEEE_UNDERFLOW_FLAG IEEE_DENORMAL
Note: The following floating-point exceptions are signalling: IEEE_UNDERFLOW_FLAG IEEE_DENORMAL
Note: The following floating-point exceptions are signalling: IEEE_UNDERFLOW_FLAG IEEE_DENORMAL
Note: The following floating-point exceptions are signalling: IEEE_UNDERFLOW_FLAG IEEE_DENORMAL
Note: The following floating-point exceptions are signalling: IEEE_UNDERFLOW_FLAG IEEE_DENORMAL
Note: The following floating-point exceptions are signalling: IEEE_UNDERFLOW_FLAG IEEE_DENORMAL
Note: The following floating-point exceptions are signalling: IEEE_UNDERFLOW_FLAG IEEE_DENORMAL
Note: The following floating-point exceptions are signalling: IEEE_UNDERFLOW_FLAG IEEE_DENORMAL
Note: The following floating-point exceptions are signalling: IEEE_UNDERFLOW_FLAG IEEE_DENORMAL
Note: The following floating-point exceptions are signalling: IEEE_UNDERFLOW_FLAG IEEE_DENORMAL
Note: The following floating-point exceptions are signalling: IEEE_UNDERFLOW_FLAG IEEE_DENORMAL
Note: The following floating-point exceptions are signalling: IEEE_UNDERFLOW_FLAG IEEE_DENORMAL
Note: The following floating-point exceptions are signalling: IEEE_UNDERFLOW_FLAG IEEE_DENORMAL
Note: The following floating-point exceptions are signalling: IEEE_UNDERFLOW_FLAG IEEE_DENORMAL
Note: The following floating-point exceptions are signalling: IEEE_UNDERFLOW_FLAG IEEE_DENORMAL
Note: The following floating-point exceptions are signalling: IEEE_UNDERFLOW_FLAG IEEE_DENORMAL
Note: The following floating-point exceptions are signalling: IEEE_UNDERFLOW_FLAG IEEE_DENORMAL
Note: The following floating-point exceptions are signalling: IEEE_UNDERFLOW_FLAG IEEE_DENORMAL
Note: The following floating-point exceptions are signalling: IEEE_UNDERFLOW_FLAG IEEE_DENORMAL
Note: The following floating-point exceptions are signalling: IEEE_UNDERFLOW_FLAG IEEE_DENORMAL