     Program PWSCF v.7.2 starts on 26Apr2025 at 10:52:18

     Waiting for input...
     Reading input from standard input
Warning: card &CELL ignored
Warning: card   CELL_DYNAMICS = 'BFGS', ignored
Warning: card   PRESS_CONV_THR  = 0.5D0, ignored
Warning: card   !CELL_DOFREE='XYZ' ignored
Warning: card   CELL_DOFREE='IBRAV' ignored
Warning: card / ignored

     Current dimensions of program PWSCF are:
     Max number of different atomic species (ntypx) = 10
     Max number of k-points (npk) =  40000
     Max angular momentum in pseudopotentials (lmaxx) =  4
     file Zn.upf: wavefunction(s)  3D renormalized

     K-points division:     npool     =       4
     R & G space division:  proc/nbgrp/npool/nimage =      16
     Subspace diagonalization in iterative solution of the eigenvalue problem:
     a serial algorithm will be used

     Using Slab Decomposition

     bravais-lattice index     =            4
     lattice parameter (alat)  =       6.1946  a.u.
     unit-cell volume          =     332.3260 (a.u.)^3
     number of atoms/cell      =            4
     number of atomic types    =            2
     number of electrons       =        36.00
     number of Kohn-Sham states=           36
     kinetic-energy cutoff     =      70.0000  Ry
     charge density cutoff     =     350.0000  Ry
     scf convergence threshold =      1.0E-09
     mixing beta               =       0.1000
     number of iterations used =            8  local-TF  mixing
     Exchange-correlation= PBE
                           (   1   4   3   4   0   0   0)

     celldm(1)=   6.194571  celldm(2)=   0.000000  celldm(3)=   1.614358
     celldm(4)=   0.000000  celldm(5)=   0.000000  celldm(6)=   0.000000

     crystal axes: (cart. coord. in units of alat)
               a(1) = (   1.000000   0.000000   0.000000 )
               a(2) = (  -0.500000   0.866025   0.000000 )
               a(3) = (   0.000000   0.000000   1.614358 )

     reciprocal axes: (cart. coord. in units 2 pi/alat)
               b(1) = (  1.000000  0.577350 -0.000000 )
               b(2) = (  0.000000  1.154701  0.000000 )
               b(3) = (  0.000000 -0.000000  0.619441 )

     PseudoPot. # 1 for Zn read from file:
     ./Zn.upf
     MD5 check sum: 7f56cabf9682ed8c977c2f7d0c5985c5
     Pseudo is Ultrasoft + core correction, Zval = 12.0
     Generated using &quot;atomic&quot; code by A. Dal Corso  v.6.2.2
     Using radial grid of 1201 points,  6 beta functions with:
                l(1) =   0
                l(2) =   0
                l(3) =   1
                l(4) =   1
                l(5) =   2
                l(6) =   2
     Q(r) pseudized with 0 coefficients

     PseudoPot. # 2 for O  read from file:
     ./O.upf
     MD5 check sum: 91400c9766925bcf19f520983a725ff0
     Pseudo is Ultrasoft + core correction, Zval =  6.0
     Generated using &quot;atomic&quot; code by A. Dal Corso  v.6.3MaX
     Using radial grid of 1095 points,  4 beta functions with:
                l(1) =   0
                l(2) =   0
                l(3) =   1
                l(4) =   1
     Q(r) pseudized with 0 coefficients

     atomic species   valence    mass     pseudopotential
        Zn            12.00    63.38000     Zn( 1.00)
        O              6.00    15.99900     O ( 1.00)

     12 Sym. Ops. (no inversion) found ( 6 have fractional translation)

                                    s                        frac. trans.

      isym =  1     identity

 cryst.   s( 1) = (     1          0          0      )
                  (     0          1          0      )
                  (     0          0          1      )

 cart.    s( 1) = (  1.0000000  0.0000000  0.0000000 )
                  (  0.0000000  1.0000000  0.0000000 )
                  (  0.0000000  0.0000000  1.0000000 )

      isym =  2     180 deg rotation - cart. axis [0,0,1]

 cryst.   s( 2) = (    -1          0          0      )    f =(  0.0000000 )
                  (     0         -1          0      )       (  0.0000000 )
                  (     0          0          1      )       (  0.5000000 )

 cart.    s( 2) = ( -1.0000000  0.0000000  0.0000000 )    f =(  0.0000000 )
                  (  0.0000000 -1.0000000  0.0000000 )       (  0.0000000 )
                  (  0.0000000  0.0000000  1.0000000 )       (  0.8071792 )

      isym =  3      60 deg rotation - cryst. axis [0,0,1]

[...]

      isym =  6     120 deg rotation - cryst. axis [0,0,-1]

[...]

      isym =  7     inv. 180 deg rotation - cart. axis [0,1,0]

[...]

      isym =  8     inv. 180 deg rotation - cart. axis [1,0,0]

 cryst.   s( 8) = (    -1          0          0      )
                  (     1          1          0      )
                  (     0          0          1      )

 cart.    s( 8) = ( -1.0000000  0.0000000  0.0000000 )
                  (  0.0000000  1.0000000  0.0000000 )
                  (  0.0000000  0.0000000  1.0000000 )

      isym =  9     inv. 180 deg rotation - cryst. axis [1,-1,0]

 cryst.   s( 9) = (     0          1          0      )    f =(  0.0000000 )
                  (     1          0          0      )       (  0.0000000 )
                  (     0          0          1      )       (  0.5000000 )

 cart.    s( 9) = ( -0.5000000  0.8660254  0.0000000 )    f =(  0.0000000 )
                  (  0.8660254  0.5000000  0.0000000 )       (  0.0000000 )
                  (  0.0000000  0.0000000  1.0000000 )       (  0.8071792 )

[...]

 cryst.   s(10) = (    -1         -1          0      )    f =(  0.0000000 )
                  (     0          1          0      )       (  0.0000000 )
                  (     0          0          1      )       (  0.5000000 )

 cart.    s(10) = ( -0.5000000 -0.8660254  0.0000000 )    f =( -0.0000000 )
                  ( -0.8660254  0.5000000  0.0000000 )       (  0.0000000 )
                  (  0.0000000  0.0000000  1.0000000 )       (  0.8071792 )

[...]

 cryst.   s(11) = (     1          1          0      )
                  (     0         -1          0      )
                  (     0          0          1      )

 cart.    s(11) = (  0.5000000  0.8660254  0.0000000 )
                  (  0.8660254 -0.5000000  0.0000000 )
                  (  0.0000000  0.0000000  1.0000000 )

      isym = 12     inv. 180 deg rotation - cryst. axis [1,1,0]

 cryst.   s(12) = (     0         -1          0      )
                  (    -1          0          0      )
                  (     0          0          1      )

 cart.    s(12) = (  0.5000000 -0.8660254  0.0000000 )
                  ( -0.8660254 -0.5000000  0.0000000 )
                  (  0.0000000  0.0000000  1.0000000 )

     point group C_6v (6mm)
     there are  6 classes
     the character table:

       E     2C6   2C3   C2    3s_v  3s_d
A_1    1.00  1.00  1.00  1.00  1.00  1.00
A_2    1.00  1.00  1.00  1.00 -1.00 -1.00
B_1    1.00 -1.00  1.00 -1.00  1.00 -1.00
B_2    1.00 -1.00  1.00 -1.00 -1.00  1.00
E_1    2.00  1.00 -1.00 -2.00  0.00  0.00
E_2    2.00 -1.00 -1.00  2.00  0.00  0.00

     the symmetry operations in each class and the name of the first element:

     E        1
          identity
     2C6      3    4
           60 deg rotation - cryst. axis [0,0,1]
     2C3      5    6
          120 deg rotation - cryst. axis [0,0,1]
     C2       2
          180 deg rotation - cart. axis [0,0,1]
     3s_v     8   12   11
          inv. 180 deg rotation - cart. axis [1,0,0]
     3s_d     7    9   10
          inv. 180 deg rotation - cart. axis [0,1,0]

   Cartesian axes

     site n.     atom                  positions (alat units)
         1           Zn  tau(   1) = (   0.5000000   0.2886751   0.8059626  )
         2           Zn  tau(   2) = (  -0.0000000   0.5773503  -0.0012166  )
         3           O   tau(   3) = (   0.5000000   0.2886751   1.4223524  )
         4           O   tau(   4) = (  -0.0000000   0.5773503   0.6151732  )

   Crystallographic axes

     site n.     atom                  positions (cryst. coord.)
         1           Zn  tau(   1) = (  0.6666667  0.3333333  0.4992464  )
         2           Zn  tau(   2) = (  0.3333333  0.6666667 -0.0007536  )
         3           O   tau(   3) = (  0.6666667  0.3333333  0.8810636  )
         4           O   tau(   4) = (  0.3333333  0.6666667  0.3810636  )

     number of k points=    84  Gaussian smearing, width (Ry)=  0.0050
                       cart. coord. in units 2pi/alat
        k(    1) = (   0.0000000   0.0000000   0.0000000), wk =   0.0020000
        k(    2) = (   0.0000000   0.0000000   0.0619441), wk =   0.0040000
        k(    3) = (   0.0000000   0.0000000   0.1238882), wk =   0.0040000
        k(    4) = (   0.0000000   0.0000000   0.1858323), wk =   0.0040000
        k(    5) = (   0.0000000   0.0000000   0.2477765), wk =   0.0040000
        k(    6) = (   0.0000000   0.0000000  -0.3097206), wk =   0.0020000
        k(    7) = (   0.0000000   0.1154701   0.0000000), wk =   0.0120000
        k(    8) = (   0.0000000   0.1154701   0.0619441), wk =   0.0240000
        k(    9) = (   0.0000000   0.1154701   0.1238882), wk =   0.0240000
        k(   10) = (   0.0000000   0.1154701   0.1858323), wk =   0.0240000
        k(   11) = (   0.0000000   0.1154701   0.2477765), wk =   0.0240000
        k(   12) = (   0.0000000   0.1154701  -0.3097206), wk =   0.0120000
        k(   13) = (   0.0000000   0.2309401   0.0000000), wk =   0.0120000
        k(   14) = (   0.0000000   0.2309401   0.0619441), wk =   0.0240000
        k(   15) = (   0.0000000   0.2309401   0.1238882), wk =   0.0240000
        k(   16) = (   0.0000000   0.2309401   0.1858323), wk =   0.0240000
        k(   17) = (   0.0000000   0.2309401   0.2477765), wk =   0.0240000
        k(   18) = (   0.0000000   0.2309401  -0.3097206), wk =   0.0120000
        k(   19) = (   0.0000000   0.3464102   0.0000000), wk =   0.0120000
        k(   20) = (   0.0000000   0.3464102   0.0619441), wk =   0.0240000
        k(   21) = (   0.0000000   0.3464102   0.1238882), wk =   0.0240000
        k(   22) = (   0.0000000   0.3464102   0.1858323), wk =   0.0240000
        k(   23) = (   0.0000000   0.3464102   0.2477765), wk =   0.0240000
        k(   24) = (   0.0000000   0.3464102  -0.3097206), wk =   0.0120000
        k(   25) = (   0.0000000   0.4618802   0.0000000), wk =   0.0120000
        k(   26) = (   0.0000000   0.4618802   0.0619441), wk =   0.0240000
        k(   27) = (   0.0000000   0.4618802   0.1238882), wk =   0.0240000
        k(   28) = (   0.0000000   0.4618802   0.1858323), wk =   0.0240000
        k(   29) = (   0.0000000   0.4618802   0.2477765), wk =   0.0240000
        k(   30) = (   0.0000000   0.4618802  -0.3097206), wk =   0.0120000
        k(   31) = (   0.0000000  -0.5773503   0.0000000), wk =   0.0060000
        k(   32) = (   0.0000000  -0.5773503   0.0619441), wk =   0.0120000
        k(   33) = (   0.0000000  -0.5773503   0.1238882), wk =   0.0120000
        k(   34) = (   0.0000000  -0.5773503   0.1858323), wk =   0.0120000
        k(   35) = (   0.0000000  -0.5773503   0.2477765), wk =   0.0120000
        k(   36) = (   0.0000000  -0.5773503  -0.3097206), wk =   0.0060000
[...]
        k(   43) = (   0.1000000   0.2886751   0.0000000), wk =   0.0240000
        k(   44) = (   0.1000000   0.2886751   0.0619441), wk =   0.0480000
        k(   45) = (   0.1000000   0.2886751   0.1238882), wk =   0.0480000
        k(   46) = (   0.1000000   0.2886751   0.1858323), wk =   0.0480000
        k(   47) = (   0.1000000   0.2886751   0.2477765), wk =   0.0480000
        k(   48) = (   0.1000000   0.2886751  -0.3097206), wk =   0.0240000
        k(   49) = (   0.1000000   0.4041452   0.0000000), wk =   0.0240000
        k(   50) = (   0.1000000   0.4041452   0.0619441), wk =   0.0480000
        k(   51) = (   0.1000000   0.4041452   0.1238882), wk =   0.0480000
        k(   52) = (   0.1000000   0.4041452   0.1858323), wk =   0.0480000
        k(   53) = (   0.1000000   0.4041452   0.2477765), wk =   0.0480000
        k(   54) = (   0.1000000   0.4041452  -0.3097206), wk =   0.0240000
        k(   55) = (   0.1000000   0.5196152   0.0000000), wk =   0.0240000
        k(   56) = (   0.1000000   0.5196152   0.0619441), wk =   0.0480000
        k(   57) = (   0.1000000   0.5196152   0.1238882), wk =   0.0480000
        k(   58) = (   0.1000000   0.5196152   0.1858323), wk =   0.0480000
        k(   59) = (   0.1000000   0.5196152   0.2477765), wk =   0.0480000
        k(   60) = (   0.1000000   0.5196152  -0.3097206), wk =   0.0240000
[...]
        k(   70) = (   0.2000000   0.4618802   0.1858323), wk =   0.0480000
        k(   71) = (   0.2000000   0.4618802   0.2477765), wk =   0.0480000
        k(   72) = (   0.2000000   0.4618802  -0.3097206), wk =   0.0240000
        k(   73) = (   0.2000000   0.5773503   0.0000000), wk =   0.0120000
        k(   74) = (   0.2000000   0.5773503   0.0619441), wk =   0.0240000
        k(   75) = (   0.2000000   0.5773503   0.1238882), wk =   0.0240000
        k(   76) = (   0.2000000   0.5773503   0.1858323), wk =   0.0240000
        k(   77) = (   0.2000000   0.5773503   0.2477765), wk =   0.0240000
        k(   78) = (   0.2000000   0.5773503  -0.3097206), wk =   0.0120000
        k(   79) = (   0.3000000   0.5196152   0.0000000), wk =   0.0120000
        k(   80) = (   0.3000000   0.5196152   0.0619441), wk =   0.0240000
        k(   81) = (   0.3000000   0.5196152   0.1238882), wk =   0.0240000
        k(   82) = (   0.3000000   0.5196152   0.1858323), wk =   0.0240000
        k(   83) = (   0.3000000   0.5196152   0.2477765), wk =   0.0240000
        k(   84) = (   0.3000000   0.5196152  -0.3097206), wk =   0.0120000

                       cryst. coord.
        k(    1) = (   0.0000000   0.0000000   0.0000000), wk =   0.0020000
        k(    2) = (   0.0000000   0.0000000   0.1000000), wk =   0.0040000
        k(    3) = (   0.0000000   0.0000000   0.2000000), wk =   0.0040000
        k(    4) = (   0.0000000   0.0000000   0.3000000), wk =   0.0040000
        k(    5) = (   0.0000000   0.0000000   0.4000000), wk =   0.0040000
        k(    6) = (   0.0000000   0.0000000  -0.5000000), wk =   0.0020000
        k(    7) = (   0.0000000   0.1000000   0.0000000), wk =   0.0120000
        k(    8) = (   0.0000000   0.1000000   0.1000000), wk =   0.0240000
        k(    9) = (   0.0000000   0.1000000   0.2000000), wk =   0.0240000
        k(   10) = (   0.0000000   0.1000000   0.3000000), wk =   0.0240000
        k(   11) = (   0.0000000   0.1000000   0.4000000), wk =   0.0240000
        k(   12) = (   0.0000000   0.1000000  -0.5000000), wk =   0.0120000
        k(   13) = (   0.0000000   0.2000000   0.0000000), wk =   0.0120000
        k(   14) = (   0.0000000   0.2000000   0.1000000), wk =   0.0240000
        k(   15) = (   0.0000000   0.2000000   0.2000000), wk =   0.0240000
        k(   16) = (   0.0000000   0.2000000   0.3000000), wk =   0.0240000
        k(   17) = (   0.0000000   0.2000000   0.4000000), wk =   0.0240000
        k(   18) = (   0.0000000   0.2000000  -0.5000000), wk =   0.0120000
        k(   19) = (   0.0000000   0.3000000   0.0000000), wk =   0.0120000
        k(   20) = (   0.0000000   0.3000000   0.1000000), wk =   0.0240000
        k(   21) = (   0.0000000   0.3000000   0.2000000), wk =   0.0240000
        k(   22) = (   0.0000000   0.3000000   0.3000000), wk =   0.0240000
        k(   23) = (   0.0000000   0.3000000   0.4000000), wk =   0.0240000
        k(   24) = (   0.0000000   0.3000000  -0.5000000), wk =   0.0120000
        k(   25) = (   0.0000000   0.4000000   0.0000000), wk =   0.0120000
        k(   26) = (   0.0000000   0.4000000   0.1000000), wk =   0.0240000
        k(   27) = (   0.0000000   0.4000000   0.2000000), wk =   0.0240000
        k(   28) = (   0.0000000   0.4000000   0.3000000), wk =   0.0240000
        k(   29) = (   0.0000000   0.4000000   0.4000000), wk =   0.0240000
        k(   30) = (   0.0000000   0.4000000  -0.5000000), wk =   0.0120000
        k(   31) = (   0.0000000  -0.5000000   0.0000000), wk =   0.0060000
        k(   32) = (   0.0000000  -0.5000000   0.1000000), wk =   0.0120000
        k(   33) = (   0.0000000  -0.5000000   0.2000000), wk =   0.0120000
        k(   34) = (   0.0000000  -0.5000000   0.3000000), wk =   0.0120000
        k(   35) = (   0.0000000  -0.5000000   0.4000000), wk =   0.0120000
        k(   36) = (   0.0000000  -0.5000000  -0.5000000), wk =   0.0060000
        k(   37) = (   0.1000000   0.1000000   0.0000000), wk =   0.0120000
        k(   38) = (   0.1000000   0.1000000   0.1000000), wk =   0.0240000
        k(   39) = (   0.1000000   0.1000000   0.2000000), wk =   0.0240000
        k(   40) = (   0.1000000   0.1000000   0.3000000), wk =   0.0240000
        k(   41) = (   0.1000000   0.1000000   0.4000000), wk =   0.0240000
        k(   42) = (   0.1000000   0.1000000  -0.5000000), wk =   0.0120000
        k(   43) = (   0.1000000   0.2000000   0.0000000), wk =   0.0240000
        k(   44) = (   0.1000000   0.2000000   0.1000000), wk =   0.0480000
        k(   45) = (   0.1000000   0.2000000   0.2000000), wk =   0.0480000
        k(   46) = (   0.1000000   0.2000000   0.3000000), wk =   0.0480000
        k(   47) = (   0.1000000   0.2000000   0.4000000), wk =   0.0480000
        k(   48) = (   0.1000000   0.2000000  -0.5000000), wk =   0.0240000
        k(   49) = (   0.1000000   0.3000000   0.0000000), wk =   0.0240000
        k(   50) = (   0.1000000   0.3000000   0.1000000), wk =   0.0480000
        k(   51) = (   0.1000000   0.3000000   0.2000000), wk =   0.0480000
        k(   52) = (   0.1000000   0.3000000   0.3000000), wk =   0.0480000
        k(   53) = (   0.1000000   0.3000000   0.4000000), wk =   0.0480000
        k(   54) = (   0.1000000   0.3000000  -0.5000000), wk =   0.0240000
        k(   55) = (   0.1000000   0.4000000   0.0000000), wk =   0.0240000
        k(   56) = (   0.1000000   0.4000000   0.1000000), wk =   0.0480000
        k(   57) = (   0.1000000   0.4000000   0.2000000), wk =   0.0480000
        k(   58) = (   0.1000000   0.4000000   0.3000000), wk =   0.0480000
        k(   59) = (   0.1000000   0.4000000   0.4000000), wk =   0.0480000
        k(   60) = (   0.1000000   0.4000000  -0.5000000), wk =   0.0240000
[...]
        k(   70) = (   0.2000000   0.3000000   0.3000000), wk =   0.0480000
        k(   71) = (   0.2000000   0.3000000   0.4000000), wk =   0.0480000
        k(   72) = (   0.2000000   0.3000000  -0.5000000), wk =   0.0240000
        k(   73) = (   0.2000000   0.4000000   0.0000000), wk =   0.0120000
        k(   74) = (   0.2000000   0.4000000   0.1000000), wk =   0.0240000
        k(   75) = (   0.2000000   0.4000000   0.2000000), wk =   0.0240000
        k(   76) = (   0.2000000   0.4000000   0.3000000), wk =   0.0240000
        k(   77) = (   0.2000000   0.4000000   0.4000000), wk =   0.0240000
        k(   78) = (   0.2000000   0.4000000  -0.5000000), wk =   0.0120000
        k(   79) = (   0.3000000   0.3000000   0.0000000), wk =   0.0120000
        k(   80) = (   0.3000000   0.3000000   0.1000000), wk =   0.0240000
        k(   81) = (   0.3000000   0.3000000   0.2000000), wk =   0.0240000
        k(   82) = (   0.3000000   0.3000000   0.3000000), wk =   0.0240000
        k(   83) = (   0.3000000   0.3000000   0.4000000), wk =   0.0240000
        k(   84) = (   0.3000000   0.3000000  -0.5000000), wk =   0.0120000

     Check: negative core charge=   -0.000003

     Initial potential from superposition of free atoms

     starting charge      35.9925, renormalised to      36.0000
     Starting wfcs are   26 randomized atomic wfcs +   10 random wfcs

     Self-consistent Calculation

     iteration #  1     ecut=    70.00 Ry     beta= 0.10
     Davidson diagonalization with overlap

     ethr =  1.00E-02,  avg # of iterations =  8.8

     total energy              =    -361.78412042 Ry
     estimated scf accuracy    <       0.73416800 Ry

[...]

     c_bands:  1 eigenvalues not converged
     ethr =  5.41E-08,  avg # of iterations =  4.7

[...]

     total energy              =    -361.64685607 Ry
     estimated scf accuracy    <          5.5E-09 Ry

     iteration # 23     ecut=    70.00 Ry     beta= 0.10
     Davidson diagonalization with overlap

     ethr =  1.53E-11,  avg # of iterations =  2.8

     End of self-consistent calculation

          k = 0.0000 0.0000 0.0000 (  3297 PWs)   bands (ev):

   -11.0513 -10.3848   1.2175   1.2175   1.2985   1.3891   1.3891   1.4010
     2.3197   2.3197   2.5121   2.5121   2.7955   6.0422   6.0422   6.6773
     6.7740   6.7740   7.5137  11.8693  14.8336  19.5278  19.5278  20.5309
    20.7216  20.7216  23.1606  24.8003  24.8003  26.3934  26.4672  26.4672
    27.4648  29.4891  31.2112  31.2112

     occupation numbers
     1.0000   1.0000   1.0000   1.0000   1.0000   1.0000   1.0000   1.0000
     1.0000   1.0000   1.0000   1.0000   1.0000   1.0000   1.0000   1.0000
     1.0000   1.0000   0.0000   0.0000   0.0000   0.0000   0.0000   0.0000
     0.0000   0.0000   0.0000   0.0000   0.0000   0.0000   0.0000   0.0000
     0.0000   0.0000   0.0000   0.0000

[...]

          k = 0.3000 0.5196-0.3097 (  3288 PWs)   bands (ev):

   -10.2580 -10.2580   1.2117   1.2117   1.4854   1.4854   1.9065   1.9065
     2.3614   2.3614   2.7702   2.7702   3.1764   3.1764   4.2561   4.2561
     5.5863   5.5863  14.0262  14.0262  15.1355  15.1355  15.6409  15.6409
    21.7688  21.7688  22.7880  22.7880  26.1014  26.1014  29.9416  29.9416
    32.1505  32.1505  33.8270  33.8270

     occupation numbers
     1.0000   1.0000   1.0000   1.0000   1.0000   1.0000   1.0000   1.0000
     1.0000   1.0000   1.0000   1.0000   1.0000   1.0000   1.0000   1.0000
     1.0000   1.0000   0.0000   0.0000   0.0000   0.0000   0.0000   0.0000
     0.0000   0.0000   0.0000   0.0000   0.0000   0.0000   0.0000   0.0000
     0.0000   0.0000   0.0000   0.0000

     the Fermi energy is     7.1893 ev

!    total energy              =    -361.64685609 Ry
     estimated scf accuracy    <          6.5E-10 Ry
     smearing contrib. (-TS)   =      -0.00000000 Ry
     internal energy E=F+TS    =    -361.64685609 Ry

     The total energy is F=E-TS. E is the sum of the following terms:
     one-electron contribution =    -155.42021337 Ry
     hartree contribution      =     118.60058058 Ry
     xc contribution           =    -109.52747918 Ry
     ewald contribution        =    -215.29974412 Ry

     convergence has been achieved in  23 iterations

     Forces acting on atoms (cartesian axes, Ry/au):

     atom    1 type  1   force =     0.00000000    0.00000000    0.00312101
     atom    2 type  1   force =     0.00000000   -0.00000000    0.00312101
     atom    3 type  2   force =     0.00000000    0.00000000   -0.00312101
     atom    4 type  2   force =     0.00000000    0.00000000   -0.00312101
     The non-local contrib.  to forces
     atom    1 type  1   force =    -0.00000000    0.00000000    0.00944088
     atom    2 type  1   force =     0.00000000    0.00000000    0.00944088
     atom    3 type  2   force =     0.00000000    0.00000000    0.01819509
     atom    4 type  2   force =     0.00000000    0.00000000    0.01819509
     The ionic contribution  to forces
     atom    1 type  1   force =    -0.00000000    0.00000000    0.15935144
     atom    2 type  1   force =     0.00000000   -0.00000000    0.15935144
     atom    3 type  2   force =    -0.00000000    0.00000000   -0.15935144
     atom    4 type  2   force =     0.00000000   -0.00000000   -0.15935144
     The local contribution  to forces
     atom    1 type  1   force =    -0.00000002    0.00000001   -0.16494078
     atom    2 type  1   force =     0.00000006   -0.00000004   -0.16494078
     atom    3 type  2   force =    -0.00000001    0.00000000    0.13820009
     atom    4 type  2   force =     0.00000002   -0.00000001    0.13820010
     The core correction contribution to forces
     atom    1 type  1   force =    -0.00000000    0.00000000   -0.00073163
     atom    2 type  1   force =     0.00000001   -0.00000000   -0.00073163
     atom    3 type  2   force =     0.00000000   -0.00000000   -0.00016140
     atom    4 type  2   force =    -0.00000000    0.00000000   -0.00016140
     The Hubbard contrib.    to forces
     atom    1 type  1   force =     0.00000000    0.00000000    0.00000000
     atom    2 type  1   force =     0.00000000    0.00000000    0.00000000
     atom    3 type  2   force =     0.00000000    0.00000000    0.00000000
     atom    4 type  2   force =     0.00000000    0.00000000    0.00000000
     The SCF correction term to forces
     atom    1 type  1   force =     0.00000000   -0.00000000    0.00000826
     atom    2 type  1   force =    -0.00000000    0.00000000    0.00000826
     atom    3 type  2   force =     0.00000000   -0.00000000    0.00000380
     atom    4 type  2   force =    -0.00000000    0.00000000    0.00000380

     Total force =     0.006242     Total SCF correction =     0.000013

     Computing stress (Cartesian axis) and pressure

          total   stress  (Ry/bohr**3)                   (kbar)     P=        0.62
   0.00002763   0.00000000   0.00000000            4.06        0.00        0.00
   0.00000000   0.00002763   0.00000000            0.00        4.06        0.00
   0.00000000   0.00000000  -0.00004256            0.00        0.00       -6.26

     kinetic stress (kbar)  23917.14      0.00      0.00
                                0.00  23917.14     -0.00
                                0.00     -0.00  23958.51

     local   stress (kbar)   2987.92     -0.00     -0.00
                               -0.00   2987.92      0.00
                               -0.00      0.00   2251.66

     nonloc. stress (kbar)  -3114.93     -0.00      0.00
                               -0.00  -3114.93      0.00
                                0.00      0.00  -3128.94

     hartree stress (kbar)  17344.02     -0.00     -0.00
                               -0.00  17344.02     -0.00
                               -0.00     -0.00  17810.84

     exc-cor stress (kbar)  13372.01      0.00      0.00
                                0.00  13372.01     -0.00
                                0.00     -0.00  13370.28

     corecor stress (kbar) -22656.91     -0.00     -0.00
                               -0.00 -22656.91      0.00
                               -0.00      0.00 -22655.94

     ewald   stress (kbar) -31845.19      0.00      0.00
                                0.00 -31845.19      0.00
                                0.00      0.00 -31612.67

     hubbard stress (kbar)      0.00      0.00      0.00
                                0.00      0.00      0.00
                                0.00      0.00      0.00

     DFT-D   stress (kbar)      0.00      0.00      0.00
                                0.00      0.00      0.00
                                0.00      0.00      0.00

     XDM     stress (kbar)      0.00      0.00      0.00
                                0.00      0.00      0.00
                                0.00      0.00      0.00

     dft-nl  stress (kbar)      0.00      0.00      0.00
                                0.00      0.00      0.00
                                0.00      0.00      0.00

     TS-vdW  stress (kbar)      0.00      0.00      0.00
                                0.00      0.00      0.00
                                0.00      0.00      0.00

     MDB     stress (kbar)      0.00      0.00      0.00
                                0.00      0.00      0.00
                                0.00      0.00      0.00

     3D-RISM stress (kbar)      0.00      0.00      0.00
                                0.00      0.00      0.00
                                0.00      0.00      0.00

     Writing all to output data dir ./ZnO_PBE_bulk.save/

     General routines

     Parallel routines

   This run was terminated on:  12:14:34  26Apr2025

   JOB DONE.