     Program PWSCF v.7.2 starts on  3Jul2025 at 23:36:25

     Reading input from ZnO-231.in
Warning: card &CELL ignored
Warning: card / ignored
Warning: card &FCP ignored
Warning: card / ignored
Warning: card &RISM ignored
Warning: card / ignored

     Current dimensions of program PWSCF are:
     Max number of different atomic species (ntypx) = 10
     Max number of k-points (npk) =  40000
     Max angular momentum in pseudopotentials (lmaxx) =  4
     file Zn.upf: wavefunction(s)  3D renormalized
     Found identity + ( -0.0000  0.3333  0.0000) symmetry
     This is a supercell, fractional translations are disabled

     K-points division:     npool     =       2
     R & G space division:  proc/nbgrp/npool/nimage =       8
     Subspace diagonalization in iterative solution of the eigenvalue problem:
     a serial algorithm will be used

     Using Slab Decomposition

     bravais-lattice index     =            0
     lattice parameter (alat)  =      12.3577  a.u.
     unit-cell volume          =    1978.8170 (a.u.)^3
     number of atoms/cell      =           24
     number of atomic types    =            2
     number of electrons       =       216.00
     number of Kohn-Sham states=          108
     kinetic-energy cutoff     =      50.0000  Ry
     charge density cutoff     =     400.0000  Ry
     scf convergence threshold =      1.0E-08
     mixing beta               =       0.3000
     number of iterations used =            8  plain     mixing
     Exchange-correlation= PBE
                           (   1   4   3   4   0   0   0)

     celldm(1)=  12.357708  celldm(2)=   0.000000  celldm(3)=   0.000000
     celldm(4)=   0.000000  celldm(5)=   0.000000  celldm(6)=   0.000000

     crystal axes: (cart. coord. in units of alat)
               a(1) = (   1.000000   0.000000   0.000000 )
               a(2) = (  -0.750000   1.299038   0.000000 )
               a(3) = (   0.000000   0.000000   0.807179 )

     reciprocal axes: (cart. coord. in units 2 pi/alat)
               b(1) = (  1.000000  0.577350 -0.000000 )
               b(2) = (  0.000000  0.769800  0.000000 )
               b(3) = (  0.000000 -0.000000  1.238882 )

     PseudoPot. # 1 for Zn read from file:
     ../pseudos/Zn.upf
     MD5 check sum: 7f56cabf9682ed8c977c2f7d0c5985c5
     Pseudo is Ultrasoft + core correction, Zval = 12.0
     Generated using &quot;atomic&quot; code by A. Dal Corso  v.6.2.2
     Using radial grid of 1201 points,  6 beta functions with:
                l(1) =   0
                l(2) =   0
                l(3) =   1
                l(4) =   1
                l(5) =   2
                l(6) =   2
     Q(r) pseudized with 0 coefficients

     PseudoPot. # 2 for O  read from file:
     ../pseudos/O.upf
     MD5 check sum: 91400c9766925bcf19f520983a725ff0
     Pseudo is Ultrasoft + core correction, Zval =  6.0
     Generated using &quot;atomic&quot; code by A. Dal Corso  v.6.3MaX
     Using radial grid of 1095 points,  4 beta functions with:
                l(1) =   0
                l(2) =   0
                l(3) =   1
                l(4) =   1
     Q(r) pseudized with 0 coefficients

     atomic species   valence    mass     pseudopotential
        Zn            12.00    65.38000     Zn( 1.00)
        O              6.00    15.99900     O ( 1.00)

     No symmetry found

   Cartesian axes

     site n.     atom                  positions (alat units)
         1           Zn  tau(   1) = (   0.0000000   0.0000000   0.0000000  )
         2           O   tau(   2) = (   0.0000000   0.2886751   0.0985546  )
         3           Zn  tau(   3) = (   0.0000000   0.2886751   0.4035896  )
         4           O   tau(   4) = (   0.0000000   0.0000000   0.5021442  )
         5           Zn  tau(   5) = (  -0.2500000   0.4330127   0.0000000  )
         6           O   tau(   6) = (  -0.2500000   0.7216878   0.0985546  )
         7           Zn  tau(   7) = (  -0.2500000   0.7216878   0.4035896  )
         8           O   tau(   8) = (  -0.2500000   0.4330127   0.5021442  )
         9           Zn  tau(   9) = (  -0.5000000   0.8660254   0.0000000  )
        10           O   tau(  10) = (  -0.5000000   1.1547005   0.0985546  )
        11           Zn  tau(  11) = (  -0.5000000   1.1547005   0.4035896  )
        12           O   tau(  12) = (  -0.5000000   0.8660254   0.5021442  )
        13           Zn  tau(  13) = (   0.5000000   0.0000000   0.0000000  )
        14           O   tau(  14) = (   0.5000000   0.2886751   0.0985546  )
        15           Zn  tau(  15) = (   0.5000000   0.2886751   0.4035896  )
        16           O   tau(  16) = (   0.5000000   0.0000000   0.5021442  )
        17           Zn  tau(  17) = (   0.2500000   0.4330127   0.0000000  )
        18           O   tau(  18) = (   0.2500000   0.7216878   0.0985546  )
        19           Zn  tau(  19) = (   0.2500000   0.7216878   0.4035896  )
        20           O   tau(  20) = (   0.2500000   0.4330127   0.5021442  )
        21           Zn  tau(  21) = (   0.0000000   0.8660254   0.0000000  )
        22           O   tau(  22) = (   0.0000000   1.1547005   0.0985546  )
        23           Zn  tau(  23) = (   0.0000000   1.1547005   0.4035896  )
        24           O   tau(  24) = (   0.0000000   0.8660254   0.5021442  )

     number of k points=   112

     Number of k-points >= 100: set verbosity='high' to print them.

     Check: negative core charge=   -0.000002

     Initial potential from superposition of free atoms

     starting charge     215.9553, renormalised to     216.0000
     Starting wfcs are  156 randomized atomic wfcs

     Self-consistent Calculation

     iteration #  1     ecut=    50.00 Ry     beta= 0.30
     Davidson diagonalization with overlap
     ethr =  1.00E-02,  avg # of iterations =  2.0

     total energy              =   -2168.87879667 Ry
     estimated scf accuracy    <       4.14435419 Ry

[...]

     iteration # 22     ecut=    50.00 Ry     beta= 0.30
     Davidson diagonalization with overlap
     c_bands:  1 eigenvalues not converged
     c_bands:  1 eigenvalues not converged
     ethr =  1.64E-11,  avg # of iterations = 13.2

[...]

     total energy              =   -2169.82206929 Ry
     estimated scf accuracy    <       0.00000019 Ry

     iteration # 24     ecut=    50.00 Ry     beta= 0.30
     Davidson diagonalization with overlap
     ethr =  1.64E-11,  avg # of iterations =  8.7

     End of self-consistent calculation

     Number of k-points >= 100: set verbosity='high' to print the bands.

     highest occupied level (ev):     6.8835

!    total energy              =   -2169.82206932 Ry
     estimated scf accuracy    <          3.9E-10 Ry

     The total energy is the sum of the following terms:
     one-electron contribution =    -927.13106348 Ry
     hartree contribution      =     709.70772060 Ry
     xc contribution           =    -657.27135620 Ry
     ewald contribution        =   -1295.12737024 Ry

     convergence has been achieved in  24 iterations

     Forces acting on atoms (cartesian axes, Ry/au):

     atom    1 type  1   force =     0.00000019    0.00000074    0.00136128
     atom    2 type  2   force =     0.00000023    0.00000041   -0.00136075
     atom    3 type  1   force =    -0.00000018   -0.00000071    0.00136046
     atom    4 type  2   force =     0.00000012    0.00000022   -0.00136087
     atom    5 type  1   force =     0.00000033   -0.00000001    0.00136008
     atom    6 type  2   force =     0.00000028    0.00000040   -0.00136076
     atom    7 type  1   force =    -0.00000022   -0.00000030    0.00136147
     atom    8 type  2   force =     0.00000007    0.00000014   -0.00136078
     atom    9 type  1   force =    -0.00000058    0.00000037    0.00136082
     atom   10 type  2   force =     0.00000029    0.00000021   -0.00136093
     atom   11 type  1   force =    -0.00000096   -0.00000165    0.00136019
     atom   12 type  2   force =     0.00000021    0.00000022   -0.00136079
     atom   13 type  1   force =    -0.00000086    0.00000080    0.00136168
     atom   14 type  2   force =     0.00000027    0.00000042   -0.00136092
     atom   15 type  1   force =    -0.00000098   -0.00000075    0.00136071
     atom   16 type  2   force =     0.00000013    0.00000014   -0.00136079
     atom   17 type  1   force =     0.00000036    0.00000070    0.00136074
     atom   18 type  2   force =     0.00000022    0.00000023   -0.00136075
     atom   19 type  1   force =    -0.00000057   -0.00000056    0.00136053
     atom   20 type  2   force =     0.00000005    0.00000009   -0.00136075
     atom   21 type  1   force =     0.00000173   -0.00000055    0.00135990
     atom   22 type  2   force =     0.00000008    0.00000023   -0.00136067
     atom   23 type  1   force =    -0.00000035   -0.00000098    0.00136182
     atom   24 type  2   force =     0.00000014    0.00000018   -0.00136092
     The non-local contrib.  to forces
     atom    1 type  1   force =    -0.00000001    0.00000249    0.01087832
     atom    2 type  2   force =     0.00000019    0.00000626   -0.00013336
     atom    3 type  1   force =     0.00000016   -0.00000266    0.01087807
     atom    4 type  2   force =    -0.00000038   -0.00000583   -0.00013381
     atom    5 type  1   force =    -0.00000021    0.00000244    0.01087812
     atom    6 type  2   force =     0.00000044    0.00000598   -0.00013355
     atom    7 type  1   force =    -0.00000002   -0.00000258    0.01087844
     atom    8 type  2   force =    -0.00000044   -0.00000586   -0.00013372
     atom    9 type  1   force =    -0.00000030    0.00000251    0.01087829
     atom   10 type  2   force =     0.00000065    0.00000567   -0.00013374
     atom   11 type  1   force =    -0.00000006   -0.00000264    0.01087793
     atom   12 type  2   force =    -0.00000014   -0.00000570   -0.00013332
     atom   13 type  1   force =    -0.00000019    0.00000289    0.01087837
     atom   14 type  2   force =     0.00000031    0.00000594   -0.00013388
     atom   15 type  1   force =    -0.00000023   -0.00000257    0.01087805
     atom   16 type  2   force =    -0.00000011   -0.00000595   -0.00013353
     atom   17 type  1   force =     0.00000009    0.00000242    0.01087820
     atom   18 type  2   force =     0.00000013    0.00000580   -0.00013359
     atom   19 type  1   force =     0.00000023   -0.00000256    0.01087820
     atom   20 type  2   force =    -0.00000033   -0.00000603   -0.00013363
     atom   21 type  1   force =     0.00000023    0.00000246    0.01087787
     atom   22 type  2   force =    -0.00000036    0.00000524   -0.00013345
     atom   23 type  1   force =     0.00000021   -0.00000261    0.01087817
     atom   24 type  2   force =    -0.00000019   -0.00000551   -0.00013382
     The ionic contribution  to forces
     atom    1 type  1   force =    -0.00000000    0.00000000   -0.02077733
     atom    2 type  2   force =     0.00000000    0.00000000    0.02077733
     atom    3 type  1   force =     0.00000000    0.00000000   -0.02077733
     atom    4 type  2   force =     0.00000000   -0.00000000    0.02077733
     atom    5 type  1   force =    -0.00000000    0.00000000   -0.02077733
     atom    6 type  2   force =    -0.00000000   -0.00000000    0.02077733
     atom    7 type  1   force =    -0.00000000   -0.00000000   -0.02077733
     atom    8 type  2   force =    -0.00000000    0.00000000    0.02077733
     atom    9 type  1   force =    -0.00000000   -0.00000000   -0.02077733
     atom   10 type  2   force =    -0.00000000    0.00000000    0.02077733
     atom   11 type  1   force =    -0.00000000   -0.00000000   -0.02077733
     atom   12 type  2   force =     0.00000000   -0.00000000    0.02077733
     atom   13 type  1   force =     0.00000000    0.00000000   -0.02077733
     atom   14 type  2   force =    -0.00000000    0.00000000    0.02077733
     atom   15 type  1   force =    -0.00000000    0.00000000   -0.02077733
     atom   16 type  2   force =     0.00000000   -0.00000000    0.02077733
     atom   17 type  1   force =    -0.00000000    0.00000000   -0.02077733
     atom   18 type  2   force =    -0.00000000   -0.00000000    0.02077733
     atom   19 type  1   force =    -0.00000000   -0.00000000   -0.02077733
     atom   20 type  2   force =    -0.00000000    0.00000000    0.02077733
     atom   21 type  1   force =    -0.00000000   -0.00000000   -0.02077733
     atom   22 type  2   force =    -0.00000000    0.00000000    0.02077733
     atom   23 type  1   force =    -0.00000000   -0.00000000   -0.02077733
     atom   24 type  2   force =     0.00000000   -0.00000000    0.02077733
     The local contribution  to forces
     atom    1 type  1   force =    -0.00000027   -0.00000212    0.01225428
     atom    2 type  2   force =     0.00000037   -0.00000467   -0.02202288
     atom    3 type  1   force =    -0.00000023    0.00000260    0.01225496
     atom    4 type  2   force =     0.00000013    0.00000585   -0.02202215
     atom    5 type  1   force =     0.00000019   -0.00000172    0.01225513
     atom    6 type  2   force =     0.00000014   -0.00000580   -0.02202172
     atom    7 type  1   force =     0.00000043    0.00000215    0.01225391
     atom    8 type  2   force =     0.00000117    0.00000461   -0.02202223
     atom    9 type  1   force =     0.00000071   -0.00000239    0.01225465
     atom   10 type  2   force =     0.00000013   -0.00000555   -0.02202239
     atom   11 type  1   force =     0.00000066    0.00000300    0.01225539
     atom   12 type  2   force =    -0.00000020    0.00000497   -0.02202244
     atom   13 type  1   force =     0.00000060   -0.00000285    0.01225405
     atom   14 type  2   force =    -0.00000025   -0.00000461   -0.02202163
     atom   15 type  1   force =     0.00000075    0.00000242    0.01225495
     atom   16 type  2   force =     0.00000045    0.00000554   -0.02202201
     atom   17 type  1   force =    -0.00000037   -0.00000212    0.01225468
     atom   18 type  2   force =    -0.00000040   -0.00000605   -0.02202212
     atom   19 type  1   force =    -0.00000010    0.00000232    0.01225470
     atom   20 type  2   force =     0.00000021    0.00000590   -0.02202114
     atom   21 type  1   force =    -0.00000102   -0.00000184    0.01225547
     atom   22 type  2   force =     0.00000001   -0.00000541   -0.02202138
     atom   23 type  1   force =    -0.00000015    0.00000254    0.01225431
     atom   24 type  2   force =     0.00000025    0.00000487   -0.02202204
     The core correction contribution to forces
     atom    1 type  1   force =     0.00000001   -0.00000034   -0.00099021
     atom    2 type  2   force =    -0.00000000   -0.00000006    0.00002020
     atom    3 type  1   force =     0.00000002    0.00000034   -0.00099012
     atom    4 type  2   force =     0.00000001    0.00000006    0.00002022
     atom    5 type  1   force =    -0.00000002   -0.00000034   -0.00099020
     atom    6 type  2   force =    -0.00000001   -0.00000006    0.00002021
     atom    7 type  1   force =     0.00000000    0.00000034   -0.00099012
     atom    8 type  2   force =     0.00000001    0.00000005    0.00002022
     atom    9 type  1   force =    -0.00000000   -0.00000031   -0.00099021
     atom   10 type  2   force =    -0.00000001   -0.00000005    0.00002021
     atom   11 type  1   force =     0.00000001    0.00000034   -0.00099012
     atom   12 type  2   force =     0.00000000    0.00000005    0.00002021
     atom   13 type  1   force =    -0.00000000   -0.00000033   -0.00099021
     atom   14 type  2   force =    -0.00000001   -0.00000005    0.00002021
     atom   15 type  1   force =     0.00000002    0.00000034   -0.00099012
     atom   16 type  2   force =     0.00000000    0.00000006    0.00002021
     atom   17 type  1   force =    -0.00000001   -0.00000033   -0.00099021
     atom   18 type  2   force =    -0.00000000   -0.00000006    0.00002021
     atom   19 type  1   force =     0.00000002    0.00000034   -0.00099011
     atom   20 type  2   force =     0.00000001    0.00000006    0.00002022
     atom   21 type  1   force =    -0.00000002   -0.00000031   -0.00099020
     atom   22 type  2   force =     0.00000000   -0.00000005    0.00002021
     atom   23 type  1   force =     0.00000002    0.00000034   -0.00099013
     atom   24 type  2   force =     0.00000000    0.00000005    0.00002022
     The Hubbard contrib.    to forces
     atom    1 type  1   force =     0.00000000    0.00000000    0.00000000
     atom    2 type  2   force =     0.00000000    0.00000000    0.00000000
     atom    3 type  1   force =     0.00000000    0.00000000    0.00000000
     atom    4 type  2   force =     0.00000000    0.00000000    0.00000000
     atom    5 type  1   force =     0.00000000    0.00000000    0.00000000
     atom    6 type  2   force =     0.00000000    0.00000000    0.00000000
     atom    7 type  1   force =     0.00000000    0.00000000    0.00000000
     atom    8 type  2   force =     0.00000000    0.00000000    0.00000000
     atom    9 type  1   force =     0.00000000    0.00000000    0.00000000
     atom   10 type  2   force =     0.00000000    0.00000000    0.00000000
     atom   11 type  1   force =     0.00000000    0.00000000    0.00000000
     atom   12 type  2   force =     0.00000000    0.00000000    0.00000000
     atom   13 type  1   force =     0.00000000    0.00000000    0.00000000
     atom   14 type  2   force =     0.00000000    0.00000000    0.00000000
     atom   15 type  1   force =     0.00000000    0.00000000    0.00000000
     atom   16 type  2   force =     0.00000000    0.00000000    0.00000000
     atom   17 type  1   force =     0.00000000    0.00000000    0.00000000
     atom   18 type  2   force =     0.00000000    0.00000000    0.00000000
     atom   19 type  1   force =     0.00000000    0.00000000    0.00000000
     atom   20 type  2   force =     0.00000000    0.00000000    0.00000000
     atom   21 type  1   force =     0.00000000    0.00000000    0.00000000
     atom   22 type  2   force =     0.00000000    0.00000000    0.00000000
     atom   23 type  1   force =     0.00000000    0.00000000    0.00000000
     atom   24 type  2   force =     0.00000000    0.00000000    0.00000000
     The SCF correction term to forces
     atom    1 type  1   force =     0.00000033    0.00000049   -0.00000248
     atom    2 type  2   force =    -0.00000046   -0.00000136   -0.00000074
     atom    3 type  1   force =    -0.00000027   -0.00000121   -0.00000382
     atom    4 type  2   force =     0.00000022   -0.00000008   -0.00000116
     atom    5 type  1   force =     0.00000024   -0.00000062   -0.00000433
     atom    6 type  2   force =    -0.00000042    0.00000005   -0.00000173
     atom    7 type  1   force =    -0.00000077   -0.00000044   -0.00000213
     atom    8 type  2   force =    -0.00000080    0.00000111   -0.00000107
     atom    9 type  1   force =    -0.00000112    0.00000034   -0.00000327
     atom   10 type  2   force =    -0.00000062   -0.00000007   -0.00000104
     atom   11 type  1   force =    -0.00000170   -0.00000257   -0.00000437
     atom   12 type  2   force =     0.00000042    0.00000068   -0.00000126
     atom   13 type  1   force =    -0.00000140    0.00000087   -0.00000192
     atom   14 type  2   force =     0.00000008   -0.00000107   -0.00000165
     atom   15 type  1   force =    -0.00000166   -0.00000118   -0.00000353
     atom   16 type  2   force =    -0.00000036    0.00000026   -0.00000149
     atom   17 type  1   force =     0.00000052    0.00000051   -0.00000331
     atom   18 type  2   force =     0.00000037    0.00000031   -0.00000128
     atom   19 type  1   force =    -0.00000086   -0.00000088   -0.00000363
     atom   20 type  2   force =     0.00000003   -0.00000007   -0.00000222
     atom   21 type  1   force =     0.00000241   -0.00000109   -0.00000461
     atom   22 type  2   force =     0.00000029    0.00000023   -0.00000208
     atom   23 type  1   force =    -0.00000057   -0.00000147   -0.00000189
     atom   24 type  2   force =    -0.00000006    0.00000055   -0.00000129

     Total force =     0.006667     Total SCF correction =     0.000014

     Writing all to output data dir ./ZnO_231.save/

     General routines

     Parallel routines

   This run was terminated on:   0:28:59   4Jul2025

   JOB DONE.