     Program PWSCF v.7.2 starts on  3Jul2025 at 20: 4:22

     Reading input from ZnO-212.in
Warning: card &CELL ignored
Warning: card / ignored
Warning: card &FCP ignored
Warning: card / ignored
Warning: card &RISM ignored
Warning: card / ignored

     Current dimensions of program PWSCF are:
     Max number of different atomic species (ntypx) = 10
     Max number of k-points (npk) =  40000
     Max angular momentum in pseudopotentials (lmaxx) =  4
     file Zn.upf: wavefunction(s)  3D renormalized
     Found identity + (  0.0000  0.0000  0.5000) symmetry
     This is a supercell, fractional translations are disabled
     Message from routine setup:
     using ibrav=0 with symmetry is DISCOURAGED, use correct ibrav instead

     K-points division:     npool     =       2
     R & G space division:  proc/nbgrp/npool/nimage =       8
     Subspace diagonalization in iterative solution of the eigenvalue problem:
     a serial algorithm will be used

     Using Slab Decomposition

     bravais-lattice index     =            0
     lattice parameter (alat)  =      12.3577  a.u.
     unit-cell volume          =    1319.2113 (a.u.)^3
     number of atoms/cell      =           16
     number of atomic types    =            2
     number of electrons       =       144.00
     number of Kohn-Sham states=           72
     kinetic-energy cutoff     =      50.0000  Ry
     charge density cutoff     =     400.0000  Ry
     scf convergence threshold =      1.0E-08
     mixing beta               =       0.3000
     number of iterations used =            8  plain     mixing
     Exchange-correlation= PBE
                           (   1   4   3   4   0   0   0)

     celldm(1)=  12.357708  celldm(2)=   0.000000  celldm(3)=   0.000000
     celldm(4)=   0.000000  celldm(5)=   0.000000  celldm(6)=   0.000000

     crystal axes: (cart. coord. in units of alat)
               a(1) = (   1.000000   0.000000   0.000000 )
               a(2) = (  -0.250000   0.433013   0.000000 )
               a(3) = (   0.000000   0.000000   1.614358 )

     reciprocal axes: (cart. coord. in units 2 pi/alat)
               b(1) = (  1.000000  0.577350 -0.000000 )
               b(2) = (  0.000000  2.309401  0.000000 )
               b(3) = (  0.000000 -0.000000  0.619441 )

     PseudoPot. # 1 for Zn read from file:
     ../pseudos/Zn.upf
     MD5 check sum: 7f56cabf9682ed8c977c2f7d0c5985c5
     Pseudo is Ultrasoft + core correction, Zval = 12.0
     Generated using &quot;atomic&quot; code by A. Dal Corso  v.6.2.2
     Using radial grid of 1201 points,  6 beta functions with:
                l(1) =   0
                l(2) =   0
                l(3) =   1
                l(4) =   1
                l(5) =   2
                l(6) =   2
     Q(r) pseudized with 0 coefficients

     PseudoPot. # 2 for O  read from file:
     ../pseudos/O.upf
     MD5 check sum: 91400c9766925bcf19f520983a725ff0
     Pseudo is Ultrasoft + core correction, Zval =  6.0
     Generated using &quot;atomic&quot; code by A. Dal Corso  v.6.3MaX
     Using radial grid of 1095 points,  4 beta functions with:
                l(1) =   0
                l(2) =   0
                l(3) =   1
                l(4) =   1
     Q(r) pseudized with 0 coefficients

     atomic species   valence    mass     pseudopotential
        Zn            12.00    65.38000     Zn( 1.00)
        O              6.00    15.99900     O ( 1.00)

      2 Sym. Ops. (no inversion) found

   Cartesian axes

     site n.     atom                  positions (alat units)
         1           Zn  tau(   1) = (   0.0000000   0.0000000   0.0000000  )
         2           O   tau(   2) = (   0.0000000   0.2886751   0.0985546  )
         3           Zn  tau(   3) = (   0.0000000   0.2886751   0.4035896  )
         4           O   tau(   4) = (   0.0000000   0.0000000   0.5021442  )
         5           Zn  tau(   5) = (   0.0000000   0.0000000   0.8071792  )
         6           O   tau(   6) = (   0.0000000   0.2886751   0.9057338  )
         7           Zn  tau(   7) = (   0.0000000   0.2886751   1.2107688  )
         8           O   tau(   8) = (   0.0000000   0.0000000   1.3093234  )
         9           Zn  tau(   9) = (   0.5000000   0.0000000   0.0000000  )
        10           O   tau(  10) = (   0.5000000   0.2886751   0.0985546  )
        11           Zn  tau(  11) = (   0.5000000   0.2886751   0.4035896  )
        12           O   tau(  12) = (   0.5000000   0.0000000   0.5021442  )
        13           Zn  tau(  13) = (   0.5000000   0.0000000   0.8071792  )
        14           O   tau(  14) = (   0.5000000   0.2886751   0.9057338  )
        15           Zn  tau(  15) = (   0.5000000   0.2886751   1.2107688  )
        16           O   tau(  16) = (   0.5000000   0.0000000   1.3093234  )

     number of k points=    80
                       cart. coord. in units 2pi/alat
        k(    1) = (   0.0000000   0.0000000   0.0000000), wk =   0.0092593
        k(    2) = (   0.0000000   0.0000000   0.1032402), wk =   0.0185185
        k(    3) = (   0.0000000   0.0000000   0.2064804), wk =   0.0185185
        k(    4) = (   0.0000000   0.0000000  -0.3097206), wk =   0.0092593
        k(    5) = (   0.0000000   0.3849002   0.0000000), wk =   0.0370370
        k(    6) = (   0.0000000   0.3849002   0.1032402), wk =   0.0370370
        k(    7) = (   0.0000000   0.3849002   0.2064804), wk =   0.0370370
        k(    8) = (   0.0000000   0.3849002  -0.3097206), wk =   0.0370370
        k(    9) = (   0.0000000   0.7698004   0.0000000), wk =   0.0370370
        k(   10) = (   0.0000000   0.7698004   0.1032402), wk =   0.0370370
        k(   11) = (   0.0000000   0.7698004   0.2064804), wk =   0.0370370
        k(   12) = (   0.0000000   0.7698004  -0.3097206), wk =   0.0370370
        k(   13) = (   0.0000000  -1.1547005   0.0000000), wk =   0.0092593
        k(   14) = (   0.0000000  -1.1547005   0.1032402), wk =   0.0185185
        k(   15) = (   0.0000000  -1.1547005   0.2064804), wk =   0.0185185
        k(   16) = (   0.0000000  -1.1547005  -0.3097206), wk =   0.0092593
        k(   17) = (   0.1666667   0.0962250   0.0000000), wk =   0.0185185
        k(   18) = (   0.1666667   0.0962250   0.1032402), wk =   0.0185185
        k(   19) = (   0.1666667   0.0962250   0.2064804), wk =   0.0185185
        k(   20) = (   0.1666667   0.0962250  -0.3097206), wk =   0.0185185
        k(   21) = (   0.1666667   0.4811252   0.0000000), wk =   0.0370370
        k(   22) = (   0.1666667   0.4811252   0.1032402), wk =   0.0370370
        k(   23) = (   0.1666667   0.4811252   0.2064804), wk =   0.0370370
        k(   24) = (   0.1666667   0.4811252  -0.3097206), wk =   0.0370370
        k(   25) = (   0.1666667   0.8660254   0.0000000), wk =   0.0185185
        k(   26) = (   0.1666667   0.8660254   0.1032402), wk =   0.0370370
        k(   27) = (   0.1666667   0.8660254   0.2064804), wk =   0.0370370
        k(   28) = (   0.1666667   0.8660254  -0.3097206), wk =   0.0185185
        k(   29) = (   0.1666667  -1.0584755   0.0000000), wk =   0.0185185
        k(   30) = (   0.1666667  -1.0584755   0.1032402), wk =   0.0185185
        k(   31) = (   0.1666667  -1.0584755   0.2064804), wk =   0.0185185
        k(   32) = (   0.1666667  -1.0584755  -0.3097206), wk =   0.0185185
        k(   33) = (   0.1666667  -0.6735753   0.0000000), wk =   0.0370370
        k(   34) = (   0.1666667  -0.6735753   0.1032402), wk =   0.0370370
        k(   35) = (   0.1666667  -0.6735753   0.2064804), wk =   0.0370370
        k(   36) = (   0.1666667  -0.6735753  -0.3097206), wk =   0.0370370
        k(   37) = (   0.1666667  -0.2886751   0.0000000), wk =   0.0185185
        k(   38) = (   0.1666667  -0.2886751   0.1032402), wk =   0.0370370
        k(   39) = (   0.1666667  -0.2886751   0.2064804), wk =   0.0370370
        k(   40) = (   0.1666667  -0.2886751  -0.3097206), wk =   0.0185185
        k(   41) = (   0.3333333   0.1924501   0.0000000), wk =   0.0185185
        k(   42) = (   0.3333333   0.1924501   0.1032402), wk =   0.0185185
        k(   43) = (   0.3333333   0.1924501   0.2064804), wk =   0.0185185
        k(   44) = (   0.3333333   0.1924501  -0.3097206), wk =   0.0185185
        k(   45) = (   0.3333333   0.5773503   0.0000000), wk =   0.0185185
        k(   46) = (   0.3333333   0.5773503   0.1032402), wk =   0.0370370
        k(   47) = (   0.3333333   0.5773503   0.2064804), wk =   0.0370370
        k(   48) = (   0.3333333   0.5773503  -0.3097206), wk =   0.0185185
        k(   49) = (   0.3333333  -0.9622504   0.0000000), wk =   0.0185185
        k(   50) = (   0.3333333  -0.9622504   0.1032402), wk =   0.0185185
        k(   51) = (   0.3333333  -0.9622504   0.2064804), wk =   0.0185185
        k(   52) = (   0.3333333  -0.9622504  -0.3097206), wk =   0.0185185
        k(   53) = (   0.3333333  -0.5773503   0.0000000), wk =   0.0185185
        k(   54) = (   0.3333333  -0.5773503   0.1032402), wk =   0.0370370
        k(   55) = (   0.3333333  -0.5773503   0.2064804), wk =   0.0370370
        k(   56) = (   0.3333333  -0.5773503  -0.3097206), wk =   0.0185185
        k(   57) = (  -0.5000000  -0.2886751   0.0000000), wk =   0.0092593
        k(   58) = (  -0.5000000  -0.2886751   0.1032402), wk =   0.0185185
        k(   59) = (  -0.5000000  -0.2886751   0.2064804), wk =   0.0185185
        k(   60) = (  -0.5000000  -0.2886751  -0.3097206), wk =   0.0092593
[...]
        k(   66) = (   0.3333333  -0.1924501  -0.2064804), wk =   0.0370370
        k(   67) = (   0.6666667  -0.3849002  -0.1032402), wk =   0.0370370
        k(   68) = (   0.6666667  -0.3849002  -0.2064804), wk =   0.0370370
        k(   69) = (   0.1666667   0.0962250  -0.1032402), wk =   0.0185185
        k(   70) = (   0.1666667   0.0962250  -0.2064804), wk =   0.0185185
        k(   71) = (   0.5000000  -0.0962250  -0.1032402), wk =   0.0370370
        k(   72) = (   0.5000000  -0.0962250  -0.2064804), wk =   0.0370370
        k(   73) = (  -0.8333333   0.6735753  -0.1032402), wk =   0.0185185
        k(   74) = (  -0.8333333   0.6735753  -0.2064804), wk =   0.0185185
        k(   75) = (  -0.5000000   0.4811252  -0.1032402), wk =   0.0370370
        k(   76) = (  -0.5000000   0.4811252  -0.2064804), wk =   0.0370370
        k(   77) = (   0.3333333   0.1924501  -0.1032402), wk =   0.0185185
        k(   78) = (   0.3333333   0.1924501  -0.2064804), wk =   0.0185185
        k(   79) = (  -0.6666667   0.7698004  -0.1032402), wk =   0.0185185
        k(   80) = (  -0.6666667   0.7698004  -0.2064804), wk =   0.0185185

     Check: negative core charge=   -0.000002

     Initial potential from superposition of free atoms

     starting charge     143.9702, renormalised to     144.0000
     Starting wfcs are  104 randomized atomic wfcs

     Self-consistent Calculation

     iteration #  1     ecut=    50.00 Ry     beta= 0.30
     Davidson diagonalization with overlap
     ethr =  1.00E-02,  avg # of iterations =  2.0

     total energy              =   -1445.91920532 Ry
     estimated scf accuracy    <       2.76392080 Ry

[...]

     iteration #  6     ecut=    50.00 Ry     beta= 0.30
     Davidson diagonalization with overlap
     c_bands:  1 eigenvalues not converged
     ethr =  1.62E-04,  avg # of iterations = 11.2

[...]

     iteration # 25     ecut=    50.00 Ry     beta= 0.30
     Davidson diagonalization with overlap
     c_bands:  1 eigenvalues not converged
     c_bands:  1 eigenvalues not converged
     ethr =  1.74E-11,  avg # of iterations = 12.9

[...]

     total energy              =   -1446.54790070 Ry
     estimated scf accuracy    <       0.00000012 Ry

     iteration # 27     ecut=    50.00 Ry     beta= 0.30
     Davidson diagonalization with overlap
     ethr =  1.74E-11,  avg # of iterations =  7.9

     End of self-consistent calculation

          k = 0.0000 0.0000 0.0000 (  7805 PWs)   bands (ev):

   -10.9999 -10.6684 -10.6684 -10.3512 -10.3186 -10.2389 -10.2389 -10.1424
     0.9511   0.9511   1.1132   1.1181   1.1181   1.3200   1.3202   1.3273
     1.3438   1.3914   1.3914   1.3915   1.3915   1.4307   1.5103   1.5105
     1.5572   1.7822   1.7822   1.8521   1.8521   1.9239   1.9502   2.0815
     2.4265   2.4266   2.4598   2.5456   2.5456   2.5456   2.5456   2.5908
     2.6126   2.6126   2.6238   2.6239   2.6693   2.6967   2.6967   2.7411
     2.8834   3.1912   3.1912   3.2016   3.4443   4.1335   4.6585   4.6585
     4.7090   5.4421   5.4421   5.5483   5.5483   5.6330   6.0933   6.1127
     6.1130   6.5030   6.5030   6.5034   6.5034   6.8090   6.8840   6.8844

[...]

          k =-0.5000-0.2887 0.0000 (  7836 PWs)   bands (ev):

[...]

          k = 0.3333 0.1925-0.2065 (  7840 PWs)   bands (ev):

[...]

          k =-0.6667 0.7698-0.2065 (  7914 PWs)   bands (ev):

   -10.3421 -10.3421 -10.2980 -10.2980 -10.1876 -10.1876 -10.1512 -10.1512
     1.1012   1.1012   1.1760   1.1760   1.1945   1.1945   1.3751   1.3751
     1.5609   1.5609   1.5801   1.5801   1.7307   1.7307   1.7695   1.7695
     1.8898   1.8898   1.9134   1.9134   1.9759   1.9759   2.0328   2.0328
     2.4159   2.4159   2.4930   2.4930   2.5372   2.5372   2.5660   2.5660
     2.6798   2.6798   2.6910   2.6910   2.8106   2.8106   2.8688   2.8688
     3.1138   3.1138   3.2560   3.2560   3.5954   3.5954   3.7005   3.7005
     4.2089   4.2089   4.5360   4.5360   4.6117   4.6117   5.0792   5.0792
     5.3866   5.3866   5.6048   5.6048   5.7969   5.7969   5.8400   5.8400

     highest occupied level (ev):     6.8844

!    total energy              =   -1446.54790073 Ry
     estimated scf accuracy    <          1.9E-09 Ry

     The total energy is the sum of the following terms:
     one-electron contribution =    -618.09020255 Ry
     hartree contribution      =     473.14225501 Ry
     xc contribution           =    -438.18170636 Ry
     ewald contribution        =    -863.41824683 Ry

     convergence has been achieved in  27 iterations

     Forces acting on atoms (cartesian axes, Ry/au):

     atom    1 type  1   force =    -0.00000627   -0.00000362    0.00135005
     atom    2 type  2   force =    -0.00000112   -0.00000064   -0.00135094
     atom    3 type  1   force =     0.00000738    0.00000426    0.00135020
     atom    4 type  2   force =     0.00000173    0.00000100   -0.00135084
     atom    5 type  1   force =    -0.00000741   -0.00000428    0.00135285
     atom    6 type  2   force =    -0.00000109   -0.00000063   -0.00135093
     atom    7 type  1   force =     0.00000662    0.00000382    0.00135051
     atom    8 type  2   force =     0.00000168    0.00000097   -0.00135092
     atom    9 type  1   force =    -0.00000870   -0.00000502    0.00135045
     atom   10 type  2   force =    -0.00000134   -0.00000077   -0.00135091
     atom   11 type  1   force =     0.00000649    0.00000375    0.00135042
     atom   12 type  2   force =     0.00000157    0.00000091   -0.00135092
     atom   13 type  1   force =    -0.00000737   -0.00000426    0.00135199
     atom   14 type  2   force =    -0.00000116   -0.00000067   -0.00135096
     atom   15 type  1   force =     0.00000748    0.00000432    0.00135071
     atom   16 type  2   force =     0.00000151    0.00000087   -0.00135076
     The non-local contrib.  to forces
     atom    1 type  1   force =     0.00001790    0.00001034    0.01089700
     atom    2 type  2   force =    -0.00017700   -0.00010219   -0.00018710
     atom    3 type  1   force =    -0.00001749   -0.00001010    0.01089734
     atom    4 type  2   force =     0.00017675    0.00010205   -0.00018717
     atom    5 type  1   force =     0.00001778    0.00001026    0.01089837
     atom    6 type  2   force =    -0.00017641   -0.00010185   -0.00018809
     atom    7 type  1   force =    -0.00001808   -0.00001044    0.01089688
     atom    8 type  2   force =     0.00017705    0.00010222   -0.00018704
     atom    9 type  1   force =     0.00001760    0.00001016    0.01089705
     atom   10 type  2   force =    -0.00017750   -0.00010248   -0.00018710
     atom   11 type  1   force =    -0.00001811   -0.00001046    0.01089696
     atom   12 type  2   force =     0.00017727    0.00010235   -0.00018689
     atom   13 type  1   force =     0.00001764    0.00001018    0.01089809
     atom   14 type  2   force =    -0.00017723   -0.00010232   -0.00018775
     atom   15 type  1   force =    -0.00001752   -0.00001012    0.01089701
     atom   16 type  2   force =     0.00017703    0.00010221   -0.00018707
     The ionic contribution  to forces
     atom    1 type  1   force =    -0.00000000   -0.00000000   -0.02077733
     atom    2 type  2   force =    -0.00000000    0.00000000    0.02077733
     atom    3 type  1   force =    -0.00000000    0.00000000   -0.02077733
     atom    4 type  2   force =     0.00000000   -0.00000000    0.02077733
     atom    5 type  1   force =    -0.00000000   -0.00000000   -0.02077733
     atom    6 type  2   force =    -0.00000000    0.00000000    0.02077733
     atom    7 type  1   force =    -0.00000000    0.00000000   -0.02077733
     atom    8 type  2   force =     0.00000000   -0.00000000    0.02077733
     atom    9 type  1   force =     0.00000000   -0.00000000   -0.02077733
     atom   10 type  2   force =    -0.00000000    0.00000000    0.02077733
     atom   11 type  1   force =    -0.00000000    0.00000000   -0.02077733
     atom   12 type  2   force =     0.00000000   -0.00000000    0.02077733
     atom   13 type  1   force =     0.00000000   -0.00000000   -0.02077733
     atom   14 type  2   force =    -0.00000000    0.00000000    0.02077733
     atom   15 type  1   force =    -0.00000000    0.00000000   -0.02077733
     atom   16 type  2   force =     0.00000000   -0.00000000    0.02077733
     The local contribution  to forces
     atom    1 type  1   force =    -0.00003004   -0.00001734    0.01222132
     atom    2 type  2   force =     0.00017298    0.00009987   -0.02195904
     atom    3 type  1   force =     0.00002867    0.00001656    0.01222127
     atom    4 type  2   force =    -0.00017402   -0.00010047   -0.02195966
     atom    5 type  1   force =    -0.00002903   -0.00001676    0.01221773
     atom    6 type  2   force =     0.00017278    0.00009976   -0.02196008
     atom    7 type  1   force =     0.00002995    0.00001730    0.01222113
     atom    8 type  2   force =    -0.00017293   -0.00009984   -0.02196024
     atom    9 type  1   force =    -0.00002797   -0.00001615    0.01222100
     atom   10 type  2   force =     0.00017457    0.00010079   -0.02195877
     atom   11 type  1   force =     0.00003014    0.00001741    0.01222134
     atom   12 type  2   force =    -0.00017276   -0.00009974   -0.02195981
     atom   13 type  1   force =    -0.00002899   -0.00001674    0.01221828
     atom   14 type  2   force =     0.00017313    0.00009996   -0.02196111
     atom   15 type  1   force =     0.00002869    0.00001657    0.01222122
     atom   16 type  2   force =    -0.00017378   -0.00010033   -0.02195956
     The core correction contribution to forces
     atom    1 type  1   force =     0.00000481    0.00000277   -0.00098518
     atom    2 type  2   force =     0.00000202    0.00000116    0.00002083
     atom    3 type  1   force =    -0.00000476   -0.00000275   -0.00098515
     atom    4 type  2   force =    -0.00000201   -0.00000116    0.00002084
     atom    5 type  1   force =     0.00000479    0.00000276   -0.00098517
     atom    6 type  2   force =     0.00000201    0.00000116    0.00002084
     atom    7 type  1   force =    -0.00000477   -0.00000275   -0.00098510
     atom    8 type  2   force =    -0.00000201   -0.00000116    0.00002083
     atom    9 type  1   force =     0.00000478    0.00000276   -0.00098518
     atom   10 type  2   force =     0.00000202    0.00000117    0.00002083
     atom   11 type  1   force =    -0.00000478   -0.00000276   -0.00098512
     atom   12 type  2   force =    -0.00000202   -0.00000116    0.00002083
     atom   13 type  1   force =     0.00000479    0.00000277   -0.00098516
     atom   14 type  2   force =     0.00000202    0.00000117    0.00002083
     atom   15 type  1   force =    -0.00000477   -0.00000275   -0.00098513
     atom   16 type  2   force =    -0.00000202   -0.00000116    0.00002084
     The Hubbard contrib.    to forces
     atom    1 type  1   force =     0.00000000    0.00000000    0.00000000
     atom    2 type  2   force =     0.00000000    0.00000000    0.00000000
     atom    3 type  1   force =     0.00000000    0.00000000    0.00000000
     atom    4 type  2   force =     0.00000000    0.00000000    0.00000000
     atom    5 type  1   force =     0.00000000    0.00000000    0.00000000
     atom    6 type  2   force =     0.00000000    0.00000000    0.00000000
     atom    7 type  1   force =     0.00000000    0.00000000    0.00000000
     atom    8 type  2   force =     0.00000000    0.00000000    0.00000000
     atom    9 type  1   force =     0.00000000    0.00000000    0.00000000
     atom   10 type  2   force =     0.00000000    0.00000000    0.00000000
     atom   11 type  1   force =     0.00000000    0.00000000    0.00000000
     atom   12 type  2   force =     0.00000000    0.00000000    0.00000000
     atom   13 type  1   force =     0.00000000    0.00000000    0.00000000
     atom   14 type  2   force =     0.00000000    0.00000000    0.00000000
     atom   15 type  1   force =     0.00000000    0.00000000    0.00000000
     atom   16 type  2   force =     0.00000000    0.00000000    0.00000000
     The SCF correction term to forces
     atom    1 type  1   force =     0.00000085    0.00000049   -0.00000367
     atom    2 type  2   force =     0.00000067    0.00000039   -0.00000087
     atom    3 type  1   force =     0.00000074    0.00000043   -0.00000384
     atom    4 type  2   force =     0.00000079    0.00000046   -0.00000008
     atom    5 type  1   force =    -0.00000115   -0.00000066    0.00000133
     atom    6 type  2   force =     0.00000031    0.00000018    0.00000115
     atom    7 type  1   force =    -0.00000069   -0.00000040   -0.00000299
     atom    8 type  2   force =    -0.00000064   -0.00000037    0.00000029
     atom    9 type  1   force =    -0.00000332   -0.00000192   -0.00000300
     atom   10 type  2   force =    -0.00000065   -0.00000038   -0.00000111
     atom   11 type  1   force =    -0.00000097   -0.00000056   -0.00000335
     atom   12 type  2   force =    -0.00000114   -0.00000066   -0.00000028
     atom   13 type  1   force =    -0.00000103   -0.00000059    0.00000019
     atom   14 type  2   force =     0.00000070    0.00000041    0.00000183
     atom   15 type  1   force =     0.00000087    0.00000050   -0.00000298
     atom   16 type  2   force =     0.00000006    0.00000004   -0.00000022

     Total force =     0.005404     Total SCF correction =     0.000010

     Writing all to output data dir ./ZnO_212.save/

     General routines

     Parallel routines

   This run was terminated on:  20:21:21   3Jul2025

   JOB DONE.