     Program PWSCF v.7.2 starts on  3Jul2025 at 21: 8:25

     Reading input from ZnO-221.in
Warning: card &CELL ignored
Warning: card / ignored
Warning: card &FCP ignored
Warning: card / ignored
Warning: card &RISM ignored
Warning: card / ignored

     Current dimensions of program PWSCF are:
     Max number of different atomic species (ntypx) = 10
     Max number of k-points (npk) =  40000
     Max angular momentum in pseudopotentials (lmaxx) =  4
     file Zn.upf: wavefunction(s)  3D renormalized
     Found identity + ( -0.0000  0.5000  0.0000) symmetry
     This is a supercell, fractional translations are disabled
     Message from routine setup:
     using ibrav=0 with symmetry is DISCOURAGED, use correct ibrav instead

     K-points division:     npool     =       2
     R & G space division:  proc/nbgrp/npool/nimage =       8
     Subspace diagonalization in iterative solution of the eigenvalue problem:
     a serial algorithm will be used

     Using Slab Decomposition

     bravais-lattice index     =            0
     lattice parameter (alat)  =      12.3577  a.u.
     unit-cell volume          =    1319.2113 (a.u.)^3
     number of atoms/cell      =           16
     number of atomic types    =            2
     number of electrons       =       144.00
     number of Kohn-Sham states=           72
     kinetic-energy cutoff     =      50.0000  Ry
     charge density cutoff     =     400.0000  Ry
     scf convergence threshold =      1.0E-08
     mixing beta               =       0.3000
     number of iterations used =            8  plain     mixing
     Exchange-correlation= PBE
                           (   1   4   3   4   0   0   0)

     celldm(1)=  12.357708  celldm(2)=   0.000000  celldm(3)=   0.000000
     celldm(4)=   0.000000  celldm(5)=   0.000000  celldm(6)=   0.000000

     crystal axes: (cart. coord. in units of alat)
               a(1) = (   1.000000   0.000000   0.000000 )
               a(2) = (  -0.500000   0.866025   0.000000 )
               a(3) = (   0.000000   0.000000   0.807179 )

     reciprocal axes: (cart. coord. in units 2 pi/alat)
               b(1) = (  1.000000  0.577350 -0.000000 )
               b(2) = (  0.000000  1.154701  0.000000 )
               b(3) = (  0.000000 -0.000000  1.238882 )

     PseudoPot. # 1 for Zn read from file:
     ../pseudos/Zn.upf
     MD5 check sum: 7f56cabf9682ed8c977c2f7d0c5985c5
     Pseudo is Ultrasoft + core correction, Zval = 12.0
     Generated using &quot;atomic&quot; code by A. Dal Corso  v.6.2.2
     Using radial grid of 1201 points,  6 beta functions with:
                l(1) =   0
                l(2) =   0
                l(3) =   1
                l(4) =   1
                l(5) =   2
                l(6) =   2
     Q(r) pseudized with 0 coefficients

     PseudoPot. # 2 for O  read from file:
     ../pseudos/O.upf
     MD5 check sum: 91400c9766925bcf19f520983a725ff0
     Pseudo is Ultrasoft + core correction, Zval =  6.0
     Generated using &quot;atomic&quot; code by A. Dal Corso  v.6.3MaX
     Using radial grid of 1095 points,  4 beta functions with:
                l(1) =   0
                l(2) =   0
                l(3) =   1
                l(4) =   1
     Q(r) pseudized with 0 coefficients

     atomic species   valence    mass     pseudopotential
        Zn            12.00    65.38000     Zn( 1.00)
        O              6.00    15.99900     O ( 1.00)

      6 Sym. Ops. (no inversion) found

   Cartesian axes

     site n.     atom                  positions (alat units)
         1           Zn  tau(   1) = (   0.0000000   0.0000000   0.0000000  )
         2           O   tau(   2) = (   0.0000000   0.2886751   0.0985546  )
         3           Zn  tau(   3) = (   0.0000000   0.2886751   0.4035896  )
         4           O   tau(   4) = (   0.0000000   0.0000000   0.5021442  )
         5           Zn  tau(   5) = (  -0.2500000   0.4330127   0.0000000  )
         6           O   tau(   6) = (  -0.2500000   0.7216878   0.0985546  )
         7           Zn  tau(   7) = (  -0.2500000   0.7216878   0.4035896  )
         8           O   tau(   8) = (  -0.2500000   0.4330127   0.5021442  )
         9           Zn  tau(   9) = (   0.5000000   0.0000000   0.0000000  )
        10           O   tau(  10) = (   0.5000000   0.2886751   0.0985546  )
        11           Zn  tau(  11) = (   0.5000000   0.2886751   0.4035896  )
        12           O   tau(  12) = (   0.5000000   0.0000000   0.5021442  )
        13           Zn  tau(  13) = (   0.2500000   0.4330127   0.0000000  )
        14           O   tau(  14) = (   0.2500000   0.7216878   0.0985546  )
        15           Zn  tau(  15) = (   0.2500000   0.7216878   0.4035896  )
        16           O   tau(  16) = (   0.2500000   0.4330127   0.5021442  )

     number of k points=    34
                       cart. coord. in units 2pi/alat
        k(    1) = (   0.0000000   0.0000000   0.0000000), wk =   0.0092593
        k(    2) = (   0.0000000   0.0000000   0.2064804), wk =   0.0185185
        k(    3) = (   0.0000000   0.0000000   0.4129608), wk =   0.0185185
        k(    4) = (   0.0000000   0.0000000  -0.6194412), wk =   0.0092593
        k(    5) = (   0.0000000   0.1924501   0.0000000), wk =   0.0555556
        k(    6) = (   0.0000000   0.1924501   0.2064804), wk =   0.0555556
        k(    7) = (   0.0000000   0.1924501   0.4129608), wk =   0.0555556
        k(    8) = (   0.0000000   0.1924501  -0.6194412), wk =   0.0555556
        k(    9) = (   0.0000000   0.3849002   0.0000000), wk =   0.0555556
        k(   10) = (   0.0000000   0.3849002   0.2064804), wk =   0.0555556
        k(   11) = (   0.0000000   0.3849002   0.4129608), wk =   0.0555556
        k(   12) = (   0.0000000   0.3849002  -0.6194412), wk =   0.0555556
        k(   13) = (   0.0000000  -0.5773503   0.0000000), wk =   0.0277778
        k(   14) = (   0.0000000  -0.5773503   0.2064804), wk =   0.0555556
        k(   15) = (   0.0000000  -0.5773503   0.4129608), wk =   0.0555556
        k(   16) = (   0.0000000  -0.5773503  -0.6194412), wk =   0.0277778
        k(   17) = (   0.1666667   0.2886751   0.0000000), wk =   0.0555556
        k(   18) = (   0.1666667   0.2886751   0.2064804), wk =   0.1111111
        k(   19) = (   0.1666667   0.2886751   0.4129608), wk =   0.1111111
        k(   20) = (   0.1666667   0.2886751  -0.6194412), wk =   0.0555556
        k(   21) = (   0.1666667   0.4811252   0.0000000), wk =   0.1111111
        k(   22) = (   0.1666667   0.4811252   0.2064804), wk =   0.1111111
        k(   23) = (   0.1666667   0.4811252   0.4129608), wk =   0.1111111
        k(   24) = (   0.1666667   0.4811252  -0.6194412), wk =   0.1111111
        k(   25) = (   0.3333333   0.5773503   0.0000000), wk =   0.0185185
        k(   26) = (   0.3333333   0.5773503   0.2064804), wk =   0.0370370
        k(   27) = (   0.3333333   0.5773503   0.4129608), wk =   0.0370370
        k(   28) = (   0.3333333   0.5773503  -0.6194412), wk =   0.0185185
        k(   29) = (   0.0000000  -0.1924501   0.2064804), wk =   0.0555556
        k(   30) = (   0.0000000  -0.1924501   0.4129608), wk =   0.0555556
        k(   31) = (   0.0000000  -0.3849002   0.2064804), wk =   0.0555556
        k(   32) = (   0.0000000  -0.3849002   0.4129608), wk =   0.0555556
        k(   33) = (  -0.1666667  -0.4811252   0.2064804), wk =   0.1111111
        k(   34) = (  -0.1666667  -0.4811252   0.4129608), wk =   0.1111111

     Check: negative core charge=   -0.000002

     Initial potential from superposition of free atoms

     starting charge     143.9702, renormalised to     144.0000
     Starting wfcs are  104 randomized atomic wfcs

     Self-consistent Calculation

     iteration #  1     ecut=    50.00 Ry     beta= 0.30
     Davidson diagonalization with overlap
     ethr =  1.00E-02,  avg # of iterations =  2.0

     total energy              =   -1445.91828867 Ry
     estimated scf accuracy    <       2.76658574 Ry

[...]

     iteration # 17     ecut=    50.00 Ry     beta= 0.30
     Davidson diagonalization with overlap
     c_bands:  1 eigenvalues not converged
     ethr =  1.68E-08,  avg # of iterations = 13.2

[...]

     iteration # 25     ecut=    50.00 Ry     beta= 0.30
     Davidson diagonalization with overlap
     c_bands:  1 eigenvalues not converged
     ethr =  1.68E-08,  avg # of iterations = 13.6

[...]

     total energy              =   -1446.54807575 Ry
     estimated scf accuracy    <       0.00000004 Ry

     iteration # 29     ecut=    50.00 Ry     beta= 0.30
     Davidson diagonalization with overlap
     ethr =  8.30E-12,  avg # of iterations =  7.4

     End of self-consistent calculation

          k = 0.0000 0.0000 0.0000 (  7823 PWs)   bands (ev):

   -11.0004 -10.3518 -10.3518 -10.3518 -10.3193 -10.1430 -10.1430 -10.1430
     1.1129   1.1129   1.1129   1.3198   1.3198   1.3270   1.3271   1.3271
     1.3436   1.4304   1.5100   1.5100   1.5568   1.5568   1.5568   1.9238
     1.9238   1.9238   1.9500   1.9500   1.9500   2.0811   2.0811   2.0811
     2.4263   2.4263   2.4597   2.4597   2.4597   2.5906   2.5906   2.5906
     2.6237   2.6237   2.6692   2.6692   2.6692   2.7409   2.7409   2.7409
     2.8832   3.2014   3.2014   3.2014   3.4440   3.4440   3.4440   4.1332
     4.1332   4.1332   4.7083   4.7083   4.7083   5.6327   5.6327   5.6327
     6.0926   6.0926   6.0926   6.1122   6.1122   6.8087   6.8835   6.8835

[...]

          k = 0.0000-0.3849 0.4130 (  7885 PWs)   bands (ev):

[...]

          k =-0.1667-0.4811 0.2065 (  7890 PWs)   bands (ev):

[...]

          k =-0.1667-0.4811 0.4130 (  7878 PWs)   bands (ev):

   -10.6343 -10.5013 -10.3980 -10.3616 -10.2819 -10.2324 -10.2277 -10.1758
     0.9937   1.0437   1.0607   1.1149   1.1256   1.1507   1.2496   1.3268
     1.4646   1.4901   1.5078   1.5383   1.5675   1.5923   1.5972   1.6253
     1.6323   1.6988   1.7240   1.7525   1.7726   1.8433   1.9883   2.0104
     2.4575   2.4605   2.4606   2.4664   2.4922   2.5098   2.5209   2.5585
     2.5942   2.6053   2.6348   2.6351   2.6693   2.7259   2.7752   2.8835
     3.1932   3.4246   3.5946   3.8010   3.9369   4.0169   4.0369   4.3123
     4.8451   4.8645   4.9090   4.9500   4.9715   5.2646   5.3351   5.4254
     5.6312   5.6971   5.7753   5.9727   5.9918   6.0727   6.1766   6.2846

     highest occupied level (ev):     6.8835

!    total energy              =   -1446.54807576 Ry
     estimated scf accuracy    <          1.8E-09 Ry

     The total energy is the sum of the following terms:
     one-electron contribution =    -618.08790232 Ry
     hartree contribution      =     473.13913342 Ry
     xc contribution           =    -438.18106003 Ry
     ewald contribution        =    -863.41824683 Ry

     convergence has been achieved in  29 iterations

     Forces acting on atoms (cartesian axes, Ry/au):

     atom    1 type  1   force =     0.00000000    0.00000000    0.00135389
     atom    2 type  2   force =     0.00000000   -0.00000013   -0.00136278
     atom    3 type  1   force =     0.00000000   -0.00000576    0.00137024
     atom    4 type  2   force =     0.00000000    0.00000000   -0.00136234
     atom    5 type  1   force =     0.00000077    0.00000044    0.00135863
     atom    6 type  2   force =    -0.00000011    0.00000007   -0.00136278
     atom    7 type  1   force =    -0.00000499    0.00000288    0.00137024
     atom    8 type  2   force =    -0.00000020   -0.00000012   -0.00136249
     atom    9 type  1   force =     0.00000000   -0.00000089    0.00135863
     atom   10 type  2   force =     0.00000000    0.00000000   -0.00136261
     atom   11 type  1   force =     0.00000000    0.00000000    0.00136024
     atom   12 type  2   force =     0.00000000    0.00000023   -0.00136249
     atom   13 type  1   force =    -0.00000077    0.00000044    0.00135863
     atom   14 type  2   force =     0.00000011    0.00000007   -0.00136278
     atom   15 type  1   force =     0.00000499    0.00000288    0.00137024
     atom   16 type  2   force =     0.00000020   -0.00000012   -0.00136249
     The non-local contrib.  to forces
     atom    1 type  1   force =     0.00000000    0.00000000    0.01087353
     atom    2 type  2   force =     0.00000000    0.00000222   -0.00014029
     atom    3 type  1   force =     0.00000000   -0.00000267    0.01087877
     atom    4 type  2   force =     0.00000000   -0.00000000   -0.00014118
     atom    5 type  1   force =     0.00000016    0.00000009    0.01087412
     atom    6 type  2   force =     0.00000192   -0.00000111   -0.00014029
     atom    7 type  1   force =    -0.00000231    0.00000134    0.01087877
     atom    8 type  2   force =    -0.00000144   -0.00000083   -0.00014079
     atom    9 type  1   force =    -0.00000000   -0.00000019    0.01087412
     atom   10 type  2   force =     0.00000000   -0.00000000   -0.00014094
     atom   11 type  1   force =     0.00000000   -0.00000000    0.01087515
     atom   12 type  2   force =     0.00000000    0.00000166   -0.00014079
     atom   13 type  1   force =    -0.00000016    0.00000009    0.01087412
     atom   14 type  2   force =    -0.00000192   -0.00000111   -0.00014029
     atom   15 type  1   force =     0.00000231    0.00000134    0.01087877
     atom   16 type  2   force =     0.00000144   -0.00000083   -0.00014079
     The ionic contribution  to forces
     atom    1 type  1   force =    -0.00000000   -0.00000000   -0.02077733
     atom    2 type  2   force =     0.00000000    0.00000000    0.02077733
     atom    3 type  1   force =     0.00000000    0.00000000   -0.02077733
     atom    4 type  2   force =    -0.00000000   -0.00000000    0.02077733
     atom    5 type  1   force =     0.00000000    0.00000000   -0.02077733
     atom    6 type  2   force =     0.00000000   -0.00000000    0.02077733
     atom    7 type  1   force =     0.00000000   -0.00000000   -0.02077733
     atom    8 type  2   force =     0.00000000    0.00000000    0.02077733
     atom    9 type  1   force =     0.00000000   -0.00000000   -0.02077733
     atom   10 type  2   force =    -0.00000000    0.00000000    0.02077733
     atom   11 type  1   force =    -0.00000000    0.00000000   -0.02077733
     atom   12 type  2   force =    -0.00000000   -0.00000000    0.02077733
     atom   13 type  1   force =     0.00000000    0.00000000   -0.02077733
     atom   14 type  2   force =    -0.00000000   -0.00000000    0.02077733
     atom   15 type  1   force =    -0.00000000   -0.00000000   -0.02077733
     atom   16 type  2   force =    -0.00000000    0.00000000    0.02077733
     The local contribution  to forces
     atom    1 type  1   force =    -0.00000000    0.00000000    0.01226692
     atom    2 type  2   force =     0.00000000    0.00000355   -0.02201344
     atom    3 type  1   force =    -0.00000000    0.00000976    0.01224637
     atom    4 type  2   force =    -0.00000000    0.00000000   -0.02201659
     atom    5 type  1   force =    -0.00000144   -0.00000082    0.01226176
     atom    6 type  2   force =     0.00000308   -0.00000178   -0.02201344
     atom    7 type  1   force =     0.00000845   -0.00000489    0.01224637
     atom    8 type  2   force =     0.00000012    0.00000007   -0.02201484
     atom    9 type  1   force =    -0.00000000    0.00000166    0.01226176
     atom   10 type  2   force =    -0.00000000    0.00000000   -0.02201935
     atom   11 type  1   force =    -0.00000000    0.00000001    0.01225477
     atom   12 type  2   force =    -0.00000000   -0.00000014   -0.02201484
     atom   13 type  1   force =     0.00000144   -0.00000082    0.01226176
     atom   14 type  2   force =    -0.00000308   -0.00000178   -0.02201344
     atom   15 type  1   force =    -0.00000845   -0.00000489    0.01224637
     atom   16 type  2   force =    -0.00000012    0.00000007   -0.02201484
     The core correction contribution to forces
     atom    1 type  1   force =     0.00000000    0.00000000   -0.00099027
     atom    2 type  2   force =    -0.00000000   -0.00000002    0.00002028
     atom    3 type  1   force =     0.00000000   -0.00000023   -0.00098976
     atom    4 type  2   force =     0.00000000    0.00000000    0.00002030
     atom    5 type  1   force =     0.00000007    0.00000004   -0.00099009
     atom    6 type  2   force =    -0.00000002    0.00000001    0.00002028
     atom    7 type  1   force =    -0.00000020    0.00000012   -0.00098976
     atom    8 type  2   force =     0.00000002    0.00000001    0.00002030
     atom    9 type  1   force =    -0.00000000   -0.00000008   -0.00099009
     atom   10 type  2   force =     0.00000000   -0.00000000    0.00002028
     atom   11 type  1   force =    -0.00000000    0.00000000   -0.00098970
     atom   12 type  2   force =     0.00000000   -0.00000002    0.00002030
     atom   13 type  1   force =    -0.00000007    0.00000004   -0.00099009
     atom   14 type  2   force =     0.00000002    0.00000001    0.00002028
     atom   15 type  1   force =     0.00000020    0.00000012   -0.00098976
     atom   16 type  2   force =    -0.00000002    0.00000001    0.00002030
     The Hubbard contrib.    to forces
     atom    1 type  1   force =     0.00000000    0.00000000    0.00000000
     atom    2 type  2   force =     0.00000000    0.00000000    0.00000000
     atom    3 type  1   force =     0.00000000    0.00000000    0.00000000
     atom    4 type  2   force =     0.00000000    0.00000000    0.00000000
     atom    5 type  1   force =     0.00000000    0.00000000    0.00000000
     atom    6 type  2   force =     0.00000000    0.00000000    0.00000000
     atom    7 type  1   force =     0.00000000    0.00000000    0.00000000
     atom    8 type  2   force =     0.00000000    0.00000000    0.00000000
     atom    9 type  1   force =     0.00000000    0.00000000    0.00000000
     atom   10 type  2   force =     0.00000000    0.00000000    0.00000000
     atom   11 type  1   force =     0.00000000    0.00000000    0.00000000
     atom   12 type  2   force =     0.00000000    0.00000000    0.00000000
     atom   13 type  1   force =     0.00000000    0.00000000    0.00000000
     atom   14 type  2   force =     0.00000000    0.00000000    0.00000000
     atom   15 type  1   force =     0.00000000    0.00000000    0.00000000
     atom   16 type  2   force =     0.00000000    0.00000000    0.00000000
     The SCF correction term to forces
     atom    1 type  1   force =    -0.00000000   -0.00000000   -0.00001566
     atom    2 type  2   force =    -0.00000000   -0.00000588   -0.00000336
     atom    3 type  1   force =     0.00000000   -0.00001262    0.00001549
     atom    4 type  2   force =    -0.00000000   -0.00000000    0.00000110
     atom    5 type  1   force =     0.00000197    0.00000114   -0.00000653
     atom    6 type  2   force =    -0.00000510    0.00000294   -0.00000336
     atom    7 type  1   force =    -0.00001093    0.00000631    0.00001549
     atom    8 type  2   force =     0.00000110    0.00000063   -0.00000119
     atom    9 type  1   force =    -0.00000000   -0.00000227   -0.00000653
     atom   10 type  2   force =    -0.00000000    0.00000000    0.00000337
     atom   11 type  1   force =     0.00000000    0.00000000    0.00000066
     atom   12 type  2   force =    -0.00000000   -0.00000127   -0.00000119
     atom   13 type  1   force =    -0.00000197    0.00000114   -0.00000653
     atom   14 type  2   force =     0.00000510    0.00000294   -0.00000336
     atom   15 type  1   force =     0.00001093    0.00000631    0.00001549
     atom   16 type  2   force =    -0.00000110    0.00000063   -0.00000119

     Total force =     0.005450     Total SCF correction =     0.000042

     Writing all to output data dir ./ZnO_221.save/

     General routines

     Parallel routines

   This run was terminated on:  21:17: 3   3Jul2025

   JOB DONE.