     Program PWSCF v.7.2 starts on  3Jul2025 at 21:17: 4

     Reading input from ZnO-222.in
Warning: card &CELL ignored
Warning: card / ignored
Warning: card &FCP ignored
Warning: card / ignored
Warning: card &RISM ignored
Warning: card / ignored

     Current dimensions of program PWSCF are:
     Max number of different atomic species (ntypx) = 10
     Max number of k-points (npk) =  40000
     Max angular momentum in pseudopotentials (lmaxx) =  4
     file Zn.upf: wavefunction(s)  3D renormalized
     Found identity + (  0.0000  0.0000  0.5000) symmetry
     This is a supercell, fractional translations are disabled
     Message from routine setup:
     using ibrav=0 with symmetry is DISCOURAGED, use correct ibrav instead

     K-points division:     npool     =       2
     R & G space division:  proc/nbgrp/npool/nimage =       8
     Subspace diagonalization in iterative solution of the eigenvalue problem:
     a serial algorithm will be used

     Using Slab Decomposition

     bravais-lattice index     =            0
     lattice parameter (alat)  =      12.3577  a.u.
     unit-cell volume          =    2638.4226 (a.u.)^3
     number of atoms/cell      =           32
     number of atomic types    =            2
     number of electrons       =       288.00
     number of Kohn-Sham states=          144
     kinetic-energy cutoff     =      50.0000  Ry
     charge density cutoff     =     400.0000  Ry
     scf convergence threshold =      1.0E-08
     mixing beta               =       0.3000
     number of iterations used =            8  plain     mixing
     Exchange-correlation= PBE
                           (   1   4   3   4   0   0   0)

     celldm(1)=  12.357708  celldm(2)=   0.000000  celldm(3)=   0.000000
     celldm(4)=   0.000000  celldm(5)=   0.000000  celldm(6)=   0.000000

     crystal axes: (cart. coord. in units of alat)
               a(1) = (   1.000000   0.000000   0.000000 )
               a(2) = (  -0.500000   0.866025   0.000000 )
               a(3) = (   0.000000   0.000000   1.614358 )

     reciprocal axes: (cart. coord. in units 2 pi/alat)
               b(1) = (  1.000000  0.577350 -0.000000 )
               b(2) = (  0.000000  1.154701  0.000000 )
               b(3) = (  0.000000 -0.000000  0.619441 )

     PseudoPot. # 1 for Zn read from file:
     ../pseudos/Zn.upf
     MD5 check sum: 7f56cabf9682ed8c977c2f7d0c5985c5
     Pseudo is Ultrasoft + core correction, Zval = 12.0
     Generated using &quot;atomic&quot; code by A. Dal Corso  v.6.2.2
     Using radial grid of 1201 points,  6 beta functions with:
                l(1) =   0
                l(2) =   0
                l(3) =   1
                l(4) =   1
                l(5) =   2
                l(6) =   2
     Q(r) pseudized with 0 coefficients

     PseudoPot. # 2 for O  read from file:
     ../pseudos/O.upf
     MD5 check sum: 91400c9766925bcf19f520983a725ff0
     Pseudo is Ultrasoft + core correction, Zval =  6.0
     Generated using &quot;atomic&quot; code by A. Dal Corso  v.6.3MaX
     Using radial grid of 1095 points,  4 beta functions with:
                l(1) =   0
                l(2) =   0
                l(3) =   1
                l(4) =   1
     Q(r) pseudized with 0 coefficients

     atomic species   valence    mass     pseudopotential
        Zn            12.00    65.38000     Zn( 1.00)
        O              6.00    15.99900     O ( 1.00)

      6 Sym. Ops. (no inversion) found

   Cartesian axes

     site n.     atom                  positions (alat units)
         1           Zn  tau(   1) = (   0.0000000   0.0000000   0.0000000  )
         2           O   tau(   2) = (   0.0000000   0.2886751   0.0985546  )
         3           Zn  tau(   3) = (   0.0000000   0.2886751   0.4035896  )
         4           O   tau(   4) = (   0.0000000   0.0000000   0.5021442  )
         5           Zn  tau(   5) = (   0.0000000   0.0000000   0.8071792  )
         6           O   tau(   6) = (   0.0000000   0.2886751   0.9057338  )
         7           Zn  tau(   7) = (   0.0000000   0.2886751   1.2107688  )
         8           O   tau(   8) = (   0.0000000   0.0000000   1.3093234  )
         9           Zn  tau(   9) = (  -0.2500000   0.4330127   0.0000000  )
        10           O   tau(  10) = (  -0.2500000   0.7216878   0.0985546  )
        11           Zn  tau(  11) = (  -0.2500000   0.7216878   0.4035896  )
        12           O   tau(  12) = (  -0.2500000   0.4330127   0.5021442  )
        13           Zn  tau(  13) = (  -0.2500000   0.4330127   0.8071792  )
        14           O   tau(  14) = (  -0.2500000   0.7216878   0.9057338  )
        15           Zn  tau(  15) = (  -0.2500000   0.7216878   1.2107688  )
        16           O   tau(  16) = (  -0.2500000   0.4330127   1.3093234  )
        17           Zn  tau(  17) = (   0.5000000   0.0000000   0.0000000  )
        18           O   tau(  18) = (   0.5000000   0.2886751   0.0985546  )
        19           Zn  tau(  19) = (   0.5000000   0.2886751   0.4035896  )
        20           O   tau(  20) = (   0.5000000   0.0000000   0.5021442  )
        21           Zn  tau(  21) = (   0.5000000   0.0000000   0.8071792  )
        22           O   tau(  22) = (   0.5000000   0.2886751   0.9057338  )
        23           Zn  tau(  23) = (   0.5000000   0.2886751   1.2107688  )
        24           O   tau(  24) = (   0.5000000   0.0000000   1.3093234  )
        25           Zn  tau(  25) = (   0.2500000   0.4330127   0.0000000  )
        26           O   tau(  26) = (   0.2500000   0.7216878   0.0985546  )
        27           Zn  tau(  27) = (   0.2500000   0.7216878   0.4035896  )
        28           O   tau(  28) = (   0.2500000   0.4330127   0.5021442  )
        29           Zn  tau(  29) = (   0.2500000   0.4330127   0.8071792  )
        30           O   tau(  30) = (   0.2500000   0.7216878   0.9057338  )
        31           Zn  tau(  31) = (   0.2500000   0.7216878   1.2107688  )
        32           O   tau(  32) = (   0.2500000   0.4330127   1.3093234  )

     number of k points=    34
                       cart. coord. in units 2pi/alat
        k(    1) = (   0.0000000   0.0000000   0.0000000), wk =   0.0092593
        k(    2) = (   0.0000000   0.0000000   0.1032402), wk =   0.0185185
        k(    3) = (   0.0000000   0.0000000   0.2064804), wk =   0.0185185
        k(    4) = (   0.0000000   0.0000000  -0.3097206), wk =   0.0092593
        k(    5) = (   0.0000000   0.1924501   0.0000000), wk =   0.0555556
        k(    6) = (   0.0000000   0.1924501   0.1032402), wk =   0.0555556
        k(    7) = (   0.0000000   0.1924501   0.2064804), wk =   0.0555556
        k(    8) = (   0.0000000   0.1924501  -0.3097206), wk =   0.0555556
        k(    9) = (   0.0000000   0.3849002   0.0000000), wk =   0.0555556
        k(   10) = (   0.0000000   0.3849002   0.1032402), wk =   0.0555556
        k(   11) = (   0.0000000   0.3849002   0.2064804), wk =   0.0555556
        k(   12) = (   0.0000000   0.3849002  -0.3097206), wk =   0.0555556
        k(   13) = (   0.0000000  -0.5773503   0.0000000), wk =   0.0277778
        k(   14) = (   0.0000000  -0.5773503   0.1032402), wk =   0.0555556
        k(   15) = (   0.0000000  -0.5773503   0.2064804), wk =   0.0555556
        k(   16) = (   0.0000000  -0.5773503  -0.3097206), wk =   0.0277778
        k(   17) = (   0.1666667   0.2886751   0.0000000), wk =   0.0555556
        k(   18) = (   0.1666667   0.2886751   0.1032402), wk =   0.1111111
        k(   19) = (   0.1666667   0.2886751   0.2064804), wk =   0.1111111
        k(   20) = (   0.1666667   0.2886751  -0.3097206), wk =   0.0555556
        k(   21) = (   0.1666667   0.4811252   0.0000000), wk =   0.1111111
        k(   22) = (   0.1666667   0.4811252   0.1032402), wk =   0.1111111
        k(   23) = (   0.1666667   0.4811252   0.2064804), wk =   0.1111111
        k(   24) = (   0.1666667   0.4811252  -0.3097206), wk =   0.1111111
        k(   25) = (   0.3333333   0.5773503   0.0000000), wk =   0.0185185
        k(   26) = (   0.3333333   0.5773503   0.1032402), wk =   0.0370370
        k(   27) = (   0.3333333   0.5773503   0.2064804), wk =   0.0370370
        k(   28) = (   0.3333333   0.5773503  -0.3097206), wk =   0.0185185
        k(   29) = (   0.0000000  -0.1924501   0.1032402), wk =   0.0555556
        k(   30) = (   0.0000000  -0.1924501   0.2064804), wk =   0.0555556
        k(   31) = (   0.0000000  -0.3849002   0.1032402), wk =   0.0555556
        k(   32) = (   0.0000000  -0.3849002   0.2064804), wk =   0.0555556
        k(   33) = (  -0.1666667  -0.4811252   0.1032402), wk =   0.1111111
        k(   34) = (  -0.1666667  -0.4811252   0.2064804), wk =   0.1111111

     Check: negative core charge=   -0.000002

     Initial potential from superposition of free atoms

     starting charge     287.9404, renormalised to     288.0000
     Starting wfcs are  208 randomized atomic wfcs

     Self-consistent Calculation

     iteration #  1     ecut=    50.00 Ry     beta= 0.30
     Davidson diagonalization with overlap
     ethr =  1.00E-02,  avg # of iterations =  2.0

     total energy              =   -2891.83965895 Ry
     estimated scf accuracy    <       5.52303367 Ry

[...]

     iteration #  6     ecut=    50.00 Ry     beta= 0.30
     Davidson diagonalization with overlap
     c_bands:  2 eigenvalues not converged
     ethr =  1.57E-04,  avg # of iterations = 13.2

[...]

     iteration # 21     ecut=    50.00 Ry     beta= 0.30
     Davidson diagonalization with overlap
     c_bands:  1 eigenvalues not converged
     ethr =  3.29E-11,  avg # of iterations = 14.4

[...]

     total energy              =   -2893.09615170 Ry
     estimated scf accuracy    <       0.00000002 Ry

     iteration # 23     ecut=    50.00 Ry     beta= 0.30
     Davidson diagonalization with overlap
     ethr =  6.99E-12,  avg # of iterations =  4.2

     End of self-consistent calculation

          k = 0.0000 0.0000 0.0000 ( 15657 PWs)   bands (ev):

   -11.0004 -10.6689 -10.6689 -10.3518 -10.3518 -10.3518 -10.3192 -10.2395
   -10.2395 -10.2395 -10.2395 -10.2395 -10.2395 -10.1429 -10.1429 -10.1429
     0.9508   0.9508   0.9508   0.9508   0.9508   0.9508   1.1129   1.1129
     1.1129   1.1178   1.1178   1.3198   1.3198   1.3271   1.3271   1.3271
     1.3435   1.3911   1.3911   1.3911   1.3911   1.4304   1.5100   1.5100
     1.5568   1.5568   1.5568   1.7818   1.7818   1.7818   1.7818   1.7818
     1.7818   1.8518   1.8519   1.8519   1.8519   1.8519   1.8519   1.9237
     1.9237   1.9237   1.9500   1.9500   1.9500   2.0810   2.0810   2.0810
     2.4263   2.4263   2.4596   2.4596   2.4596   2.5454   2.5454   2.5454
     2.5454   2.5905   2.5905   2.5905   2.6123   2.6123   2.6123   2.6123
     2.6123   2.6123   2.6236   2.6236   2.6691   2.6691   2.6691   2.6965
     2.6965   2.6965   2.6965   2.6965   2.6965   2.7409   2.7409   2.7409
     2.8831   3.1909   3.1909   3.1909   3.1909   3.1909   3.1909   3.2013
     3.2013   3.2013   3.4440   3.4440   3.4440   4.1332   4.1332   4.1332
     4.6582   4.6582   4.7084   4.7084   4.7084   5.4414   5.4414   5.4414
     5.4414   5.4414   5.4414   5.5480   5.5480   5.5480   5.5480   5.5480
[...]
     atom   11 type  1   force =    -0.00000353    0.00000204    0.00135172
     atom   12 type  2   force =     0.00000005    0.00000003   -0.00135405
     atom   13 type  1   force =    -0.00000340   -0.00000196    0.00134908
     atom   14 type  2   force =     0.00000020   -0.00000012   -0.00135359
     atom   15 type  1   force =    -0.00000098    0.00000057    0.00135672
     atom   16 type  2   force =     0.00000018    0.00000011   -0.00135467
     atom   17 type  1   force =    -0.00000000   -0.00000058    0.00136063
     atom   18 type  2   force =     0.00000000    0.00000000   -0.00135518
     atom   19 type  1   force =     0.00000000    0.00000000    0.00135453
     atom   20 type  2   force =     0.00000000   -0.00000006   -0.00135405
     atom   21 type  1   force =     0.00000000    0.00000393    0.00134908
     atom   22 type  2   force =     0.00000000    0.00000000   -0.00135362
     atom   23 type  1   force =     0.00000000    0.00000000    0.00135317
     atom   24 type  2   force =    -0.00000000   -0.00000021   -0.00135467
     atom   25 type  1   force =    -0.00000050    0.00000029    0.00136063
     atom   26 type  2   force =    -0.00000017   -0.00000010   -0.00135534
     atom   27 type  1   force =     0.00000353    0.00000204    0.00135172
     atom   28 type  2   force =    -0.00000005    0.00000003   -0.00135405
     atom   29 type  1   force =     0.00000340   -0.00000196    0.00134908
     atom   30 type  2   force =    -0.00000020   -0.00000012   -0.00135359
     atom   31 type  1   force =     0.00000098    0.00000057    0.00135672
     atom   32 type  2   force =    -0.00000018    0.00000011   -0.00135467
     The non-local contrib.  to forces
     atom    1 type  1   force =     0.00000000    0.00000000    0.01087444
     atom    2 type  2   force =     0.00000000   -0.00000003   -0.00012543
     atom    3 type  1   force =     0.00000000   -0.00000260    0.01086822
     atom    4 type  2   force =     0.00000000   -0.00000000   -0.00011998
     atom    5 type  1   force =     0.00000000    0.00000000    0.01086429
     atom    6 type  2   force =     0.00000000    0.00000058   -0.00011956
     atom    7 type  1   force =     0.00000000   -0.00000096    0.01087188
     atom    8 type  2   force =     0.00000000    0.00000000   -0.00012426
     atom    9 type  1   force =    -0.00000033   -0.00000019    0.01087379
     atom   10 type  2   force =    -0.00000003    0.00000002   -0.00012543
     atom   11 type  1   force =    -0.00000225    0.00000130    0.01086822
     atom   12 type  2   force =    -0.00000007   -0.00000004   -0.00012063
     atom   13 type  1   force =    -0.00000263   -0.00000152    0.01086489
     atom   14 type  2   force =     0.00000051   -0.00000029   -0.00011956
     atom   15 type  1   force =    -0.00000083    0.00000048    0.01087188
     atom   16 type  2   force =     0.00000051    0.00000029   -0.00012353
     atom   17 type  1   force =     0.00000000    0.00000038    0.01087379
     atom   18 type  2   force =     0.00000000   -0.00000000   -0.00012409
     atom   19 type  1   force =     0.00000000    0.00000000    0.01087000
     atom   20 type  2   force =     0.00000000    0.00000009   -0.00012063
     atom   21 type  1   force =     0.00000000    0.00000304    0.01086489
     atom   22 type  2   force =     0.00000000   -0.00000000   -0.00011998
     atom   23 type  1   force =     0.00000000    0.00000000    0.01086994
     atom   24 type  2   force =     0.00000000   -0.00000059   -0.00012353
     atom   25 type  1   force =     0.00000033   -0.00000019    0.01087379
     atom   26 type  2   force =     0.00000003    0.00000002   -0.00012543
     atom   27 type  1   force =     0.00000225    0.00000130    0.01086822
     atom   28 type  2   force =     0.00000007   -0.00000004   -0.00012063
     atom   29 type  1   force =     0.00000263   -0.00000152    0.01086489
     atom   30 type  2   force =    -0.00000051   -0.00000029   -0.00011956
     atom   31 type  1   force =     0.00000083    0.00000048    0.01087188
     atom   32 type  2   force =    -0.00000051    0.00000029   -0.00012353
     The ionic contribution  to forces
     atom    1 type  1   force =    -0.00000000   -0.00000000   -0.02077733
     atom    2 type  2   force =     0.00000000    0.00000000    0.02077733
     atom    3 type  1   force =     0.00000000    0.00000000   -0.02077733
     atom    4 type  2   force =    -0.00000000   -0.00000000    0.02077733
     atom    5 type  1   force =    -0.00000000   -0.00000000   -0.02077733
     atom    6 type  2   force =    -0.00000000    0.00000000    0.02077733
     atom    7 type  1   force =    -0.00000000    0.00000000   -0.02077733
     atom    8 type  2   force =    -0.00000000   -0.00000000    0.02077733
     atom    9 type  1   force =     0.00000000    0.00000000   -0.02077733
     atom   10 type  2   force =     0.00000000   -0.00000000    0.02077733
     atom   11 type  1   force =     0.00000000   -0.00000000   -0.02077733
     atom   12 type  2   force =    -0.00000000    0.00000000    0.02077733
     atom   13 type  1   force =     0.00000000    0.00000000   -0.02077733
     atom   14 type  2   force =     0.00000000   -0.00000000    0.02077733
     atom   15 type  1   force =     0.00000000   -0.00000000   -0.02077733
     atom   16 type  2   force =     0.00000000    0.00000000    0.02077733
     atom   17 type  1   force =     0.00000000   -0.00000000   -0.02077733
     atom   18 type  2   force =    -0.00000000    0.00000000    0.02077733
     atom   19 type  1   force =    -0.00000000    0.00000000   -0.02077733
     atom   20 type  2   force =    -0.00000000   -0.00000000    0.02077733
     atom   21 type  1   force =    -0.00000000   -0.00000000   -0.02077733
     atom   22 type  2   force =    -0.00000000    0.00000000    0.02077733
     atom   23 type  1   force =    -0.00000000    0.00000000   -0.02077733
     atom   24 type  2   force =    -0.00000000   -0.00000000    0.02077733
     atom   25 type  1   force =     0.00000000    0.00000000   -0.02077733
     atom   26 type  2   force =    -0.00000000   -0.00000000    0.02077733
     atom   27 type  1   force =    -0.00000000   -0.00000000   -0.02077733
     atom   28 type  2   force =     0.00000000    0.00000000    0.02077733
     atom   29 type  1   force =     0.00000000    0.00000000   -0.02077733
     atom   30 type  2   force =    -0.00000000   -0.00000000    0.02077733
     atom   31 type  1   force =    -0.00000000   -0.00000000   -0.02077733
     atom   32 type  2   force =    -0.00000000    0.00000000    0.02077733
     The local contribution  to forces
     atom    1 type  1   force =    -0.00000000    0.00000000    0.01224994
     atom    2 type  2   force =    -0.00000000    0.00000197   -0.02203575
     atom    3 type  1   force =    -0.00000000    0.00000670    0.01226440
     atom    4 type  2   force =     0.00000000    0.00000000   -0.02203465
     atom    5 type  1   force =     0.00000000    0.00000000    0.01227628
     atom    6 type  2   force =    -0.00000000    0.00000205   -0.02203188
     atom    7 type  1   force =    -0.00000000    0.00000194    0.01225718
     atom    8 type  2   force =     0.00000000   -0.00000000   -0.02203559
     atom    9 type  1   force =    -0.00000026   -0.00000014    0.01225141
     atom   10 type  2   force =     0.00000170   -0.00000099   -0.02203575
     atom   11 type  1   force =     0.00000580   -0.00000336    0.01226440
     atom   12 type  2   force =     0.00000258    0.00000149   -0.02203466
     atom   13 type  1   force =     0.00000681    0.00000394    0.01227279
     atom   14 type  2   force =     0.00000178   -0.00000103   -0.02203188
     atom   15 type  1   force =     0.00000167   -0.00000098    0.01225718
     atom   16 type  2   force =     0.00000053    0.00000031   -0.02203533
     atom   17 type  1   force =    -0.00000000    0.00000030    0.01225141
     atom   18 type  2   force =    -0.00000000    0.00000000   -0.02203655
     atom   19 type  1   force =    -0.00000000    0.00000001    0.01226021
     atom   20 type  2   force =    -0.00000000   -0.00000298   -0.02203466
     atom   21 type  1   force =    -0.00000000   -0.00000787    0.01227279
     atom   22 type  2   force =    -0.00000000    0.00000000   -0.02203191
     atom   23 type  1   force =    -0.00000000    0.00000001    0.01226296
     atom   24 type  2   force =    -0.00000000   -0.00000061   -0.02203533
     atom   25 type  1   force =     0.00000026   -0.00000014    0.01225141
     atom   26 type  2   force =    -0.00000170   -0.00000099   -0.02203575
     atom   27 type  1   force =    -0.00000580   -0.00000336    0.01226440
     atom   28 type  2   force =    -0.00000258    0.00000149   -0.02203466
     atom   29 type  1   force =    -0.00000681    0.00000394    0.01227279
     atom   30 type  2   force =    -0.00000178   -0.00000103   -0.02203188
     atom   31 type  1   force =    -0.00000167   -0.00000098    0.01225718
     atom   32 type  2   force =    -0.00000053    0.00000031   -0.02203533
     The core correction contribution to forces
     atom    1 type  1   force =     0.00000000    0.00000000   -0.00098870
     atom    2 type  2   force =     0.00000000    0.00000001    0.00002013
     atom    3 type  1   force =     0.00000000   -0.00000005   -0.00098863
     atom    4 type  2   force =    -0.00000000    0.00000000    0.00002005
     atom    5 type  1   force =     0.00000000    0.00000000   -0.00098899
     atom    6 type  2   force =     0.00000000   -0.00000000    0.00002004
     atom    7 type  1   force =    -0.00000000    0.00000002   -0.00098874
     atom    8 type  2   force =     0.00000000    0.00000000    0.00002011
     atom    9 type  1   force =     0.00000004    0.00000003   -0.00098873
     atom   10 type  2   force =     0.00000000   -0.00000000    0.00002013
     atom   11 type  1   force =    -0.00000004    0.00000002   -0.00098863
     atom   12 type  2   force =     0.00000001    0.00000000    0.00002006
     atom   13 type  1   force =    -0.00000007   -0.00000004   -0.00098887
     atom   14 type  2   force =    -0.00000000    0.00000000    0.00002004
     atom   15 type  1   force =     0.00000002   -0.00000001   -0.00098874
     atom   16 type  2   force =    -0.00000001   -0.00000000    0.00002010
     atom   17 type  1   force =    -0.00000000   -0.00000005   -0.00098873
     atom   18 type  2   force =     0.00000000   -0.00000000    0.00002011
     atom   19 type  1   force =    -0.00000000    0.00000000   -0.00098864
     atom   20 type  2   force =    -0.00000000   -0.00000001    0.00002006
     atom   21 type  1   force =    -0.00000000    0.00000008   -0.00098887
     atom   22 type  2   force =     0.00000000   -0.00000000    0.00002005
     atom   23 type  1   force =    -0.00000000    0.00000000   -0.00098882
     atom   24 type  2   force =     0.00000000    0.00000001    0.00002010
     atom   25 type  1   force =    -0.00000004    0.00000003   -0.00098873
     atom   26 type  2   force =    -0.00000000   -0.00000000    0.00002013
     atom   27 type  1   force =     0.00000004    0.00000002   -0.00098863
     atom   28 type  2   force =    -0.00000001    0.00000000    0.00002006
     atom   29 type  1   force =     0.00000007   -0.00000004   -0.00098887
     atom   30 type  2   force =     0.00000000    0.00000000    0.00002004
     atom   31 type  1   force =    -0.00000002   -0.00000001   -0.00098874
     atom   32 type  2   force =     0.00000001   -0.00000000    0.00002010
     The Hubbard contrib.    to forces
     atom    1 type  1   force =     0.00000000    0.00000000    0.00000000
     atom    2 type  2   force =     0.00000000    0.00000000    0.00000000
     atom    3 type  1   force =     0.00000000    0.00000000    0.00000000
     atom    4 type  2   force =     0.00000000    0.00000000    0.00000000
     atom    5 type  1   force =     0.00000000    0.00000000    0.00000000
     atom    6 type  2   force =     0.00000000    0.00000000    0.00000000
     atom    7 type  1   force =     0.00000000    0.00000000    0.00000000
     atom    8 type  2   force =     0.00000000    0.00000000    0.00000000
     atom    9 type  1   force =     0.00000000    0.00000000    0.00000000
     atom   10 type  2   force =     0.00000000    0.00000000    0.00000000
     atom   11 type  1   force =     0.00000000    0.00000000    0.00000000
     atom   12 type  2   force =     0.00000000    0.00000000    0.00000000
     atom   13 type  1   force =     0.00000000    0.00000000    0.00000000
     atom   14 type  2   force =     0.00000000    0.00000000    0.00000000
     atom   15 type  1   force =     0.00000000    0.00000000    0.00000000
     atom   16 type  2   force =     0.00000000    0.00000000    0.00000000
     atom   17 type  1   force =     0.00000000    0.00000000    0.00000000
     atom   18 type  2   force =     0.00000000    0.00000000    0.00000000
     atom   19 type  1   force =     0.00000000    0.00000000    0.00000000
     atom   20 type  2   force =     0.00000000    0.00000000    0.00000000
     atom   21 type  1   force =     0.00000000    0.00000000    0.00000000
     atom   22 type  2   force =     0.00000000    0.00000000    0.00000000
     atom   23 type  1   force =     0.00000000    0.00000000    0.00000000
     atom   24 type  2   force =     0.00000000    0.00000000    0.00000000
     atom   25 type  1   force =     0.00000000    0.00000000    0.00000000
     atom   26 type  2   force =     0.00000000    0.00000000    0.00000000
     atom   27 type  1   force =     0.00000000    0.00000000    0.00000000
     atom   28 type  2   force =     0.00000000    0.00000000    0.00000000
     atom   29 type  1   force =     0.00000000    0.00000000    0.00000000
     atom   30 type  2   force =     0.00000000    0.00000000    0.00000000
     atom   31 type  1   force =     0.00000000    0.00000000    0.00000000
     atom   32 type  2   force =     0.00000000    0.00000000    0.00000000
     The SCF correction term to forces
     atom    1 type  1   force =     0.00000000    0.00000000    0.00000042
     atom    2 type  2   force =    -0.00000000   -0.00000174    0.00000620
     atom    3 type  1   force =    -0.00000000   -0.00000814   -0.00001713
     atom    4 type  2   force =     0.00000000    0.00000000    0.00000131
     atom    5 type  1   force =    -0.00000000    0.00000000   -0.00002922
     atom    6 type  2   force =    -0.00000000   -0.00000240   -0.00000171
     atom    7 type  1   force =    -0.00000000   -0.00000213   -0.00000846
     atom    8 type  2   force =     0.00000000    0.00000000    0.00000538
     atom    9 type  1   force =     0.00000104    0.00000060   -0.00000070
     atom   10 type  2   force =    -0.00000151    0.00000087    0.00000620
     atom   11 type  1   force =    -0.00000705    0.00000407   -0.00001713
     atom   12 type  2   force =    -0.00000247   -0.00000143    0.00000166
     atom   13 type  1   force =    -0.00000752   -0.00000434   -0.00002459
     atom   14 type  2   force =    -0.00000208    0.00000120   -0.00000171
     atom   15 type  1   force =    -0.00000184    0.00000106   -0.00000846
     atom   16 type  2   force =    -0.00000084   -0.00000049    0.00000458
     atom   17 type  1   force =     0.00000000   -0.00000120   -0.00000070
     atom   18 type  2   force =    -0.00000000   -0.00000000    0.00000585
     atom   19 type  1   force =    -0.00000000   -0.00000000   -0.00001189
     atom   20 type  2   force =     0.00000000    0.00000285    0.00000166
     atom   21 type  1   force =    -0.00000000    0.00000868   -0.00002459
     atom   22 type  2   force =    -0.00000000   -0.00000000   -0.00000130
     atom   23 type  1   force =    -0.00000000   -0.00000000   -0.00001578
     atom   24 type  2   force =     0.00000000    0.00000097    0.00000458
     atom   25 type  1   force =    -0.00000104    0.00000060   -0.00000070
     atom   26 type  2   force =     0.00000151    0.00000087    0.00000620
     atom   27 type  1   force =     0.00000705    0.00000407   -0.00001713
     atom   28 type  2   force =     0.00000247   -0.00000143    0.00000166
     atom   29 type  1   force =     0.00000752   -0.00000434   -0.00002459
     atom   30 type  2   force =     0.00000208    0.00000120   -0.00000171
     atom   31 type  1   force =     0.00000184    0.00000106   -0.00000846
     atom   32 type  2   force =     0.00000084   -0.00000049    0.00000458

     Total force =     0.007662     Total SCF correction =     0.000070

     Writing all to output data dir ./ZnO_222.save/

     General routines

     Parallel routines

   This run was terminated on:  21:52:35   3Jul2025

   JOB DONE.