     Program PWSCF v.7.2 starts on  3Jul2025 at 16:33:16

     Reading input from ZnO-111.in
Warning: card &CELL ignored
Warning: card / ignored
Warning: card &FCP ignored
Warning: card / ignored
Warning: card &RISM ignored
Warning: card / ignored

     Current dimensions of program PWSCF are:
     Max number of different atomic species (ntypx) = 10
     Max number of k-points (npk) =  40000
     Max angular momentum in pseudopotentials (lmaxx) =  4
     file Zn.upf: wavefunction(s)  3D renormalized
     Message from routine setup:
     using ibrav=0 with symmetry is DISCOURAGED, use correct ibrav instead

     K-points division:     npool     =       2
     R & G space division:  proc/nbgrp/npool/nimage =       8
     Subspace diagonalization in iterative solution of the eigenvalue problem:
     a serial algorithm will be used

     Using Slab Decomposition

     bravais-lattice index     =            0
     lattice parameter (alat)  =       6.1789  a.u.
     unit-cell volume          =     329.8028 (a.u.)^3
     number of atoms/cell      =            4
     number of atomic types    =            2
     number of electrons       =        36.00
     number of Kohn-Sham states=           18
     kinetic-energy cutoff     =      50.0000  Ry
     charge density cutoff     =     400.0000  Ry
     scf convergence threshold =      1.0E-08
     mixing beta               =       0.3000
     number of iterations used =            8  plain     mixing
     Exchange-correlation= PBE
                           (   1   4   3   4   0   0   0)

     celldm(1)=   6.178854  celldm(2)=   0.000000  celldm(3)=   0.000000
     celldm(4)=   0.000000  celldm(5)=   0.000000  celldm(6)=   0.000000

     crystal axes: (cart. coord. in units of alat)
               a(1) = (   1.000000   0.000000   0.000000 )
               a(2) = (  -0.500000   0.866025   0.000000 )
               a(3) = (   0.000000   0.000000   1.614358 )

     reciprocal axes: (cart. coord. in units 2 pi/alat)
               b(1) = (  1.000000  0.577350 -0.000000 )
               b(2) = (  0.000000  1.154701  0.000000 )
               b(3) = (  0.000000 -0.000000  0.619441 )

     PseudoPot. # 1 for Zn read from file:
     ../pseudos/Zn.upf
     MD5 check sum: 7f56cabf9682ed8c977c2f7d0c5985c5
     Pseudo is Ultrasoft + core correction, Zval = 12.0
     Generated using &quot;atomic&quot; code by A. Dal Corso  v.6.2.2
     Using radial grid of 1201 points,  6 beta functions with:
                l(1) =   0
                l(2) =   0
                l(3) =   1
                l(4) =   1
                l(5) =   2
                l(6) =   2
     Q(r) pseudized with 0 coefficients

     PseudoPot. # 2 for O  read from file:
     ../pseudos/O.upf
     MD5 check sum: 91400c9766925bcf19f520983a725ff0
     Pseudo is Ultrasoft + core correction, Zval =  6.0
     Generated using &quot;atomic&quot; code by A. Dal Corso  v.6.3MaX
     Using radial grid of 1095 points,  4 beta functions with:
                l(1) =   0
                l(2) =   0
                l(3) =   1
                l(4) =   1
     Q(r) pseudized with 0 coefficients

     atomic species   valence    mass     pseudopotential
        Zn            12.00    65.38000     Zn( 1.00)
        O              6.00    15.99900     O ( 1.00)

     12 Sym. Ops. (no inversion) found ( 6 have fractional translation)

   Cartesian axes

     site n.     atom                  positions (alat units)
         1           Zn  tau(   1) = (   0.0000000   0.0000000   0.0000000  )
         2           O   tau(   2) = (   0.0000000   0.5773503   0.1971092  )
         3           Zn  tau(   3) = (   0.0000000   0.5773503   0.8071792  )
         4           O   tau(   4) = (   0.0000000   0.0000000   1.0042884  )

     number of k points=    28
                       cart. coord. in units 2pi/alat
        k(    1) = (   0.0000000   0.0000000   0.0000000), wk =   0.0092593
        k(    2) = (   0.0000000   0.0000000   0.1032402), wk =   0.0185185
        k(    3) = (   0.0000000   0.0000000   0.2064804), wk =   0.0185185
        k(    4) = (   0.0000000   0.0000000  -0.3097206), wk =   0.0092593
        k(    5) = (   0.0000000   0.1924501   0.0000000), wk =   0.0555556
        k(    6) = (   0.0000000   0.1924501   0.1032402), wk =   0.1111111
        k(    7) = (   0.0000000   0.1924501   0.2064804), wk =   0.1111111
        k(    8) = (   0.0000000   0.1924501  -0.3097206), wk =   0.0555556
        k(    9) = (   0.0000000   0.3849002   0.0000000), wk =   0.0555556
        k(   10) = (   0.0000000   0.3849002   0.1032402), wk =   0.1111111
        k(   11) = (   0.0000000   0.3849002   0.2064804), wk =   0.1111111
        k(   12) = (   0.0000000   0.3849002  -0.3097206), wk =   0.0555556
        k(   13) = (   0.0000000  -0.5773503   0.0000000), wk =   0.0277778
        k(   14) = (   0.0000000  -0.5773503   0.1032402), wk =   0.0555556
        k(   15) = (   0.0000000  -0.5773503   0.2064804), wk =   0.0555556
        k(   16) = (   0.0000000  -0.5773503  -0.3097206), wk =   0.0277778
        k(   17) = (   0.1666667   0.2886751   0.0000000), wk =   0.0555556
        k(   18) = (   0.1666667   0.2886751   0.1032402), wk =   0.1111111
        k(   19) = (   0.1666667   0.2886751   0.2064804), wk =   0.1111111
        k(   20) = (   0.1666667   0.2886751  -0.3097206), wk =   0.0555556
        k(   21) = (   0.1666667   0.4811252   0.0000000), wk =   0.1111111
        k(   22) = (   0.1666667   0.4811252   0.1032402), wk =   0.2222222
        k(   23) = (   0.1666667   0.4811252   0.2064804), wk =   0.2222222
        k(   24) = (   0.1666667   0.4811252  -0.3097206), wk =   0.1111111
        k(   25) = (   0.3333333   0.5773503   0.0000000), wk =   0.0185185
        k(   26) = (   0.3333333   0.5773503   0.1032402), wk =   0.0370370
        k(   27) = (   0.3333333   0.5773503   0.2064804), wk =   0.0370370
        k(   28) = (   0.3333333   0.5773503  -0.3097206), wk =   0.0185185

     Check: negative core charge=   -0.000002

     Initial potential from superposition of free atoms

     starting charge      35.9925, renormalised to      36.0000
     Starting wfcs are   26 randomized atomic wfcs

     Self-consistent Calculation

     iteration #  1     ecut=    50.00 Ry     beta= 0.30
     Davidson diagonalization with overlap
     ethr =  1.00E-02,  avg # of iterations =  1.9

     total energy              =    -361.47907566 Ry
     estimated scf accuracy    <       0.69345622 Ry

[...]

     total energy              =    -361.63687343 Ry
     estimated scf accuracy    <       0.00000006 Ry

     iteration # 41     ecut=    50.00 Ry     beta= 0.30
     Davidson diagonalization with overlap
     ethr =  1.71E-10,  avg # of iterations =  5.9

     End of self-consistent calculation

          k = 0.0000 0.0000 0.0000 (  1949 PWs)   bands (ev):

   -10.9989 -10.3176   1.3210   1.3210   1.3444   1.4312   1.5113   1.5113
     2.4273   2.4273   2.6246   2.6246   2.8841   6.1139   6.1139   6.8098
     6.8853   6.8853

[...]

          k = 0.3333 0.5774-0.3097 (  1968 PWs)   bands (ev):

   -10.1857 -10.1857   1.3151   1.3151   1.5281   1.5281   2.0576   2.0576
     2.4343   2.4343   2.9250   2.9250   3.2442   3.2442   4.2932   4.2932
     5.6770   5.6770

     highest occupied level (ev):     6.8853

!    total energy              =    -361.63687347 Ry
     estimated scf accuracy    <          3.6E-09 Ry

     The total energy is the sum of the following terms:
     one-electron contribution =    -154.52454283 Ry
     hartree contribution      =     118.28825561 Ry
     xc contribution           =    -109.54602455 Ry
     ewald contribution        =    -215.85456171 Ry

     convergence has been achieved in  41 iterations

     Forces acting on atoms (cartesian axes, Ry/au):

     atom    1 type  1   force =    -0.00000000   -0.00000000    0.00134854
     atom    2 type  2   force =     0.00000000    0.00000000   -0.00134854
     atom    3 type  1   force =     0.00000000    0.00000000    0.00134854
     atom    4 type  2   force =     0.00000000    0.00000000   -0.00134854
     The non-local contrib.  to forces
     atom    1 type  1   force =     0.00000000   -0.00000000    0.01096395
     atom    2 type  2   force =     0.00000000    0.00000000   -0.00038388
     atom    3 type  1   force =    -0.00000000    0.00000000    0.01096395
     atom    4 type  2   force =     0.00000000    0.00000000   -0.00038388
     The ionic contribution  to forces
     atom    1 type  1   force =    -0.00000000   -0.00000000   -0.02077733
     atom    2 type  2   force =     0.00000000    0.00000000    0.02077733
     atom    3 type  1   force =     0.00000000    0.00000000   -0.02077733
     atom    4 type  2   force =    -0.00000000   -0.00000000    0.02077733
     The local contribution  to forces
     atom    1 type  1   force =    -0.00000000    0.00000000    0.01213953
     atom    2 type  2   force =     0.00000000    0.00000000   -0.02175875
     atom    3 type  1   force =    -0.00000000    0.00000001    0.01213952
     atom    4 type  2   force =    -0.00000000   -0.00000000   -0.02175875
     The core correction contribution to forces
     atom    1 type  1   force =    -0.00000000    0.00000000   -0.00098016
     atom    2 type  2   force =    -0.00000000   -0.00000000    0.00002310
     atom    3 type  1   force =    -0.00000000    0.00000000   -0.00098016
     atom    4 type  2   force =     0.00000000   -0.00000000    0.00002310
     The Hubbard contrib.    to forces
     atom    1 type  1   force =     0.00000000    0.00000000    0.00000000
     atom    2 type  2   force =     0.00000000    0.00000000    0.00000000
     atom    3 type  1   force =     0.00000000    0.00000000    0.00000000
     atom    4 type  2   force =     0.00000000    0.00000000    0.00000000
     The SCF correction term to forces
     atom    1 type  1   force =     0.00000000   -0.00000000    0.00000805
     atom    2 type  2   force =     0.00000000    0.00000000   -0.00000083
     atom    3 type  1   force =    -0.00000000    0.00000000    0.00000805
     atom    4 type  2   force =     0.00000000   -0.00000000   -0.00000083

     Total force =     0.002697     Total SCF correction =     0.000011

     Writing all to output data dir ./ZnO_111.save/

     General routines

     Parallel routines

   This run was terminated on:  16:33:47   3Jul2025

   JOB DONE.