     Program PWSCF v.7.2 starts on  3Jul2025 at 21:52:36

     Reading input from ZnO-223.in
Warning: card &CELL ignored
Warning: card / ignored
Warning: card &FCP ignored
Warning: card / ignored
Warning: card &RISM ignored
Warning: card / ignored

     Current dimensions of program PWSCF are:
     Max number of different atomic species (ntypx) = 10
     Max number of k-points (npk) =  40000
     Max angular momentum in pseudopotentials (lmaxx) =  4
     file Zn.upf: wavefunction(s)  3D renormalized
     Found identity + (  0.0000  0.0000  0.3333) symmetry
     This is a supercell, fractional translations are disabled
     Message from routine setup:
     using ibrav=0 with symmetry is DISCOURAGED, use correct ibrav instead

     K-points division:     npool     =       2
     R & G space division:  proc/nbgrp/npool/nimage =       8
     Subspace diagonalization in iterative solution of the eigenvalue problem:
     one sub-group per band group will be used

     Using Slab Decomposition

     bravais-lattice index     =            0
     lattice parameter (alat)  =      12.3577  a.u.
     unit-cell volume          =    3957.6339 (a.u.)^3
     number of atoms/cell      =           48
     number of atomic types    =            2
     number of electrons       =       432.00
     number of Kohn-Sham states=          216
     kinetic-energy cutoff     =      50.0000  Ry
     charge density cutoff     =     400.0000  Ry
     scf convergence threshold =      1.0E-08
     mixing beta               =       0.3000
     number of iterations used =            8  plain     mixing
     Exchange-correlation= PBE
                           (   1   4   3   4   0   0   0)

     celldm(1)=  12.357708  celldm(2)=   0.000000  celldm(3)=   0.000000
     celldm(4)=   0.000000  celldm(5)=   0.000000  celldm(6)=   0.000000

     crystal axes: (cart. coord. in units of alat)
               a(1) = (   1.000000   0.000000   0.000000 )
               a(2) = (  -0.500000   0.866025   0.000000 )
               a(3) = (   0.000000   0.000000   2.421538 )

     reciprocal axes: (cart. coord. in units 2 pi/alat)
               b(1) = (  1.000000  0.577350 -0.000000 )
               b(2) = (  0.000000  1.154701  0.000000 )
               b(3) = (  0.000000 -0.000000  0.412961 )

     PseudoPot. # 1 for Zn read from file:
     ../pseudos/Zn.upf
     MD5 check sum: 7f56cabf9682ed8c977c2f7d0c5985c5
     Pseudo is Ultrasoft + core correction, Zval = 12.0
     Generated using &quot;atomic&quot; code by A. Dal Corso  v.6.2.2
     Using radial grid of 1201 points,  6 beta functions with:
                l(1) =   0
                l(2) =   0
                l(3) =   1
                l(4) =   1
                l(5) =   2
                l(6) =   2
     Q(r) pseudized with 0 coefficients

     PseudoPot. # 2 for O  read from file:
     ../pseudos/O.upf
     MD5 check sum: 91400c9766925bcf19f520983a725ff0
     Pseudo is Ultrasoft + core correction, Zval =  6.0
     Generated using &quot;atomic&quot; code by A. Dal Corso  v.6.3MaX
     Using radial grid of 1095 points,  4 beta functions with:
                l(1) =   0
                l(2) =   0
                l(3) =   1
                l(4) =   1
     Q(r) pseudized with 0 coefficients

     atomic species   valence    mass     pseudopotential
        Zn            12.00    65.38000     Zn( 1.00)
        O              6.00    15.99900     O ( 1.00)

      6 Sym. Ops. (no inversion) found

   Cartesian axes

     site n.     atom                  positions (alat units)
         1           Zn  tau(   1) = (   0.0000000   0.0000000   0.0000000  )
         2           O   tau(   2) = (   0.0000000   0.2886751   0.0985546  )
         3           Zn  tau(   3) = (   0.0000000   0.2886751   0.4035896  )
         4           O   tau(   4) = (   0.0000000   0.0000000   0.5021442  )
         5           Zn  tau(   5) = (   0.0000000   0.0000000   0.8071792  )
         6           O   tau(   6) = (   0.0000000   0.2886751   0.9057338  )
         7           Zn  tau(   7) = (   0.0000000   0.2886751   1.2107688  )
         8           O   tau(   8) = (   0.0000000   0.0000000   1.3093234  )
         9           Zn  tau(   9) = (   0.0000000   0.0000000   1.6143584  )
        10           O   tau(  10) = (   0.0000000   0.2886751   1.7129130  )
        11           Zn  tau(  11) = (   0.0000000   0.2886751   2.0179479  )
        12           O   tau(  12) = (   0.0000000   0.0000000   2.1165025  )
        13           Zn  tau(  13) = (  -0.2500000   0.4330127   0.0000000  )
        14           O   tau(  14) = (  -0.2500000   0.7216878   0.0985546  )
        15           Zn  tau(  15) = (  -0.2500000   0.7216878   0.4035896  )
        16           O   tau(  16) = (  -0.2500000   0.4330127   0.5021442  )
        17           Zn  tau(  17) = (  -0.2500000   0.4330127   0.8071792  )
        18           O   tau(  18) = (  -0.2500000   0.7216878   0.9057338  )
        19           Zn  tau(  19) = (  -0.2500000   0.7216878   1.2107688  )
        20           O   tau(  20) = (  -0.2500000   0.4330127   1.3093234  )
        21           Zn  tau(  21) = (  -0.2500000   0.4330127   1.6143584  )
        22           O   tau(  22) = (  -0.2500000   0.7216878   1.7129130  )
        23           Zn  tau(  23) = (  -0.2500000   0.7216878   2.0179479  )
        24           O   tau(  24) = (  -0.2500000   0.4330127   2.1165025  )
        25           Zn  tau(  25) = (   0.5000000   0.0000000   0.0000000  )
        26           O   tau(  26) = (   0.5000000   0.2886751   0.0985546  )
        27           Zn  tau(  27) = (   0.5000000   0.2886751   0.4035896  )
        28           O   tau(  28) = (   0.5000000   0.0000000   0.5021442  )
        29           Zn  tau(  29) = (   0.5000000   0.0000000   0.8071792  )
        30           O   tau(  30) = (   0.5000000   0.2886751   0.9057338  )
        31           Zn  tau(  31) = (   0.5000000   0.2886751   1.2107688  )
        32           O   tau(  32) = (   0.5000000   0.0000000   1.3093234  )
        33           Zn  tau(  33) = (   0.5000000   0.0000000   1.6143584  )
        34           O   tau(  34) = (   0.5000000   0.2886751   1.7129130  )
        35           Zn  tau(  35) = (   0.5000000   0.2886751   2.0179479  )
        36           O   tau(  36) = (   0.5000000   0.0000000   2.1165025  )
        37           Zn  tau(  37) = (   0.2500000   0.4330127   0.0000000  )
        38           O   tau(  38) = (   0.2500000   0.7216878   0.0985546  )
        39           Zn  tau(  39) = (   0.2500000   0.7216878   0.4035896  )
        40           O   tau(  40) = (   0.2500000   0.4330127   0.5021442  )
        41           Zn  tau(  41) = (   0.2500000   0.4330127   0.8071792  )
        42           O   tau(  42) = (   0.2500000   0.7216878   0.9057338  )
        43           Zn  tau(  43) = (   0.2500000   0.7216878   1.2107688  )
        44           O   tau(  44) = (   0.2500000   0.4330127   1.3093234  )
        45           Zn  tau(  45) = (   0.2500000   0.4330127   1.6143584  )
        46           O   tau(  46) = (   0.2500000   0.7216878   1.7129130  )
        47           Zn  tau(  47) = (   0.2500000   0.7216878   2.0179479  )
        48           O   tau(  48) = (   0.2500000   0.4330127   2.1165025  )

     number of k points=    34
                       cart. coord. in units 2pi/alat
        k(    1) = (   0.0000000   0.0000000   0.0000000), wk =   0.0092593
        k(    2) = (   0.0000000   0.0000000   0.0688268), wk =   0.0185185
        k(    3) = (   0.0000000   0.0000000   0.1376536), wk =   0.0185185
        k(    4) = (   0.0000000   0.0000000  -0.2064804), wk =   0.0092593
        k(    5) = (   0.0000000   0.1924501   0.0000000), wk =   0.0555556
        k(    6) = (   0.0000000   0.1924501   0.0688268), wk =   0.0555556
        k(    7) = (   0.0000000   0.1924501   0.1376536), wk =   0.0555556
        k(    8) = (   0.0000000   0.1924501  -0.2064804), wk =   0.0555556
        k(    9) = (   0.0000000   0.3849002   0.0000000), wk =   0.0555556
        k(   10) = (   0.0000000   0.3849002   0.0688268), wk =   0.0555556
        k(   11) = (   0.0000000   0.3849002   0.1376536), wk =   0.0555556
        k(   12) = (   0.0000000   0.3849002  -0.2064804), wk =   0.0555556
        k(   13) = (   0.0000000  -0.5773503   0.0000000), wk =   0.0277778
        k(   14) = (   0.0000000  -0.5773503   0.0688268), wk =   0.0555556
        k(   15) = (   0.0000000  -0.5773503   0.1376536), wk =   0.0555556
        k(   16) = (   0.0000000  -0.5773503  -0.2064804), wk =   0.0277778
        k(   17) = (   0.1666667   0.2886751   0.0000000), wk =   0.0555556
        k(   18) = (   0.1666667   0.2886751   0.0688268), wk =   0.1111111
        k(   19) = (   0.1666667   0.2886751   0.1376536), wk =   0.1111111
        k(   20) = (   0.1666667   0.2886751  -0.2064804), wk =   0.0555556
        k(   21) = (   0.1666667   0.4811252   0.0000000), wk =   0.1111111
        k(   22) = (   0.1666667   0.4811252   0.0688268), wk =   0.1111111
        k(   23) = (   0.1666667   0.4811252   0.1376536), wk =   0.1111111
        k(   24) = (   0.1666667   0.4811252  -0.2064804), wk =   0.1111111
        k(   25) = (   0.3333333   0.5773503   0.0000000), wk =   0.0185185
        k(   26) = (   0.3333333   0.5773503   0.0688268), wk =   0.0370370
        k(   27) = (   0.3333333   0.5773503   0.1376536), wk =   0.0370370
        k(   28) = (   0.3333333   0.5773503  -0.2064804), wk =   0.0185185
        k(   29) = (   0.0000000  -0.1924501   0.0688268), wk =   0.0555556
        k(   30) = (   0.0000000  -0.1924501   0.1376536), wk =   0.0555556
        k(   31) = (   0.0000000  -0.3849002   0.0688268), wk =   0.0555556
        k(   32) = (   0.0000000  -0.3849002   0.1376536), wk =   0.0555556
        k(   33) = (  -0.1666667  -0.4811252   0.0688268), wk =   0.1111111
        k(   34) = (  -0.1666667  -0.4811252   0.1376536), wk =   0.1111111

     Check: negative core charge=   -0.000002

     Initial potential from superposition of free atoms

     starting charge     431.9106, renormalised to     432.0000
     Starting wfcs are  312 randomized atomic wfcs

     Self-consistent Calculation

     iteration #  1     ecut=    50.00 Ry     beta= 0.30
     Davidson diagonalization with overlap
     ethr =  1.00E-02,  avg # of iterations =  2.0

     total energy              =   -4337.75705723 Ry
     estimated scf accuracy    <       8.28457423 Ry

[...]

     iteration #  6     ecut=    50.00 Ry     beta= 0.30
     Davidson diagonalization with overlap
     c_bands:  1 eigenvalues not converged
     c_bands:  1 eigenvalues not converged
     ethr =  1.52E-04,  avg # of iterations = 13.7

[...]

     iteration # 19     ecut=    50.00 Ry     beta= 0.30
     Davidson diagonalization with overlap
     c_bands:  1 eigenvalues not converged
     c_bands:  1 eigenvalues not converged
     ethr =  1.30E-08,  avg # of iterations = 14.3

[...]

     total energy              =   -4339.64418762 Ry
     estimated scf accuracy    <       0.00000001 Ry

     iteration # 38     ecut=    50.00 Ry     beta= 0.30
     Davidson diagonalization with overlap
[...]
     atom   26 type  2   force =    -0.00000000    0.00000000    0.02077733
     atom   27 type  1   force =    -0.00000000    0.00000000   -0.02077733
     atom   28 type  2   force =    -0.00000000   -0.00000000    0.02077733
     atom   29 type  1   force =     0.00000000   -0.00000000   -0.02077733
     atom   30 type  2   force =    -0.00000000    0.00000000    0.02077733
     atom   31 type  1   force =    -0.00000000    0.00000000   -0.02077733
     atom   32 type  2   force =    -0.00000000   -0.00000000    0.02077733
     atom   33 type  1   force =     0.00000000   -0.00000000   -0.02077733
     atom   34 type  2   force =    -0.00000000    0.00000000    0.02077733
     atom   35 type  1   force =    -0.00000000    0.00000000   -0.02077733
     atom   36 type  2   force =     0.00000000   -0.00000000    0.02077733
     atom   37 type  1   force =     0.00000000    0.00000000   -0.02077733
     atom   38 type  2   force =    -0.00000000   -0.00000000    0.02077733
     atom   39 type  1   force =    -0.00000000   -0.00000000   -0.02077733
     atom   40 type  2   force =     0.00000000    0.00000000    0.02077733
     atom   41 type  1   force =     0.00000000    0.00000000   -0.02077733
     atom   42 type  2   force =    -0.00000000   -0.00000000    0.02077733
     atom   43 type  1   force =    -0.00000000   -0.00000000   -0.02077733
     atom   44 type  2   force =     0.00000000    0.00000000    0.02077733
     atom   45 type  1   force =     0.00000000    0.00000000   -0.02077733
     atom   46 type  2   force =    -0.00000000   -0.00000000    0.02077733
     atom   47 type  1   force =    -0.00000000   -0.00000000   -0.02077733
     atom   48 type  2   force =     0.00000000    0.00000000    0.02077733
     The local contribution  to forces
     atom    1 type  1   force =    -0.00000000   -0.00000000    0.01226160
     atom    2 type  2   force =     0.00000000    0.00000058   -0.02203243
     atom    3 type  1   force =    -0.00000000   -0.00000163    0.01225720
     atom    4 type  2   force =     0.00000000   -0.00000000   -0.02203475
     atom    5 type  1   force =     0.00000000   -0.00000000    0.01225384
     atom    6 type  2   force =    -0.00000000   -0.00000045   -0.02203619
     atom    7 type  1   force =     0.00000000   -0.00000039    0.01225693
     atom    8 type  2   force =    -0.00000000   -0.00000000   -0.02203403
     atom    9 type  1   force =    -0.00000000   -0.00000000    0.01225981
     atom   10 type  2   force =    -0.00000000    0.00000019   -0.02203349
     atom   11 type  1   force =    -0.00000000   -0.00000256    0.01225574
     atom   12 type  2   force =    -0.00000000   -0.00000000   -0.02203439
     atom   13 type  1   force =     0.00000134    0.00000078    0.01226398
     atom   14 type  2   force =     0.00000050   -0.00000029   -0.02203243
     atom   15 type  1   force =    -0.00000142    0.00000081    0.01225720
     atom   16 type  2   force =    -0.00000028   -0.00000016   -0.02203521
     atom   17 type  1   force =     0.00000034    0.00000020    0.01225529
     atom   18 type  2   force =    -0.00000039    0.00000022   -0.02203619
     atom   19 type  1   force =    -0.00000034    0.00000018    0.01225693
     atom   20 type  2   force =    -0.00000036   -0.00000020   -0.02203358
     atom   21 type  1   force =     0.00000031    0.00000019    0.01225880
     atom   22 type  2   force =     0.00000017   -0.00000010   -0.02203349
     atom   23 type  1   force =    -0.00000222    0.00000127    0.01225574
     atom   24 type  2   force =    -0.00000001   -0.00000000   -0.02203395
     atom   25 type  1   force =    -0.00000000   -0.00000155    0.01226398
     atom   26 type  2   force =    -0.00000000    0.00000000   -0.02203217
     atom   27 type  1   force =    -0.00000000    0.00000001    0.01225794
     atom   28 type  2   force =    -0.00000000    0.00000033   -0.02203521
     atom   29 type  1   force =    -0.00000000   -0.00000039    0.01225529
     atom   30 type  2   force =    -0.00000000    0.00000000   -0.02203588
     atom   31 type  1   force =    -0.00000000    0.00000001    0.01225791
     atom   32 type  2   force =    -0.00000000    0.00000041   -0.02203358
     atom   33 type  1   force =    -0.00000000   -0.00000036    0.01225880
     atom   34 type  2   force =    -0.00000000    0.00000000   -0.02203323
     atom   35 type  1   force =    -0.00000000    0.00000001    0.01225482
     atom   36 type  2   force =     0.00000000    0.00000001   -0.02203395
     atom   37 type  1   force =    -0.00000134    0.00000078    0.01226398
     atom   38 type  2   force =    -0.00000050   -0.00000029   -0.02203243
     atom   39 type  1   force =     0.00000142    0.00000081    0.01225720
     atom   40 type  2   force =     0.00000028   -0.00000016   -0.02203521
     atom   41 type  1   force =    -0.00000034    0.00000020    0.01225529
     atom   42 type  2   force =     0.00000039    0.00000022   -0.02203619
     atom   43 type  1   force =     0.00000034    0.00000018    0.01225693
     atom   44 type  2   force =     0.00000036   -0.00000020   -0.02203358
     atom   45 type  1   force =    -0.00000031    0.00000019    0.01225880
     atom   46 type  2   force =    -0.00000017   -0.00000010   -0.02203349
     atom   47 type  1   force =     0.00000222    0.00000127    0.01225574
     atom   48 type  2   force =     0.00000001   -0.00000000   -0.02203395
     The core correction contribution to forces
     atom    1 type  1   force =     0.00000000    0.00000000   -0.00098893
     atom    2 type  2   force =    -0.00000000    0.00000001    0.00002004
     atom    3 type  1   force =    -0.00000000    0.00000006   -0.00098886
     atom    4 type  2   force =     0.00000000    0.00000000    0.00002005
     atom    5 type  1   force =     0.00000000    0.00000000   -0.00098891
     atom    6 type  2   force =    -0.00000000    0.00000000    0.00002006
     atom    7 type  1   force =     0.00000000   -0.00000001   -0.00098880
     atom    8 type  2   force =     0.00000000    0.00000000    0.00002006
     atom    9 type  1   force =     0.00000000   -0.00000000   -0.00098897
     atom   10 type  2   force =     0.00000000    0.00000000    0.00002005
     atom   11 type  1   force =    -0.00000000    0.00000009   -0.00098876
     atom   12 type  2   force =     0.00000000    0.00000000    0.00002005
     atom   13 type  1   force =    -0.00000005   -0.00000003   -0.00098900
     atom   14 type  2   force =     0.00000000   -0.00000000    0.00002004
     atom   15 type  1   force =     0.00000005   -0.00000003   -0.00098886
     atom   16 type  2   force =    -0.00000000   -0.00000000    0.00002006
     atom   17 type  1   force =    -0.00000002   -0.00000001   -0.00098895
     atom   18 type  2   force =     0.00000000   -0.00000000    0.00002006
     atom   19 type  1   force =    -0.00000001    0.00000001   -0.00098880
     atom   20 type  2   force =    -0.00000000   -0.00000000    0.00002006
     atom   21 type  1   force =    -0.00000001   -0.00000000   -0.00098896
     atom   22 type  2   force =     0.00000000   -0.00000000    0.00002005
     atom   23 type  1   force =     0.00000008   -0.00000005   -0.00098876
     atom   24 type  2   force =    -0.00000000   -0.00000000    0.00002006
     atom   25 type  1   force =    -0.00000000    0.00000006   -0.00098900
     atom   26 type  2   force =     0.00000000   -0.00000000    0.00002004
     atom   27 type  1   force =    -0.00000000    0.00000000   -0.00098890
     atom   28 type  2   force =    -0.00000000    0.00000000    0.00002006
     atom   29 type  1   force =    -0.00000000    0.00000002   -0.00098895
     atom   30 type  2   force =     0.00000000   -0.00000000    0.00002006
     atom   31 type  1   force =     0.00000000    0.00000000   -0.00098882
     atom   32 type  2   force =    -0.00000000    0.00000000    0.00002006
     atom   33 type  1   force =    -0.00000000    0.00000001   -0.00098896
     atom   34 type  2   force =     0.00000000   -0.00000000    0.00002006
     atom   35 type  1   force =    -0.00000000    0.00000000   -0.00098873
     atom   36 type  2   force =    -0.00000000    0.00000000    0.00002006
     atom   37 type  1   force =     0.00000005   -0.00000003   -0.00098900
     atom   38 type  2   force =    -0.00000000   -0.00000000    0.00002004
     atom   39 type  1   force =    -0.00000005   -0.00000003   -0.00098886
     atom   40 type  2   force =     0.00000000   -0.00000000    0.00002006
     atom   41 type  1   force =     0.00000002   -0.00000001   -0.00098895
     atom   42 type  2   force =    -0.00000000   -0.00000000    0.00002006
     atom   43 type  1   force =     0.00000001    0.00000001   -0.00098880
     atom   44 type  2   force =     0.00000000   -0.00000000    0.00002006
     atom   45 type  1   force =     0.00000001   -0.00000000   -0.00098896
     atom   46 type  2   force =    -0.00000000   -0.00000000    0.00002005
     atom   47 type  1   force =    -0.00000008   -0.00000005   -0.00098876
     atom   48 type  2   force =     0.00000000   -0.00000000    0.00002006
     The Hubbard contrib.    to forces
     atom    1 type  1   force =     0.00000000    0.00000000    0.00000000
     atom    2 type  2   force =     0.00000000    0.00000000    0.00000000
     atom    3 type  1   force =     0.00000000    0.00000000    0.00000000
     atom    4 type  2   force =     0.00000000    0.00000000    0.00000000
     atom    5 type  1   force =     0.00000000    0.00000000    0.00000000
     atom    6 type  2   force =     0.00000000    0.00000000    0.00000000
     atom    7 type  1   force =     0.00000000    0.00000000    0.00000000
     atom    8 type  2   force =     0.00000000    0.00000000    0.00000000
     atom    9 type  1   force =     0.00000000    0.00000000    0.00000000
     atom   10 type  2   force =     0.00000000    0.00000000    0.00000000
     atom   11 type  1   force =     0.00000000    0.00000000    0.00000000
     atom   12 type  2   force =     0.00000000    0.00000000    0.00000000
     atom   13 type  1   force =     0.00000000    0.00000000    0.00000000
     atom   14 type  2   force =     0.00000000    0.00000000    0.00000000
     atom   15 type  1   force =     0.00000000    0.00000000    0.00000000
     atom   16 type  2   force =     0.00000000    0.00000000    0.00000000
     atom   17 type  1   force =     0.00000000    0.00000000    0.00000000
     atom   18 type  2   force =     0.00000000    0.00000000    0.00000000
     atom   19 type  1   force =     0.00000000    0.00000000    0.00000000
     atom   20 type  2   force =     0.00000000    0.00000000    0.00000000
     atom   21 type  1   force =     0.00000000    0.00000000    0.00000000
     atom   22 type  2   force =     0.00000000    0.00000000    0.00000000
     atom   23 type  1   force =     0.00000000    0.00000000    0.00000000
     atom   24 type  2   force =     0.00000000    0.00000000    0.00000000
     atom   25 type  1   force =     0.00000000    0.00000000    0.00000000
     atom   26 type  2   force =     0.00000000    0.00000000    0.00000000
     atom   27 type  1   force =     0.00000000    0.00000000    0.00000000
     atom   28 type  2   force =     0.00000000    0.00000000    0.00000000
     atom   29 type  1   force =     0.00000000    0.00000000    0.00000000
     atom   30 type  2   force =     0.00000000    0.00000000    0.00000000
     atom   31 type  1   force =     0.00000000    0.00000000    0.00000000
     atom   32 type  2   force =     0.00000000    0.00000000    0.00000000
     atom   33 type  1   force =     0.00000000    0.00000000    0.00000000
     atom   34 type  2   force =     0.00000000    0.00000000    0.00000000
     atom   35 type  1   force =     0.00000000    0.00000000    0.00000000
     atom   36 type  2   force =     0.00000000    0.00000000    0.00000000
     atom   37 type  1   force =     0.00000000    0.00000000    0.00000000
     atom   38 type  2   force =     0.00000000    0.00000000    0.00000000
     atom   39 type  1   force =     0.00000000    0.00000000    0.00000000
     atom   40 type  2   force =     0.00000000    0.00000000    0.00000000
     atom   41 type  1   force =     0.00000000    0.00000000    0.00000000
     atom   42 type  2   force =     0.00000000    0.00000000    0.00000000
     atom   43 type  1   force =     0.00000000    0.00000000    0.00000000
     atom   44 type  2   force =     0.00000000    0.00000000    0.00000000
     atom   45 type  1   force =     0.00000000    0.00000000    0.00000000
     atom   46 type  2   force =     0.00000000    0.00000000    0.00000000
     atom   47 type  1   force =     0.00000000    0.00000000    0.00000000
     atom   48 type  2   force =     0.00000000    0.00000000    0.00000000
     The SCF correction term to forces
     atom    1 type  1   force =     0.00000000   -0.00000000   -0.00000553
     atom    2 type  2   force =    -0.00000000   -0.00000037   -0.00000210
     atom    3 type  1   force =     0.00000000    0.00000156    0.00000092
     atom    4 type  2   force =     0.00000000   -0.00000000    0.00000098
     atom    5 type  1   force =     0.00000000   -0.00000000    0.00000588
     atom    6 type  2   force =    -0.00000000    0.00000063    0.00000358
     atom    7 type  1   force =    -0.00000000    0.00000065    0.00000092
     atom    8 type  2   force =     0.00000000   -0.00000000    0.00000068
     atom    9 type  1   force =     0.00000000   -0.00000000   -0.00000255
     atom   10 type  2   force =    -0.00000000   -0.00000012    0.00000007
     atom   11 type  1   force =    -0.00000000    0.00000239    0.00000229
     atom   12 type  2   force =     0.00000000   -0.00000000    0.00000037
     atom   13 type  1   force =    -0.00000111   -0.00000064   -0.00000756
     atom   14 type  2   force =    -0.00000032    0.00000018   -0.00000210
     atom   15 type  1   force =     0.00000135   -0.00000078    0.00000092
     atom   16 type  2   force =     0.00000029    0.00000017    0.00000183
     atom   17 type  1   force =    -0.00000023   -0.00000013    0.00000402
     atom   18 type  2   force =     0.00000055   -0.00000032    0.00000358
     atom   19 type  1   force =     0.00000057   -0.00000033    0.00000092
     atom   20 type  2   force =     0.00000042    0.00000024   -0.00000004
     atom   21 type  1   force =    -0.00000060   -0.00000035   -0.00000118
     atom   22 type  2   force =    -0.00000010    0.00000006    0.00000007
     atom   23 type  1   force =     0.00000207   -0.00000119    0.00000229
     atom   24 type  2   force =    -0.00000002   -0.00000001    0.00000015
     atom   25 type  1   force =     0.00000000    0.00000129   -0.00000756
     atom   26 type  2   force =    -0.00000000    0.00000000   -0.00000245
     atom   27 type  1   force =    -0.00000000   -0.00000000    0.00000036
     atom   28 type  2   force =     0.00000000   -0.00000033    0.00000183
     atom   29 type  1   force =     0.00000000    0.00000027    0.00000402
     atom   30 type  2   force =    -0.00000000    0.00000000    0.00000320
     atom   31 type  1   force =    -0.00000000    0.00000000   -0.00000040
     atom   32 type  2   force =     0.00000000   -0.00000048   -0.00000004
     atom   33 type  1   force =     0.00000000    0.00000070   -0.00000118
     atom   34 type  2   force =    -0.00000000    0.00000000   -0.00000007
     atom   35 type  1   force =    -0.00000000   -0.00000000    0.00000293
     atom   36 type  2   force =     0.00000000    0.00000003    0.00000015
     atom   37 type  1   force =     0.00000111   -0.00000064   -0.00000756
     atom   38 type  2   force =     0.00000032    0.00000018   -0.00000210
     atom   39 type  1   force =    -0.00000135   -0.00000078    0.00000092
     atom   40 type  2   force =    -0.00000029    0.00000017    0.00000183
     atom   41 type  1   force =     0.00000023   -0.00000013    0.00000402
     atom   42 type  2   force =    -0.00000055   -0.00000032    0.00000358
     atom   43 type  1   force =    -0.00000057   -0.00000033    0.00000092
     atom   44 type  2   force =    -0.00000042    0.00000024   -0.00000004
     atom   45 type  1   force =     0.00000060   -0.00000035   -0.00000118
     atom   46 type  2   force =     0.00000010    0.00000006    0.00000007
     atom   47 type  1   force =    -0.00000207   -0.00000119    0.00000229
     atom   48 type  2   force =     0.00000002   -0.00000001    0.00000015

     Total force =     0.009416     Total SCF correction =     0.000021

     Writing all to output data dir ./ZnO_223.save/

     General routines

     Parallel routines

   This run was terminated on:  23:36:24   3Jul2025

   JOB DONE.