     Program PWSCF v.7.2 starts on  3Jul2025 at 20: 0:48

     Reading input from ZnO-211.in
Warning: card &CELL ignored
Warning: card / ignored
Warning: card &FCP ignored
Warning: card / ignored
Warning: card &RISM ignored
Warning: card / ignored

     Current dimensions of program PWSCF are:
     Max number of different atomic species (ntypx) = 10
     Max number of k-points (npk) =  40000
     Max angular momentum in pseudopotentials (lmaxx) =  4
     file Zn.upf: wavefunction(s)  3D renormalized
     Found identity + ( -0.5000  0.0000  0.0000) symmetry
     This is a supercell, fractional translations are disabled
     Message from routine setup:
     using ibrav=0 with symmetry is DISCOURAGED, use correct ibrav instead

     K-points division:     npool     =       2
     R & G space division:  proc/nbgrp/npool/nimage =       8
     Subspace diagonalization in iterative solution of the eigenvalue problem:
     a serial algorithm will be used

     Using Slab Decomposition

     bravais-lattice index     =            0
     lattice parameter (alat)  =      12.3577  a.u.
     unit-cell volume          =     659.6057 (a.u.)^3
     number of atoms/cell      =            8
     number of atomic types    =            2
     number of electrons       =        72.00
     number of Kohn-Sham states=           36
     kinetic-energy cutoff     =      50.0000  Ry
     charge density cutoff     =     400.0000  Ry
     scf convergence threshold =      1.0E-08
     mixing beta               =       0.3000
     number of iterations used =            8  plain     mixing
     Exchange-correlation= PBE
                           (   1   4   3   4   0   0   0)

     celldm(1)=  12.357708  celldm(2)=   0.000000  celldm(3)=   0.000000
     celldm(4)=   0.000000  celldm(5)=   0.000000  celldm(6)=   0.000000

     crystal axes: (cart. coord. in units of alat)
               a(1) = (   1.000000   0.000000   0.000000 )
               a(2) = (  -0.250000   0.433013   0.000000 )
               a(3) = (   0.000000   0.000000   0.807179 )

     reciprocal axes: (cart. coord. in units 2 pi/alat)
               b(1) = (  1.000000  0.577350 -0.000000 )
               b(2) = (  0.000000  2.309401  0.000000 )
               b(3) = (  0.000000 -0.000000  1.238882 )

     PseudoPot. # 1 for Zn read from file:
     ../pseudos/Zn.upf
     MD5 check sum: 7f56cabf9682ed8c977c2f7d0c5985c5
     Pseudo is Ultrasoft + core correction, Zval = 12.0
     Generated using &quot;atomic&quot; code by A. Dal Corso  v.6.2.2
     Using radial grid of 1201 points,  6 beta functions with:
                l(1) =   0
                l(2) =   0
                l(3) =   1
                l(4) =   1
                l(5) =   2
                l(6) =   2
     Q(r) pseudized with 0 coefficients

     PseudoPot. # 2 for O  read from file:
     ../pseudos/O.upf
     MD5 check sum: 91400c9766925bcf19f520983a725ff0
     Pseudo is Ultrasoft + core correction, Zval =  6.0
     Generated using &quot;atomic&quot; code by A. Dal Corso  v.6.3MaX
     Using radial grid of 1095 points,  4 beta functions with:
                l(1) =   0
                l(2) =   0
                l(3) =   1
                l(4) =   1
     Q(r) pseudized with 0 coefficients

     atomic species   valence    mass     pseudopotential
        Zn            12.00    65.38000     Zn( 1.00)
        O              6.00    15.99900     O ( 1.00)

      2 Sym. Ops. (no inversion) found

   Cartesian axes

     site n.     atom                  positions (alat units)
         1           Zn  tau(   1) = (   0.0000000   0.0000000   0.0000000  )
         2           O   tau(   2) = (   0.0000000   0.2886751   0.0985546  )
         3           Zn  tau(   3) = (   0.0000000   0.2886751   0.4035896  )
         4           O   tau(   4) = (   0.0000000   0.0000000   0.5021442  )
         5           Zn  tau(   5) = (   0.5000000   0.0000000   0.0000000  )
         6           O   tau(   6) = (   0.5000000   0.2886751   0.0985546  )
         7           Zn  tau(   7) = (   0.5000000   0.2886751   0.4035896  )
         8           O   tau(   8) = (   0.5000000   0.0000000   0.5021442  )

     number of k points=    80
                       cart. coord. in units 2pi/alat
        k(    1) = (   0.0000000   0.0000000   0.0000000), wk =   0.0092593
        k(    2) = (   0.0000000   0.0000000   0.2064804), wk =   0.0185185
        k(    3) = (   0.0000000   0.0000000   0.4129608), wk =   0.0185185
        k(    4) = (   0.0000000   0.0000000  -0.6194412), wk =   0.0092593
        k(    5) = (   0.0000000   0.3849002   0.0000000), wk =   0.0370370
        k(    6) = (   0.0000000   0.3849002   0.2064804), wk =   0.0370370
        k(    7) = (   0.0000000   0.3849002   0.4129608), wk =   0.0370370
        k(    8) = (   0.0000000   0.3849002  -0.6194412), wk =   0.0370370
        k(    9) = (   0.0000000   0.7698004   0.0000000), wk =   0.0370370
        k(   10) = (   0.0000000   0.7698004   0.2064804), wk =   0.0370370
        k(   11) = (   0.0000000   0.7698004   0.4129608), wk =   0.0370370
        k(   12) = (   0.0000000   0.7698004  -0.6194412), wk =   0.0370370
        k(   13) = (   0.0000000  -1.1547005   0.0000000), wk =   0.0092593
        k(   14) = (   0.0000000  -1.1547005   0.2064804), wk =   0.0185185
        k(   15) = (   0.0000000  -1.1547005   0.4129608), wk =   0.0185185
        k(   16) = (   0.0000000  -1.1547005  -0.6194412), wk =   0.0092593
        k(   17) = (   0.1666667   0.0962250   0.0000000), wk =   0.0185185
        k(   18) = (   0.1666667   0.0962250   0.2064804), wk =   0.0185185
        k(   19) = (   0.1666667   0.0962250   0.4129608), wk =   0.0185185
        k(   20) = (   0.1666667   0.0962250  -0.6194412), wk =   0.0185185
        k(   21) = (   0.1666667   0.4811252   0.0000000), wk =   0.0370370
        k(   22) = (   0.1666667   0.4811252   0.2064804), wk =   0.0370370
        k(   23) = (   0.1666667   0.4811252   0.4129608), wk =   0.0370370
        k(   24) = (   0.1666667   0.4811252  -0.6194412), wk =   0.0370370
        k(   25) = (   0.1666667   0.8660254   0.0000000), wk =   0.0185185
        k(   26) = (   0.1666667   0.8660254   0.2064804), wk =   0.0370370
        k(   27) = (   0.1666667   0.8660254   0.4129608), wk =   0.0370370
        k(   28) = (   0.1666667   0.8660254  -0.6194412), wk =   0.0185185
        k(   29) = (   0.1666667  -1.0584755   0.0000000), wk =   0.0185185
        k(   30) = (   0.1666667  -1.0584755   0.2064804), wk =   0.0185185
        k(   31) = (   0.1666667  -1.0584755   0.4129608), wk =   0.0185185
        k(   32) = (   0.1666667  -1.0584755  -0.6194412), wk =   0.0185185
        k(   33) = (   0.1666667  -0.6735753   0.0000000), wk =   0.0370370
        k(   34) = (   0.1666667  -0.6735753   0.2064804), wk =   0.0370370
        k(   35) = (   0.1666667  -0.6735753   0.4129608), wk =   0.0370370
        k(   36) = (   0.1666667  -0.6735753  -0.6194412), wk =   0.0370370
        k(   37) = (   0.1666667  -0.2886751   0.0000000), wk =   0.0185185
        k(   38) = (   0.1666667  -0.2886751   0.2064804), wk =   0.0370370
        k(   39) = (   0.1666667  -0.2886751   0.4129608), wk =   0.0370370
        k(   40) = (   0.1666667  -0.2886751  -0.6194412), wk =   0.0185185
        k(   41) = (   0.3333333   0.1924501   0.0000000), wk =   0.0185185
        k(   42) = (   0.3333333   0.1924501   0.2064804), wk =   0.0185185
        k(   43) = (   0.3333333   0.1924501   0.4129608), wk =   0.0185185
        k(   44) = (   0.3333333   0.1924501  -0.6194412), wk =   0.0185185
        k(   45) = (   0.3333333   0.5773503   0.0000000), wk =   0.0185185
        k(   46) = (   0.3333333   0.5773503   0.2064804), wk =   0.0370370
        k(   47) = (   0.3333333   0.5773503   0.4129608), wk =   0.0370370
        k(   48) = (   0.3333333   0.5773503  -0.6194412), wk =   0.0185185
        k(   49) = (   0.3333333  -0.9622504   0.0000000), wk =   0.0185185
        k(   50) = (   0.3333333  -0.9622504   0.2064804), wk =   0.0185185
        k(   51) = (   0.3333333  -0.9622504   0.4129608), wk =   0.0185185
        k(   52) = (   0.3333333  -0.9622504  -0.6194412), wk =   0.0185185
        k(   53) = (   0.3333333  -0.5773503   0.0000000), wk =   0.0185185
        k(   54) = (   0.3333333  -0.5773503   0.2064804), wk =   0.0370370
        k(   55) = (   0.3333333  -0.5773503   0.4129608), wk =   0.0370370
        k(   56) = (   0.3333333  -0.5773503  -0.6194412), wk =   0.0185185
        k(   57) = (  -0.5000000  -0.2886751   0.0000000), wk =   0.0092593
        k(   58) = (  -0.5000000  -0.2886751   0.2064804), wk =   0.0185185
        k(   59) = (  -0.5000000  -0.2886751   0.4129608), wk =   0.0185185
        k(   60) = (  -0.5000000  -0.2886751  -0.6194412), wk =   0.0092593
[...]
        k(   66) = (   0.3333333  -0.1924501  -0.4129608), wk =   0.0370370
        k(   67) = (   0.6666667  -0.3849002  -0.2064804), wk =   0.0370370
        k(   68) = (   0.6666667  -0.3849002  -0.4129608), wk =   0.0370370
        k(   69) = (   0.1666667   0.0962250  -0.2064804), wk =   0.0185185
        k(   70) = (   0.1666667   0.0962250  -0.4129608), wk =   0.0185185
        k(   71) = (   0.5000000  -0.0962250  -0.2064804), wk =   0.0370370
        k(   72) = (   0.5000000  -0.0962250  -0.4129608), wk =   0.0370370
        k(   73) = (  -0.8333333   0.6735753  -0.2064804), wk =   0.0185185
        k(   74) = (  -0.8333333   0.6735753  -0.4129608), wk =   0.0185185
        k(   75) = (  -0.5000000   0.4811252  -0.2064804), wk =   0.0370370
        k(   76) = (  -0.5000000   0.4811252  -0.4129608), wk =   0.0370370
        k(   77) = (   0.3333333   0.1924501  -0.2064804), wk =   0.0185185
        k(   78) = (   0.3333333   0.1924501  -0.4129608), wk =   0.0185185
        k(   79) = (  -0.6666667   0.7698004  -0.2064804), wk =   0.0185185
        k(   80) = (  -0.6666667   0.7698004  -0.4129608), wk =   0.0185185

     Check: negative core charge=   -0.000002

     Initial potential from superposition of free atoms

     starting charge      71.9851, renormalised to      72.0000
     Starting wfcs are   52 randomized atomic wfcs

     Self-consistent Calculation

     iteration #  1     ecut=    50.00 Ry     beta= 0.30
     Davidson diagonalization with overlap
     ethr =  1.00E-02,  avg # of iterations =  2.0

     total energy              =    -722.96002833 Ry
     estimated scf accuracy    <       1.38376942 Ry

[...]

     total energy              =    -723.27394093 Ry
     estimated scf accuracy    <       0.00000001 Ry

     iteration # 29     ecut=    50.00 Ry     beta= 0.30
     Davidson diagonalization with overlap
     ethr =  1.43E-11,  avg # of iterations =  1.2

     End of self-consistent calculation

          k = 0.0000 0.0000 0.0000 (  3907 PWs)   bands (ev):

   -10.9997 -10.3510 -10.3185 -10.1422   1.1132   1.3201   1.3203   1.3274
     1.3439   1.4308   1.5104   1.5105   1.5573   1.9240   1.9503   2.0816
     2.4266   2.4266   2.4599   2.5909   2.6239   2.6239   2.6694   2.7412
     2.8835   3.2017   3.4444   4.1336   4.7091   5.6332   6.0935   6.1128
     6.1131   6.8092   6.8841   6.8845

[...]

          k =-0.5000-0.2887 0.0000 (  3912 PWs)   bands (ev):

[...]

          k = 0.3333 0.1925-0.4130 (  3933 PWs)   bands (ev):

[...]

          k =-0.6667 0.7698-0.4130 (  3952 PWs)   bands (ev):

   -10.2978 -10.2978 -10.1874 -10.1874   1.1013   1.1013   1.1946   1.1946
     1.5802   1.5802   1.7308   1.7308   1.8899   1.8899   1.9135   1.9135
     2.4931   2.4931   2.5661   2.5661   2.6911   2.6911   2.8107   2.8107
     3.2561   3.2561   3.5955   3.5955   4.5361   4.5361   5.0794   5.0794
     5.3867   5.3867   5.8401   5.8402

     highest occupied level (ev):     6.8845

!    total energy              =    -723.27394092 Ry
     estimated scf accuracy    <          5.9E-09 Ry

     The total energy is the sum of the following terms:
     one-electron contribution =    -309.04537688 Ry
     hartree contribution      =     236.57144849 Ry
     xc contribution           =    -219.09088912 Ry
     ewald contribution        =    -431.70912341 Ry

     convergence has been achieved in  29 iterations

     Forces acting on atoms (cartesian axes, Ry/au):

     atom    1 type  1   force =    -0.00000781   -0.00000451    0.00135115
     atom    2 type  2   force =    -0.00000263   -0.00000152   -0.00135453
     atom    3 type  1   force =     0.00000632    0.00000365    0.00135534
     atom    4 type  2   force =     0.00000119    0.00000069   -0.00135495
     atom    5 type  1   force =    -0.00000536   -0.00000310    0.00135179
     atom    6 type  2   force =    -0.00000173   -0.00000100   -0.00135421
     atom    7 type  1   force =     0.00000905    0.00000523    0.00136041
     atom    8 type  2   force =     0.00000098    0.00000057   -0.00135499
     The non-local contrib.  to forces
     atom    1 type  1   force =     0.00001676    0.00000968    0.01090273
     atom    2 type  2   force =    -0.00018124   -0.00010464   -0.00022267
     atom    3 type  1   force =    -0.00001640   -0.00000947    0.01090574
     atom    4 type  2   force =     0.00017976    0.00010379   -0.00022291
     atom    5 type  1   force =     0.00001728    0.00000998    0.01090269
     atom    6 type  2   force =    -0.00017833   -0.00010296   -0.00021990
     atom    7 type  1   force =    -0.00001709   -0.00000987    0.01090718
     atom    8 type  2   force =     0.00017899    0.00010334   -0.00022344
     The ionic contribution  to forces
     atom    1 type  1   force =    -0.00000000   -0.00000000   -0.02077733
     atom    2 type  2   force =     0.00000000    0.00000000    0.02077733
     atom    3 type  1   force =    -0.00000000    0.00000000   -0.02077733
     atom    4 type  2   force =    -0.00000000   -0.00000000    0.02077733
     atom    5 type  1   force =     0.00000000   -0.00000000   -0.02077733
     atom    6 type  2   force =    -0.00000000    0.00000000    0.02077733
     atom    7 type  1   force =    -0.00000000    0.00000000   -0.02077733
     atom    8 type  2   force =    -0.00000000   -0.00000000    0.02077733
     The local contribution  to forces
     atom    1 type  1   force =    -0.00002802   -0.00001618    0.01222317
     atom    2 type  2   force =     0.00017866    0.00010315   -0.02192839
     atom    3 type  1   force =     0.00002628    0.00001518    0.01221613
     atom    4 type  2   force =    -0.00017458   -0.00010080   -0.02193344
     atom    5 type  1   force =    -0.00003037   -0.00001753    0.01222535
     atom    6 type  2   force =     0.00017482    0.00010093   -0.02193090
     atom    7 type  1   force =     0.00003006    0.00001736    0.01221185
     atom    8 type  2   force =    -0.00017745   -0.00010245   -0.02193205
     The core correction contribution to forces
     atom    1 type  1   force =     0.00000482    0.00000279   -0.00098657
     atom    2 type  2   force =     0.00000208    0.00000120    0.00002124
     atom    3 type  1   force =    -0.00000474   -0.00000274   -0.00098645
     atom    4 type  2   force =    -0.00000204   -0.00000118    0.00002123
     atom    5 type  1   force =     0.00000486    0.00000281   -0.00098674
     atom    6 type  2   force =     0.00000202    0.00000117    0.00002119
     atom    7 type  1   force =    -0.00000503   -0.00000290   -0.00098648
     atom    8 type  2   force =    -0.00000205   -0.00000118    0.00002125
     The Hubbard contrib.    to forces
     atom    1 type  1   force =     0.00000000    0.00000000    0.00000000
     atom    2 type  2   force =     0.00000000    0.00000000    0.00000000
     atom    3 type  1   force =     0.00000000    0.00000000    0.00000000
     atom    4 type  2   force =     0.00000000    0.00000000    0.00000000
     atom    5 type  1   force =     0.00000000    0.00000000    0.00000000
     atom    6 type  2   force =     0.00000000    0.00000000    0.00000000
     atom    7 type  1   force =     0.00000000    0.00000000    0.00000000
     atom    8 type  2   force =     0.00000000    0.00000000    0.00000000
     The SCF correction term to forces
     atom    1 type  1   force =    -0.00000083   -0.00000048   -0.00001017
     atom    2 type  2   force =    -0.00000158   -0.00000091   -0.00000136
     atom    3 type  1   force =     0.00000173    0.00000100   -0.00000208
     atom    4 type  2   force =    -0.00000140   -0.00000081    0.00000352
     atom    5 type  1   force =     0.00000341    0.00000197   -0.00001151
     atom    6 type  2   force =     0.00000030    0.00000017   -0.00000126
     atom    7 type  1   force =     0.00000165    0.00000095    0.00000586
     atom    8 type  2   force =     0.00000204    0.00000118    0.00000261

     Total force =     0.003832     Total SCF correction =     0.000018

     Writing all to output data dir ./ZnO_211.save/

     General routines

     Parallel routines

   This run was terminated on:  20: 4:21   3Jul2025

   JOB DONE.