     Program PWSCF v.7.2 starts on  3Jul2025 at 17:55:22

     Reading input from ZnO-131.in
Warning: card &CELL ignored
Warning: card / ignored
Warning: card &FCP ignored
Warning: card / ignored
Warning: card &RISM ignored
Warning: card / ignored

     Current dimensions of program PWSCF are:
     Max number of different atomic species (ntypx) = 10
     Max number of k-points (npk) =  40000
     Max angular momentum in pseudopotentials (lmaxx) =  4
     file Zn.upf: wavefunction(s)  3D renormalized
     Found identity + ( -0.0000  0.3333  0.0000) symmetry
     This is a supercell, fractional translations are disabled
     Message from routine setup:
     using ibrav=0 with symmetry is DISCOURAGED, use correct ibrav instead

     K-points division:     npool     =       2
     R & G space division:  proc/nbgrp/npool/nimage =       8
     Subspace diagonalization in iterative solution of the eigenvalue problem:
     a serial algorithm will be used

     Using Slab Decomposition

     bravais-lattice index     =            0
     lattice parameter (alat)  =       6.1789  a.u.
     unit-cell volume          =     989.4085 (a.u.)^3
     number of atoms/cell      =           12
     number of atomic types    =            2
     number of electrons       =       108.00
     number of Kohn-Sham states=           54
     kinetic-energy cutoff     =      50.0000  Ry
     charge density cutoff     =     400.0000  Ry
     scf convergence threshold =      1.0E-08
     mixing beta               =       0.3000
     number of iterations used =            8  plain     mixing
     Exchange-correlation= PBE
                           (   1   4   3   4   0   0   0)

     celldm(1)=   6.178854  celldm(2)=   0.000000  celldm(3)=   0.000000
     celldm(4)=   0.000000  celldm(5)=   0.000000  celldm(6)=   0.000000

     crystal axes: (cart. coord. in units of alat)
               a(1) = (   1.000000   0.000000   0.000000 )
               a(2) = (  -1.500000   2.598076   0.000000 )
               a(3) = (   0.000000   0.000000   1.614358 )

     reciprocal axes: (cart. coord. in units 2 pi/alat)
               b(1) = (  1.000000  0.577350 -0.000000 )
               b(2) = (  0.000000  0.384900  0.000000 )
               b(3) = (  0.000000 -0.000000  0.619441 )

     PseudoPot. # 1 for Zn read from file:
     ../pseudos/Zn.upf
     MD5 check sum: 7f56cabf9682ed8c977c2f7d0c5985c5
     Pseudo is Ultrasoft + core correction, Zval = 12.0
     Generated using &quot;atomic&quot; code by A. Dal Corso  v.6.2.2
     Using radial grid of 1201 points,  6 beta functions with:
                l(1) =   0
                l(2) =   0
                l(3) =   1
                l(4) =   1
                l(5) =   2
                l(6) =   2
     Q(r) pseudized with 0 coefficients

     PseudoPot. # 2 for O  read from file:
     ../pseudos/O.upf
     MD5 check sum: 91400c9766925bcf19f520983a725ff0
     Pseudo is Ultrasoft + core correction, Zval =  6.0
     Generated using &quot;atomic&quot; code by A. Dal Corso  v.6.3MaX
     Using radial grid of 1095 points,  4 beta functions with:
                l(1) =   0
                l(2) =   0
                l(3) =   1
                l(4) =   1
     Q(r) pseudized with 0 coefficients

     atomic species   valence    mass     pseudopotential
        Zn            12.00    65.38000     Zn( 1.00)
        O              6.00    15.99900     O ( 1.00)

      2 Sym. Ops. (no inversion) found

   Cartesian axes

     site n.     atom                  positions (alat units)
         1           Zn  tau(   1) = (   0.0000000   0.0000000   0.0000000  )
         2           O   tau(   2) = (   0.0000000   0.5773503   0.1971092  )
         3           Zn  tau(   3) = (   0.0000000   0.5773503   0.8071792  )
         4           O   tau(   4) = (   0.0000000   0.0000000   1.0042884  )
         5           Zn  tau(   5) = (  -0.5000000   0.8660254   0.0000000  )
         6           O   tau(   6) = (  -0.5000000   1.4433757   0.1971092  )
         7           Zn  tau(   7) = (  -0.5000000   1.4433757   0.8071792  )
         8           O   tau(   8) = (  -0.5000000   0.8660254   1.0042884  )
         9           Zn  tau(   9) = (  -1.0000000   1.7320508   0.0000000  )
        10           O   tau(  10) = (  -1.0000000   2.3094011   0.1971092  )
        11           Zn  tau(  11) = (  -1.0000000   2.3094011   0.8071792  )
        12           O   tau(  12) = (  -1.0000000   1.7320508   1.0042884  )

     number of k points=    68
                       cart. coord. in units 2pi/alat
        k(    1) = (   0.0000000   0.0000000   0.0000000), wk =   0.0092593
        k(    2) = (   0.0000000   0.0000000   0.1032402), wk =   0.0185185
        k(    3) = (   0.0000000   0.0000000   0.2064804), wk =   0.0185185
        k(    4) = (   0.0000000   0.0000000  -0.3097206), wk =   0.0092593
        k(    5) = (   0.0000000   0.0641500   0.0000000), wk =   0.0185185
        k(    6) = (   0.0000000   0.0641500   0.1032402), wk =   0.0185185
        k(    7) = (   0.0000000   0.0641500   0.2064804), wk =   0.0185185
        k(    8) = (   0.0000000   0.0641500  -0.3097206), wk =   0.0185185
        k(    9) = (   0.0000000   0.1283001   0.0000000), wk =   0.0185185
        k(   10) = (   0.0000000   0.1283001   0.1032402), wk =   0.0185185
        k(   11) = (   0.0000000   0.1283001   0.2064804), wk =   0.0185185
        k(   12) = (   0.0000000   0.1283001  -0.3097206), wk =   0.0185185
        k(   13) = (   0.0000000  -0.1924501   0.0000000), wk =   0.0092593
        k(   14) = (   0.0000000  -0.1924501   0.1032402), wk =   0.0185185
        k(   15) = (   0.0000000  -0.1924501   0.2064804), wk =   0.0185185
        k(   16) = (   0.0000000  -0.1924501  -0.3097206), wk =   0.0092593
        k(   17) = (   0.1666667   0.0962250   0.0000000), wk =   0.0370370
        k(   18) = (   0.1666667   0.0962250   0.1032402), wk =   0.0370370
        k(   19) = (   0.1666667   0.0962250   0.2064804), wk =   0.0370370
        k(   20) = (   0.1666667   0.0962250  -0.3097206), wk =   0.0370370
        k(   21) = (   0.1666667   0.1603751   0.0000000), wk =   0.0370370
        k(   22) = (   0.1666667   0.1603751   0.1032402), wk =   0.0370370
        k(   23) = (   0.1666667   0.1603751   0.2064804), wk =   0.0370370
        k(   24) = (   0.1666667   0.1603751  -0.3097206), wk =   0.0370370
        k(   25) = (   0.1666667  -0.0320750   0.0000000), wk =   0.0370370
        k(   26) = (   0.1666667  -0.0320750   0.1032402), wk =   0.0370370
        k(   27) = (   0.1666667  -0.0320750   0.2064804), wk =   0.0370370
        k(   28) = (   0.1666667  -0.0320750  -0.3097206), wk =   0.0370370
        k(   29) = (   0.3333333   0.1924501   0.0000000), wk =   0.0185185
        k(   30) = (   0.3333333   0.1924501   0.1032402), wk =   0.0370370
        k(   31) = (   0.3333333   0.1924501   0.2064804), wk =   0.0370370
        k(   32) = (   0.3333333   0.1924501  -0.3097206), wk =   0.0185185
        k(   33) = (   0.3333333   0.2566001   0.0000000), wk =   0.0370370
        k(   34) = (   0.3333333   0.2566001   0.1032402), wk =   0.0370370
        k(   35) = (   0.3333333   0.2566001   0.2064804), wk =   0.0370370
        k(   36) = (   0.3333333   0.2566001  -0.3097206), wk =   0.0370370
        k(   37) = (   0.3333333   0.3207501   0.0000000), wk =   0.0370370
        k(   38) = (   0.3333333   0.3207501   0.1032402), wk =   0.0370370
        k(   39) = (   0.3333333   0.3207501   0.2064804), wk =   0.0370370
        k(   40) = (   0.3333333   0.3207501  -0.3097206), wk =   0.0370370
        k(   41) = (   0.3333333   0.0000000   0.0000000), wk =   0.0185185
        k(   42) = (   0.3333333   0.0000000   0.1032402), wk =   0.0370370
        k(   43) = (   0.3333333   0.0000000   0.2064804), wk =   0.0370370
        k(   44) = (   0.3333333   0.0000000  -0.3097206), wk =   0.0185185
        k(   45) = (  -0.5000000  -0.2886751   0.0000000), wk =   0.0185185
        k(   46) = (  -0.5000000  -0.2886751   0.1032402), wk =   0.0370370
        k(   47) = (  -0.5000000  -0.2886751   0.2064804), wk =   0.0370370
        k(   48) = (  -0.5000000  -0.2886751  -0.3097206), wk =   0.0185185
        k(   49) = (  -0.5000000  -0.2245251   0.0000000), wk =   0.0370370
        k(   50) = (  -0.5000000  -0.2245251   0.1032402), wk =   0.0370370
        k(   51) = (  -0.5000000  -0.2245251   0.2064804), wk =   0.0370370
        k(   52) = (  -0.5000000  -0.2245251  -0.3097206), wk =   0.0370370
        k(   53) = (   0.0000000   0.0641500  -0.1032402), wk =   0.0185185
        k(   54) = (   0.0000000   0.0641500  -0.2064804), wk =   0.0185185
        k(   55) = (   0.0000000   0.1283001  -0.1032402), wk =   0.0185185
        k(   56) = (   0.0000000   0.1283001  -0.2064804), wk =   0.0185185
        k(   57) = (  -0.1666667   0.0962250  -0.1032402), wk =   0.0370370
        k(   58) = (  -0.1666667   0.0962250  -0.2064804), wk =   0.0370370
        k(   59) = (  -0.1666667   0.1603751  -0.1032402), wk =   0.0370370
        k(   60) = (  -0.1666667   0.1603751  -0.2064804), wk =   0.0370370
        k(   61) = (  -0.1666667  -0.0320750  -0.1032402), wk =   0.0370370
        k(   62) = (  -0.1666667  -0.0320750  -0.2064804), wk =   0.0370370
        k(   63) = (  -0.3333333   0.2566001  -0.1032402), wk =   0.0370370
        k(   64) = (  -0.3333333   0.2566001  -0.2064804), wk =   0.0370370
        k(   65) = (  -0.3333333   0.3207501  -0.1032402), wk =   0.0370370
        k(   66) = (  -0.3333333   0.3207501  -0.2064804), wk =   0.0370370
        k(   67) = (   0.5000000  -0.2245251  -0.1032402), wk =   0.0370370
        k(   68) = (   0.5000000  -0.2245251  -0.2064804), wk =   0.0370370

     Check: negative core charge=   -0.000002

     Initial potential from superposition of free atoms

     starting charge     107.9776, renormalised to     108.0000
     Starting wfcs are   78 randomized atomic wfcs

     Self-consistent Calculation

     iteration #  1     ecut=    50.00 Ry     beta= 0.30
     Davidson diagonalization with overlap
     ethr =  1.00E-02,  avg # of iterations =  2.0

     total energy              =   -1084.43875175 Ry
     estimated scf accuracy    <       2.07429136 Ry

[...]

     iteration # 20     ecut=    50.00 Ry     beta= 0.30
     Davidson diagonalization with overlap
     c_bands:  1 eigenvalues not converged
     c_bands:  1 eigenvalues not converged
     c_bands:  1 eigenvalues not converged
     ethr =  1.53E-08,  avg # of iterations = 14.2

[...]

     iteration # 23     ecut=    50.00 Ry     beta= 0.30
     Davidson diagonalization with overlap
     c_bands:  1 eigenvalues not converged
     ethr =  1.15E-10,  avg # of iterations = 12.4

[...]

     total energy              =   -1084.91089533 Ry
     estimated scf accuracy    <       0.00000032 Ry

     iteration # 25     ecut=    50.00 Ry     beta= 0.30
     Davidson diagonalization with overlap
     ethr =  1.15E-10,  avg # of iterations =  5.4

     End of self-consistent calculation

          k = 0.0000 0.0000 0.0000 (  5905 PWs)   bands (ev):

   -11.0000 -10.5489 -10.5489 -10.3188 -10.1589 -10.1589   1.0433   1.0433
     1.3200   1.3202   1.3438   1.3796   1.3796   1.4307   1.5103   1.5104
     1.5180   1.5180   1.7131   1.7131   1.9076   1.9076   2.0261   2.0261
     2.3520   2.3520   2.4266   2.4266   2.4986   2.4986   2.6239   2.6239
     2.6542   2.6542   2.8051   2.8051   2.8834   3.0763   3.0763   3.7888
     3.7888   4.6551   4.6551   5.0903   5.0903   6.0905   6.0905   6.1125
     6.1129   6.3083   6.3083   6.8090   6.8838   6.8843

[...]

          k =-0.5000-0.2887 0.0000 (  5910 PWs)   bands (ev):

[...]

          k =-0.3333 0.3208-0.2065 (  5916 PWs)   bands (ev):

[...]

          k = 0.5000-0.2245-0.2065 (  5932 PWs)   bands (ev):

   -10.2995 -10.2960 -10.2942 -10.1885 -10.1881 -10.1875   0.9944   1.0365
     1.0706   1.1300   1.1693   1.2180   1.5747   1.6147   1.6483   1.6665
     1.7963   1.8450   1.8768   1.8860   1.8872   1.9131   1.9165   1.9198
     2.4711   2.5338   2.5611   2.5769   2.5813   2.5935   2.6625   2.6820
     2.6950   2.7455   2.7792   2.8275   3.1471   3.1814   3.3290   3.3386
     3.4595   3.6896   4.3970   4.7351   4.9144   4.9953   5.1243   5.1314
     5.3287   5.5258   5.6803   5.8208   5.8339   5.8433

     highest occupied level (ev):     6.8843

!    total energy              =   -1084.91089540 Ry
     estimated scf accuracy    <          8.6E-10 Ry

     The total energy is the sum of the following terms:
     one-electron contribution =    -463.56769347 Ry
     hartree contribution      =     354.85679741 Ry
     xc contribution           =    -328.63631421 Ry
     ewald contribution        =    -647.56368512 Ry

     convergence has been achieved in  25 iterations

     Forces acting on atoms (cartesian axes, Ry/au):

     atom    1 type  1   force =     0.00000000    0.00000086    0.00135152
     atom    2 type  2   force =     0.00000000    0.00000127   -0.00135997
     atom    3 type  1   force =     0.00000000   -0.00002995    0.00134873
     atom    4 type  2   force =     0.00000000   -0.00000103   -0.00135970
     atom    5 type  1   force =     0.00000000    0.00000171    0.00137052
     atom    6 type  2   force =     0.00000000    0.00000229   -0.00136000
     atom    7 type  1   force =     0.00000000    0.00000246    0.00136285
     atom    8 type  2   force =     0.00000000   -0.00000114   -0.00135843
     atom    9 type  1   force =     0.00000000    0.00002804    0.00136555
     atom   10 type  2   force =     0.00000000    0.00000223   -0.00135939
     atom   11 type  1   force =     0.00000000   -0.00000531    0.00135694
     atom   12 type  2   force =     0.00000000   -0.00000142   -0.00135862
     The non-local contrib.  to forces
     atom    1 type  1   force =     0.00000000   -0.00001185    0.01091100
     atom    2 type  2   force =     0.00000000    0.00022648   -0.00020780
     atom    3 type  1   force =     0.00000000    0.00000164    0.01090871
     atom    4 type  2   force =     0.00000000   -0.00022200   -0.00020508
     atom    5 type  1   force =     0.00000000   -0.00001753    0.01091237
     atom    6 type  2   force =     0.00000000    0.00022231   -0.00020600
     atom    7 type  1   force =     0.00000000    0.00001581    0.01090955
     atom    8 type  2   force =     0.00000000   -0.00022032   -0.00019963
     atom    9 type  1   force =     0.00000000   -0.00000391    0.01091228
     atom   10 type  2   force =     0.00000000    0.00022230   -0.00020439
     atom   11 type  1   force =     0.00000000    0.00001421    0.01091338
     atom   12 type  2   force =     0.00000000   -0.00022902   -0.00020148
     The ionic contribution  to forces
     atom    1 type  1   force =    -0.00000000    0.00000000   -0.02077733
     atom    2 type  2   force =     0.00000000    0.00000000    0.02077733
     atom    3 type  1   force =     0.00000000    0.00000000   -0.02077733
     atom    4 type  2   force =    -0.00000000   -0.00000000    0.02077733
     atom    5 type  1   force =    -0.00000000    0.00000000   -0.02077733
     atom    6 type  2   force =    -0.00000000   -0.00000000    0.02077733
     atom    7 type  1   force =    -0.00000000   -0.00000000   -0.02077733
     atom    8 type  2   force =    -0.00000000    0.00000000    0.02077733
     atom    9 type  1   force =    -0.00000000   -0.00000000   -0.02077733
     atom   10 type  2   force =    -0.00000000    0.00000000    0.02077733
     atom   11 type  1   force =    -0.00000000   -0.00000000   -0.02077733
     atom   12 type  2   force =    -0.00000000   -0.00000000    0.02077733
     The local contribution  to forces
     atom    1 type  1   force =    -0.00000000    0.00002995    0.01221825
     atom    2 type  2   force =    -0.00000000   -0.00019848   -0.02196474
     atom    3 type  1   force =    -0.00000000    0.00000168    0.01222103
     atom    4 type  2   force =     0.00000000    0.00021263   -0.02196676
     atom    5 type  1   force =    -0.00000000    0.00003826    0.01220527
     atom    6 type  2   force =    -0.00000000   -0.00021900   -0.02196121
     atom    7 type  1   force =    -0.00000000   -0.00003683    0.01221402
     atom    8 type  2   force =     0.00000000    0.00021763   -0.02197621
     atom    9 type  1   force =    -0.00000000    0.00000391    0.01220786
     atom   10 type  2   force =    -0.00000000   -0.00021393   -0.02195942
     atom   11 type  1   force =    -0.00000000   -0.00003485    0.01220883
     atom   12 type  2   force =    -0.00000000    0.00020480   -0.02196956
     The core correction contribution to forces
     atom    1 type  1   force =     0.00000000   -0.00000663   -0.00098756
     atom    2 type  2   force =     0.00000000   -0.00000249    0.00002101
     atom    3 type  1   force =    -0.00000000    0.00000651   -0.00098739
     atom    4 type  2   force =     0.00000000    0.00000247    0.00002096
     atom    5 type  1   force =     0.00000000   -0.00000678   -0.00098750
     atom    6 type  2   force =     0.00000000   -0.00000249    0.00002099
     atom    7 type  1   force =     0.00000000    0.00000664   -0.00098745
     atom    8 type  2   force =     0.00000000    0.00000246    0.00002085
     atom    9 type  1   force =     0.00000000   -0.00000665   -0.00098750
     atom   10 type  2   force =     0.00000000   -0.00000248    0.00002098
     atom   11 type  1   force =     0.00000000    0.00000705   -0.00098733
     atom   12 type  2   force =     0.00000000    0.00000255    0.00002090
     The Hubbard contrib.    to forces
     atom    1 type  1   force =     0.00000000    0.00000000    0.00000000
     atom    2 type  2   force =     0.00000000    0.00000000    0.00000000
     atom    3 type  1   force =     0.00000000    0.00000000    0.00000000
     atom    4 type  2   force =     0.00000000    0.00000000    0.00000000
     atom    5 type  1   force =     0.00000000    0.00000000    0.00000000
     atom    6 type  2   force =     0.00000000    0.00000000    0.00000000
     atom    7 type  1   force =     0.00000000    0.00000000    0.00000000
     atom    8 type  2   force =     0.00000000    0.00000000    0.00000000
     atom    9 type  1   force =     0.00000000    0.00000000    0.00000000
     atom   10 type  2   force =     0.00000000    0.00000000    0.00000000
     atom   11 type  1   force =     0.00000000    0.00000000    0.00000000
     atom   12 type  2   force =     0.00000000    0.00000000    0.00000000
     The SCF correction term to forces
     atom    1 type  1   force =     0.00000000   -0.00001105   -0.00000576
     atom    2 type  2   force =    -0.00000000   -0.00002468    0.00002131
     atom    3 type  1   force =    -0.00000000   -0.00004023   -0.00000920
     atom    4 type  2   force =     0.00000000    0.00000543    0.00002094
     atom    5 type  1   force =     0.00000000   -0.00001269    0.00002479
     atom    6 type  2   force =    -0.00000000    0.00000103    0.00001598
     atom    7 type  1   force =    -0.00000000    0.00001639    0.00001114
     atom    8 type  2   force =     0.00000000   -0.00000136    0.00002631
     atom    9 type  1   force =     0.00000000    0.00003424    0.00001732
     atom   10 type  2   force =    -0.00000000   -0.00000410    0.00001319
     atom   11 type  1   force =    -0.00000000    0.00000784    0.00000647
     atom   12 type  2   force =     0.00000000    0.00001982    0.00002126

     Total force =     0.004709     Total SCF correction =     0.000090

     Writing all to output data dir ./ZnO_131.save/

     General routines

     Parallel routines

   This run was terminated on:  18: 3:30   3Jul2025

   JOB DONE.