     Program PWSCF v.7.2 starts on  3Jul2025 at 16:33:48

     Reading input from ZnO-112.in
Warning: card &CELL ignored
Warning: card / ignored
Warning: card &FCP ignored
Warning: card / ignored
Warning: card &RISM ignored
Warning: card / ignored

     Current dimensions of program PWSCF are:
     Max number of different atomic species (ntypx) = 10
     Max number of k-points (npk) =  40000
     Max angular momentum in pseudopotentials (lmaxx) =  4
     file Zn.upf: wavefunction(s)  3D renormalized
     Found identity + (  0.0000  0.0000  0.5000) symmetry
     This is a supercell, fractional translations are disabled
     Message from routine setup:
     using ibrav=0 with symmetry is DISCOURAGED, use correct ibrav instead

     K-points division:     npool     =       2
     R & G space division:  proc/nbgrp/npool/nimage =       8
     Subspace diagonalization in iterative solution of the eigenvalue problem:
     a serial algorithm will be used

     Using Slab Decomposition

     bravais-lattice index     =            0
     lattice parameter (alat)  =       6.1789  a.u.
     unit-cell volume          =     659.6057 (a.u.)^3
     number of atoms/cell      =            8
     number of atomic types    =            2
     number of electrons       =        72.00
     number of Kohn-Sham states=           36
     kinetic-energy cutoff     =      50.0000  Ry
     charge density cutoff     =     400.0000  Ry
     scf convergence threshold =      1.0E-08
     mixing beta               =       0.3000
     number of iterations used =            8  plain     mixing
     Exchange-correlation= PBE
                           (   1   4   3   4   0   0   0)

     celldm(1)=   6.178854  celldm(2)=   0.000000  celldm(3)=   0.000000
     celldm(4)=   0.000000  celldm(5)=   0.000000  celldm(6)=   0.000000

     crystal axes: (cart. coord. in units of alat)
               a(1) = (   1.000000   0.000000   0.000000 )
               a(2) = (  -0.500000   0.866025   0.000000 )
               a(3) = (   0.000000   0.000000   3.228717 )

     reciprocal axes: (cart. coord. in units 2 pi/alat)
               b(1) = (  1.000000  0.577350 -0.000000 )
               b(2) = (  0.000000  1.154701  0.000000 )
               b(3) = (  0.000000 -0.000000  0.309721 )

     PseudoPot. # 1 for Zn read from file:
     ../pseudos/Zn.upf
     MD5 check sum: 7f56cabf9682ed8c977c2f7d0c5985c5
     Pseudo is Ultrasoft + core correction, Zval = 12.0
     Generated using &quot;atomic&quot; code by A. Dal Corso  v.6.2.2
     Using radial grid of 1201 points,  6 beta functions with:
                l(1) =   0
                l(2) =   0
                l(3) =   1
                l(4) =   1
                l(5) =   2
                l(6) =   2
     Q(r) pseudized with 0 coefficients

     PseudoPot. # 2 for O  read from file:
     ../pseudos/O.upf
     MD5 check sum: 91400c9766925bcf19f520983a725ff0
     Pseudo is Ultrasoft + core correction, Zval =  6.0
     Generated using &quot;atomic&quot; code by A. Dal Corso  v.6.3MaX
     Using radial grid of 1095 points,  4 beta functions with:
                l(1) =   0
                l(2) =   0
                l(3) =   1
                l(4) =   1
     Q(r) pseudized with 0 coefficients

     atomic species   valence    mass     pseudopotential
        Zn            12.00    65.38000     Zn( 1.00)
        O              6.00    15.99900     O ( 1.00)

      6 Sym. Ops. (no inversion) found

   Cartesian axes

     site n.     atom                  positions (alat units)
         1           Zn  tau(   1) = (   0.0000000   0.0000000   0.0000000  )
         2           O   tau(   2) = (   0.0000000   0.5773503   0.1971092  )
         3           Zn  tau(   3) = (   0.0000000   0.5773503   0.8071792  )
         4           O   tau(   4) = (   0.0000000   0.0000000   1.0042884  )
         5           Zn  tau(   5) = (   0.0000000   0.0000000   1.6143584  )
         6           O   tau(   6) = (   0.0000000   0.5773503   1.8114676  )
         7           Zn  tau(   7) = (   0.0000000   0.5773503   2.4215375  )
         8           O   tau(   8) = (   0.0000000   0.0000000   2.6186467  )

     number of k points=    34
                       cart. coord. in units 2pi/alat
        k(    1) = (   0.0000000   0.0000000   0.0000000), wk =   0.0092593
        k(    2) = (   0.0000000   0.0000000   0.0516201), wk =   0.0185185
        k(    3) = (   0.0000000   0.0000000   0.1032402), wk =   0.0185185
        k(    4) = (   0.0000000   0.0000000  -0.1548603), wk =   0.0092593
        k(    5) = (   0.0000000   0.1924501   0.0000000), wk =   0.0555556
        k(    6) = (   0.0000000   0.1924501   0.0516201), wk =   0.0555556
        k(    7) = (   0.0000000   0.1924501   0.1032402), wk =   0.0555556
        k(    8) = (   0.0000000   0.1924501  -0.1548603), wk =   0.0555556
        k(    9) = (   0.0000000   0.3849002   0.0000000), wk =   0.0555556
        k(   10) = (   0.0000000   0.3849002   0.0516201), wk =   0.0555556
        k(   11) = (   0.0000000   0.3849002   0.1032402), wk =   0.0555556
        k(   12) = (   0.0000000   0.3849002  -0.1548603), wk =   0.0555556
        k(   13) = (   0.0000000  -0.5773503   0.0000000), wk =   0.0277778
        k(   14) = (   0.0000000  -0.5773503   0.0516201), wk =   0.0555556
        k(   15) = (   0.0000000  -0.5773503   0.1032402), wk =   0.0555556
        k(   16) = (   0.0000000  -0.5773503  -0.1548603), wk =   0.0277778
        k(   17) = (   0.1666667   0.2886751   0.0000000), wk =   0.0555556
        k(   18) = (   0.1666667   0.2886751   0.0516201), wk =   0.1111111
        k(   19) = (   0.1666667   0.2886751   0.1032402), wk =   0.1111111
        k(   20) = (   0.1666667   0.2886751  -0.1548603), wk =   0.0555556
        k(   21) = (   0.1666667   0.4811252   0.0000000), wk =   0.1111111
        k(   22) = (   0.1666667   0.4811252   0.0516201), wk =   0.1111111
        k(   23) = (   0.1666667   0.4811252   0.1032402), wk =   0.1111111
        k(   24) = (   0.1666667   0.4811252  -0.1548603), wk =   0.1111111
        k(   25) = (   0.3333333   0.5773503   0.0000000), wk =   0.0185185
        k(   26) = (   0.3333333   0.5773503   0.0516201), wk =   0.0370370
        k(   27) = (   0.3333333   0.5773503   0.1032402), wk =   0.0370370
        k(   28) = (   0.3333333   0.5773503  -0.1548603), wk =   0.0185185
        k(   29) = (   0.0000000  -0.1924501   0.0516201), wk =   0.0555556
        k(   30) = (   0.0000000  -0.1924501   0.1032402), wk =   0.0555556
        k(   31) = (   0.0000000  -0.3849002   0.0516201), wk =   0.0555556
        k(   32) = (   0.0000000  -0.3849002   0.1032402), wk =   0.0555556
        k(   33) = (  -0.1666667  -0.4811252   0.0516201), wk =   0.1111111
        k(   34) = (  -0.1666667  -0.4811252   0.1032402), wk =   0.1111111

     Check: negative core charge=   -0.000002

     Initial potential from superposition of free atoms

     starting charge      71.9851, renormalised to      72.0000
     Starting wfcs are   52 randomized atomic wfcs

     Self-consistent Calculation

     iteration #  1     ecut=    50.00 Ry     beta= 0.30
     Davidson diagonalization with overlap
     ethr =  1.00E-02,  avg # of iterations =  1.9

     total energy              =    -722.95892484 Ry
     estimated scf accuracy    <       1.38448272 Ry

[...]

     iteration # 24     ecut=    50.00 Ry     beta= 0.30
     Davidson diagonalization with overlap
     c_bands:  1 eigenvalues not converged
     ethr =  1.45E-07,  avg # of iterations = 13.0

[...]

     iteration # 28     ecut=    50.00 Ry     beta= 0.30
     Davidson diagonalization with overlap
     c_bands:  1 eigenvalues not converged
     ethr =  1.45E-09,  avg # of iterations = 12.4

[...]

     total energy              =    -723.27377502 Ry
     estimated scf accuracy    <       0.00000097 Ry

     iteration # 30     ecut=    50.00 Ry     beta= 0.30
     Davidson diagonalization with overlap
     ethr =  1.40E-10,  avg # of iterations =  8.0

     End of self-consistent calculation

          k = 0.0000 0.0000 0.0000 (  3879 PWs)   bands (ev):

   -10.9990 -10.6675 -10.6674 -10.3177   1.1185   1.1185   1.3208   1.3208
     1.3442   1.3921   1.3921   1.3922   1.3922   1.4311   1.5111   1.5111
     2.4271   2.4271   2.5462   2.5462   2.5462   2.5462   2.6244   2.6244
     2.8838   4.6590   4.6590   6.1138   6.1138   6.5042   6.5042   6.5043
     6.5043   6.8097   6.8852   6.8852

[...]

          k = 0.0000-0.3849 0.1032 (  3931 PWs)   bands (ev):

[...]

          k =-0.1667-0.4811 0.0516 (  3951 PWs)   bands (ev):

[...]

          k =-0.1667-0.4811 0.1032 (  3957 PWs)   bands (ev):

   -10.3411 -10.2971 -10.1866 -10.1502   1.1017   1.1766   1.1950   1.3757
     1.5615   1.5808   1.7313   1.7701   1.8904   1.9141   1.9764   2.0335
     2.4164   2.4936   2.5378   2.5666   2.6803   2.6916   2.8112   2.8693
     3.1145   3.2566   3.5961   3.7012   4.2097   4.5368   4.6123   5.0799
     5.3875   5.6057   5.7976   5.8406

     highest occupied level (ev):     6.8852

!    total energy              =    -723.27377517 Ry
     estimated scf accuracy    <          6.5E-09 Ry

     The total energy is the sum of the following terms:
     one-electron contribution =    -309.04836051 Ry
     hartree contribution      =     236.57557850 Ry
     xc contribution           =    -219.09186974 Ry
     ewald contribution        =    -431.70912341 Ry

     convergence has been achieved in  30 iterations

     Forces acting on atoms (cartesian axes, Ry/au):

     atom    1 type  1   force =     0.00000000    0.00000000    0.00130646
     atom    2 type  2   force =     0.00000000    0.00000000   -0.00132903
     atom    3 type  1   force =     0.00000000   -0.00000000    0.00136548
     atom    4 type  2   force =     0.00000000    0.00000000   -0.00132501
     atom    5 type  1   force =     0.00000000    0.00000000    0.00128493
     atom    6 type  2   force =     0.00000000    0.00000000   -0.00132506
     atom    7 type  1   force =     0.00000000   -0.00000000    0.00134748
     atom    8 type  2   force =     0.00000000    0.00000000   -0.00132525
     The non-local contrib.  to forces
     atom    1 type  1   force =     0.00000000    0.00000000    0.01094795
     atom    2 type  2   force =     0.00000000    0.00000000   -0.00032465
     atom    3 type  1   force =     0.00000000   -0.00000000    0.01096165
     atom    4 type  2   force =     0.00000000    0.00000000   -0.00032483
     atom    5 type  1   force =     0.00000000    0.00000000    0.01093794
     atom    6 type  2   force =     0.00000000    0.00000000   -0.00030716
     atom    7 type  1   force =     0.00000000    0.00000000    0.01096098
     atom    8 type  2   force =     0.00000000    0.00000000   -0.00032632
     The ionic contribution  to forces
     atom    1 type  1   force =    -0.00000000   -0.00000000   -0.02077733
     atom    2 type  2   force =     0.00000000    0.00000000    0.02077733
     atom    3 type  1   force =     0.00000000    0.00000000   -0.02077733
     atom    4 type  2   force =     0.00000000   -0.00000000    0.02077733
     atom    5 type  1   force =     0.00000000   -0.00000000   -0.02077733
     atom    6 type  2   force =     0.00000000    0.00000000    0.02077733
     atom    7 type  1   force =    -0.00000000    0.00000000   -0.02077733
     atom    8 type  2   force =     0.00000000   -0.00000000    0.02077733
     The local contribution  to forces
     atom    1 type  1   force =     0.00000000   -0.00000000    0.01216571
     atom    2 type  2   force =    -0.00000000    0.00000000   -0.02180504
     atom    3 type  1   force =    -0.00000000    0.00000001    0.01212198
     atom    4 type  2   force =    -0.00000000   -0.00000000   -0.02182981
     atom    5 type  1   force =     0.00000000   -0.00000000    0.01219021
     atom    6 type  2   force =    -0.00000000    0.00000000   -0.02181676
     atom    7 type  1   force =     0.00000000    0.00000001    0.01213113
     atom    8 type  2   force =     0.00000000    0.00000000   -0.02179671
     The core correction contribution to forces
     atom    1 type  1   force =    -0.00000000   -0.00000000   -0.00097722
     atom    2 type  2   force =     0.00000000   -0.00000000    0.00002242
     atom    3 type  1   force =     0.00000000    0.00000000   -0.00097737
     atom    4 type  2   force =     0.00000000   -0.00000000    0.00002238
     atom    5 type  1   force =     0.00000000   -0.00000000   -0.00097699
     atom    6 type  2   force =    -0.00000000   -0.00000000    0.00002213
     atom    7 type  1   force =    -0.00000000    0.00000000   -0.00097734
     atom    8 type  2   force =     0.00000000   -0.00000000    0.00002250
     The Hubbard contrib.    to forces
     atom    1 type  1   force =     0.00000000    0.00000000    0.00000000
     atom    2 type  2   force =     0.00000000    0.00000000    0.00000000
     atom    3 type  1   force =     0.00000000    0.00000000    0.00000000
     atom    4 type  2   force =     0.00000000    0.00000000    0.00000000
     atom    5 type  1   force =     0.00000000    0.00000000    0.00000000
     atom    6 type  2   force =     0.00000000    0.00000000    0.00000000
     atom    7 type  1   force =     0.00000000    0.00000000    0.00000000
     atom    8 type  2   force =     0.00000000    0.00000000    0.00000000
     The SCF correction term to forces
     atom    1 type  1   force =     0.00000000   -0.00000000   -0.00006159
     atom    2 type  2   force =    -0.00000000    0.00000000   -0.00000803
     atom    3 type  1   force =    -0.00000000    0.00000000    0.00002760
     atom    4 type  2   force =     0.00000000   -0.00000000    0.00002098
     atom    5 type  1   force =     0.00000000   -0.00000000   -0.00009784
     atom    6 type  2   force =    -0.00000000    0.00000000   -0.00000953
     atom    7 type  1   force =    -0.00000000    0.00000000    0.00000110
     atom    8 type  2   force =     0.00000000   -0.00000000   -0.00001099

     Total force =     0.003751     Total SCF correction =     0.000122

     Writing all to output data dir ./ZnO_112.save/

     General routines

     Parallel routines

   This run was terminated on:  16:35:36   3Jul2025

   JOB DONE.