     Program PWSCF v.7.2 starts on  3Jul2025 at 17: 3:22

     Reading input from ZnO-123.in
Warning: card &CELL ignored
Warning: card / ignored
Warning: card &FCP ignored
Warning: card / ignored
Warning: card &RISM ignored
Warning: card / ignored

     Current dimensions of program PWSCF are:
     Max number of different atomic species (ntypx) = 10
     Max number of k-points (npk) =  40000
     Max angular momentum in pseudopotentials (lmaxx) =  4
     file Zn.upf: wavefunction(s)  3D renormalized
     Found identity + (  0.0000  0.0000  0.3333) symmetry
     This is a supercell, fractional translations are disabled
     Message from routine setup:
     using ibrav=0 with symmetry is DISCOURAGED, use correct ibrav instead

     K-points division:     npool     =       2
     R & G space division:  proc/nbgrp/npool/nimage =       8
     Subspace diagonalization in iterative solution of the eigenvalue problem:
     a serial algorithm will be used

     Using Slab Decomposition

     bravais-lattice index     =            0
     lattice parameter (alat)  =       6.1789  a.u.
     unit-cell volume          =    1978.8170 (a.u.)^3
     number of atoms/cell      =           24
     number of atomic types    =            2
     number of electrons       =       216.00
     number of Kohn-Sham states=          108
     kinetic-energy cutoff     =      50.0000  Ry
     charge density cutoff     =     400.0000  Ry
     scf convergence threshold =      1.0E-08
     mixing beta               =       0.3000
     number of iterations used =            8  plain     mixing
     Exchange-correlation= PBE
                           (   1   4   3   4   0   0   0)

     celldm(1)=   6.178854  celldm(2)=   0.000000  celldm(3)=   0.000000
     celldm(4)=   0.000000  celldm(5)=   0.000000  celldm(6)=   0.000000

     crystal axes: (cart. coord. in units of alat)
               a(1) = (   1.000000   0.000000   0.000000 )
               a(2) = (  -1.000000   1.732051   0.000000 )
               a(3) = (   0.000000   0.000000   4.843075 )

     reciprocal axes: (cart. coord. in units 2 pi/alat)
               b(1) = (  1.000000  0.577350 -0.000000 )
               b(2) = (  0.000000  0.577350  0.000000 )
               b(3) = (  0.000000 -0.000000  0.206480 )

     PseudoPot. # 1 for Zn read from file:
     ../pseudos/Zn.upf
     MD5 check sum: 7f56cabf9682ed8c977c2f7d0c5985c5
     Pseudo is Ultrasoft + core correction, Zval = 12.0
     Generated using &quot;atomic&quot; code by A. Dal Corso  v.6.2.2
     Using radial grid of 1201 points,  6 beta functions with:
                l(1) =   0
                l(2) =   0
                l(3) =   1
                l(4) =   1
                l(5) =   2
                l(6) =   2
     Q(r) pseudized with 0 coefficients

     PseudoPot. # 2 for O  read from file:
     ../pseudos/O.upf
     MD5 check sum: 91400c9766925bcf19f520983a725ff0
     Pseudo is Ultrasoft + core correction, Zval =  6.0
     Generated using &quot;atomic&quot; code by A. Dal Corso  v.6.3MaX
     Using radial grid of 1095 points,  4 beta functions with:
                l(1) =   0
                l(2) =   0
                l(3) =   1
                l(4) =   1
     Q(r) pseudized with 0 coefficients

     atomic species   valence    mass     pseudopotential
        Zn            12.00    65.38000     Zn( 1.00)
        O              6.00    15.99900     O ( 1.00)

      2 Sym. Ops. (no inversion) found

   Cartesian axes

     site n.     atom                  positions (alat units)
         1           Zn  tau(   1) = (   0.0000000   0.0000000   0.0000000  )
         2           O   tau(   2) = (   0.0000000   0.5773503   0.1971092  )
         3           Zn  tau(   3) = (   0.0000000   0.5773503   0.8071792  )
         4           O   tau(   4) = (   0.0000000   0.0000000   1.0042884  )
         5           Zn  tau(   5) = (   0.0000000   0.0000000   1.6143584  )
         6           O   tau(   6) = (   0.0000000   0.5773503   1.8114676  )
         7           Zn  tau(   7) = (   0.0000000   0.5773503   2.4215375  )
         8           O   tau(   8) = (   0.0000000   0.0000000   2.6186467  )
         9           Zn  tau(   9) = (   0.0000000   0.0000000   3.2287167  )
        10           O   tau(  10) = (   0.0000000   0.5773503   3.4258259  )
        11           Zn  tau(  11) = (   0.0000000   0.5773503   4.0358959  )
        12           O   tau(  12) = (   0.0000000   0.0000000   4.2330051  )
        13           Zn  tau(  13) = (  -0.5000000   0.8660254   0.0000000  )
        14           O   tau(  14) = (  -0.5000000   1.4433757   0.1971092  )
        15           Zn  tau(  15) = (  -0.5000000   1.4433757   0.8071792  )
        16           O   tau(  16) = (  -0.5000000   0.8660254   1.0042884  )
        17           Zn  tau(  17) = (  -0.5000000   0.8660254   1.6143584  )
        18           O   tau(  18) = (  -0.5000000   1.4433757   1.8114676  )
        19           Zn  tau(  19) = (  -0.5000000   1.4433757   2.4215375  )
        20           O   tau(  20) = (  -0.5000000   0.8660254   2.6186467  )
        21           Zn  tau(  21) = (  -0.5000000   0.8660254   3.2287167  )
        22           O   tau(  22) = (  -0.5000000   1.4433757   3.4258259  )
        23           Zn  tau(  23) = (  -0.5000000   1.4433757   4.0358959  )
        24           O   tau(  24) = (  -0.5000000   0.8660254   4.2330051  )

     number of k points=    80
                       cart. coord. in units 2pi/alat
        k(    1) = (   0.0000000   0.0000000   0.0000000), wk =   0.0092593
        k(    2) = (   0.0000000   0.0000000   0.0344134), wk =   0.0185185
        k(    3) = (   0.0000000   0.0000000   0.0688268), wk =   0.0185185
        k(    4) = (   0.0000000   0.0000000  -0.1032402), wk =   0.0092593
        k(    5) = (   0.0000000   0.0962250   0.0000000), wk =   0.0185185
        k(    6) = (   0.0000000   0.0962250   0.0344134), wk =   0.0185185
        k(    7) = (   0.0000000   0.0962250   0.0688268), wk =   0.0185185
        k(    8) = (   0.0000000   0.0962250  -0.1032402), wk =   0.0185185
        k(    9) = (   0.0000000   0.1924501   0.0000000), wk =   0.0185185
        k(   10) = (   0.0000000   0.1924501   0.0344134), wk =   0.0185185
        k(   11) = (   0.0000000   0.1924501   0.0688268), wk =   0.0185185
        k(   12) = (   0.0000000   0.1924501  -0.1032402), wk =   0.0185185
        k(   13) = (   0.0000000  -0.2886751   0.0000000), wk =   0.0092593
        k(   14) = (   0.0000000  -0.2886751   0.0344134), wk =   0.0185185
        k(   15) = (   0.0000000  -0.2886751   0.0688268), wk =   0.0185185
        k(   16) = (   0.0000000  -0.2886751  -0.1032402), wk =   0.0092593
        k(   17) = (   0.1666667   0.0962250   0.0000000), wk =   0.0370370
        k(   18) = (   0.1666667   0.0962250   0.0344134), wk =   0.0370370
        k(   19) = (   0.1666667   0.0962250   0.0688268), wk =   0.0370370
        k(   20) = (   0.1666667   0.0962250  -0.1032402), wk =   0.0370370
        k(   21) = (   0.1666667   0.1924501   0.0000000), wk =   0.0370370
        k(   22) = (   0.1666667   0.1924501   0.0344134), wk =   0.0370370
        k(   23) = (   0.1666667   0.1924501   0.0688268), wk =   0.0370370
        k(   24) = (   0.1666667   0.1924501  -0.1032402), wk =   0.0370370
        k(   25) = (   0.1666667   0.2886751   0.0000000), wk =   0.0185185
        k(   26) = (   0.1666667   0.2886751   0.0344134), wk =   0.0370370
        k(   27) = (   0.1666667   0.2886751   0.0688268), wk =   0.0370370
        k(   28) = (   0.1666667   0.2886751  -0.1032402), wk =   0.0185185
        k(   29) = (   0.1666667   0.0000000   0.0000000), wk =   0.0185185
        k(   30) = (   0.1666667   0.0000000   0.0344134), wk =   0.0370370
        k(   31) = (   0.1666667   0.0000000   0.0688268), wk =   0.0370370
        k(   32) = (   0.1666667   0.0000000  -0.1032402), wk =   0.0185185
        k(   33) = (   0.3333333   0.1924501   0.0000000), wk =   0.0370370
        k(   34) = (   0.3333333   0.1924501   0.0344134), wk =   0.0370370
        k(   35) = (   0.3333333   0.1924501   0.0688268), wk =   0.0370370
        k(   36) = (   0.3333333   0.1924501  -0.1032402), wk =   0.0370370
        k(   37) = (   0.3333333   0.2886751   0.0000000), wk =   0.0185185
        k(   38) = (   0.3333333   0.2886751   0.0344134), wk =   0.0370370
        k(   39) = (   0.3333333   0.2886751   0.0688268), wk =   0.0370370
        k(   40) = (   0.3333333   0.2886751  -0.1032402), wk =   0.0185185
        k(   41) = (   0.3333333  -0.0962250   0.0000000), wk =   0.0370370
        k(   42) = (   0.3333333  -0.0962250   0.0344134), wk =   0.0370370
        k(   43) = (   0.3333333  -0.0962250   0.0688268), wk =   0.0370370
        k(   44) = (   0.3333333  -0.0962250  -0.1032402), wk =   0.0370370
        k(   45) = (   0.3333333  -0.0000000   0.0000000), wk =   0.0185185
        k(   46) = (   0.3333333  -0.0000000   0.0344134), wk =   0.0370370
        k(   47) = (   0.3333333  -0.0000000   0.0688268), wk =   0.0370370
        k(   48) = (   0.3333333  -0.0000000  -0.1032402), wk =   0.0185185
        k(   49) = (  -0.5000000  -0.2886751   0.0000000), wk =   0.0092593
        k(   50) = (  -0.5000000  -0.2886751   0.0344134), wk =   0.0185185
        k(   51) = (  -0.5000000  -0.2886751   0.0688268), wk =   0.0185185
        k(   52) = (  -0.5000000  -0.2886751  -0.1032402), wk =   0.0092593
        k(   53) = (  -0.5000000  -0.1924501   0.0000000), wk =   0.0185185
        k(   54) = (  -0.5000000  -0.1924501   0.0344134), wk =   0.0185185
        k(   55) = (  -0.5000000  -0.1924501   0.0688268), wk =   0.0185185
        k(   56) = (  -0.5000000  -0.1924501  -0.1032402), wk =   0.0185185
        k(   57) = (  -0.5000000  -0.0962250   0.0000000), wk =   0.0185185
        k(   58) = (  -0.5000000  -0.0962250   0.0344134), wk =   0.0185185
        k(   59) = (  -0.5000000  -0.0962250   0.0688268), wk =   0.0185185
        k(   60) = (  -0.5000000  -0.0962250  -0.1032402), wk =   0.0185185
[...]
        k(   66) = (   0.0000000   0.0962250  -0.0688268), wk =   0.0185185
        k(   67) = (   0.0000000   0.1924501  -0.0344134), wk =   0.0185185
        k(   68) = (   0.0000000   0.1924501  -0.0688268), wk =   0.0185185
        k(   69) = (  -0.1666667   0.0962250  -0.0344134), wk =   0.0370370
        k(   70) = (  -0.1666667   0.0962250  -0.0688268), wk =   0.0370370
        k(   71) = (  -0.1666667   0.1924501  -0.0344134), wk =   0.0370370
        k(   72) = (  -0.1666667   0.1924501  -0.0688268), wk =   0.0370370
        k(   73) = (  -0.3333333   0.1924501  -0.0344134), wk =   0.0370370
        k(   74) = (  -0.3333333   0.1924501  -0.0688268), wk =   0.0370370
        k(   75) = (  -0.3333333  -0.0962250  -0.0344134), wk =   0.0370370
        k(   76) = (  -0.3333333  -0.0962250  -0.0688268), wk =   0.0370370
        k(   77) = (   0.5000000  -0.1924501  -0.0344134), wk =   0.0185185
        k(   78) = (   0.5000000  -0.1924501  -0.0688268), wk =   0.0185185
        k(   79) = (   0.5000000  -0.0962250  -0.0344134), wk =   0.0185185
        k(   80) = (   0.5000000  -0.0962250  -0.0688268), wk =   0.0185185

[...]

[...]

     iteration # 15     ecut=    50.00 Ry     beta= 0.30
     Davidson diagonalization with overlap
     c_bands:  1 eigenvalues not converged
     c_bands:  1 eigenvalues not converged
     c_bands:  1 eigenvalues not converged
     c_bands:  1 eigenvalues not converged
     c_bands:  1 eigenvalues not converged
     ethr =  4.35E-08,  avg # of iterations = 13.7

[...]

     total energy              =   -2169.82183466 Ry
     estimated scf accuracy    <       0.00000015 Ry

     iteration # 33     ecut=    50.00 Ry     beta= 0.30
     Davidson diagonalization with overlap
     ethr =  1.17E-11,  avg # of iterations =  8.2

     End of self-consistent calculation

          k = 0.0000 0.0000 0.0000 ( 11743 PWs)   bands (ev):

   -10.9999 -10.8364 -10.8364 -10.4959 -10.4959 -10.3513 -10.3187 -10.2933
   -10.2933 -10.1886 -10.1886 -10.1424   0.9807   0.9807   1.0468   1.0468
     1.1131   1.1506   1.1507   1.1939   1.1939   1.3200   1.3202   1.3273
     1.3438   1.3501   1.3501   1.3503   1.3503   1.4306   1.4440   1.4440
     1.4441   1.4441   1.5103   1.5104   1.5572   1.6621   1.6621   1.8649
     1.8649   1.8695   1.8695   1.9205   1.9205   1.9239   1.9502   2.0815
     2.4265   2.4266   2.4598   2.4904   2.4904   2.4904   2.4904   2.5907
     2.5907   2.5907   2.5907   2.5908   2.5999   2.5999   2.6238   2.6239
     2.6246   2.6246   2.6319   2.6319   2.6693   2.7310   2.7310   2.7411
     2.8834   3.1452   3.1452   3.2016   3.2842   3.2842   3.4443   3.8709
     3.8709   4.1334   4.7090   5.0079   5.0079   5.0925   5.0925   5.4573
     5.4573   5.6330   5.7729   5.7729   5.7871   5.7871   6.0933   6.1126
     6.1130   6.3088   6.3088   6.3092   6.3092   6.6948   6.6948   6.6951
     6.6951   6.8090   6.8839   6.8843

[...]

          k =-0.5000-0.2887 0.0000 ( 11820 PWs)   bands (ev):

[...]

          k =-0.3333-0.0962-0.0688 ( 11835 PWs)   bands (ev):

[...]

          k = 0.5000-0.0962-0.0688 ( 11862 PWs)   bands (ev):

   -10.3512 -10.3512 -10.3299 -10.3299 -10.2604 -10.2604 -10.2220 -10.2220
   -10.1609 -10.1609 -10.1442 -10.1442   1.0759   1.0759   1.1051   1.1051
     1.1524   1.1524   1.1937   1.1937   1.3181   1.3181   1.4185   1.4185
     1.5589   1.5589   1.5689   1.5689   1.6295   1.6295   1.6879   1.6879
     1.7577   1.7577   1.7799   1.7799   1.8621   1.8621   1.8662   1.8662
     1.9422   1.9422   1.9915   1.9915   2.0081   2.0081   2.0724   2.0724
     2.4019   2.4019   2.4391   2.4391   2.5138   2.5138   2.5365   2.5365
     2.5531   2.5531   2.5603   2.5603   2.6805   2.6805   2.6808   2.6808
     2.7183   2.7183   2.7611   2.7611   2.8546   2.8546   2.8745   2.8745
     3.0884   3.0884   3.1530   3.1530   3.3708   3.3708   3.4865   3.4865
     3.6799   3.6799   3.7007   3.7007   4.1465   4.1465   4.3003   4.3003
     4.5043   4.5043   4.7542   4.7542   4.8015   4.8015   5.0588   5.0588
     5.5066   5.5066   5.5491   5.5491   5.6241   5.6241   5.7404   5.7404
     5.7905   5.7905   5.8200   5.8200

     highest occupied level (ev):     6.8843

!    total energy              =   -2169.82183470 Ry
     estimated scf accuracy    <          3.5E-10 Ry

     The total energy is the sum of the following terms:
     one-electron contribution =    -927.13538278 Ry
     hartree contribution      =     709.71354892 Ry
     xc contribution           =    -657.27263059 Ry
     ewald contribution        =   -1295.12737024 Ry

     convergence has been achieved in  33 iterations

     Forces acting on atoms (cartesian axes, Ry/au):

     atom    1 type  1   force =     0.00000000    0.00000678    0.00136014
     atom    2 type  2   force =     0.00000000    0.00000185   -0.00135237
     atom    3 type  1   force =     0.00000000   -0.00000705    0.00135818
     atom    4 type  2   force =     0.00000000   -0.00000180   -0.00135203
     atom    5 type  1   force =     0.00000000    0.00000887    0.00135249
     atom    6 type  2   force =     0.00000000    0.00000191   -0.00135178
     atom    7 type  1   force =     0.00000000   -0.00000753    0.00134601
     atom    8 type  2   force =     0.00000000   -0.00000171   -0.00135193
     atom    9 type  1   force =     0.00000000    0.00000701    0.00134474
     atom   10 type  2   force =     0.00000000    0.00000182   -0.00135216
     atom   11 type  1   force =     0.00000000   -0.00000678    0.00135154
     atom   12 type  2   force =     0.00000000   -0.00000173   -0.00135226
     atom   13 type  1   force =     0.00000000    0.00000867    0.00135897
     atom   14 type  2   force =     0.00000000    0.00000184   -0.00135224
     atom   15 type  1   force =     0.00000000   -0.00000859    0.00135768
     atom   16 type  2   force =     0.00000000   -0.00000182   -0.00135217
     atom   17 type  1   force =     0.00000000    0.00000704    0.00135246
     atom   18 type  2   force =     0.00000000    0.00000195   -0.00135191
     atom   19 type  1   force =     0.00000000   -0.00000832    0.00134720
     atom   20 type  2   force =     0.00000000   -0.00000184   -0.00135192
     atom   21 type  1   force =     0.00000000    0.00000865    0.00134491
     atom   22 type  2   force =     0.00000000    0.00000185   -0.00135198
     atom   23 type  1   force =     0.00000000   -0.00000926    0.00135081
     atom   24 type  2   force =     0.00000000   -0.00000183   -0.00135238
     The non-local contrib.  to forces
     atom    1 type  1   force =     0.00000000   -0.00002113    0.01090162
     atom    2 type  2   force =     0.00000000    0.00020414   -0.00018837
     atom    3 type  1   force =     0.00000000    0.00002094    0.01090058
     atom    4 type  2   force =     0.00000000   -0.00020449   -0.00018736
     atom    5 type  1   force =     0.00000000   -0.00002030    0.01089733
     atom    6 type  2   force =     0.00000000    0.00020456   -0.00018535
     atom    7 type  1   force =     0.00000000    0.00002075    0.01089383
     atom    8 type  2   force =     0.00000000   -0.00020448   -0.00018398
     atom    9 type  1   force =     0.00000000   -0.00002100    0.01089325
     atom   10 type  2   force =     0.00000000    0.00020463   -0.00018334
     atom   11 type  1   force =     0.00000000    0.00002126    0.01089735
     atom   12 type  2   force =     0.00000000   -0.00020429   -0.00018577
     atom   13 type  1   force =     0.00000000   -0.00002006    0.01090155
     atom   14 type  2   force =     0.00000000    0.00020504   -0.00018829
     atom   15 type  1   force =     0.00000000    0.00002019    0.01090032
     atom   16 type  2   force =     0.00000000   -0.00020459   -0.00018759
     atom   17 type  1   force =     0.00000000   -0.00002084    0.01089719
     atom   18 type  2   force =     0.00000000    0.00020502   -0.00018570
     atom   19 type  1   force =     0.00000000    0.00002033    0.01089435
     atom   20 type  2   force =     0.00000000   -0.00020467   -0.00018333
     atom   21 type  1   force =     0.00000000   -0.00002009    0.01089336
     atom   22 type  2   force =     0.00000000    0.00020469   -0.00018296
     atom   23 type  1   force =     0.00000000    0.00001991    0.01089722
     atom   24 type  2   force =     0.00000000   -0.00020491   -0.00018636
     The ionic contribution  to forces
     atom    1 type  1   force =    -0.00000000   -0.00000000   -0.02077733
     atom    2 type  2   force =     0.00000000    0.00000000    0.02077733
     atom    3 type  1   force =     0.00000000    0.00000000   -0.02077733
     atom    4 type  2   force =    -0.00000000   -0.00000000    0.02077733
     atom    5 type  1   force =    -0.00000000   -0.00000000   -0.02077733
     atom    6 type  2   force =    -0.00000000    0.00000000    0.02077733
     atom    7 type  1   force =     0.00000000    0.00000000   -0.02077733
     atom    8 type  2   force =    -0.00000000   -0.00000000    0.02077733
     atom    9 type  1   force =     0.00000000   -0.00000000   -0.02077733
     atom   10 type  2   force =     0.00000000    0.00000000    0.02077733
     atom   11 type  1   force =     0.00000000    0.00000000   -0.02077733
     atom   12 type  2   force =    -0.00000000   -0.00000000    0.02077733
     atom   13 type  1   force =     0.00000000    0.00000000   -0.02077733
     atom   14 type  2   force =    -0.00000000   -0.00000000    0.02077733
     atom   15 type  1   force =    -0.00000000   -0.00000000   -0.02077733
     atom   16 type  2   force =    -0.00000000    0.00000000    0.02077733
     atom   17 type  1   force =    -0.00000000    0.00000000   -0.02077733
     atom   18 type  2   force =     0.00000000   -0.00000000    0.02077733
     atom   19 type  1   force =    -0.00000000   -0.00000000   -0.02077733
     atom   20 type  2   force =    -0.00000000    0.00000000    0.02077733
     atom   21 type  1   force =     0.00000000    0.00000000   -0.02077733
     atom   22 type  2   force =     0.00000000   -0.00000000    0.02077733
     atom   23 type  1   force =    -0.00000000   -0.00000000   -0.02077733
     atom   24 type  2   force =    -0.00000000    0.00000000    0.02077733
     The local contribution  to forces
     atom    1 type  1   force =     0.00000000    0.00003525    0.01220819
     atom    2 type  2   force =     0.00000000   -0.00020150   -0.02196488
     atom    3 type  1   force =    -0.00000000   -0.00003517    0.01221093
     atom    4 type  2   force =    -0.00000000    0.00020090   -0.02196491
     atom    5 type  1   force =    -0.00000000    0.00003259    0.01221887
     atom    6 type  2   force =    -0.00000000   -0.00020122   -0.02196032
     atom    7 type  1   force =     0.00000000   -0.00003431    0.01222828
     atom    8 type  2   force =    -0.00000000    0.00020129   -0.02195650
     atom    9 type  1   force =    -0.00000000    0.00003538    0.01222991
     atom   10 type  2   force =     0.00000000   -0.00020107   -0.02195491
     atom   11 type  1   force =    -0.00000000   -0.00003597    0.01222052
     atom   12 type  2   force =    -0.00000000    0.00020156   -0.02196101
     atom   13 type  1   force =     0.00000000    0.00003273    0.01220941
     atom   14 type  2   force =     0.00000000   -0.00020009   -0.02196459
     atom   15 type  1   force =     0.00000000   -0.00003268    0.01221165
     atom   16 type  2   force =    -0.00000000    0.00020122   -0.02196445
     atom   17 type  1   force =    -0.00000000    0.00003522    0.01221913
     atom   18 type  2   force =     0.00000000   -0.00020119   -0.02196041
     atom   19 type  1   force =     0.00000000   -0.00003345    0.01222652
     atom   20 type  2   force =     0.00000000    0.00020087   -0.02195658
     atom   21 type  1   force =     0.00000000    0.00003244    0.01222984
     atom   22 type  2   force =     0.00000000   -0.00020098   -0.02195592
     atom   23 type  1   force =     0.00000000   -0.00003181    0.01222183
     atom   24 type  2   force =     0.00000000    0.00020066   -0.02196072
     The core correction contribution to forces
     atom    1 type  1   force =     0.00000000   -0.00000549   -0.00098505
     atom    2 type  2   force =     0.00000000   -0.00000233    0.00002083
     atom    3 type  1   force =     0.00000000    0.00000552   -0.00098497
     atom    4 type  2   force =    -0.00000000    0.00000233    0.00002082
     atom    5 type  1   force =     0.00000000   -0.00000547   -0.00098507
     atom    6 type  2   force =    -0.00000000   -0.00000233    0.00002079
     atom    7 type  1   force =     0.00000000    0.00000550   -0.00098507
     atom    8 type  2   force =    -0.00000000    0.00000233    0.00002079
     atom    9 type  1   force =     0.00000000   -0.00000553   -0.00098516
     atom   10 type  2   force =    -0.00000000   -0.00000233    0.00002078
     atom   11 type  1   force =     0.00000000    0.00000553   -0.00098510
     atom   12 type  2   force =    -0.00000000    0.00000233    0.00002080
     atom   13 type  1   force =     0.00000000   -0.00000549   -0.00098508
     atom   14 type  2   force =     0.00000000   -0.00000234    0.00002083
     atom   15 type  1   force =     0.00000000    0.00000547   -0.00098499
     atom   16 type  2   force =     0.00000000    0.00000234    0.00002082
     atom   17 type  1   force =     0.00000000   -0.00000553   -0.00098507
     atom   18 type  2   force =     0.00000000   -0.00000234    0.00002080
     atom   19 type  1   force =    -0.00000000    0.00000550   -0.00098504
     atom   20 type  2   force =     0.00000000    0.00000234    0.00002078
     atom   21 type  1   force =     0.00000000   -0.00000546   -0.00098518
     atom   22 type  2   force =     0.00000000   -0.00000234    0.00002077
     atom   23 type  1   force =     0.00000000    0.00000546   -0.00098516
     atom   24 type  2   force =     0.00000000    0.00000234    0.00002081
     The Hubbard contrib.    to forces
     atom    1 type  1   force =     0.00000000    0.00000000    0.00000000
     atom    2 type  2   force =     0.00000000    0.00000000    0.00000000
     atom    3 type  1   force =     0.00000000    0.00000000    0.00000000
     atom    4 type  2   force =     0.00000000    0.00000000    0.00000000
     atom    5 type  1   force =     0.00000000    0.00000000    0.00000000
     atom    6 type  2   force =     0.00000000    0.00000000    0.00000000
     atom    7 type  1   force =     0.00000000    0.00000000    0.00000000
     atom    8 type  2   force =     0.00000000    0.00000000    0.00000000
     atom    9 type  1   force =     0.00000000    0.00000000    0.00000000
     atom   10 type  2   force =     0.00000000    0.00000000    0.00000000
     atom   11 type  1   force =     0.00000000    0.00000000    0.00000000
     atom   12 type  2   force =     0.00000000    0.00000000    0.00000000
     atom   13 type  1   force =     0.00000000    0.00000000    0.00000000
     atom   14 type  2   force =     0.00000000    0.00000000    0.00000000
     atom   15 type  1   force =     0.00000000    0.00000000    0.00000000
     atom   16 type  2   force =     0.00000000    0.00000000    0.00000000
     atom   17 type  1   force =     0.00000000    0.00000000    0.00000000
     atom   18 type  2   force =     0.00000000    0.00000000    0.00000000
     atom   19 type  1   force =     0.00000000    0.00000000    0.00000000
     atom   20 type  2   force =     0.00000000    0.00000000    0.00000000
     atom   21 type  1   force =     0.00000000    0.00000000    0.00000000
     atom   22 type  2   force =     0.00000000    0.00000000    0.00000000
     atom   23 type  1   force =     0.00000000    0.00000000    0.00000000
     atom   24 type  2   force =     0.00000000    0.00000000    0.00000000
     The SCF correction term to forces
     atom    1 type  1   force =    -0.00000000   -0.00000187    0.00001584
     atom    2 type  2   force =    -0.00000000    0.00000151    0.00000586
     atom    3 type  1   force =     0.00000000    0.00000163    0.00001210
     atom    4 type  2   force =    -0.00000000   -0.00000058    0.00000522
     atom    5 type  1   force =    -0.00000000    0.00000201    0.00000182
     atom    6 type  2   force =    -0.00000000    0.00000088   -0.00000110
     atom    7 type  1   force =     0.00000000    0.00000049   -0.00001057
     atom    8 type  2   force =    -0.00000000   -0.00000088   -0.00000644
     atom    9 type  1   force =    -0.00000000   -0.00000187   -0.00001279
     atom   10 type  2   force =    -0.00000000    0.00000057   -0.00000889
     atom   11 type  1   force =     0.00000000    0.00000237   -0.00000077
     atom   12 type  2   force =    -0.00000000   -0.00000135   -0.00000048
     atom   13 type  1   force =    -0.00000000    0.00000146    0.00001354
     atom   14 type  2   force =    -0.00000000   -0.00000080    0.00000562
     atom   15 type  1   force =     0.00000000   -0.00000160    0.00001116
     atom   16 type  2   force =    -0.00000000   -0.00000082    0.00000485
     atom   17 type  1   force =    -0.00000000   -0.00000184    0.00000167
     atom   18 type  2   force =    -0.00000000    0.00000043   -0.00000080
     atom   19 type  1   force =     0.00000000   -0.00000073   -0.00000817
     atom   20 type  2   force =    -0.00000000   -0.00000040   -0.00000699
     atom   21 type  1   force =    -0.00000000    0.00000173   -0.00001265
     atom   22 type  2   force =    -0.00000000    0.00000045   -0.00000807
     atom   23 type  1   force =     0.00000000   -0.00000285   -0.00000262
     atom   24 type  2   force =    -0.00000000    0.00000005   -0.00000031

     Total force =     0.006624     Total SCF correction =     0.000040

     Writing all to output data dir ./ZnO_123.save/

     General routines

     Parallel routines

   This run was terminated on:  17:55:21   3Jul2025

   JOB DONE.