     Program PWSCF v.7.2 starts on  3Jul2025 at 16:35:37

     Reading input from ZnO-113.in
Warning: card &CELL ignored
Warning: card / ignored
Warning: card &FCP ignored
Warning: card / ignored
Warning: card &RISM ignored
Warning: card / ignored

     Current dimensions of program PWSCF are:
     Max number of different atomic species (ntypx) = 10
     Max number of k-points (npk) =  40000
     Max angular momentum in pseudopotentials (lmaxx) =  4
     file Zn.upf: wavefunction(s)  3D renormalized
     Found identity + (  0.0000  0.0000  0.3333) symmetry
     This is a supercell, fractional translations are disabled
     Message from routine setup:
     using ibrav=0 with symmetry is DISCOURAGED, use correct ibrav instead

     K-points division:     npool     =       2
     R & G space division:  proc/nbgrp/npool/nimage =       8
     Subspace diagonalization in iterative solution of the eigenvalue problem:
     a serial algorithm will be used

     Using Slab Decomposition

     bravais-lattice index     =            0
     lattice parameter (alat)  =       6.1789  a.u.
     unit-cell volume          =     989.4085 (a.u.)^3
     number of atoms/cell      =           12
     number of atomic types    =            2
     number of electrons       =       108.00
     number of Kohn-Sham states=           54
     kinetic-energy cutoff     =      50.0000  Ry
     charge density cutoff     =     400.0000  Ry
     scf convergence threshold =      1.0E-08
     mixing beta               =       0.3000
     number of iterations used =            8  plain     mixing
     Exchange-correlation= PBE
                           (   1   4   3   4   0   0   0)

     celldm(1)=   6.178854  celldm(2)=   0.000000  celldm(3)=   0.000000
     celldm(4)=   0.000000  celldm(5)=   0.000000  celldm(6)=   0.000000

     crystal axes: (cart. coord. in units of alat)
               a(1) = (   1.000000   0.000000   0.000000 )
               a(2) = (  -0.500000   0.866025   0.000000 )
               a(3) = (   0.000000   0.000000   4.843075 )

     reciprocal axes: (cart. coord. in units 2 pi/alat)
               b(1) = (  1.000000  0.577350 -0.000000 )
               b(2) = (  0.000000  1.154701  0.000000 )
               b(3) = (  0.000000 -0.000000  0.206480 )

     PseudoPot. # 1 for Zn read from file:
     ../pseudos/Zn.upf
     MD5 check sum: 7f56cabf9682ed8c977c2f7d0c5985c5
     Pseudo is Ultrasoft + core correction, Zval = 12.0
     Generated using &quot;atomic&quot; code by A. Dal Corso  v.6.2.2
     Using radial grid of 1201 points,  6 beta functions with:
                l(1) =   0
                l(2) =   0
                l(3) =   1
                l(4) =   1
                l(5) =   2
                l(6) =   2
     Q(r) pseudized with 0 coefficients

     PseudoPot. # 2 for O  read from file:
     ../pseudos/O.upf
     MD5 check sum: 91400c9766925bcf19f520983a725ff0
     Pseudo is Ultrasoft + core correction, Zval =  6.0
     Generated using &quot;atomic&quot; code by A. Dal Corso  v.6.3MaX
     Using radial grid of 1095 points,  4 beta functions with:
                l(1) =   0
                l(2) =   0
                l(3) =   1
                l(4) =   1
     Q(r) pseudized with 0 coefficients

     atomic species   valence    mass     pseudopotential
        Zn            12.00    65.38000     Zn( 1.00)
        O              6.00    15.99900     O ( 1.00)

      6 Sym. Ops. (no inversion) found

   Cartesian axes

     site n.     atom                  positions (alat units)
         1           Zn  tau(   1) = (   0.0000000   0.0000000   0.0000000  )
         2           O   tau(   2) = (   0.0000000   0.5773503   0.1971092  )
         3           Zn  tau(   3) = (   0.0000000   0.5773503   0.8071792  )
         4           O   tau(   4) = (   0.0000000   0.0000000   1.0042884  )
         5           Zn  tau(   5) = (   0.0000000   0.0000000   1.6143584  )
         6           O   tau(   6) = (   0.0000000   0.5773503   1.8114676  )
         7           Zn  tau(   7) = (   0.0000000   0.5773503   2.4215375  )
         8           O   tau(   8) = (   0.0000000   0.0000000   2.6186467  )
         9           Zn  tau(   9) = (   0.0000000   0.0000000   3.2287167  )
        10           O   tau(  10) = (   0.0000000   0.5773503   3.4258259  )
        11           Zn  tau(  11) = (   0.0000000   0.5773503   4.0358959  )
        12           O   tau(  12) = (   0.0000000   0.0000000   4.2330051  )

     number of k points=    34
                       cart. coord. in units 2pi/alat
        k(    1) = (   0.0000000   0.0000000   0.0000000), wk =   0.0092593
        k(    2) = (   0.0000000   0.0000000   0.0344134), wk =   0.0185185
        k(    3) = (   0.0000000   0.0000000   0.0688268), wk =   0.0185185
        k(    4) = (   0.0000000   0.0000000  -0.1032402), wk =   0.0092593
        k(    5) = (   0.0000000   0.1924501   0.0000000), wk =   0.0555556
        k(    6) = (   0.0000000   0.1924501   0.0344134), wk =   0.0555556
        k(    7) = (   0.0000000   0.1924501   0.0688268), wk =   0.0555556
        k(    8) = (   0.0000000   0.1924501  -0.1032402), wk =   0.0555556
        k(    9) = (   0.0000000   0.3849002   0.0000000), wk =   0.0555556
        k(   10) = (   0.0000000   0.3849002   0.0344134), wk =   0.0555556
        k(   11) = (   0.0000000   0.3849002   0.0688268), wk =   0.0555556
        k(   12) = (   0.0000000   0.3849002  -0.1032402), wk =   0.0555556
        k(   13) = (   0.0000000  -0.5773503   0.0000000), wk =   0.0277778
        k(   14) = (   0.0000000  -0.5773503   0.0344134), wk =   0.0555556
        k(   15) = (   0.0000000  -0.5773503   0.0688268), wk =   0.0555556
        k(   16) = (   0.0000000  -0.5773503  -0.1032402), wk =   0.0277778
        k(   17) = (   0.1666667   0.2886751   0.0000000), wk =   0.0555556
        k(   18) = (   0.1666667   0.2886751   0.0344134), wk =   0.1111111
        k(   19) = (   0.1666667   0.2886751   0.0688268), wk =   0.1111111
        k(   20) = (   0.1666667   0.2886751  -0.1032402), wk =   0.0555556
        k(   21) = (   0.1666667   0.4811252   0.0000000), wk =   0.1111111
        k(   22) = (   0.1666667   0.4811252   0.0344134), wk =   0.1111111
        k(   23) = (   0.1666667   0.4811252   0.0688268), wk =   0.1111111
        k(   24) = (   0.1666667   0.4811252  -0.1032402), wk =   0.1111111
        k(   25) = (   0.3333333   0.5773503   0.0000000), wk =   0.0185185
        k(   26) = (   0.3333333   0.5773503   0.0344134), wk =   0.0370370
        k(   27) = (   0.3333333   0.5773503   0.0688268), wk =   0.0370370
        k(   28) = (   0.3333333   0.5773503  -0.1032402), wk =   0.0185185
        k(   29) = (   0.0000000  -0.1924501   0.0344134), wk =   0.0555556
        k(   30) = (   0.0000000  -0.1924501   0.0688268), wk =   0.0555556
        k(   31) = (   0.0000000  -0.3849002   0.0344134), wk =   0.0555556
        k(   32) = (   0.0000000  -0.3849002   0.0688268), wk =   0.0555556
        k(   33) = (  -0.1666667  -0.4811252   0.0344134), wk =   0.1111111
        k(   34) = (  -0.1666667  -0.4811252   0.0688268), wk =   0.1111111

     Check: negative core charge=   -0.000002

     Initial potential from superposition of free atoms

     starting charge     107.9776, renormalised to     108.0000
     Starting wfcs are   78 randomized atomic wfcs

     Self-consistent Calculation

     iteration #  1     ecut=    50.00 Ry     beta= 0.30
     Davidson diagonalization with overlap
     ethr =  1.00E-02,  avg # of iterations =  2.0

     total energy              =   -1084.43868222 Ry
     estimated scf accuracy    <       2.07403754 Ry

[...]

     total energy              =   -1084.91065812 Ry
     estimated scf accuracy    <       0.00000006 Ry

     iteration # 41     ecut=    50.00 Ry     beta= 0.30
     Davidson diagonalization with overlap
     ethr =  1.10E-11,  avg # of iterations =  7.7

     End of self-consistent calculation

          k = 0.0000 0.0000 0.0000 (  5833 PWs)   bands (ev):

   -10.9990 -10.8354 -10.8354 -10.4949 -10.4949 -10.3177   1.1511   1.1511
     1.1943   1.1943   1.3208   1.3208   1.3442   1.3509   1.3509   1.3509
     1.3509   1.4311   1.4448   1.4448   1.4448   1.4448   1.5111   1.5111
     2.4271   2.4271   2.4909   2.4909   2.4909   2.4909   2.5912   2.5912
     2.5912   2.5912   2.6243   2.6243   2.8838   3.8714   3.8714   5.4579
     5.4579   6.1138   6.1138   6.3101   6.3101   6.3101   6.3101   6.6960
     6.6960   6.6960   6.6960   6.8097   6.8852   6.8852

[...]

          k = 0.0000-0.3849 0.0688 (  5908 PWs)   bands (ev):

[...]

          k =-0.1667-0.4811 0.0344 (  5923 PWs)   bands (ev):

[...]

          k =-0.1667-0.4811 0.0688 (  5931 PWs)   bands (ev):

   -10.3502 -10.3289 -10.2594 -10.2210 -10.1599 -10.1431   1.0764   1.1056
     1.1530   1.1943   1.3186   1.4191   1.5595   1.5695   1.6301   1.6885
     1.7583   1.7805   1.8627   1.8668   1.9428   1.9922   2.0087   2.0731
     2.4024   2.4397   2.5143   2.5370   2.5537   2.5608   2.6810   2.6813
     2.7189   2.7617   2.8552   2.8751   3.0891   3.1537   3.3715   3.4871
     3.6805   3.7013   4.1473   4.3012   4.5050   4.7549   4.8025   5.0598
     5.5073   5.5501   5.6250   5.7411   5.7914   5.8207

     highest occupied level (ev):     6.8852

!    total energy              =   -1084.91065813 Ry
     estimated scf accuracy    <          6.8E-10 Ry

     The total energy is the sum of the following terms:
     one-electron contribution =    -463.57187876 Ry
     hartree contribution      =     354.86242872 Ry
     xc contribution           =    -328.63752297 Ry
     ewald contribution        =    -647.56368512 Ry

     convergence has been achieved in  41 iterations

     Forces acting on atoms (cartesian axes, Ry/au):

     atom    1 type  1   force =     0.00000000   -0.00000000    0.00134395
     atom    2 type  2   force =     0.00000000    0.00000000   -0.00133893
     atom    3 type  1   force =     0.00000000   -0.00000000    0.00134873
     atom    4 type  2   force =     0.00000000   -0.00000000   -0.00133817
     atom    5 type  1   force =     0.00000000   -0.00000000    0.00133015
     atom    6 type  2   force =     0.00000000    0.00000000   -0.00133739
     atom    7 type  1   force =     0.00000000   -0.00000000    0.00132594
     atom    8 type  2   force =     0.00000000   -0.00000000   -0.00133669
     atom    9 type  1   force =     0.00000000   -0.00000000    0.00132998
     atom   10 type  2   force =     0.00000000    0.00000000   -0.00133736
     atom   11 type  1   force =     0.00000000   -0.00000000    0.00134811
     atom   12 type  2   force =     0.00000000   -0.00000000   -0.00133833
     The non-local contrib.  to forces
     atom    1 type  1   force =     0.00000000    0.00000000    0.01095533
     atom    2 type  2   force =     0.00000000    0.00000000   -0.00032760
     atom    3 type  1   force =     0.00000000    0.00000000    0.01095674
     atom    4 type  2   force =     0.00000000    0.00000000   -0.00032275
     atom    5 type  1   force =     0.00000000   -0.00000000    0.01094366
     atom    6 type  2   force =    -0.00000000   -0.00000000   -0.00031413
     atom    7 type  1   force =     0.00000000    0.00000000    0.01093997
     atom    8 type  2   force =     0.00000000    0.00000000   -0.00031027
     atom    9 type  1   force =     0.00000000    0.00000000    0.01094566
     atom   10 type  2   force =     0.00000000    0.00000000   -0.00032070
     atom   11 type  1   force =     0.00000000    0.00000000    0.01095694
     atom   12 type  2   force =     0.00000000    0.00000000   -0.00032590
     The ionic contribution  to forces
     atom    1 type  1   force =     0.00000000   -0.00000000   -0.02077733
     atom    2 type  2   force =     0.00000000    0.00000000    0.02077733
     atom    3 type  1   force =    -0.00000000    0.00000000   -0.02077733
     atom    4 type  2   force =     0.00000000   -0.00000000    0.02077733
     atom    5 type  1   force =    -0.00000000   -0.00000000   -0.02077733
     atom    6 type  2   force =     0.00000000    0.00000000    0.02077733
     atom    7 type  1   force =     0.00000000    0.00000000   -0.02077733
     atom    8 type  2   force =    -0.00000000   -0.00000000    0.02077733
     atom    9 type  1   force =     0.00000000   -0.00000000   -0.02077733
     atom   10 type  2   force =     0.00000000    0.00000000    0.02077733
     atom   11 type  1   force =     0.00000000    0.00000000   -0.02077733
     atom   12 type  2   force =    -0.00000000   -0.00000000    0.02077733
     The local contribution  to forces
     atom    1 type  1   force =     0.00000000    0.00000000    0.01213511
     atom    2 type  2   force =     0.00000000    0.00000000   -0.02181498
     atom    3 type  1   force =     0.00000000    0.00000001    0.01212603
     atom    4 type  2   force =     0.00000000    0.00000000   -0.02182107
     atom    5 type  1   force =     0.00000000   -0.00000000    0.01216163
     atom    6 type  2   force =    -0.00000000    0.00000000   -0.02181295
     atom    7 type  1   force =    -0.00000000    0.00000001    0.01216643
     atom    8 type  2   force =    -0.00000000   -0.00000000   -0.02180875
     atom    9 type  1   force =    -0.00000000    0.00000000    0.01216231
     atom   10 type  2   force =    -0.00000000    0.00000000   -0.02181322
     atom   11 type  1   force =    -0.00000000    0.00000001    0.01212670
     atom   12 type  2   force =     0.00000000    0.00000000   -0.02181569
     The core correction contribution to forces
     atom    1 type  1   force =     0.00000000    0.00000000   -0.00097741
     atom    2 type  2   force =    -0.00000000   -0.00000000    0.00002243
     atom    3 type  1   force =     0.00000000    0.00000000   -0.00097698
     atom    4 type  2   force =    -0.00000000   -0.00000000    0.00002235
     atom    5 type  1   force =     0.00000000   -0.00000000   -0.00097758
     atom    6 type  2   force =     0.00000000   -0.00000000    0.00002223
     atom    7 type  1   force =     0.00000000    0.00000000   -0.00097732
     atom    8 type  2   force =    -0.00000000   -0.00000000    0.00002219
     atom    9 type  1   force =     0.00000000   -0.00000000   -0.00097790
     atom   10 type  2   force =     0.00000000   -0.00000000    0.00002232
     atom   11 type  1   force =     0.00000000    0.00000000   -0.00097705
     atom   12 type  2   force =    -0.00000000   -0.00000000    0.00002241
     The Hubbard contrib.    to forces
     atom    1 type  1   force =     0.00000000    0.00000000    0.00000000
     atom    2 type  2   force =     0.00000000    0.00000000    0.00000000
     atom    3 type  1   force =     0.00000000    0.00000000    0.00000000
     atom    4 type  2   force =     0.00000000    0.00000000    0.00000000
     atom    5 type  1   force =     0.00000000    0.00000000    0.00000000
     atom    6 type  2   force =     0.00000000    0.00000000    0.00000000
     atom    7 type  1   force =     0.00000000    0.00000000    0.00000000
     atom    8 type  2   force =     0.00000000    0.00000000    0.00000000
     atom    9 type  1   force =     0.00000000    0.00000000    0.00000000
     atom   10 type  2   force =     0.00000000    0.00000000    0.00000000
     atom   11 type  1   force =     0.00000000    0.00000000    0.00000000
     atom   12 type  2   force =     0.00000000    0.00000000    0.00000000
     The SCF correction term to forces
     atom    1 type  1   force =     0.00000000    0.00000000    0.00001020
     atom    2 type  2   force =    -0.00000000    0.00000000    0.00000584
     atom    3 type  1   force =     0.00000000    0.00000000    0.00002222
     atom    4 type  2   force =    -0.00000000   -0.00000000    0.00000791
     atom    5 type  1   force =    -0.00000000    0.00000000   -0.00001829
     atom    6 type  2   force =     0.00000000    0.00000000   -0.00000792
     atom    7 type  1   force =     0.00000000    0.00000000   -0.00002387
     atom    8 type  2   force =    -0.00000000    0.00000000   -0.00001526
     atom    9 type  1   force =    -0.00000000    0.00000000   -0.00002081
     atom   10 type  2   force =     0.00000000   -0.00000000   -0.00000114
     atom   11 type  1   force =    -0.00000000    0.00000000    0.00002079
     atom   12 type  2   force =    -0.00000000   -0.00000000    0.00000546

     Total force =     0.004634     Total SCF correction =     0.000053

     Writing all to output data dir ./ZnO_113.save/

     General routines

     Parallel routines

   This run was terminated on:  16:40:23   3Jul2025

   JOB DONE.