     Program PWSCF v.7.2 starts on  4Jul2025 at  0:29: 0

     Reading input from ZnO-232.in
Warning: card &CELL ignored
Warning: card / ignored
Warning: card &FCP ignored
Warning: card / ignored
Warning: card &RISM ignored
Warning: card / ignored

     Current dimensions of program PWSCF are:
     Max number of different atomic species (ntypx) = 10
     Max number of k-points (npk) =  40000
     Max angular momentum in pseudopotentials (lmaxx) =  4
     file Zn.upf: wavefunction(s)  3D renormalized
     Found identity + (  0.0000  0.0000  0.5000) symmetry
     This is a supercell, fractional translations are disabled

     K-points division:     npool     =       2
     R & G space division:  proc/nbgrp/npool/nimage =       8
     Subspace diagonalization in iterative solution of the eigenvalue problem:
     one sub-group per band group will be used

     Using Slab Decomposition

     bravais-lattice index     =            0
     lattice parameter (alat)  =      12.3577  a.u.
     unit-cell volume          =    3957.6339 (a.u.)^3
     number of atoms/cell      =           48
     number of atomic types    =            2
     number of electrons       =       432.00
     number of Kohn-Sham states=          216
     kinetic-energy cutoff     =      50.0000  Ry
     charge density cutoff     =     400.0000  Ry
     scf convergence threshold =      1.0E-08
     mixing beta               =       0.3000
     number of iterations used =            8  plain     mixing
     Exchange-correlation= PBE
                           (   1   4   3   4   0   0   0)

     celldm(1)=  12.357708  celldm(2)=   0.000000  celldm(3)=   0.000000
     celldm(4)=   0.000000  celldm(5)=   0.000000  celldm(6)=   0.000000

     crystal axes: (cart. coord. in units of alat)
               a(1) = (   1.000000   0.000000   0.000000 )
               a(2) = (  -0.750000   1.299038   0.000000 )
               a(3) = (   0.000000   0.000000   1.614358 )

     reciprocal axes: (cart. coord. in units 2 pi/alat)
               b(1) = (  1.000000  0.577350 -0.000000 )
               b(2) = (  0.000000  0.769800  0.000000 )
               b(3) = (  0.000000 -0.000000  0.619441 )

     PseudoPot. # 1 for Zn read from file:
     ../pseudos/Zn.upf
     MD5 check sum: 7f56cabf9682ed8c977c2f7d0c5985c5
     Pseudo is Ultrasoft + core correction, Zval = 12.0
     Generated using &quot;atomic&quot; code by A. Dal Corso  v.6.2.2
     Using radial grid of 1201 points,  6 beta functions with:
                l(1) =   0
                l(2) =   0
                l(3) =   1
                l(4) =   1
                l(5) =   2
                l(6) =   2
     Q(r) pseudized with 0 coefficients

     PseudoPot. # 2 for O  read from file:
     ../pseudos/O.upf
     MD5 check sum: 91400c9766925bcf19f520983a725ff0
     Pseudo is Ultrasoft + core correction, Zval =  6.0
     Generated using &quot;atomic&quot; code by A. Dal Corso  v.6.3MaX
     Using radial grid of 1095 points,  4 beta functions with:
                l(1) =   0
                l(2) =   0
                l(3) =   1
                l(4) =   1
     Q(r) pseudized with 0 coefficients

     atomic species   valence    mass     pseudopotential
        Zn            12.00    65.38000     Zn( 1.00)
        O              6.00    15.99900     O ( 1.00)

     No symmetry found

   Cartesian axes

     site n.     atom                  positions (alat units)
         1           Zn  tau(   1) = (   0.0000000   0.0000000   0.0000000  )
         2           O   tau(   2) = (   0.0000000   0.2886751   0.0985546  )
         3           Zn  tau(   3) = (   0.0000000   0.2886751   0.4035896  )
         4           O   tau(   4) = (   0.0000000   0.0000000   0.5021442  )
         5           Zn  tau(   5) = (   0.0000000   0.0000000   0.8071792  )
         6           O   tau(   6) = (   0.0000000   0.2886751   0.9057338  )
         7           Zn  tau(   7) = (   0.0000000   0.2886751   1.2107688  )
         8           O   tau(   8) = (   0.0000000   0.0000000   1.3093234  )
         9           Zn  tau(   9) = (  -0.2500000   0.4330127   0.0000000  )
        10           O   tau(  10) = (  -0.2500000   0.7216878   0.0985546  )
        11           Zn  tau(  11) = (  -0.2500000   0.7216878   0.4035896  )
        12           O   tau(  12) = (  -0.2500000   0.4330127   0.5021442  )
        13           Zn  tau(  13) = (  -0.2500000   0.4330127   0.8071792  )
        14           O   tau(  14) = (  -0.2500000   0.7216878   0.9057338  )
        15           Zn  tau(  15) = (  -0.2500000   0.7216878   1.2107688  )
        16           O   tau(  16) = (  -0.2500000   0.4330127   1.3093234  )
        17           Zn  tau(  17) = (  -0.5000000   0.8660254   0.0000000  )
        18           O   tau(  18) = (  -0.5000000   1.1547005   0.0985546  )
        19           Zn  tau(  19) = (  -0.5000000   1.1547005   0.4035896  )
        20           O   tau(  20) = (  -0.5000000   0.8660254   0.5021442  )
        21           Zn  tau(  21) = (  -0.5000000   0.8660254   0.8071792  )
        22           O   tau(  22) = (  -0.5000000   1.1547005   0.9057338  )
        23           Zn  tau(  23) = (  -0.5000000   1.1547005   1.2107688  )
        24           O   tau(  24) = (  -0.5000000   0.8660254   1.3093234  )
        25           Zn  tau(  25) = (   0.5000000   0.0000000   0.0000000  )
        26           O   tau(  26) = (   0.5000000   0.2886751   0.0985546  )
        27           Zn  tau(  27) = (   0.5000000   0.2886751   0.4035896  )
        28           O   tau(  28) = (   0.5000000   0.0000000   0.5021442  )
        29           Zn  tau(  29) = (   0.5000000   0.0000000   0.8071792  )
        30           O   tau(  30) = (   0.5000000   0.2886751   0.9057338  )
        31           Zn  tau(  31) = (   0.5000000   0.2886751   1.2107688  )
        32           O   tau(  32) = (   0.5000000   0.0000000   1.3093234  )
        33           Zn  tau(  33) = (   0.2500000   0.4330127   0.0000000  )
        34           O   tau(  34) = (   0.2500000   0.7216878   0.0985546  )
        35           Zn  tau(  35) = (   0.2500000   0.7216878   0.4035896  )
        36           O   tau(  36) = (   0.2500000   0.4330127   0.5021442  )
        37           Zn  tau(  37) = (   0.2500000   0.4330127   0.8071792  )
        38           O   tau(  38) = (   0.2500000   0.7216878   0.9057338  )
        39           Zn  tau(  39) = (   0.2500000   0.7216878   1.2107688  )
        40           O   tau(  40) = (   0.2500000   0.4330127   1.3093234  )
        41           Zn  tau(  41) = (   0.0000000   0.8660254   0.0000000  )
        42           O   tau(  42) = (   0.0000000   1.1547005   0.0985546  )
        43           Zn  tau(  43) = (   0.0000000   1.1547005   0.4035896  )
        44           O   tau(  44) = (   0.0000000   0.8660254   0.5021442  )
        45           Zn  tau(  45) = (   0.0000000   0.8660254   0.8071792  )
        46           O   tau(  46) = (   0.0000000   1.1547005   0.9057338  )
        47           Zn  tau(  47) = (   0.0000000   1.1547005   1.2107688  )
        48           O   tau(  48) = (   0.0000000   0.8660254   1.3093234  )

     number of k points=   112

     Number of k-points >= 100: set verbosity='high' to print them.

     Check: negative core charge=   -0.000002

     Initial potential from superposition of free atoms

     starting charge     431.9106, renormalised to     432.0000
     Starting wfcs are  312 randomized atomic wfcs

     Self-consistent Calculation

     iteration #  1     ecut=    50.00 Ry     beta= 0.30
     Davidson diagonalization with overlap
     ethr =  1.00E-02,  avg # of iterations =  2.0

     total energy              =   -4337.75888018 Ry
     estimated scf accuracy    <       8.27632656 Ry

[...]

     iteration #  6     ecut=    50.00 Ry     beta= 0.30
     Davidson diagonalization with overlap
     c_bands:  1 eigenvalues not converged
     c_bands:  2 eigenvalues not converged
     c_bands:  1 eigenvalues not converged
     ethr =  1.49E-04,  avg # of iterations = 14.0

[...]

     iteration # 19     ecut=    50.00 Ry     beta= 0.30
     Davidson diagonalization with overlap
     c_bands:  1 eigenvalues not converged
     ethr =  1.37E-09,  avg # of iterations = 11.9

[...]

     total energy              =   -4339.64417387 Ry
     estimated scf accuracy    <       0.00000020 Ry

     iteration # 29     ecut=    50.00 Ry     beta= 0.30
     Davidson diagonalization with overlap
     ethr =  1.43E-11,  avg # of iterations =  6.3

     End of self-consistent calculation

     Number of k-points >= 100: set verbosity='high' to print the bands.

     highest occupied level (ev):     6.8835

!    total energy              =   -4339.64417391 Ry
     estimated scf accuracy    <          2.0E-09 Ry

     The total energy is the sum of the following terms:
     one-electron contribution =   -1854.26081518 Ry
     hartree contribution      =    1419.41368832 Ry
     xc contribution           =   -1314.54230657 Ry
     ewald contribution        =   -2590.25474048 Ry

     convergence has been achieved in  29 iterations

     Forces acting on atoms (cartesian axes, Ry/au):

     atom    1 type  1   force =     0.00000017   -0.00000394    0.00136079
     atom    2 type  2   force =    -0.00000006    0.00000019   -0.00135977
     atom    3 type  1   force =     0.00000101    0.00000290    0.00136348
     atom    4 type  2   force =    -0.00000018    0.00000032   -0.00135966
     atom    5 type  1   force =     0.00000105   -0.00000627    0.00135850
     atom    6 type  2   force =    -0.00000010    0.00000022   -0.00135882
     atom    7 type  1   force =     0.00000065   -0.00000146    0.00135639
     atom    8 type  2   force =    -0.00000005    0.00000017   -0.00135910
     atom    9 type  1   force =    -0.00000069    0.00000273    0.00136408
     atom   10 type  2   force =     0.00000019   -0.00000002   -0.00135981
     atom   11 type  1   force =    -0.00000594    0.00000298    0.00136587
     atom   12 type  2   force =     0.00000013   -0.00000034   -0.00135965
     atom   13 type  1   force =    -0.00000322    0.00000289    0.00135363
     atom   14 type  2   force =     0.00000026   -0.00000016   -0.00135870
     atom   15 type  1   force =     0.00000065    0.00000367    0.00135438
     atom   16 type  2   force =    -0.00000008   -0.00000016   -0.00135910
     atom   17 type  1   force =     0.00000117    0.00000224    0.00136564
     atom   18 type  2   force =    -0.00000005    0.00000043   -0.00135985
     atom   19 type  1   force =     0.00000211   -0.00000774    0.00136588
     atom   20 type  2   force =    -0.00000023   -0.00000004   -0.00135963
     atom   21 type  1   force =     0.00000075    0.00000186    0.00135216
     atom   22 type  2   force =    -0.00000015    0.00000044   -0.00135884
     atom   23 type  1   force =    -0.00000059   -0.00000284    0.00135287
     atom   24 type  2   force =    -0.00000011   -0.00000027   -0.00135884
     atom   25 type  1   force =    -0.00000001   -0.00000383    0.00136307
     atom   26 type  2   force =     0.00000006    0.00000017   -0.00135991
[...]
     atom   26 type  2   force =    -0.00000000    0.00000000    0.02077733
     atom   27 type  1   force =    -0.00000000    0.00000000   -0.02077733
     atom   28 type  2   force =    -0.00000000   -0.00000000    0.02077733
     atom   29 type  1   force =    -0.00000000    0.00000000   -0.02077733
     atom   30 type  2   force =    -0.00000000    0.00000000    0.02077733
     atom   31 type  1   force =     0.00000000    0.00000000   -0.02077733
     atom   32 type  2   force =    -0.00000000   -0.00000000    0.02077733
     atom   33 type  1   force =    -0.00000000    0.00000000   -0.02077733
     atom   34 type  2   force =    -0.00000000   -0.00000000    0.02077733
     atom   35 type  1   force =    -0.00000000   -0.00000000   -0.02077733
     atom   36 type  2   force =    -0.00000000    0.00000000    0.02077733
     atom   37 type  1   force =    -0.00000000    0.00000000   -0.02077733
     atom   38 type  2   force =    -0.00000000   -0.00000000    0.02077733
     atom   39 type  1   force =    -0.00000000   -0.00000000   -0.02077733
     atom   40 type  2   force =    -0.00000000    0.00000000    0.02077733
     atom   41 type  1   force =    -0.00000000   -0.00000000   -0.02077733
     atom   42 type  2   force =     0.00000000    0.00000000    0.02077733
     atom   43 type  1   force =     0.00000000   -0.00000000   -0.02077733
     atom   44 type  2   force =    -0.00000000   -0.00000000    0.02077733
     atom   45 type  1   force =    -0.00000000   -0.00000000   -0.02077733
     atom   46 type  2   force =    -0.00000000    0.00000000    0.02077733
     atom   47 type  1   force =     0.00000000   -0.00000000   -0.02077733
     atom   48 type  2   force =    -0.00000000   -0.00000000    0.02077733
     The local contribution  to forces
     atom    1 type  1   force =     0.00000050    0.00000500    0.01225243
     atom    2 type  2   force =    -0.00000019   -0.00000531   -0.02203911
     atom    3 type  1   force =    -0.00000163   -0.00000353    0.01224804
     atom    4 type  2   force =     0.00000020    0.00000549   -0.02203979
     atom    5 type  1   force =    -0.00000148    0.00000916    0.01225662
     atom    6 type  2   force =     0.00000008   -0.00000461   -0.02203800
     atom    7 type  1   force =    -0.00000152    0.00000441    0.01225879
     atom    8 type  2   force =    -0.00000014    0.00000497   -0.02203633
     atom    9 type  1   force =     0.00000138   -0.00000501    0.01224728
     atom   10 type  2   force =     0.00000037   -0.00000567   -0.02203900
     atom   11 type  1   force =     0.00001003   -0.00000277    0.01224483
     atom   12 type  2   force =     0.00000073    0.00000355   -0.02204029
     atom   13 type  1   force =     0.00000628   -0.00000641    0.01226483
     atom   14 type  2   force =    -0.00000017   -0.00000563   -0.02203654
     atom   15 type  1   force =    -0.00000117   -0.00000522    0.01226236
     atom   16 type  2   force =    -0.00000013    0.00000483   -0.02203703
     atom   17 type  1   force =    -0.00000183   -0.00000530    0.01224548
     atom   18 type  2   force =    -0.00000025   -0.00000371   -0.02203830
     atom   19 type  1   force =    -0.00000444    0.00001394    0.01224531
     atom   20 type  2   force =    -0.00000066    0.00000453   -0.02204003
     atom   21 type  1   force =    -0.00000030   -0.00000487    0.01226714
     atom   22 type  2   force =     0.00000078   -0.00000389   -0.02203650
     atom   23 type  1   force =     0.00000126    0.00000561    0.01226423
     atom   24 type  2   force =    -0.00000035    0.00000407   -0.02203713
     atom   25 type  1   force =    -0.00000058    0.00000455    0.01224855
     atom   26 type  2   force =     0.00000001   -0.00000546   -0.02203888
     atom   27 type  1   force =     0.00000128   -0.00000195    0.01224544
     atom   28 type  2   force =    -0.00000038    0.00000597   -0.02203895
     atom   29 type  1   force =     0.00000130    0.00000474    0.01226024
     atom   30 type  2   force =     0.00000021   -0.00000608   -0.02203729
     atom   31 type  1   force =     0.00000172    0.00000308    0.01226454
     atom   32 type  2   force =    -0.00000012    0.00000555   -0.02203658
     atom   33 type  1   force =    -0.00000156   -0.00000300    0.01224873
     atom   34 type  2   force =    -0.00000011   -0.00000551   -0.02203903
     atom   35 type  1   force =    -0.00000990   -0.00000050    0.01224308
     atom   36 type  2   force =    -0.00000028    0.00000419   -0.02204010
     atom   37 type  1   force =    -0.00000662   -0.00000660    0.01226507
     atom   38 type  2   force =     0.00000029   -0.00000508   -0.02203618
     atom   39 type  1   force =     0.00000105   -0.00000379    0.01226384
     atom   40 type  2   force =     0.00000015    0.00000484   -0.02203642
     atom   41 type  1   force =     0.00000173   -0.00000711    0.01225147
     atom   42 type  2   force =     0.00000015   -0.00000333   -0.02203917
     atom   43 type  1   force =     0.00000455    0.00000581    0.01224901
     atom   44 type  2   force =    -0.00000005    0.00000351   -0.02204001
     atom   45 type  1   force =    -0.00000003   -0.00000637    0.01225782
     atom   46 type  2   force =    -0.00000013   -0.00000284   -0.02203566
     atom   47 type  1   force =    -0.00000133    0.00000734    0.01226330
     atom   48 type  2   force =     0.00000030    0.00000367   -0.02203572
     The core correction contribution to forces
     atom    1 type  1   force =    -0.00000000   -0.00000035   -0.00098934
     atom    2 type  2   force =    -0.00000000   -0.00000006    0.00002005
     atom    3 type  1   force =     0.00000002    0.00000037   -0.00098906
     atom    4 type  2   force =     0.00000002    0.00000001    0.00002004
     atom    5 type  1   force =     0.00000000   -0.00000042   -0.00098921
     atom    6 type  2   force =     0.00000001   -0.00000005    0.00001996
     atom    7 type  1   force =     0.00000002    0.00000019   -0.00098922
     atom    8 type  2   force =     0.00000000    0.00000001    0.00002000
     atom    9 type  1   force =    -0.00000002   -0.00000021   -0.00098927
     atom   10 type  2   force =    -0.00000002   -0.00000003    0.00002007
     atom   11 type  1   force =    -0.00000014    0.00000034   -0.00098910
     atom   12 type  2   force =    -0.00000002    0.00000008    0.00002003
     atom   13 type  1   force =    -0.00000008   -0.00000022   -0.00098933
     atom   14 type  2   force =    -0.00000002   -0.00000001    0.00001996
     atom   15 type  1   force =     0.00000005    0.00000036   -0.00098930
     atom   16 type  2   force =     0.00000000    0.00000007    0.00001999
     atom   17 type  1   force =     0.00000002   -0.00000026   -0.00098933
     atom   18 type  2   force =     0.00000000   -0.00000007    0.00002006
     atom   19 type  1   force =     0.00000010    0.00000010   -0.00098914
     atom   20 type  2   force =     0.00000001    0.00000005    0.00002005
     atom   21 type  1   force =    -0.00000004   -0.00000023   -0.00098944
     atom   22 type  2   force =     0.00000001   -0.00000008    0.00001997
     atom   23 type  1   force =    -0.00000003    0.00000031   -0.00098936
     atom   24 type  2   force =    -0.00000000    0.00000007    0.00001998
     atom   25 type  1   force =     0.00000000   -0.00000032   -0.00098930
     atom   26 type  2   force =    -0.00000000   -0.00000006    0.00002007
     atom   27 type  1   force =    -0.00000003    0.00000026   -0.00098906
     atom   28 type  2   force =    -0.00000001    0.00000003    0.00002005
     atom   29 type  1   force =    -0.00000001   -0.00000034   -0.00098928
     atom   30 type  2   force =    -0.00000001   -0.00000006    0.00001996
     atom   31 type  1   force =    -0.00000002    0.00000024   -0.00098931
     atom   32 type  2   force =     0.00000000    0.00000002    0.00001999
     atom   33 type  1   force =     0.00000002   -0.00000024   -0.00098932
     atom   34 type  2   force =     0.00000001   -0.00000003    0.00002006
     atom   35 type  1   force =     0.00000014    0.00000032   -0.00098906
     atom   36 type  2   force =     0.00000003    0.00000008    0.00002004
     atom   37 type  1   force =     0.00000007   -0.00000018   -0.00098935
     atom   38 type  2   force =     0.00000002   -0.00000002    0.00001997
     atom   39 type  1   force =    -0.00000005    0.00000033   -0.00098931
     atom   40 type  2   force =     0.00000001    0.00000006    0.00001999
     atom   41 type  1   force =    -0.00000003   -0.00000027   -0.00098936
     atom   42 type  2   force =    -0.00000001   -0.00000006    0.00002003
     atom   43 type  1   force =    -0.00000009    0.00000028   -0.00098920
     atom   44 type  2   force =    -0.00000001    0.00000005    0.00002004
     atom   45 type  1   force =     0.00000003   -0.00000025   -0.00098925
     atom   46 type  2   force =    -0.00000001   -0.00000007    0.00002000
     atom   47 type  1   force =     0.00000003    0.00000024   -0.00098931
     atom   48 type  2   force =     0.00000001    0.00000007    0.00002000
     The Hubbard contrib.    to forces
     atom    1 type  1   force =     0.00000000    0.00000000    0.00000000
     atom    2 type  2   force =     0.00000000    0.00000000    0.00000000
     atom    3 type  1   force =     0.00000000    0.00000000    0.00000000
     atom    4 type  2   force =     0.00000000    0.00000000    0.00000000
     atom    5 type  1   force =     0.00000000    0.00000000    0.00000000
     atom    6 type  2   force =     0.00000000    0.00000000    0.00000000
     atom    7 type  1   force =     0.00000000    0.00000000    0.00000000
     atom    8 type  2   force =     0.00000000    0.00000000    0.00000000
     atom    9 type  1   force =     0.00000000    0.00000000    0.00000000
     atom   10 type  2   force =     0.00000000    0.00000000    0.00000000
     atom   11 type  1   force =     0.00000000    0.00000000    0.00000000
     atom   12 type  2   force =     0.00000000    0.00000000    0.00000000
     atom   13 type  1   force =     0.00000000    0.00000000    0.00000000
     atom   14 type  2   force =     0.00000000    0.00000000    0.00000000
     atom   15 type  1   force =     0.00000000    0.00000000    0.00000000
     atom   16 type  2   force =     0.00000000    0.00000000    0.00000000
     atom   17 type  1   force =     0.00000000    0.00000000    0.00000000
     atom   18 type  2   force =     0.00000000    0.00000000    0.00000000
     atom   19 type  1   force =     0.00000000    0.00000000    0.00000000
     atom   20 type  2   force =     0.00000000    0.00000000    0.00000000
     atom   21 type  1   force =     0.00000000    0.00000000    0.00000000
     atom   22 type  2   force =     0.00000000    0.00000000    0.00000000
     atom   23 type  1   force =     0.00000000    0.00000000    0.00000000
     atom   24 type  2   force =     0.00000000    0.00000000    0.00000000
     atom   25 type  1   force =     0.00000000    0.00000000    0.00000000
     atom   26 type  2   force =     0.00000000    0.00000000    0.00000000
     atom   27 type  1   force =     0.00000000    0.00000000    0.00000000
     atom   28 type  2   force =     0.00000000    0.00000000    0.00000000
     atom   29 type  1   force =     0.00000000    0.00000000    0.00000000
     atom   30 type  2   force =     0.00000000    0.00000000    0.00000000
     atom   31 type  1   force =     0.00000000    0.00000000    0.00000000
     atom   32 type  2   force =     0.00000000    0.00000000    0.00000000
     atom   33 type  1   force =     0.00000000    0.00000000    0.00000000
     atom   34 type  2   force =     0.00000000    0.00000000    0.00000000
     atom   35 type  1   force =     0.00000000    0.00000000    0.00000000
     atom   36 type  2   force =     0.00000000    0.00000000    0.00000000
     atom   37 type  1   force =     0.00000000    0.00000000    0.00000000
     atom   38 type  2   force =     0.00000000    0.00000000    0.00000000
     atom   39 type  1   force =     0.00000000    0.00000000    0.00000000
     atom   40 type  2   force =     0.00000000    0.00000000    0.00000000
     atom   41 type  1   force =     0.00000000    0.00000000    0.00000000
     atom   42 type  2   force =     0.00000000    0.00000000    0.00000000
     atom   43 type  1   force =     0.00000000    0.00000000    0.00000000
     atom   44 type  2   force =     0.00000000    0.00000000    0.00000000
     atom   45 type  1   force =     0.00000000    0.00000000    0.00000000
     atom   46 type  2   force =     0.00000000    0.00000000    0.00000000
     atom   47 type  1   force =     0.00000000    0.00000000    0.00000000
     atom   48 type  2   force =     0.00000000    0.00000000    0.00000000
     The SCF correction term to forces
     atom    1 type  1   force =     0.00000012   -0.00000822    0.00000260
     atom    2 type  2   force =     0.00000014   -0.00000012    0.00000360
     atom    3 type  1   force =     0.00000199    0.00000634    0.00000873
     atom    4 type  2   force =     0.00000083   -0.00000279    0.00000336
     atom    5 type  1   force =     0.00000198   -0.00001317   -0.00000112
     atom    6 type  2   force =     0.00000034   -0.00000045   -0.00000252
     atom    7 type  1   force =     0.00000153   -0.00000328   -0.00000522
     atom    8 type  2   force =     0.00000009   -0.00000260   -0.00000253
     atom    9 type  1   force =    -0.00000146    0.00000494    0.00000909
     atom   10 type  2   force =    -0.00000116    0.00000243    0.00000461
     atom   11 type  1   force =    -0.00001232    0.00000595    0.00001279
     atom   12 type  2   force =    -0.00000238    0.00000319    0.00000331
     atom   13 type  1   force =    -0.00000688    0.00000559   -0.00001114
     atom   14 type  2   force =    -0.00000110    0.00000316   -0.00000427
     atom   15 type  1   force =     0.00000158    0.00000787   -0.00000958
     atom   16 type  2   force =     0.00000007    0.00000105   -0.00000213
     atom   17 type  1   force =     0.00000239    0.00000413    0.00001150
     atom   18 type  2   force =     0.00000055   -0.00000254    0.00000333
     atom   19 type  1   force =     0.00000492   -0.00001559    0.00001242
     atom   20 type  2   force =     0.00000111    0.00000002    0.00000427
     atom   21 type  1   force =     0.00000093    0.00000369   -0.00001470
     atom   22 type  2   force =    -0.00000009   -0.00000306   -0.00000358
     atom   23 type  1   force =    -0.00000141   -0.00000485   -0.00001259
     atom   24 type  2   force =     0.00000017    0.00000202   -0.00000271
     atom   25 type  1   force =     0.00000026   -0.00000773    0.00000721
     atom   26 type  2   force =    -0.00000015    0.00000009    0.00000453
     atom   27 type  1   force =    -0.00000135    0.00000400    0.00001209
     atom   28 type  2   force =    -0.00000051   -0.00000234    0.00000316
     atom   29 type  1   force =    -0.00000152   -0.00000779   -0.00000547
     atom   30 type  2   force =    -0.00000088    0.00000057   -0.00000336
     atom   31 type  1   force =    -0.00000226   -0.00000194   -0.00001289
     atom   32 type  2   force =     0.00000027   -0.00000241   -0.00000295
     atom   33 type  1   force =     0.00000209    0.00000196    0.00000703
     atom   34 type  2   force =     0.00000073    0.00000206    0.00000454
     atom   35 type  1   force =     0.00001191    0.00000359    0.00001491
     atom   36 type  2   force =     0.00000218    0.00000250    0.00000388
     atom   37 type  1   force =     0.00000766    0.00000597   -0.00001136
     atom   38 type  2   force =     0.00000095    0.00000209   -0.00000428
     atom   39 type  1   force =    -0.00000130    0.00000629   -0.00001154
     atom   40 type  2   force =     0.00000020    0.00000099   -0.00000289
     atom   41 type  1   force =    -0.00000198    0.00000594    0.00000323
     atom   42 type  2   force =    -0.00000068   -0.00000230    0.00000262
     atom   43 type  1   force =    -0.00000565   -0.00000526    0.00000821
     atom   44 type  2   force =    -0.00000024    0.00000100    0.00000375
     atom   45 type  1   force =     0.00000003    0.00000515   -0.00000309
     atom   46 type  2   force =    -0.00000054   -0.00000319   -0.00000269
     atom   47 type  1   force =     0.00000125   -0.00000668   -0.00001132
     atom   48 type  2   force =     0.00000009    0.00000236   -0.00000328

     Total force =     0.009418     Total SCF correction =     0.000066

     Writing all to output data dir ./ZnO_232.save/

     General routines

     Parallel routines

   This run was terminated on:   6: 9:34   4Jul2025

   JOB DONE.