     Program PWSCF v.7.2 starts on  3Jul2025 at 20:21:22

     Reading input from ZnO-213.in
Warning: card &CELL ignored
Warning: card / ignored
Warning: card &FCP ignored
Warning: card / ignored
Warning: card &RISM ignored
Warning: card / ignored

     Current dimensions of program PWSCF are:
     Max number of different atomic species (ntypx) = 10
     Max number of k-points (npk) =  40000
     Max angular momentum in pseudopotentials (lmaxx) =  4
     file Zn.upf: wavefunction(s)  3D renormalized
     Found identity + (  0.0000  0.0000  0.3333) symmetry
     This is a supercell, fractional translations are disabled
     Message from routine setup:
     using ibrav=0 with symmetry is DISCOURAGED, use correct ibrav instead

     K-points division:     npool     =       2
     R & G space division:  proc/nbgrp/npool/nimage =       8
     Subspace diagonalization in iterative solution of the eigenvalue problem:
     a serial algorithm will be used

     Using Slab Decomposition

     bravais-lattice index     =            0
     lattice parameter (alat)  =      12.3577  a.u.
     unit-cell volume          =    1978.8170 (a.u.)^3
     number of atoms/cell      =           24
     number of atomic types    =            2
     number of electrons       =       216.00
     number of Kohn-Sham states=          108
     kinetic-energy cutoff     =      50.0000  Ry
     charge density cutoff     =     400.0000  Ry
     scf convergence threshold =      1.0E-08
     mixing beta               =       0.3000
     number of iterations used =            8  plain     mixing
     Exchange-correlation= PBE
                           (   1   4   3   4   0   0   0)

     celldm(1)=  12.357708  celldm(2)=   0.000000  celldm(3)=   0.000000
     celldm(4)=   0.000000  celldm(5)=   0.000000  celldm(6)=   0.000000

     crystal axes: (cart. coord. in units of alat)
               a(1) = (   1.000000   0.000000   0.000000 )
               a(2) = (  -0.250000   0.433013   0.000000 )
               a(3) = (   0.000000   0.000000   2.421538 )

     reciprocal axes: (cart. coord. in units 2 pi/alat)
               b(1) = (  1.000000  0.577350 -0.000000 )
               b(2) = (  0.000000  2.309401  0.000000 )
               b(3) = (  0.000000 -0.000000  0.412961 )

     PseudoPot. # 1 for Zn read from file:
     ../pseudos/Zn.upf
     MD5 check sum: 7f56cabf9682ed8c977c2f7d0c5985c5
     Pseudo is Ultrasoft + core correction, Zval = 12.0
     Generated using &quot;atomic&quot; code by A. Dal Corso  v.6.2.2
     Using radial grid of 1201 points,  6 beta functions with:
                l(1) =   0
                l(2) =   0
                l(3) =   1
                l(4) =   1
                l(5) =   2
                l(6) =   2
     Q(r) pseudized with 0 coefficients

     PseudoPot. # 2 for O  read from file:
     ../pseudos/O.upf
     MD5 check sum: 91400c9766925bcf19f520983a725ff0
     Pseudo is Ultrasoft + core correction, Zval =  6.0
     Generated using &quot;atomic&quot; code by A. Dal Corso  v.6.3MaX
     Using radial grid of 1095 points,  4 beta functions with:
                l(1) =   0
                l(2) =   0
                l(3) =   1
                l(4) =   1
     Q(r) pseudized with 0 coefficients

     atomic species   valence    mass     pseudopotential
        Zn            12.00    65.38000     Zn( 1.00)
        O              6.00    15.99900     O ( 1.00)

      2 Sym. Ops. (no inversion) found

   Cartesian axes

     site n.     atom                  positions (alat units)
         1           Zn  tau(   1) = (   0.0000000   0.0000000   0.0000000  )
         2           O   tau(   2) = (   0.0000000   0.2886751   0.0985546  )
         3           Zn  tau(   3) = (   0.0000000   0.2886751   0.4035896  )
         4           O   tau(   4) = (   0.0000000   0.0000000   0.5021442  )
         5           Zn  tau(   5) = (   0.0000000   0.0000000   0.8071792  )
         6           O   tau(   6) = (   0.0000000   0.2886751   0.9057338  )
         7           Zn  tau(   7) = (   0.0000000   0.2886751   1.2107688  )
         8           O   tau(   8) = (   0.0000000   0.0000000   1.3093234  )
         9           Zn  tau(   9) = (   0.0000000   0.0000000   1.6143584  )
        10           O   tau(  10) = (   0.0000000   0.2886751   1.7129130  )
        11           Zn  tau(  11) = (   0.0000000   0.2886751   2.0179479  )
        12           O   tau(  12) = (   0.0000000   0.0000000   2.1165025  )
        13           Zn  tau(  13) = (   0.5000000   0.0000000   0.0000000  )
        14           O   tau(  14) = (   0.5000000   0.2886751   0.0985546  )
        15           Zn  tau(  15) = (   0.5000000   0.2886751   0.4035896  )
        16           O   tau(  16) = (   0.5000000   0.0000000   0.5021442  )
        17           Zn  tau(  17) = (   0.5000000   0.0000000   0.8071792  )
        18           O   tau(  18) = (   0.5000000   0.2886751   0.9057338  )
        19           Zn  tau(  19) = (   0.5000000   0.2886751   1.2107688  )
        20           O   tau(  20) = (   0.5000000   0.0000000   1.3093234  )
        21           Zn  tau(  21) = (   0.5000000   0.0000000   1.6143584  )
        22           O   tau(  22) = (   0.5000000   0.2886751   1.7129130  )
        23           Zn  tau(  23) = (   0.5000000   0.2886751   2.0179479  )
        24           O   tau(  24) = (   0.5000000   0.0000000   2.1165025  )

     number of k points=    80
                       cart. coord. in units 2pi/alat
        k(    1) = (   0.0000000   0.0000000   0.0000000), wk =   0.0092593
        k(    2) = (   0.0000000   0.0000000   0.0688268), wk =   0.0185185
        k(    3) = (   0.0000000   0.0000000   0.1376536), wk =   0.0185185
        k(    4) = (   0.0000000   0.0000000  -0.2064804), wk =   0.0092593
        k(    5) = (   0.0000000   0.3849002   0.0000000), wk =   0.0370370
        k(    6) = (   0.0000000   0.3849002   0.0688268), wk =   0.0370370
        k(    7) = (   0.0000000   0.3849002   0.1376536), wk =   0.0370370
        k(    8) = (   0.0000000   0.3849002  -0.2064804), wk =   0.0370370
        k(    9) = (   0.0000000   0.7698004   0.0000000), wk =   0.0370370
        k(   10) = (   0.0000000   0.7698004   0.0688268), wk =   0.0370370
        k(   11) = (   0.0000000   0.7698004   0.1376536), wk =   0.0370370
        k(   12) = (   0.0000000   0.7698004  -0.2064804), wk =   0.0370370
        k(   13) = (   0.0000000  -1.1547005   0.0000000), wk =   0.0092593
        k(   14) = (   0.0000000  -1.1547005   0.0688268), wk =   0.0185185
        k(   15) = (   0.0000000  -1.1547005   0.1376536), wk =   0.0185185
        k(   16) = (   0.0000000  -1.1547005  -0.2064804), wk =   0.0092593
        k(   17) = (   0.1666667   0.0962250   0.0000000), wk =   0.0185185
        k(   18) = (   0.1666667   0.0962250   0.0688268), wk =   0.0185185
        k(   19) = (   0.1666667   0.0962250   0.1376536), wk =   0.0185185
        k(   20) = (   0.1666667   0.0962250  -0.2064804), wk =   0.0185185
        k(   21) = (   0.1666667   0.4811252   0.0000000), wk =   0.0370370
        k(   22) = (   0.1666667   0.4811252   0.0688268), wk =   0.0370370
        k(   23) = (   0.1666667   0.4811252   0.1376536), wk =   0.0370370
        k(   24) = (   0.1666667   0.4811252  -0.2064804), wk =   0.0370370
        k(   25) = (   0.1666667   0.8660254   0.0000000), wk =   0.0185185
        k(   26) = (   0.1666667   0.8660254   0.0688268), wk =   0.0370370
        k(   27) = (   0.1666667   0.8660254   0.1376536), wk =   0.0370370
        k(   28) = (   0.1666667   0.8660254  -0.2064804), wk =   0.0185185
        k(   29) = (   0.1666667  -1.0584755   0.0000000), wk =   0.0185185
        k(   30) = (   0.1666667  -1.0584755   0.0688268), wk =   0.0185185
        k(   31) = (   0.1666667  -1.0584755   0.1376536), wk =   0.0185185
        k(   32) = (   0.1666667  -1.0584755  -0.2064804), wk =   0.0185185
        k(   33) = (   0.1666667  -0.6735753   0.0000000), wk =   0.0370370
        k(   34) = (   0.1666667  -0.6735753   0.0688268), wk =   0.0370370
        k(   35) = (   0.1666667  -0.6735753   0.1376536), wk =   0.0370370
        k(   36) = (   0.1666667  -0.6735753  -0.2064804), wk =   0.0370370
        k(   37) = (   0.1666667  -0.2886751   0.0000000), wk =   0.0185185
        k(   38) = (   0.1666667  -0.2886751   0.0688268), wk =   0.0370370
        k(   39) = (   0.1666667  -0.2886751   0.1376536), wk =   0.0370370
        k(   40) = (   0.1666667  -0.2886751  -0.2064804), wk =   0.0185185
        k(   41) = (   0.3333333   0.1924501   0.0000000), wk =   0.0185185
        k(   42) = (   0.3333333   0.1924501   0.0688268), wk =   0.0185185
        k(   43) = (   0.3333333   0.1924501   0.1376536), wk =   0.0185185
        k(   44) = (   0.3333333   0.1924501  -0.2064804), wk =   0.0185185
        k(   45) = (   0.3333333   0.5773503   0.0000000), wk =   0.0185185
        k(   46) = (   0.3333333   0.5773503   0.0688268), wk =   0.0370370
        k(   47) = (   0.3333333   0.5773503   0.1376536), wk =   0.0370370
        k(   48) = (   0.3333333   0.5773503  -0.2064804), wk =   0.0185185
        k(   49) = (   0.3333333  -0.9622504   0.0000000), wk =   0.0185185
        k(   50) = (   0.3333333  -0.9622504   0.0688268), wk =   0.0185185
        k(   51) = (   0.3333333  -0.9622504   0.1376536), wk =   0.0185185
        k(   52) = (   0.3333333  -0.9622504  -0.2064804), wk =   0.0185185
        k(   53) = (   0.3333333  -0.5773503   0.0000000), wk =   0.0185185
        k(   54) = (   0.3333333  -0.5773503   0.0688268), wk =   0.0370370
        k(   55) = (   0.3333333  -0.5773503   0.1376536), wk =   0.0370370
        k(   56) = (   0.3333333  -0.5773503  -0.2064804), wk =   0.0185185
        k(   57) = (  -0.5000000  -0.2886751   0.0000000), wk =   0.0092593
        k(   58) = (  -0.5000000  -0.2886751   0.0688268), wk =   0.0185185
        k(   59) = (  -0.5000000  -0.2886751   0.1376536), wk =   0.0185185
        k(   60) = (  -0.5000000  -0.2886751  -0.2064804), wk =   0.0092593
[...]
        k(   66) = (   0.3333333  -0.1924501  -0.1376536), wk =   0.0370370
        k(   67) = (   0.6666667  -0.3849002  -0.0688268), wk =   0.0370370
        k(   68) = (   0.6666667  -0.3849002  -0.1376536), wk =   0.0370370
        k(   69) = (   0.1666667   0.0962250  -0.0688268), wk =   0.0185185
        k(   70) = (   0.1666667   0.0962250  -0.1376536), wk =   0.0185185
        k(   71) = (   0.5000000  -0.0962250  -0.0688268), wk =   0.0370370
        k(   72) = (   0.5000000  -0.0962250  -0.1376536), wk =   0.0370370
        k(   73) = (  -0.8333333   0.6735753  -0.0688268), wk =   0.0185185
        k(   74) = (  -0.8333333   0.6735753  -0.1376536), wk =   0.0185185
        k(   75) = (  -0.5000000   0.4811252  -0.0688268), wk =   0.0370370
        k(   76) = (  -0.5000000   0.4811252  -0.1376536), wk =   0.0370370
        k(   77) = (   0.3333333   0.1924501  -0.0688268), wk =   0.0185185
        k(   78) = (   0.3333333   0.1924501  -0.1376536), wk =   0.0185185
        k(   79) = (  -0.6666667   0.7698004  -0.0688268), wk =   0.0185185
        k(   80) = (  -0.6666667   0.7698004  -0.1376536), wk =   0.0185185

[...]
     ethr =  1.00E-02,  avg # of iterations =  2.0

     total energy              =   -2168.87786749 Ry
     estimated scf accuracy    <       4.14435978 Ry

[...]

     iteration #  6     ecut=    50.00 Ry     beta= 0.30
     Davidson diagonalization with overlap
     c_bands:  1 eigenvalues not converged
     c_bands:  1 eigenvalues not converged
     ethr =  1.59E-04,  avg # of iterations = 11.5

[...]

     total energy              =   -2169.82183469 Ry
     estimated scf accuracy    <       0.00000002 Ry

     iteration # 35     ecut=    50.00 Ry     beta= 0.30
     Davidson diagonalization with overlap
     ethr =  1.08E-11,  avg # of iterations =  6.0

     End of self-consistent calculation

          k = 0.0000 0.0000 0.0000 ( 11743 PWs)   bands (ev):

   -10.9998 -10.8363 -10.8363 -10.4958 -10.4958 -10.3512 -10.3186 -10.2933
   -10.2932 -10.1885 -10.1885 -10.1423   0.9807   0.9807   1.0468   1.0468
     1.1132   1.1507   1.1507   1.1939   1.1939   1.3200   1.3202   1.3273
     1.3438   1.3501   1.3501   1.3503   1.3503   1.4307   1.4440   1.4440
     1.4441   1.4441   1.5103   1.5105   1.5572   1.6621   1.6622   1.8649
     1.8649   1.8696   1.8696   1.9205   1.9205   1.9239   1.9502   2.0815
     2.4265   2.4266   2.4598   2.4903   2.4903   2.4904   2.4904   2.5907
     2.5907   2.5907   2.5907   2.5908   2.5999   2.5999   2.6238   2.6239
     2.6246   2.6246   2.6319   2.6319   2.6693   2.7310   2.7310   2.7411
     2.8834   3.1452   3.1452   3.2016   3.2842   3.2842   3.4443   3.8709
     3.8709   4.1335   4.7090   5.0080   5.0080   5.0925   5.0925   5.4574
     5.4574   5.6331   5.7729   5.7729   5.7871   5.7871   6.0934   6.1127
     6.1130   6.3089   6.3089   6.3092   6.3092   6.6948   6.6948   6.6952
     6.6952   6.8091   6.8840   6.8844

[...]

          k =-0.5000-0.2887 0.0000 ( 11752 PWs)   bands (ev):

[...]

          k = 0.3333 0.1925-0.1377 ( 11769 PWs)   bands (ev):

[...]

          k =-0.6667 0.7698-0.1377 ( 11862 PWs)   bands (ev):

   -10.3511 -10.3511 -10.3298 -10.3298 -10.2603 -10.2603 -10.2219 -10.2219
   -10.1609 -10.1608 -10.1441 -10.1441   1.0759   1.0759   1.1051   1.1051
     1.1524   1.1524   1.1937   1.1937   1.3181   1.3181   1.4186   1.4186
     1.5589   1.5589   1.5689   1.5689   1.6295   1.6295   1.6879   1.6879
     1.7577   1.7577   1.7799   1.7799   1.8621   1.8621   1.8662   1.8662
     1.9422   1.9422   1.9915   1.9915   2.0081   2.0082   2.0724   2.0724
     2.4019   2.4019   2.4391   2.4391   2.5138   2.5138   2.5364   2.5364
     2.5531   2.5531   2.5603   2.5603   2.6805   2.6805   2.6808   2.6808
     2.7183   2.7183   2.7611   2.7611   2.8546   2.8546   2.8745   2.8745
     3.0885   3.0885   3.1531   3.1531   3.3708   3.3709   3.4865   3.4865
     3.6799   3.6799   3.7007   3.7007   4.1465   4.1465   4.3003   4.3004
     4.5043   4.5043   4.7543   4.7543   4.8016   4.8016   5.0589   5.0589
     5.5066   5.5066   5.5491   5.5492   5.6242   5.6242   5.7405   5.7405
     5.7906   5.7906   5.8201   5.8201

     highest occupied level (ev):     6.8844

!    total energy              =   -2169.82183469 Ry
     estimated scf accuracy    <          6.2E-09 Ry

     The total energy is the sum of the following terms:
     one-electron contribution =    -927.13509170 Ry
     hartree contribution      =     709.71312236 Ry
     xc contribution           =    -657.27249511 Ry
     ewald contribution        =   -1295.12737024 Ry

     convergence has been achieved in  35 iterations

     Forces acting on atoms (cartesian axes, Ry/au):

     atom    1 type  1   force =     0.00000366    0.00000211    0.00136393
     atom    2 type  2   force =    -0.00000142   -0.00000082   -0.00135227
     atom    3 type  1   force =     0.00000589    0.00000340    0.00136807
     atom    4 type  2   force =     0.00000134    0.00000078   -0.00135086
     atom    5 type  1   force =    -0.00000036   -0.00000021    0.00134615
     atom    6 type  2   force =    -0.00000164   -0.00000095   -0.00135134
     atom    7 type  1   force =    -0.00000003   -0.00000002    0.00133549
     atom    8 type  2   force =     0.00000135    0.00000078   -0.00135204
     atom    9 type  1   force =    -0.00000262   -0.00000151    0.00133937
     atom   10 type  2   force =    -0.00000147   -0.00000085   -0.00135268
     atom   11 type  1   force =     0.00000389    0.00000224    0.00135228
     atom   12 type  2   force =     0.00000147    0.00000085   -0.00135258
     atom   13 type  1   force =    -0.00001776   -0.00001025    0.00136553
     atom   14 type  2   force =    -0.00000248   -0.00000143   -0.00135168
     atom   15 type  1   force =     0.00000800    0.00000462    0.00137444
     atom   16 type  2   force =     0.00000199    0.00000115   -0.00135067
     atom   17 type  1   force =    -0.00001318   -0.00000761    0.00134194
     atom   18 type  2   force =    -0.00000180   -0.00000104   -0.00135091
     atom   19 type  1   force =     0.00001422    0.00000821    0.00133846
     atom   20 type  2   force =     0.00000194    0.00000112   -0.00135177
     atom   21 type  1   force =    -0.00001144   -0.00000661    0.00134549
     atom   22 type  2   force =    -0.00000213   -0.00000123   -0.00135230
     atom   23 type  1   force =     0.00001069    0.00000617    0.00135040
     atom   24 type  2   force =     0.00000190    0.00000110   -0.00135245
     The non-local contrib.  to forces
     atom    1 type  1   force =     0.00002046    0.00001181    0.01090581
     atom    2 type  2   force =    -0.00017612   -0.00010168   -0.00019403
     atom    3 type  1   force =    -0.00001753   -0.00001012    0.01090505
     atom    4 type  2   force =     0.00017553    0.00010134   -0.00019029
     atom    5 type  1   force =     0.00001934    0.00001117    0.01089293
     atom    6 type  2   force =    -0.00017625   -0.00010176   -0.00018205
     atom    7 type  1   force =    -0.00001920   -0.00001108    0.01088895
     atom    8 type  2   force =     0.00017538    0.00010125   -0.00018112
     atom    9 type  1   force =     0.00001878    0.00001084    0.01089214
     atom   10 type  2   force =    -0.00017565   -0.00010141   -0.00018489
     atom   11 type  1   force =    -0.00001832   -0.00001058    0.01089890
     atom   12 type  2   force =     0.00017548    0.00010131   -0.00018938
     atom   13 type  1   force =     0.00001453    0.00000839    0.01090558
     atom   14 type  2   force =    -0.00017863   -0.00010313   -0.00019311
     atom   15 type  1   force =    -0.00001798   -0.00001038    0.01090510
     atom   16 type  2   force =     0.00017931    0.00010352   -0.00018996
     atom   17 type  1   force =     0.00001610    0.00000930    0.01089081
     atom   18 type  2   force =    -0.00017834   -0.00010297   -0.00018040
     atom   19 type  1   force =    -0.00001618   -0.00000934    0.01088873
     atom   20 type  2   force =     0.00017929    0.00010351   -0.00018031
     atom   21 type  1   force =     0.00001672    0.00000965    0.01089283
     atom   22 type  2   force =    -0.00017911   -0.00010341   -0.00018498
     atom   23 type  1   force =    -0.00001704   -0.00000984    0.01089704
     atom   24 type  2   force =     0.00017933    0.00010354   -0.00018808
     The ionic contribution  to forces
     atom    1 type  1   force =     0.00000000   -0.00000000   -0.02077733
     atom    2 type  2   force =    -0.00000000    0.00000000    0.02077733
     atom    3 type  1   force =    -0.00000000    0.00000000   -0.02077733
     atom    4 type  2   force =     0.00000000   -0.00000000    0.02077733
     atom    5 type  1   force =    -0.00000000   -0.00000000   -0.02077733
     atom    6 type  2   force =    -0.00000000    0.00000000    0.02077733
     atom    7 type  1   force =    -0.00000000    0.00000000   -0.02077733
     atom    8 type  2   force =     0.00000000   -0.00000000    0.02077733
     atom    9 type  1   force =     0.00000000   -0.00000000   -0.02077733
     atom   10 type  2   force =     0.00000000    0.00000000    0.02077733
     atom   11 type  1   force =    -0.00000000    0.00000000   -0.02077733
     atom   12 type  2   force =     0.00000000   -0.00000000    0.02077733
     atom   13 type  1   force =     0.00000000   -0.00000000   -0.02077733
     atom   14 type  2   force =    -0.00000000    0.00000000    0.02077733
     atom   15 type  1   force =    -0.00000000    0.00000000   -0.02077733
     atom   16 type  2   force =    -0.00000000   -0.00000000    0.02077733
     atom   17 type  1   force =     0.00000000   -0.00000000   -0.02077733
     atom   18 type  2   force =    -0.00000000    0.00000000    0.02077733
     atom   19 type  1   force =    -0.00000000    0.00000000   -0.02077733
     atom   20 type  2   force =    -0.00000000   -0.00000000    0.02077733
     atom   21 type  1   force =     0.00000000   -0.00000000   -0.02077733
     atom   22 type  2   force =    -0.00000000    0.00000000    0.02077733
     atom   23 type  1   force =    -0.00000000    0.00000000   -0.02077733
     atom   24 type  2   force =     0.00000000   -0.00000000    0.02077733
     The local contribution  to forces
     atom    1 type  1   force =    -0.00004326   -0.00002498    0.01220168
     atom    2 type  2   force =     0.00017185    0.00009922   -0.02196556
     atom    3 type  1   force =     0.00003020    0.00001744    0.01219955
     atom    4 type  2   force =    -0.00017392   -0.00010041   -0.02197177
     atom    5 type  1   force =    -0.00003787   -0.00002186    0.01222972
     atom    6 type  2   force =     0.00017410    0.00010052   -0.02196068
     atom    7 type  1   force =     0.00003853    0.00002225    0.01224303
     atom    8 type  2   force =    -0.00017364   -0.00010025   -0.02195343
     atom    9 type  1   force =    -0.00003467   -0.00002002    0.01223669
     atom   10 type  2   force =     0.00017315    0.00009997   -0.02195427
     atom   11 type  1   force =     0.00003369    0.00001946    0.01221831
     atom   12 type  2   force =    -0.00017366   -0.00010026   -0.02195822
     atom   13 type  1   force =    -0.00001450   -0.00000837    0.01220045
     atom   14 type  2   force =     0.00017638    0.00010183   -0.02196907
     atom   15 type  1   force =     0.00002832    0.00001636    0.01218999
     atom   16 type  2   force =    -0.00017555   -0.00010135   -0.02197222
     atom   17 type  1   force =    -0.00002071   -0.00001196    0.01223474
     atom   18 type  2   force =     0.00017442    0.00010070   -0.02196154
     atom   19 type  1   force =     0.00001959    0.00001132    0.01223953
     atom   20 type  2   force =    -0.00017499   -0.00010103   -0.02195510
     atom   21 type  1   force =    -0.00002374   -0.00001370    0.01222885
     atom   22 type  2   force =     0.00017560    0.00010138   -0.02195548
     atom   23 type  1   force =     0.00002443    0.00001411    0.01222019
     atom   24 type  2   force =    -0.00017523   -0.00010117   -0.02195956
     The core correction contribution to forces
     atom    1 type  1   force =     0.00000508    0.00000293   -0.00098512
     atom    2 type  2   force =     0.00000200    0.00000116    0.00002090
     atom    3 type  1   force =    -0.00000482   -0.00000278   -0.00098493
     atom    4 type  2   force =    -0.00000200   -0.00000115    0.00002084
     atom    5 type  1   force =     0.00000497    0.00000287   -0.00098509
     atom    6 type  2   force =     0.00000201    0.00000116    0.00002074
     atom    7 type  1   force =    -0.00000503   -0.00000290   -0.00098520
     atom    8 type  2   force =    -0.00000200   -0.00000115    0.00002075
     atom    9 type  1   force =     0.00000488    0.00000282   -0.00098533
     atom   10 type  2   force =     0.00000200    0.00000115    0.00002079
     atom   11 type  1   force =    -0.00000492   -0.00000284   -0.00098510
     atom   12 type  2   force =    -0.00000200   -0.00000115    0.00002086
     atom   13 type  1   force =     0.00000447    0.00000258   -0.00098508
     atom   14 type  2   force =     0.00000205    0.00000118    0.00002088
     atom   15 type  1   force =    -0.00000470   -0.00000272   -0.00098452
     atom   16 type  2   force =    -0.00000206   -0.00000119    0.00002084
     atom   17 type  1   force =     0.00000456    0.00000263   -0.00098507
     atom   18 type  2   force =     0.00000204    0.00000118    0.00002071
     atom   19 type  1   force =    -0.00000452   -0.00000261   -0.00098502
     atom   20 type  2   force =    -0.00000205   -0.00000118    0.00002073
     atom   21 type  1   force =     0.00000465    0.00000268   -0.00098506
     atom   22 type  2   force =     0.00000205    0.00000118    0.00002079
     atom   23 type  1   force =    -0.00000463   -0.00000267   -0.00098496
     atom   24 type  2   force =    -0.00000206   -0.00000119    0.00002084
     The Hubbard contrib.    to forces
     atom    1 type  1   force =     0.00000000    0.00000000    0.00000000
     atom    2 type  2   force =     0.00000000    0.00000000    0.00000000
     atom    3 type  1   force =     0.00000000    0.00000000    0.00000000
     atom    4 type  2   force =     0.00000000    0.00000000    0.00000000
     atom    5 type  1   force =     0.00000000    0.00000000    0.00000000
     atom    6 type  2   force =     0.00000000    0.00000000    0.00000000
     atom    7 type  1   force =     0.00000000    0.00000000    0.00000000
     atom    8 type  2   force =     0.00000000    0.00000000    0.00000000
     atom    9 type  1   force =     0.00000000    0.00000000    0.00000000
     atom   10 type  2   force =     0.00000000    0.00000000    0.00000000
     atom   11 type  1   force =     0.00000000    0.00000000    0.00000000
     atom   12 type  2   force =     0.00000000    0.00000000    0.00000000
     atom   13 type  1   force =     0.00000000    0.00000000    0.00000000
     atom   14 type  2   force =     0.00000000    0.00000000    0.00000000
     atom   15 type  1   force =     0.00000000    0.00000000    0.00000000
     atom   16 type  2   force =     0.00000000    0.00000000    0.00000000
     atom   17 type  1   force =     0.00000000    0.00000000    0.00000000
     atom   18 type  2   force =     0.00000000    0.00000000    0.00000000
     atom   19 type  1   force =     0.00000000    0.00000000    0.00000000
     atom   20 type  2   force =     0.00000000    0.00000000    0.00000000
     atom   21 type  1   force =     0.00000000    0.00000000    0.00000000
     atom   22 type  2   force =     0.00000000    0.00000000    0.00000000
     atom   23 type  1   force =     0.00000000    0.00000000    0.00000000
     atom   24 type  2   force =     0.00000000    0.00000000    0.00000000
     The SCF correction term to forces
     atom    1 type  1   force =     0.00002141    0.00001236    0.00002145
     atom    2 type  2   force =     0.00000088    0.00000051    0.00001165
     atom    3 type  1   force =    -0.00000192   -0.00000111    0.00002829
     atom    4 type  2   force =     0.00000178    0.00000103    0.00001559
     atom    5 type  1   force =     0.00001323    0.00000764   -0.00001151
     atom    6 type  2   force =    -0.00000146   -0.00000085   -0.00000412
     atom    7 type  1   force =    -0.00001430   -0.00000826   -0.00003141
     atom    8 type  2   force =     0.00000164    0.00000095   -0.00001300
     atom    9 type  1   force =     0.00000843    0.00000486   -0.00002424
     atom   10 type  2   force =    -0.00000093   -0.00000054   -0.00000908
     atom   11 type  1   force =    -0.00000652   -0.00000377    0.00000006
     atom   12 type  2   force =     0.00000169    0.00000098   -0.00000060
     atom   13 type  1   force =    -0.00002222   -0.00001283    0.00002445
     atom   14 type  2   force =    -0.00000223   -0.00000129    0.00001485
     atom   15 type  1   force =     0.00000240    0.00000139    0.00004377
     atom   16 type  2   force =     0.00000033    0.00000019    0.00001590
     atom   17 type  1   force =    -0.00001309   -0.00000756   -0.00001865
     atom   18 type  2   force =     0.00000012    0.00000007   -0.00000446
     atom   19 type  1   force =     0.00001536    0.00000887   -0.00002488
     atom   20 type  2   force =    -0.00000027   -0.00000016   -0.00001186
     atom   21 type  1   force =    -0.00000903   -0.00000521   -0.00001125
     atom   22 type  2   force =    -0.00000064   -0.00000037   -0.00000740
     atom   23 type  1   force =     0.00000796    0.00000459   -0.00000197
     atom   24 type  2   force =    -0.00000012   -0.00000007   -0.00000042

     Total force =     0.006623     Total SCF correction =     0.000103

     Writing all to output data dir ./ZnO_213.save/

     General routines

     Parallel routines

   This run was terminated on:  21: 8:24   3Jul2025

   JOB DONE.