     Program PWSCF v.7.2 starts on  3Jul2025 at 18:39: 2

     Reading input from ZnO-133.in
Warning: card &CELL ignored
Warning: card / ignored
Warning: card &FCP ignored
Warning: card / ignored
Warning: card &RISM ignored
Warning: card / ignored

     Current dimensions of program PWSCF are:
     Max number of different atomic species (ntypx) = 10
     Max number of k-points (npk) =  40000
     Max angular momentum in pseudopotentials (lmaxx) =  4
     file Zn.upf: wavefunction(s)  3D renormalized
     Found identity + (  0.0000  0.0000  0.3333) symmetry
     This is a supercell, fractional translations are disabled
     Message from routine setup:
     using ibrav=0 with symmetry is DISCOURAGED, use correct ibrav instead

     K-points division:     npool     =       2
     R & G space division:  proc/nbgrp/npool/nimage =       8
     Subspace diagonalization in iterative solution of the eigenvalue problem:
     one sub-group per band group will be used

     Using Slab Decomposition

     bravais-lattice index     =            0
     lattice parameter (alat)  =       6.1789  a.u.
     unit-cell volume          =    2968.2254 (a.u.)^3
     number of atoms/cell      =           36
     number of atomic types    =            2
     number of electrons       =       324.00
     number of Kohn-Sham states=          162
     kinetic-energy cutoff     =      50.0000  Ry
     charge density cutoff     =     400.0000  Ry
     scf convergence threshold =      1.0E-08
     mixing beta               =       0.3000
     number of iterations used =            8  plain     mixing
     Exchange-correlation= PBE
                           (   1   4   3   4   0   0   0)

     celldm(1)=   6.178854  celldm(2)=   0.000000  celldm(3)=   0.000000
     celldm(4)=   0.000000  celldm(5)=   0.000000  celldm(6)=   0.000000

     crystal axes: (cart. coord. in units of alat)
               a(1) = (   1.000000   0.000000   0.000000 )
               a(2) = (  -1.500000   2.598076   0.000000 )
               a(3) = (   0.000000   0.000000   4.843075 )

     reciprocal axes: (cart. coord. in units 2 pi/alat)
               b(1) = (  1.000000  0.577350 -0.000000 )
               b(2) = (  0.000000  0.384900  0.000000 )
               b(3) = (  0.000000 -0.000000  0.206480 )

     PseudoPot. # 1 for Zn read from file:
     ../pseudos/Zn.upf
     MD5 check sum: 7f56cabf9682ed8c977c2f7d0c5985c5
     Pseudo is Ultrasoft + core correction, Zval = 12.0
     Generated using &quot;atomic&quot; code by A. Dal Corso  v.6.2.2
     Using radial grid of 1201 points,  6 beta functions with:
                l(1) =   0
                l(2) =   0
                l(3) =   1
                l(4) =   1
                l(5) =   2
                l(6) =   2
     Q(r) pseudized with 0 coefficients

     PseudoPot. # 2 for O  read from file:
     ../pseudos/O.upf
     MD5 check sum: 91400c9766925bcf19f520983a725ff0
     Pseudo is Ultrasoft + core correction, Zval =  6.0
     Generated using &quot;atomic&quot; code by A. Dal Corso  v.6.3MaX
     Using radial grid of 1095 points,  4 beta functions with:
                l(1) =   0
                l(2) =   0
                l(3) =   1
                l(4) =   1
     Q(r) pseudized with 0 coefficients

     atomic species   valence    mass     pseudopotential
        Zn            12.00    65.38000     Zn( 1.00)
        O              6.00    15.99900     O ( 1.00)

      2 Sym. Ops. (no inversion) found

   Cartesian axes

     site n.     atom                  positions (alat units)
         1           Zn  tau(   1) = (   0.0000000   0.0000000   0.0000000  )
         2           O   tau(   2) = (   0.0000000   0.5773503   0.1971092  )
         3           Zn  tau(   3) = (   0.0000000   0.5773503   0.8071792  )
         4           O   tau(   4) = (   0.0000000   0.0000000   1.0042884  )
         5           Zn  tau(   5) = (   0.0000000   0.0000000   1.6143584  )
         6           O   tau(   6) = (   0.0000000   0.5773503   1.8114676  )
         7           Zn  tau(   7) = (   0.0000000   0.5773503   2.4215375  )
         8           O   tau(   8) = (   0.0000000   0.0000000   2.6186467  )
         9           Zn  tau(   9) = (   0.0000000   0.0000000   3.2287167  )
        10           O   tau(  10) = (   0.0000000   0.5773503   3.4258259  )
        11           Zn  tau(  11) = (   0.0000000   0.5773503   4.0358959  )
        12           O   tau(  12) = (   0.0000000   0.0000000   4.2330051  )
        13           Zn  tau(  13) = (  -0.5000000   0.8660254   0.0000000  )
        14           O   tau(  14) = (  -0.5000000   1.4433757   0.1971092  )
        15           Zn  tau(  15) = (  -0.5000000   1.4433757   0.8071792  )
        16           O   tau(  16) = (  -0.5000000   0.8660254   1.0042884  )
        17           Zn  tau(  17) = (  -0.5000000   0.8660254   1.6143584  )
        18           O   tau(  18) = (  -0.5000000   1.4433757   1.8114676  )
        19           Zn  tau(  19) = (  -0.5000000   1.4433757   2.4215375  )
        20           O   tau(  20) = (  -0.5000000   0.8660254   2.6186467  )
        21           Zn  tau(  21) = (  -0.5000000   0.8660254   3.2287167  )
        22           O   tau(  22) = (  -0.5000000   1.4433757   3.4258259  )
        23           Zn  tau(  23) = (  -0.5000000   1.4433757   4.0358959  )
        24           O   tau(  24) = (  -0.5000000   0.8660254   4.2330051  )
        25           Zn  tau(  25) = (  -1.0000000   1.7320508   0.0000000  )
        26           O   tau(  26) = (  -1.0000000   2.3094011   0.1971092  )
        27           Zn  tau(  27) = (  -1.0000000   2.3094011   0.8071792  )
        28           O   tau(  28) = (  -1.0000000   1.7320508   1.0042884  )
        29           Zn  tau(  29) = (  -1.0000000   1.7320508   1.6143584  )
        30           O   tau(  30) = (  -1.0000000   2.3094011   1.8114676  )
        31           Zn  tau(  31) = (  -1.0000000   2.3094011   2.4215375  )
        32           O   tau(  32) = (  -1.0000000   1.7320508   2.6186467  )
        33           Zn  tau(  33) = (  -1.0000000   1.7320508   3.2287167  )
        34           O   tau(  34) = (  -1.0000000   2.3094011   3.4258259  )
        35           Zn  tau(  35) = (  -1.0000000   2.3094011   4.0358959  )
        36           O   tau(  36) = (  -1.0000000   1.7320508   4.2330051  )

     number of k points=    68
                       cart. coord. in units 2pi/alat
        k(    1) = (   0.0000000   0.0000000   0.0000000), wk =   0.0092593
        k(    2) = (   0.0000000   0.0000000   0.0344134), wk =   0.0185185
        k(    3) = (   0.0000000   0.0000000   0.0688268), wk =   0.0185185
        k(    4) = (   0.0000000   0.0000000  -0.1032402), wk =   0.0092593
        k(    5) = (   0.0000000   0.0641500   0.0000000), wk =   0.0185185
        k(    6) = (   0.0000000   0.0641500   0.0344134), wk =   0.0185185
        k(    7) = (   0.0000000   0.0641500   0.0688268), wk =   0.0185185
        k(    8) = (   0.0000000   0.0641500  -0.1032402), wk =   0.0185185
        k(    9) = (   0.0000000   0.1283001   0.0000000), wk =   0.0185185
        k(   10) = (   0.0000000   0.1283001   0.0344134), wk =   0.0185185
        k(   11) = (   0.0000000   0.1283001   0.0688268), wk =   0.0185185
        k(   12) = (   0.0000000   0.1283001  -0.1032402), wk =   0.0185185
        k(   13) = (   0.0000000  -0.1924501   0.0000000), wk =   0.0092593
        k(   14) = (   0.0000000  -0.1924501   0.0344134), wk =   0.0185185
        k(   15) = (   0.0000000  -0.1924501   0.0688268), wk =   0.0185185
        k(   16) = (   0.0000000  -0.1924501  -0.1032402), wk =   0.0092593
        k(   17) = (   0.1666667   0.0962250   0.0000000), wk =   0.0370370
        k(   18) = (   0.1666667   0.0962250   0.0344134), wk =   0.0370370
        k(   19) = (   0.1666667   0.0962250   0.0688268), wk =   0.0370370
        k(   20) = (   0.1666667   0.0962250  -0.1032402), wk =   0.0370370
        k(   21) = (   0.1666667   0.1603751   0.0000000), wk =   0.0370370
        k(   22) = (   0.1666667   0.1603751   0.0344134), wk =   0.0370370
        k(   23) = (   0.1666667   0.1603751   0.0688268), wk =   0.0370370
        k(   24) = (   0.1666667   0.1603751  -0.1032402), wk =   0.0370370
        k(   25) = (   0.1666667  -0.0320750   0.0000000), wk =   0.0370370
        k(   26) = (   0.1666667  -0.0320750   0.0344134), wk =   0.0370370
        k(   27) = (   0.1666667  -0.0320750   0.0688268), wk =   0.0370370
        k(   28) = (   0.1666667  -0.0320750  -0.1032402), wk =   0.0370370
        k(   29) = (   0.3333333   0.1924501   0.0000000), wk =   0.0185185
        k(   30) = (   0.3333333   0.1924501   0.0344134), wk =   0.0370370
        k(   31) = (   0.3333333   0.1924501   0.0688268), wk =   0.0370370
        k(   32) = (   0.3333333   0.1924501  -0.1032402), wk =   0.0185185
        k(   33) = (   0.3333333   0.2566001   0.0000000), wk =   0.0370370
        k(   34) = (   0.3333333   0.2566001   0.0344134), wk =   0.0370370
        k(   35) = (   0.3333333   0.2566001   0.0688268), wk =   0.0370370
        k(   36) = (   0.3333333   0.2566001  -0.1032402), wk =   0.0370370
        k(   37) = (   0.3333333   0.3207501   0.0000000), wk =   0.0370370
        k(   38) = (   0.3333333   0.3207501   0.0344134), wk =   0.0370370
        k(   39) = (   0.3333333   0.3207501   0.0688268), wk =   0.0370370
        k(   40) = (   0.3333333   0.3207501  -0.1032402), wk =   0.0370370
        k(   41) = (   0.3333333   0.0000000   0.0000000), wk =   0.0185185
        k(   42) = (   0.3333333   0.0000000   0.0344134), wk =   0.0370370
        k(   43) = (   0.3333333   0.0000000   0.0688268), wk =   0.0370370
        k(   44) = (   0.3333333   0.0000000  -0.1032402), wk =   0.0185185
        k(   45) = (  -0.5000000  -0.2886751   0.0000000), wk =   0.0185185
        k(   46) = (  -0.5000000  -0.2886751   0.0344134), wk =   0.0370370
        k(   47) = (  -0.5000000  -0.2886751   0.0688268), wk =   0.0370370
        k(   48) = (  -0.5000000  -0.2886751  -0.1032402), wk =   0.0185185
        k(   49) = (  -0.5000000  -0.2245251   0.0000000), wk =   0.0370370
        k(   50) = (  -0.5000000  -0.2245251   0.0344134), wk =   0.0370370
        k(   51) = (  -0.5000000  -0.2245251   0.0688268), wk =   0.0370370
        k(   52) = (  -0.5000000  -0.2245251  -0.1032402), wk =   0.0370370
        k(   53) = (   0.0000000   0.0641500  -0.0344134), wk =   0.0185185
        k(   54) = (   0.0000000   0.0641500  -0.0688268), wk =   0.0185185
        k(   55) = (   0.0000000   0.1283001  -0.0344134), wk =   0.0185185
        k(   56) = (   0.0000000   0.1283001  -0.0688268), wk =   0.0185185
        k(   57) = (  -0.1666667   0.0962250  -0.0344134), wk =   0.0370370
        k(   58) = (  -0.1666667   0.0962250  -0.0688268), wk =   0.0370370
        k(   59) = (  -0.1666667   0.1603751  -0.0344134), wk =   0.0370370
        k(   60) = (  -0.1666667   0.1603751  -0.0688268), wk =   0.0370370
        k(   61) = (  -0.1666667  -0.0320750  -0.0344134), wk =   0.0370370
        k(   62) = (  -0.1666667  -0.0320750  -0.0688268), wk =   0.0370370
[...]
     atom    2 type  2   force =     0.00000000    0.00022039   -0.00017659
     atom    3 type  1   force =     0.00000000    0.00001367    0.01090080
     atom    4 type  2   force =     0.00000000   -0.00022023   -0.00017626
     atom    5 type  1   force =     0.00000000   -0.00001289    0.01090252
     atom    6 type  2   force =     0.00000000    0.00021976   -0.00017551
     atom    7 type  1   force =     0.00000000    0.00001330    0.01090177
     atom    8 type  2   force =     0.00000000   -0.00021899   -0.00017513
     atom    9 type  1   force =     0.00000000   -0.00001423    0.01090145
     atom   10 type  2   force =     0.00000000    0.00021905   -0.00017630
     atom   11 type  1   force =     0.00000000    0.00001330    0.01090166
     atom   12 type  2   force =     0.00000000   -0.00022008   -0.00017639
     atom   13 type  1   force =     0.00000000   -0.00001414    0.01090258
     atom   14 type  2   force =     0.00000000    0.00021984   -0.00017594
     atom   15 type  1   force =     0.00000000    0.00001189    0.01090137
     atom   16 type  2   force =     0.00000000   -0.00021925   -0.00017560
     atom   17 type  1   force =     0.00000000   -0.00001453    0.01090109
     atom   18 type  2   force =     0.00000000    0.00021933   -0.00017656
     atom   19 type  1   force =     0.00000000    0.00001447    0.01090209
     atom   20 type  2   force =     0.00000000   -0.00021959   -0.00017576
     atom   21 type  1   force =     0.00000000   -0.00001358    0.01090175
     atom   22 type  2   force =     0.00000000    0.00021956   -0.00017518
     atom   23 type  1   force =     0.00000000    0.00001381    0.01090133
     atom   24 type  2   force =     0.00000000   -0.00021959   -0.00017580
     atom   25 type  1   force =     0.00000000   -0.00001303    0.01090146
     atom   26 type  2   force =     0.00000000    0.00021871   -0.00017540
     atom   27 type  1   force =     0.00000000    0.00001451    0.01090128
     atom   28 type  2   force =     0.00000000   -0.00021933   -0.00017541
     atom   29 type  1   force =     0.00000000   -0.00001313    0.01090235
     atom   30 type  2   force =     0.00000000    0.00021927   -0.00017599
     atom   31 type  1   force =     0.00000000    0.00001280    0.01090142
     atom   32 type  2   force =     0.00000000   -0.00021982   -0.00017597
     atom   33 type  1   force =     0.00000000   -0.00001301    0.01090087
     atom   34 type  2   force =     0.00000000    0.00021858   -0.00017591
     atom   35 type  1   force =     0.00000000    0.00001295    0.01090183
     atom   36 type  2   force =     0.00000000   -0.00022022   -0.00017454
     The ionic contribution  to forces
     atom    1 type  1   force =    -0.00000000    0.00000000   -0.02077733
     atom    2 type  2   force =     0.00000000    0.00000000    0.02077733
     atom    3 type  1   force =    -0.00000000    0.00000000   -0.02077733
     atom    4 type  2   force =    -0.00000000   -0.00000000    0.02077733
     atom    5 type  1   force =    -0.00000000    0.00000000   -0.02077733
     atom    6 type  2   force =     0.00000000    0.00000000    0.02077733
     atom    7 type  1   force =     0.00000000    0.00000000   -0.02077733
     atom    8 type  2   force =    -0.00000000   -0.00000000    0.02077733
     atom    9 type  1   force =    -0.00000000    0.00000000   -0.02077733
     atom   10 type  2   force =     0.00000000    0.00000000    0.02077733
     atom   11 type  1   force =     0.00000000    0.00000000   -0.02077733
     atom   12 type  2   force =    -0.00000000   -0.00000000    0.02077733
     atom   13 type  1   force =    -0.00000000    0.00000000   -0.02077733
     atom   14 type  2   force =    -0.00000000   -0.00000000    0.02077733
     atom   15 type  1   force =    -0.00000000   -0.00000000   -0.02077733
     atom   16 type  2   force =    -0.00000000    0.00000000    0.02077733
     atom   17 type  1   force =    -0.00000000    0.00000000   -0.02077733
     atom   18 type  2   force =    -0.00000000   -0.00000000    0.02077733
     atom   19 type  1   force =    -0.00000000   -0.00000000   -0.02077733
     atom   20 type  2   force =    -0.00000000    0.00000000    0.02077733
     atom   21 type  1   force =    -0.00000000    0.00000000   -0.02077733
     atom   22 type  2   force =    -0.00000000   -0.00000000    0.02077733
     atom   23 type  1   force =    -0.00000000   -0.00000000   -0.02077733
     atom   24 type  2   force =    -0.00000000    0.00000000    0.02077733
     atom   25 type  1   force =    -0.00000000   -0.00000000   -0.02077733
     atom   26 type  2   force =     0.00000000    0.00000000    0.02077733
     atom   27 type  1   force =    -0.00000000   -0.00000000   -0.02077733
     atom   28 type  2   force =    -0.00000000   -0.00000000    0.02077733
     atom   29 type  1   force =     0.00000000   -0.00000000   -0.02077733
     atom   30 type  2   force =     0.00000000    0.00000000    0.02077733
     atom   31 type  1   force =    -0.00000000   -0.00000000   -0.02077733
     atom   32 type  2   force =     0.00000000   -0.00000000    0.02077733
     atom   33 type  1   force =    -0.00000000   -0.00000000   -0.02077733
     atom   34 type  2   force =     0.00000000    0.00000000    0.02077733
     atom   35 type  1   force =    -0.00000000   -0.00000000   -0.02077733
     atom   36 type  2   force =     0.00000000   -0.00000000    0.02077733
     The local contribution  to forces
     atom    1 type  1   force =    -0.00000000    0.00002608    0.01221691
     atom    2 type  2   force =    -0.00000000   -0.00021477   -0.02197393
     atom    3 type  1   force =     0.00000000   -0.00002846    0.01221838
     atom    4 type  2   force =     0.00000000    0.00021158   -0.02196954
     atom    5 type  1   force =    -0.00000000    0.00002672    0.01221359
     atom    6 type  2   force =    -0.00000000   -0.00021334   -0.02196977
     atom    7 type  1   force =     0.00000000   -0.00002698    0.01221601
     atom    8 type  2   force =    -0.00000000    0.00021635   -0.02197190
     atom    9 type  1   force =     0.00000000    0.00002822    0.01221702
     atom   10 type  2   force =     0.00000000   -0.00021399   -0.02197056
     atom   11 type  1   force =     0.00000000   -0.00002736    0.01221671
     atom   12 type  2   force =    -0.00000000    0.00021547   -0.02197101
     atom   13 type  1   force =     0.00000000    0.00003002    0.01221453
     atom   14 type  2   force =    -0.00000000   -0.00021232   -0.02197256
     atom   15 type  1   force =     0.00000000   -0.00002393    0.01221549
     atom   16 type  2   force =     0.00000000    0.00021588   -0.02196873
     atom   17 type  1   force =     0.00000000    0.00002997    0.01221797
     atom   18 type  2   force =    -0.00000000   -0.00021459   -0.02197065
     atom   19 type  1   force =     0.00000000   -0.00002979    0.01221505
     atom   20 type  2   force =     0.00000000    0.00021370   -0.02197182
     atom   21 type  1   force =     0.00000000    0.00002819    0.01221632
     atom   22 type  2   force =     0.00000000   -0.00021550   -0.02197100
     atom   23 type  1   force =     0.00000000   -0.00002806    0.01221734
     atom   24 type  2   force =     0.00000000    0.00021408   -0.02197152
     atom   25 type  1   force =     0.00000000    0.00002588    0.01221729
     atom   26 type  2   force =    -0.00000000   -0.00021573   -0.02197029
     atom   27 type  1   force =     0.00000000   -0.00003007    0.01221687
     atom   28 type  2   force =     0.00000000    0.00021619   -0.02197131
     atom   29 type  1   force =     0.00000000    0.00002567    0.01221485
     atom   30 type  2   force =    -0.00000000   -0.00021473   -0.02197238
     atom   31 type  1   force =     0.00000000   -0.00002663    0.01221736
     atom   32 type  2   force =     0.00000000    0.00021327   -0.02197173
     atom   33 type  1   force =     0.00000000    0.00002666    0.01221865
     atom   34 type  2   force =    -0.00000000   -0.00021327   -0.02197057
     atom   35 type  1   force =     0.00000000   -0.00002732    0.01221560
     atom   36 type  2   force =     0.00000000    0.00021367   -0.02197113
     The core correction contribution to forces
     atom    1 type  1   force =     0.00000000   -0.00000639   -0.00098597
     atom    2 type  2   force =    -0.00000000   -0.00000250    0.00002069
     atom    3 type  1   force =    -0.00000000    0.00000643   -0.00098585
     atom    4 type  2   force =     0.00000000    0.00000249    0.00002070
     atom    5 type  1   force =     0.00000000   -0.00000645   -0.00098587
     atom    6 type  2   force =    -0.00000000   -0.00000249    0.00002069
     atom    7 type  1   force =    -0.00000000    0.00000641   -0.00098589
     atom    8 type  2   force =     0.00000000    0.00000249    0.00002068
     atom    9 type  1   force =     0.00000000   -0.00000633   -0.00098596
     atom   10 type  2   force =    -0.00000000   -0.00000248    0.00002069
     atom   11 type  1   force =    -0.00000000    0.00000640   -0.00098590
     atom   12 type  2   force =     0.00000000    0.00000250    0.00002070
     atom   13 type  1   force =     0.00000000   -0.00000647   -0.00098599
     atom   14 type  2   force =     0.00000000   -0.00000249    0.00002069
     atom   15 type  1   force =     0.00000000    0.00000641   -0.00098579
     atom   16 type  2   force =     0.00000000    0.00000249    0.00002070
     atom   17 type  1   force =     0.00000000   -0.00000642   -0.00098595
     atom   18 type  2   force =     0.00000000   -0.00000249    0.00002070
     atom   19 type  1   force =     0.00000000    0.00000639   -0.00098586
     atom   20 type  2   force =     0.00000000    0.00000249    0.00002069
     atom   21 type  1   force =     0.00000000   -0.00000644   -0.00098593
     atom   22 type  2   force =     0.00000000   -0.00000249    0.00002068
     atom   23 type  1   force =     0.00000000    0.00000636   -0.00098587
     atom   24 type  2   force =     0.00000000    0.00000249    0.00002069
     atom   25 type  1   force =     0.00000000   -0.00000636   -0.00098600
     atom   26 type  2   force =     0.00000000   -0.00000248    0.00002068
     atom   27 type  1   force =     0.00000000    0.00000637   -0.00098587
     atom   28 type  2   force =     0.00000000    0.00000249    0.00002069
     atom   29 type  1   force =     0.00000000   -0.00000635   -0.00098595
     atom   30 type  2   force =     0.00000000   -0.00000249    0.00002069
     atom   31 type  1   force =     0.00000000    0.00000639   -0.00098593
     atom   32 type  2   force =    -0.00000000    0.00000249    0.00002069
     atom   33 type  1   force =     0.00000000   -0.00000642   -0.00098593
     atom   34 type  2   force =     0.00000000   -0.00000248    0.00002069
     atom   35 type  1   force =     0.00000000    0.00000645   -0.00098584
     atom   36 type  2   force =     0.00000000    0.00000250    0.00002068
     The Hubbard contrib.    to forces
     atom    1 type  1   force =     0.00000000    0.00000000    0.00000000
     atom    2 type  2   force =     0.00000000    0.00000000    0.00000000
     atom    3 type  1   force =     0.00000000    0.00000000    0.00000000
     atom    4 type  2   force =     0.00000000    0.00000000    0.00000000
     atom    5 type  1   force =     0.00000000    0.00000000    0.00000000
     atom    6 type  2   force =     0.00000000    0.00000000    0.00000000
     atom    7 type  1   force =     0.00000000    0.00000000    0.00000000
     atom    8 type  2   force =     0.00000000    0.00000000    0.00000000
     atom    9 type  1   force =     0.00000000    0.00000000    0.00000000
     atom   10 type  2   force =     0.00000000    0.00000000    0.00000000
     atom   11 type  1   force =     0.00000000    0.00000000    0.00000000
     atom   12 type  2   force =     0.00000000    0.00000000    0.00000000
     atom   13 type  1   force =     0.00000000    0.00000000    0.00000000
     atom   14 type  2   force =     0.00000000    0.00000000    0.00000000
     atom   15 type  1   force =     0.00000000    0.00000000    0.00000000
     atom   16 type  2   force =     0.00000000    0.00000000    0.00000000
     atom   17 type  1   force =     0.00000000    0.00000000    0.00000000
     atom   18 type  2   force =     0.00000000    0.00000000    0.00000000
     atom   19 type  1   force =     0.00000000    0.00000000    0.00000000
     atom   20 type  2   force =     0.00000000    0.00000000    0.00000000
     atom   21 type  1   force =     0.00000000    0.00000000    0.00000000
     atom   22 type  2   force =     0.00000000    0.00000000    0.00000000
     atom   23 type  1   force =     0.00000000    0.00000000    0.00000000
     atom   24 type  2   force =     0.00000000    0.00000000    0.00000000
     atom   25 type  1   force =     0.00000000    0.00000000    0.00000000
     atom   26 type  2   force =     0.00000000    0.00000000    0.00000000
     atom   27 type  1   force =     0.00000000    0.00000000    0.00000000
     atom   28 type  2   force =     0.00000000    0.00000000    0.00000000
     atom   29 type  1   force =     0.00000000    0.00000000    0.00000000
     atom   30 type  2   force =     0.00000000    0.00000000    0.00000000
     atom   31 type  1   force =     0.00000000    0.00000000    0.00000000
     atom   32 type  2   force =     0.00000000    0.00000000    0.00000000
     atom   33 type  1   force =     0.00000000    0.00000000    0.00000000
     atom   34 type  2   force =     0.00000000    0.00000000    0.00000000
     atom   35 type  1   force =     0.00000000    0.00000000    0.00000000
     atom   36 type  2   force =     0.00000000    0.00000000    0.00000000
     The SCF correction term to forces
     atom    1 type  1   force =    -0.00000000    0.00000231    0.00000148
     atom    2 type  2   force =     0.00000000   -0.00000020    0.00000323
     atom    3 type  1   force =     0.00000000    0.00000146   -0.00000175
     atom    4 type  2   force =     0.00000000    0.00000394   -0.00000223
     atom    5 type  1   force =    -0.00000000    0.00000177    0.00000547
     atom    6 type  2   force =     0.00000000   -0.00000194   -0.00000290
     atom    7 type  1   force =     0.00000000   -0.00000147    0.00000265
     atom    8 type  2   force =     0.00000000   -0.00000228    0.00000002
     atom    9 type  1   force =    -0.00000000   -0.00000109   -0.00000021
     atom   10 type  2   force =     0.00000000   -0.00000026   -0.00000095
     atom   11 type  1   force =    -0.00000000   -0.00000043    0.00000143
     atom   12 type  2   force =     0.00000000   -0.00000095   -0.00000045
     atom   13 type  1   force =    -0.00000000   -0.00000287    0.00000552
     atom   14 type  2   force =     0.00000000   -0.00000270    0.00000110
     atom   15 type  1   force =     0.00000000   -0.00000525    0.00000309
     atom   16 type  2   force =     0.00000000   -0.00000163   -0.00000359
     atom   17 type  1   force =    -0.00000000   -0.00000251   -0.00000090
     atom   18 type  2   force =     0.00000000    0.00000044   -0.00000052
     atom   19 type  1   force =     0.00000000    0.00000320    0.00000393
     atom   20 type  2   force =     0.00000000    0.00000116    0.00000039
     atom   21 type  1   force =    -0.00000000    0.00000025    0.00000100
     atom   22 type  2   force =     0.00000000    0.00000076   -0.00000169
     atom   23 type  1   force =     0.00000000    0.00000099    0.00000067
     atom   24 type  2   force =     0.00000000    0.00000036   -0.00000042
     atom   25 type  1   force =    -0.00000000    0.00000231    0.00000068
     atom   26 type  2   force =     0.00000000    0.00000228   -0.00000192
     atom   27 type  1   force =     0.00000000    0.00000398    0.00000149
     atom   28 type  2   force =     0.00000000   -0.00000205   -0.00000074
     atom   29 type  1   force =    -0.00000000    0.00000299    0.00000358
     atom   30 type  2   force =     0.00000000    0.00000061    0.00000121
     atom   31 type  1   force =     0.00000000   -0.00000102    0.00000126
     atom   32 type  2   force =     0.00000000    0.00000184    0.00000026
     atom   33 type  1   force =    -0.00000000    0.00000127   -0.00000229
     atom   34 type  2   force =     0.00000000   -0.00000083   -0.00000156
     atom   35 type  1   force =    -0.00000000   -0.00000053    0.00000319
     atom   36 type  2   force =     0.00000000    0.00000159   -0.00000177

     Total force =     0.008118     Total SCF correction =     0.000019

     Writing all to output data dir ./ZnO_133.save/

     General routines

     Parallel routines

   This run was terminated on:  20: 0:47   3Jul2025

   JOB DONE.