     Program PWSCF v.7.2 starts on 13Jun2025 at 16: 3:23

     Reading input from /home/jvc/QEspresso7.2/ZnO_database_python/SCFs.in/scf-5.87-1.50.in

     Current dimensions of program PWSCF are:
     Max number of different atomic species (ntypx) = 10
     Max number of k-points (npk) =  40000
     Max angular momentum in pseudopotentials (lmaxx) =  4
     file Zn.upf: wavefunction(s)  3D renormalized

     R & G space division:  proc/nbgrp/npool/nimage =       8
     Subspace diagonalization in iterative solution of the eigenvalue problem:
     a serial algorithm will be used

     Using Slab Decomposition

     bravais-lattice index     =            4
     lattice parameter (alat)  =       5.8699  a.u.
     unit-cell volume          =     262.9670 (a.u.)^3
     number of atoms/cell      =            4
     number of atomic types    =            2
     number of electrons       =        36.00
     number of Kohn-Sham states=           18
     kinetic-energy cutoff     =      50.0000  Ry
     charge density cutoff     =     400.0000  Ry
     scf convergence threshold =      1.0E-08
     mixing beta               =       0.3000
     number of iterations used =            8  plain     mixing
     Exchange-correlation= PBE
                           (   1   4   3   4   0   0   0)

     celldm(1)=   5.869880  celldm(2)=   0.000000  celldm(3)=   1.501353
     celldm(4)=   0.000000  celldm(5)=   0.000000  celldm(6)=   0.000000

     crystal axes: (cart. coord. in units of alat)
               a(1) = (   1.000000   0.000000   0.000000 )
               a(2) = (  -0.500000   0.866025   0.000000 )
               a(3) = (   0.000000   0.000000   1.501353 )

     reciprocal axes: (cart. coord. in units 2 pi/alat)
               b(1) = (  1.000000  0.577350 -0.000000 )
               b(2) = (  0.000000  1.154701  0.000000 )
               b(3) = (  0.000000 -0.000000  0.666066 )

     PseudoPot. # 1 for Zn read from file:
     /home/jvc/QEspresso7.2/ZnO_database/pseudos/Zn.upf
     MD5 check sum: 7f56cabf9682ed8c977c2f7d0c5985c5
     Pseudo is Ultrasoft + core correction, Zval = 12.0
     Generated using &quot;atomic&quot; code by A. Dal Corso  v.6.2.2
     Using radial grid of 1201 points,  6 beta functions with:
                l(1) =   0
                l(2) =   0
                l(3) =   1
                l(4) =   1
                l(5) =   2
                l(6) =   2
     Q(r) pseudized with 0 coefficients

     PseudoPot. # 2 for O  read from file:
     /home/jvc/QEspresso7.2/ZnO_database/pseudos/O.upf
     MD5 check sum: 91400c9766925bcf19f520983a725ff0
     Pseudo is Ultrasoft + core correction, Zval =  6.0
     Generated using &quot;atomic&quot; code by A. Dal Corso  v.6.3MaX
     Using radial grid of 1095 points,  4 beta functions with:
                l(1) =   0
                l(2) =   0
                l(3) =   1
                l(4) =   1
     Q(r) pseudized with 0 coefficients

     atomic species   valence    mass     pseudopotential
        Zn            12.00    63.38000     Zn( 1.00)
        O              6.00    15.99900     O ( 1.00)

     12 Sym. Ops. (no inversion) found ( 6 have fractional translation)

   Cartesian axes

     site n.     atom                  positions (alat units)
         1           Zn  tau(   1) = (   0.5000000   0.2886751   0.7516279  )
         2           Zn  tau(   2) = (  -0.0000000   0.5773503   0.0009512  )
         3           O   tau(   3) = (   0.5000000   0.2886751   1.3207051  )
         4           O   tau(   4) = (  -0.0000000   0.5773503   0.5700284  )

     number of k points=    28
                       cart. coord. in units 2pi/alat
        k(    1) = (   0.0000000   0.0000000   0.0000000), wk =   0.0092593
        k(    2) = (   0.0000000   0.0000000   0.1110110), wk =   0.0185185
        k(    3) = (   0.0000000   0.0000000   0.2220219), wk =   0.0185185
        k(    4) = (   0.0000000   0.0000000  -0.3330329), wk =   0.0092593
        k(    5) = (   0.0000000   0.1924501   0.0000000), wk =   0.0555556
        k(    6) = (   0.0000000   0.1924501   0.1110110), wk =   0.1111111
        k(    7) = (   0.0000000   0.1924501   0.2220219), wk =   0.1111111
        k(    8) = (   0.0000000   0.1924501  -0.3330329), wk =   0.0555556
        k(    9) = (   0.0000000   0.3849002   0.0000000), wk =   0.0555556
        k(   10) = (   0.0000000   0.3849002   0.1110110), wk =   0.1111111
        k(   11) = (   0.0000000   0.3849002   0.2220219), wk =   0.1111111
        k(   12) = (   0.0000000   0.3849002  -0.3330329), wk =   0.0555556
        k(   13) = (   0.0000000  -0.5773503   0.0000000), wk =   0.0277778
        k(   14) = (   0.0000000  -0.5773503   0.1110110), wk =   0.0555556
        k(   15) = (   0.0000000  -0.5773503   0.2220219), wk =   0.0555556
        k(   16) = (   0.0000000  -0.5773503  -0.3330329), wk =   0.0277778
        k(   17) = (   0.1666667   0.2886751   0.0000000), wk =   0.0555556
        k(   18) = (   0.1666667   0.2886751   0.1110110), wk =   0.1111111
        k(   19) = (   0.1666667   0.2886751   0.2220219), wk =   0.1111111
        k(   20) = (   0.1666667   0.2886751  -0.3330329), wk =   0.0555556
        k(   21) = (   0.1666667   0.4811252   0.0000000), wk =   0.1111111
        k(   22) = (   0.1666667   0.4811252   0.1110110), wk =   0.2222222
        k(   23) = (   0.1666667   0.4811252   0.2220219), wk =   0.2222222
        k(   24) = (   0.1666667   0.4811252  -0.3330329), wk =   0.1111111
        k(   25) = (   0.3333333   0.5773503   0.0000000), wk =   0.0185185
        k(   26) = (   0.3333333   0.5773503   0.1110110), wk =   0.0370370
        k(   27) = (   0.3333333   0.5773503   0.2220219), wk =   0.0370370
        k(   28) = (   0.3333333   0.5773503  -0.3330329), wk =   0.0185185

     Check: negative core charge=   -0.000001

     Initial potential from superposition of free atoms

     starting charge      35.9925, renormalised to      36.0000
     Starting wfcs are   26 randomized atomic wfcs

     Self-consistent Calculation

     iteration #  1     ecut=    50.00 Ry     beta= 0.30
     Davidson diagonalization with overlap
     ethr =  1.00E-02,  avg # of iterations =  2.0

     total energy              =    -361.38735098 Ry
     estimated scf accuracy    <       0.68089760 Ry

[...]

     total energy              =    -361.52249915 Ry
     estimated scf accuracy    <       0.00000195 Ry

     iteration # 26     ecut=    50.00 Ry     beta= 0.30
     Davidson diagonalization with overlap
     ethr =  2.82E-09,  avg # of iterations =  4.7

     End of self-consistent calculation

          k = 0.0000 0.0000 0.0000 (  1567 PWs)   bands (ev):

    -9.3150  -8.0870   3.4288   3.7623   3.7623   3.8045   4.0756   4.0756
     5.5466   5.5466   5.9456   5.9456   6.2764   9.3256   9.3256  10.5924
    10.5924  10.6093

[...]

          k = 0.3333 0.5774-0.3330 (  1578 PWs)   bands (ev):

    -8.0490  -8.0490   3.2340   3.2340   3.8466   3.8466   4.6107   4.6107
     5.6009   5.6009   6.4001   6.4001   6.5854   6.5854   7.3925   7.3925
     9.2952   9.2952

     highest occupied level (ev):    10.6093

!    total energy              =    -361.52249954 Ry
     estimated scf accuracy    <          1.7E-09 Ry

     The total energy is the sum of the following terms:
     one-electron contribution =    -128.54875875 Ry
     hartree contribution      =     109.45691381 Ry
     xc contribution           =    -110.08877351 Ry
     ewald contribution        =    -232.34188109 Ry

     convergence has been achieved in  26 iterations

     Forces acting on atoms (cartesian axes, Ry/au):

     atom    1 type  1   force =     0.00000000    0.00000000   -0.07584839
     atom    2 type  1   force =     0.00000000    0.00000000   -0.07584839
     atom    3 type  2   force =     0.00000000    0.00000000    0.07584839
     atom    4 type  2   force =     0.00000000    0.00000000    0.07584839
     The non-local contrib.  to forces
     atom    1 type  1   force =     0.00000000    0.00000000   -0.24163513
     atom    2 type  1   force =     0.00000000   -0.00000000   -0.24163513
     atom    3 type  2   force =     0.00000000    0.00000000   -0.14699070
     atom    4 type  2   force =     0.00000000   -0.00000000   -0.14699070
     The ionic contribution  to forces
     atom    1 type  1   force =    -0.00000000    0.00000000   -1.66445226
     atom    2 type  1   force =     0.00000000   -0.00000000   -1.66445226
     atom    3 type  2   force =    -0.00000000    0.00000000    1.66445226
     atom    4 type  2   force =     0.00000000   -0.00000000    1.66445226
     The local contribution  to forces
     atom    1 type  1   force =    -0.00000002    0.00000001    1.80771968
     atom    2 type  1   force =     0.00000006   -0.00000003    1.80771968
     atom    3 type  2   force =    -0.00000001    0.00000000   -1.44245701
     atom    4 type  2   force =     0.00000002   -0.00000001   -1.44245701
     The core correction contribution to forces
     atom    1 type  1   force =    -0.00000000    0.00000000    0.02254174
     atom    2 type  1   force =     0.00000001   -0.00000000    0.02254174
     atom    3 type  2   force =     0.00000000   -0.00000000    0.00082843
     atom    4 type  2   force =    -0.00000000    0.00000000    0.00082843
     The Hubbard contrib.    to forces
     atom    1 type  1   force =     0.00000000    0.00000000    0.00000000
     atom    2 type  1   force =     0.00000000    0.00000000    0.00000000
     atom    3 type  2   force =     0.00000000    0.00000000    0.00000000
     atom    4 type  2   force =     0.00000000    0.00000000    0.00000000
     The SCF correction term to forces
     atom    1 type  1   force =    -0.00000000    0.00000000   -0.00003539
     atom    2 type  1   force =     0.00000000   -0.00000000   -0.00003539
     atom    3 type  2   force =    -0.00000000    0.00000000    0.00000245
     atom    4 type  2   force =     0.00000000   -0.00000000    0.00000245

     Total force =     0.151697     Total SCF correction =     0.000050

     Computing stress (Cartesian axis) and pressure

          total   stress  (Ry/bohr**3)                   (kbar)     P=      519.13
   0.00270528   0.00000000  -0.00000000          397.96        0.00       -0.00
   0.00000000   0.00270528  -0.00000000            0.00      397.96       -0.00
   0.00000000   0.00000000   0.00517628            0.00        0.00      761.46

     Writing all to output data dir ./ZnO_ANN.save/

     General routines

     Parallel routines

   This run was terminated on:  16: 3:56  13Jun2025

   JOB DONE.
Note: The following floating-point exceptions are signalling: IEEE_INVALID_FLAG