     Program PWSCF v.7.2 starts on 13Jun2025 at 15:14:11

     Reading input from /home/jvc/QEspresso7.2/ZnO_database_python/SCFs.in/scf-5.56-1.45.in

     Current dimensions of program PWSCF are:
     Max number of different atomic species (ntypx) = 10
     Max number of k-points (npk) =  40000
     Max angular momentum in pseudopotentials (lmaxx) =  4
     file Zn.upf: wavefunction(s)  3D renormalized

     R & G space division:  proc/nbgrp/npool/nimage =       8
     Subspace diagonalization in iterative solution of the eigenvalue problem:
     a serial algorithm will be used

     Using Slab Decomposition

     bravais-lattice index     =            4
     lattice parameter (alat)  =       5.5609  a.u.
     unit-cell volume          =     216.3802 (a.u.)^3
     number of atoms/cell      =            4
     number of atomic types    =            2
     number of electrons       =        36.00
     number of Kohn-Sham states=           18
     kinetic-energy cutoff     =      50.0000  Ry
     charge density cutoff     =     400.0000  Ry
     scf convergence threshold =      1.0E-08
     mixing beta               =       0.3000
     number of iterations used =            8  plain     mixing
     Exchange-correlation= PBE
                           (   1   4   3   4   0   0   0)

     celldm(1)=   5.560939  celldm(2)=   0.000000  celldm(3)=   1.452923
     celldm(4)=   0.000000  celldm(5)=   0.000000  celldm(6)=   0.000000

     crystal axes: (cart. coord. in units of alat)
               a(1) = (   1.000000   0.000000   0.000000 )
               a(2) = (  -0.500000   0.866025   0.000000 )
               a(3) = (   0.000000   0.000000   1.452923 )

     reciprocal axes: (cart. coord. in units 2 pi/alat)
               b(1) = (  1.000000  0.577350 -0.000000 )
               b(2) = (  0.000000  1.154701  0.000000 )
               b(3) = (  0.000000 -0.000000  0.688268 )

     PseudoPot. # 1 for Zn read from file:
     /home/jvc/QEspresso7.2/ZnO_database/pseudos/Zn.upf
     MD5 check sum: 7f56cabf9682ed8c977c2f7d0c5985c5
     Pseudo is Ultrasoft + core correction, Zval = 12.0
     Generated using &quot;atomic&quot; code by A. Dal Corso  v.6.2.2
     Using radial grid of 1201 points,  6 beta functions with:
                l(1) =   0
                l(2) =   0
                l(3) =   1
                l(4) =   1
                l(5) =   2
                l(6) =   2
     Q(r) pseudized with 0 coefficients

     PseudoPot. # 2 for O  read from file:
     /home/jvc/QEspresso7.2/ZnO_database/pseudos/O.upf
     MD5 check sum: 91400c9766925bcf19f520983a725ff0
     Pseudo is Ultrasoft + core correction, Zval =  6.0
     Generated using &quot;atomic&quot; code by A. Dal Corso  v.6.3MaX
     Using radial grid of 1095 points,  4 beta functions with:
                l(1) =   0
                l(2) =   0
                l(3) =   1
                l(4) =   1
     Q(r) pseudized with 0 coefficients

     atomic species   valence    mass     pseudopotential
        Zn            12.00    63.38000     Zn( 1.00)
        O              6.00    15.99900     O ( 1.00)

     12 Sym. Ops. (no inversion) found ( 6 have fractional translation)

   Cartesian axes

     site n.     atom                  positions (alat units)
         1           Zn  tau(   1) = (   0.5000000   0.2886751   0.7273818  )
         2           Zn  tau(   2) = (  -0.0000000   0.5773503   0.0009206  )
         3           O   tau(   3) = (   0.5000000   0.2886751   1.2781017  )
         4           O   tau(   4) = (  -0.0000000   0.5773503   0.5516404  )

     number of k points=    28
                       cart. coord. in units 2pi/alat
        k(    1) = (   0.0000000   0.0000000   0.0000000), wk =   0.0092593
        k(    2) = (   0.0000000   0.0000000   0.1147113), wk =   0.0185185
        k(    3) = (   0.0000000   0.0000000   0.2294226), wk =   0.0185185
        k(    4) = (   0.0000000   0.0000000  -0.3441340), wk =   0.0092593
        k(    5) = (   0.0000000   0.1924501   0.0000000), wk =   0.0555556
        k(    6) = (   0.0000000   0.1924501   0.1147113), wk =   0.1111111
        k(    7) = (   0.0000000   0.1924501   0.2294226), wk =   0.1111111
        k(    8) = (   0.0000000   0.1924501  -0.3441340), wk =   0.0555556
        k(    9) = (   0.0000000   0.3849002   0.0000000), wk =   0.0555556
        k(   10) = (   0.0000000   0.3849002   0.1147113), wk =   0.1111111
        k(   11) = (   0.0000000   0.3849002   0.2294226), wk =   0.1111111
        k(   12) = (   0.0000000   0.3849002  -0.3441340), wk =   0.0555556
        k(   13) = (   0.0000000  -0.5773503   0.0000000), wk =   0.0277778
        k(   14) = (   0.0000000  -0.5773503   0.1147113), wk =   0.0555556
        k(   15) = (   0.0000000  -0.5773503   0.2294226), wk =   0.0555556
        k(   16) = (   0.0000000  -0.5773503  -0.3441340), wk =   0.0277778
        k(   17) = (   0.1666667   0.2886751   0.0000000), wk =   0.0555556
        k(   18) = (   0.1666667   0.2886751   0.1147113), wk =   0.1111111
        k(   19) = (   0.1666667   0.2886751   0.2294226), wk =   0.1111111
        k(   20) = (   0.1666667   0.2886751  -0.3441340), wk =   0.0555556
        k(   21) = (   0.1666667   0.4811252   0.0000000), wk =   0.1111111
        k(   22) = (   0.1666667   0.4811252   0.1147113), wk =   0.2222222
        k(   23) = (   0.1666667   0.4811252   0.2294226), wk =   0.2222222
        k(   24) = (   0.1666667   0.4811252  -0.3441340), wk =   0.1111111
        k(   25) = (   0.3333333   0.5773503   0.0000000), wk =   0.0185185
        k(   26) = (   0.3333333   0.5773503   0.1147113), wk =   0.0370370
        k(   27) = (   0.3333333   0.5773503   0.2294226), wk =   0.0370370
        k(   28) = (   0.3333333   0.5773503  -0.3441340), wk =   0.0185185

     Initial potential from superposition of free atoms

     starting charge      35.9925, renormalised to      36.0000
     Starting wfcs are   26 randomized atomic wfcs

     Self-consistent Calculation

     iteration #  1     ecut=    50.00 Ry     beta= 0.30
     Davidson diagonalization with overlap
     ethr =  1.00E-02,  avg # of iterations =  2.2

     total energy              =    -361.06675911 Ry
     estimated scf accuracy    <       0.74420995 Ry

[...]

     total energy              =    -361.19576756 Ry
     estimated scf accuracy    <       0.00000007 Ry

     iteration # 17     ecut=    50.00 Ry     beta= 0.30
     Davidson diagonalization with overlap
     ethr =  4.67E-11,  avg # of iterations =  4.7

     End of self-consistent calculation

          k = 0.0000 0.0000 0.0000 (  1255 PWs)   bands (ev):

    -7.5761  -5.7815   5.5528   6.0976   6.0976   6.1932   6.5296   6.5296
     8.6036   8.6036   9.2381   9.2381   9.7400  12.8948  12.8948  14.6205
    14.6205  14.6459

[...]

          k = 0.3333 0.5774-0.3441 (  1290 PWs)   bands (ev):

    -5.7893  -5.7893   5.1938   5.1938   6.0120   6.0120   7.1316   7.1316
     8.7132   8.7132   9.9073   9.9073  10.0453  10.0453  10.7507  10.7507
    13.1714  13.1714

     highest occupied level (ev):    14.6459

!    total energy              =    -361.19576756 Ry
     estimated scf accuracy    <          7.6E-09 Ry

     The total energy is the sum of the following terms:
     one-electron contribution =    -104.90943426 Ry
     hartree contribution      =     101.92071242 Ry
     xc contribution           =    -110.69611850 Ry
     ewald contribution        =    -247.51092722 Ry

     convergence has been achieved in  17 iterations

     Forces acting on atoms (cartesian axes, Ry/au):

     atom    1 type  1   force =    -0.00000000   -0.00000000   -0.21626081
     atom    2 type  1   force =     0.00000000    0.00000000   -0.21626081
     atom    3 type  2   force =     0.00000000    0.00000000    0.21626081
     atom    4 type  2   force =     0.00000000   -0.00000000    0.21626081
     The non-local contrib.  to forces
     atom    1 type  1   force =     0.00000000   -0.00000000   -0.38242676
     atom    2 type  1   force =    -0.00000000   -0.00000000   -0.38242676
     atom    3 type  2   force =    -0.00000000   -0.00000000   -0.18158140
     atom    4 type  2   force =     0.00000000    0.00000000   -0.18158140
     The ionic contribution  to forces
     atom    1 type  1   force =    -0.00000000    0.00000000   -2.79038740
     atom    2 type  1   force =     0.00000000   -0.00000000   -2.79038740
     atom    3 type  2   force =    -0.00000000    0.00000000    2.79038740
     atom    4 type  2   force =     0.00000000   -0.00000000    2.79038740
     The local contribution  to forces
     atom    1 type  1   force =    -0.00000002    0.00000001    2.91311106
     atom    2 type  1   force =     0.00000006   -0.00000003    2.91311105
     atom    3 type  2   force =    -0.00000001    0.00000000   -2.39308936
     atom    4 type  2   force =     0.00000002   -0.00000001   -2.39308936
     The core correction contribution to forces
     atom    1 type  1   force =    -0.00000000    0.00000000    0.04346817
     atom    2 type  1   force =     0.00000001   -0.00000000    0.04346817
     atom    3 type  2   force =     0.00000000   -0.00000000    0.00053190
     atom    4 type  2   force =    -0.00000000    0.00000000    0.00053190
     The Hubbard contrib.    to forces
     atom    1 type  1   force =     0.00000000    0.00000000    0.00000000
     atom    2 type  1   force =     0.00000000    0.00000000    0.00000000
     atom    3 type  2   force =     0.00000000    0.00000000    0.00000000
     atom    4 type  2   force =     0.00000000    0.00000000    0.00000000
     The SCF correction term to forces
     atom    1 type  1   force =     0.00000000   -0.00000000   -0.00003461
     atom    2 type  1   force =    -0.00000000    0.00000000   -0.00003461
     atom    3 type  2   force =     0.00000000   -0.00000000    0.00000353
     atom    4 type  2   force =    -0.00000000    0.00000000    0.00000353

     Total force =     0.432522     Total SCF correction =     0.000049

     Computing stress (Cartesian axis) and pressure

          total   stress  (Ry/bohr**3)                   (kbar)     P=     1508.74
   0.00794052   0.00000000  -0.00000000         1168.09        0.00       -0.00
   0.00000000   0.00794052  -0.00000000            0.00     1168.09       -0.00
  -0.00000000  -0.00000000   0.01488760           -0.00       -0.00     2190.04

     Writing all to output data dir ./ZnO_ANN.save/

     General routines

     Parallel routines

   This run was terminated on:  15:14:33  13Jun2025

   JOB DONE.
Note: The following floating-point exceptions are signalling: IEEE_INVALID_FLAG