     Program PWSCF v.7.2 starts on 13Jun2025 at 19:14:14

     Reading input from /home/jvc/QEspresso7.2/ZnO_database_python/SCFs.in/scf-6.61-1.70.in

     Current dimensions of program PWSCF are:
     Max number of different atomic species (ntypx) = 10
     Max number of k-points (npk) =  40000
     Max angular momentum in pseudopotentials (lmaxx) =  4
     file Zn.upf: wavefunction(s)  3D renormalized

     R & G space division:  proc/nbgrp/npool/nimage =       8
     Subspace diagonalization in iterative solution of the eigenvalue problem:
     a serial algorithm will be used

     Using Slab Decomposition

     bravais-lattice index     =            4
     lattice parameter (alat)  =       6.6113  a.u.
     unit-cell volume          =     424.2171 (a.u.)^3
     number of atoms/cell      =            4
     number of atomic types    =            2
     number of electrons       =        36.00
     number of Kohn-Sham states=           18
     kinetic-energy cutoff     =      50.0000  Ry
     charge density cutoff     =     400.0000  Ry
     scf convergence threshold =      1.0E-08
     mixing beta               =       0.3000
     number of iterations used =            8  plain     mixing
     Exchange-correlation= PBE
                           (   1   4   3   4   0   0   0)

     celldm(1)=   6.611339  celldm(2)=   0.000000  celldm(3)=   1.695076
     celldm(4)=   0.000000  celldm(5)=   0.000000  celldm(6)=   0.000000

     crystal axes: (cart. coord. in units of alat)
               a(1) = (   1.000000   0.000000   0.000000 )
               a(2) = (  -0.500000   0.866025   0.000000 )
               a(3) = (   0.000000   0.000000   1.695076 )

     reciprocal axes: (cart. coord. in units 2 pi/alat)
               b(1) = (  1.000000  0.577350 -0.000000 )
               b(2) = (  0.000000  1.154701  0.000000 )
               b(3) = (  0.000000 -0.000000  0.589944 )

     PseudoPot. # 1 for Zn read from file:
     /home/jvc/QEspresso7.2/ZnO_database/pseudos/Zn.upf
     MD5 check sum: 7f56cabf9682ed8c977c2f7d0c5985c5
     Pseudo is Ultrasoft + core correction, Zval = 12.0
     Generated using &quot;atomic&quot; code by A. Dal Corso  v.6.2.2
     Using radial grid of 1201 points,  6 beta functions with:
                l(1) =   0
                l(2) =   0
                l(3) =   1
                l(4) =   1
                l(5) =   2
                l(6) =   2
     Q(r) pseudized with 0 coefficients

     PseudoPot. # 2 for O  read from file:
     /home/jvc/QEspresso7.2/ZnO_database/pseudos/O.upf
     MD5 check sum: 91400c9766925bcf19f520983a725ff0
     Pseudo is Ultrasoft + core correction, Zval =  6.0
     Generated using &quot;atomic&quot; code by A. Dal Corso  v.6.3MaX
     Using radial grid of 1095 points,  4 beta functions with:
                l(1) =   0
                l(2) =   0
                l(3) =   1
                l(4) =   1
     Q(r) pseudized with 0 coefficients

     atomic species   valence    mass     pseudopotential
        Zn            12.00    63.38000     Zn( 1.00)
        O              6.00    15.99900     O ( 1.00)

     12 Sym. Ops. (no inversion) found ( 6 have fractional translation)

   Cartesian axes

     site n.     atom                  positions (alat units)
         1           Zn  tau(   1) = (   0.5000000   0.2886751   0.8486121  )
         2           Zn  tau(   2) = (  -0.0000000   0.5773503   0.0010740  )
         3           O   tau(   3) = (   0.5000000   0.2886751   1.4911186  )
         4           O   tau(   4) = (  -0.0000000   0.5773503   0.6435805  )

     number of k points=    28
                       cart. coord. in units 2pi/alat
        k(    1) = (   0.0000000   0.0000000   0.0000000), wk =   0.0092593
        k(    2) = (   0.0000000   0.0000000   0.0983240), wk =   0.0185185
        k(    3) = (   0.0000000   0.0000000   0.1966480), wk =   0.0185185
        k(    4) = (   0.0000000   0.0000000  -0.2949720), wk =   0.0092593
        k(    5) = (   0.0000000   0.1924501   0.0000000), wk =   0.0555556
        k(    6) = (   0.0000000   0.1924501   0.0983240), wk =   0.1111111
        k(    7) = (   0.0000000   0.1924501   0.1966480), wk =   0.1111111
        k(    8) = (   0.0000000   0.1924501  -0.2949720), wk =   0.0555556
        k(    9) = (   0.0000000   0.3849002   0.0000000), wk =   0.0555556
        k(   10) = (   0.0000000   0.3849002   0.0983240), wk =   0.1111111
        k(   11) = (   0.0000000   0.3849002   0.1966480), wk =   0.1111111
        k(   12) = (   0.0000000   0.3849002  -0.2949720), wk =   0.0555556
        k(   13) = (   0.0000000  -0.5773503   0.0000000), wk =   0.0277778
        k(   14) = (   0.0000000  -0.5773503   0.0983240), wk =   0.0555556
        k(   15) = (   0.0000000  -0.5773503   0.1966480), wk =   0.0555556
        k(   16) = (   0.0000000  -0.5773503  -0.2949720), wk =   0.0277778
        k(   17) = (   0.1666667   0.2886751   0.0000000), wk =   0.0555556
        k(   18) = (   0.1666667   0.2886751   0.0983240), wk =   0.1111111
        k(   19) = (   0.1666667   0.2886751   0.1966480), wk =   0.1111111
        k(   20) = (   0.1666667   0.2886751  -0.2949720), wk =   0.0555556
        k(   21) = (   0.1666667   0.4811252   0.0000000), wk =   0.1111111
        k(   22) = (   0.1666667   0.4811252   0.0983240), wk =   0.2222222
        k(   23) = (   0.1666667   0.4811252   0.1966480), wk =   0.2222222
        k(   24) = (   0.1666667   0.4811252  -0.2949720), wk =   0.1111111
        k(   25) = (   0.3333333   0.5773503   0.0000000), wk =   0.0185185
        k(   26) = (   0.3333333   0.5773503   0.0983240), wk =   0.0370370
        k(   27) = (   0.3333333   0.5773503   0.1966480), wk =   0.0370370
        k(   28) = (   0.3333333   0.5773503  -0.2949720), wk =   0.0185185

     Check: negative core charge=   -0.000002

     Initial potential from superposition of free atoms

     starting charge      35.9925, renormalised to      36.0000
     Starting wfcs are   26 randomized atomic wfcs

     Self-consistent Calculation

     iteration #  1     ecut=    50.00 Ry     beta= 0.30
     Davidson diagonalization with overlap
     ethr =  1.00E-02,  avg # of iterations =  1.2

     total energy              =    -361.36421864 Ry
     estimated scf accuracy    <       0.82902236 Ry

[...]

     iteration # 14     ecut=    50.00 Ry     beta= 0.30
     Davidson diagonalization with overlap
     c_bands:  1 eigenvalues not converged
     c_bands:  1 eigenvalues not converged
     ethr =  1.15E-07,  avg # of iterations = 15.4

[...]

     iteration # 16     ecut=    50.00 Ry     beta= 0.30
     Davidson diagonalization with overlap
     c_bands:  1 eigenvalues not converged
     c_bands:  1 eigenvalues not converged
     ethr =  1.15E-07,  avg # of iterations = 15.2

[...]

     total energy              =    -361.56511754 Ry
     estimated scf accuracy    <       0.00000006 Ry

     iteration # 32     ecut=    50.00 Ry     beta= 0.30
     Davidson diagonalization with overlap
     ethr =  1.65E-10,  avg # of iterations =  5.2

     End of self-consistent calculation

          k = 0.0000 0.0000 0.0000 (  2563 PWs)   bands (ev):

   -12.5898 -12.2557  -1.1526  -1.1526  -1.1204  -1.0589  -1.0589  -0.6248
    -0.6010  -0.6010  -0.5118  -0.5118   0.1577   3.3203   3.3203   3.6221
     3.7526   3.7526

[...]

          k = 0.3333 0.5774-0.2950 (  2550 PWs)   bands (ev):

   -12.1280 -12.1280  -0.9551  -0.9551  -0.9479  -0.9479  -0.6476  -0.6476
    -0.5930  -0.5930  -0.3346  -0.3346   0.6724   0.6724   1.8305   1.8305
     2.8750   2.8750

     highest occupied level (ev):     3.7526

!    total energy              =    -361.56511756 Ry
     estimated scf accuracy    <          5.6E-09 Ry

     The total energy is the sum of the following terms:
     one-electron contribution =    -182.56182490 Ry
     hartree contribution      =     128.51790128 Ry
     xc contribution           =    -109.09996499 Ry
     ewald contribution        =    -198.42122896 Ry

     convergence has been achieved in  32 iterations

     Forces acting on atoms (cartesian axes, Ry/au):

     atom    1 type  1   force =     0.00000000    0.00000000   -0.00447632
     atom    2 type  1   force =     0.00000000    0.00000000   -0.00447632
     atom    3 type  2   force =     0.00000000    0.00000000    0.00447632
     atom    4 type  2   force =     0.00000000   -0.00000000    0.00447632
     The non-local contrib.  to forces
     atom    1 type  1   force =     0.00000000    0.00000000    0.11444617
     atom    2 type  1   force =     0.00000000   -0.00000000    0.11444617
     atom    3 type  2   force =     0.00000000   -0.00000000    0.13545601
     atom    4 type  2   force =     0.00000000    0.00000000    0.13545601
     The ionic contribution  to forces
     atom    1 type  1   force =    -0.00000000    0.00000000    0.90533476
     atom    2 type  1   force =     0.00000000   -0.00000000    0.90533476
     atom    3 type  2   force =    -0.00000000    0.00000000   -0.90533476
     atom    4 type  2   force =     0.00000000   -0.00000000   -0.90533476
     The local contribution  to forces
     atom    1 type  1   force =    -0.00000002    0.00000001   -1.01759483
     atom    2 type  1   force =     0.00000007   -0.00000004   -1.01759482
     atom    3 type  2   force =    -0.00000001    0.00000000    0.77560718
     atom    4 type  2   force =     0.00000002   -0.00000001    0.77560716
     The core correction contribution to forces
     atom    1 type  1   force =    -0.00000000    0.00000000   -0.00667189
     atom    2 type  1   force =     0.00000001   -0.00000001   -0.00667189
     atom    3 type  2   force =     0.00000000   -0.00000000   -0.00125231
     atom    4 type  2   force =    -0.00000000    0.00000000   -0.00125231
     The Hubbard contrib.    to forces
     atom    1 type  1   force =     0.00000000    0.00000000    0.00000000
     atom    2 type  1   force =     0.00000000    0.00000000    0.00000000
     atom    3 type  2   force =     0.00000000    0.00000000    0.00000000
     atom    4 type  2   force =     0.00000000    0.00000000    0.00000000
     The SCF correction term to forces
     atom    1 type  1   force =    -0.00000000    0.00000000    0.00001342
     atom    2 type  1   force =     0.00000000   -0.00000000    0.00001342
     atom    3 type  2   force =    -0.00000000    0.00000000    0.00000416
     atom    4 type  2   force =    -0.00000000    0.00000000    0.00000416

     Total force =     0.008953     Total SCF correction =     0.000020

     Computing stress (Cartesian axis) and pressure

          total   stress  (Ry/bohr**3)                   (kbar)     P=     -190.29
  -0.00122530   0.00000000  -0.00000000         -180.25        0.00       -0.00
   0.00000000  -0.00122530  -0.00000000            0.00     -180.25       -0.00
  -0.00000000  -0.00000000  -0.00143017           -0.00       -0.00     -210.39

     Writing all to output data dir ./ZnO_ANN.save/

     General routines

     Parallel routines

   This run was terminated on:  19:15: 4  13Jun2025

   JOB DONE.
Note: The following floating-point exceptions are signalling: IEEE_INVALID_FLAG