     Program PWSCF v.7.0 starts on  9Sep2025 at 22: 0: 6

     K-points division:     npool     =       8
     R & G space division:  proc/nbgrp/npool/nimage =       4

     Reading input from /home/jvc/QEspresso7.2/ZnO_database/scripts/cell231.in/ZnO-3.53-1.58-231.in
Warning: card &CELL ignored
Warning: card / ignored
Warning: card &FCP ignored
Warning: card / ignored
Warning: card &RISM ignored
Warning: card / ignored

     Current dimensions of program PWSCF are:
     Max number of different atomic species (ntypx) = 10
     Max number of k-points (npk) =  40000
     Max angular momentum in pseudopotentials (lmaxx) =  4
     file Zn.upf: wavefunction(s)  3D renormalized
     Found identity + (  0.0000  0.3333  0.0000) symmetry
     This is a supercell, fractional translations are disabled

     Using Slab Decomposition

     bravais-lattice index     =            0
     lattice parameter (alat)  =      13.3463  a.u.
     unit-cell volume          =    2442.8847 (a.u.)^3
     number of atoms/cell      =           24
     number of atomic types    =            2
     number of electrons       =       216.00
     number of Kohn-Sham states=          108
     kinetic-energy cutoff     =      50.0000  Ry
     charge density cutoff     =     400.0000  Ry
     scf convergence threshold =      1.0E-08
     mixing beta               =       0.3000
     number of iterations used =            8  plain     mixing
     Exchange-correlation= PBE
                           (   1   4   3   4   0   0   0)

     celldm(1)=  13.346325  celldm(2)=   0.000000  celldm(3)=   0.000000
     celldm(4)=   0.000000  celldm(5)=   0.000000  celldm(6)=   0.000000

     crystal axes: (cart. coord. in units of alat)
               a(1) = (   1.000000   0.000000   0.000000 )
               a(2) = (  -0.750000   1.299038   0.000000 )
               a(3) = (   0.000000   0.000000   0.791036 )

     reciprocal axes: (cart. coord. in units 2 pi/alat)
               b(1) = (  1.000000  0.577350 -0.000000 )
               b(2) = (  0.000000  0.769800  0.000000 )
               b(3) = (  0.000000 -0.000000  1.264166 )

     PseudoPot. # 1 for Zn read from file:
     /home/jvc/QEspresso7.2/ZnO_database/pseudos/Zn.upf
     MD5 check sum: 7f56cabf9682ed8c977c2f7d0c5985c5
     Pseudo is Ultrasoft + core correction, Zval = 12.0
     Generated using &quot;atomic&quot; code by A. Dal Corso  v.6.2.2
     Using radial grid of 1201 points,  6 beta functions with:
                l(1) =   0
                l(2) =   0
                l(3) =   1
                l(4) =   1
                l(5) =   2
                l(6) =   2
     Q(r) pseudized with 0 coefficients

     PseudoPot. # 2 for O  read from file:
     /home/jvc/QEspresso7.2/ZnO_database/pseudos/O.upf
     MD5 check sum: 91400c9766925bcf19f520983a725ff0
     Pseudo is Ultrasoft + core correction, Zval =  6.0
     Generated using &quot;atomic&quot; code by A. Dal Corso  v.6.3MaX
     Using radial grid of 1095 points,  4 beta functions with:
                l(1) =   0
                l(2) =   0
                l(3) =   1
                l(4) =   1
     Q(r) pseudized with 0 coefficients

     atomic species   valence    mass     pseudopotential
        Zn            12.00    65.38000     Zn( 1.00)
        O              6.00    15.99900     O ( 1.00)

     No symmetry found

                                    s                        frac. trans.

      isym =  1     identity

 cryst.   s( 1) = (     1          0          0      )
                  (     0          1          0      )
                  (     0          0          1      )

 cart.    s( 1) = (  1.0000000  0.0000000  0.0000000 )
                  (  0.0000000  1.0000000  0.0000000 )
                  (  0.0000000  0.0000000  1.0000000 )

   Cartesian axes

     site n.     atom                  positions (alat units)
         1           Zn  tau(   1) = (   0.2500000   0.1443376   0.3960190  )
         2           Zn  tau(   2) = (  -0.0000000   0.2886751   0.0005012  )
         3           O   tau(   3) = (   0.2500000   0.1443376   0.6958554  )
         4           O   tau(   4) = (  -0.0000000   0.2886751   0.3003376  )
         5           Zn  tau(   5) = (   0.0000000   0.5773503   0.3960190  )
         6           Zn  tau(   6) = (  -0.2500000   0.7216878   0.0005012  )
         7           O   tau(   7) = (   0.0000000   0.5773503   0.6958554  )
         8           O   tau(   8) = (  -0.2500000   0.7216878   0.3003376  )
         9           Zn  tau(   9) = (  -0.2500000   1.0103630   0.3960190  )
        10           Zn  tau(  10) = (  -0.5000000   1.1547005   0.0005012  )
        11           O   tau(  11) = (  -0.2500000   1.0103630   0.6958554  )
        12           O   tau(  12) = (  -0.5000000   1.1547005   0.3003376  )
        13           Zn  tau(  13) = (   0.7500000   0.1443376   0.3960190  )
        14           Zn  tau(  14) = (   0.5000000   0.2886751   0.0005012  )
        15           O   tau(  15) = (   0.7500000   0.1443376   0.6958554  )
        16           O   tau(  16) = (   0.5000000   0.2886751   0.3003376  )
        17           Zn  tau(  17) = (   0.5000000   0.5773503   0.3960190  )
        18           Zn  tau(  18) = (   0.2500000   0.7216878   0.0005012  )
        19           O   tau(  19) = (   0.5000000   0.5773503   0.6958554  )
        20           O   tau(  20) = (   0.2500000   0.7216878   0.3003376  )
        21           Zn  tau(  21) = (   0.2500000   1.0103630   0.3960190  )
        22           Zn  tau(  22) = (  -0.0000000   1.1547005   0.0005012  )
        23           O   tau(  23) = (   0.2500000   1.0103630   0.6958554  )
        24           O   tau(  24) = (  -0.0000000   1.1547005   0.3003376  )

   Crystallographic axes

     site n.     atom                  positions (cryst. coord.)
         1           Zn  tau(   1) = (  0.3333333  0.1111111  0.5006336  )
         2           Zn  tau(   2) = (  0.1666667  0.2222222  0.0006336  )
         3           O   tau(   3) = (  0.3333333  0.1111111  0.8796764  )
         4           O   tau(   4) = (  0.1666667  0.2222222  0.3796764  )
         5           Zn  tau(   5) = (  0.3333333  0.4444444  0.5006336  )
         6           Zn  tau(   6) = (  0.1666667  0.5555556  0.0006336  )
         7           O   tau(   7) = (  0.3333333  0.4444444  0.8796764  )
         8           O   tau(   8) = (  0.1666667  0.5555556  0.3796764  )
         9           Zn  tau(   9) = (  0.3333333  0.7777778  0.5006336  )
        10           Zn  tau(  10) = (  0.1666667  0.8888889  0.0006336  )
        11           O   tau(  11) = (  0.3333333  0.7777778  0.8796764  )
        12           O   tau(  12) = (  0.1666667  0.8888889  0.3796764  )
        13           Zn  tau(  13) = (  0.8333333  0.1111111  0.5006336  )
        14           Zn  tau(  14) = (  0.6666667  0.2222222  0.0006336  )
        15           O   tau(  15) = (  0.8333333  0.1111111  0.8796764  )
        16           O   tau(  16) = (  0.6666667  0.2222222  0.3796764  )
        17           Zn  tau(  17) = (  0.8333333  0.4444444  0.5006336  )
        18           Zn  tau(  18) = (  0.6666667  0.5555556  0.0006336  )
        19           O   tau(  19) = (  0.8333333  0.4444444  0.8796764  )
        20           O   tau(  20) = (  0.6666667  0.5555556  0.3796764  )
        21           Zn  tau(  21) = (  0.8333333  0.7777778  0.5006336  )
        22           Zn  tau(  22) = (  0.6666667  0.8888889  0.0006336  )
        23           O   tau(  23) = (  0.8333333  0.7777778  0.8796764  )
        24           O   tau(  24) = (  0.6666667  0.8888889  0.3796764  )

     number of k points=   112
                       cart. coord. in units 2pi/alat
        k(    1) = (   0.0000000   0.0000000   0.0000000), wk =   0.0092593
        k(    2) = (   0.0000000   0.0000000   0.2106943), wk =   0.0185185
        k(    3) = (   0.0000000   0.0000000   0.4213885), wk =   0.0185185
        k(    4) = (   0.0000000   0.0000000  -0.6320828), wk =   0.0092593
        k(    5) = (   0.0000000   0.1283001   0.0000000), wk =   0.0185185
        k(    6) = (   0.0000000   0.1283001   0.2106943), wk =   0.0185185
        k(    7) = (   0.0000000   0.1283001   0.4213885), wk =   0.0185185
        k(    8) = (   0.0000000   0.1283001  -0.6320828), wk =   0.0185185
        k(    9) = (   0.0000000   0.2566001   0.0000000), wk =   0.0185185
        k(   10) = (   0.0000000   0.2566001   0.2106943), wk =   0.0185185
        k(   11) = (   0.0000000   0.2566001   0.4213885), wk =   0.0185185
        k(   12) = (   0.0000000   0.2566001  -0.6320828), wk =   0.0185185
        k(   13) = (   0.0000000  -0.3849002   0.0000000), wk =   0.0092593
        k(   14) = (   0.0000000  -0.3849002   0.2106943), wk =   0.0185185
        k(   15) = (   0.0000000  -0.3849002   0.4213885), wk =   0.0185185
        k(   16) = (   0.0000000  -0.3849002  -0.6320828), wk =   0.0092593
        k(   17) = (   0.1666667   0.0962250   0.0000000), wk =   0.0185185
        k(   18) = (   0.1666667   0.0962250   0.2106943), wk =   0.0185185
        k(   19) = (   0.1666667   0.0962250   0.4213885), wk =   0.0185185
        k(   20) = (   0.1666667   0.0962250  -0.6320828), wk =   0.0185185
        k(   21) = (   0.1666667   0.2245251   0.0000000), wk =   0.0185185
        k(   22) = (   0.1666667   0.2245251   0.2106943), wk =   0.0185185
        k(   23) = (   0.1666667   0.2245251   0.4213885), wk =   0.0185185
        k(   24) = (   0.1666667   0.2245251  -0.6320828), wk =   0.0185185
        k(   25) = (   0.1666667   0.3528252   0.0000000), wk =   0.0185185
        k(   26) = (   0.1666667   0.3528252   0.2106943), wk =   0.0185185
        k(   27) = (   0.1666667   0.3528252   0.4213885), wk =   0.0185185
        k(   28) = (   0.1666667   0.3528252  -0.6320828), wk =   0.0185185
        k(   29) = (   0.1666667  -0.2886751   0.0000000), wk =   0.0185185
        k(   30) = (   0.1666667  -0.2886751   0.2106943), wk =   0.0185185
        k(   31) = (   0.1666667  -0.2886751   0.4213885), wk =   0.0185185
        k(   32) = (   0.1666667  -0.2886751  -0.6320828), wk =   0.0185185
        k(   33) = (   0.1666667  -0.1603751   0.0000000), wk =   0.0185185
        k(   34) = (   0.1666667  -0.1603751   0.2106943), wk =   0.0185185
        k(   35) = (   0.1666667  -0.1603751   0.4213885), wk =   0.0185185
        k(   36) = (   0.1666667  -0.1603751  -0.6320828), wk =   0.0185185
        k(   37) = (   0.1666667  -0.0320750   0.0000000), wk =   0.0185185
        k(   38) = (   0.1666667  -0.0320750   0.2106943), wk =   0.0185185
        k(   39) = (   0.1666667  -0.0320750   0.4213885), wk =   0.0185185
        k(   40) = (   0.1666667  -0.0320750  -0.6320828), wk =   0.0185185
        k(   41) = (   0.3333333   0.1924501   0.0000000), wk =   0.0185185
        k(   42) = (   0.3333333   0.1924501   0.2106943), wk =   0.0185185
        k(   43) = (   0.3333333   0.1924501   0.4213885), wk =   0.0185185
        k(   44) = (   0.3333333   0.1924501  -0.6320828), wk =   0.0185185
        k(   45) = (   0.3333333   0.3207501   0.0000000), wk =   0.0185185
[...]
     estimated scf accuracy    <          7.1E-09 Ry

     The total energy is the sum of the following terms:
     one-electron contribution =   -1068.78186227 Ry
     hartree contribution      =     761.23321810 Ry
     xc contribution           =    -654.97796789 Ry
     ewald contribution        =   -1206.99222381 Ry

     convergence has been achieved in  39 iterations

     Forces acting on atoms (cartesian axes, Ry/au):

     atom    1 type  1   force =     0.00002529    0.00001977   -0.00015455
     atom    2 type  1   force =     0.00000143    0.00000216   -0.00013142
     atom    3 type  2   force =    -0.00000084   -0.00000136    0.00014077
     atom    4 type  2   force =    -0.00000019   -0.00000043    0.00013960
     atom    5 type  1   force =    -0.00000120   -0.00000917   -0.00014881
     atom    6 type  1   force =    -0.00000273   -0.00000721   -0.00014022
     atom    7 type  2   force =    -0.00000037    0.00000018    0.00014000
     atom    8 type  2   force =     0.00000089    0.00000007    0.00013991
     atom    9 type  1   force =    -0.00000028    0.00000739   -0.00014411
     atom   10 type  1   force =     0.00000758    0.00001102   -0.00013720
     atom   11 type  2   force =     0.00000022   -0.00000006    0.00014024
     atom   12 type  2   force =    -0.00000025   -0.00000137    0.00014027
     atom   13 type  1   force =    -0.00002874    0.00001829   -0.00015674
     atom   14 type  1   force =     0.00000051    0.00000192   -0.00010620
     atom   15 type  2   force =     0.00000101   -0.00000132    0.00014073
     atom   16 type  2   force =     0.00000041   -0.00000138    0.00013972
     atom   17 type  1   force =     0.00000004   -0.00003860   -0.00014873
     atom   18 type  1   force =     0.00000736   -0.00000598   -0.00013469
     atom   19 type  2   force =     0.00000041    0.00000133    0.00014014
     atom   20 type  2   force =    -0.00000075    0.00000042    0.00013997
     atom   21 type  1   force =    -0.00000403    0.00000015   -0.00014478
     atom   22 type  1   force =    -0.00000608    0.00000547   -0.00013418
     atom   23 type  2   force =     0.00000015   -0.00000007    0.00014025
     atom   24 type  2   force =     0.00000015   -0.00000122    0.00014002
     The non-local contrib.  to forces
     atom    1 type  1   force =     0.00001115    0.00000532   -0.05628174
     atom    2 type  1   force =     0.00000179    0.00001016   -0.05627250
     atom    3 type  2   force =    -0.00000541    0.00000269   -0.04520744
     atom    4 type  2   force =    -0.00000182   -0.00000968   -0.04520784
     atom    5 type  1   force =     0.00000125   -0.00001225   -0.05627885
     atom    6 type  1   force =    -0.00000066   -0.00000101   -0.05627636
     atom    7 type  2   force =    -0.00000222    0.00001239   -0.04520877
     atom    8 type  2   force =     0.00000283   -0.00000176   -0.04520987
     atom    9 type  1   force =     0.00000190   -0.00000166   -0.05627613
     atom   10 type  1   force =     0.00000301    0.00000964   -0.05627627
     atom   11 type  2   force =     0.00000057    0.00000956   -0.04520945
     atom   12 type  2   force =    -0.00000249   -0.00001488   -0.04520844
     atom   13 type  1   force =    -0.00001102    0.00000303   -0.05628331
     atom   14 type  1   force =    -0.00000116    0.00000942   -0.05626731
     atom   15 type  2   force =     0.00000539    0.00000251   -0.04520864
     atom   16 type  2   force =     0.00000085   -0.00001351   -0.04520736
     atom   17 type  1   force =    -0.00000179   -0.00002294   -0.05628023
     atom   18 type  1   force =     0.00000144   -0.00000136   -0.05627457
     atom   19 type  2   force =     0.00000153    0.00001854   -0.04520700
     atom   20 type  2   force =    -0.00000474   -0.00000162   -0.04520832
     atom   21 type  1   force =    -0.00000224   -0.00000665   -0.05627607
     atom   22 type  1   force =    -0.00000265    0.00000751   -0.05627363
     atom   23 type  2   force =     0.00000030    0.00001197   -0.04520841
     atom   24 type  2   force =     0.00000027   -0.00001334   -0.04520876
     The ionic contribution  to forces
     atom    1 type  1   force =    -0.00000000    0.00000000   -0.30712516
     atom    2 type  1   force =     0.00000000    0.00000001   -0.30712516
     atom    3 type  2   force =    -0.00000000    0.00000000    0.30712516
     atom    4 type  2   force =     0.00000000    0.00000000    0.30712516
     atom    5 type  1   force =    -0.00000001    0.00000001   -0.30712516
     atom    6 type  1   force =     0.00000000   -0.00000001   -0.30712516
     atom    7 type  2   force =    -0.00000001    0.00000000    0.30712516
     atom    8 type  2   force =     0.00000000   -0.00000000    0.30712516
     atom    9 type  1   force =    -0.00000001   -0.00000001   -0.30712516
     atom   10 type  1   force =     0.00000000   -0.00000001   -0.30712516
     atom   11 type  2   force =    -0.00000001   -0.00000000    0.30712516
     atom   12 type  2   force =     0.00000000   -0.00000001    0.30712516
     atom   13 type  1   force =    -0.00000000    0.00000001   -0.30712516
     atom   14 type  1   force =    -0.00000000    0.00000001   -0.30712516
     atom   15 type  2   force =    -0.00000000    0.00000000    0.30712516
     atom   16 type  2   force =     0.00000000    0.00000000    0.30712516
     atom   17 type  1   force =    -0.00000001    0.00000001   -0.30712516
     atom   18 type  1   force =     0.00000001   -0.00000001   -0.30712516
     atom   19 type  2   force =    -0.00000001    0.00000000    0.30712516
     atom   20 type  2   force =     0.00000001   -0.00000000    0.30712516
     atom   21 type  1   force =     0.00000001   -0.00000001   -0.30712516
     atom   22 type  1   force =     0.00000000   -0.00000000   -0.30712516
     atom   23 type  2   force =     0.00000000   -0.00000000    0.30712516
     atom   24 type  2   force =     0.00000000   -0.00000000    0.30712516
     The local contribution  to forces
     atom    1 type  1   force =    -0.00003950   -0.00003137    0.35983176
     atom    2 type  1   force =    -0.00000563   -0.00001334    0.35980283
     atom    3 type  2   force =     0.00000741   -0.00000322   -0.26216596
     atom    4 type  2   force =     0.00000025   -0.00000131   -0.26214643
     atom    5 type  1   force =    -0.00000477    0.00002077    0.35982157
     atom    6 type  1   force =     0.00000493    0.00000891    0.35981779
     atom    7 type  2   force =     0.00000318   -0.00001019   -0.26215511
     atom    8 type  2   force =    -0.00000648    0.00001015   -0.26215366
     atom    9 type  1   force =    -0.00000611   -0.00000405    0.35981421
     atom   10 type  1   force =    -0.00000803   -0.00001879    0.35981667
     atom   11 type  2   force =    -0.00000119   -0.00001092   -0.26215775
     atom   12 type  2   force =     0.00000116    0.00000740   -0.26215449
     atom   13 type  1   force =     0.00004112   -0.00002372    0.35983895
     atom   14 type  1   force =     0.00000436   -0.00001471    0.35977014
     atom   15 type  2   force =    -0.00000502   -0.00000395   -0.26216725
     atom   16 type  2   force =     0.00000067    0.00000869   -0.26215392
     atom   17 type  1   force =     0.00000574    0.00006365    0.35982568
     atom   18 type  1   force =    -0.00000658    0.00000962    0.35980887
     atom   19 type  2   force =    -0.00000187   -0.00001898   -0.26215661
     atom   20 type  2   force =     0.00000924    0.00000453   -0.26215246
     atom   21 type  1   force =     0.00000831    0.00000981    0.35981609
     atom   22 type  1   force =     0.00000720   -0.00001044    0.35980675
     atom   23 type  2   force =     0.00000111   -0.00000665   -0.26215777
     atom   24 type  2   force =     0.00000273    0.00001062   -0.26215394
     The core correction contribution to forces
     atom    1 type  1   force =     0.00000081    0.00000148    0.00345746
     atom    2 type  1   force =     0.00000010   -0.00000063    0.00345773
     atom    3 type  2   force =     0.00000011    0.00000002    0.00038326
     atom    4 type  2   force =     0.00000003    0.00000009    0.00038332
     atom    5 type  1   force =     0.00000042    0.00000034    0.00345764
     atom    6 type  1   force =    -0.00000033   -0.00000061    0.00345735
     atom    7 type  2   force =     0.00000004   -0.00000017    0.00038330
     atom    8 type  2   force =    -0.00000005   -0.00000000    0.00038331
     atom    9 type  1   force =     0.00000037    0.00000057    0.00345773
     atom   10 type  1   force =    -0.00000006   -0.00000052    0.00345731
     atom   11 type  2   force =    -0.00000001   -0.00000010    0.00038331
     atom   12 type  2   force =     0.00000005    0.00000017    0.00038329
     atom   13 type  1   force =    -0.00000073    0.00000121    0.00345714
     atom   14 type  1   force =    -0.00000028   -0.00000041    0.00345860
     atom   15 type  2   force =    -0.00000009    0.00000002    0.00038327
     atom   16 type  2   force =    -0.00000002    0.00000016    0.00038330
     atom   17 type  1   force =    -0.00000009   -0.00000057    0.00345747
     atom   18 type  1   force =    -0.00000005   -0.00000065    0.00345760
     atom   19 type  2   force =    -0.00000003   -0.00000028    0.00038328
     atom   20 type  2   force =     0.00000009   -0.00000003    0.00038330
     atom   21 type  1   force =    -0.00000016    0.00000033    0.00345760
     atom   22 type  1   force =     0.00000001   -0.00000069    0.00345768
     atom   23 type  2   force =     0.00000000   -0.00000012    0.00038330
     atom   24 type  2   force =    -0.00000001    0.00000016    0.00038330
     The Hubbard contrib.    to forces
     atom    1 type  1   force =     0.00000000    0.00000000    0.00000000
     atom    2 type  1   force =     0.00000000    0.00000000    0.00000000
     atom    3 type  2   force =     0.00000000    0.00000000    0.00000000
     atom    4 type  2   force =     0.00000000    0.00000000    0.00000000
     atom    5 type  1   force =     0.00000000    0.00000000    0.00000000
     atom    6 type  1   force =     0.00000000    0.00000000    0.00000000
     atom    7 type  2   force =     0.00000000    0.00000000    0.00000000
     atom    8 type  2   force =     0.00000000    0.00000000    0.00000000
     atom    9 type  1   force =     0.00000000    0.00000000    0.00000000
     atom   10 type  1   force =     0.00000000    0.00000000    0.00000000
     atom   11 type  2   force =     0.00000000    0.00000000    0.00000000
     atom   12 type  2   force =     0.00000000    0.00000000    0.00000000
     atom   13 type  1   force =     0.00000000    0.00000000    0.00000000
     atom   14 type  1   force =     0.00000000    0.00000000    0.00000000
     atom   15 type  2   force =     0.00000000    0.00000000    0.00000000
     atom   16 type  2   force =     0.00000000    0.00000000    0.00000000
     atom   17 type  1   force =     0.00000000    0.00000000    0.00000000
     atom   18 type  1   force =     0.00000000    0.00000000    0.00000000
     atom   19 type  2   force =     0.00000000    0.00000000    0.00000000
     atom   20 type  2   force =     0.00000000    0.00000000    0.00000000
     atom   21 type  1   force =     0.00000000    0.00000000    0.00000000
     atom   22 type  1   force =     0.00000000    0.00000000    0.00000000
     atom   23 type  2   force =     0.00000000    0.00000000    0.00000000
     atom   24 type  2   force =     0.00000000    0.00000000    0.00000000
     The SCF correction term to forces
     atom    1 type  1   force =     0.00005265    0.00004489   -0.00004317
     atom    2 type  1   force =     0.00000499    0.00000652   -0.00000062
     atom    3 type  2   force =    -0.00000314   -0.00000030   -0.00000056
     atom    4 type  2   force =     0.00000117    0.00001104   -0.00002092
     atom    5 type  1   force =     0.00000172   -0.00001747   -0.00003030
     atom    6 type  1   force =    -0.00000686   -0.00001393   -0.00002013
     atom    7 type  2   force =    -0.00000155   -0.00000129   -0.00001090
     atom    8 type  2   force =     0.00000439   -0.00000774   -0.00001135
     atom    9 type  1   force =     0.00000339    0.00001310   -0.00002106
     atom   10 type  1   force =     0.00001248    0.00002127   -0.00001606
     atom   11 type  2   force =     0.00000067    0.00000197   -0.00000733
     atom   12 type  2   force =     0.00000085    0.00000652   -0.00001157
     atom   13 type  1   force =    -0.00005829    0.00003833   -0.00005067
     atom   14 type  1   force =    -0.00000259    0.00000818    0.00005123
     atom   15 type  2   force =     0.00000054    0.00000066    0.00000189
     atom   16 type  2   force =    -0.00000129    0.00000384   -0.00001377
     atom   17 type  1   force =    -0.00000402   -0.00007818   -0.00003279
     atom   18 type  1   force =     0.00001235   -0.00001302   -0.00000773
     atom   19 type  2   force =     0.00000061    0.00000261   -0.00001099
     atom   20 type  2   force =    -0.00000555   -0.00000190   -0.00001402
     atom   21 type  1   force =    -0.00001014   -0.00000276   -0.00002354
     atom   22 type  1   force =    -0.00001083    0.00000967   -0.00000613
     atom   23 type  2   force =    -0.00000145   -0.00000470   -0.00000835
     atom   24 type  2   force =    -0.00000304    0.00000190   -0.00001204

     Total force =     0.000691     Total SCF correction =     0.000175
     SCF correction compared to forces is large: reduce conv_thr to get better values

     General routines

     Parallel routines

   This run was terminated on:  22:43:28   9Sep2025

   JOB DONE.
Note: The following floating-point exceptions are signalling: IEEE_UNDERFLOW_FLAG IEEE_DENORMAL
Note: The following floating-point exceptions are signalling: IEEE_UNDERFLOW_FLAG IEEE_DENORMAL
Note: The following floating-point exceptions are signalling: IEEE_UNDERFLOW_FLAG IEEE_DENORMAL
Note: The following floating-point exceptions are signalling: IEEE_UNDERFLOW_FLAG IEEE_DENORMAL
Note: The following floating-point exceptions are signalling: IEEE_UNDERFLOW_FLAG IEEE_DENORMAL
Note: The following floating-point exceptions are signalling: IEEE_UNDERFLOW_FLAG IEEE_DENORMAL
Note: The following floating-point exceptions are signalling: IEEE_UNDERFLOW_FLAG IEEE_DENORMAL
Note: The following floating-point exceptions are signalling: IEEE_UNDERFLOW_FLAG IEEE_DENORMAL
Note: The following floating-point exceptions are signalling: IEEE_UNDERFLOW_FLAG IEEE_DENORMAL
Note: The following floating-point exceptions are signalling: IEEE_UNDERFLOW_FLAG IEEE_DENORMAL
Note: The following floating-point exceptions are signalling: IEEE_UNDERFLOW_FLAG IEEE_DENORMAL
Note: The following floating-point exceptions are signalling: IEEE_UNDERFLOW_FLAG IEEE_DENORMAL
Note: The following floating-point exceptions are signalling: IEEE_UNDERFLOW_FLAG IEEE_DENORMAL
Note: The following floating-point exceptions are signalling: IEEE_UNDERFLOW_FLAG IEEE_DENORMAL
Note: The following floating-point exceptions are signalling: IEEE_UNDERFLOW_FLAG IEEE_DENORMAL
Note: The following floating-point exceptions are signalling: IEEE_UNDERFLOW_FLAG IEEE_DENORMAL
Note: The following floating-point exceptions are signalling: IEEE_UNDERFLOW_FLAG IEEE_DENORMAL
Note: The following floating-point exceptions are signalling: IEEE_UNDERFLOW_FLAG IEEE_DENORMAL
Note: The following floating-point exceptions are signalling: IEEE_UNDERFLOW_FLAG IEEE_DENORMAL
Note: The following floating-point exceptions are signalling: IEEE_UNDERFLOW_FLAG IEEE_DENORMAL
Note: The following floating-point exceptions are signalling: IEEE_UNDERFLOW_FLAG IEEE_DENORMAL
Note: The following floating-point exceptions are signalling: IEEE_UNDERFLOW_FLAG IEEE_DENORMAL
Note: The following floating-point exceptions are signalling: IEEE_UNDERFLOW_FLAG IEEE_DENORMAL
Note: The following floating-point exceptions are signalling: IEEE_UNDERFLOW_FLAG IEEE_DENORMAL
Note: The following floating-point exceptions are signalling: IEEE_UNDERFLOW_FLAG IEEE_DENORMAL
Note: The following floating-point exceptions are signalling: IEEE_UNDERFLOW_FLAG IEEE_DENORMAL
Note: The following floating-point exceptions are signalling: IEEE_UNDERFLOW_FLAG IEEE_DENORMAL
Note: The following floating-point exceptions are signalling: IEEE_UNDERFLOW_FLAG IEEE_DENORMAL
Note: The following floating-point exceptions are signalling: IEEE_UNDERFLOW_FLAG IEEE_DENORMAL
Note: The following floating-point exceptions are signalling: IEEE_UNDERFLOW_FLAG IEEE_DENORMAL
Note: The following floating-point exceptions are signalling: IEEE_UNDERFLOW_FLAG IEEE_DENORMAL
Note: The following floating-point exceptions are signalling: IEEE_UNDERFLOW_FLAG IEEE_DENORMAL