     Program PWSCF v.7.0 starts on  9Sep2025 at 15:19:43

     K-points division:     npool     =       8
     R & G space division:  proc/nbgrp/npool/nimage =       4

     Reading input from /home/jvc/QEspresso7.2/ZnO_database/scripts/cell231.in/ZnO-3.47-1.65-231.in
Warning: card &CELL ignored
Warning: card / ignored
Warning: card &FCP ignored
Warning: card / ignored
Warning: card &RISM ignored
Warning: card / ignored

     Current dimensions of program PWSCF are:
     Max number of different atomic species (ntypx) = 10
     Max number of k-points (npk) =  40000
     Max angular momentum in pseudopotentials (lmaxx) =  4
     file Zn.upf: wavefunction(s)  3D renormalized
     Found identity + ( -0.0000  0.3333  0.0000) symmetry
     This is a supercell, fractional translations are disabled

     Using Slab Decomposition

     bravais-lattice index     =            0
     lattice parameter (alat)  =      13.0992  a.u.
     unit-cell volume          =    2403.9387 (a.u.)^3
     number of atoms/cell      =           24
     number of atomic types    =            2
     number of electrons       =       216.00
     number of Kohn-Sham states=          108
     kinetic-energy cutoff     =      50.0000  Ry
     charge density cutoff     =     400.0000  Ry
     scf convergence threshold =      1.0E-08
     mixing beta               =       0.3000
     number of iterations used =            8  plain     mixing
     Exchange-correlation= PBE
                           (   1   4   3   4   0   0   0)

     celldm(1)=  13.099170  celldm(2)=   0.000000  celldm(3)=   0.000000
     celldm(4)=   0.000000  celldm(5)=   0.000000  celldm(6)=   0.000000

     crystal axes: (cart. coord. in units of alat)
               a(1) = (   1.000000   0.000000   0.000000 )
               a(2) = (  -0.750000   1.299038   0.000000 )
               a(3) = (   0.000000   0.000000   0.823323 )

     reciprocal axes: (cart. coord. in units 2 pi/alat)
               b(1) = (  1.000000  0.577350 -0.000000 )
               b(2) = (  0.000000  0.769800  0.000000 )
               b(3) = (  0.000000 -0.000000  1.214590 )

     PseudoPot. # 1 for Zn read from file:
     /home/jvc/QEspresso7.2/ZnO_database/pseudos/Zn.upf
     MD5 check sum: 7f56cabf9682ed8c977c2f7d0c5985c5
     Pseudo is Ultrasoft + core correction, Zval = 12.0
     Generated using &quot;atomic&quot; code by A. Dal Corso  v.6.2.2
     Using radial grid of 1201 points,  6 beta functions with:
                l(1) =   0
                l(2) =   0
                l(3) =   1
                l(4) =   1
                l(5) =   2
                l(6) =   2
     Q(r) pseudized with 0 coefficients

     PseudoPot. # 2 for O  read from file:
     /home/jvc/QEspresso7.2/ZnO_database/pseudos/O.upf
     MD5 check sum: 91400c9766925bcf19f520983a725ff0
     Pseudo is Ultrasoft + core correction, Zval =  6.0
     Generated using &quot;atomic&quot; code by A. Dal Corso  v.6.3MaX
     Using radial grid of 1095 points,  4 beta functions with:
                l(1) =   0
                l(2) =   0
                l(3) =   1
                l(4) =   1
     Q(r) pseudized with 0 coefficients

     atomic species   valence    mass     pseudopotential
        Zn            12.00    65.38000     Zn( 1.00)
        O              6.00    15.99900     O ( 1.00)

     No symmetry found

                                    s                        frac. trans.

      isym =  1     identity

 cryst.   s( 1) = (     1          0          0      )
                  (     0          1          0      )
                  (     0          0          1      )

 cart.    s( 1) = (  1.0000000  0.0000000  0.0000000 )
                  (  0.0000000  1.0000000  0.0000000 )
                  (  0.0000000  0.0000000  1.0000000 )

   Cartesian axes

     site n.     atom                  positions (alat units)
         1           Zn  tau(   1) = (   0.2500000   0.1443376   0.4121830  )
         2           Zn  tau(   2) = (  -0.0000000   0.2886751   0.0005216  )
         3           O   tau(   3) = (   0.2500000   0.1443376   0.7242576  )
         4           O   tau(   4) = (  -0.0000000   0.2886751   0.3125962  )
         5           Zn  tau(   5) = (   0.0000000   0.5773503   0.4121830  )
         6           Zn  tau(   6) = (  -0.2500000   0.7216878   0.0005216  )
         7           O   tau(   7) = (   0.0000000   0.5773503   0.7242576  )
         8           O   tau(   8) = (  -0.2500000   0.7216878   0.3125962  )
         9           Zn  tau(   9) = (  -0.2500000   1.0103630   0.4121830  )
        10           Zn  tau(  10) = (  -0.5000000   1.1547005   0.0005216  )
        11           O   tau(  11) = (  -0.2500000   1.0103630   0.7242576  )
        12           O   tau(  12) = (  -0.5000000   1.1547005   0.3125962  )
        13           Zn  tau(  13) = (   0.7500000   0.1443376   0.4121830  )
        14           Zn  tau(  14) = (   0.5000000   0.2886751   0.0005216  )
        15           O   tau(  15) = (   0.7500000   0.1443376   0.7242576  )
        16           O   tau(  16) = (   0.5000000   0.2886751   0.3125962  )
        17           Zn  tau(  17) = (   0.5000000   0.5773503   0.4121830  )
        18           Zn  tau(  18) = (   0.2500000   0.7216878   0.0005216  )
        19           O   tau(  19) = (   0.5000000   0.5773503   0.7242576  )
        20           O   tau(  20) = (   0.2500000   0.7216878   0.3125962  )
        21           Zn  tau(  21) = (   0.2500000   1.0103630   0.4121830  )
        22           Zn  tau(  22) = (   0.0000000   1.1547005   0.0005216  )
        23           O   tau(  23) = (   0.2500000   1.0103630   0.7242576  )
        24           O   tau(  24) = (   0.0000000   1.1547005   0.3125962  )

   Crystallographic axes

     site n.     atom                  positions (cryst. coord.)
         1           Zn  tau(   1) = (  0.3333333  0.1111111  0.5006336  )
         2           Zn  tau(   2) = (  0.1666667  0.2222222  0.0006336  )
         3           O   tau(   3) = (  0.3333333  0.1111111  0.8796764  )
         4           O   tau(   4) = (  0.1666667  0.2222222  0.3796764  )
         5           Zn  tau(   5) = (  0.3333333  0.4444444  0.5006336  )
         6           Zn  tau(   6) = (  0.1666667  0.5555556  0.0006336  )
         7           O   tau(   7) = (  0.3333333  0.4444444  0.8796764  )
         8           O   tau(   8) = (  0.1666667  0.5555556  0.3796764  )
         9           Zn  tau(   9) = (  0.3333333  0.7777778  0.5006336  )
        10           Zn  tau(  10) = (  0.1666667  0.8888889  0.0006336  )
        11           O   tau(  11) = (  0.3333333  0.7777778  0.8796764  )
        12           O   tau(  12) = (  0.1666667  0.8888889  0.3796764  )
        13           Zn  tau(  13) = (  0.8333333  0.1111111  0.5006336  )
        14           Zn  tau(  14) = (  0.6666667  0.2222222  0.0006336  )
        15           O   tau(  15) = (  0.8333333  0.1111111  0.8796764  )
        16           O   tau(  16) = (  0.6666667  0.2222222  0.3796764  )
        17           Zn  tau(  17) = (  0.8333333  0.4444444  0.5006336  )
        18           Zn  tau(  18) = (  0.6666667  0.5555556  0.0006336  )
        19           O   tau(  19) = (  0.8333333  0.4444444  0.8796764  )
        20           O   tau(  20) = (  0.6666667  0.5555556  0.3796764  )
        21           Zn  tau(  21) = (  0.8333333  0.7777778  0.5006336  )
        22           Zn  tau(  22) = (  0.6666667  0.8888889  0.0006336  )
        23           O   tau(  23) = (  0.8333333  0.7777778  0.8796764  )
        24           O   tau(  24) = (  0.6666667  0.8888889  0.3796764  )

     number of k points=   112
                       cart. coord. in units 2pi/alat
        k(    1) = (   0.0000000   0.0000000   0.0000000), wk =   0.0092593
        k(    2) = (   0.0000000   0.0000000   0.2024317), wk =   0.0185185
        k(    3) = (   0.0000000   0.0000000   0.4048635), wk =   0.0185185
        k(    4) = (   0.0000000   0.0000000  -0.6072952), wk =   0.0092593
        k(    5) = (   0.0000000   0.1283001   0.0000000), wk =   0.0185185
        k(    6) = (   0.0000000   0.1283001   0.2024317), wk =   0.0185185
        k(    7) = (   0.0000000   0.1283001   0.4048635), wk =   0.0185185
        k(    8) = (   0.0000000   0.1283001  -0.6072952), wk =   0.0185185
        k(    9) = (   0.0000000   0.2566001   0.0000000), wk =   0.0185185
        k(   10) = (   0.0000000   0.2566001   0.2024317), wk =   0.0185185
        k(   11) = (   0.0000000   0.2566001   0.4048635), wk =   0.0185185
        k(   12) = (   0.0000000   0.2566001  -0.6072952), wk =   0.0185185
        k(   13) = (   0.0000000  -0.3849002   0.0000000), wk =   0.0092593
        k(   14) = (   0.0000000  -0.3849002   0.2024317), wk =   0.0185185
        k(   15) = (   0.0000000  -0.3849002   0.4048635), wk =   0.0185185
        k(   16) = (   0.0000000  -0.3849002  -0.6072952), wk =   0.0092593
        k(   17) = (   0.1666667   0.0962250   0.0000000), wk =   0.0185185
        k(   18) = (   0.1666667   0.0962250   0.2024317), wk =   0.0185185
        k(   19) = (   0.1666667   0.0962250   0.4048635), wk =   0.0185185
        k(   20) = (   0.1666667   0.0962250  -0.6072952), wk =   0.0185185
        k(   21) = (   0.1666667   0.2245251   0.0000000), wk =   0.0185185
        k(   22) = (   0.1666667   0.2245251   0.2024317), wk =   0.0185185
        k(   23) = (   0.1666667   0.2245251   0.4048635), wk =   0.0185185
        k(   24) = (   0.1666667   0.2245251  -0.6072952), wk =   0.0185185
        k(   25) = (   0.1666667   0.3528252   0.0000000), wk =   0.0185185
        k(   26) = (   0.1666667   0.3528252   0.2024317), wk =   0.0185185
        k(   27) = (   0.1666667   0.3528252   0.4048635), wk =   0.0185185
        k(   28) = (   0.1666667   0.3528252  -0.6072952), wk =   0.0185185
        k(   29) = (   0.1666667  -0.2886751   0.0000000), wk =   0.0185185
        k(   30) = (   0.1666667  -0.2886751   0.2024317), wk =   0.0185185
        k(   31) = (   0.1666667  -0.2886751   0.4048635), wk =   0.0185185
        k(   32) = (   0.1666667  -0.2886751  -0.6072952), wk =   0.0185185
        k(   33) = (   0.1666667  -0.1603751   0.0000000), wk =   0.0185185
        k(   34) = (   0.1666667  -0.1603751   0.2024317), wk =   0.0185185
        k(   35) = (   0.1666667  -0.1603751   0.4048635), wk =   0.0185185
        k(   36) = (   0.1666667  -0.1603751  -0.6072952), wk =   0.0185185
        k(   37) = (   0.1666667  -0.0320750   0.0000000), wk =   0.0185185
        k(   38) = (   0.1666667  -0.0320750   0.2024317), wk =   0.0185185
        k(   39) = (   0.1666667  -0.0320750   0.4048635), wk =   0.0185185
        k(   40) = (   0.1666667  -0.0320750  -0.6072952), wk =   0.0185185
        k(   41) = (   0.3333333   0.1924501   0.0000000), wk =   0.0185185
        k(   42) = (   0.3333333   0.1924501   0.2024317), wk =   0.0185185
        k(   43) = (   0.3333333   0.1924501   0.4048635), wk =   0.0185185
        k(   44) = (   0.3333333   0.1924501  -0.6072952), wk =   0.0185185
        k(   45) = (   0.3333333   0.3207501   0.0000000), wk =   0.0185185
[...]

!    total energy              =   -2169.56272517 Ry
     estimated scf accuracy    <          9.9E-09 Ry

     The total energy is the sum of the following terms:
     one-electron contribution =   -1057.59006595 Ry
     hartree contribution      =     756.97296587 Ry
     xc contribution           =    -655.13079473 Ry
     ewald contribution        =   -1213.81483036 Ry

     convergence has been achieved in  41 iterations

     Forces acting on atoms (cartesian axes, Ry/au):

     atom    1 type  1   force =     0.00000039    0.00000066   -0.00034756
     atom    2 type  1   force =     0.00000005    0.00000025   -0.00034681
     atom    3 type  2   force =    -0.00000000    0.00000045    0.00034702
     atom    4 type  2   force =    -0.00000010   -0.00000051    0.00034710
     atom    5 type  1   force =     0.00000113    0.00000063   -0.00034704
     atom    6 type  1   force =     0.00000032   -0.00000032   -0.00034714
     atom    7 type  2   force =     0.00000001    0.00000045    0.00034706
     atom    8 type  2   force =    -0.00000005   -0.00000042    0.00034704
     atom    9 type  1   force =    -0.00000016    0.00000043   -0.00034723
     atom   10 type  1   force =     0.00000011   -0.00000055   -0.00034661
     atom   11 type  2   force =     0.00000002    0.00000050    0.00034700
     atom   12 type  2   force =    -0.00000005   -0.00000048    0.00034701
     atom   13 type  1   force =    -0.00000038    0.00000091   -0.00034706
     atom   14 type  1   force =    -0.00000008   -0.00000037   -0.00034660
     atom   15 type  2   force =     0.00000011    0.00000048    0.00034705
     atom   16 type  2   force =    -0.00000009   -0.00000048    0.00034701
     atom   17 type  1   force =    -0.00000073    0.00000030   -0.00034755
     atom   18 type  1   force =    -0.00000054   -0.00000099   -0.00034666
     atom   19 type  2   force =     0.00000009    0.00000046    0.00034705
     atom   20 type  2   force =    -0.00000009   -0.00000040    0.00034701
     atom   21 type  1   force =     0.00000038   -0.00000041   -0.00034744
     atom   22 type  1   force =    -0.00000035   -0.00000068   -0.00034672
     atom   23 type  2   force =     0.00000008    0.00000053    0.00034703
     atom   24 type  2   force =    -0.00000004   -0.00000044    0.00034704
     The non-local contrib.  to forces
     atom    1 type  1   force =     0.00000008   -0.00000556    0.04586827
     atom    2 type  1   force =     0.00000005    0.00000626    0.04586871
     atom    3 type  2   force =     0.00000026    0.00000951    0.05711209
     atom    4 type  2   force =    -0.00000042   -0.00000989    0.05711236
     atom    5 type  1   force =     0.00000043   -0.00000603    0.04586846
     atom    6 type  1   force =     0.00000020    0.00000593    0.04586858
     atom    7 type  2   force =     0.00000010    0.00000955    0.05711233
     atom    8 type  2   force =    -0.00000022   -0.00000941    0.05711217
     atom    9 type  1   force =     0.00000000   -0.00000592    0.04586843
     atom   10 type  1   force =     0.00000007    0.00000577    0.04586881
     atom   11 type  2   force =     0.00000029    0.00000984    0.05711203
     atom   12 type  2   force =    -0.00000033   -0.00000963    0.05711214
     atom   13 type  1   force =    -0.00000028   -0.00000548    0.04586850
     atom   14 type  1   force =    -0.00000016    0.00000597    0.04586874
     atom   15 type  2   force =     0.00000037    0.00000945    0.05711222
     atom   16 type  2   force =    -0.00000030   -0.00000985    0.05711232
     atom   17 type  1   force =    -0.00000040   -0.00000610    0.04586830
     atom   18 type  1   force =    -0.00000003    0.00000581    0.04586872
     atom   19 type  2   force =     0.00000055    0.00000957    0.05711236
     atom   20 type  2   force =    -0.00000042   -0.00000952    0.05711226
     atom   21 type  1   force =     0.00000013   -0.00000627    0.04586840
     atom   22 type  1   force =    -0.00000003    0.00000567    0.04586874
     atom   23 type  2   force =     0.00000034    0.00000994    0.05711209
     atom   24 type  2   force =    -0.00000036   -0.00000959    0.05711227
     The ionic contribution  to forces
     atom    1 type  1   force =    -0.00000000    0.00000001    0.41388422
     atom    2 type  1   force =     0.00000001    0.00000001    0.41388422
     atom    3 type  2   force =    -0.00000000    0.00000001   -0.41388422
     atom    4 type  2   force =     0.00000001    0.00000000   -0.41388422
     atom    5 type  1   force =    -0.00000001    0.00000001    0.41388422
     atom    6 type  1   force =     0.00000001   -0.00000000    0.41388422
     atom    7 type  2   force =    -0.00000001    0.00000000   -0.41388422
     atom    8 type  2   force =     0.00000001   -0.00000000   -0.41388422
     atom    9 type  1   force =    -0.00000000   -0.00000000    0.41388422
     atom   10 type  1   force =     0.00000001   -0.00000000    0.41388422
     atom   11 type  2   force =    -0.00000000    0.00000000   -0.41388422
     atom   12 type  2   force =     0.00000001   -0.00000000   -0.41388422
     atom   13 type  1   force =    -0.00000001    0.00000000    0.41388422
     atom   14 type  1   force =    -0.00000001    0.00000001    0.41388422
     atom   15 type  2   force =    -0.00000001    0.00000000   -0.41388422
     atom   16 type  2   force =    -0.00000000    0.00000000   -0.41388422
     atom   17 type  1   force =    -0.00000002    0.00000001    0.41388422
     atom   18 type  1   force =     0.00000001   -0.00000001    0.41388422
     atom   19 type  2   force =    -0.00000001    0.00000000   -0.41388422
     atom   20 type  2   force =     0.00000001   -0.00000001   -0.41388422
     atom   21 type  1   force =    -0.00000000   -0.00000001    0.41388422
     atom   22 type  1   force =    -0.00000001   -0.00000001    0.41388422
     atom   23 type  2   force =    -0.00000000   -0.00000001   -0.41388422
     atom   24 type  2   force =    -0.00000000   -0.00000000   -0.41388422
     The local contribution  to forces
     atom    1 type  1   force =    -0.00000037    0.00000516   -0.45730577
     atom    2 type  1   force =    -0.00000017   -0.00000709   -0.45730710
     atom    3 type  2   force =    -0.00000018   -0.00000924    0.35763816
     atom    4 type  2   force =    -0.00000004    0.00000877    0.35763854
     atom    5 type  1   force =    -0.00000155    0.00000584   -0.45730662
     atom    6 type  1   force =    -0.00000064   -0.00000560   -0.45730651
     atom    7 type  2   force =    -0.00000032   -0.00000908    0.35763801
     atom    8 type  2   force =     0.00000016    0.00000890    0.35763863
     atom    9 type  1   force =     0.00000046    0.00000587   -0.45730638
     atom   10 type  1   force =    -0.00000019   -0.00000558   -0.45730745
     atom   11 type  2   force =    -0.00000022   -0.00000881    0.35763824
     atom   12 type  2   force =     0.00000027    0.00000917    0.35763873
     atom   13 type  1   force =     0.00000075    0.00000481   -0.45730647
     atom   14 type  1   force =    -0.00000005   -0.00000626   -0.45730749
     atom   15 type  2   force =    -0.00000018   -0.00000923    0.35763818
     atom   16 type  2   force =     0.00000056    0.00000893    0.35763833
     atom   17 type  1   force =     0.00000153    0.00000623   -0.45730597
     atom   18 type  1   force =     0.00000041   -0.00000519   -0.45730749
     atom   19 type  2   force =    -0.00000026   -0.00000913    0.35763811
     atom   20 type  2   force =     0.00000041    0.00000945    0.35763832
     atom   21 type  1   force =    -0.00000034    0.00000737   -0.45730609
     atom   22 type  1   force =     0.00000009   -0.00000559   -0.45730705
     atom   23 type  2   force =    -0.00000026   -0.00000878    0.35763833
     atom   24 type  2   force =     0.00000047    0.00000932    0.35763864
     The core correction contribution to forces
     atom    1 type  1   force =     0.00000007    0.00000042   -0.00279154
     atom    2 type  1   force =     0.00000004   -0.00000057   -0.00279150
     atom    3 type  2   force =    -0.00000000   -0.00000011   -0.00051939
     atom    4 type  2   force =     0.00000001    0.00000013   -0.00051938
     atom    5 type  1   force =     0.00000004    0.00000071   -0.00279149
     atom    6 type  1   force =     0.00000001   -0.00000073   -0.00279150
     atom    7 type  2   force =    -0.00000000   -0.00000010   -0.00051939
     atom    8 type  2   force =     0.00000000    0.00000009   -0.00051939
     atom    9 type  1   force =    -0.00000006    0.00000059   -0.00279150
     atom   10 type  1   force =    -0.00000007   -0.00000041   -0.00279150
     atom   11 type  2   force =    -0.00000000   -0.00000013   -0.00051938
     atom   12 type  2   force =     0.00000001    0.00000011   -0.00051939
     atom   13 type  1   force =     0.00000005    0.00000043   -0.00279152
     atom   14 type  1   force =     0.00000006   -0.00000057   -0.00279147
     atom   15 type  2   force =    -0.00000001   -0.00000010   -0.00051939
     atom   16 type  2   force =     0.00000001    0.00000013   -0.00051938
     atom   17 type  1   force =    -0.00000004    0.00000070   -0.00279150
     atom   18 type  1   force =    -0.00000001   -0.00000072   -0.00279146
     atom   19 type  2   force =    -0.00000001   -0.00000010   -0.00051939
     atom   20 type  2   force =     0.00000001    0.00000010   -0.00051939
     atom   21 type  1   force =    -0.00000004    0.00000055   -0.00279151
     atom   22 type  1   force =    -0.00000006   -0.00000040   -0.00279152
     atom   23 type  2   force =    -0.00000001   -0.00000013   -0.00051938
     atom   24 type  2   force =     0.00000001    0.00000011   -0.00051939
     The Hubbard contrib.    to forces
     atom    1 type  1   force =     0.00000000    0.00000000    0.00000000
     atom    2 type  1   force =     0.00000000    0.00000000    0.00000000
     atom    3 type  2   force =     0.00000000    0.00000000    0.00000000
     atom    4 type  2   force =     0.00000000    0.00000000    0.00000000
     atom    5 type  1   force =     0.00000000    0.00000000    0.00000000
     atom    6 type  1   force =     0.00000000    0.00000000    0.00000000
     atom    7 type  2   force =     0.00000000    0.00000000    0.00000000
     atom    8 type  2   force =     0.00000000    0.00000000    0.00000000
     atom    9 type  1   force =     0.00000000    0.00000000    0.00000000
     atom   10 type  1   force =     0.00000000    0.00000000    0.00000000
     atom   11 type  2   force =     0.00000000    0.00000000    0.00000000
     atom   12 type  2   force =     0.00000000    0.00000000    0.00000000
     atom   13 type  1   force =     0.00000000    0.00000000    0.00000000
     atom   14 type  1   force =     0.00000000    0.00000000    0.00000000
     atom   15 type  2   force =     0.00000000    0.00000000    0.00000000
     atom   16 type  2   force =     0.00000000    0.00000000    0.00000000
     atom   17 type  1   force =     0.00000000    0.00000000    0.00000000
     atom   18 type  1   force =     0.00000000    0.00000000    0.00000000
     atom   19 type  2   force =     0.00000000    0.00000000    0.00000000
     atom   20 type  2   force =     0.00000000    0.00000000    0.00000000
     atom   21 type  1   force =     0.00000000    0.00000000    0.00000000
     atom   22 type  1   force =     0.00000000    0.00000000    0.00000000
     atom   23 type  2   force =     0.00000000    0.00000000    0.00000000
     atom   24 type  2   force =     0.00000000    0.00000000    0.00000000
     The SCF correction term to forces
     atom    1 type  1   force =     0.00000062    0.00000063   -0.00000361
     atom    2 type  1   force =     0.00000013    0.00000163   -0.00000201
     atom    3 type  2   force =    -0.00000007    0.00000027   -0.00000049
     atom    4 type  2   force =     0.00000036    0.00000046   -0.00000107
     atom    5 type  1   force =     0.00000223    0.00000009   -0.00000249
     atom    6 type  1   force =     0.00000075    0.00000008   -0.00000279
     atom    7 type  2   force =     0.00000025    0.00000007   -0.00000055
     atom    8 type  2   force =     0.00000000   -0.00000001   -0.00000103
     atom    9 type  1   force =    -0.00000055   -0.00000012   -0.00000287
     atom   10 type  1   force =     0.00000029   -0.00000033   -0.00000156
     atom   11 type  2   force =    -0.00000003   -0.00000040   -0.00000055
     atom   12 type  2   force =     0.00000000   -0.00000013   -0.00000113
     atom   13 type  1   force =    -0.00000089    0.00000115   -0.00000266
     atom   14 type  1   force =     0.00000008    0.00000048   -0.00000146
     atom   15 type  2   force =    -0.00000007    0.00000036   -0.00000062
     atom   16 type  2   force =    -0.00000035    0.00000030   -0.00000091
     atom   17 type  1   force =    -0.00000179   -0.00000054   -0.00000348
     atom   18 type  1   force =    -0.00000090   -0.00000088   -0.00000152
     atom   19 type  2   force =    -0.00000017    0.00000010   -0.00000068
     atom   20 type  2   force =    -0.00000008   -0.00000042   -0.00000084
     atom   21 type  1   force =     0.00000063   -0.00000205   -0.00000334
     atom   22 type  1   force =    -0.00000034   -0.00000036   -0.00000198
     atom   23 type  2   force =     0.00000001   -0.00000049   -0.00000066
     atom   24 type  2   force =    -0.00000014   -0.00000027   -0.00000114

     Total force =     0.001700     Total SCF correction =     0.000011

     General routines

     Parallel routines

   This run was terminated on:  16: 9:33   9Sep2025

   JOB DONE.
Note: The following floating-point exceptions are signalling: IEEE_UNDERFLOW_FLAG IEEE_DENORMAL
Note: The following floating-point exceptions are signalling: IEEE_UNDERFLOW_FLAG IEEE_DENORMAL
Note: The following floating-point exceptions are signalling: IEEE_UNDERFLOW_FLAG IEEE_DENORMAL
Note: The following floating-point exceptions are signalling: IEEE_UNDERFLOW_FLAG IEEE_DENORMAL
Note: The following floating-point exceptions are signalling: IEEE_UNDERFLOW_FLAG IEEE_DENORMAL
Note: The following floating-point exceptions are signalling: IEEE_UNDERFLOW_FLAG IEEE_DENORMAL
Note: The following floating-point exceptions are signalling: IEEE_UNDERFLOW_FLAG IEEE_DENORMAL
Note: The following floating-point exceptions are signalling: IEEE_UNDERFLOW_FLAG IEEE_DENORMAL
Note: The following floating-point exceptions are signalling: IEEE_UNDERFLOW_FLAG IEEE_DENORMAL
Note: The following floating-point exceptions are signalling: IEEE_UNDERFLOW_FLAG IEEE_DENORMAL
Note: The following floating-point exceptions are signalling: IEEE_UNDERFLOW_FLAG IEEE_DENORMAL
Note: The following floating-point exceptions are signalling: IEEE_UNDERFLOW_FLAG IEEE_DENORMAL
Note: The following floating-point exceptions are signalling: IEEE_UNDERFLOW_FLAG IEEE_DENORMAL
Note: The following floating-point exceptions are signalling: IEEE_UNDERFLOW_FLAG IEEE_DENORMAL
Note: The following floating-point exceptions are signalling: IEEE_UNDERFLOW_FLAG IEEE_DENORMAL
Note: The following floating-point exceptions are signalling: IEEE_UNDERFLOW_FLAG IEEE_DENORMAL
Note: The following floating-point exceptions are signalling: IEEE_UNDERFLOW_FLAG IEEE_DENORMAL
Note: The following floating-point exceptions are signalling: IEEE_UNDERFLOW_FLAG IEEE_DENORMAL
Note: The following floating-point exceptions are signalling: IEEE_UNDERFLOW_FLAG IEEE_DENORMAL
Note: The following floating-point exceptions are signalling: IEEE_UNDERFLOW_FLAG IEEE_DENORMAL
Note: The following floating-point exceptions are signalling: IEEE_UNDERFLOW_FLAG IEEE_DENORMAL
Note: The following floating-point exceptions are signalling: IEEE_UNDERFLOW_FLAG IEEE_DENORMAL
Note: The following floating-point exceptions are signalling: IEEE_UNDERFLOW_FLAG IEEE_DENORMAL
Note: The following floating-point exceptions are signalling: IEEE_UNDERFLOW_FLAG IEEE_DENORMAL
Note: The following floating-point exceptions are signalling: IEEE_UNDERFLOW_FLAG IEEE_DENORMAL
Note: The following floating-point exceptions are signalling: IEEE_UNDERFLOW_FLAG IEEE_DENORMAL
Note: The following floating-point exceptions are signalling: IEEE_UNDERFLOW_FLAG IEEE_DENORMAL
Note: The following floating-point exceptions are signalling: IEEE_UNDERFLOW_FLAG IEEE_DENORMAL
Note: The following floating-point exceptions are signalling: IEEE_UNDERFLOW_FLAG IEEE_DENORMAL
Note: The following floating-point exceptions are signalling: IEEE_UNDERFLOW_FLAG IEEE_DENORMAL
Note: The following floating-point exceptions are signalling: IEEE_UNDERFLOW_FLAG IEEE_DENORMAL
Note: The following floating-point exceptions are signalling: IEEE_UNDERFLOW_FLAG IEEE_DENORMAL