     Program PWSCF v.7.0 starts on  8Sep2025 at 16:13: 7

     K-points division:     npool     =       8
     R & G space division:  proc/nbgrp/npool/nimage =       4

     Reading input from /home/jvc/QEspresso7.2/ZnO_database/scripts/cell231.in/ZnO-3.27-1.55-231.in
Warning: card &CELL ignored
Warning: card / ignored
Warning: card &FCP ignored
Warning: card / ignored
Warning: card &RISM ignored
Warning: card / ignored

     Current dimensions of program PWSCF are:
     Max number of different atomic species (ntypx) = 10
     Max number of k-points (npk) =  40000
     Max angular momentum in pseudopotentials (lmaxx) =  4
     file Zn.upf: wavefunction(s)  3D renormalized
     Found identity + ( -0.0000  0.3333  0.0000) symmetry
     This is a supercell, fractional translations are disabled

     Using Slab Decomposition

     bravais-lattice index     =            0
     lattice parameter (alat)  =      12.3577  a.u.
     unit-cell volume          =    1899.6643 (a.u.)^3
     number of atoms/cell      =           24
     number of atomic types    =            2
     number of electrons       =       216.00
     number of Kohn-Sham states=          108
     kinetic-energy cutoff     =      50.0000  Ry
     charge density cutoff     =     400.0000  Ry
     scf convergence threshold =      1.0E-08
     mixing beta               =       0.3000
     number of iterations used =            8  plain     mixing
     Exchange-correlation= PBE
                           (   1   4   3   4   0   0   0)

     celldm(1)=  12.357708  celldm(2)=   0.000000  celldm(3)=   0.000000
     celldm(4)=   0.000000  celldm(5)=   0.000000  celldm(6)=   0.000000

     crystal axes: (cart. coord. in units of alat)
               a(1) = (   1.000000   0.000000   0.000000 )
               a(2) = (  -0.750000   1.299038   0.000000 )
               a(3) = (   0.000000   0.000000   0.774892 )

     reciprocal axes: (cart. coord. in units 2 pi/alat)
               b(1) = (  1.000000  0.577350 -0.000000 )
               b(2) = (  0.000000  0.769800  0.000000 )
               b(3) = (  0.000000 -0.000000  1.290502 )

     PseudoPot. # 1 for Zn read from file:
     /home/jvc/QEspresso7.2/ZnO_database/pseudos/Zn.upf
     MD5 check sum: 7f56cabf9682ed8c977c2f7d0c5985c5
     Pseudo is Ultrasoft + core correction, Zval = 12.0
     Generated using &quot;atomic&quot; code by A. Dal Corso  v.6.2.2
     Using radial grid of 1201 points,  6 beta functions with:
                l(1) =   0
                l(2) =   0
                l(3) =   1
                l(4) =   1
                l(5) =   2
                l(6) =   2
     Q(r) pseudized with 0 coefficients

     PseudoPot. # 2 for O  read from file:
     /home/jvc/QEspresso7.2/ZnO_database/pseudos/O.upf
     MD5 check sum: 91400c9766925bcf19f520983a725ff0
     Pseudo is Ultrasoft + core correction, Zval =  6.0
     Generated using &quot;atomic&quot; code by A. Dal Corso  v.6.3MaX
     Using radial grid of 1095 points,  4 beta functions with:
                l(1) =   0
                l(2) =   0
                l(3) =   1
                l(4) =   1
     Q(r) pseudized with 0 coefficients

     atomic species   valence    mass     pseudopotential
        Zn            12.00    65.38000     Zn( 1.00)
        O              6.00    15.99900     O ( 1.00)

     No symmetry found

                                    s                        frac. trans.

      isym =  1     identity

 cryst.   s( 1) = (     1          0          0      )
                  (     0          1          0      )
                  (     0          0          1      )

 cart.    s( 1) = (  1.0000000 -0.0000000  0.0000000 )
                  (  0.0000000  1.0000000  0.0000000 )
                  (  0.0000000  0.0000000  1.0000000 )

   Cartesian axes

     site n.     atom                  positions (alat units)
         1           Zn  tau(   1) = (   0.2500000   0.1443376   0.3879370  )
         2           Zn  tau(   2) = (  -0.0000000   0.2886751   0.0004910  )
         3           O   tau(   3) = (   0.2500000   0.1443376   0.6816542  )
         4           O   tau(   4) = (  -0.0000000   0.2886751   0.2942082  )
         5           Zn  tau(   5) = (   0.0000000   0.5773503   0.3879370  )
         6           Zn  tau(   6) = (  -0.2500000   0.7216878   0.0004910  )
         7           O   tau(   7) = (   0.0000000   0.5773503   0.6816542  )
         8           O   tau(   8) = (  -0.2500000   0.7216878   0.2942082  )
         9           Zn  tau(   9) = (  -0.2500000   1.0103630   0.3879370  )
        10           Zn  tau(  10) = (  -0.5000000   1.1547005   0.0004910  )
        11           O   tau(  11) = (  -0.2500000   1.0103630   0.6816542  )
        12           O   tau(  12) = (  -0.5000000   1.1547005   0.2942082  )
        13           Zn  tau(  13) = (   0.7500000   0.1443376   0.3879370  )
        14           Zn  tau(  14) = (   0.5000000   0.2886751   0.0004910  )
        15           O   tau(  15) = (   0.7500000   0.1443376   0.6816542  )
        16           O   tau(  16) = (   0.5000000   0.2886751   0.2942082  )
        17           Zn  tau(  17) = (   0.5000000   0.5773503   0.3879370  )
        18           Zn  tau(  18) = (   0.2500000   0.7216878   0.0004910  )
        19           O   tau(  19) = (   0.5000000   0.5773503   0.6816542  )
        20           O   tau(  20) = (   0.2500000   0.7216878   0.2942082  )
        21           Zn  tau(  21) = (   0.2500000   1.0103630   0.3879370  )
        22           Zn  tau(  22) = (   0.0000000   1.1547005   0.0004910  )
        23           O   tau(  23) = (   0.2500000   1.0103630   0.6816542  )
        24           O   tau(  24) = (   0.0000000   1.1547005   0.2942082  )

   Crystallographic axes

     site n.     atom                  positions (cryst. coord.)
         1           Zn  tau(   1) = (  0.3333333  0.1111111  0.5006336  )
         2           Zn  tau(   2) = (  0.1666667  0.2222222  0.0006336  )
         3           O   tau(   3) = (  0.3333333  0.1111111  0.8796764  )
         4           O   tau(   4) = (  0.1666667  0.2222222  0.3796764  )
         5           Zn  tau(   5) = (  0.3333333  0.4444444  0.5006336  )
         6           Zn  tau(   6) = (  0.1666667  0.5555556  0.0006336  )
         7           O   tau(   7) = (  0.3333333  0.4444444  0.8796764  )
         8           O   tau(   8) = (  0.1666667  0.5555556  0.3796764  )
         9           Zn  tau(   9) = (  0.3333333  0.7777778  0.5006336  )
        10           Zn  tau(  10) = (  0.1666667  0.8888889  0.0006336  )
        11           O   tau(  11) = (  0.3333333  0.7777778  0.8796764  )
        12           O   tau(  12) = (  0.1666667  0.8888889  0.3796764  )
        13           Zn  tau(  13) = (  0.8333333  0.1111111  0.5006336  )
        14           Zn  tau(  14) = (  0.6666667  0.2222222  0.0006336  )
        15           O   tau(  15) = (  0.8333333  0.1111111  0.8796764  )
        16           O   tau(  16) = (  0.6666667  0.2222222  0.3796764  )
        17           Zn  tau(  17) = (  0.8333333  0.4444444  0.5006336  )
        18           Zn  tau(  18) = (  0.6666667  0.5555556  0.0006336  )
        19           O   tau(  19) = (  0.8333333  0.4444444  0.8796764  )
        20           O   tau(  20) = (  0.6666667  0.5555556  0.3796764  )
        21           Zn  tau(  21) = (  0.8333333  0.7777778  0.5006336  )
        22           Zn  tau(  22) = (  0.6666667  0.8888889  0.0006336  )
        23           O   tau(  23) = (  0.8333333  0.7777778  0.8796764  )
        24           O   tau(  24) = (  0.6666667  0.8888889  0.3796764  )

     number of k points=   112
                       cart. coord. in units 2pi/alat
        k(    1) = (   0.0000000   0.0000000   0.0000000), wk =   0.0092593
        k(    2) = (   0.0000000   0.0000000   0.2150837), wk =   0.0185185
        k(    3) = (   0.0000000   0.0000000   0.4301675), wk =   0.0185185
        k(    4) = (   0.0000000   0.0000000  -0.6452512), wk =   0.0092593
        k(    5) = (   0.0000000   0.1283001   0.0000000), wk =   0.0185185
        k(    6) = (   0.0000000   0.1283001   0.2150837), wk =   0.0185185
        k(    7) = (   0.0000000   0.1283001   0.4301675), wk =   0.0185185
        k(    8) = (   0.0000000   0.1283001  -0.6452512), wk =   0.0185185
        k(    9) = (   0.0000000   0.2566001   0.0000000), wk =   0.0185185
        k(   10) = (   0.0000000   0.2566001   0.2150837), wk =   0.0185185
        k(   11) = (   0.0000000   0.2566001   0.4301675), wk =   0.0185185
        k(   12) = (   0.0000000   0.2566001  -0.6452512), wk =   0.0185185
        k(   13) = (   0.0000000  -0.3849002   0.0000000), wk =   0.0092593
        k(   14) = (   0.0000000  -0.3849002   0.2150837), wk =   0.0185185
        k(   15) = (   0.0000000  -0.3849002   0.4301675), wk =   0.0185185
        k(   16) = (   0.0000000  -0.3849002  -0.6452512), wk =   0.0092593
        k(   17) = (   0.1666667   0.0962250   0.0000000), wk =   0.0185185
        k(   18) = (   0.1666667   0.0962250   0.2150837), wk =   0.0185185
        k(   19) = (   0.1666667   0.0962250   0.4301675), wk =   0.0185185
        k(   20) = (   0.1666667   0.0962250  -0.6452512), wk =   0.0185185
        k(   21) = (   0.1666667   0.2245251   0.0000000), wk =   0.0185185
        k(   22) = (   0.1666667   0.2245251   0.2150837), wk =   0.0185185
        k(   23) = (   0.1666667   0.2245251   0.4301675), wk =   0.0185185
        k(   24) = (   0.1666667   0.2245251  -0.6452512), wk =   0.0185185
        k(   25) = (   0.1666667   0.3528252   0.0000000), wk =   0.0185185
        k(   26) = (   0.1666667   0.3528252   0.2150837), wk =   0.0185185
        k(   27) = (   0.1666667   0.3528252   0.4301675), wk =   0.0185185
        k(   28) = (   0.1666667   0.3528252  -0.6452512), wk =   0.0185185
        k(   29) = (   0.1666667  -0.2886751   0.0000000), wk =   0.0185185
        k(   30) = (   0.1666667  -0.2886751   0.2150837), wk =   0.0185185
        k(   31) = (   0.1666667  -0.2886751   0.4301675), wk =   0.0185185
        k(   32) = (   0.1666667  -0.2886751  -0.6452512), wk =   0.0185185
        k(   33) = (   0.1666667  -0.1603751   0.0000000), wk =   0.0185185
        k(   34) = (   0.1666667  -0.1603751   0.2150837), wk =   0.0185185
        k(   35) = (   0.1666667  -0.1603751   0.4301675), wk =   0.0185185
        k(   36) = (   0.1666667  -0.1603751  -0.6452512), wk =   0.0185185
        k(   37) = (   0.1666667  -0.0320750   0.0000000), wk =   0.0185185
        k(   38) = (   0.1666667  -0.0320750   0.2150837), wk =   0.0185185
        k(   39) = (   0.1666667  -0.0320750   0.4301675), wk =   0.0185185
        k(   40) = (   0.1666667  -0.0320750  -0.6452512), wk =   0.0185185
        k(   41) = (   0.3333333   0.1924501   0.0000000), wk =   0.0185185
        k(   42) = (   0.3333333   0.1924501   0.2150837), wk =   0.0185185
        k(   43) = (   0.3333333   0.1924501   0.4301675), wk =   0.0185185
        k(   44) = (   0.3333333   0.1924501  -0.6452512), wk =   0.0185185
        k(   45) = (   0.3333333   0.3207501   0.0000000), wk =   0.0185185
[...]

!    total energy              =   -2169.78177526 Ry
     estimated scf accuracy    <          1.4E-09 Ry

     The total energy is the sum of the following terms:
     one-electron contribution =    -900.73958553 Ry
     hartree contribution      =     700.68630049 Ry
     xc contribution           =    -657.80579501 Ry
     ewald contribution        =   -1311.92269520 Ry

     convergence has been achieved in  35 iterations

     Forces acting on atoms (cartesian axes, Ry/au):

     atom    1 type  1   force =    -0.00000014   -0.00000102   -0.01812857
     atom    2 type  1   force =    -0.00000071    0.00000021   -0.01812736
     atom    3 type  2   force =     0.00000004   -0.00000010    0.01812788
     atom    4 type  2   force =    -0.00000002    0.00000002    0.01812789
     atom    5 type  1   force =     0.00000082   -0.00000055   -0.01812764
     atom    6 type  1   force =    -0.00000040    0.00000088   -0.01812849
     atom    7 type  2   force =     0.00000005   -0.00000013    0.01812785
     atom    8 type  2   force =    -0.00000007    0.00000007    0.01812793
     atom    9 type  1   force =    -0.00000096    0.00000072   -0.01812738
     atom   10 type  1   force =     0.00000050   -0.00000046   -0.01812753
     atom   11 type  2   force =     0.00000000   -0.00000008    0.01812781
     atom   12 type  2   force =     0.00000006    0.00000005    0.01812789
     atom   13 type  1   force =     0.00000010   -0.00000005   -0.01812794
     atom   14 type  1   force =     0.00000069    0.00000036   -0.01812786
     atom   15 type  2   force =     0.00000009   -0.00000012    0.01812785
     atom   16 type  2   force =    -0.00000007    0.00000005    0.01812786
     atom   17 type  1   force =    -0.00000071   -0.00000036   -0.01812766
     atom   18 type  1   force =     0.00000025    0.00000037   -0.01812799
     atom   19 type  2   force =     0.00000004   -0.00000007    0.01812785
     atom   20 type  2   force =     0.00000002    0.00000001    0.01812788
     atom   21 type  1   force =     0.00000096   -0.00000032   -0.01812798
     atom   22 type  1   force =    -0.00000055    0.00000048   -0.01812811
     atom   23 type  2   force =     0.00000009   -0.00000002    0.01812790
     atom   24 type  2   force =    -0.00000007    0.00000006    0.01812792
     The non-local contrib.  to forces
     atom    1 type  1   force =    -0.00000000   -0.00000198   -0.12497190
     atom    2 type  1   force =    -0.00000028    0.00000170   -0.12497158
     atom    3 type  2   force =     0.00000018    0.00000507   -0.08983121
     atom    4 type  2   force =    -0.00000028   -0.00000490   -0.08983106
     atom    5 type  1   force =     0.00000029   -0.00000190   -0.12497154
     atom    6 type  1   force =    -0.00000020    0.00000197   -0.12497180
     atom    7 type  2   force =     0.00000018    0.00000501   -0.08983113
     atom    8 type  2   force =    -0.00000012   -0.00000487   -0.08983131
     atom    9 type  1   force =    -0.00000030   -0.00000140   -0.12497154
     atom   10 type  1   force =     0.00000024    0.00000167   -0.12497160
     atom   11 type  2   force =     0.00000037    0.00000498   -0.08983113
     atom   12 type  2   force =    -0.00000011   -0.00000472   -0.08983121
     atom   13 type  1   force =     0.00000001   -0.00000173   -0.12497168
     atom   14 type  1   force =     0.00000024    0.00000182   -0.12497170
     atom   15 type  2   force =     0.00000034    0.00000476   -0.08983126
     atom   16 type  2   force =    -0.00000024   -0.00000487   -0.08983130
     atom   17 type  1   force =    -0.00000014   -0.00000178   -0.12497156
     atom   18 type  1   force =     0.00000016    0.00000183   -0.12497180
     atom   19 type  2   force =     0.00000024    0.00000509   -0.08983126
     atom   20 type  2   force =    -0.00000012   -0.00000493   -0.08983124
     atom   21 type  1   force =     0.00000038   -0.00000182   -0.12497169
     atom   22 type  1   force =    -0.00000034    0.00000194   -0.12497163
     atom   23 type  2   force =     0.00000013    0.00000517   -0.08983122
     atom   24 type  2   force =    -0.00000031   -0.00000495   -0.08983121
     The ionic contribution  to forces
     atom    1 type  1   force =     0.00000000    0.00000001   -0.79927989
     atom    2 type  1   force =     0.00000001    0.00000001   -0.79927988
     atom    3 type  2   force =     0.00000000    0.00000001    0.79927989
     atom    4 type  2   force =     0.00000000    0.00000000    0.79927988
     atom    5 type  1   force =     0.00000000    0.00000001   -0.79927989
     atom    6 type  1   force =     0.00000000   -0.00000001   -0.79927989
     atom    7 type  2   force =     0.00000000    0.00000000    0.79927989
     atom    8 type  2   force =     0.00000000   -0.00000000    0.79927989
     atom    9 type  1   force =     0.00000001   -0.00000001   -0.79927988
     atom   10 type  1   force =    -0.00000001   -0.00000001   -0.79927988
     atom   11 type  2   force =     0.00000001   -0.00000000    0.79927988
     atom   12 type  2   force =    -0.00000001   -0.00000000    0.79927988
     atom   13 type  1   force =     0.00000000    0.00000000   -0.79927988
     atom   14 type  1   force =    -0.00000001    0.00000001   -0.79927988
     atom   15 type  2   force =     0.00000000    0.00000000    0.79927988
     atom   16 type  2   force =    -0.00000001    0.00000000    0.79927988
     atom   17 type  1   force =    -0.00000000    0.00000001   -0.79927989
     atom   18 type  1   force =     0.00000000   -0.00000001   -0.79927989
     atom   19 type  2   force =    -0.00000000    0.00000000    0.79927989
     atom   20 type  2   force =     0.00000000   -0.00000001    0.79927989
     atom   21 type  1   force =     0.00000001   -0.00000001   -0.79927988
     atom   22 type  1   force =    -0.00000001   -0.00000001   -0.79927988
     atom   23 type  2   force =     0.00000001   -0.00000000    0.79927988
     atom   24 type  2   force =    -0.00000001   -0.00000001    0.79927988
     The local contribution  to forces
     atom    1 type  1   force =     0.00000025    0.00000220    0.89638012
     atom    2 type  1   force =     0.00000094   -0.00000134    0.89637821
     atom    3 type  2   force =    -0.00000028   -0.00000452   -0.69196442
     atom    4 type  2   force =     0.00000024    0.00000515   -0.69196442
     atom    5 type  1   force =    -0.00000111    0.00000187    0.89637866
     atom    6 type  1   force =     0.00000056   -0.00000205    0.89637990
     atom    7 type  2   force =    -0.00000035   -0.00000519   -0.69196432
     atom    8 type  2   force =     0.00000023    0.00000478   -0.69196427
     atom    9 type  1   force =     0.00000138   -0.00000003    0.89637819
     atom   10 type  1   force =    -0.00000088   -0.00000039    0.89637822
     atom   11 type  2   force =     0.00000011   -0.00000535   -0.69196468
     atom   12 type  2   force =     0.00000012    0.00000473   -0.69196451
     atom   13 type  1   force =    -0.00000013    0.00000093    0.89637893
     atom   14 type  1   force =    -0.00000100   -0.00000172    0.89637889
     atom   15 type  2   force =    -0.00000001   -0.00000483   -0.69196470
     atom   16 type  2   force =     0.00000007    0.00000491   -0.69196439
     atom   17 type  1   force =     0.00000104    0.00000145    0.89637845
     atom   18 type  1   force =    -0.00000056   -0.00000137    0.89637900
     atom   19 type  2   force =    -0.00000006   -0.00000517   -0.69196429
     atom   20 type  2   force =    -0.00000013    0.00000501   -0.69196457
     atom   21 type  1   force =    -0.00000138    0.00000145    0.89637914
     atom   22 type  1   force =     0.00000091   -0.00000161    0.89637925
     atom   23 type  2   force =    -0.00000055   -0.00000490   -0.69196432
     atom   24 type  2   force =     0.00000040    0.00000465   -0.69196414
     The core correction contribution to forces
     atom    1 type  1   force =    -0.00000001    0.00000020    0.00974401
     atom    2 type  1   force =    -0.00000001   -0.00000021    0.00974406
     atom    3 type  2   force =    -0.00000001   -0.00000005    0.00064429
     atom    4 type  2   force =     0.00000001    0.00000005    0.00064429
     atom    5 type  1   force =     0.00000002    0.00000020    0.00974404
     atom    6 type  1   force =    -0.00000001   -0.00000021    0.00974401
     atom    7 type  2   force =    -0.00000001   -0.00000005    0.00064429
     atom    8 type  2   force =     0.00000000    0.00000005    0.00064429
     atom    9 type  1   force =    -0.00000002    0.00000023    0.00974406
     atom   10 type  1   force =     0.00000001   -0.00000024    0.00974407
     atom   11 type  2   force =    -0.00000001   -0.00000005    0.00064429
     atom   12 type  2   force =     0.00000000    0.00000005    0.00064429
     atom   13 type  1   force =     0.00000001    0.00000023    0.00974404
     atom   14 type  1   force =     0.00000001   -0.00000020    0.00974405
     atom   15 type  2   force =    -0.00000001   -0.00000005    0.00064429
     atom   16 type  2   force =     0.00000001    0.00000005    0.00064429
     atom   17 type  1   force =    -0.00000002    0.00000021    0.00974405
     atom   18 type  1   force =     0.00000001   -0.00000023    0.00974405
     atom   19 type  2   force =    -0.00000001   -0.00000005    0.00064429
     atom   20 type  2   force =     0.00000000    0.00000005    0.00064429
     atom   21 type  1   force =     0.00000002    0.00000022    0.00974403
     atom   22 type  1   force =    -0.00000001   -0.00000022    0.00974402
     atom   23 type  2   force =    -0.00000001   -0.00000005    0.00064429
     atom   24 type  2   force =     0.00000001    0.00000005    0.00064429
     The Hubbard contrib.    to forces
     atom    1 type  1   force =     0.00000000    0.00000000    0.00000000
     atom    2 type  1   force =     0.00000000    0.00000000    0.00000000
     atom    3 type  2   force =     0.00000000    0.00000000    0.00000000
     atom    4 type  2   force =     0.00000000    0.00000000    0.00000000
     atom    5 type  1   force =     0.00000000    0.00000000    0.00000000
     atom    6 type  1   force =     0.00000000    0.00000000    0.00000000
     atom    7 type  2   force =     0.00000000    0.00000000    0.00000000
     atom    8 type  2   force =     0.00000000    0.00000000    0.00000000
     atom    9 type  1   force =     0.00000000    0.00000000    0.00000000
     atom   10 type  1   force =     0.00000000    0.00000000    0.00000000
     atom   11 type  2   force =     0.00000000    0.00000000    0.00000000
     atom   12 type  2   force =     0.00000000    0.00000000    0.00000000
     atom   13 type  1   force =     0.00000000    0.00000000    0.00000000
     atom   14 type  1   force =     0.00000000    0.00000000    0.00000000
     atom   15 type  2   force =     0.00000000    0.00000000    0.00000000
     atom   16 type  2   force =     0.00000000    0.00000000    0.00000000
     atom   17 type  1   force =     0.00000000    0.00000000    0.00000000
     atom   18 type  1   force =     0.00000000    0.00000000    0.00000000
     atom   19 type  2   force =     0.00000000    0.00000000    0.00000000
     atom   20 type  2   force =     0.00000000    0.00000000    0.00000000
     atom   21 type  1   force =     0.00000000    0.00000000    0.00000000
     atom   22 type  1   force =     0.00000000    0.00000000    0.00000000
     atom   23 type  2   force =     0.00000000    0.00000000    0.00000000
     atom   24 type  2   force =     0.00000000    0.00000000    0.00000000
     The SCF correction term to forces
     atom    1 type  1   force =    -0.00000040   -0.00000142   -0.00000013
     atom    2 type  1   force =    -0.00000138    0.00000008    0.00000263
     atom    3 type  2   force =     0.00000014   -0.00000057    0.00000012
     atom    4 type  2   force =    -0.00000001   -0.00000025   -0.00000002
     atom    5 type  1   force =     0.00000162   -0.00000070    0.00000187
     atom    6 type  1   force =    -0.00000078    0.00000121    0.00000007
     atom    7 type  2   force =     0.00000021    0.00000013   -0.00000008
     atom    8 type  2   force =    -0.00000021    0.00000015    0.00000012
     atom    9 type  1   force =    -0.00000203    0.00000197    0.00000258
     atom   10 type  1   force =     0.00000112   -0.00000147    0.00000246
     atom   11 type  2   force =    -0.00000048    0.00000038    0.00000024
     atom   12 type  2   force =     0.00000003    0.00000003    0.00000022
     atom   13 type  1   force =     0.00000019    0.00000056    0.00000144
     atom   14 type  1   force =     0.00000144    0.00000049    0.00000157
     atom   15 type  2   force =    -0.00000024    0.00000003    0.00000043
     atom   16 type  2   force =     0.00000009   -0.00000002    0.00000016
     atom   17 type  1   force =    -0.00000158   -0.00000022    0.00000208
     atom   18 type  1   force =     0.00000064    0.00000019    0.00000144
     atom   19 type  2   force =    -0.00000015    0.00000010    0.00000002
     atom   20 type  2   force =     0.00000024   -0.00000008    0.00000029
     atom   21 type  1   force =     0.00000192   -0.00000012    0.00000122
     atom   22 type  1   force =    -0.00000112    0.00000043    0.00000092
     atom   23 type  2   force =     0.00000051   -0.00000019    0.00000005
     atom   24 type  2   force =    -0.00000017    0.00000035   -0.00000013

     Total force =     0.088808     Total SCF correction =     0.000008

     General routines

     Parallel routines

   This run was terminated on:  16:55:52   8Sep2025

   JOB DONE.
Note: The following floating-point exceptions are signalling: IEEE_UNDERFLOW_FLAG IEEE_DENORMAL
Note: The following floating-point exceptions are signalling: IEEE_UNDERFLOW_FLAG IEEE_DENORMAL
Note: The following floating-point exceptions are signalling: IEEE_UNDERFLOW_FLAG IEEE_DENORMAL
Note: The following floating-point exceptions are signalling: IEEE_UNDERFLOW_FLAG IEEE_DENORMAL
Note: The following floating-point exceptions are signalling: IEEE_UNDERFLOW_FLAG IEEE_DENORMAL
Note: The following floating-point exceptions are signalling: IEEE_UNDERFLOW_FLAG IEEE_DENORMAL
Note: The following floating-point exceptions are signalling: IEEE_UNDERFLOW_FLAG IEEE_DENORMAL
Note: The following floating-point exceptions are signalling: IEEE_UNDERFLOW_FLAG IEEE_DENORMAL
Note: The following floating-point exceptions are signalling: IEEE_UNDERFLOW_FLAG IEEE_DENORMAL
Note: The following floating-point exceptions are signalling: IEEE_UNDERFLOW_FLAG IEEE_DENORMAL
Note: The following floating-point exceptions are signalling: IEEE_UNDERFLOW_FLAG IEEE_DENORMAL
Note: The following floating-point exceptions are signalling: IEEE_UNDERFLOW_FLAG IEEE_DENORMAL
Note: The following floating-point exceptions are signalling: IEEE_UNDERFLOW_FLAG IEEE_DENORMAL
Note: The following floating-point exceptions are signalling: IEEE_UNDERFLOW_FLAG IEEE_DENORMAL
Note: The following floating-point exceptions are signalling: IEEE_UNDERFLOW_FLAG IEEE_DENORMAL
Note: The following floating-point exceptions are signalling: IEEE_UNDERFLOW_FLAG IEEE_DENORMAL
Note: The following floating-point exceptions are signalling: IEEE_UNDERFLOW_FLAG IEEE_DENORMAL
Note: The following floating-point exceptions are signalling: IEEE_UNDERFLOW_FLAG IEEE_DENORMAL
Note: The following floating-point exceptions are signalling: IEEE_UNDERFLOW_FLAG IEEE_DENORMAL
Note: The following floating-point exceptions are signalling: IEEE_UNDERFLOW_FLAG IEEE_DENORMAL
Note: The following floating-point exceptions are signalling: IEEE_UNDERFLOW_FLAG IEEE_DENORMAL
Note: The following floating-point exceptions are signalling: IEEE_UNDERFLOW_FLAG IEEE_DENORMAL
Note: The following floating-point exceptions are signalling: IEEE_UNDERFLOW_FLAG IEEE_DENORMAL
Note: The following floating-point exceptions are signalling: IEEE_UNDERFLOW_FLAG IEEE_DENORMAL
Note: The following floating-point exceptions are signalling: IEEE_UNDERFLOW_FLAG IEEE_DENORMAL
Note: The following floating-point exceptions are signalling: IEEE_UNDERFLOW_FLAG IEEE_DENORMAL
Note: The following floating-point exceptions are signalling: IEEE_UNDERFLOW_FLAG IEEE_DENORMAL
Note: The following floating-point exceptions are signalling: IEEE_UNDERFLOW_FLAG IEEE_DENORMAL
Note: The following floating-point exceptions are signalling: IEEE_UNDERFLOW_FLAG IEEE_DENORMAL
Note: The following floating-point exceptions are signalling: IEEE_UNDERFLOW_FLAG IEEE_DENORMAL
Note: The following floating-point exceptions are signalling: IEEE_UNDERFLOW_FLAG IEEE_DENORMAL
Note: The following floating-point exceptions are signalling: IEEE_UNDERFLOW_FLAG IEEE_DENORMAL