     Program PWSCF v.7.0 starts on  8Sep2025 at 17:27: 0

     K-points division:     npool     =       8
     R & G space division:  proc/nbgrp/npool/nimage =       4

     Reading input from /home/jvc/QEspresso7.2/ZnO_database/scripts/cell231.in/ZnO-3.27-1.61-231.in
Warning: card &CELL ignored
Warning: card / ignored
Warning: card &FCP ignored
Warning: card / ignored
Warning: card &RISM ignored
Warning: card / ignored

     Current dimensions of program PWSCF are:
     Max number of different atomic species (ntypx) = 10
     Max number of k-points (npk) =  40000
     Max angular momentum in pseudopotentials (lmaxx) =  4
     file Zn.upf: wavefunction(s)  3D renormalized
     Found identity + (  0.0000  0.3333  0.0000) symmetry
     This is a supercell, fractional translations are disabled

     Using Slab Decomposition

     bravais-lattice index     =            0
     lattice parameter (alat)  =      12.3577  a.u.
     unit-cell volume          =    1978.8170 (a.u.)^3
     number of atoms/cell      =           24
     number of atomic types    =            2
     number of electrons       =       216.00
     number of Kohn-Sham states=          108
     kinetic-energy cutoff     =      50.0000  Ry
     charge density cutoff     =     400.0000  Ry
     scf convergence threshold =      1.0E-08
     mixing beta               =       0.3000
     number of iterations used =            8  plain     mixing
     Exchange-correlation= PBE
                           (   1   4   3   4   0   0   0)

     celldm(1)=  12.357708  celldm(2)=   0.000000  celldm(3)=   0.000000
     celldm(4)=   0.000000  celldm(5)=   0.000000  celldm(6)=   0.000000

     crystal axes: (cart. coord. in units of alat)
               a(1) = (   1.000000   0.000000   0.000000 )
               a(2) = (  -0.750000   1.299038   0.000000 )
               a(3) = (   0.000000   0.000000   0.807179 )

     reciprocal axes: (cart. coord. in units 2 pi/alat)
               b(1) = (  1.000000  0.577350 -0.000000 )
               b(2) = (  0.000000  0.769800  0.000000 )
               b(3) = (  0.000000 -0.000000  1.238882 )

     PseudoPot. # 1 for Zn read from file:
     /home/jvc/QEspresso7.2/ZnO_database/pseudos/Zn.upf
     MD5 check sum: 7f56cabf9682ed8c977c2f7d0c5985c5
     Pseudo is Ultrasoft + core correction, Zval = 12.0
     Generated using &quot;atomic&quot; code by A. Dal Corso  v.6.2.2
     Using radial grid of 1201 points,  6 beta functions with:
                l(1) =   0
                l(2) =   0
                l(3) =   1
                l(4) =   1
                l(5) =   2
                l(6) =   2
     Q(r) pseudized with 0 coefficients

     PseudoPot. # 2 for O  read from file:
     /home/jvc/QEspresso7.2/ZnO_database/pseudos/O.upf
     MD5 check sum: 91400c9766925bcf19f520983a725ff0
     Pseudo is Ultrasoft + core correction, Zval =  6.0
     Generated using &quot;atomic&quot; code by A. Dal Corso  v.6.3MaX
     Using radial grid of 1095 points,  4 beta functions with:
                l(1) =   0
                l(2) =   0
                l(3) =   1
                l(4) =   1
     Q(r) pseudized with 0 coefficients

     atomic species   valence    mass     pseudopotential
        Zn            12.00    65.38000     Zn( 1.00)
        O              6.00    15.99900     O ( 1.00)

     No symmetry found

                                    s                        frac. trans.

      isym =  1     identity

 cryst.   s( 1) = (     1          0          0      )
                  (     0          1          0      )
                  (     0          0          1      )

 cart.    s( 1) = (  1.0000000  0.0000000  0.0000000 )
                  (  0.0000000  1.0000000  0.0000000 )
                  (  0.0000000  0.0000000  1.0000000 )

   Cartesian axes

     site n.     atom                  positions (alat units)
         1           Zn  tau(   1) = (   0.2500000   0.1443376   0.4041010  )
         2           Zn  tau(   2) = (  -0.0000000   0.2886751   0.0005114  )
         3           O   tau(   3) = (   0.2500000   0.1443376   0.7100565  )
         4           O   tau(   4) = (  -0.0000000   0.2886751   0.3064669  )
         5           Zn  tau(   5) = (   0.0000000   0.5773503   0.4041010  )
         6           Zn  tau(   6) = (  -0.2500000   0.7216878   0.0005114  )
         7           O   tau(   7) = (   0.0000000   0.5773503   0.7100565  )
         8           O   tau(   8) = (  -0.2500000   0.7216878   0.3064669  )
         9           Zn  tau(   9) = (  -0.2500000   1.0103630   0.4041010  )
        10           Zn  tau(  10) = (  -0.5000000   1.1547005   0.0005114  )
        11           O   tau(  11) = (  -0.2500000   1.0103630   0.7100565  )
        12           O   tau(  12) = (  -0.5000000   1.1547005   0.3064669  )
        13           Zn  tau(  13) = (   0.7500000   0.1443376   0.4041010  )
        14           Zn  tau(  14) = (   0.5000000   0.2886751   0.0005114  )
        15           O   tau(  15) = (   0.7500000   0.1443376   0.7100565  )
        16           O   tau(  16) = (   0.5000000   0.2886751   0.3064669  )
        17           Zn  tau(  17) = (   0.5000000   0.5773503   0.4041010  )
        18           Zn  tau(  18) = (   0.2500000   0.7216878   0.0005114  )
        19           O   tau(  19) = (   0.5000000   0.5773503   0.7100565  )
        20           O   tau(  20) = (   0.2500000   0.7216878   0.3064669  )
        21           Zn  tau(  21) = (   0.2500000   1.0103630   0.4041010  )
        22           Zn  tau(  22) = (   0.0000000   1.1547005   0.0005114  )
        23           O   tau(  23) = (   0.2500000   1.0103630   0.7100565  )
        24           O   tau(  24) = (   0.0000000   1.1547005   0.3064669  )

   Crystallographic axes

     site n.     atom                  positions (cryst. coord.)
         1           Zn  tau(   1) = (  0.3333333  0.1111111  0.5006336  )
         2           Zn  tau(   2) = (  0.1666667  0.2222222  0.0006336  )
         3           O   tau(   3) = (  0.3333333  0.1111111  0.8796764  )
         4           O   tau(   4) = (  0.1666667  0.2222222  0.3796764  )
         5           Zn  tau(   5) = (  0.3333333  0.4444444  0.5006336  )
         6           Zn  tau(   6) = (  0.1666667  0.5555556  0.0006336  )
         7           O   tau(   7) = (  0.3333333  0.4444444  0.8796764  )
         8           O   tau(   8) = (  0.1666667  0.5555556  0.3796764  )
         9           Zn  tau(   9) = (  0.3333333  0.7777778  0.5006336  )
        10           Zn  tau(  10) = (  0.1666667  0.8888889  0.0006336  )
        11           O   tau(  11) = (  0.3333333  0.7777778  0.8796764  )
        12           O   tau(  12) = (  0.1666667  0.8888889  0.3796764  )
        13           Zn  tau(  13) = (  0.8333333  0.1111111  0.5006336  )
        14           Zn  tau(  14) = (  0.6666667  0.2222222  0.0006336  )
        15           O   tau(  15) = (  0.8333333  0.1111111  0.8796764  )
        16           O   tau(  16) = (  0.6666667  0.2222222  0.3796764  )
        17           Zn  tau(  17) = (  0.8333333  0.4444444  0.5006336  )
        18           Zn  tau(  18) = (  0.6666667  0.5555556  0.0006336  )
        19           O   tau(  19) = (  0.8333333  0.4444444  0.8796764  )
        20           O   tau(  20) = (  0.6666667  0.5555556  0.3796764  )
        21           Zn  tau(  21) = (  0.8333333  0.7777778  0.5006336  )
        22           Zn  tau(  22) = (  0.6666667  0.8888889  0.0006336  )
        23           O   tau(  23) = (  0.8333333  0.7777778  0.8796764  )
        24           O   tau(  24) = (  0.6666667  0.8888889  0.3796764  )

     number of k points=   112
                       cart. coord. in units 2pi/alat
        k(    1) = (   0.0000000   0.0000000   0.0000000), wk =   0.0092593
        k(    2) = (   0.0000000   0.0000000   0.2064804), wk =   0.0185185
        k(    3) = (   0.0000000   0.0000000   0.4129608), wk =   0.0185185
        k(    4) = (   0.0000000   0.0000000  -0.6194412), wk =   0.0092593
        k(    5) = (   0.0000000   0.1283001   0.0000000), wk =   0.0185185
        k(    6) = (   0.0000000   0.1283001   0.2064804), wk =   0.0185185
        k(    7) = (   0.0000000   0.1283001   0.4129608), wk =   0.0185185
        k(    8) = (   0.0000000   0.1283001  -0.6194412), wk =   0.0185185
        k(    9) = (   0.0000000   0.2566001   0.0000000), wk =   0.0185185
        k(   10) = (   0.0000000   0.2566001   0.2064804), wk =   0.0185185
        k(   11) = (   0.0000000   0.2566001   0.4129608), wk =   0.0185185
        k(   12) = (   0.0000000   0.2566001  -0.6194412), wk =   0.0185185
        k(   13) = (   0.0000000  -0.3849002   0.0000000), wk =   0.0092593
        k(   14) = (   0.0000000  -0.3849002   0.2064804), wk =   0.0185185
        k(   15) = (   0.0000000  -0.3849002   0.4129608), wk =   0.0185185
        k(   16) = (   0.0000000  -0.3849002  -0.6194412), wk =   0.0092593
        k(   17) = (   0.1666667   0.0962250   0.0000000), wk =   0.0185185
        k(   18) = (   0.1666667   0.0962250   0.2064804), wk =   0.0185185
        k(   19) = (   0.1666667   0.0962250   0.4129608), wk =   0.0185185
        k(   20) = (   0.1666667   0.0962250  -0.6194412), wk =   0.0185185
        k(   21) = (   0.1666667   0.2245251   0.0000000), wk =   0.0185185
        k(   22) = (   0.1666667   0.2245251   0.2064804), wk =   0.0185185
        k(   23) = (   0.1666667   0.2245251   0.4129608), wk =   0.0185185
        k(   24) = (   0.1666667   0.2245251  -0.6194412), wk =   0.0185185
        k(   25) = (   0.1666667   0.3528252   0.0000000), wk =   0.0185185
        k(   26) = (   0.1666667   0.3528252   0.2064804), wk =   0.0185185
        k(   27) = (   0.1666667   0.3528252   0.4129608), wk =   0.0185185
        k(   28) = (   0.1666667   0.3528252  -0.6194412), wk =   0.0185185
        k(   29) = (   0.1666667  -0.2886751   0.0000000), wk =   0.0185185
        k(   30) = (   0.1666667  -0.2886751   0.2064804), wk =   0.0185185
        k(   31) = (   0.1666667  -0.2886751   0.4129608), wk =   0.0185185
        k(   32) = (   0.1666667  -0.2886751  -0.6194412), wk =   0.0185185
        k(   33) = (   0.1666667  -0.1603751   0.0000000), wk =   0.0185185
        k(   34) = (   0.1666667  -0.1603751   0.2064804), wk =   0.0185185
        k(   35) = (   0.1666667  -0.1603751   0.4129608), wk =   0.0185185
        k(   36) = (   0.1666667  -0.1603751  -0.6194412), wk =   0.0185185
        k(   37) = (   0.1666667  -0.0320750   0.0000000), wk =   0.0185185
        k(   38) = (   0.1666667  -0.0320750   0.2064804), wk =   0.0185185
        k(   39) = (   0.1666667  -0.0320750   0.4129608), wk =   0.0185185
        k(   40) = (   0.1666667  -0.0320750  -0.6194412), wk =   0.0185185
        k(   41) = (   0.3333333   0.1924501   0.0000000), wk =   0.0185185
        k(   42) = (   0.3333333   0.1924501   0.2064804), wk =   0.0185185
        k(   43) = (   0.3333333   0.1924501   0.4129608), wk =   0.0185185
        k(   44) = (   0.3333333   0.1924501  -0.6194412), wk =   0.0185185
        k(   45) = (   0.3333333   0.3207501   0.0000000), wk =   0.0185185
[...]

!    total energy              =   -2169.82215793 Ry
     estimated scf accuracy    <          4.0E-09 Ry

     The total energy is the sum of the following terms:
     one-electron contribution =    -927.14592480 Ry
     hartree contribution      =     709.71720494 Ry
     xc contribution           =    -657.27177891 Ry
     ewald contribution        =   -1295.12165916 Ry

     convergence has been achieved in  36 iterations

     Forces acting on atoms (cartesian axes, Ry/au):

     atom    1 type  1   force =     0.00000015    0.00000009    0.00004568
     atom    2 type  1   force =    -0.00000025    0.00000109    0.00004609
     atom    3 type  2   force =     0.00000000    0.00000018   -0.00004564
     atom    4 type  2   force =    -0.00000005    0.00000014   -0.00004561
     atom    5 type  1   force =    -0.00000084   -0.00000095    0.00004549
     atom    6 type  1   force =    -0.00000015   -0.00000104    0.00004558
     atom    7 type  2   force =    -0.00000006   -0.00000014   -0.00004560
     atom    8 type  2   force =    -0.00000012    0.00000010   -0.00004576
     atom    9 type  1   force =     0.00000050   -0.00000024    0.00004563
     atom   10 type  1   force =    -0.00000067    0.00000027    0.00004555
     atom   11 type  2   force =     0.00000007    0.00000001   -0.00004567
     atom   12 type  2   force =    -0.00000000   -0.00000006   -0.00004578
     atom   13 type  1   force =     0.00000009    0.00000004    0.00004514
     atom   14 type  1   force =     0.00000051    0.00000116    0.00004592
     atom   15 type  2   force =    -0.00000000    0.00000022   -0.00004572
     atom   16 type  2   force =     0.00000006   -0.00000000   -0.00004560
     atom   17 type  1   force =     0.00000039   -0.00000084    0.00004601
     atom   18 type  1   force =     0.00000055   -0.00000076    0.00004544
     atom   19 type  2   force =    -0.00000001   -0.00000000   -0.00004562
     atom   20 type  2   force =    -0.00000008   -0.00000003   -0.00004578
     atom   21 type  1   force =    -0.00000005    0.00000015    0.00004545
     atom   22 type  1   force =    -0.00000004    0.00000060    0.00004623
     atom   23 type  2   force =     0.00000008   -0.00000002   -0.00004571
     atom   24 type  2   force =    -0.00000010    0.00000005   -0.00004573
     The non-local contrib.  to forces
     atom    1 type  1   force =    -0.00000004   -0.00000252   -0.00475651
     atom    2 type  1   force =    -0.00000007    0.00000268   -0.00475660
     atom    3 type  2   force =     0.00000061    0.00000547    0.00546066
     atom    4 type  2   force =    -0.00000019   -0.00000547    0.00546062
     atom    5 type  1   force =    -0.00000006   -0.00000305   -0.00475692
     atom    6 type  1   force =    -0.00000013    0.00000212   -0.00475680
     atom    7 type  2   force =     0.00000017    0.00000558    0.00546091
     atom    8 type  2   force =    -0.00000010   -0.00000540    0.00546065
     atom    9 type  1   force =     0.00000017   -0.00000251   -0.00475679
     atom   10 type  1   force =    -0.00000056    0.00000249   -0.00475665
     atom   11 type  2   force =     0.00000026    0.00000513    0.00546090
     atom   12 type  2   force =     0.00000020   -0.00000572    0.00546053
     atom   13 type  1   force =     0.00000026   -0.00000227   -0.00475687
     atom   14 type  1   force =     0.00000015    0.00000258   -0.00475663
     atom   15 type  2   force =     0.00000012    0.00000575    0.00546058
     atom   16 type  2   force =    -0.00000007   -0.00000571    0.00546085
     atom   17 type  1   force =     0.00000033   -0.00000314   -0.00475666
     atom   18 type  1   force =    -0.00000003    0.00000218   -0.00475660
     atom   19 type  2   force =     0.00000023    0.00000568    0.00546096
     atom   20 type  2   force =    -0.00000013   -0.00000562    0.00546054
     atom   21 type  1   force =     0.00000002   -0.00000241   -0.00475672
     atom   22 type  1   force =     0.00000002    0.00000252   -0.00475665
     atom   23 type  2   force =     0.00000009    0.00000503    0.00546070
     atom   24 type  2   force =    -0.00000012   -0.00000566    0.00546083
     The ionic contribution  to forces
     atom    1 type  1   force =     0.00000000    0.00000001    0.06271682
     atom    2 type  1   force =     0.00000001    0.00000001    0.06271682
     atom    3 type  2   force =     0.00000000    0.00000001   -0.06271682
     atom    4 type  2   force =     0.00000000    0.00000000   -0.06271682
     atom    5 type  1   force =     0.00000000    0.00000001    0.06271682
     atom    6 type  1   force =     0.00000000   -0.00000001    0.06271682
     atom    7 type  2   force =     0.00000000    0.00000000   -0.06271682
     atom    8 type  2   force =     0.00000000   -0.00000000   -0.06271682
     atom    9 type  1   force =     0.00000001   -0.00000001    0.06271682
     atom   10 type  1   force =    -0.00000001   -0.00000001    0.06271682
     atom   11 type  2   force =     0.00000000   -0.00000000   -0.06271682
     atom   12 type  2   force =    -0.00000001   -0.00000000   -0.06271682
     atom   13 type  1   force =     0.00000000    0.00000000    0.06271682
     atom   14 type  1   force =    -0.00000001    0.00000001    0.06271682
     atom   15 type  2   force =     0.00000000    0.00000000   -0.06271682
     atom   16 type  2   force =    -0.00000001    0.00000000   -0.06271682
     atom   17 type  1   force =    -0.00000000    0.00000001    0.06271682
     atom   18 type  1   force =     0.00000000   -0.00000001    0.06271682
     atom   19 type  2   force =    -0.00000000    0.00000000   -0.06271682
     atom   20 type  2   force =     0.00000000   -0.00000001   -0.06271682
     atom   21 type  1   force =     0.00000001   -0.00000001    0.06271682
     atom   22 type  1   force =    -0.00000001   -0.00000001    0.06271682
     atom   23 type  2   force =     0.00000001   -0.00000000   -0.06271682
     atom   24 type  2   force =    -0.00000001   -0.00000001   -0.06271682
     The local contribution  to forces
     atom    1 type  1   force =     0.00000003    0.00000156   -0.05838982
     atom    2 type  1   force =     0.00000031   -0.00000291   -0.05839039
     atom    3 type  2   force =    -0.00000060   -0.00000605    0.05726964
     atom    4 type  2   force =     0.00000096    0.00000503    0.05726935
     atom    5 type  1   force =     0.00000084    0.00000328   -0.05838945
     atom    6 type  1   force =     0.00000051   -0.00000057   -0.05838984
     atom    7 type  2   force =     0.00000024   -0.00000530    0.05726888
     atom    8 type  2   force =    -0.00000040    0.00000628    0.05726931
     atom    9 type  1   force =    -0.00000055    0.00000222   -0.05838946
     atom   10 type  1   force =     0.00000091   -0.00000208   -0.05839006
     atom   11 type  2   force =    -0.00000036   -0.00000418    0.05726917
     atom   12 type  2   force =    -0.00000016    0.00000533    0.05726942
     atom   13 type  1   force =    -0.00000009    0.00000161   -0.05838918
     atom   14 type  1   force =    -0.00000072   -0.00000309   -0.05839010
     atom   15 type  2   force =     0.00000047   -0.00000642    0.05726928
     atom   16 type  2   force =    -0.00000087    0.00000494    0.05726904
     atom   17 type  1   force =    -0.00000067    0.00000334   -0.05839030
     atom   18 type  1   force =    -0.00000068   -0.00000098   -0.05838977
     atom   19 type  2   force =    -0.00000066   -0.00000521    0.05726939
     atom   20 type  2   force =    -0.00000064    0.00000613    0.05726960
     atom   21 type  1   force =     0.00000035    0.00000168   -0.05838966
     atom   22 type  1   force =    -0.00000028   -0.00000239   -0.05839052
     atom   23 type  2   force =    -0.00000024   -0.00000466    0.05726943
     atom   24 type  2   force =     0.00000006    0.00000500    0.05726886
     The core correction contribution to forces
     atom    1 type  1   force =    -0.00000000    0.00000036    0.00047432
     atom    2 type  1   force =    -0.00000002   -0.00000034    0.00047434
     atom    3 type  2   force =    -0.00000001   -0.00000005   -0.00006166
     atom    4 type  2   force =     0.00000001    0.00000005   -0.00006166
     atom    5 type  1   force =    -0.00000001    0.00000034    0.00047432
     atom    6 type  1   force =    -0.00000002   -0.00000036    0.00047435
     atom    7 type  2   force =    -0.00000000   -0.00000005   -0.00006166
     atom    8 type  2   force =    -0.00000000    0.00000005   -0.00006166
     atom    9 type  1   force =     0.00000000    0.00000034    0.00047431
     atom   10 type  1   force =     0.00000001   -0.00000034    0.00047434
     atom   11 type  2   force =    -0.00000001   -0.00000004   -0.00006166
     atom   12 type  2   force =    -0.00000000    0.00000005   -0.00006165
     atom   13 type  1   force =    -0.00000000    0.00000035    0.00047432
     atom   14 type  1   force =    -0.00000000   -0.00000031    0.00047434
     atom   15 type  2   force =    -0.00000000   -0.00000006   -0.00006166
     atom   16 type  2   force =    -0.00000000    0.00000006   -0.00006166
     atom   17 type  1   force =     0.00000002    0.00000035    0.00047433
     atom   18 type  1   force =     0.00000001   -0.00000034    0.00047432
     atom   19 type  2   force =    -0.00000000   -0.00000005   -0.00006166
     atom   20 type  2   force =     0.00000000    0.00000005   -0.00006165
     atom   21 type  1   force =    -0.00000000    0.00000035    0.00047433
     atom   22 type  1   force =    -0.00000000   -0.00000033    0.00047436
     atom   23 type  2   force =    -0.00000000   -0.00000004   -0.00006166
     atom   24 type  2   force =     0.00000000    0.00000005   -0.00006166
     The Hubbard contrib.    to forces
     atom    1 type  1   force =     0.00000000    0.00000000    0.00000000
     atom    2 type  1   force =     0.00000000    0.00000000    0.00000000
     atom    3 type  2   force =     0.00000000    0.00000000    0.00000000
     atom    4 type  2   force =     0.00000000    0.00000000    0.00000000
     atom    5 type  1   force =     0.00000000    0.00000000    0.00000000
     atom    6 type  1   force =     0.00000000    0.00000000    0.00000000
     atom    7 type  2   force =     0.00000000    0.00000000    0.00000000
     atom    8 type  2   force =     0.00000000    0.00000000    0.00000000
     atom    9 type  1   force =     0.00000000    0.00000000    0.00000000
     atom   10 type  1   force =     0.00000000    0.00000000    0.00000000
     atom   11 type  2   force =     0.00000000    0.00000000    0.00000000
     atom   12 type  2   force =     0.00000000    0.00000000    0.00000000
     atom   13 type  1   force =     0.00000000    0.00000000    0.00000000
     atom   14 type  1   force =     0.00000000    0.00000000    0.00000000
     atom   15 type  2   force =     0.00000000    0.00000000    0.00000000
     atom   16 type  2   force =     0.00000000    0.00000000    0.00000000
     atom   17 type  1   force =     0.00000000    0.00000000    0.00000000
     atom   18 type  1   force =     0.00000000    0.00000000    0.00000000
     atom   19 type  2   force =     0.00000000    0.00000000    0.00000000
     atom   20 type  2   force =     0.00000000    0.00000000    0.00000000
     atom   21 type  1   force =     0.00000000    0.00000000    0.00000000
     atom   22 type  1   force =     0.00000000    0.00000000    0.00000000
     atom   23 type  2   force =     0.00000000    0.00000000    0.00000000
     atom   24 type  2   force =     0.00000000    0.00000000    0.00000000
     The SCF correction term to forces
     atom    1 type  1   force =     0.00000018    0.00000057   -0.00000101
     atom    2 type  1   force =    -0.00000046    0.00000155    0.00000003
     atom    3 type  2   force =     0.00000002    0.00000070    0.00000065
     atom    4 type  2   force =    -0.00000080    0.00000041    0.00000101
     atom    5 type  1   force =    -0.00000159   -0.00000164   -0.00000117
     atom    6 type  1   force =    -0.00000050   -0.00000234   -0.00000084
     atom    7 type  2   force =    -0.00000045   -0.00000049    0.00000120
     atom    8 type  2   force =     0.00000041   -0.00000093    0.00000086
     atom    9 type  1   force =     0.00000089   -0.00000038   -0.00000115
     atom   10 type  1   force =    -0.00000100    0.00000011   -0.00000080
     atom   11 type  2   force =     0.00000018   -0.00000100    0.00000085
     atom   12 type  2   force =    -0.00000002    0.00000017    0.00000085
     atom   13 type  1   force =    -0.00000006    0.00000024   -0.00000185
     atom   14 type  1   force =     0.00000110    0.00000186   -0.00000039
     atom   15 type  2   force =    -0.00000058    0.00000084    0.00000100
     atom   16 type  2   force =     0.00000103    0.00000059    0.00000109
     atom   17 type  1   force =     0.00000075   -0.00000151   -0.00000008
     atom   18 type  1   force =     0.00000127   -0.00000171   -0.00000122
     atom   19 type  2   force =     0.00000045   -0.00000053    0.00000062
     atom   20 type  2   force =     0.00000070   -0.00000070    0.00000067
     atom   21 type  1   force =    -0.00000041    0.00000043   -0.00000121
     atom   22 type  1   force =     0.00000024    0.00000070    0.00000033
     atom   23 type  2   force =     0.00000025   -0.00000045    0.00000074
     atom   24 type  2   force =    -0.00000003    0.00000056    0.00000117

     Total force =     0.000224     Total SCF correction =     0.000008

     General routines

     Parallel routines

   This run was terminated on:  18: 5:56   8Sep2025

   JOB DONE.
Note: The following floating-point exceptions are signalling: IEEE_UNDERFLOW_FLAG IEEE_DENORMAL
Note: The following floating-point exceptions are signalling: IEEE_UNDERFLOW_FLAG IEEE_DENORMAL
Note: The following floating-point exceptions are signalling: IEEE_UNDERFLOW_FLAG IEEE_DENORMAL
Note: The following floating-point exceptions are signalling: IEEE_UNDERFLOW_FLAG IEEE_DENORMAL
Note: The following floating-point exceptions are signalling: IEEE_UNDERFLOW_FLAG IEEE_DENORMAL
Note: The following floating-point exceptions are signalling: IEEE_UNDERFLOW_FLAG IEEE_DENORMAL
Note: The following floating-point exceptions are signalling: IEEE_UNDERFLOW_FLAG IEEE_DENORMAL
Note: The following floating-point exceptions are signalling: IEEE_UNDERFLOW_FLAG IEEE_DENORMAL
Note: The following floating-point exceptions are signalling: IEEE_UNDERFLOW_FLAG IEEE_DENORMAL
Note: The following floating-point exceptions are signalling: IEEE_UNDERFLOW_FLAG IEEE_DENORMAL
Note: The following floating-point exceptions are signalling: IEEE_UNDERFLOW_FLAG IEEE_DENORMAL
Note: The following floating-point exceptions are signalling: IEEE_UNDERFLOW_FLAG IEEE_DENORMAL
Note: The following floating-point exceptions are signalling: IEEE_UNDERFLOW_FLAG IEEE_DENORMAL
Note: The following floating-point exceptions are signalling: IEEE_UNDERFLOW_FLAG IEEE_DENORMAL
Note: The following floating-point exceptions are signalling: IEEE_UNDERFLOW_FLAG IEEE_DENORMAL
Note: The following floating-point exceptions are signalling: IEEE_UNDERFLOW_FLAG IEEE_DENORMAL
Note: The following floating-point exceptions are signalling: IEEE_UNDERFLOW_FLAG IEEE_DENORMAL
Note: The following floating-point exceptions are signalling: IEEE_UNDERFLOW_FLAG IEEE_DENORMAL
Note: The following floating-point exceptions are signalling: IEEE_UNDERFLOW_FLAG IEEE_DENORMAL
Note: The following floating-point exceptions are signalling: IEEE_UNDERFLOW_FLAG IEEE_DENORMAL
Note: The following floating-point exceptions are signalling: IEEE_UNDERFLOW_FLAG IEEE_DENORMAL
Note: The following floating-point exceptions are signalling: IEEE_UNDERFLOW_FLAG IEEE_DENORMAL
Note: The following floating-point exceptions are signalling: IEEE_UNDERFLOW_FLAG IEEE_DENORMAL
Note: The following floating-point exceptions are signalling: IEEE_UNDERFLOW_FLAG IEEE_DENORMAL
Note: The following floating-point exceptions are signalling: IEEE_UNDERFLOW_FLAG IEEE_DENORMAL
Note: The following floating-point exceptions are signalling: IEEE_UNDERFLOW_FLAG IEEE_DENORMAL
Note: The following floating-point exceptions are signalling: IEEE_UNDERFLOW_FLAG IEEE_DENORMAL
Note: The following floating-point exceptions are signalling: IEEE_UNDERFLOW_FLAG IEEE_DENORMAL
Note: The following floating-point exceptions are signalling: IEEE_UNDERFLOW_FLAG IEEE_DENORMAL
Note: The following floating-point exceptions are signalling: IEEE_UNDERFLOW_FLAG IEEE_DENORMAL
Note: The following floating-point exceptions are signalling: IEEE_UNDERFLOW_FLAG IEEE_DENORMAL
Note: The following floating-point exceptions are signalling: IEEE_UNDERFLOW_FLAG IEEE_DENORMAL