     Program PWSCF v.7.0 starts on  7Sep2025 at 23:47:59

     K-points division:     npool     =       8
     R & G space division:  proc/nbgrp/npool/nimage =       4

     Reading input from /home/jvc/QEspresso7.2/ZnO_database/scripts/cell231.in/ZnO-3.07-1.58-231.in
Warning: card &CELL ignored
Warning: card / ignored
Warning: card &FCP ignored
Warning: card / ignored
Warning: card &RISM ignored
Warning: card / ignored

     Current dimensions of program PWSCF are:
     Max number of different atomic species (ntypx) = 10
     Max number of k-points (npk) =  40000
     Max angular momentum in pseudopotentials (lmaxx) =  4
     file Zn.upf: wavefunction(s)  3D renormalized
     Found identity + (  0.0000  0.3333  0.0000) symmetry
     This is a supercell, fractional translations are disabled

     Using Slab Decomposition

     bravais-lattice index     =            0
     lattice parameter (alat)  =      11.6162  a.u.
     unit-cell volume          =    1610.7022 (a.u.)^3
     number of atoms/cell      =           24
     number of atomic types    =            2
     number of electrons       =       216.00
     number of Kohn-Sham states=          108
     kinetic-energy cutoff     =      50.0000  Ry
     charge density cutoff     =     400.0000  Ry
     scf convergence threshold =      1.0E-08
     mixing beta               =       0.3000
     number of iterations used =            8  plain     mixing
     Exchange-correlation= PBE
                           (   1   4   3   4   0   0   0)

     celldm(1)=  11.616245  celldm(2)=   0.000000  celldm(3)=   0.000000
     celldm(4)=   0.000000  celldm(5)=   0.000000  celldm(6)=   0.000000

     crystal axes: (cart. coord. in units of alat)
               a(1) = (   1.000000   0.000000   0.000000 )
               a(2) = (  -0.750000   1.299038   0.000000 )
               a(3) = (   0.000000   0.000000   0.791036 )

     reciprocal axes: (cart. coord. in units 2 pi/alat)
               b(1) = (  1.000000  0.577350 -0.000000 )
               b(2) = (  0.000000  0.769800  0.000000 )
               b(3) = (  0.000000 -0.000000  1.264166 )

     PseudoPot. # 1 for Zn read from file:
     /home/jvc/QEspresso7.2/ZnO_database/pseudos/Zn.upf
     MD5 check sum: 7f56cabf9682ed8c977c2f7d0c5985c5
     Pseudo is Ultrasoft + core correction, Zval = 12.0
     Generated using &quot;atomic&quot; code by A. Dal Corso  v.6.2.2
     Using radial grid of 1201 points,  6 beta functions with:
                l(1) =   0
                l(2) =   0
                l(3) =   1
                l(4) =   1
                l(5) =   2
                l(6) =   2
     Q(r) pseudized with 0 coefficients

     PseudoPot. # 2 for O  read from file:
     /home/jvc/QEspresso7.2/ZnO_database/pseudos/O.upf
     MD5 check sum: 91400c9766925bcf19f520983a725ff0
     Pseudo is Ultrasoft + core correction, Zval =  6.0
     Generated using &quot;atomic&quot; code by A. Dal Corso  v.6.3MaX
     Using radial grid of 1095 points,  4 beta functions with:
                l(1) =   0
                l(2) =   0
                l(3) =   1
                l(4) =   1
     Q(r) pseudized with 0 coefficients

     atomic species   valence    mass     pseudopotential
        Zn            12.00    65.38000     Zn( 1.00)
        O              6.00    15.99900     O ( 1.00)

     No symmetry found

                                    s                        frac. trans.

      isym =  1     identity

 cryst.   s( 1) = (     1          0          0      )
                  (     0          1          0      )
                  (     0          0          1      )

 cart.    s( 1) = (  1.0000000  0.0000000  0.0000000 )
                  (  0.0000000  1.0000000  0.0000000 )
                  (  0.0000000  0.0000000  1.0000000 )

   Cartesian axes

     site n.     atom                  positions (alat units)
         1           Zn  tau(   1) = (   0.2500000   0.1443376   0.3960190  )
         2           Zn  tau(   2) = (  -0.0000000   0.2886751   0.0005012  )
         3           O   tau(   3) = (   0.2500000   0.1443376   0.6958554  )
         4           O   tau(   4) = (  -0.0000000   0.2886751   0.3003376  )
         5           Zn  tau(   5) = (   0.0000000   0.5773503   0.3960190  )
         6           Zn  tau(   6) = (  -0.2500000   0.7216878   0.0005012  )
         7           O   tau(   7) = (   0.0000000   0.5773503   0.6958554  )
         8           O   tau(   8) = (  -0.2500000   0.7216878   0.3003376  )
         9           Zn  tau(   9) = (  -0.2500000   1.0103630   0.3960190  )
        10           Zn  tau(  10) = (  -0.5000000   1.1547005   0.0005012  )
        11           O   tau(  11) = (  -0.2500000   1.0103630   0.6958554  )
        12           O   tau(  12) = (  -0.5000000   1.1547005   0.3003376  )
        13           Zn  tau(  13) = (   0.7500000   0.1443376   0.3960190  )
        14           Zn  tau(  14) = (   0.5000000   0.2886751   0.0005012  )
        15           O   tau(  15) = (   0.7500000   0.1443376   0.6958554  )
        16           O   tau(  16) = (   0.5000000   0.2886751   0.3003376  )
        17           Zn  tau(  17) = (   0.5000000   0.5773503   0.3960190  )
        18           Zn  tau(  18) = (   0.2500000   0.7216878   0.0005012  )
        19           O   tau(  19) = (   0.5000000   0.5773503   0.6958554  )
        20           O   tau(  20) = (   0.2500000   0.7216878   0.3003376  )
        21           Zn  tau(  21) = (   0.2500000   1.0103630   0.3960190  )
        22           Zn  tau(  22) = (  -0.0000000   1.1547005   0.0005012  )
        23           O   tau(  23) = (   0.2500000   1.0103630   0.6958554  )
        24           O   tau(  24) = (  -0.0000000   1.1547005   0.3003376  )

   Crystallographic axes

     site n.     atom                  positions (cryst. coord.)
         1           Zn  tau(   1) = (  0.3333333  0.1111111  0.5006336  )
         2           Zn  tau(   2) = (  0.1666667  0.2222222  0.0006336  )
         3           O   tau(   3) = (  0.3333333  0.1111111  0.8796764  )
         4           O   tau(   4) = (  0.1666667  0.2222222  0.3796764  )
         5           Zn  tau(   5) = (  0.3333333  0.4444444  0.5006336  )
         6           Zn  tau(   6) = (  0.1666667  0.5555556  0.0006336  )
         7           O   tau(   7) = (  0.3333333  0.4444444  0.8796764  )
         8           O   tau(   8) = (  0.1666667  0.5555556  0.3796764  )
         9           Zn  tau(   9) = (  0.3333333  0.7777778  0.5006336  )
        10           Zn  tau(  10) = (  0.1666667  0.8888889  0.0006336  )
        11           O   tau(  11) = (  0.3333333  0.7777778  0.8796764  )
        12           O   tau(  12) = (  0.1666667  0.8888889  0.3796764  )
        13           Zn  tau(  13) = (  0.8333333  0.1111111  0.5006336  )
        14           Zn  tau(  14) = (  0.6666667  0.2222222  0.0006336  )
        15           O   tau(  15) = (  0.8333333  0.1111111  0.8796764  )
        16           O   tau(  16) = (  0.6666667  0.2222222  0.3796764  )
        17           Zn  tau(  17) = (  0.8333333  0.4444444  0.5006336  )
        18           Zn  tau(  18) = (  0.6666667  0.5555556  0.0006336  )
        19           O   tau(  19) = (  0.8333333  0.4444444  0.8796764  )
        20           O   tau(  20) = (  0.6666667  0.5555556  0.3796764  )
        21           Zn  tau(  21) = (  0.8333333  0.7777778  0.5006336  )
        22           Zn  tau(  22) = (  0.6666667  0.8888889  0.0006336  )
        23           O   tau(  23) = (  0.8333333  0.7777778  0.8796764  )
        24           O   tau(  24) = (  0.6666667  0.8888889  0.3796764  )

     number of k points=   112
                       cart. coord. in units 2pi/alat
        k(    1) = (   0.0000000   0.0000000   0.0000000), wk =   0.0092593
        k(    2) = (   0.0000000   0.0000000   0.2106943), wk =   0.0185185
        k(    3) = (   0.0000000   0.0000000   0.4213885), wk =   0.0185185
        k(    4) = (   0.0000000   0.0000000  -0.6320828), wk =   0.0092593
        k(    5) = (   0.0000000   0.1283001   0.0000000), wk =   0.0185185
        k(    6) = (   0.0000000   0.1283001   0.2106943), wk =   0.0185185
        k(    7) = (   0.0000000   0.1283001   0.4213885), wk =   0.0185185
        k(    8) = (   0.0000000   0.1283001  -0.6320828), wk =   0.0185185
        k(    9) = (   0.0000000   0.2566001   0.0000000), wk =   0.0185185
        k(   10) = (   0.0000000   0.2566001   0.2106943), wk =   0.0185185
        k(   11) = (   0.0000000   0.2566001   0.4213885), wk =   0.0185185
        k(   12) = (   0.0000000   0.2566001  -0.6320828), wk =   0.0185185
        k(   13) = (   0.0000000  -0.3849002   0.0000000), wk =   0.0092593
        k(   14) = (   0.0000000  -0.3849002   0.2106943), wk =   0.0185185
        k(   15) = (   0.0000000  -0.3849002   0.4213885), wk =   0.0185185
        k(   16) = (   0.0000000  -0.3849002  -0.6320828), wk =   0.0092593
        k(   17) = (   0.1666667   0.0962250   0.0000000), wk =   0.0185185
        k(   18) = (   0.1666667   0.0962250   0.2106943), wk =   0.0185185
        k(   19) = (   0.1666667   0.0962250   0.4213885), wk =   0.0185185
        k(   20) = (   0.1666667   0.0962250  -0.6320828), wk =   0.0185185
        k(   21) = (   0.1666667   0.2245251   0.0000000), wk =   0.0185185
        k(   22) = (   0.1666667   0.2245251   0.2106943), wk =   0.0185185
        k(   23) = (   0.1666667   0.2245251   0.4213885), wk =   0.0185185
        k(   24) = (   0.1666667   0.2245251  -0.6320828), wk =   0.0185185
        k(   25) = (   0.1666667   0.3528252   0.0000000), wk =   0.0185185
        k(   26) = (   0.1666667   0.3528252   0.2106943), wk =   0.0185185
        k(   27) = (   0.1666667   0.3528252   0.4213885), wk =   0.0185185
        k(   28) = (   0.1666667   0.3528252  -0.6320828), wk =   0.0185185
        k(   29) = (   0.1666667  -0.2886751   0.0000000), wk =   0.0185185
        k(   30) = (   0.1666667  -0.2886751   0.2106943), wk =   0.0185185
        k(   31) = (   0.1666667  -0.2886751   0.4213885), wk =   0.0185185
        k(   32) = (   0.1666667  -0.2886751  -0.6320828), wk =   0.0185185
        k(   33) = (   0.1666667  -0.1603751   0.0000000), wk =   0.0185185
        k(   34) = (   0.1666667  -0.1603751   0.2106943), wk =   0.0185185
        k(   35) = (   0.1666667  -0.1603751   0.4213885), wk =   0.0185185
        k(   36) = (   0.1666667  -0.1603751  -0.6320828), wk =   0.0185185
        k(   37) = (   0.1666667  -0.0320750   0.0000000), wk =   0.0185185
        k(   38) = (   0.1666667  -0.0320750   0.2106943), wk =   0.0185185
        k(   39) = (   0.1666667  -0.0320750   0.4213885), wk =   0.0185185
        k(   40) = (   0.1666667  -0.0320750  -0.6320828), wk =   0.0185185
        k(   41) = (   0.3333333   0.1924501   0.0000000), wk =   0.0185185
        k(   42) = (   0.3333333   0.1924501   0.2106943), wk =   0.0185185
        k(   43) = (   0.3333333   0.1924501   0.4213885), wk =   0.0185185
        k(   44) = (   0.3333333   0.1924501  -0.6320828), wk =   0.0185185
        k(   45) = (   0.3333333   0.3207501   0.0000000), wk =   0.0185185
[...]

!    total energy              =   -2169.32856425 Ry
     estimated scf accuracy    <          4.6E-09 Ry

     The total energy is the sum of the following terms:
     one-electron contribution =    -782.03546052 Ry
     hartree contribution      =     659.59938221 Ry
     xc contribution           =    -660.13546284 Ry
     ewald contribution        =   -1386.75702310 Ry

     convergence has been achieved in  21 iterations

     Forces acting on atoms (cartesian axes, Ry/au):

     atom    1 type  1   force =     0.00000022   -0.00000136   -0.01674597
     atom    2 type  1   force =    -0.00000019   -0.00000088   -0.01674716
     atom    3 type  2   force =     0.00000014    0.00000005    0.01674633
     atom    4 type  2   force =    -0.00000007   -0.00000020    0.01674664
     atom    5 type  1   force =    -0.00000066   -0.00000016   -0.01674534
     atom    6 type  1   force =     0.00000090    0.00000057   -0.01674720
     atom    7 type  2   force =     0.00000035    0.00000015    0.01674637
     atom    8 type  2   force =    -0.00000016    0.00000000    0.01674659
     atom    9 type  1   force =     0.00000040    0.00000145   -0.01674740
     atom   10 type  1   force =     0.00000051    0.00000124   -0.01674683
     atom   11 type  2   force =     0.00000024   -0.00000020    0.01674642
     atom   12 type  2   force =    -0.00000023   -0.00000006    0.01674650
     atom   13 type  1   force =    -0.00000056   -0.00000052   -0.01674575
     atom   14 type  1   force =     0.00000080   -0.00000139   -0.01674762
     atom   15 type  2   force =     0.00000003   -0.00000026    0.01674628
     atom   16 type  2   force =    -0.00000026    0.00000004    0.01674662
     atom   17 type  1   force =     0.00000031   -0.00000049   -0.01674460
     atom   18 type  1   force =    -0.00000028    0.00000063   -0.01674703
     atom   19 type  2   force =     0.00000014   -0.00000011    0.01674647
     atom   20 type  2   force =    -0.00000013    0.00000007    0.01674671
     atom   21 type  1   force =    -0.00000072    0.00000095   -0.01674647
     atom   22 type  1   force =    -0.00000065    0.00000046   -0.01674675
     atom   23 type  2   force =     0.00000008   -0.00000003    0.01674645
     atom   24 type  2   force =    -0.00000022    0.00000003    0.01674675
     The non-local contrib.  to forces
     atom    1 type  1   force =    -0.00000018   -0.00000125   -0.07012908
     atom    2 type  1   force =    -0.00000018    0.00000037   -0.07012939
     atom    3 type  2   force =     0.00000048    0.00000384   -0.04136550
     atom    4 type  2   force =     0.00000004   -0.00000311   -0.04136545
     atom    5 type  1   force =    -0.00000051   -0.00000092   -0.07012927
     atom    6 type  1   force =     0.00000045    0.00000070   -0.07012913
     atom    7 type  2   force =     0.00000027    0.00000365   -0.04136561
     atom    8 type  2   force =    -0.00000055   -0.00000399   -0.04136550
     atom    9 type  1   force =    -0.00000012   -0.00000039   -0.07012943
     atom   10 type  1   force =     0.00000020    0.00000116   -0.07012932
     atom   11 type  2   force =     0.00000005    0.00000342   -0.04136569
     atom   12 type  2   force =    -0.00000020   -0.00000350   -0.04136536
     atom   13 type  1   force =    -0.00000040   -0.00000121   -0.07012936
     atom   14 type  1   force =     0.00000047    0.00000017   -0.07012949
     atom   15 type  2   force =    -0.00000019    0.00000363   -0.04136540
     atom   16 type  2   force =    -0.00000040   -0.00000324   -0.04136548
     atom   17 type  1   force =     0.00000025   -0.00000099   -0.07012868
     atom   18 type  1   force =     0.00000015    0.00000091   -0.07012934
     atom   19 type  2   force =     0.00000050    0.00000344   -0.04136522
     atom   20 type  2   force =    -0.00000004   -0.00000371   -0.04136530
     atom   21 type  1   force =    -0.00000041   -0.00000023   -0.07012926
     atom   22 type  1   force =    -0.00000004    0.00000089   -0.07012921
     atom   23 type  2   force =     0.00000037    0.00000362   -0.04136533
     atom   24 type  2   force =    -0.00000038   -0.00000328   -0.04136536
     The ionic contribution  to forces
     atom    1 type  1   force =    -0.00000000    0.00000001   -0.40542190
     atom    2 type  1   force =    -0.00000000    0.00000001   -0.40542190
     atom    3 type  2   force =    -0.00000000    0.00000001    0.40542190
     atom    4 type  2   force =     0.00000000    0.00000000    0.40542190
     atom    5 type  1   force =    -0.00000001    0.00000001   -0.40542190
     atom    6 type  1   force =     0.00000001   -0.00000001   -0.40542190
     atom    7 type  2   force =    -0.00000001    0.00000001    0.40542190
     atom    8 type  2   force =     0.00000001   -0.00000001    0.40542190
     atom    9 type  1   force =     0.00000001   -0.00000001   -0.40542190
     atom   10 type  1   force =     0.00000001   -0.00000000   -0.40542189
     atom   11 type  2   force =     0.00000000   -0.00000000    0.40542190
     atom   12 type  2   force =     0.00000001   -0.00000000    0.40542189
     atom   13 type  1   force =    -0.00000000    0.00000001   -0.40542190
     atom   14 type  1   force =     0.00000000    0.00000001   -0.40542190
     atom   15 type  2   force =    -0.00000000    0.00000000    0.40542190
     atom   16 type  2   force =     0.00000000    0.00000000    0.40542190
     atom   17 type  1   force =    -0.00000001    0.00000001   -0.40542190
     atom   18 type  1   force =     0.00000000   -0.00000001   -0.40542190
     atom   19 type  2   force =    -0.00000001    0.00000000    0.40542190
     atom   20 type  2   force =     0.00000000   -0.00000001    0.40542190
     atom   21 type  1   force =    -0.00000002   -0.00000001   -0.40542190
     atom   22 type  1   force =     0.00000001   -0.00000001   -0.40542190
     atom   23 type  2   force =    -0.00000001   -0.00000000    0.40542190
     atom   24 type  2   force =     0.00000001   -0.00000001    0.40542190
     The local contribution  to forces
     atom    1 type  1   force =     0.00000006    0.00000166    0.45229263
     atom    2 type  1   force =     0.00000043    0.00000080    0.45229396
     atom    3 type  2   force =     0.00000012   -0.00000346   -0.34755318
     atom    4 type  2   force =    -0.00000088    0.00000404   -0.34755293
     atom    5 type  1   force =     0.00000103    0.00000068    0.45229252
     atom    6 type  1   force =    -0.00000138   -0.00000061    0.45229381
     atom    7 type  2   force =     0.00000103   -0.00000400   -0.34755287
     atom    8 type  2   force =    -0.00000033    0.00000464   -0.34755321
     atom    9 type  1   force =    -0.00000031   -0.00000136    0.45229378
     atom   10 type  1   force =    -0.00000073   -0.00000162    0.45229366
     atom   11 type  2   force =    -0.00000017   -0.00000516   -0.34755297
     atom   12 type  2   force =    -0.00000046    0.00000369   -0.34755366
     atom   13 type  1   force =     0.00000098    0.00000128    0.45229285
     atom   14 type  1   force =    -0.00000110    0.00000167    0.45229423
     atom   15 type  2   force =     0.00000081   -0.00000398   -0.34755379
     atom   16 type  2   force =    -0.00000078    0.00000545   -0.34755342
     atom   17 type  1   force =    -0.00000033    0.00000092    0.45229170
     atom   18 type  1   force =     0.00000024   -0.00000089    0.45229389
     atom   19 type  2   force =    -0.00000003   -0.00000397   -0.34755193
     atom   20 type  2   force =    -0.00000011    0.00000431   -0.34755361
     atom   21 type  1   force =     0.00000106   -0.00000142    0.45229311
     atom   22 type  1   force =     0.00000035   -0.00000105    0.45229322
     atom   23 type  2   force =     0.00000011   -0.00000507   -0.34755316
     atom   24 type  2   force =     0.00000004    0.00000375   -0.34755338
     The core correction contribution to forces
     atom    1 type  1   force =     0.00000010    0.00000016    0.00650885
     atom    2 type  1   force =     0.00000005   -0.00000017    0.00650885
     atom    3 type  2   force =     0.00000001   -0.00000003    0.00024415
     atom    4 type  2   force =     0.00000001    0.00000004    0.00024415
     atom    5 type  1   force =     0.00000011    0.00000014    0.00650886
     atom    6 type  1   force =     0.00000007   -0.00000016    0.00650884
     atom    7 type  2   force =     0.00000002   -0.00000003    0.00024415
     atom    8 type  2   force =     0.00000002    0.00000005    0.00024415
     atom    9 type  1   force =     0.00000011    0.00000018    0.00650887
     atom   10 type  1   force =     0.00000006   -0.00000018    0.00650884
     atom   11 type  2   force =     0.00000002   -0.00000003    0.00024415
     atom   12 type  2   force =     0.00000002    0.00000005    0.00024415
     atom   13 type  1   force =    -0.00000005    0.00000015    0.00650888
     atom   14 type  1   force =    -0.00000009   -0.00000019    0.00650884
     atom   15 type  2   force =    -0.00000001   -0.00000005    0.00024415
     atom   16 type  2   force =    -0.00000002    0.00000003    0.00024415
     atom   17 type  1   force =    -0.00000006    0.00000016    0.00650884
     atom   18 type  1   force =    -0.00000012   -0.00000016    0.00650883
     atom   19 type  2   force =    -0.00000002   -0.00000004    0.00024415
     atom   20 type  2   force =    -0.00000002    0.00000003    0.00024414
     atom   21 type  1   force =    -0.00000006    0.00000018    0.00650886
     atom   22 type  1   force =    -0.00000009   -0.00000013    0.00650884
     atom   23 type  2   force =    -0.00000002   -0.00000005    0.00024415
     atom   24 type  2   force =    -0.00000001    0.00000003    0.00024414
     The Hubbard contrib.    to forces
     atom    1 type  1   force =     0.00000000    0.00000000    0.00000000
     atom    2 type  1   force =     0.00000000    0.00000000    0.00000000
     atom    3 type  2   force =     0.00000000    0.00000000    0.00000000
     atom    4 type  2   force =     0.00000000    0.00000000    0.00000000
     atom    5 type  1   force =     0.00000000    0.00000000    0.00000000
     atom    6 type  1   force =     0.00000000    0.00000000    0.00000000
     atom    7 type  2   force =     0.00000000    0.00000000    0.00000000
     atom    8 type  2   force =     0.00000000    0.00000000    0.00000000
     atom    9 type  1   force =     0.00000000    0.00000000    0.00000000
     atom   10 type  1   force =     0.00000000    0.00000000    0.00000000
     atom   11 type  2   force =     0.00000000    0.00000000    0.00000000
     atom   12 type  2   force =     0.00000000    0.00000000    0.00000000
     atom   13 type  1   force =     0.00000000    0.00000000    0.00000000
     atom   14 type  1   force =     0.00000000    0.00000000    0.00000000
     atom   15 type  2   force =     0.00000000    0.00000000    0.00000000
     atom   16 type  2   force =     0.00000000    0.00000000    0.00000000
     atom   17 type  1   force =     0.00000000    0.00000000    0.00000000
     atom   18 type  1   force =     0.00000000    0.00000000    0.00000000
     atom   19 type  2   force =     0.00000000    0.00000000    0.00000000
     atom   20 type  2   force =     0.00000000    0.00000000    0.00000000
     atom   21 type  1   force =     0.00000000    0.00000000    0.00000000
     atom   22 type  1   force =     0.00000000    0.00000000    0.00000000
     atom   23 type  2   force =     0.00000000    0.00000000    0.00000000
     atom   24 type  2   force =     0.00000000    0.00000000    0.00000000
     The SCF correction term to forces
     atom    1 type  1   force =     0.00000024   -0.00000187    0.00000417
     atom    2 type  1   force =    -0.00000049   -0.00000183    0.00000196
     atom    3 type  2   force =    -0.00000048   -0.00000023   -0.00000040
     atom    4 type  2   force =     0.00000076   -0.00000110   -0.00000039
     atom    5 type  1   force =    -0.00000127   -0.00000001    0.00000509
     atom    6 type  1   force =     0.00000175    0.00000071    0.00000183
     atom    7 type  2   force =    -0.00000096    0.00000059   -0.00000056
     atom    8 type  2   force =     0.00000068   -0.00000062   -0.00000012
     atom    9 type  1   force =     0.00000071    0.00000310    0.00000192
     atom   10 type  1   force =     0.00000097    0.00000195    0.00000253
     atom   11 type  2   force =     0.00000034    0.00000164   -0.00000033
     atom   12 type  2   force =     0.00000040   -0.00000023    0.00000011
     atom   13 type  1   force =    -0.00000109   -0.00000069    0.00000442
     atom   14 type  1   force =     0.00000151   -0.00000299    0.00000134
     atom   15 type  2   force =    -0.00000058    0.00000020    0.00000007
     atom   16 type  2   force =     0.00000092   -0.00000214    0.00000012
     atom   17 type  1   force =     0.00000045   -0.00000052    0.00000608
     atom   18 type  1   force =    -0.00000055    0.00000083    0.00000212
     atom   19 type  2   force =    -0.00000030    0.00000053   -0.00000180
     atom   20 type  2   force =     0.00000004   -0.00000050    0.00000021
     atom   21 type  1   force =    -0.00000129    0.00000250    0.00000336
     atom   22 type  1   force =    -0.00000087    0.00000083    0.00000294
     atom   23 type  2   force =    -0.00000038    0.00000154   -0.00000046
     atom   24 type  2   force =     0.00000013   -0.00000039    0.00000009

     Total force =     0.082041     Total SCF correction =     0.000015

     General routines

     Parallel routines

   This run was terminated on:   0: 9: 8   8Sep2025

   JOB DONE.
Note: The following floating-point exceptions are signalling: IEEE_UNDERFLOW_FLAG IEEE_DENORMAL
Note: The following floating-point exceptions are signalling: IEEE_UNDERFLOW_FLAG IEEE_DENORMAL
Note: The following floating-point exceptions are signalling: IEEE_UNDERFLOW_FLAG IEEE_DENORMAL
Note: The following floating-point exceptions are signalling: IEEE_UNDERFLOW_FLAG IEEE_DENORMAL
Note: The following floating-point exceptions are signalling: IEEE_UNDERFLOW_FLAG IEEE_DENORMAL
Note: The following floating-point exceptions are signalling: IEEE_UNDERFLOW_FLAG IEEE_DENORMAL
Note: The following floating-point exceptions are signalling: IEEE_UNDERFLOW_FLAG IEEE_DENORMAL
Note: The following floating-point exceptions are signalling: IEEE_UNDERFLOW_FLAG IEEE_DENORMAL
Note: The following floating-point exceptions are signalling: IEEE_UNDERFLOW_FLAG IEEE_DENORMAL
Note: The following floating-point exceptions are signalling: IEEE_UNDERFLOW_FLAG IEEE_DENORMAL
Note: The following floating-point exceptions are signalling: IEEE_UNDERFLOW_FLAG IEEE_DENORMAL
Note: The following floating-point exceptions are signalling: IEEE_UNDERFLOW_FLAG IEEE_DENORMAL
Note: The following floating-point exceptions are signalling: IEEE_UNDERFLOW_FLAG IEEE_DENORMAL
Note: The following floating-point exceptions are signalling: IEEE_UNDERFLOW_FLAG IEEE_DENORMAL
Note: The following floating-point exceptions are signalling: IEEE_UNDERFLOW_FLAG IEEE_DENORMAL
Note: The following floating-point exceptions are signalling: IEEE_UNDERFLOW_FLAG IEEE_DENORMAL
Note: The following floating-point exceptions are signalling: IEEE_UNDERFLOW_FLAG IEEE_DENORMAL
Note: The following floating-point exceptions are signalling: IEEE_UNDERFLOW_FLAG IEEE_DENORMAL
Note: The following floating-point exceptions are signalling: IEEE_UNDERFLOW_FLAG IEEE_DENORMAL
Note: The following floating-point exceptions are signalling: IEEE_UNDERFLOW_FLAG IEEE_DENORMAL
Note: The following floating-point exceptions are signalling: IEEE_UNDERFLOW_FLAG IEEE_DENORMAL
Note: The following floating-point exceptions are signalling: IEEE_UNDERFLOW_FLAG IEEE_DENORMAL
Note: The following floating-point exceptions are signalling: IEEE_UNDERFLOW_FLAG IEEE_DENORMAL
Note: The following floating-point exceptions are signalling: IEEE_UNDERFLOW_FLAG IEEE_DENORMAL
Note: The following floating-point exceptions are signalling: IEEE_UNDERFLOW_FLAG IEEE_DENORMAL
Note: The following floating-point exceptions are signalling: IEEE_UNDERFLOW_FLAG IEEE_DENORMAL
Note: The following floating-point exceptions are signalling: IEEE_UNDERFLOW_FLAG IEEE_DENORMAL
Note: The following floating-point exceptions are signalling: IEEE_UNDERFLOW_FLAG IEEE_DENORMAL
Note: The following floating-point exceptions are signalling: IEEE_UNDERFLOW_FLAG IEEE_DENORMAL
Note: The following floating-point exceptions are signalling: IEEE_UNDERFLOW_FLAG IEEE_DENORMAL
Note: The following floating-point exceptions are signalling: IEEE_UNDERFLOW_FLAG IEEE_DENORMAL
Note: The following floating-point exceptions are signalling: IEEE_UNDERFLOW_FLAG IEEE_DENORMAL