     Program PWSCF v.7.0 starts on  9Sep2025 at  6: 7: 2

     K-points division:     npool     =       8
     R & G space division:  proc/nbgrp/npool/nimage =       4

     Reading input from /home/jvc/QEspresso7.2/ZnO_database/scripts/cell231.in/ZnO-3.40-1.55-231.in
Warning: card &CELL ignored
Warning: card / ignored
Warning: card &FCP ignored
Warning: card / ignored
Warning: card &RISM ignored
Warning: card / ignored

     Current dimensions of program PWSCF are:
     Max number of different atomic species (ntypx) = 10
     Max number of k-points (npk) =  40000
     Max angular momentum in pseudopotentials (lmaxx) =  4
     file Zn.upf: wavefunction(s)  3D renormalized
     Found identity + (  0.0000  0.3333  0.0000) symmetry
     This is a supercell, fractional translations are disabled

     Using Slab Decomposition

     bravais-lattice index     =            0
     lattice parameter (alat)  =      12.8520  a.u.
     unit-cell volume          =    2136.8640 (a.u.)^3
     number of atoms/cell      =           24
     number of atomic types    =            2
     number of electrons       =       216.00
     number of Kohn-Sham states=          108
     kinetic-energy cutoff     =      50.0000  Ry
     charge density cutoff     =     400.0000  Ry
     scf convergence threshold =      1.0E-08
     mixing beta               =       0.3000
     number of iterations used =            8  plain     mixing
     Exchange-correlation= PBE
                           (   1   4   3   4   0   0   0)

     celldm(1)=  12.852016  celldm(2)=   0.000000  celldm(3)=   0.000000
     celldm(4)=   0.000000  celldm(5)=   0.000000  celldm(6)=   0.000000

     crystal axes: (cart. coord. in units of alat)
               a(1) = (   1.000000   0.000000   0.000000 )
               a(2) = (  -0.750000   1.299038   0.000000 )
               a(3) = (   0.000000   0.000000   0.774892 )

     reciprocal axes: (cart. coord. in units 2 pi/alat)
               b(1) = (  1.000000  0.577350 -0.000000 )
               b(2) = (  0.000000  0.769800  0.000000 )
               b(3) = (  0.000000 -0.000000  1.290502 )

     PseudoPot. # 1 for Zn read from file:
     /home/jvc/QEspresso7.2/ZnO_database/pseudos/Zn.upf
     MD5 check sum: 7f56cabf9682ed8c977c2f7d0c5985c5
     Pseudo is Ultrasoft + core correction, Zval = 12.0
     Generated using &quot;atomic&quot; code by A. Dal Corso  v.6.2.2
     Using radial grid of 1201 points,  6 beta functions with:
                l(1) =   0
                l(2) =   0
                l(3) =   1
                l(4) =   1
                l(5) =   2
                l(6) =   2
     Q(r) pseudized with 0 coefficients

     PseudoPot. # 2 for O  read from file:
     /home/jvc/QEspresso7.2/ZnO_database/pseudos/O.upf
     MD5 check sum: 91400c9766925bcf19f520983a725ff0
     Pseudo is Ultrasoft + core correction, Zval =  6.0
     Generated using &quot;atomic&quot; code by A. Dal Corso  v.6.3MaX
     Using radial grid of 1095 points,  4 beta functions with:
                l(1) =   0
                l(2) =   0
                l(3) =   1
                l(4) =   1
     Q(r) pseudized with 0 coefficients

     atomic species   valence    mass     pseudopotential
        Zn            12.00    65.38000     Zn( 1.00)
        O              6.00    15.99900     O ( 1.00)

     No symmetry found

                                    s                        frac. trans.

      isym =  1     identity

 cryst.   s( 1) = (     1          0          0      )
                  (     0          1          0      )
                  (     0          0          1      )

 cart.    s( 1) = (  1.0000000  0.0000000  0.0000000 )
                  (  0.0000000  1.0000000  0.0000000 )
                  (  0.0000000  0.0000000  1.0000000 )

   Cartesian axes

     site n.     atom                  positions (alat units)
         1           Zn  tau(   1) = (   0.2500000   0.1443376   0.3879370  )
         2           Zn  tau(   2) = (  -0.0000000   0.2886751   0.0004910  )
         3           O   tau(   3) = (   0.2500000   0.1443376   0.6816542  )
         4           O   tau(   4) = (  -0.0000000   0.2886751   0.2942082  )
         5           Zn  tau(   5) = (   0.0000000   0.5773503   0.3879370  )
         6           Zn  tau(   6) = (  -0.2500000   0.7216878   0.0004910  )
         7           O   tau(   7) = (   0.0000000   0.5773503   0.6816542  )
         8           O   tau(   8) = (  -0.2500000   0.7216878   0.2942082  )
         9           Zn  tau(   9) = (  -0.2500000   1.0103630   0.3879370  )
        10           Zn  tau(  10) = (  -0.5000000   1.1547005   0.0004910  )
        11           O   tau(  11) = (  -0.2500000   1.0103630   0.6816542  )
        12           O   tau(  12) = (  -0.5000000   1.1547005   0.2942082  )
        13           Zn  tau(  13) = (   0.7500000   0.1443376   0.3879370  )
        14           Zn  tau(  14) = (   0.5000000   0.2886751   0.0004910  )
        15           O   tau(  15) = (   0.7500000   0.1443376   0.6816542  )
        16           O   tau(  16) = (   0.5000000   0.2886751   0.2942082  )
        17           Zn  tau(  17) = (   0.5000000   0.5773503   0.3879370  )
        18           Zn  tau(  18) = (   0.2500000   0.7216878   0.0004910  )
        19           O   tau(  19) = (   0.5000000   0.5773503   0.6816542  )
        20           O   tau(  20) = (   0.2500000   0.7216878   0.2942082  )
        21           Zn  tau(  21) = (   0.2500000   1.0103630   0.3879370  )
        22           Zn  tau(  22) = (   0.0000000   1.1547005   0.0004910  )
        23           O   tau(  23) = (   0.2500000   1.0103630   0.6816542  )
        24           O   tau(  24) = (   0.0000000   1.1547005   0.2942082  )

   Crystallographic axes

     site n.     atom                  positions (cryst. coord.)
         1           Zn  tau(   1) = (  0.3333333  0.1111111  0.5006336  )
         2           Zn  tau(   2) = (  0.1666667  0.2222222  0.0006336  )
         3           O   tau(   3) = (  0.3333333  0.1111111  0.8796764  )
         4           O   tau(   4) = (  0.1666667  0.2222222  0.3796764  )
         5           Zn  tau(   5) = (  0.3333333  0.4444444  0.5006336  )
         6           Zn  tau(   6) = (  0.1666667  0.5555556  0.0006336  )
         7           O   tau(   7) = (  0.3333333  0.4444444  0.8796764  )
         8           O   tau(   8) = (  0.1666667  0.5555556  0.3796764  )
         9           Zn  tau(   9) = (  0.3333333  0.7777778  0.5006336  )
        10           Zn  tau(  10) = (  0.1666667  0.8888889  0.0006336  )
        11           O   tau(  11) = (  0.3333333  0.7777778  0.8796764  )
        12           O   tau(  12) = (  0.1666667  0.8888889  0.3796764  )
        13           Zn  tau(  13) = (  0.8333333  0.1111111  0.5006336  )
        14           Zn  tau(  14) = (  0.6666667  0.2222222  0.0006336  )
        15           O   tau(  15) = (  0.8333333  0.1111111  0.8796764  )
        16           O   tau(  16) = (  0.6666667  0.2222222  0.3796764  )
        17           Zn  tau(  17) = (  0.8333333  0.4444444  0.5006336  )
        18           Zn  tau(  18) = (  0.6666667  0.5555556  0.0006336  )
        19           O   tau(  19) = (  0.8333333  0.4444444  0.8796764  )
        20           O   tau(  20) = (  0.6666667  0.5555556  0.3796764  )
        21           Zn  tau(  21) = (  0.8333333  0.7777778  0.5006336  )
        22           Zn  tau(  22) = (  0.6666667  0.8888889  0.0006336  )
        23           O   tau(  23) = (  0.8333333  0.7777778  0.8796764  )
        24           O   tau(  24) = (  0.6666667  0.8888889  0.3796764  )

     number of k points=   112
                       cart. coord. in units 2pi/alat
        k(    1) = (   0.0000000   0.0000000   0.0000000), wk =   0.0092593
        k(    2) = (   0.0000000   0.0000000   0.2150837), wk =   0.0185185
        k(    3) = (   0.0000000   0.0000000   0.4301675), wk =   0.0185185
        k(    4) = (   0.0000000   0.0000000  -0.6452512), wk =   0.0092593
        k(    5) = (   0.0000000   0.1283001   0.0000000), wk =   0.0185185
        k(    6) = (   0.0000000   0.1283001   0.2150837), wk =   0.0185185
        k(    7) = (   0.0000000   0.1283001   0.4301675), wk =   0.0185185
        k(    8) = (   0.0000000   0.1283001  -0.6452512), wk =   0.0185185
        k(    9) = (   0.0000000   0.2566001   0.0000000), wk =   0.0185185
        k(   10) = (   0.0000000   0.2566001   0.2150837), wk =   0.0185185
        k(   11) = (   0.0000000   0.2566001   0.4301675), wk =   0.0185185
        k(   12) = (   0.0000000   0.2566001  -0.6452512), wk =   0.0185185
        k(   13) = (   0.0000000  -0.3849002   0.0000000), wk =   0.0092593
        k(   14) = (   0.0000000  -0.3849002   0.2150837), wk =   0.0185185
        k(   15) = (   0.0000000  -0.3849002   0.4301675), wk =   0.0185185
        k(   16) = (   0.0000000  -0.3849002  -0.6452512), wk =   0.0092593
        k(   17) = (   0.1666667   0.0962250   0.0000000), wk =   0.0185185
        k(   18) = (   0.1666667   0.0962250   0.2150837), wk =   0.0185185
        k(   19) = (   0.1666667   0.0962250   0.4301675), wk =   0.0185185
        k(   20) = (   0.1666667   0.0962250  -0.6452512), wk =   0.0185185
        k(   21) = (   0.1666667   0.2245251   0.0000000), wk =   0.0185185
        k(   22) = (   0.1666667   0.2245251   0.2150837), wk =   0.0185185
        k(   23) = (   0.1666667   0.2245251   0.4301675), wk =   0.0185185
        k(   24) = (   0.1666667   0.2245251  -0.6452512), wk =   0.0185185
        k(   25) = (   0.1666667   0.3528252   0.0000000), wk =   0.0185185
        k(   26) = (   0.1666667   0.3528252   0.2150837), wk =   0.0185185
        k(   27) = (   0.1666667   0.3528252   0.4301675), wk =   0.0185185
        k(   28) = (   0.1666667   0.3528252  -0.6452512), wk =   0.0185185
        k(   29) = (   0.1666667  -0.2886751   0.0000000), wk =   0.0185185
        k(   30) = (   0.1666667  -0.2886751   0.2150837), wk =   0.0185185
        k(   31) = (   0.1666667  -0.2886751   0.4301675), wk =   0.0185185
        k(   32) = (   0.1666667  -0.2886751  -0.6452512), wk =   0.0185185
        k(   33) = (   0.1666667  -0.1603751   0.0000000), wk =   0.0185185
        k(   34) = (   0.1666667  -0.1603751   0.2150837), wk =   0.0185185
        k(   35) = (   0.1666667  -0.1603751   0.4301675), wk =   0.0185185
        k(   36) = (   0.1666667  -0.1603751  -0.6452512), wk =   0.0185185
        k(   37) = (   0.1666667  -0.0320750   0.0000000), wk =   0.0185185
        k(   38) = (   0.1666667  -0.0320750   0.2150837), wk =   0.0185185
        k(   39) = (   0.1666667  -0.0320750   0.4301675), wk =   0.0185185
        k(   40) = (   0.1666667  -0.0320750  -0.6452512), wk =   0.0185185
        k(   41) = (   0.3333333   0.1924501   0.0000000), wk =   0.0185185
        k(   42) = (   0.3333333   0.1924501   0.2150837), wk =   0.0185185
        k(   43) = (   0.3333333   0.1924501   0.4301675), wk =   0.0185185
        k(   44) = (   0.3333333   0.1924501  -0.6452512), wk =   0.0185185
        k(   45) = (   0.3333333   0.3207501   0.0000000), wk =   0.0185185
[...]

!    total energy              =   -2169.77221320 Ry
     estimated scf accuracy    <          3.2E-09 Ry

     The total energy is the sum of the following terms:
     one-electron contribution =    -981.31214899 Ry
     hartree contribution      =     729.39196496 Ry
     xc contribution           =    -656.38789917 Ry
     ewald contribution        =   -1261.46413000 Ry

     convergence has been achieved in  33 iterations

     Forces acting on atoms (cartesian axes, Ry/au):

     atom    1 type  1   force =    -0.00000021   -0.00000053   -0.00871199
     atom    2 type  1   force =     0.00000009   -0.00000001   -0.00870989
     atom    3 type  2   force =     0.00000070   -0.00000135    0.00871235
     atom    4 type  2   force =    -0.00000090    0.00000057    0.00870987
     atom    5 type  1   force =    -0.00000041   -0.00000204   -0.00871125
     atom    6 type  1   force =    -0.00000046    0.00000048   -0.00871303
     atom    7 type  2   force =     0.00000099    0.00000109    0.00871189
     atom    8 type  2   force =     0.00000024    0.00000154    0.00871157
     atom    9 type  1   force =    -0.00000032   -0.00000051   -0.00871086
     atom   10 type  1   force =    -0.00000157    0.00000063   -0.00871206
     atom   11 type  2   force =     0.00000049   -0.00000034    0.00871252
     atom   12 type  2   force =    -0.00000002    0.00000010    0.00871066
     atom   13 type  1   force =     0.00000107   -0.00000086   -0.00871194
     atom   14 type  1   force =    -0.00000049    0.00000124   -0.00871192
     atom   15 type  2   force =    -0.00000057   -0.00000145    0.00871206
     atom   16 type  2   force =    -0.00000047   -0.00000050    0.00871094
     atom   17 type  1   force =     0.00000037   -0.00000086   -0.00870863
     atom   18 type  1   force =     0.00000031   -0.00000108   -0.00871515
     atom   19 type  2   force =    -0.00000043    0.00000017    0.00871090
     atom   20 type  2   force =    -0.00000030    0.00000063    0.00871230
     atom   21 type  1   force =     0.00000138    0.00000148   -0.00870836
     atom   22 type  1   force =     0.00000064    0.00000135   -0.00871312
     atom   23 type  2   force =     0.00000052   -0.00000024    0.00871121
     atom   24 type  2   force =    -0.00000064    0.00000049    0.00871191
     The non-local contrib.  to forces
     atom    1 type  1   force =    -0.00000150   -0.00000172   -0.11764536
     atom    2 type  1   force =     0.00000028    0.00000323   -0.11764566
     atom    3 type  2   force =     0.00000103    0.00000616   -0.09341265
     atom    4 type  2   force =     0.00000002   -0.00000712   -0.09341374
     atom    5 type  1   force =    -0.00000060   -0.00000582   -0.11764502
     atom    6 type  1   force =    -0.00000078    0.00000095   -0.11764657
     atom    7 type  2   force =    -0.00000010    0.00000845   -0.09341215
     atom    8 type  2   force =    -0.00000042   -0.00000489   -0.09341279
     atom    9 type  1   force =    -0.00000073   -0.00000258   -0.11764464
     atom   10 type  1   force =    -0.00000133    0.00000390   -0.11764640
     atom   11 type  2   force =     0.00000042    0.00000728   -0.09341214
     atom   12 type  2   force =     0.00000060   -0.00000821   -0.09341262
     atom   13 type  1   force =     0.00000133   -0.00000134   -0.11764556
     atom   14 type  1   force =    -0.00000051    0.00000428   -0.11764599
     atom   15 type  2   force =    -0.00000084    0.00000488   -0.09341133
     atom   16 type  2   force =    -0.00000033   -0.00000695   -0.09341282
     atom   17 type  1   force =     0.00000072   -0.00000412   -0.11764402
     atom   18 type  1   force =     0.00000096    0.00000184   -0.11764683
     atom   19 type  2   force =     0.00000015    0.00000775   -0.09341214
     atom   20 type  2   force =    -0.00000055   -0.00000553   -0.09341131
     atom   21 type  1   force =     0.00000086   -0.00000149   -0.11764384
     atom   22 type  1   force =     0.00000155    0.00000362   -0.11764604
     atom   23 type  2   force =     0.00000000    0.00000657   -0.09341240
     atom   24 type  2   force =    -0.00000069   -0.00000804   -0.09341212
     The ionic contribution  to forces
     atom    1 type  1   force =    -0.00000000    0.00000001   -0.73897918
     atom    2 type  1   force =     0.00000000    0.00000001   -0.73897918
     atom    3 type  2   force =    -0.00000000    0.00000001    0.73897918
     atom    4 type  2   force =     0.00000000    0.00000000    0.73897918
     atom    5 type  1   force =    -0.00000000    0.00000001   -0.73897919
     atom    6 type  1   force =     0.00000001   -0.00000000   -0.73897918
     atom    7 type  2   force =    -0.00000000    0.00000000    0.73897919
     atom    8 type  2   force =     0.00000001   -0.00000000    0.73897918
     atom    9 type  1   force =     0.00000001   -0.00000001   -0.73897918
     atom   10 type  1   force =    -0.00000001   -0.00000001   -0.73897918
     atom   11 type  2   force =     0.00000001   -0.00000000    0.73897918
     atom   12 type  2   force =    -0.00000001   -0.00000000    0.73897918
     atom   13 type  1   force =    -0.00000000    0.00000001   -0.73897918
     atom   14 type  1   force =    -0.00000000    0.00000001   -0.73897918
     atom   15 type  2   force =    -0.00000000    0.00000000    0.73897918
     atom   16 type  2   force =    -0.00000000    0.00000000    0.73897918
     atom   17 type  1   force =    -0.00000002    0.00000001   -0.73897919
     atom   18 type  1   force =     0.00000001   -0.00000001   -0.73897919
     atom   19 type  2   force =    -0.00000002    0.00000000    0.73897919
     atom   20 type  2   force =     0.00000001   -0.00000001    0.73897919
     atom   21 type  1   force =     0.00000001   -0.00000001   -0.73897918
     atom   22 type  1   force =    -0.00000001   -0.00000001   -0.73897918
     atom   23 type  2   force =     0.00000001   -0.00000000    0.73897918
     atom   24 type  2   force =    -0.00000001   -0.00000000    0.73897918
     The local contribution  to forces
     atom    1 type  1   force =     0.00000260    0.00000053    0.83971001
     atom    2 type  1   force =    -0.00000099   -0.00000296    0.83971023
     atom    3 type  2   force =    -0.00000018   -0.00000543   -0.63759557
     atom    4 type  2   force =     0.00000065    0.00000573   -0.63759660
     atom    5 type  1   force =     0.00000151    0.00000814    0.83970901
     atom    6 type  1   force =     0.00000150    0.00000023    0.83971353
     atom    7 type  2   force =    -0.00000079   -0.00000752   -0.63759472
     atom    8 type  2   force =     0.00000077    0.00000660   -0.63759714
     atom    9 type  1   force =     0.00000077    0.00000220    0.83970898
     atom   10 type  1   force =     0.00000250   -0.00000456    0.83971256
     atom   11 type  2   force =    -0.00000001   -0.00000651   -0.63759464
     atom   12 type  2   force =     0.00000049    0.00000821   -0.63759632
     atom   13 type  1   force =    -0.00000244    0.00000061    0.83971051
     atom   14 type  1   force =     0.00000123   -0.00000525    0.83971220
     atom   15 type  2   force =    -0.00000009   -0.00000379   -0.63759509
     atom   16 type  2   force =    -0.00000024    0.00000492   -0.63759704
     atom   17 type  1   force =    -0.00000144    0.00000513    0.83970612
     atom   18 type  1   force =    -0.00000171   -0.00000025    0.83971577
     atom   19 type  2   force =     0.00000061   -0.00000737   -0.63759428
     atom   20 type  2   force =     0.00000003    0.00000722   -0.63759823
     atom   21 type  1   force =    -0.00000130   -0.00000066    0.83970639
     atom   22 type  1   force =    -0.00000249   -0.00000404    0.83971253
     atom   23 type  2   force =    -0.00000053   -0.00000746   -0.63759368
     atom   24 type  2   force =     0.00000020    0.00000540   -0.63759786
     The core correction contribution to forces
     atom    1 type  1   force =    -0.00000001    0.00000047    0.00820326
     atom    2 type  1   force =     0.00000013   -0.00000013    0.00820325
     atom    3 type  2   force =    -0.00000003   -0.00000007    0.00073975
     atom    4 type  2   force =    -0.00000002    0.00000008    0.00073974
     atom    5 type  1   force =     0.00000011    0.00000033    0.00820327
     atom    6 type  1   force =     0.00000016   -0.00000034    0.00820320
     atom    7 type  2   force =    -0.00000000   -0.00000012    0.00073974
     atom    8 type  2   force =     0.00000000    0.00000004    0.00073973
     atom    9 type  1   force =     0.00000010    0.00000022    0.00820322
     atom   10 type  1   force =     0.00000005   -0.00000024    0.00820318
     atom   11 type  2   force =    -0.00000003   -0.00000009    0.00073974
     atom   12 type  2   force =    -0.00000002    0.00000010    0.00073974
     atom   13 type  1   force =    -0.00000003    0.00000025    0.00820321
     atom   14 type  1   force =    -0.00000008   -0.00000021    0.00820318
     atom   15 type  2   force =     0.00000003   -0.00000004    0.00073972
     atom   16 type  2   force =     0.00000003    0.00000008    0.00073974
     atom   17 type  1   force =    -0.00000016    0.00000031    0.00820329
     atom   18 type  1   force =    -0.00000012   -0.00000037    0.00820314
     atom   19 type  2   force =     0.00000001   -0.00000008    0.00073973
     atom   20 type  2   force =     0.00000001    0.00000008    0.00073972
     atom   21 type  1   force =    -0.00000015    0.00000015    0.00820325
     atom   22 type  1   force =    -0.00000001   -0.00000043    0.00820321
     atom   23 type  2   force =     0.00000002   -0.00000009    0.00073974
     atom   24 type  2   force =     0.00000002    0.00000010    0.00073974
     The Hubbard contrib.    to forces
     atom    1 type  1   force =     0.00000000    0.00000000    0.00000000
     atom    2 type  1   force =     0.00000000    0.00000000    0.00000000
     atom    3 type  2   force =     0.00000000    0.00000000    0.00000000
     atom    4 type  2   force =     0.00000000    0.00000000    0.00000000
     atom    5 type  1   force =     0.00000000    0.00000000    0.00000000
     atom    6 type  1   force =     0.00000000    0.00000000    0.00000000
     atom    7 type  2   force =     0.00000000    0.00000000    0.00000000
     atom    8 type  2   force =     0.00000000    0.00000000    0.00000000
     atom    9 type  1   force =     0.00000000    0.00000000    0.00000000
     atom   10 type  1   force =     0.00000000    0.00000000    0.00000000
     atom   11 type  2   force =     0.00000000    0.00000000    0.00000000
     atom   12 type  2   force =     0.00000000    0.00000000    0.00000000
     atom   13 type  1   force =     0.00000000    0.00000000    0.00000000
     atom   14 type  1   force =     0.00000000    0.00000000    0.00000000
     atom   15 type  2   force =     0.00000000    0.00000000    0.00000000
     atom   16 type  2   force =     0.00000000    0.00000000    0.00000000
     atom   17 type  1   force =     0.00000000    0.00000000    0.00000000
     atom   18 type  1   force =     0.00000000    0.00000000    0.00000000
     atom   19 type  2   force =     0.00000000    0.00000000    0.00000000
     atom   20 type  2   force =     0.00000000    0.00000000    0.00000000
     atom   21 type  1   force =     0.00000000    0.00000000    0.00000000
     atom   22 type  1   force =     0.00000000    0.00000000    0.00000000
     atom   23 type  2   force =     0.00000000    0.00000000    0.00000000
     atom   24 type  2   force =     0.00000000    0.00000000    0.00000000
     The SCF correction term to forces
     atom    1 type  1   force =    -0.00000128    0.00000014   -0.00000322
     atom    2 type  1   force =     0.00000067   -0.00000019   -0.00000105
     atom    3 type  2   force =    -0.00000011   -0.00000203   -0.00000087
     atom    4 type  2   force =    -0.00000154    0.00000184   -0.00000123
     atom    5 type  1   force =    -0.00000142   -0.00000473   -0.00000184
     atom    6 type  1   force =    -0.00000134   -0.00000039   -0.00000653
     atom    7 type  2   force =     0.00000190    0.00000024   -0.00000268
     atom    8 type  2   force =    -0.00000012   -0.00000024    0.00000007
     atom    9 type  1   force =    -0.00000046   -0.00000037   -0.00000176
     atom   10 type  1   force =    -0.00000278    0.00000150   -0.00000472
     atom   11 type  2   force =     0.00000011   -0.00000105   -0.00000214
     atom   12 type  2   force =    -0.00000108   -0.00000002   -0.00000183
     atom   13 type  1   force =     0.00000221   -0.00000040   -0.00000344
     atom   14 type  1   force =    -0.00000111    0.00000239   -0.00000464
     atom   15 type  2   force =     0.00000035   -0.00000254   -0.00000293
     atom   16 type  2   force =     0.00000008    0.00000141   -0.00000064
     atom   17 type  1   force =     0.00000129   -0.00000222    0.00000265
     atom   18 type  1   force =     0.00000117   -0.00000232   -0.00001056
     atom   19 type  2   force =    -0.00000118   -0.00000016   -0.00000411
     atom   20 type  2   force =     0.00000021   -0.00000117    0.00000041
     atom   21 type  1   force =     0.00000197    0.00000347    0.00000251
     atom   22 type  1   force =     0.00000161    0.00000218   -0.00000615
     atom   23 type  2   force =     0.00000102    0.00000071   -0.00000414
     atom   24 type  2   force =    -0.00000016    0.00000299    0.00000046

     Total force =     0.042678     Total SCF correction =     0.000022

     General routines

     Parallel routines

   This run was terminated on:   6:58:38   9Sep2025

   JOB DONE.
Note: The following floating-point exceptions are signalling: IEEE_UNDERFLOW_FLAG IEEE_DENORMAL
Note: The following floating-point exceptions are signalling: IEEE_UNDERFLOW_FLAG IEEE_DENORMAL
Note: The following floating-point exceptions are signalling: IEEE_UNDERFLOW_FLAG IEEE_DENORMAL
Note: The following floating-point exceptions are signalling: IEEE_UNDERFLOW_FLAG IEEE_DENORMAL
Note: The following floating-point exceptions are signalling: IEEE_UNDERFLOW_FLAG IEEE_DENORMAL
Note: The following floating-point exceptions are signalling: IEEE_UNDERFLOW_FLAG IEEE_DENORMAL
Note: The following floating-point exceptions are signalling: IEEE_UNDERFLOW_FLAG IEEE_DENORMAL
Note: The following floating-point exceptions are signalling: IEEE_UNDERFLOW_FLAG IEEE_DENORMAL
Note: The following floating-point exceptions are signalling: IEEE_UNDERFLOW_FLAG IEEE_DENORMAL
Note: The following floating-point exceptions are signalling: IEEE_UNDERFLOW_FLAG IEEE_DENORMAL
Note: The following floating-point exceptions are signalling: IEEE_UNDERFLOW_FLAG IEEE_DENORMAL
Note: The following floating-point exceptions are signalling: IEEE_UNDERFLOW_FLAG IEEE_DENORMAL
Note: The following floating-point exceptions are signalling: IEEE_UNDERFLOW_FLAG IEEE_DENORMAL
Note: The following floating-point exceptions are signalling: IEEE_UNDERFLOW_FLAG IEEE_DENORMAL
Note: The following floating-point exceptions are signalling: IEEE_UNDERFLOW_FLAG IEEE_DENORMAL
Note: The following floating-point exceptions are signalling: IEEE_UNDERFLOW_FLAG IEEE_DENORMAL
Note: The following floating-point exceptions are signalling: IEEE_UNDERFLOW_FLAG IEEE_DENORMAL
Note: The following floating-point exceptions are signalling: IEEE_UNDERFLOW_FLAG IEEE_DENORMAL
Note: The following floating-point exceptions are signalling: IEEE_UNDERFLOW_FLAG IEEE_DENORMAL
Note: The following floating-point exceptions are signalling: IEEE_UNDERFLOW_FLAG IEEE_DENORMAL
Note: The following floating-point exceptions are signalling: IEEE_UNDERFLOW_FLAG IEEE_DENORMAL
Note: The following floating-point exceptions are signalling: IEEE_UNDERFLOW_FLAG IEEE_DENORMAL
Note: The following floating-point exceptions are signalling: IEEE_UNDERFLOW_FLAG IEEE_DENORMAL
Note: The following floating-point exceptions are signalling: IEEE_UNDERFLOW_FLAG IEEE_DENORMAL
Note: The following floating-point exceptions are signalling: IEEE_UNDERFLOW_FLAG IEEE_DENORMAL
Note: The following floating-point exceptions are signalling: IEEE_UNDERFLOW_FLAG IEEE_DENORMAL
Note: The following floating-point exceptions are signalling: IEEE_UNDERFLOW_FLAG IEEE_DENORMAL
Note: The following floating-point exceptions are signalling: IEEE_UNDERFLOW_FLAG IEEE_DENORMAL
Note: The following floating-point exceptions are signalling: IEEE_UNDERFLOW_FLAG IEEE_DENORMAL
Note: The following floating-point exceptions are signalling: IEEE_UNDERFLOW_FLAG IEEE_DENORMAL
Note: The following floating-point exceptions are signalling: IEEE_UNDERFLOW_FLAG IEEE_DENORMAL
Note: The following floating-point exceptions are signalling: IEEE_UNDERFLOW_FLAG IEEE_DENORMAL