     Program PWSCF v.7.0 starts on  9Sep2025 at 18: 9:50

     K-points division:     npool     =       8
     R & G space division:  proc/nbgrp/npool/nimage =       4

     Reading input from /home/jvc/QEspresso7.2/ZnO_database/scripts/cell231.in/ZnO-3.47-1.78-231.in
Warning: card &CELL ignored
Warning: card / ignored
Warning: card &FCP ignored
Warning: card / ignored
Warning: card &RISM ignored
Warning: card / ignored

     Current dimensions of program PWSCF are:
     Max number of different atomic species (ntypx) = 10
     Max number of k-points (npk) =  40000
     Max angular momentum in pseudopotentials (lmaxx) =  4
     file Zn.upf: wavefunction(s)  3D renormalized
     Found identity + ( -0.0000  0.3333  0.0000) symmetry
     This is a supercell, fractional translations are disabled

     Using Slab Decomposition

     bravais-lattice index     =            0
     lattice parameter (alat)  =      13.0992  a.u.
     unit-cell volume          =    2592.4829 (a.u.)^3
     number of atoms/cell      =           24
     number of atomic types    =            2
     number of electrons       =       216.00
     number of Kohn-Sham states=          108
     kinetic-energy cutoff     =      50.0000  Ry
     charge density cutoff     =     400.0000  Ry
     scf convergence threshold =      1.0E-08
     mixing beta               =       0.3000
     number of iterations used =            8  plain     mixing
     Exchange-correlation= PBE
                           (   1   4   3   4   0   0   0)

     celldm(1)=  13.099170  celldm(2)=   0.000000  celldm(3)=   0.000000
     celldm(4)=   0.000000  celldm(5)=   0.000000  celldm(6)=   0.000000

     crystal axes: (cart. coord. in units of alat)
               a(1) = (   1.000000   0.000000   0.000000 )
               a(2) = (  -0.750000   1.299038   0.000000 )
               a(3) = (   0.000000   0.000000   0.887897 )

     reciprocal axes: (cart. coord. in units 2 pi/alat)
               b(1) = (  1.000000  0.577350 -0.000000 )
               b(2) = (  0.000000  0.769800  0.000000 )
               b(3) = (  0.000000 -0.000000  1.126257 )

     PseudoPot. # 1 for Zn read from file:
     /home/jvc/QEspresso7.2/ZnO_database/pseudos/Zn.upf
     MD5 check sum: 7f56cabf9682ed8c977c2f7d0c5985c5
     Pseudo is Ultrasoft + core correction, Zval = 12.0
     Generated using &quot;atomic&quot; code by A. Dal Corso  v.6.2.2
     Using radial grid of 1201 points,  6 beta functions with:
                l(1) =   0
                l(2) =   0
                l(3) =   1
                l(4) =   1
                l(5) =   2
                l(6) =   2
     Q(r) pseudized with 0 coefficients

     PseudoPot. # 2 for O  read from file:
     /home/jvc/QEspresso7.2/ZnO_database/pseudos/O.upf
     MD5 check sum: 91400c9766925bcf19f520983a725ff0
     Pseudo is Ultrasoft + core correction, Zval =  6.0
     Generated using &quot;atomic&quot; code by A. Dal Corso  v.6.3MaX
     Using radial grid of 1095 points,  4 beta functions with:
                l(1) =   0
                l(2) =   0
                l(3) =   1
                l(4) =   1
     Q(r) pseudized with 0 coefficients

     atomic species   valence    mass     pseudopotential
        Zn            12.00    65.38000     Zn( 1.00)
        O              6.00    15.99900     O ( 1.00)

     No symmetry found

                                    s                        frac. trans.

      isym =  1     identity

 cryst.   s( 1) = (     1          0          0      )
                  (     0          1          0      )
                  (     0          0          1      )

 cart.    s( 1) = (  1.0000000  0.0000000  0.0000000 )
                  (  0.0000000  1.0000000  0.0000000 )
                  (  0.0000000  0.0000000  1.0000000 )

   Cartesian axes

     site n.     atom                  positions (alat units)
         1           Zn  tau(   1) = (   0.2500000   0.1443376   0.4445111  )
         2           Zn  tau(   2) = (  -0.0000000   0.2886751   0.0005626  )
         3           O   tau(   3) = (   0.2500000   0.1443376   0.7810621  )
         4           O   tau(   4) = (  -0.0000000   0.2886751   0.3371136  )
         5           Zn  tau(   5) = (   0.0000000   0.5773503   0.4445111  )
         6           Zn  tau(   6) = (  -0.2500000   0.7216878   0.0005626  )
         7           O   tau(   7) = (   0.0000000   0.5773503   0.7810621  )
         8           O   tau(   8) = (  -0.2500000   0.7216878   0.3371136  )
         9           Zn  tau(   9) = (  -0.2500000   1.0103630   0.4445111  )
        10           Zn  tau(  10) = (  -0.5000000   1.1547005   0.0005626  )
        11           O   tau(  11) = (  -0.2500000   1.0103630   0.7810621  )
        12           O   tau(  12) = (  -0.5000000   1.1547005   0.3371136  )
        13           Zn  tau(  13) = (   0.7500000   0.1443376   0.4445111  )
        14           Zn  tau(  14) = (   0.5000000   0.2886751   0.0005626  )
        15           O   tau(  15) = (   0.7500000   0.1443376   0.7810621  )
        16           O   tau(  16) = (   0.5000000   0.2886751   0.3371136  )
        17           Zn  tau(  17) = (   0.5000000   0.5773503   0.4445111  )
        18           Zn  tau(  18) = (   0.2500000   0.7216878   0.0005626  )
        19           O   tau(  19) = (   0.5000000   0.5773503   0.7810621  )
        20           O   tau(  20) = (   0.2500000   0.7216878   0.3371136  )
        21           Zn  tau(  21) = (   0.2500000   1.0103630   0.4445111  )
        22           Zn  tau(  22) = (   0.0000000   1.1547005   0.0005626  )
        23           O   tau(  23) = (   0.2500000   1.0103630   0.7810621  )
        24           O   tau(  24) = (   0.0000000   1.1547005   0.3371136  )

   Crystallographic axes

     site n.     atom                  positions (cryst. coord.)
         1           Zn  tau(   1) = (  0.3333333  0.1111111  0.5006336  )
         2           Zn  tau(   2) = (  0.1666667  0.2222222  0.0006336  )
         3           O   tau(   3) = (  0.3333333  0.1111111  0.8796764  )
         4           O   tau(   4) = (  0.1666667  0.2222222  0.3796764  )
         5           Zn  tau(   5) = (  0.3333333  0.4444444  0.5006336  )
         6           Zn  tau(   6) = (  0.1666667  0.5555556  0.0006336  )
         7           O   tau(   7) = (  0.3333333  0.4444444  0.8796764  )
         8           O   tau(   8) = (  0.1666667  0.5555556  0.3796764  )
         9           Zn  tau(   9) = (  0.3333333  0.7777778  0.5006336  )
        10           Zn  tau(  10) = (  0.1666667  0.8888889  0.0006336  )
        11           O   tau(  11) = (  0.3333333  0.7777778  0.8796764  )
        12           O   tau(  12) = (  0.1666667  0.8888889  0.3796764  )
        13           Zn  tau(  13) = (  0.8333333  0.1111111  0.5006336  )
        14           Zn  tau(  14) = (  0.6666667  0.2222222  0.0006336  )
        15           O   tau(  15) = (  0.8333333  0.1111111  0.8796764  )
        16           O   tau(  16) = (  0.6666667  0.2222222  0.3796764  )
        17           Zn  tau(  17) = (  0.8333333  0.4444444  0.5006336  )
        18           Zn  tau(  18) = (  0.6666667  0.5555556  0.0006336  )
        19           O   tau(  19) = (  0.8333333  0.4444444  0.8796764  )
        20           O   tau(  20) = (  0.6666667  0.5555556  0.3796764  )
        21           Zn  tau(  21) = (  0.8333333  0.7777778  0.5006336  )
        22           Zn  tau(  22) = (  0.6666667  0.8888889  0.0006336  )
        23           O   tau(  23) = (  0.8333333  0.7777778  0.8796764  )
        24           O   tau(  24) = (  0.6666667  0.8888889  0.3796764  )

     number of k points=   112
                       cart. coord. in units 2pi/alat
        k(    1) = (   0.0000000   0.0000000   0.0000000), wk =   0.0092593
        k(    2) = (   0.0000000   0.0000000   0.1877094), wk =   0.0185185
        k(    3) = (   0.0000000   0.0000000   0.3754189), wk =   0.0185185
        k(    4) = (   0.0000000   0.0000000  -0.5631283), wk =   0.0092593
        k(    5) = (   0.0000000   0.1283001   0.0000000), wk =   0.0185185
        k(    6) = (   0.0000000   0.1283001   0.1877094), wk =   0.0185185
        k(    7) = (   0.0000000   0.1283001   0.3754189), wk =   0.0185185
        k(    8) = (   0.0000000   0.1283001  -0.5631283), wk =   0.0185185
        k(    9) = (   0.0000000   0.2566001   0.0000000), wk =   0.0185185
        k(   10) = (   0.0000000   0.2566001   0.1877094), wk =   0.0185185
        k(   11) = (   0.0000000   0.2566001   0.3754189), wk =   0.0185185
        k(   12) = (   0.0000000   0.2566001  -0.5631283), wk =   0.0185185
        k(   13) = (   0.0000000  -0.3849002   0.0000000), wk =   0.0092593
        k(   14) = (   0.0000000  -0.3849002   0.1877094), wk =   0.0185185
        k(   15) = (   0.0000000  -0.3849002   0.3754189), wk =   0.0185185
        k(   16) = (   0.0000000  -0.3849002  -0.5631283), wk =   0.0092593
        k(   17) = (   0.1666667   0.0962250   0.0000000), wk =   0.0185185
        k(   18) = (   0.1666667   0.0962250   0.1877094), wk =   0.0185185
        k(   19) = (   0.1666667   0.0962250   0.3754189), wk =   0.0185185
        k(   20) = (   0.1666667   0.0962250  -0.5631283), wk =   0.0185185
        k(   21) = (   0.1666667   0.2245251   0.0000000), wk =   0.0185185
        k(   22) = (   0.1666667   0.2245251   0.1877094), wk =   0.0185185
        k(   23) = (   0.1666667   0.2245251   0.3754189), wk =   0.0185185
        k(   24) = (   0.1666667   0.2245251  -0.5631283), wk =   0.0185185
        k(   25) = (   0.1666667   0.3528252   0.0000000), wk =   0.0185185
        k(   26) = (   0.1666667   0.3528252   0.1877094), wk =   0.0185185
        k(   27) = (   0.1666667   0.3528252   0.3754189), wk =   0.0185185
        k(   28) = (   0.1666667   0.3528252  -0.5631283), wk =   0.0185185
        k(   29) = (   0.1666667  -0.2886751   0.0000000), wk =   0.0185185
        k(   30) = (   0.1666667  -0.2886751   0.1877094), wk =   0.0185185
        k(   31) = (   0.1666667  -0.2886751   0.3754189), wk =   0.0185185
        k(   32) = (   0.1666667  -0.2886751  -0.5631283), wk =   0.0185185
        k(   33) = (   0.1666667  -0.1603751   0.0000000), wk =   0.0185185
        k(   34) = (   0.1666667  -0.1603751   0.1877094), wk =   0.0185185
        k(   35) = (   0.1666667  -0.1603751   0.3754189), wk =   0.0185185
        k(   36) = (   0.1666667  -0.1603751  -0.5631283), wk =   0.0185185
        k(   37) = (   0.1666667  -0.0320750   0.0000000), wk =   0.0185185
        k(   38) = (   0.1666667  -0.0320750   0.1877094), wk =   0.0185185
        k(   39) = (   0.1666667  -0.0320750   0.3754189), wk =   0.0185185
        k(   40) = (   0.1666667  -0.0320750  -0.5631283), wk =   0.0185185
        k(   41) = (   0.3333333   0.1924501   0.0000000), wk =   0.0185185
        k(   42) = (   0.3333333   0.1924501   0.1877094), wk =   0.0185185
        k(   43) = (   0.3333333   0.1924501   0.3754189), wk =   0.0185185
        k(   44) = (   0.3333333   0.1924501  -0.5631283), wk =   0.0185185
        k(   45) = (   0.3333333   0.3207501   0.0000000), wk =   0.0185185
[...]

!    total energy              =   -2169.31137306 Ry
     estimated scf accuracy    <          8.0E-09 Ry

     The total energy is the sum of the following terms:
     one-electron contribution =   -1110.41130089 Ry
     hartree contribution      =     777.09362148 Ry
     xc contribution           =    -654.45677236 Ry
     ewald contribution        =   -1181.53692129 Ry

     convergence has been achieved in  39 iterations

     Forces acting on atoms (cartesian axes, Ry/au):

     atom    1 type  1   force =     0.00000142    0.00000111   -0.01218380
     atom    2 type  1   force =    -0.00000508    0.00000336   -0.01217283
     atom    3 type  2   force =    -0.00000002    0.00000077    0.01217474
     atom    4 type  2   force =    -0.00000001   -0.00000087    0.01217595
     atom    5 type  1   force =     0.00000069   -0.00001198   -0.01217166
     atom    6 type  1   force =    -0.00000795   -0.00000517   -0.01218451
     atom    7 type  2   force =     0.00000025    0.00000104    0.01217555
     atom    8 type  2   force =     0.00000024   -0.00000100    0.01217510
     atom    9 type  1   force =    -0.00000845    0.00000738   -0.01217223
     atom   10 type  1   force =     0.00000812   -0.00000100   -0.01216437
     atom   11 type  2   force =    -0.00000005    0.00000122    0.01217554
     atom   12 type  2   force =     0.00000002   -0.00000124    0.01217605
     atom   13 type  1   force =    -0.00000508    0.00000801   -0.01217964
     atom   14 type  1   force =     0.00000636    0.00000906   -0.01217521
     atom   15 type  2   force =     0.00000040    0.00000087    0.01217580
     atom   16 type  2   force =     0.00000001   -0.00000111    0.01217634
     atom   17 type  1   force =    -0.00000169   -0.00001056   -0.01217034
     atom   18 type  1   force =     0.00000886   -0.00000815   -0.01217805
     atom   19 type  2   force =     0.00000025    0.00000106    0.01217645
     atom   20 type  2   force =    -0.00000000   -0.00000067    0.01217556
     atom   21 type  1   force =     0.00000699    0.00000321   -0.01217799
     atom   22 type  1   force =    -0.00000560    0.00000464   -0.01217661
     atom   23 type  2   force =     0.00000022    0.00000139    0.01217473
     atom   24 type  2   force =     0.00000011   -0.00000138    0.01217543
     The non-local contrib.  to forces
     atom    1 type  1   force =     0.00000148   -0.00000827    0.21997216
     atom    2 type  1   force =    -0.00000283    0.00001233    0.21997887
     atom    3 type  2   force =    -0.00000156    0.00000781    0.25542178
     atom    4 type  2   force =    -0.00000019   -0.00000949    0.25542494
     atom    5 type  1   force =     0.00000042   -0.00001606    0.21998116
     atom    6 type  1   force =    -0.00000368    0.00000585    0.21997171
     atom    7 type  2   force =     0.00000108    0.00001209    0.25542438
     atom    8 type  2   force =     0.00000223   -0.00000868    0.25542313
     atom    9 type  1   force =    -0.00000419   -0.00000496    0.21998042
     atom   10 type  1   force =     0.00000380    0.00000821    0.21998224
     atom   11 type  2   force =     0.00000032    0.00001174    0.25542423
     atom   12 type  2   force =    -0.00000128   -0.00001386    0.25542516
     atom   13 type  1   force =    -0.00000215   -0.00000526    0.21997701
     atom   14 type  1   force =     0.00000305    0.00001349    0.21997659
     atom   15 type  2   force =     0.00000314    0.00000747    0.25542528
     atom   16 type  2   force =    -0.00000089   -0.00001119    0.25542621
     atom   17 type  1   force =    -0.00000060   -0.00001478    0.21998169
     atom   18 type  1   force =     0.00000417    0.00000401    0.21997530
     atom   19 type  2   force =     0.00000039    0.00001254    0.25542671
     atom   20 type  2   force =    -0.00000242   -0.00000727    0.25542498
     atom   21 type  1   force =     0.00000380   -0.00000725    0.21997764
     atom   22 type  1   force =    -0.00000331    0.00001253    0.21997752
     atom   23 type  2   force =     0.00000033    0.00001345    0.25542228
     atom   24 type  2   force =     0.00000097   -0.00001570    0.25542375
     The ionic contribution  to forces
     atom    1 type  1   force =    -0.00000000    0.00000001    1.70271904
     atom    2 type  1   force =     0.00000001    0.00000001    1.70271904
     atom    3 type  2   force =    -0.00000000    0.00000001   -1.70271904
     atom    4 type  2   force =     0.00000001    0.00000000   -1.70271904
     atom    5 type  1   force =    -0.00000001    0.00000001    1.70271903
     atom    6 type  1   force =     0.00000001   -0.00000000    1.70271903
     atom    7 type  2   force =    -0.00000001    0.00000000   -1.70271903
     atom    8 type  2   force =     0.00000001   -0.00000000   -1.70271903
     atom    9 type  1   force =    -0.00000000   -0.00000000    1.70271904
     atom   10 type  1   force =     0.00000001   -0.00000000    1.70271904
     atom   11 type  2   force =    -0.00000000    0.00000000   -1.70271904
     atom   12 type  2   force =     0.00000001   -0.00000000   -1.70271904
     atom   13 type  1   force =    -0.00000001    0.00000000    1.70271904
     atom   14 type  1   force =    -0.00000001    0.00000001    1.70271904
     atom   15 type  2   force =    -0.00000001    0.00000000   -1.70271904
     atom   16 type  2   force =    -0.00000000    0.00000000   -1.70271904
     atom   17 type  1   force =    -0.00000002    0.00000001    1.70271903
     atom   18 type  1   force =     0.00000001   -0.00000001    1.70271903
     atom   19 type  2   force =    -0.00000001    0.00000000   -1.70271903
     atom   20 type  2   force =     0.00000001   -0.00000000   -1.70271903
     atom   21 type  1   force =    -0.00000000   -0.00000001    1.70271904
     atom   22 type  1   force =    -0.00000001   -0.00000001    1.70271904
     atom   23 type  2   force =    -0.00000000   -0.00000001   -1.70271904
     atom   24 type  2   force =    -0.00000000   -0.00000000   -1.70271904
     The local contribution  to forces
     atom    1 type  1   force =    -0.00000421    0.00000830   -1.92229754
     atom    2 type  1   force =     0.00001175   -0.00001753   -1.92232044
     atom    3 type  2   force =    -0.00000153   -0.00001074    1.46183310
     atom    4 type  2   force =     0.00000178    0.00000667    1.46183658
     atom    5 type  1   force =    -0.00000280    0.00003011   -1.92232264
     atom    6 type  1   force =     0.00001302   -0.00000084   -1.92229810
     atom    7 type  2   force =     0.00000030   -0.00000562    1.46183733
     atom    8 type  2   force =     0.00000257    0.00001394    1.46183320
     atom    9 type  1   force =     0.00001367   -0.00000405   -1.92232150
     atom   10 type  1   force =    -0.00001255   -0.00000531   -1.92233085
     atom   11 type  2   force =     0.00000198   -0.00000861    1.46183752
     atom   12 type  2   force =    -0.00000192    0.00000842    1.46183857
     atom   13 type  1   force =     0.00000650   -0.00000355   -1.92231229
     atom   14 type  1   force =    -0.00001271   -0.00002629   -1.92231557
     atom   15 type  2   force =    -0.00000023   -0.00001170    1.46183724
     atom   16 type  2   force =    -0.00000167    0.00000709    1.46183515
     atom   17 type  1   force =     0.00000367    0.00002898   -1.92232692
     atom   18 type  1   force =    -0.00001398    0.00000717   -1.92230903
     atom   19 type  2   force =    -0.00000149   -0.00000634    1.46183926
     atom   20 type  2   force =    -0.00000342    0.00001336    1.46183438
     atom   21 type  1   force =    -0.00001239    0.00000347   -1.92231146
     atom   22 type  1   force =     0.00001094   -0.00002054   -1.92231397
     atom   23 type  2   force =    -0.00000161   -0.00000843    1.46183639
     atom   24 type  2   force =     0.00000058    0.00000594    1.46183614
     The core correction contribution to forces
     atom    1 type  1   force =     0.00000017    0.00000076   -0.01256793
     atom    2 type  1   force =    -0.00000031   -0.00000078   -0.01256640
     atom    3 type  2   force =     0.00000002   -0.00000008   -0.00236512
     atom    4 type  2   force =     0.00000000    0.00000012   -0.00236571
     atom    5 type  1   force =     0.00000014    0.00000070   -0.01256750
     atom    6 type  1   force =    -0.00000025   -0.00000108   -0.01256690
     atom    7 type  2   force =    -0.00000002   -0.00000012   -0.00236514
     atom    8 type  2   force =    -0.00000003    0.00000008   -0.00236570
     atom    9 type  1   force =    -0.00000025    0.00000114   -0.01256746
     atom   10 type  1   force =     0.00000014   -0.00000095   -0.01256633
     atom   11 type  2   force =     0.00000000   -0.00000014   -0.00236513
     atom   12 type  2   force =     0.00000001    0.00000016   -0.00236571
     atom   13 type  1   force =     0.00000002    0.00000104   -0.01256748
     atom   14 type  1   force =     0.00000039   -0.00000047   -0.01256640
     atom   15 type  2   force =    -0.00000004   -0.00000007   -0.00236514
     atom   16 type  2   force =     0.00000000    0.00000014   -0.00236573
     atom   17 type  1   force =    -0.00000012    0.00000058   -0.01256723
     atom   18 type  1   force =     0.00000025   -0.00000135   -0.01256671
     atom   19 type  2   force =    -0.00000001   -0.00000013   -0.00236515
     atom   20 type  2   force =     0.00000002    0.00000006   -0.00236572
     atom   21 type  1   force =     0.00000018    0.00000100   -0.01256772
     atom   22 type  1   force =    -0.00000028   -0.00000052   -0.01256666
     atom   23 type  2   force =     0.00000000   -0.00000017   -0.00236512
     atom   24 type  2   force =    -0.00000002    0.00000018   -0.00236571
     The Hubbard contrib.    to forces
     atom    1 type  1   force =     0.00000000    0.00000000    0.00000000
     atom    2 type  1   force =     0.00000000    0.00000000    0.00000000
     atom    3 type  2   force =     0.00000000    0.00000000    0.00000000
     atom    4 type  2   force =     0.00000000    0.00000000    0.00000000
     atom    5 type  1   force =     0.00000000    0.00000000    0.00000000
     atom    6 type  1   force =     0.00000000    0.00000000    0.00000000
     atom    7 type  2   force =     0.00000000    0.00000000    0.00000000
     atom    8 type  2   force =     0.00000000    0.00000000    0.00000000
     atom    9 type  1   force =     0.00000000    0.00000000    0.00000000
     atom   10 type  1   force =     0.00000000    0.00000000    0.00000000
     atom   11 type  2   force =     0.00000000    0.00000000    0.00000000
     atom   12 type  2   force =     0.00000000    0.00000000    0.00000000
     atom   13 type  1   force =     0.00000000    0.00000000    0.00000000
     atom   14 type  1   force =     0.00000000    0.00000000    0.00000000
     atom   15 type  2   force =     0.00000000    0.00000000    0.00000000
     atom   16 type  2   force =     0.00000000    0.00000000    0.00000000
     atom   17 type  1   force =     0.00000000    0.00000000    0.00000000
     atom   18 type  1   force =     0.00000000    0.00000000    0.00000000
     atom   19 type  2   force =     0.00000000    0.00000000    0.00000000
     atom   20 type  2   force =     0.00000000    0.00000000    0.00000000
     atom   21 type  1   force =     0.00000000    0.00000000    0.00000000
     atom   22 type  1   force =     0.00000000    0.00000000    0.00000000
     atom   23 type  2   force =     0.00000000    0.00000000    0.00000000
     atom   24 type  2   force =     0.00000000    0.00000000    0.00000000
     The SCF correction term to forces
     atom    1 type  1   force =     0.00000392    0.00000027   -0.00000597
     atom    2 type  1   force =    -0.00001376    0.00000929    0.00001966
     atom    3 type  2   force =     0.00000300    0.00000373    0.00000757
     atom    4 type  2   force =    -0.00000168    0.00000179    0.00000273
     atom    5 type  1   force =     0.00000288   -0.00002679    0.00002185
     atom    6 type  1   force =    -0.00001712   -0.00000914   -0.00000671
     atom    7 type  2   force =    -0.00000117   -0.00000535    0.00000156
     atom    8 type  2   force =    -0.00000461   -0.00000639    0.00000706
     atom    9 type  1   force =    -0.00001773    0.00001522    0.00002083
     atom   10 type  1   force =     0.00001665   -0.00000299    0.00003509
     atom   11 type  2   force =    -0.00000241   -0.00000181    0.00000151
     atom   12 type  2   force =     0.00000314    0.00000401    0.00000062
     atom   13 type  1   force =    -0.00000951    0.00001573    0.00000764
     atom   14 type  1   force =     0.00001558    0.00002228    0.00001469
     atom   15 type  2   force =    -0.00000252    0.00000512    0.00000101
     atom   16 type  2   force =     0.00000251    0.00000281    0.00000330
     atom   17 type  1   force =    -0.00000468   -0.00002539    0.00002663
     atom   18 type  1   force =     0.00001835   -0.00001801    0.00000691
     atom   19 type  2   force =     0.00000131   -0.00000506   -0.00000179
     atom   20 type  2   force =     0.00000574   -0.00000686    0.00000451
     atom   21 type  1   force =     0.00001533    0.00000597    0.00000807
     atom   22 type  1   force =    -0.00001299    0.00001315    0.00001101
     atom   23 type  2   force =     0.00000144   -0.00000349    0.00000377
     atom   24 type  2   force =    -0.00000148    0.00000816    0.00000384

     Total force =     0.059648     Total SCF correction =     0.000098

     General routines

     Parallel routines

   This run was terminated on:  19: 3:15   9Sep2025

   JOB DONE.
Note: The following floating-point exceptions are signalling: IEEE_UNDERFLOW_FLAG IEEE_DENORMAL
Note: The following floating-point exceptions are signalling: IEEE_UNDERFLOW_FLAG IEEE_DENORMAL
Note: The following floating-point exceptions are signalling: IEEE_UNDERFLOW_FLAG IEEE_DENORMAL
Note: The following floating-point exceptions are signalling: IEEE_UNDERFLOW_FLAG IEEE_DENORMAL
Note: The following floating-point exceptions are signalling: IEEE_UNDERFLOW_FLAG IEEE_DENORMAL
Note: The following floating-point exceptions are signalling: IEEE_UNDERFLOW_FLAG IEEE_DENORMAL
Note: The following floating-point exceptions are signalling: IEEE_UNDERFLOW_FLAG IEEE_DENORMAL
Note: The following floating-point exceptions are signalling: IEEE_UNDERFLOW_FLAG IEEE_DENORMAL
Note: The following floating-point exceptions are signalling: IEEE_UNDERFLOW_FLAG IEEE_DENORMAL
Note: The following floating-point exceptions are signalling: IEEE_UNDERFLOW_FLAG IEEE_DENORMAL
Note: The following floating-point exceptions are signalling: IEEE_UNDERFLOW_FLAG IEEE_DENORMAL
Note: The following floating-point exceptions are signalling: IEEE_UNDERFLOW_FLAG IEEE_DENORMAL
Note: The following floating-point exceptions are signalling: IEEE_UNDERFLOW_FLAG IEEE_DENORMAL
Note: The following floating-point exceptions are signalling: IEEE_UNDERFLOW_FLAG IEEE_DENORMAL
Note: The following floating-point exceptions are signalling: IEEE_UNDERFLOW_FLAG IEEE_DENORMAL
Note: The following floating-point exceptions are signalling: IEEE_UNDERFLOW_FLAG IEEE_DENORMAL
Note: The following floating-point exceptions are signalling: IEEE_UNDERFLOW_FLAG IEEE_DENORMAL
Note: The following floating-point exceptions are signalling: IEEE_UNDERFLOW_FLAG IEEE_DENORMAL
Note: The following floating-point exceptions are signalling: IEEE_UNDERFLOW_FLAG IEEE_DENORMAL
Note: The following floating-point exceptions are signalling: IEEE_UNDERFLOW_FLAG IEEE_DENORMAL
Note: The following floating-point exceptions are signalling: IEEE_UNDERFLOW_FLAG IEEE_DENORMAL
Note: The following floating-point exceptions are signalling: IEEE_UNDERFLOW_FLAG IEEE_DENORMAL
Note: The following floating-point exceptions are signalling: IEEE_UNDERFLOW_FLAG IEEE_DENORMAL
Note: The following floating-point exceptions are signalling: IEEE_UNDERFLOW_FLAG IEEE_DENORMAL
Note: The following floating-point exceptions are signalling: IEEE_UNDERFLOW_FLAG IEEE_DENORMAL
Note: The following floating-point exceptions are signalling: IEEE_UNDERFLOW_FLAG IEEE_DENORMAL
Note: The following floating-point exceptions are signalling: IEEE_UNDERFLOW_FLAG IEEE_DENORMAL
Note: The following floating-point exceptions are signalling: IEEE_UNDERFLOW_FLAG IEEE_DENORMAL
Note: The following floating-point exceptions are signalling: IEEE_UNDERFLOW_FLAG IEEE_DENORMAL
Note: The following floating-point exceptions are signalling: IEEE_UNDERFLOW_FLAG IEEE_DENORMAL
Note: The following floating-point exceptions are signalling: IEEE_UNDERFLOW_FLAG IEEE_DENORMAL
Note: The following floating-point exceptions are signalling: IEEE_UNDERFLOW_FLAG IEEE_DENORMAL