     Program PWSCF v.7.0 starts on 10Sep2025 at  6:55:25

     K-points division:     npool     =       8
     R & G space division:  proc/nbgrp/npool/nimage =       4

     Reading input from /home/jvc/QEspresso7.2/ZnO_database/scripts/cell231.in/ZnO-3.60-1.61-231.in
Warning: card &CELL ignored
Warning: card / ignored
Warning: card &FCP ignored
Warning: card / ignored
Warning: card &RISM ignored
Warning: card / ignored

     Current dimensions of program PWSCF are:
     Max number of different atomic species (ntypx) = 10
     Max number of k-points (npk) =  40000
     Max angular momentum in pseudopotentials (lmaxx) =  4
     file Zn.upf: wavefunction(s)  3D renormalized
     Found identity + (  0.0000  0.3333  0.0000) symmetry
     This is a supercell, fractional translations are disabled

     Using Slab Decomposition

     bravais-lattice index     =            0
     lattice parameter (alat)  =      13.5935  a.u.
     unit-cell volume          =    2633.8054 (a.u.)^3
     number of atoms/cell      =           24
     number of atomic types    =            2
     number of electrons       =       216.00
     number of Kohn-Sham states=          108
     kinetic-energy cutoff     =      50.0000  Ry
     charge density cutoff     =     400.0000  Ry
     scf convergence threshold =      1.0E-08
     mixing beta               =       0.3000
     number of iterations used =            8  plain     mixing
     Exchange-correlation= PBE
                           (   1   4   3   4   0   0   0)

     celldm(1)=  13.593479  celldm(2)=   0.000000  celldm(3)=   0.000000
     celldm(4)=   0.000000  celldm(5)=   0.000000  celldm(6)=   0.000000

     crystal axes: (cart. coord. in units of alat)
               a(1) = (   1.000000   0.000000   0.000000 )
               a(2) = (  -0.750000   1.299038   0.000000 )
               a(3) = (   0.000000   0.000000   0.807179 )

     reciprocal axes: (cart. coord. in units 2 pi/alat)
               b(1) = (  1.000000  0.577350 -0.000000 )
               b(2) = (  0.000000  0.769800  0.000000 )
               b(3) = (  0.000000 -0.000000  1.238882 )

     PseudoPot. # 1 for Zn read from file:
     /home/jvc/QEspresso7.2/ZnO_database/pseudos/Zn.upf
     MD5 check sum: 7f56cabf9682ed8c977c2f7d0c5985c5
     Pseudo is Ultrasoft + core correction, Zval = 12.0
     Generated using &quot;atomic&quot; code by A. Dal Corso  v.6.2.2
     Using radial grid of 1201 points,  6 beta functions with:
                l(1) =   0
                l(2) =   0
                l(3) =   1
                l(4) =   1
                l(5) =   2
                l(6) =   2
     Q(r) pseudized with 0 coefficients

     PseudoPot. # 2 for O  read from file:
     /home/jvc/QEspresso7.2/ZnO_database/pseudos/O.upf
     MD5 check sum: 91400c9766925bcf19f520983a725ff0
     Pseudo is Ultrasoft + core correction, Zval =  6.0
     Generated using &quot;atomic&quot; code by A. Dal Corso  v.6.3MaX
     Using radial grid of 1095 points,  4 beta functions with:
                l(1) =   0
                l(2) =   0
                l(3) =   1
                l(4) =   1
     Q(r) pseudized with 0 coefficients

     atomic species   valence    mass     pseudopotential
        Zn            12.00    65.38000     Zn( 1.00)
        O              6.00    15.99900     O ( 1.00)

     No symmetry found

                                    s                        frac. trans.

      isym =  1     identity

 cryst.   s( 1) = (     1          0          0      )
                  (     0          1          0      )
                  (     0          0          1      )

 cart.    s( 1) = (  1.0000000  0.0000000  0.0000000 )
                  (  0.0000000  1.0000000  0.0000000 )
                  (  0.0000000  0.0000000  1.0000000 )

   Cartesian axes

     site n.     atom                  positions (alat units)
         1           Zn  tau(   1) = (   0.2500000   0.1443376   0.4041010  )
         2           Zn  tau(   2) = (  -0.0000000   0.2886751   0.0005114  )
         3           O   tau(   3) = (   0.2500000   0.1443376   0.7100565  )
         4           O   tau(   4) = (  -0.0000000   0.2886751   0.3064669  )
         5           Zn  tau(   5) = (   0.0000000   0.5773503   0.4041010  )
         6           Zn  tau(   6) = (  -0.2500000   0.7216878   0.0005114  )
         7           O   tau(   7) = (   0.0000000   0.5773503   0.7100565  )
         8           O   tau(   8) = (  -0.2500000   0.7216878   0.3064669  )
         9           Zn  tau(   9) = (  -0.2500000   1.0103630   0.4041010  )
        10           Zn  tau(  10) = (  -0.5000000   1.1547005   0.0005114  )
        11           O   tau(  11) = (  -0.2500000   1.0103630   0.7100565  )
        12           O   tau(  12) = (  -0.5000000   1.1547005   0.3064669  )
        13           Zn  tau(  13) = (   0.7500000   0.1443376   0.4041010  )
        14           Zn  tau(  14) = (   0.5000000   0.2886751   0.0005114  )
        15           O   tau(  15) = (   0.7500000   0.1443376   0.7100565  )
        16           O   tau(  16) = (   0.5000000   0.2886751   0.3064669  )
        17           Zn  tau(  17) = (   0.5000000   0.5773503   0.4041010  )
        18           Zn  tau(  18) = (   0.2500000   0.7216878   0.0005114  )
        19           O   tau(  19) = (   0.5000000   0.5773503   0.7100565  )
        20           O   tau(  20) = (   0.2500000   0.7216878   0.3064669  )
        21           Zn  tau(  21) = (   0.2500000   1.0103630   0.4041010  )
        22           Zn  tau(  22) = (   0.0000000   1.1547005   0.0005114  )
        23           O   tau(  23) = (   0.2500000   1.0103630   0.7100565  )
        24           O   tau(  24) = (   0.0000000   1.1547005   0.3064669  )

   Crystallographic axes

     site n.     atom                  positions (cryst. coord.)
         1           Zn  tau(   1) = (  0.3333333  0.1111111  0.5006336  )
         2           Zn  tau(   2) = (  0.1666667  0.2222222  0.0006336  )
         3           O   tau(   3) = (  0.3333333  0.1111111  0.8796764  )
         4           O   tau(   4) = (  0.1666667  0.2222222  0.3796764  )
         5           Zn  tau(   5) = (  0.3333333  0.4444444  0.5006336  )
         6           Zn  tau(   6) = (  0.1666667  0.5555556  0.0006336  )
         7           O   tau(   7) = (  0.3333333  0.4444444  0.8796764  )
         8           O   tau(   8) = (  0.1666667  0.5555556  0.3796764  )
         9           Zn  tau(   9) = (  0.3333333  0.7777778  0.5006336  )
        10           Zn  tau(  10) = (  0.1666667  0.8888889  0.0006336  )
        11           O   tau(  11) = (  0.3333333  0.7777778  0.8796764  )
        12           O   tau(  12) = (  0.1666667  0.8888889  0.3796764  )
        13           Zn  tau(  13) = (  0.8333333  0.1111111  0.5006336  )
        14           Zn  tau(  14) = (  0.6666667  0.2222222  0.0006336  )
        15           O   tau(  15) = (  0.8333333  0.1111111  0.8796764  )
        16           O   tau(  16) = (  0.6666667  0.2222222  0.3796764  )
        17           Zn  tau(  17) = (  0.8333333  0.4444444  0.5006336  )
        18           Zn  tau(  18) = (  0.6666667  0.5555556  0.0006336  )
        19           O   tau(  19) = (  0.8333333  0.4444444  0.8796764  )
        20           O   tau(  20) = (  0.6666667  0.5555556  0.3796764  )
        21           Zn  tau(  21) = (  0.8333333  0.7777778  0.5006336  )
        22           Zn  tau(  22) = (  0.6666667  0.8888889  0.0006336  )
        23           O   tau(  23) = (  0.8333333  0.7777778  0.8796764  )
        24           O   tau(  24) = (  0.6666667  0.8888889  0.3796764  )

     number of k points=   112
                       cart. coord. in units 2pi/alat
        k(    1) = (   0.0000000   0.0000000   0.0000000), wk =   0.0092593
        k(    2) = (   0.0000000   0.0000000   0.2064804), wk =   0.0185185
        k(    3) = (   0.0000000   0.0000000   0.4129608), wk =   0.0185185
        k(    4) = (   0.0000000   0.0000000  -0.6194412), wk =   0.0092593
        k(    5) = (   0.0000000   0.1283001   0.0000000), wk =   0.0185185
        k(    6) = (   0.0000000   0.1283001   0.2064804), wk =   0.0185185
        k(    7) = (   0.0000000   0.1283001   0.4129608), wk =   0.0185185
        k(    8) = (   0.0000000   0.1283001  -0.6194412), wk =   0.0185185
        k(    9) = (   0.0000000   0.2566001   0.0000000), wk =   0.0185185
        k(   10) = (   0.0000000   0.2566001   0.2064804), wk =   0.0185185
        k(   11) = (   0.0000000   0.2566001   0.4129608), wk =   0.0185185
        k(   12) = (   0.0000000   0.2566001  -0.6194412), wk =   0.0185185
        k(   13) = (   0.0000000  -0.3849002   0.0000000), wk =   0.0092593
        k(   14) = (   0.0000000  -0.3849002   0.2064804), wk =   0.0185185
        k(   15) = (   0.0000000  -0.3849002   0.4129608), wk =   0.0185185
        k(   16) = (   0.0000000  -0.3849002  -0.6194412), wk =   0.0092593
        k(   17) = (   0.1666667   0.0962250   0.0000000), wk =   0.0185185
        k(   18) = (   0.1666667   0.0962250   0.2064804), wk =   0.0185185
        k(   19) = (   0.1666667   0.0962250   0.4129608), wk =   0.0185185
        k(   20) = (   0.1666667   0.0962250  -0.6194412), wk =   0.0185185
        k(   21) = (   0.1666667   0.2245251   0.0000000), wk =   0.0185185
        k(   22) = (   0.1666667   0.2245251   0.2064804), wk =   0.0185185
        k(   23) = (   0.1666667   0.2245251   0.4129608), wk =   0.0185185
        k(   24) = (   0.1666667   0.2245251  -0.6194412), wk =   0.0185185
        k(   25) = (   0.1666667   0.3528252   0.0000000), wk =   0.0185185
        k(   26) = (   0.1666667   0.3528252   0.2064804), wk =   0.0185185
        k(   27) = (   0.1666667   0.3528252   0.4129608), wk =   0.0185185
        k(   28) = (   0.1666667   0.3528252  -0.6194412), wk =   0.0185185
        k(   29) = (   0.1666667  -0.2886751   0.0000000), wk =   0.0185185
        k(   30) = (   0.1666667  -0.2886751   0.2064804), wk =   0.0185185
        k(   31) = (   0.1666667  -0.2886751   0.4129608), wk =   0.0185185
        k(   32) = (   0.1666667  -0.2886751  -0.6194412), wk =   0.0185185
        k(   33) = (   0.1666667  -0.1603751   0.0000000), wk =   0.0185185
        k(   34) = (   0.1666667  -0.1603751   0.2064804), wk =   0.0185185
        k(   35) = (   0.1666667  -0.1603751   0.4129608), wk =   0.0185185
        k(   36) = (   0.1666667  -0.1603751  -0.6194412), wk =   0.0185185
        k(   37) = (   0.1666667  -0.0320750   0.0000000), wk =   0.0185185
        k(   38) = (   0.1666667  -0.0320750   0.2064804), wk =   0.0185185
        k(   39) = (   0.1666667  -0.0320750   0.4129608), wk =   0.0185185
        k(   40) = (   0.1666667  -0.0320750  -0.6194412), wk =   0.0185185
        k(   41) = (   0.3333333   0.1924501   0.0000000), wk =   0.0185185
        k(   42) = (   0.3333333   0.1924501   0.2064804), wk =   0.0185185
        k(   43) = (   0.3333333   0.1924501   0.4129608), wk =   0.0185185
        k(   44) = (   0.3333333   0.1924501  -0.6194412), wk =   0.0185185
        k(   45) = (   0.3333333   0.3207501   0.0000000), wk =   0.0185185
[...]
     estimated scf accuracy    <          9.8E-09 Ry

     The total energy is the sum of the following terms:
     one-electron contribution =   -1116.65462506 Ry
     hartree contribution      =     779.02531452 Ry
     xc contribution           =    -654.27416973 Ry
     ewald contribution        =   -1177.38332651 Ry

     convergence has been achieved in  67 iterations

     Forces acting on atoms (cartesian axes, Ry/au):

     atom    1 type  1   force =    -0.00000852   -0.00001570   -0.00007986
     atom    2 type  1   force =     0.00000643    0.00000050   -0.00008163
     atom    3 type  2   force =    -0.00000054    0.00000073    0.00008152
     atom    4 type  2   force =     0.00000020   -0.00000137    0.00008215
     atom    5 type  1   force =     0.00001860    0.00003579   -0.00008753
     atom    6 type  1   force =    -0.00001363    0.00001270   -0.00007710
     atom    7 type  2   force =    -0.00000024    0.00000065    0.00008161
     atom    8 type  2   force =     0.00000004    0.00000044    0.00008178
     atom    9 type  1   force =    -0.00001808   -0.00002539   -0.00009441
     atom   10 type  1   force =    -0.00002059   -0.00003083   -0.00007570
     atom   11 type  2   force =    -0.00000006    0.00000016    0.00008160
     atom   12 type  2   force =     0.00000040   -0.00000013    0.00008212
     atom   13 type  1   force =     0.00000511   -0.00000605   -0.00007309
     atom   14 type  1   force =    -0.00000662    0.00001323   -0.00008480
     atom   15 type  2   force =     0.00000051    0.00000001    0.00008140
     atom   16 type  2   force =    -0.00000018   -0.00000092    0.00008165
     atom   17 type  1   force =    -0.00001801    0.00004528   -0.00007963
     atom   18 type  1   force =     0.00001524    0.00002771   -0.00007677
     atom   19 type  2   force =     0.00000040    0.00000031    0.00008141
     atom   20 type  2   force =     0.00000020   -0.00000121    0.00008213
     atom   21 type  1   force =     0.00001727   -0.00003291   -0.00008862
     atom   22 type  1   force =     0.00002254   -0.00002377   -0.00008222
     atom   23 type  2   force =    -0.00000011    0.00000105    0.00008200
     atom   24 type  2   force =    -0.00000037   -0.00000027    0.00008199
     The non-local contrib.  to forces
     atom    1 type  1   force =    -0.00000094   -0.00001112   -0.00461887
     atom    2 type  1   force =     0.00000358    0.00000680   -0.00462468
     atom    3 type  2   force =    -0.00000075    0.00001635    0.00623875
     atom    4 type  2   force =    -0.00000386   -0.00001879    0.00624111
     atom    5 type  1   force =     0.00000575    0.00001246   -0.00462332
     atom    6 type  1   force =    -0.00000466    0.00001737   -0.00461884
     atom    7 type  2   force =    -0.00000562    0.00000177    0.00624068
     atom    8 type  2   force =     0.00000291   -0.00001181    0.00623928
     atom    9 type  1   force =    -0.00000965   -0.00002825   -0.00462910
     atom   10 type  1   force =    -0.00001039   -0.00000742   -0.00462013
     atom   11 type  2   force =     0.00000498    0.00001477    0.00624003
     atom   12 type  2   force =     0.00000627    0.00000108    0.00624104
     atom   13 type  1   force =    -0.00000041   -0.00000790   -0.00461513
     atom   14 type  1   force =    -0.00000326    0.00000950   -0.00462094
     atom   15 type  2   force =     0.00000159    0.00001232    0.00623783
     atom   16 type  2   force =     0.00000296   -0.00001807    0.00624100
     atom   17 type  1   force =    -0.00000671    0.00001339   -0.00462564
     atom   18 type  1   force =     0.00000493    0.00002246   -0.00462316
     atom   19 type  2   force =     0.00000647    0.00000087    0.00623977
     atom   20 type  2   force =    -0.00000161   -0.00002078    0.00624199
     atom   21 type  1   force =     0.00000913   -0.00002722   -0.00462909
     atom   22 type  1   force =     0.00001098   -0.00000286   -0.00462189
     atom   23 type  2   force =    -0.00000373    0.00001977    0.00624273
     atom   24 type  2   force =    -0.00000684    0.00000127    0.00623984
     The ionic contribution  to forces
     atom    1 type  1   force =     0.00000000    0.00000001    0.05183208
     atom    2 type  1   force =     0.00000000    0.00000001    0.05183209
     atom    3 type  2   force =     0.00000000    0.00000000   -0.05183208
     atom    4 type  2   force =     0.00000000    0.00000001   -0.05183209
     atom    5 type  1   force =    -0.00000001    0.00000001    0.05183208
     atom    6 type  1   force =     0.00000001   -0.00000001    0.05183208
     atom    7 type  2   force =    -0.00000001    0.00000000   -0.05183208
     atom    8 type  2   force =     0.00000000   -0.00000000   -0.05183208
     atom    9 type  1   force =     0.00000000   -0.00000001    0.05183208
     atom   10 type  1   force =     0.00000000   -0.00000001    0.05183208
     atom   11 type  2   force =     0.00000000   -0.00000000   -0.05183208
     atom   12 type  2   force =     0.00000000   -0.00000000   -0.05183208
     atom   13 type  1   force =    -0.00000002    0.00000001    0.05183208
     atom   14 type  1   force =     0.00000000    0.00000000    0.05183208
     atom   15 type  2   force =    -0.00000001    0.00000000   -0.05183208
     atom   16 type  2   force =     0.00000000   -0.00000000   -0.05183208
     atom   17 type  1   force =    -0.00000001    0.00000001    0.05183208
     atom   18 type  1   force =     0.00000001   -0.00000001    0.05183208
     atom   19 type  2   force =    -0.00000001    0.00000000   -0.05183208
     atom   20 type  2   force =     0.00000001   -0.00000000   -0.05183208
     atom   21 type  1   force =     0.00000000   -0.00000001    0.05183208
     atom   22 type  1   force =    -0.00000000   -0.00000001    0.05183208
     atom   23 type  2   force =     0.00000000   -0.00000000   -0.05183208
     atom   24 type  2   force =    -0.00000000   -0.00000000   -0.05183208
     The local contribution  to forces
     atom    1 type  1   force =     0.00000536    0.00003280   -0.04755672
     atom    2 type  1   force =    -0.00000823   -0.00000697   -0.04754527
     atom    3 type  2   force =     0.00000646   -0.00000774    0.04574405
     atom    4 type  2   force =    -0.00000553    0.00001328    0.04574555
     atom    5 type  1   force =    -0.00002567   -0.00005041   -0.04754355
     atom    6 type  1   force =     0.00001870   -0.00002242   -0.04756167
     atom    7 type  2   force =    -0.00000509   -0.00002627    0.04574281
     atom    8 type  2   force =     0.00000314   -0.00000951    0.04574452
     atom    9 type  1   force =     0.00003082    0.00004979   -0.04752956
     atom   10 type  1   force =     0.00003691    0.00003209   -0.04756464
     atom   11 type  2   force =     0.00000768    0.00000904    0.04574291
     atom   12 type  2   force =     0.00000748    0.00003111    0.04574137
     atom   13 type  1   force =    -0.00000253    0.00001404   -0.04756870
     atom   14 type  1   force =     0.00000798   -0.00002443   -0.04754677
     atom   15 type  2   force =    -0.00000804   -0.00000455    0.04574513
     atom   16 type  2   force =     0.00000441    0.00000461    0.04574387
     atom   17 type  1   force =     0.00002661   -0.00005621   -0.04755006
     atom   18 type  1   force =    -0.00001977   -0.00005002   -0.04756080
     atom   19 type  2   force =     0.00000527   -0.00003763    0.04574281
     atom   20 type  2   force =    -0.00000499   -0.00000464    0.04574033
     atom   21 type  1   force =    -0.00003004    0.00006134   -0.04754261
     atom   22 type  1   force =    -0.00003825    0.00002253   -0.04754938
     atom   23 type  2   force =    -0.00000762    0.00000715    0.04573898
     atom   24 type  2   force =    -0.00000731    0.00003096    0.04574441
     The core correction contribution to forces
     atom    1 type  1   force =     0.00000009   -0.00000025    0.00025965
     atom    2 type  1   force =    -0.00000001   -0.00000071    0.00025937
     atom    3 type  2   force =     0.00000001   -0.00000018   -0.00006978
     atom    4 type  2   force =     0.00000004    0.00000023   -0.00006981
     atom    5 type  1   force =     0.00000060    0.00000156    0.00025935
     atom    6 type  1   force =    -0.00000039   -0.00000126    0.00025989
     atom    7 type  2   force =     0.00000006   -0.00000002   -0.00006980
     atom    8 type  2   force =    -0.00000003    0.00000011   -0.00006978
     atom    9 type  1   force =    -0.00000060    0.00000078    0.00025920
     atom   10 type  1   force =    -0.00000086   -0.00000078    0.00026015
     atom   11 type  2   force =    -0.00000005   -0.00000014   -0.00006979
     atom   12 type  2   force =    -0.00000007   -0.00000001   -0.00006981
     atom   13 type  1   force =    -0.00000001    0.00000048    0.00025985
     atom   14 type  1   force =     0.00000002   -0.00000021    0.00025923
     atom   15 type  2   force =    -0.00000003   -0.00000012   -0.00006976
     atom   16 type  2   force =    -0.00000003    0.00000021   -0.00006981
     atom   17 type  1   force =    -0.00000057    0.00000146    0.00025981
     atom   18 type  1   force =     0.00000035   -0.00000027    0.00026032
     atom   19 type  2   force =    -0.00000008   -0.00000004   -0.00006979
     atom   20 type  2   force =     0.00000002    0.00000023   -0.00006982
     atom   21 type  1   force =     0.00000061    0.00000006    0.00026003
     atom   22 type  1   force =     0.00000085   -0.00000084    0.00025940
     atom   23 type  2   force =     0.00000003   -0.00000021   -0.00006983
     atom   24 type  2   force =     0.00000008   -0.00000001   -0.00006979
     The Hubbard contrib.    to forces
     atom    1 type  1   force =     0.00000000    0.00000000    0.00000000
     atom    2 type  1   force =     0.00000000    0.00000000    0.00000000
     atom    3 type  2   force =     0.00000000    0.00000000    0.00000000
     atom    4 type  2   force =     0.00000000    0.00000000    0.00000000
     atom    5 type  1   force =     0.00000000    0.00000000    0.00000000
     atom    6 type  1   force =     0.00000000    0.00000000    0.00000000
     atom    7 type  2   force =     0.00000000    0.00000000    0.00000000
     atom    8 type  2   force =     0.00000000    0.00000000    0.00000000
     atom    9 type  1   force =     0.00000000    0.00000000    0.00000000
     atom   10 type  1   force =     0.00000000    0.00000000    0.00000000
     atom   11 type  2   force =     0.00000000    0.00000000    0.00000000
     atom   12 type  2   force =     0.00000000    0.00000000    0.00000000
     atom   13 type  1   force =     0.00000000    0.00000000    0.00000000
     atom   14 type  1   force =     0.00000000    0.00000000    0.00000000
     atom   15 type  2   force =     0.00000000    0.00000000    0.00000000
     atom   16 type  2   force =     0.00000000    0.00000000    0.00000000
     atom   17 type  1   force =     0.00000000    0.00000000    0.00000000
     atom   18 type  1   force =     0.00000000    0.00000000    0.00000000
     atom   19 type  2   force =     0.00000000    0.00000000    0.00000000
     atom   20 type  2   force =     0.00000000    0.00000000    0.00000000
     atom   21 type  1   force =     0.00000000    0.00000000    0.00000000
     atom   22 type  1   force =     0.00000000    0.00000000    0.00000000
     atom   23 type  2   force =     0.00000000    0.00000000    0.00000000
     atom   24 type  2   force =     0.00000000    0.00000000    0.00000000
     The SCF correction term to forces
     atom    1 type  1   force =    -0.00001303   -0.00003704    0.00000338
     atom    2 type  1   force =     0.00001109    0.00000146   -0.00000374
     atom    3 type  2   force =    -0.00000627   -0.00000762   -0.00000003
     atom    4 type  2   force =     0.00000955    0.00000398   -0.00000323
     atom    5 type  1   force =     0.00003793    0.00007224   -0.00001270
     atom    6 type  1   force =    -0.00002727    0.00001911    0.00001083
     atom    7 type  2   force =     0.00001041    0.00002526   -0.00000062
     atom    8 type  2   force =    -0.00000598    0.00002174   -0.00000076
     atom    9 type  1   force =    -0.00003865   -0.00004762   -0.00002765
     atom   10 type  1   force =    -0.00004625   -0.00005463    0.00001623
     atom   11 type  2   force =    -0.00001266   -0.00002341   -0.00000007
     atom   12 type  2   force =    -0.00001328   -0.00003223    0.00000100
     atom   13 type  1   force =     0.00000809   -0.00001259    0.00001819
     atom   14 type  1   force =    -0.00001136    0.00002845   -0.00000901
     atom   15 type  2   force =     0.00000702   -0.00000757   -0.00000032
     atom   16 type  2   force =    -0.00000752    0.00001242   -0.00000193
     atom   17 type  1   force =    -0.00003733    0.00008672    0.00000357
     atom   18 type  1   force =     0.00002973    0.00005562    0.00001418
     atom   19 type  2   force =    -0.00001125    0.00003719    0.00000009
     atom   20 type  2   force =     0.00000678    0.00002407    0.00000111
     atom   21 type  1   force =     0.00003757   -0.00006700   -0.00000965
     atom   22 type  1   force =     0.00004896   -0.00004251   -0.00000305
     atom   23 type  2   force =     0.00001121   -0.00002558    0.00000159
     atom   24 type  2   force =     0.00001371   -0.00003241   -0.00000100

     Total force =     0.000414     Total SCF correction =     0.000229
     SCF correction compared to forces is large: reduce conv_thr to get better values

     General routines

     Parallel routines

   This run was terminated on:   8: 6:42  10Sep2025

   JOB DONE.
Note: The following floating-point exceptions are signalling: IEEE_UNDERFLOW_FLAG IEEE_DENORMAL
Note: The following floating-point exceptions are signalling: IEEE_UNDERFLOW_FLAG IEEE_DENORMAL
Note: The following floating-point exceptions are signalling: IEEE_UNDERFLOW_FLAG IEEE_DENORMAL
Note: The following floating-point exceptions are signalling: IEEE_UNDERFLOW_FLAG IEEE_DENORMAL
Note: The following floating-point exceptions are signalling: IEEE_UNDERFLOW_FLAG IEEE_DENORMAL
Note: The following floating-point exceptions are signalling: IEEE_UNDERFLOW_FLAG IEEE_DENORMAL
Note: The following floating-point exceptions are signalling: IEEE_UNDERFLOW_FLAG IEEE_DENORMAL
Note: The following floating-point exceptions are signalling: IEEE_UNDERFLOW_FLAG IEEE_DENORMAL
Note: The following floating-point exceptions are signalling: IEEE_UNDERFLOW_FLAG IEEE_DENORMAL
Note: The following floating-point exceptions are signalling: IEEE_UNDERFLOW_FLAG IEEE_DENORMAL
Note: The following floating-point exceptions are signalling: IEEE_UNDERFLOW_FLAG IEEE_DENORMAL
Note: The following floating-point exceptions are signalling: IEEE_UNDERFLOW_FLAG IEEE_DENORMAL
Note: The following floating-point exceptions are signalling: IEEE_UNDERFLOW_FLAG IEEE_DENORMAL
Note: The following floating-point exceptions are signalling: IEEE_UNDERFLOW_FLAG IEEE_DENORMAL
Note: The following floating-point exceptions are signalling: IEEE_UNDERFLOW_FLAG IEEE_DENORMAL
Note: The following floating-point exceptions are signalling: IEEE_UNDERFLOW_FLAG IEEE_DENORMAL
Note: The following floating-point exceptions are signalling: IEEE_UNDERFLOW_FLAG IEEE_DENORMAL
Note: The following floating-point exceptions are signalling: IEEE_UNDERFLOW_FLAG IEEE_DENORMAL
Note: The following floating-point exceptions are signalling: IEEE_UNDERFLOW_FLAG IEEE_DENORMAL
Note: The following floating-point exceptions are signalling: IEEE_UNDERFLOW_FLAG IEEE_DENORMAL
Note: The following floating-point exceptions are signalling: IEEE_UNDERFLOW_FLAG IEEE_DENORMAL
Note: The following floating-point exceptions are signalling: IEEE_UNDERFLOW_FLAG IEEE_DENORMAL
Note: The following floating-point exceptions are signalling: IEEE_UNDERFLOW_FLAG IEEE_DENORMAL
Note: The following floating-point exceptions are signalling: IEEE_UNDERFLOW_FLAG IEEE_DENORMAL
Note: The following floating-point exceptions are signalling: IEEE_UNDERFLOW_FLAG IEEE_DENORMAL
Note: The following floating-point exceptions are signalling: IEEE_UNDERFLOW_FLAG IEEE_DENORMAL
Note: The following floating-point exceptions are signalling: IEEE_UNDERFLOW_FLAG IEEE_DENORMAL
Note: The following floating-point exceptions are signalling: IEEE_UNDERFLOW_FLAG IEEE_DENORMAL
Note: The following floating-point exceptions are signalling: IEEE_UNDERFLOW_FLAG IEEE_DENORMAL
Note: The following floating-point exceptions are signalling: IEEE_UNDERFLOW_FLAG IEEE_DENORMAL
Note: The following floating-point exceptions are signalling: IEEE_UNDERFLOW_FLAG IEEE_DENORMAL
Note: The following floating-point exceptions are signalling: IEEE_UNDERFLOW_FLAG IEEE_DENORMAL