     Program PWSCF v.7.0 starts on  9Sep2025 at 16: 9:34

     K-points division:     npool     =       8
     R & G space division:  proc/nbgrp/npool/nimage =       4

     Reading input from /home/jvc/QEspresso7.2/ZnO_database/scripts/cell231.in/ZnO-3.47-1.68-231.in
Warning: card &CELL ignored
Warning: card / ignored
Warning: card &FCP ignored
Warning: card / ignored
Warning: card &RISM ignored
Warning: card / ignored

     Current dimensions of program PWSCF are:
     Max number of different atomic species (ntypx) = 10
     Max number of k-points (npk) =  40000
     Max angular momentum in pseudopotentials (lmaxx) =  4
     file Zn.upf: wavefunction(s)  3D renormalized
     Found identity + ( -0.0000  0.3333  0.0000) symmetry
     This is a supercell, fractional translations are disabled

     Using Slab Decomposition

     bravais-lattice index     =            0
     lattice parameter (alat)  =      13.0992  a.u.
     unit-cell volume          =    2451.0748 (a.u.)^3
     number of atoms/cell      =           24
     number of atomic types    =            2
     number of electrons       =       216.00
     number of Kohn-Sham states=          108
     kinetic-energy cutoff     =      50.0000  Ry
     charge density cutoff     =     400.0000  Ry
     scf convergence threshold =      1.0E-08
     mixing beta               =       0.3000
     number of iterations used =            8  plain     mixing
     Exchange-correlation= PBE
                           (   1   4   3   4   0   0   0)

     celldm(1)=  13.099170  celldm(2)=   0.000000  celldm(3)=   0.000000
     celldm(4)=   0.000000  celldm(5)=   0.000000  celldm(6)=   0.000000

     crystal axes: (cart. coord. in units of alat)
               a(1) = (   1.000000   0.000000   0.000000 )
               a(2) = (  -0.750000   1.299038   0.000000 )
               a(3) = (   0.000000   0.000000   0.839466 )

     reciprocal axes: (cart. coord. in units 2 pi/alat)
               b(1) = (  1.000000  0.577350 -0.000000 )
               b(2) = (  0.000000  0.769800  0.000000 )
               b(3) = (  0.000000 -0.000000  1.191233 )

     PseudoPot. # 1 for Zn read from file:
     /home/jvc/QEspresso7.2/ZnO_database/pseudos/Zn.upf
     MD5 check sum: 7f56cabf9682ed8c977c2f7d0c5985c5
     Pseudo is Ultrasoft + core correction, Zval = 12.0
     Generated using &quot;atomic&quot; code by A. Dal Corso  v.6.2.2
     Using radial grid of 1201 points,  6 beta functions with:
                l(1) =   0
                l(2) =   0
                l(3) =   1
                l(4) =   1
                l(5) =   2
                l(6) =   2
     Q(r) pseudized with 0 coefficients

     PseudoPot. # 2 for O  read from file:
     /home/jvc/QEspresso7.2/ZnO_database/pseudos/O.upf
     MD5 check sum: 91400c9766925bcf19f520983a725ff0
     Pseudo is Ultrasoft + core correction, Zval =  6.0
     Generated using &quot;atomic&quot; code by A. Dal Corso  v.6.3MaX
     Using radial grid of 1095 points,  4 beta functions with:
                l(1) =   0
                l(2) =   0
                l(3) =   1
                l(4) =   1
     Q(r) pseudized with 0 coefficients

     atomic species   valence    mass     pseudopotential
        Zn            12.00    65.38000     Zn( 1.00)
        O              6.00    15.99900     O ( 1.00)

     No symmetry found

                                    s                        frac. trans.

      isym =  1     identity

 cryst.   s( 1) = (     1          0          0      )
                  (     0          1          0      )
                  (     0          0          1      )

 cart.    s( 1) = (  1.0000000  0.0000000  0.0000000 )
                  (  0.0000000  1.0000000  0.0000000 )
                  (  0.0000000  0.0000000  1.0000000 )

   Cartesian axes

     site n.     atom                  positions (alat units)
         1           Zn  tau(   1) = (   0.2500000   0.1443376   0.4202650  )
         2           Zn  tau(   2) = (  -0.0000000   0.2886751   0.0005319  )
         3           O   tau(   3) = (   0.2500000   0.1443376   0.7384587  )
         4           O   tau(   4) = (  -0.0000000   0.2886751   0.3187256  )
         5           Zn  tau(   5) = (   0.0000000   0.5773503   0.4202650  )
         6           Zn  tau(   6) = (  -0.2500000   0.7216878   0.0005319  )
         7           O   tau(   7) = (   0.0000000   0.5773503   0.7384587  )
         8           O   tau(   8) = (  -0.2500000   0.7216878   0.3187256  )
         9           Zn  tau(   9) = (  -0.2500000   1.0103630   0.4202650  )
        10           Zn  tau(  10) = (  -0.5000000   1.1547005   0.0005319  )
        11           O   tau(  11) = (  -0.2500000   1.0103630   0.7384587  )
        12           O   tau(  12) = (  -0.5000000   1.1547005   0.3187256  )
        13           Zn  tau(  13) = (   0.7500000   0.1443376   0.4202650  )
        14           Zn  tau(  14) = (   0.5000000   0.2886751   0.0005319  )
        15           O   tau(  15) = (   0.7500000   0.1443376   0.7384587  )
        16           O   tau(  16) = (   0.5000000   0.2886751   0.3187256  )
        17           Zn  tau(  17) = (   0.5000000   0.5773503   0.4202650  )
        18           Zn  tau(  18) = (   0.2500000   0.7216878   0.0005319  )
        19           O   tau(  19) = (   0.5000000   0.5773503   0.7384587  )
        20           O   tau(  20) = (   0.2500000   0.7216878   0.3187256  )
        21           Zn  tau(  21) = (   0.2500000   1.0103630   0.4202650  )
        22           Zn  tau(  22) = (   0.0000000   1.1547005   0.0005319  )
        23           O   tau(  23) = (   0.2500000   1.0103630   0.7384587  )
        24           O   tau(  24) = (   0.0000000   1.1547005   0.3187256  )

   Crystallographic axes

     site n.     atom                  positions (cryst. coord.)
         1           Zn  tau(   1) = (  0.3333333  0.1111111  0.5006336  )
         2           Zn  tau(   2) = (  0.1666667  0.2222222  0.0006336  )
         3           O   tau(   3) = (  0.3333333  0.1111111  0.8796764  )
         4           O   tau(   4) = (  0.1666667  0.2222222  0.3796764  )
         5           Zn  tau(   5) = (  0.3333333  0.4444444  0.5006336  )
         6           Zn  tau(   6) = (  0.1666667  0.5555556  0.0006336  )
         7           O   tau(   7) = (  0.3333333  0.4444444  0.8796764  )
         8           O   tau(   8) = (  0.1666667  0.5555556  0.3796764  )
         9           Zn  tau(   9) = (  0.3333333  0.7777778  0.5006336  )
        10           Zn  tau(  10) = (  0.1666667  0.8888889  0.0006336  )
        11           O   tau(  11) = (  0.3333333  0.7777778  0.8796764  )
        12           O   tau(  12) = (  0.1666667  0.8888889  0.3796764  )
        13           Zn  tau(  13) = (  0.8333333  0.1111111  0.5006336  )
        14           Zn  tau(  14) = (  0.6666667  0.2222222  0.0006336  )
        15           O   tau(  15) = (  0.8333333  0.1111111  0.8796764  )
        16           O   tau(  16) = (  0.6666667  0.2222222  0.3796764  )
        17           Zn  tau(  17) = (  0.8333333  0.4444444  0.5006336  )
        18           Zn  tau(  18) = (  0.6666667  0.5555556  0.0006336  )
        19           O   tau(  19) = (  0.8333333  0.4444444  0.8796764  )
        20           O   tau(  20) = (  0.6666667  0.5555556  0.3796764  )
        21           Zn  tau(  21) = (  0.8333333  0.7777778  0.5006336  )
        22           Zn  tau(  22) = (  0.6666667  0.8888889  0.0006336  )
        23           O   tau(  23) = (  0.8333333  0.7777778  0.8796764  )
        24           O   tau(  24) = (  0.6666667  0.8888889  0.3796764  )

     number of k points=   112
                       cart. coord. in units 2pi/alat
        k(    1) = (   0.0000000   0.0000000   0.0000000), wk =   0.0092593
        k(    2) = (   0.0000000   0.0000000   0.1985388), wk =   0.0185185
        k(    3) = (   0.0000000   0.0000000   0.3970777), wk =   0.0185185
        k(    4) = (   0.0000000   0.0000000  -0.5956165), wk =   0.0092593
        k(    5) = (   0.0000000   0.1283001   0.0000000), wk =   0.0185185
        k(    6) = (   0.0000000   0.1283001   0.1985388), wk =   0.0185185
        k(    7) = (   0.0000000   0.1283001   0.3970777), wk =   0.0185185
        k(    8) = (   0.0000000   0.1283001  -0.5956165), wk =   0.0185185
        k(    9) = (   0.0000000   0.2566001   0.0000000), wk =   0.0185185
        k(   10) = (   0.0000000   0.2566001   0.1985388), wk =   0.0185185
        k(   11) = (   0.0000000   0.2566001   0.3970777), wk =   0.0185185
        k(   12) = (   0.0000000   0.2566001  -0.5956165), wk =   0.0185185
        k(   13) = (   0.0000000  -0.3849002   0.0000000), wk =   0.0092593
        k(   14) = (   0.0000000  -0.3849002   0.1985388), wk =   0.0185185
        k(   15) = (   0.0000000  -0.3849002   0.3970777), wk =   0.0185185
        k(   16) = (   0.0000000  -0.3849002  -0.5956165), wk =   0.0092593
        k(   17) = (   0.1666667   0.0962250   0.0000000), wk =   0.0185185
        k(   18) = (   0.1666667   0.0962250   0.1985388), wk =   0.0185185
        k(   19) = (   0.1666667   0.0962250   0.3970777), wk =   0.0185185
        k(   20) = (   0.1666667   0.0962250  -0.5956165), wk =   0.0185185
        k(   21) = (   0.1666667   0.2245251   0.0000000), wk =   0.0185185
        k(   22) = (   0.1666667   0.2245251   0.1985388), wk =   0.0185185
        k(   23) = (   0.1666667   0.2245251   0.3970777), wk =   0.0185185
        k(   24) = (   0.1666667   0.2245251  -0.5956165), wk =   0.0185185
        k(   25) = (   0.1666667   0.3528252   0.0000000), wk =   0.0185185
        k(   26) = (   0.1666667   0.3528252   0.1985388), wk =   0.0185185
        k(   27) = (   0.1666667   0.3528252   0.3970777), wk =   0.0185185
        k(   28) = (   0.1666667   0.3528252  -0.5956165), wk =   0.0185185
        k(   29) = (   0.1666667  -0.2886751   0.0000000), wk =   0.0185185
        k(   30) = (   0.1666667  -0.2886751   0.1985388), wk =   0.0185185
        k(   31) = (   0.1666667  -0.2886751   0.3970777), wk =   0.0185185
        k(   32) = (   0.1666667  -0.2886751  -0.5956165), wk =   0.0185185
        k(   33) = (   0.1666667  -0.1603751   0.0000000), wk =   0.0185185
        k(   34) = (   0.1666667  -0.1603751   0.1985388), wk =   0.0185185
        k(   35) = (   0.1666667  -0.1603751   0.3970777), wk =   0.0185185
        k(   36) = (   0.1666667  -0.1603751  -0.5956165), wk =   0.0185185
        k(   37) = (   0.1666667  -0.0320750   0.0000000), wk =   0.0185185
        k(   38) = (   0.1666667  -0.0320750   0.1985388), wk =   0.0185185
        k(   39) = (   0.1666667  -0.0320750   0.3970777), wk =   0.0185185
        k(   40) = (   0.1666667  -0.0320750  -0.5956165), wk =   0.0185185
        k(   41) = (   0.3333333   0.1924501   0.0000000), wk =   0.0185185
        k(   42) = (   0.3333333   0.1924501   0.1985388), wk =   0.0185185
        k(   43) = (   0.3333333   0.1924501   0.3970777), wk =   0.0185185
        k(   44) = (   0.3333333   0.1924501  -0.5956165), wk =   0.0185185
        k(   45) = (   0.3333333   0.3207501   0.0000000), wk =   0.0185185
[...]

!    total energy              =   -2169.50592391 Ry
     estimated scf accuracy    <          4.9E-09 Ry

     The total energy is the sum of the following terms:
     one-electron contribution =   -1070.60537516 Ry
     hartree contribution      =     761.82657058 Ry
     xc contribution           =    -654.94654384 Ry
     ewald contribution        =   -1205.78057548 Ry

     convergence has been achieved in  37 iterations

     Forces acting on atoms (cartesian axes, Ry/au):

     atom    1 type  1   force =     0.00000092   -0.00000394   -0.00193577
     atom    2 type  1   force =    -0.00000007   -0.00000475   -0.00192068
     atom    3 type  2   force =    -0.00000003    0.00000060    0.00192751
     atom    4 type  2   force =     0.00000005   -0.00000040    0.00192744
     atom    5 type  1   force =    -0.00000131   -0.00000290   -0.00193028
     atom    6 type  1   force =    -0.00000468   -0.00000153   -0.00192505
     atom    7 type  2   force =     0.00000009    0.00000058    0.00192743
     atom    8 type  2   force =     0.00000006   -0.00000067    0.00192740
     atom    9 type  1   force =    -0.00000327    0.00000805   -0.00193320
     atom   10 type  1   force =    -0.00000065   -0.00000011   -0.00192103
     atom   11 type  2   force =     0.00000002    0.00000061    0.00192758
     atom   12 type  2   force =     0.00000008   -0.00000066    0.00192762
     atom   13 type  1   force =    -0.00000107   -0.00000261   -0.00193546
     atom   14 type  1   force =    -0.00000037    0.00000052   -0.00192159
     atom   15 type  2   force =     0.00000011    0.00000055    0.00192767
     atom   16 type  2   force =     0.00000008   -0.00000054    0.00192756
     atom   17 type  1   force =     0.00000194   -0.00000280   -0.00192948
     atom   18 type  1   force =     0.00000486   -0.00000123   -0.00192511
     atom   19 type  2   force =     0.00000009    0.00000065    0.00192766
     atom   20 type  2   force =    -0.00000001   -0.00000065    0.00192733
     atom   21 type  1   force =     0.00000235    0.00000955   -0.00193283
     atom   22 type  1   force =     0.00000069    0.00000149   -0.00191983
     atom   23 type  2   force =     0.00000008    0.00000065    0.00192758
     atom   24 type  2   force =     0.00000003   -0.00000047    0.00192755
     The non-local contrib.  to forces
     atom    1 type  1   force =     0.00000008   -0.00000943    0.09339502
     atom    2 type  1   force =     0.00000005    0.00000474    0.09340295
     atom    3 type  2   force =    -0.00000035    0.00001077    0.10773310
     atom    4 type  2   force =    -0.00000038   -0.00000756    0.10773260
     atom    5 type  1   force =    -0.00000058   -0.00000873    0.09339836
     atom    6 type  1   force =    -0.00000245    0.00000654    0.09340058
     atom    7 type  2   force =     0.00000054    0.00001050    0.10773296
     atom    8 type  2   force =     0.00000080   -0.00001061    0.10773258
     atom    9 type  1   force =    -0.00000175   -0.00000309    0.09339661
     atom   10 type  1   force =     0.00000006    0.00000744    0.09340246
     atom   11 type  2   force =     0.00000095    0.00000924    0.10773338
     atom   12 type  2   force =    -0.00000030   -0.00001136    0.10773292
     atom   13 type  1   force =    -0.00000043   -0.00000875    0.09339492
     atom   14 type  1   force =     0.00000004    0.00000677    0.09340230
     atom   15 type  2   force =     0.00000065    0.00001042    0.10773340
     atom   16 type  2   force =     0.00000001   -0.00000873    0.10773321
     atom   17 type  1   force =     0.00000034   -0.00000812    0.09339859
     atom   18 type  1   force =     0.00000279    0.00000659    0.09340074
     atom   19 type  2   force =     0.00000027    0.00001069    0.10773327
     atom   20 type  2   force =    -0.00000124   -0.00001069    0.10773266
     atom   21 type  1   force =     0.00000143   -0.00000269    0.09339663
     atom   22 type  1   force =     0.00000036    0.00000874    0.09340306
     atom   23 type  2   force =    -0.00000039    0.00000900    0.10773320
     atom   24 type  2   force =    -0.00000016   -0.00001114    0.10773333
     The ionic contribution  to forces
     atom    1 type  1   force =    -0.00000000    0.00000001    0.75656947
     atom    2 type  1   force =     0.00000001    0.00000001    0.75656947
     atom    3 type  2   force =    -0.00000000    0.00000001   -0.75656947
     atom    4 type  2   force =     0.00000001    0.00000000   -0.75656947
     atom    5 type  1   force =    -0.00000001    0.00000001    0.75656947
     atom    6 type  1   force =     0.00000001   -0.00000000    0.75656947
     atom    7 type  2   force =    -0.00000001    0.00000000   -0.75656947
     atom    8 type  2   force =     0.00000001   -0.00000000   -0.75656947
     atom    9 type  1   force =    -0.00000000   -0.00000000    0.75656947
     atom   10 type  1   force =     0.00000001   -0.00000000    0.75656947
     atom   11 type  2   force =    -0.00000000    0.00000000   -0.75656947
     atom   12 type  2   force =     0.00000001   -0.00000000   -0.75656947
     atom   13 type  1   force =    -0.00000001    0.00000000    0.75656948
     atom   14 type  1   force =    -0.00000001    0.00000001    0.75656947
     atom   15 type  2   force =    -0.00000001    0.00000000   -0.75656948
     atom   16 type  2   force =    -0.00000000    0.00000000   -0.75656947
     atom   17 type  1   force =    -0.00000002    0.00000001    0.75656947
     atom   18 type  1   force =     0.00000001   -0.00000001    0.75656947
     atom   19 type  2   force =    -0.00000001    0.00000000   -0.75656947
     atom   20 type  2   force =     0.00000001   -0.00000001   -0.75656947
     atom   21 type  1   force =    -0.00000000   -0.00000001    0.75656948
     atom   22 type  1   force =    -0.00000001   -0.00000001    0.75656947
     atom   23 type  2   force =    -0.00000000   -0.00000001   -0.75656948
     atom   24 type  2   force =    -0.00000000   -0.00000000   -0.75656947
     The local contribution  to forces
     atom    1 type  1   force =    -0.00000099    0.00001404   -0.84627386
     atom    2 type  1   force =    -0.00000011   -0.00000146   -0.84629749
     atom    3 type  2   force =     0.00000005   -0.00000809    0.65173652
     atom    4 type  2   force =     0.00000012    0.00001145    0.65174180
     atom    5 type  1   force =     0.00000180    0.00001305   -0.84628252
     atom    6 type  1   force =     0.00000777   -0.00000587   -0.84629009
     atom    7 type  2   force =    -0.00000062   -0.00000801    0.65173802
     atom    8 type  2   force =     0.00000171    0.00000993    0.65174033
     atom    9 type  1   force =     0.00000459   -0.00000475   -0.84627812
     atom   10 type  1   force =     0.00000034   -0.00000752   -0.84629760
     atom   11 type  2   force =     0.00000177   -0.00001161    0.65173701
     atom   12 type  2   force =     0.00000006    0.00000840    0.65174104
     atom   13 type  1   force =     0.00000147    0.00001176   -0.84627389
     atom   14 type  1   force =     0.00000019   -0.00000901   -0.84629598
     atom   15 type  2   force =    -0.00000074   -0.00000844    0.65173461
     atom   16 type  2   force =    -0.00000011    0.00001159    0.65174136
     atom   17 type  1   force =    -0.00000179    0.00001253   -0.84628510
     atom   18 type  1   force =    -0.00000812   -0.00000613   -0.84628977
     atom   19 type  2   force =    -0.00000045   -0.00000886    0.65173711
     atom   20 type  2   force =    -0.00000057    0.00000960    0.65174107
     atom   21 type  1   force =    -0.00000377   -0.00000644   -0.84627854
     atom   22 type  1   force =    -0.00000086   -0.00001013   -0.84629845
     atom   23 type  2   force =    -0.00000208   -0.00001245    0.65173670
     atom   24 type  2   force =     0.00000020    0.00000586    0.65174170
     The core correction contribution to forces
     atom    1 type  1   force =     0.00000009    0.00000045   -0.00560692
     atom    2 type  1   force =     0.00000005   -0.00000069   -0.00560658
     atom    3 type  2   force =     0.00000001   -0.00000012   -0.00097695
     atom    4 type  2   force =     0.00000000    0.00000010   -0.00097694
     atom    5 type  1   force =    -0.00000003    0.00000065   -0.00560687
     atom    6 type  1   force =    -0.00000013   -0.00000078   -0.00560673
     atom    7 type  2   force =    -0.00000001   -0.00000010   -0.00097695
     atom    8 type  2   force =    -0.00000000    0.00000011   -0.00097694
     atom    9 type  1   force =    -0.00000006    0.00000086   -0.00560690
     atom   10 type  1   force =    -0.00000006   -0.00000056   -0.00560649
     atom   11 type  2   force =    -0.00000001   -0.00000012   -0.00097695
     atom   12 type  2   force =    -0.00000000    0.00000013   -0.00097694
     atom   13 type  1   force =     0.00000003    0.00000049   -0.00560693
     atom   14 type  1   force =     0.00000003   -0.00000054   -0.00560659
     atom   15 type  2   force =    -0.00000000   -0.00000012   -0.00097696
     atom   16 type  2   force =    -0.00000000    0.00000011   -0.00097694
     atom   17 type  1   force =     0.00000001    0.00000062   -0.00560672
     atom   18 type  1   force =     0.00000013   -0.00000078   -0.00560678
     atom   19 type  2   force =    -0.00000001   -0.00000011   -0.00097695
     atom   20 type  2   force =     0.00000002    0.00000011   -0.00097694
     atom   21 type  1   force =    -0.00000000    0.00000088   -0.00560688
     atom   22 type  1   force =    -0.00000005   -0.00000057   -0.00560654
     atom   23 type  2   force =     0.00000000   -0.00000012   -0.00097695
     atom   24 type  2   force =    -0.00000000    0.00000012   -0.00097694
     The Hubbard contrib.    to forces
     atom    1 type  1   force =     0.00000000    0.00000000    0.00000000
     atom    2 type  1   force =     0.00000000    0.00000000    0.00000000
     atom    3 type  2   force =     0.00000000    0.00000000    0.00000000
     atom    4 type  2   force =     0.00000000    0.00000000    0.00000000
     atom    5 type  1   force =     0.00000000    0.00000000    0.00000000
     atom    6 type  1   force =     0.00000000    0.00000000    0.00000000
     atom    7 type  2   force =     0.00000000    0.00000000    0.00000000
     atom    8 type  2   force =     0.00000000    0.00000000    0.00000000
     atom    9 type  1   force =     0.00000000    0.00000000    0.00000000
     atom   10 type  1   force =     0.00000000    0.00000000    0.00000000
     atom   11 type  2   force =     0.00000000    0.00000000    0.00000000
     atom   12 type  2   force =     0.00000000    0.00000000    0.00000000
     atom   13 type  1   force =     0.00000000    0.00000000    0.00000000
     atom   14 type  1   force =     0.00000000    0.00000000    0.00000000
     atom   15 type  2   force =     0.00000000    0.00000000    0.00000000
     atom   16 type  2   force =     0.00000000    0.00000000    0.00000000
     atom   17 type  1   force =     0.00000000    0.00000000    0.00000000
     atom   18 type  1   force =     0.00000000    0.00000000    0.00000000
     atom   19 type  2   force =     0.00000000    0.00000000    0.00000000
     atom   20 type  2   force =     0.00000000    0.00000000    0.00000000
     atom   21 type  1   force =     0.00000000    0.00000000    0.00000000
     atom   22 type  1   force =     0.00000000    0.00000000    0.00000000
     atom   23 type  2   force =     0.00000000    0.00000000    0.00000000
     atom   24 type  2   force =     0.00000000    0.00000000    0.00000000
     The SCF correction term to forces
     atom    1 type  1   force =     0.00000169   -0.00000900   -0.00002150
     atom    2 type  1   force =    -0.00000012   -0.00000735    0.00000894
     atom    3 type  2   force =     0.00000021   -0.00000197    0.00000228
     atom    4 type  2   force =     0.00000026   -0.00000440   -0.00000259
     atom    5 type  1   force =    -0.00000255   -0.00000789   -0.00001074
     atom    6 type  1   force =    -0.00000992   -0.00000142   -0.00000030
     atom    7 type  2   force =     0.00000015   -0.00000182    0.00000084
     atom    8 type  2   force =    -0.00000251   -0.00000011   -0.00000112
     atom    9 type  1   force =    -0.00000609    0.00001503   -0.00001630
     atom   10 type  1   force =    -0.00000105    0.00000052    0.00000909
     atom   11 type  2   force =    -0.00000274    0.00000309    0.00000158
     atom   12 type  2   force =     0.00000027    0.00000216   -0.00000196
     atom   13 type  1   force =    -0.00000218   -0.00000611   -0.00002107
     atom   14 type  1   force =    -0.00000067    0.00000329    0.00000717
     atom   15 type  2   force =     0.00000016   -0.00000132    0.00000406
     atom   16 type  2   force =     0.00000014   -0.00000353   -0.00000262
     atom   17 type  1   force =     0.00000334   -0.00000783   -0.00000775
     atom   18 type  1   force =     0.00001001   -0.00000090   -0.00000080
     atom   19 type  2   force =     0.00000025   -0.00000109    0.00000166
     atom   20 type  2   force =     0.00000172    0.00000034   -0.00000202
     atom   21 type  1   force =     0.00000465    0.00001781   -0.00001555
     atom   22 type  1   force =     0.00000120    0.00000345    0.00001060
     atom   23 type  2   force =     0.00000251    0.00000422    0.00000207
     atom   24 type  2   force =    -0.00000005    0.00000469   -0.00000309

     Total force =     0.009443     Total SCF correction =     0.000057

     General routines

     Parallel routines

   This run was terminated on:  16:50:21   9Sep2025

   JOB DONE.
Note: The following floating-point exceptions are signalling: IEEE_UNDERFLOW_FLAG IEEE_DENORMAL
Note: The following floating-point exceptions are signalling: IEEE_UNDERFLOW_FLAG IEEE_DENORMAL
Note: The following floating-point exceptions are signalling: IEEE_UNDERFLOW_FLAG IEEE_DENORMAL
Note: The following floating-point exceptions are signalling: IEEE_UNDERFLOW_FLAG IEEE_DENORMAL
Note: The following floating-point exceptions are signalling: IEEE_UNDERFLOW_FLAG IEEE_DENORMAL
Note: The following floating-point exceptions are signalling: IEEE_UNDERFLOW_FLAG IEEE_DENORMAL
Note: The following floating-point exceptions are signalling: IEEE_UNDERFLOW_FLAG IEEE_DENORMAL
Note: The following floating-point exceptions are signalling: IEEE_UNDERFLOW_FLAG IEEE_DENORMAL
Note: The following floating-point exceptions are signalling: IEEE_UNDERFLOW_FLAG IEEE_DENORMAL
Note: The following floating-point exceptions are signalling: IEEE_UNDERFLOW_FLAG IEEE_DENORMAL
Note: The following floating-point exceptions are signalling: IEEE_UNDERFLOW_FLAG IEEE_DENORMAL
Note: The following floating-point exceptions are signalling: IEEE_UNDERFLOW_FLAG IEEE_DENORMAL
Note: The following floating-point exceptions are signalling: IEEE_UNDERFLOW_FLAG IEEE_DENORMAL
Note: The following floating-point exceptions are signalling: IEEE_UNDERFLOW_FLAG IEEE_DENORMAL
Note: The following floating-point exceptions are signalling: IEEE_UNDERFLOW_FLAG IEEE_DENORMAL
Note: The following floating-point exceptions are signalling: IEEE_UNDERFLOW_FLAG IEEE_DENORMAL
Note: The following floating-point exceptions are signalling: IEEE_UNDERFLOW_FLAG IEEE_DENORMAL
Note: The following floating-point exceptions are signalling: IEEE_UNDERFLOW_FLAG IEEE_DENORMAL
Note: The following floating-point exceptions are signalling: IEEE_UNDERFLOW_FLAG IEEE_DENORMAL
Note: The following floating-point exceptions are signalling: IEEE_UNDERFLOW_FLAG IEEE_DENORMAL
Note: The following floating-point exceptions are signalling: IEEE_UNDERFLOW_FLAG IEEE_DENORMAL
Note: The following floating-point exceptions are signalling: IEEE_UNDERFLOW_FLAG IEEE_DENORMAL
Note: The following floating-point exceptions are signalling: IEEE_UNDERFLOW_FLAG IEEE_DENORMAL
Note: The following floating-point exceptions are signalling: IEEE_UNDERFLOW_FLAG IEEE_DENORMAL
Note: The following floating-point exceptions are signalling: IEEE_UNDERFLOW_FLAG IEEE_DENORMAL
Note: The following floating-point exceptions are signalling: IEEE_UNDERFLOW_FLAG IEEE_DENORMAL
Note: The following floating-point exceptions are signalling: IEEE_UNDERFLOW_FLAG IEEE_DENORMAL
Note: The following floating-point exceptions are signalling: IEEE_UNDERFLOW_FLAG IEEE_DENORMAL
Note: The following floating-point exceptions are signalling: IEEE_UNDERFLOW_FLAG IEEE_DENORMAL
Note: The following floating-point exceptions are signalling: IEEE_UNDERFLOW_FLAG IEEE_DENORMAL
Note: The following floating-point exceptions are signalling: IEEE_UNDERFLOW_FLAG IEEE_DENORMAL
Note: The following floating-point exceptions are signalling: IEEE_UNDERFLOW_FLAG IEEE_DENORMAL