     Program PWSCF v.7.0 starts on  8Sep2025 at  7:33:30

     K-points division:     npool     =       8
     R & G space division:  proc/nbgrp/npool/nimage =       4

     Reading input from /home/jvc/QEspresso7.2/ZnO_database/scripts/cell231.in/ZnO-3.14-1.74-231.in
Warning: card &CELL ignored
Warning: card / ignored
Warning: card &FCP ignored
Warning: card / ignored
Warning: card &RISM ignored
Warning: card / ignored

     Current dimensions of program PWSCF are:
     Max number of different atomic species (ntypx) = 10
     Max number of k-points (npk) =  40000
     Max angular momentum in pseudopotentials (lmaxx) =  4
     file Zn.upf: wavefunction(s)  3D renormalized
     Found identity + (  0.0000  0.3333  0.0000) symmetry
     This is a supercell, fractional translations are disabled

     Using Slab Decomposition

     bravais-lattice index     =            0
     lattice parameter (alat)  =      11.8634  a.u.
     unit-cell volume          =    1890.7890 (a.u.)^3
     number of atoms/cell      =           24
     number of atomic types    =            2
     number of electrons       =       216.00
     number of Kohn-Sham states=          108
     kinetic-energy cutoff     =      50.0000  Ry
     charge density cutoff     =     400.0000  Ry
     scf convergence threshold =      1.0E-08
     mixing beta               =       0.3000
     number of iterations used =            8  plain     mixing
     Exchange-correlation= PBE
                           (   1   4   3   4   0   0   0)

     celldm(1)=  11.863400  celldm(2)=   0.000000  celldm(3)=   0.000000
     celldm(4)=   0.000000  celldm(5)=   0.000000  celldm(6)=   0.000000

     crystal axes: (cart. coord. in units of alat)
               a(1) = (   1.000000   0.000000   0.000000 )
               a(2) = (  -0.750000   1.299038   0.000000 )
               a(3) = (   0.000000   0.000000   0.871754 )

     reciprocal axes: (cart. coord. in units 2 pi/alat)
               b(1) = (  1.000000  0.577350 -0.000000 )
               b(2) = (  0.000000  0.769800  0.000000 )
               b(3) = (  0.000000 -0.000000  1.147113 )

     PseudoPot. # 1 for Zn read from file:
     /home/jvc/QEspresso7.2/ZnO_database/pseudos/Zn.upf
     MD5 check sum: 7f56cabf9682ed8c977c2f7d0c5985c5
     Pseudo is Ultrasoft + core correction, Zval = 12.0
     Generated using &quot;atomic&quot; code by A. Dal Corso  v.6.2.2
     Using radial grid of 1201 points,  6 beta functions with:
                l(1) =   0
                l(2) =   0
                l(3) =   1
                l(4) =   1
                l(5) =   2
                l(6) =   2
     Q(r) pseudized with 0 coefficients

     PseudoPot. # 2 for O  read from file:
     /home/jvc/QEspresso7.2/ZnO_database/pseudos/O.upf
     MD5 check sum: 91400c9766925bcf19f520983a725ff0
     Pseudo is Ultrasoft + core correction, Zval =  6.0
     Generated using &quot;atomic&quot; code by A. Dal Corso  v.6.3MaX
     Using radial grid of 1095 points,  4 beta functions with:
                l(1) =   0
                l(2) =   0
                l(3) =   1
                l(4) =   1
     Q(r) pseudized with 0 coefficients

     atomic species   valence    mass     pseudopotential
        Zn            12.00    65.38000     Zn( 1.00)
        O              6.00    15.99900     O ( 1.00)

     No symmetry found

                                    s                        frac. trans.

      isym =  1     identity

 cryst.   s( 1) = (     1          0          0      )
                  (     0          1          0      )
                  (     0          0          1      )

 cart.    s( 1) = (  1.0000000  0.0000000  0.0000000 )
                  (  0.0000000  1.0000000  0.0000000 )
                  (  0.0000000  0.0000000  1.0000000 )

   Cartesian axes

     site n.     atom                  positions (alat units)
         1           Zn  tau(   1) = (   0.2500000   0.1443376   0.4364291  )
         2           Zn  tau(   2) = (  -0.0000000   0.2886751   0.0005523  )
         3           O   tau(   3) = (   0.2500000   0.1443376   0.7668610  )
         4           O   tau(   4) = (  -0.0000000   0.2886751   0.3309842  )
         5           Zn  tau(   5) = (  -0.0000000   0.5773503   0.4364291  )
         6           Zn  tau(   6) = (  -0.2500000   0.7216878   0.0005523  )
         7           O   tau(   7) = (  -0.0000000   0.5773503   0.7668610  )
         8           O   tau(   8) = (  -0.2500000   0.7216878   0.3309842  )
         9           Zn  tau(   9) = (  -0.2500000   1.0103630   0.4364291  )
        10           Zn  tau(  10) = (  -0.5000000   1.1547005   0.0005523  )
        11           O   tau(  11) = (  -0.2500000   1.0103630   0.7668610  )
        12           O   tau(  12) = (  -0.5000000   1.1547005   0.3309842  )
        13           Zn  tau(  13) = (   0.7500000   0.1443376   0.4364291  )
        14           Zn  tau(  14) = (   0.5000000   0.2886751   0.0005523  )
        15           O   tau(  15) = (   0.7500000   0.1443376   0.7668610  )
        16           O   tau(  16) = (   0.5000000   0.2886751   0.3309842  )
        17           Zn  tau(  17) = (   0.5000000   0.5773503   0.4364291  )
        18           Zn  tau(  18) = (   0.2500000   0.7216878   0.0005523  )
        19           O   tau(  19) = (   0.5000000   0.5773503   0.7668610  )
        20           O   tau(  20) = (   0.2500000   0.7216878   0.3309842  )
        21           Zn  tau(  21) = (   0.2500000   1.0103630   0.4364291  )
        22           Zn  tau(  22) = (  -0.0000000   1.1547005   0.0005523  )
        23           O   tau(  23) = (   0.2500000   1.0103630   0.7668610  )
        24           O   tau(  24) = (  -0.0000000   1.1547005   0.3309842  )

   Crystallographic axes

     site n.     atom                  positions (cryst. coord.)
         1           Zn  tau(   1) = (  0.3333333  0.1111111  0.5006336  )
         2           Zn  tau(   2) = (  0.1666667  0.2222222  0.0006336  )
         3           O   tau(   3) = (  0.3333333  0.1111111  0.8796764  )
         4           O   tau(   4) = (  0.1666667  0.2222222  0.3796764  )
         5           Zn  tau(   5) = (  0.3333333  0.4444444  0.5006336  )
         6           Zn  tau(   6) = (  0.1666667  0.5555556  0.0006336  )
         7           O   tau(   7) = (  0.3333333  0.4444444  0.8796764  )
         8           O   tau(   8) = (  0.1666667  0.5555556  0.3796764  )
         9           Zn  tau(   9) = (  0.3333333  0.7777778  0.5006336  )
        10           Zn  tau(  10) = (  0.1666667  0.8888889  0.0006336  )
        11           O   tau(  11) = (  0.3333333  0.7777778  0.8796764  )
        12           O   tau(  12) = (  0.1666667  0.8888889  0.3796764  )
        13           Zn  tau(  13) = (  0.8333333  0.1111111  0.5006336  )
        14           Zn  tau(  14) = (  0.6666667  0.2222222  0.0006336  )
        15           O   tau(  15) = (  0.8333333  0.1111111  0.8796764  )
        16           O   tau(  16) = (  0.6666667  0.2222222  0.3796764  )
        17           Zn  tau(  17) = (  0.8333333  0.4444444  0.5006336  )
        18           Zn  tau(  18) = (  0.6666667  0.5555556  0.0006336  )
        19           O   tau(  19) = (  0.8333333  0.4444444  0.8796764  )
        20           O   tau(  20) = (  0.6666667  0.5555556  0.3796764  )
        21           Zn  tau(  21) = (  0.8333333  0.7777778  0.5006336  )
        22           Zn  tau(  22) = (  0.6666667  0.8888889  0.0006336  )
        23           O   tau(  23) = (  0.8333333  0.7777778  0.8796764  )
        24           O   tau(  24) = (  0.6666667  0.8888889  0.3796764  )

     number of k points=   112
                       cart. coord. in units 2pi/alat
        k(    1) = (   0.0000000   0.0000000   0.0000000), wk =   0.0092593
        k(    2) = (   0.0000000   0.0000000   0.1911855), wk =   0.0185185
        k(    3) = (   0.0000000   0.0000000   0.3823711), wk =   0.0185185
        k(    4) = (   0.0000000   0.0000000  -0.5735566), wk =   0.0092593
        k(    5) = (   0.0000000   0.1283001   0.0000000), wk =   0.0185185
        k(    6) = (   0.0000000   0.1283001   0.1911855), wk =   0.0185185
        k(    7) = (   0.0000000   0.1283001   0.3823711), wk =   0.0185185
        k(    8) = (   0.0000000   0.1283001  -0.5735566), wk =   0.0185185
        k(    9) = (   0.0000000   0.2566001   0.0000000), wk =   0.0185185
        k(   10) = (   0.0000000   0.2566001   0.1911855), wk =   0.0185185
        k(   11) = (   0.0000000   0.2566001   0.3823711), wk =   0.0185185
        k(   12) = (   0.0000000   0.2566001  -0.5735566), wk =   0.0185185
        k(   13) = (   0.0000000  -0.3849002   0.0000000), wk =   0.0092593
        k(   14) = (   0.0000000  -0.3849002   0.1911855), wk =   0.0185185
        k(   15) = (   0.0000000  -0.3849002   0.3823711), wk =   0.0185185
        k(   16) = (   0.0000000  -0.3849002  -0.5735566), wk =   0.0092593
        k(   17) = (   0.1666667   0.0962250   0.0000000), wk =   0.0185185
        k(   18) = (   0.1666667   0.0962250   0.1911855), wk =   0.0185185
        k(   19) = (   0.1666667   0.0962250   0.3823711), wk =   0.0185185
        k(   20) = (   0.1666667   0.0962250  -0.5735566), wk =   0.0185185
        k(   21) = (   0.1666667   0.2245251   0.0000000), wk =   0.0185185
        k(   22) = (   0.1666667   0.2245251   0.1911855), wk =   0.0185185
        k(   23) = (   0.1666667   0.2245251   0.3823711), wk =   0.0185185
        k(   24) = (   0.1666667   0.2245251  -0.5735566), wk =   0.0185185
        k(   25) = (   0.1666667   0.3528252   0.0000000), wk =   0.0185185
        k(   26) = (   0.1666667   0.3528252   0.1911855), wk =   0.0185185
        k(   27) = (   0.1666667   0.3528252   0.3823711), wk =   0.0185185
        k(   28) = (   0.1666667   0.3528252  -0.5735566), wk =   0.0185185
        k(   29) = (   0.1666667  -0.2886751   0.0000000), wk =   0.0185185
        k(   30) = (   0.1666667  -0.2886751   0.1911855), wk =   0.0185185
        k(   31) = (   0.1666667  -0.2886751   0.3823711), wk =   0.0185185
        k(   32) = (   0.1666667  -0.2886751  -0.5735566), wk =   0.0185185
        k(   33) = (   0.1666667  -0.1603751   0.0000000), wk =   0.0185185
        k(   34) = (   0.1666667  -0.1603751   0.1911855), wk =   0.0185185
        k(   35) = (   0.1666667  -0.1603751   0.3823711), wk =   0.0185185
        k(   36) = (   0.1666667  -0.1603751  -0.5735566), wk =   0.0185185
        k(   37) = (   0.1666667  -0.0320750   0.0000000), wk =   0.0185185
        k(   38) = (   0.1666667  -0.0320750   0.1911855), wk =   0.0185185
        k(   39) = (   0.1666667  -0.0320750   0.3823711), wk =   0.0185185
        k(   40) = (   0.1666667  -0.0320750  -0.5735566), wk =   0.0185185
        k(   41) = (   0.3333333   0.1924501   0.0000000), wk =   0.0185185
        k(   42) = (   0.3333333   0.1924501   0.1911855), wk =   0.0185185
        k(   43) = (   0.3333333   0.1924501   0.3823711), wk =   0.0185185
        k(   44) = (   0.3333333   0.1924501  -0.5735566), wk =   0.0185185
        k(   45) = (   0.3333333   0.3207501   0.0000000), wk =   0.0185185
[...]

!    total energy              =   -2169.73492070 Ry
     estimated scf accuracy    <          7.0E-09 Ry

     The total energy is the sum of the following terms:
     one-electron contribution =    -897.93072098 Ry
     hartree contribution      =     699.62423912 Ry
     xc contribution           =    -657.87330291 Ry
     ewald contribution        =   -1313.55513593 Ry

     convergence has been achieved in  33 iterations

     Forces acting on atoms (cartesian axes, Ry/au):

     atom    1 type  1   force =    -0.00000216   -0.00000067    0.02414326
     atom    2 type  1   force =    -0.00000213   -0.00000520    0.02414012
     atom    3 type  2   force =     0.00000042    0.00000090   -0.02413723
     atom    4 type  2   force =    -0.00000006    0.00000056   -0.02413827
     atom    5 type  1   force =     0.00000141    0.00001479    0.02413659
     atom    6 type  1   force =     0.00000777   -0.00000830    0.02413886
     atom    7 type  2   force =     0.00000009    0.00000089   -0.02413677
     atom    8 type  2   force =     0.00000056   -0.00000031   -0.02413748
     atom    9 type  1   force =     0.00000780    0.00000897    0.02413456
     atom   10 type  1   force =     0.00000046    0.00000210    0.02413358
     atom   11 type  2   force =     0.00000029    0.00000073   -0.02413826
     atom   12 type  2   force =     0.00000072   -0.00000025   -0.02413733
     atom   13 type  1   force =    -0.00000136   -0.00000933    0.02413113
     atom   14 type  1   force =     0.00000320   -0.00000803    0.02414284
     atom   15 type  2   force =     0.00000043    0.00000117   -0.02413754
     atom   16 type  2   force =     0.00000071   -0.00000045   -0.02413751
     atom   17 type  1   force =    -0.00000136    0.00000524    0.02413624
     atom   18 type  1   force =    -0.00001010   -0.00000540    0.02413305
     atom   19 type  2   force =     0.00000079    0.00000153   -0.02413836
     atom   20 type  2   force =     0.00000010   -0.00000042   -0.02413715
     atom   21 type  1   force =    -0.00001116    0.00000054    0.02414073
     atom   22 type  1   force =     0.00000251   -0.00000003    0.02413914
     atom   23 type  2   force =     0.00000078    0.00000080   -0.02413752
     atom   24 type  2   force =     0.00000029    0.00000021   -0.02413666
     The non-local contrib.  to forces
     atom    1 type  1   force =    -0.00000081   -0.00000359    0.21305691
     atom    2 type  1   force =    -0.00000118    0.00000289    0.21305628
     atom    3 type  2   force =     0.00000024    0.00000824    0.19286833
     atom    4 type  2   force =    -0.00000104   -0.00000646    0.19286803
     atom    5 type  1   force =     0.00000119    0.00000206    0.21305443
     atom    6 type  1   force =     0.00000428    0.00000226    0.21305593
     atom    7 type  2   force =    -0.00000202    0.00000560    0.19286900
     atom    8 type  2   force =    -0.00000398   -0.00000799    0.19286767
     atom    9 type  1   force =     0.00000561   -0.00000173    0.21305520
     atom   10 type  1   force =     0.00000060    0.00000544    0.21305428
     atom   11 type  2   force =    -0.00000224    0.00000577    0.19286792
     atom   12 type  2   force =    -0.00000083   -0.00000631    0.19286759
     atom   13 type  1   force =     0.00000019   -0.00000839    0.21305336
     atom   14 type  1   force =     0.00000039    0.00000002    0.21305762
     atom   15 type  2   force =    -0.00000153    0.00000935    0.19286596
     atom   16 type  2   force =    -0.00000128   -0.00000703    0.19286921
     atom   17 type  1   force =    -0.00000053   -0.00000151    0.21305640
     atom   18 type  1   force =    -0.00000474    0.00000222    0.21305401
     atom   19 type  2   force =     0.00000067    0.00000683    0.19286566
     atom   20 type  2   force =     0.00000344   -0.00000807    0.19286675
     atom   21 type  1   force =    -0.00000689   -0.00000441    0.21305692
     atom   22 type  1   force =     0.00000012    0.00000418    0.21305664
     atom   23 type  2   force =     0.00000219    0.00000761    0.19286958
     atom   24 type  2   force =    -0.00000062   -0.00000475    0.19286865
     The ionic contribution  to forces
     atom    1 type  1   force =     0.00000001    0.00000001    1.70690923
     atom    2 type  1   force =     0.00000002    0.00000002    1.70690924
     atom    3 type  2   force =     0.00000001    0.00000001   -1.70690923
     atom    4 type  2   force =     0.00000001    0.00000001   -1.70690924
     atom    5 type  1   force =     0.00000000    0.00000001    1.70690923
     atom    6 type  1   force =     0.00000001   -0.00000000    1.70690924
     atom    7 type  2   force =    -0.00000000    0.00000001   -1.70690923
     atom    8 type  2   force =     0.00000001    0.00000000   -1.70690924
     atom    9 type  1   force =    -0.00000000   -0.00000001    1.70690924
     atom   10 type  1   force =     0.00000000   -0.00000000    1.70690924
     atom   11 type  2   force =    -0.00000000   -0.00000000   -1.70690924
     atom   12 type  2   force =     0.00000000   -0.00000000   -1.70690924
     atom   13 type  1   force =    -0.00000001    0.00000000    1.70690924
     atom   14 type  1   force =    -0.00000002    0.00000001    1.70690923
     atom   15 type  2   force =    -0.00000001   -0.00000000   -1.70690924
     atom   16 type  2   force =    -0.00000001   -0.00000000   -1.70690923
     atom   17 type  1   force =    -0.00000003    0.00000001    1.70690923
     atom   18 type  1   force =     0.00000001   -0.00000002    1.70690923
     atom   19 type  2   force =    -0.00000002    0.00000000   -1.70690923
     atom   20 type  2   force =     0.00000001   -0.00000001   -1.70690923
     atom   21 type  1   force =     0.00000000   -0.00000002    1.70690924
     atom   22 type  1   force =    -0.00000000   -0.00000001    1.70690924
     atom   23 type  2   force =    -0.00000000   -0.00000001   -1.70690924
     atom   24 type  2   force =    -0.00000000   -0.00000001   -1.70690924
     The local contribution  to forces
     atom    1 type  1   force =     0.00000283    0.00000235   -1.88002034
     atom    2 type  1   force =     0.00000368   -0.00000332   -1.88001670
     atom    3 type  2   force =     0.00000160   -0.00000581    1.49141574
     atom    4 type  2   force =     0.00000305    0.00000732    1.49142408
     atom    5 type  1   force =    -0.00000326   -0.00001091   -1.88001485
     atom    6 type  1   force =    -0.00001277    0.00000411   -1.88001706
     atom    7 type  2   force =     0.00000148   -0.00001062    1.49141448
     atom    8 type  2   force =    -0.00000312    0.00000873    1.49141900
     atom    9 type  1   force =    -0.00001816   -0.00000284   -1.88001143
     atom   10 type  1   force =     0.00000013   -0.00000753   -1.88001075
     atom   11 type  2   force =     0.00000355   -0.00001172    1.49142167
     atom   12 type  2   force =    -0.00000232    0.00000994    1.49141643
     atom   13 type  1   force =    -0.00000087    0.00001945   -1.88000900
     atom   14 type  1   force =    -0.00000260    0.00000658   -1.88001985
     atom   15 type  2   force =    -0.00000106   -0.00001008    1.49141764
     atom   16 type  2   force =     0.00000001    0.00001509    1.49141772
     atom   17 type  1   force =     0.00000237   -0.00000399   -1.88001501
     atom   18 type  1   force =     0.00001492    0.00000212   -1.88001234
     atom   19 type  2   force =     0.00000029   -0.00001259    1.49142137
     atom   20 type  2   force =     0.00000630    0.00000952    1.49141455
     atom   21 type  1   force =     0.00002092    0.00000473   -1.88001664
     atom   22 type  1   force =    -0.00000132   -0.00000656   -1.88002225
     atom   23 type  2   force =    -0.00000267   -0.00001125    1.49141951
     atom   24 type  2   force =     0.00000276    0.00001017    1.49141278
     The core correction contribution to forces
     atom    1 type  1   force =    -0.00000007    0.00000051   -0.01580823
     atom    2 type  1   force =    -0.00000010   -0.00000028   -0.01580824
     atom    3 type  2   force =     0.00000002   -0.00000009   -0.00151520
     atom    4 type  2   force =     0.00000004    0.00000007   -0.00151517
     atom    5 type  1   force =    -0.00000000    0.00000031   -0.01580811
     atom    6 type  1   force =     0.00000013   -0.00000061   -0.01580818
     atom    7 type  2   force =     0.00000005   -0.00000005   -0.00151521
     atom    8 type  2   force =     0.00000006    0.00000011   -0.00151518
     atom    9 type  1   force =     0.00000036    0.00000036   -0.01580836
     atom   10 type  1   force =    -0.00000011   -0.00000049   -0.01580830
     atom   11 type  2   force =     0.00000005   -0.00000006   -0.00151517
     atom   12 type  2   force =     0.00000002    0.00000009   -0.00151519
     atom   13 type  1   force =     0.00000017    0.00000022   -0.01580818
     atom   14 type  1   force =     0.00000009   -0.00000048   -0.01580836
     atom   15 type  2   force =     0.00000000   -0.00000013   -0.00151516
     atom   16 type  2   force =     0.00000000    0.00000008   -0.00151521
     atom   17 type  1   force =     0.00000005    0.00000066   -0.01580826
     atom   18 type  1   force =    -0.00000011   -0.00000042   -0.01580814
     atom   19 type  2   force =    -0.00000002   -0.00000010   -0.00151515
     atom   20 type  2   force =    -0.00000004    0.00000009   -0.00151518
     atom   21 type  1   force =    -0.00000028    0.00000053   -0.01580833
     atom   22 type  1   force =     0.00000008   -0.00000023   -0.01580787
     atom   23 type  2   force =    -0.00000005   -0.00000010   -0.00151521
     atom   24 type  2   force =     0.00000000    0.00000004   -0.00151521
     The Hubbard contrib.    to forces
     atom    1 type  1   force =     0.00000000    0.00000000    0.00000000
     atom    2 type  1   force =     0.00000000    0.00000000    0.00000000
     atom    3 type  2   force =     0.00000000    0.00000000    0.00000000
     atom    4 type  2   force =     0.00000000    0.00000000    0.00000000
     atom    5 type  1   force =     0.00000000    0.00000000    0.00000000
     atom    6 type  1   force =     0.00000000    0.00000000    0.00000000
     atom    7 type  2   force =     0.00000000    0.00000000    0.00000000
     atom    8 type  2   force =     0.00000000    0.00000000    0.00000000
     atom    9 type  1   force =     0.00000000    0.00000000    0.00000000
     atom   10 type  1   force =     0.00000000    0.00000000    0.00000000
     atom   11 type  2   force =     0.00000000    0.00000000    0.00000000
     atom   12 type  2   force =     0.00000000    0.00000000    0.00000000
     atom   13 type  1   force =     0.00000000    0.00000000    0.00000000
     atom   14 type  1   force =     0.00000000    0.00000000    0.00000000
     atom   15 type  2   force =     0.00000000    0.00000000    0.00000000
     atom   16 type  2   force =     0.00000000    0.00000000    0.00000000
     atom   17 type  1   force =     0.00000000    0.00000000    0.00000000
     atom   18 type  1   force =     0.00000000    0.00000000    0.00000000
     atom   19 type  2   force =     0.00000000    0.00000000    0.00000000
     atom   20 type  2   force =     0.00000000    0.00000000    0.00000000
     atom   21 type  1   force =     0.00000000    0.00000000    0.00000000
     atom   22 type  1   force =     0.00000000    0.00000000    0.00000000
     atom   23 type  2   force =     0.00000000    0.00000000    0.00000000
     atom   24 type  2   force =     0.00000000    0.00000000    0.00000000
     The SCF correction term to forces
     atom    1 type  1   force =    -0.00000471   -0.00000035    0.00000194
     atom    2 type  1   force =    -0.00000513   -0.00000492   -0.00000421
     atom    3 type  2   force =    -0.00000203   -0.00000185   -0.00000061
     atom    4 type  2   force =    -0.00000271   -0.00000078   -0.00000972
     atom    5 type  1   force =     0.00000289    0.00002291   -0.00000784
     atom    6 type  1   force =     0.00001553   -0.00001448   -0.00000482
     atom    7 type  2   force =    -0.00000000    0.00000555    0.00000045
     atom    8 type  2   force =     0.00000700   -0.00000157   -0.00000347
     atom    9 type  1   force =     0.00001941    0.00001278   -0.00001383
     atom   10 type  1   force =    -0.00000076    0.00000426   -0.00001462
     atom   11 type  2   force =    -0.00000165    0.00000634   -0.00000718
     atom   12 type  2   force =     0.00000326   -0.00000438   -0.00000067
     atom   13 type  1   force =    -0.00000143   -0.00002102   -0.00001804
     atom   14 type  1   force =     0.00000475   -0.00001456    0.00000045
     atom   15 type  2   force =     0.00000245    0.00000162   -0.00000048
     atom   16 type  2   force =     0.00000141   -0.00000900   -0.00000373
     atom   17 type  1   force =    -0.00000379    0.00000967   -0.00000987
     atom   18 type  1   force =    -0.00002077   -0.00000971   -0.00001346
     atom   19 type  2   force =    -0.00000071    0.00000698   -0.00000475
     atom   20 type  2   force =    -0.00001020   -0.00000237    0.00000222
     atom   21 type  1   force =    -0.00002550   -0.00000070   -0.00000419
     atom   22 type  1   force =     0.00000303    0.00000218   -0.00000036
     atom   23 type  2   force =     0.00000072    0.00000414   -0.00000590
     atom   24 type  2   force =    -0.00000245   -0.00000565    0.00000263

     Total force =     0.118249     Total SCF correction =     0.000074

     General routines

     Parallel routines

   This run was terminated on:   8:19:39   8Sep2025

   JOB DONE.
Note: The following floating-point exceptions are signalling: IEEE_UNDERFLOW_FLAG IEEE_DENORMAL
Note: The following floating-point exceptions are signalling: IEEE_UNDERFLOW_FLAG IEEE_DENORMAL
Note: The following floating-point exceptions are signalling: IEEE_UNDERFLOW_FLAG IEEE_DENORMAL
Note: The following floating-point exceptions are signalling: IEEE_UNDERFLOW_FLAG IEEE_DENORMAL
Note: The following floating-point exceptions are signalling: IEEE_UNDERFLOW_FLAG IEEE_DENORMAL
Note: The following floating-point exceptions are signalling: IEEE_UNDERFLOW_FLAG IEEE_DENORMAL
Note: The following floating-point exceptions are signalling: IEEE_UNDERFLOW_FLAG IEEE_DENORMAL
Note: The following floating-point exceptions are signalling: IEEE_UNDERFLOW_FLAG IEEE_DENORMAL
Note: The following floating-point exceptions are signalling: IEEE_UNDERFLOW_FLAG IEEE_DENORMAL
Note: The following floating-point exceptions are signalling: IEEE_UNDERFLOW_FLAG IEEE_DENORMAL
Note: The following floating-point exceptions are signalling: IEEE_UNDERFLOW_FLAG IEEE_DENORMAL
Note: The following floating-point exceptions are signalling: IEEE_UNDERFLOW_FLAG IEEE_DENORMAL
Note: The following floating-point exceptions are signalling: IEEE_UNDERFLOW_FLAG IEEE_DENORMAL
Note: The following floating-point exceptions are signalling: IEEE_UNDERFLOW_FLAG IEEE_DENORMAL
Note: The following floating-point exceptions are signalling: IEEE_UNDERFLOW_FLAG IEEE_DENORMAL
Note: The following floating-point exceptions are signalling: IEEE_UNDERFLOW_FLAG IEEE_DENORMAL
Note: The following floating-point exceptions are signalling: IEEE_UNDERFLOW_FLAG IEEE_DENORMAL
Note: The following floating-point exceptions are signalling: IEEE_UNDERFLOW_FLAG IEEE_DENORMAL
Note: The following floating-point exceptions are signalling: IEEE_UNDERFLOW_FLAG IEEE_DENORMAL
Note: The following floating-point exceptions are signalling: IEEE_UNDERFLOW_FLAG IEEE_DENORMAL
Note: The following floating-point exceptions are signalling: IEEE_UNDERFLOW_FLAG IEEE_DENORMAL
Note: The following floating-point exceptions are signalling: IEEE_UNDERFLOW_FLAG IEEE_DENORMAL
Note: The following floating-point exceptions are signalling: IEEE_UNDERFLOW_FLAG IEEE_DENORMAL
Note: The following floating-point exceptions are signalling: IEEE_UNDERFLOW_FLAG IEEE_DENORMAL
Note: The following floating-point exceptions are signalling: IEEE_UNDERFLOW_FLAG IEEE_DENORMAL
Note: The following floating-point exceptions are signalling: IEEE_UNDERFLOW_FLAG IEEE_DENORMAL
Note: The following floating-point exceptions are signalling: IEEE_UNDERFLOW_FLAG IEEE_DENORMAL
Note: The following floating-point exceptions are signalling: IEEE_UNDERFLOW_FLAG IEEE_DENORMAL
Note: The following floating-point exceptions are signalling: IEEE_UNDERFLOW_FLAG IEEE_DENORMAL
Note: The following floating-point exceptions are signalling: IEEE_UNDERFLOW_FLAG IEEE_DENORMAL
Note: The following floating-point exceptions are signalling: IEEE_UNDERFLOW_FLAG IEEE_DENORMAL
Note: The following floating-point exceptions are signalling: IEEE_UNDERFLOW_FLAG IEEE_DENORMAL