     Program PWSCF v.7.0 starts on  8Sep2025 at  6: 3:36

     K-points division:     npool     =       8
     R & G space division:  proc/nbgrp/npool/nimage =       4

     Reading input from /home/jvc/QEspresso7.2/ZnO_database/scripts/cell231.in/ZnO-3.14-1.65-231.in
Warning: card &CELL ignored
Warning: card / ignored
Warning: card &FCP ignored
Warning: card / ignored
Warning: card &RISM ignored
Warning: card / ignored

     Current dimensions of program PWSCF are:
     Max number of different atomic species (ntypx) = 10
     Max number of k-points (npk) =  40000
     Max angular momentum in pseudopotentials (lmaxx) =  4
     file Zn.upf: wavefunction(s)  3D renormalized
     Found identity + (  0.0000  0.3333  0.0000) symmetry
     This is a supercell, fractional translations are disabled

     Using Slab Decomposition

     bravais-lattice index     =            0
     lattice parameter (alat)  =      11.8634  a.u.
     unit-cell volume          =    1785.7452 (a.u.)^3
     number of atoms/cell      =           24
     number of atomic types    =            2
     number of electrons       =       216.00
     number of Kohn-Sham states=          108
     kinetic-energy cutoff     =      50.0000  Ry
     charge density cutoff     =     400.0000  Ry
     scf convergence threshold =      1.0E-08
     mixing beta               =       0.3000
     number of iterations used =            8  plain     mixing
     Exchange-correlation= PBE
                           (   1   4   3   4   0   0   0)

     celldm(1)=  11.863400  celldm(2)=   0.000000  celldm(3)=   0.000000
     celldm(4)=   0.000000  celldm(5)=   0.000000  celldm(6)=   0.000000

     crystal axes: (cart. coord. in units of alat)
               a(1) = (   1.000000   0.000000   0.000000 )
               a(2) = (  -0.750000   1.299038   0.000000 )
               a(3) = (   0.000000   0.000000   0.823323 )

     reciprocal axes: (cart. coord. in units 2 pi/alat)
               b(1) = (  1.000000  0.577350 -0.000000 )
               b(2) = (  0.000000  0.769800  0.000000 )
               b(3) = (  0.000000 -0.000000  1.214590 )

     PseudoPot. # 1 for Zn read from file:
     /home/jvc/QEspresso7.2/ZnO_database/pseudos/Zn.upf
     MD5 check sum: 7f56cabf9682ed8c977c2f7d0c5985c5
     Pseudo is Ultrasoft + core correction, Zval = 12.0
     Generated using &quot;atomic&quot; code by A. Dal Corso  v.6.2.2
     Using radial grid of 1201 points,  6 beta functions with:
                l(1) =   0
                l(2) =   0
                l(3) =   1
                l(4) =   1
                l(5) =   2
                l(6) =   2
     Q(r) pseudized with 0 coefficients

     PseudoPot. # 2 for O  read from file:
     /home/jvc/QEspresso7.2/ZnO_database/pseudos/O.upf
     MD5 check sum: 91400c9766925bcf19f520983a725ff0
     Pseudo is Ultrasoft + core correction, Zval =  6.0
     Generated using &quot;atomic&quot; code by A. Dal Corso  v.6.3MaX
     Using radial grid of 1095 points,  4 beta functions with:
                l(1) =   0
                l(2) =   0
                l(3) =   1
                l(4) =   1
     Q(r) pseudized with 0 coefficients

     atomic species   valence    mass     pseudopotential
        Zn            12.00    65.38000     Zn( 1.00)
        O              6.00    15.99900     O ( 1.00)

     No symmetry found

                                    s                        frac. trans.

      isym =  1     identity

 cryst.   s( 1) = (     1          0          0      )
                  (     0          1          0      )
                  (     0          0          1      )

 cart.    s( 1) = (  1.0000000  0.0000000  0.0000000 )
                  (  0.0000000  1.0000000  0.0000000 )
                  (  0.0000000  0.0000000  1.0000000 )

   Cartesian axes

     site n.     atom                  positions (alat units)
         1           Zn  tau(   1) = (   0.2500000   0.1443376   0.4121830  )
         2           Zn  tau(   2) = (  -0.0000000   0.2886751   0.0005216  )
         3           O   tau(   3) = (   0.2500000   0.1443376   0.7242576  )
         4           O   tau(   4) = (  -0.0000000   0.2886751   0.3125962  )
         5           Zn  tau(   5) = (  -0.0000000   0.5773503   0.4121830  )
         6           Zn  tau(   6) = (  -0.2500000   0.7216878   0.0005216  )
         7           O   tau(   7) = (  -0.0000000   0.5773503   0.7242576  )
         8           O   tau(   8) = (  -0.2500000   0.7216878   0.3125962  )
         9           Zn  tau(   9) = (  -0.2500000   1.0103630   0.4121830  )
        10           Zn  tau(  10) = (  -0.5000000   1.1547005   0.0005216  )
        11           O   tau(  11) = (  -0.2500000   1.0103630   0.7242576  )
        12           O   tau(  12) = (  -0.5000000   1.1547005   0.3125962  )
        13           Zn  tau(  13) = (   0.7500000   0.1443376   0.4121830  )
        14           Zn  tau(  14) = (   0.5000000   0.2886751   0.0005216  )
        15           O   tau(  15) = (   0.7500000   0.1443376   0.7242576  )
        16           O   tau(  16) = (   0.5000000   0.2886751   0.3125962  )
        17           Zn  tau(  17) = (   0.5000000   0.5773503   0.4121830  )
        18           Zn  tau(  18) = (   0.2500000   0.7216878   0.0005216  )
        19           O   tau(  19) = (   0.5000000   0.5773503   0.7242576  )
        20           O   tau(  20) = (   0.2500000   0.7216878   0.3125962  )
        21           Zn  tau(  21) = (   0.2500000   1.0103630   0.4121830  )
        22           Zn  tau(  22) = (  -0.0000000   1.1547005   0.0005216  )
        23           O   tau(  23) = (   0.2500000   1.0103630   0.7242576  )
        24           O   tau(  24) = (  -0.0000000   1.1547005   0.3125962  )

   Crystallographic axes

     site n.     atom                  positions (cryst. coord.)
         1           Zn  tau(   1) = (  0.3333333  0.1111111  0.5006336  )
         2           Zn  tau(   2) = (  0.1666667  0.2222222  0.0006336  )
         3           O   tau(   3) = (  0.3333333  0.1111111  0.8796764  )
         4           O   tau(   4) = (  0.1666667  0.2222222  0.3796764  )
         5           Zn  tau(   5) = (  0.3333333  0.4444444  0.5006336  )
         6           Zn  tau(   6) = (  0.1666667  0.5555556  0.0006336  )
         7           O   tau(   7) = (  0.3333333  0.4444444  0.8796764  )
         8           O   tau(   8) = (  0.1666667  0.5555556  0.3796764  )
         9           Zn  tau(   9) = (  0.3333333  0.7777778  0.5006336  )
        10           Zn  tau(  10) = (  0.1666667  0.8888889  0.0006336  )
        11           O   tau(  11) = (  0.3333333  0.7777778  0.8796764  )
        12           O   tau(  12) = (  0.1666667  0.8888889  0.3796764  )
        13           Zn  tau(  13) = (  0.8333333  0.1111111  0.5006336  )
        14           Zn  tau(  14) = (  0.6666667  0.2222222  0.0006336  )
        15           O   tau(  15) = (  0.8333333  0.1111111  0.8796764  )
        16           O   tau(  16) = (  0.6666667  0.2222222  0.3796764  )
        17           Zn  tau(  17) = (  0.8333333  0.4444444  0.5006336  )
        18           Zn  tau(  18) = (  0.6666667  0.5555556  0.0006336  )
        19           O   tau(  19) = (  0.8333333  0.4444444  0.8796764  )
        20           O   tau(  20) = (  0.6666667  0.5555556  0.3796764  )
        21           Zn  tau(  21) = (  0.8333333  0.7777778  0.5006336  )
        22           Zn  tau(  22) = (  0.6666667  0.8888889  0.0006336  )
        23           O   tau(  23) = (  0.8333333  0.7777778  0.8796764  )
        24           O   tau(  24) = (  0.6666667  0.8888889  0.3796764  )

     number of k points=   112
                       cart. coord. in units 2pi/alat
        k(    1) = (   0.0000000   0.0000000   0.0000000), wk =   0.0092593
        k(    2) = (   0.0000000   0.0000000   0.2024317), wk =   0.0185185
        k(    3) = (   0.0000000   0.0000000   0.4048635), wk =   0.0185185
        k(    4) = (   0.0000000   0.0000000  -0.6072952), wk =   0.0092593
        k(    5) = (   0.0000000   0.1283001   0.0000000), wk =   0.0185185
        k(    6) = (   0.0000000   0.1283001   0.2024317), wk =   0.0185185
        k(    7) = (   0.0000000   0.1283001   0.4048635), wk =   0.0185185
        k(    8) = (   0.0000000   0.1283001  -0.6072952), wk =   0.0185185
        k(    9) = (   0.0000000   0.2566001   0.0000000), wk =   0.0185185
        k(   10) = (   0.0000000   0.2566001   0.2024317), wk =   0.0185185
        k(   11) = (   0.0000000   0.2566001   0.4048635), wk =   0.0185185
        k(   12) = (   0.0000000   0.2566001  -0.6072952), wk =   0.0185185
        k(   13) = (   0.0000000  -0.3849002   0.0000000), wk =   0.0092593
        k(   14) = (   0.0000000  -0.3849002   0.2024317), wk =   0.0185185
        k(   15) = (   0.0000000  -0.3849002   0.4048635), wk =   0.0185185
        k(   16) = (   0.0000000  -0.3849002  -0.6072952), wk =   0.0092593
        k(   17) = (   0.1666667   0.0962250   0.0000000), wk =   0.0185185
        k(   18) = (   0.1666667   0.0962250   0.2024317), wk =   0.0185185
        k(   19) = (   0.1666667   0.0962250   0.4048635), wk =   0.0185185
        k(   20) = (   0.1666667   0.0962250  -0.6072952), wk =   0.0185185
        k(   21) = (   0.1666667   0.2245251   0.0000000), wk =   0.0185185
        k(   22) = (   0.1666667   0.2245251   0.2024317), wk =   0.0185185
        k(   23) = (   0.1666667   0.2245251   0.4048635), wk =   0.0185185
        k(   24) = (   0.1666667   0.2245251  -0.6072952), wk =   0.0185185
        k(   25) = (   0.1666667   0.3528252   0.0000000), wk =   0.0185185
        k(   26) = (   0.1666667   0.3528252   0.2024317), wk =   0.0185185
        k(   27) = (   0.1666667   0.3528252   0.4048635), wk =   0.0185185
        k(   28) = (   0.1666667   0.3528252  -0.6072952), wk =   0.0185185
        k(   29) = (   0.1666667  -0.2886751   0.0000000), wk =   0.0185185
        k(   30) = (   0.1666667  -0.2886751   0.2024317), wk =   0.0185185
        k(   31) = (   0.1666667  -0.2886751   0.4048635), wk =   0.0185185
        k(   32) = (   0.1666667  -0.2886751  -0.6072952), wk =   0.0185185
        k(   33) = (   0.1666667  -0.1603751   0.0000000), wk =   0.0185185
        k(   34) = (   0.1666667  -0.1603751   0.2024317), wk =   0.0185185
        k(   35) = (   0.1666667  -0.1603751   0.4048635), wk =   0.0185185
        k(   36) = (   0.1666667  -0.1603751  -0.6072952), wk =   0.0185185
        k(   37) = (   0.1666667  -0.0320750   0.0000000), wk =   0.0185185
        k(   38) = (   0.1666667  -0.0320750   0.2024317), wk =   0.0185185
        k(   39) = (   0.1666667  -0.0320750   0.4048635), wk =   0.0185185
        k(   40) = (   0.1666667  -0.0320750  -0.6072952), wk =   0.0185185
        k(   41) = (   0.3333333   0.1924501   0.0000000), wk =   0.0185185
        k(   42) = (   0.3333333   0.1924501   0.2024317), wk =   0.0185185
        k(   43) = (   0.3333333   0.1924501   0.4048635), wk =   0.0185185
        k(   44) = (   0.3333333   0.1924501  -0.6072952), wk =   0.0185185
        k(   45) = (   0.3333333   0.3207501   0.0000000), wk =   0.0185185
[...]

!    total energy              =   -2169.69621913 Ry
     estimated scf accuracy    <          3.8E-10 Ry

     The total energy is the sum of the following terms:
     one-electron contribution =    -855.29998890 Ry
     hartree contribution      =     684.46495234 Ry
     xc contribution           =    -658.60730737 Ry
     ewald contribution        =   -1340.25387519 Ry

     convergence has been achieved in  32 iterations

     Forces acting on atoms (cartesian axes, Ry/au):

     atom    1 type  1   force =    -0.00000003    0.00000032    0.01040664
     atom    2 type  1   force =    -0.00000105    0.00000080    0.01040578
     atom    3 type  2   force =    -0.00000068   -0.00000004   -0.01040553
     atom    4 type  2   force =    -0.00000010   -0.00000111   -0.01040653
     atom    5 type  1   force =     0.00000015   -0.00000265    0.01040635
     atom    6 type  1   force =    -0.00000285   -0.00000296    0.01040433
     atom    7 type  2   force =    -0.00000019    0.00000234   -0.01040451
     atom    8 type  2   force =     0.00000081    0.00000037   -0.01040669
     atom    9 type  1   force =     0.00000140    0.00000224    0.01040652
     atom   10 type  1   force =    -0.00000179   -0.00000202    0.01040544
     atom   11 type  2   force =     0.00000042   -0.00000030   -0.01040524
     atom   12 type  2   force =    -0.00000028   -0.00000118   -0.01040622
     atom   13 type  1   force =    -0.00000124    0.00000195    0.01040446
     atom   14 type  1   force =     0.00000308    0.00000205    0.01040496
     atom   15 type  2   force =     0.00000070   -0.00000031   -0.01040585
     atom   16 type  2   force =    -0.00000014   -0.00000081   -0.01040574
     atom   17 type  1   force =    -0.00000026    0.00000036    0.01040581
     atom   18 type  1   force =     0.00000287    0.00000053    0.01040672
     atom   19 type  2   force =    -0.00000044    0.00000123   -0.01040506
     atom   20 type  2   force =    -0.00000100    0.00000047   -0.01040658
     atom   21 type  1   force =     0.00000042   -0.00000089    0.01040624
     atom   22 type  1   force =     0.00000075    0.00000013    0.01040669
     atom   23 type  2   force =    -0.00000093    0.00000079   -0.01040550
     atom   24 type  2   force =     0.00000039   -0.00000129   -0.01040647
     The non-local contrib.  to forces
     atom    1 type  1   force =     0.00000046   -0.00000170    0.05378557
     atom    2 type  1   force =    -0.00000028    0.00000345    0.05378417
     atom    3 type  2   force =     0.00000060    0.00000382    0.05048602
     atom    4 type  2   force =    -0.00000079   -0.00000491    0.05048822
     atom    5 type  1   force =    -0.00000061   -0.00000445    0.05378693
     atom    6 type  1   force =    -0.00000198   -0.00000091    0.05378416
     atom    7 type  2   force =     0.00000065    0.00000812    0.05048752
     atom    8 type  2   force =     0.00000217   -0.00000310    0.05048525
     atom    9 type  1   force =    -0.00000244   -0.00000071    0.05378614
     atom   10 type  1   force =     0.00000094    0.00000237    0.05378580
     atom   11 type  2   force =     0.00000099    0.00000451    0.05048718
     atom   12 type  2   force =     0.00000057   -0.00000857    0.05048618
     atom   13 type  1   force =    -0.00000102    0.00000064    0.05378567
     atom   14 type  1   force =     0.00000113    0.00000301    0.05378447
     atom   15 type  2   force =     0.00000179    0.00000156    0.05048552
     atom   16 type  2   force =     0.00000054   -0.00000490    0.05048800
     atom   17 type  1   force =     0.00000064   -0.00000283    0.05378629
     atom   18 type  1   force =     0.00000235   -0.00000067    0.05378409
     atom   19 type  2   force =    -0.00000143    0.00000656    0.05048762
     atom   20 type  2   force =    -0.00000147   -0.00000374    0.05048440
     atom   21 type  1   force =     0.00000290   -0.00000129    0.05378574
     atom   22 type  1   force =    -0.00000129    0.00000358    0.05378477
     atom   23 type  2   force =    -0.00000196    0.00000423    0.05048646
     atom   24 type  2   force =     0.00000093   -0.00000525    0.05048587
     The ionic contribution  to forces
     atom    1 type  1   force =     0.00000001    0.00000002    0.50460103
     atom    2 type  1   force =     0.00000002    0.00000002    0.50460103
     atom    3 type  2   force =     0.00000001    0.00000001   -0.50460103
     atom    4 type  2   force =     0.00000001    0.00000001   -0.50460103
     atom    5 type  1   force =     0.00000000    0.00000001    0.50460103
     atom    6 type  1   force =     0.00000001   -0.00000000    0.50460103
     atom    7 type  2   force =    -0.00000000    0.00000001   -0.50460103
     atom    8 type  2   force =     0.00000001    0.00000000   -0.50460103
     atom    9 type  1   force =    -0.00000000   -0.00000001    0.50460103
     atom   10 type  1   force =     0.00000000   -0.00000001    0.50460103
     atom   11 type  2   force =    -0.00000000   -0.00000000   -0.50460103
     atom   12 type  2   force =     0.00000000   -0.00000000   -0.50460103
     atom   13 type  1   force =    -0.00000001    0.00000000    0.50460103
     atom   14 type  1   force =    -0.00000002    0.00000001    0.50460103
     atom   15 type  2   force =    -0.00000001   -0.00000000   -0.50460103
     atom   16 type  2   force =    -0.00000001   -0.00000000   -0.50460103
     atom   17 type  1   force =    -0.00000003    0.00000001    0.50460103
     atom   18 type  1   force =     0.00000001   -0.00000002    0.50460102
     atom   19 type  2   force =    -0.00000002    0.00000000   -0.50460103
     atom   20 type  2   force =     0.00000001   -0.00000001   -0.50460102
     atom   21 type  1   force =     0.00000000   -0.00000002    0.50460103
     atom   22 type  1   force =    -0.00000000   -0.00000001    0.50460103
     atom   23 type  2   force =    -0.00000000   -0.00000001   -0.50460103
     atom   24 type  2   force =    -0.00000000   -0.00000001   -0.50460103
     The local contribution  to forces
     atom    1 type  1   force =    -0.00000100    0.00000155   -0.54389755
     atom    2 type  1   force =     0.00000072   -0.00000420   -0.54389519
     atom    3 type  2   force =    -0.00000073   -0.00000494    0.44409625
     atom    4 type  2   force =     0.00000211    0.00000248    0.44409301
     atom    5 type  1   force =     0.00000016    0.00000707   -0.54389981
     atom    6 type  1   force =     0.00000471    0.00000398   -0.54389399
     atom    7 type  2   force =    -0.00000001   -0.00000222    0.44409756
     atom    8 type  2   force =     0.00000133    0.00000561    0.44409517
     atom    9 type  1   force =     0.00000334   -0.00000116   -0.54389869
     atom   10 type  1   force =    -0.00000036   -0.00000175   -0.54389762
     atom   11 type  2   force =     0.00000112   -0.00000489    0.44409679
     atom   12 type  2   force =    -0.00000028    0.00000727    0.44409547
     atom   13 type  1   force =     0.00000192   -0.00000298   -0.54389695
     atom   14 type  1   force =    -0.00000238   -0.00000466   -0.54389529
     atom   15 type  2   force =    -0.00000053   -0.00000393    0.44409639
     atom   16 type  2   force =    -0.00000175    0.00000257    0.44409481
     atom   17 type  1   force =    -0.00000035    0.00000340   -0.54389905
     atom   18 type  1   force =    -0.00000508    0.00000171   -0.54389522
     atom   19 type  2   force =     0.00000013   -0.00000529    0.44409634
     atom   20 type  2   force =    -0.00000124    0.00000583    0.44409564
     atom   21 type  1   force =    -0.00000489    0.00000122   -0.54389806
     atom   22 type  1   force =     0.00000125   -0.00000458   -0.54389651
     atom   23 type  2   force =    -0.00000089   -0.00000289    0.44409704
     atom   24 type  2   force =     0.00000048    0.00000182    0.44409555
     The core correction contribution to forces
     atom    1 type  1   force =    -0.00000007    0.00000007   -0.00408827
     atom    2 type  1   force =    -0.00000011   -0.00000034   -0.00408825
     atom    3 type  2   force =    -0.00000001   -0.00000004   -0.00038271
     atom    4 type  2   force =     0.00000002    0.00000006   -0.00038274
     atom    5 type  1   force =    -0.00000009    0.00000010   -0.00408826
     atom    6 type  1   force =    -0.00000016   -0.00000032   -0.00408828
     atom    7 type  2   force =    -0.00000001   -0.00000009   -0.00038272
     atom    8 type  2   force =    -0.00000002    0.00000004   -0.00038270
     atom    9 type  1   force =    -0.00000020    0.00000008   -0.00408828
     atom   10 type  1   force =    -0.00000012   -0.00000025   -0.00408819
     atom   11 type  2   force =    -0.00000001   -0.00000005   -0.00038272
     atom   12 type  2   force =    -0.00000000    0.00000011   -0.00038271
     atom   13 type  1   force =     0.00000014    0.00000038   -0.00408820
     atom   14 type  1   force =     0.00000003   -0.00000008   -0.00408826
     atom   15 type  2   force =    -0.00000003   -0.00000001   -0.00038270
     atom   16 type  2   force =    -0.00000001    0.00000005   -0.00038273
     atom   17 type  1   force =     0.00000013    0.00000024   -0.00408817
     atom   18 type  1   force =     0.00000010   -0.00000016   -0.00408832
     atom   19 type  2   force =     0.00000001   -0.00000009   -0.00038272
     atom   20 type  2   force =     0.00000002    0.00000004   -0.00038269
     atom   21 type  1   force =     0.00000021    0.00000032   -0.00408825
     atom   22 type  1   force =     0.00000009   -0.00000007   -0.00408833
     atom   23 type  2   force =     0.00000002   -0.00000005   -0.00038271
     atom   24 type  2   force =    -0.00000001    0.00000005   -0.00038271
     The Hubbard contrib.    to forces
     atom    1 type  1   force =     0.00000000    0.00000000    0.00000000
     atom    2 type  1   force =     0.00000000    0.00000000    0.00000000
     atom    3 type  2   force =     0.00000000    0.00000000    0.00000000
     atom    4 type  2   force =     0.00000000    0.00000000    0.00000000
     atom    5 type  1   force =     0.00000000    0.00000000    0.00000000
     atom    6 type  1   force =     0.00000000    0.00000000    0.00000000
     atom    7 type  2   force =     0.00000000    0.00000000    0.00000000
     atom    8 type  2   force =     0.00000000    0.00000000    0.00000000
     atom    9 type  1   force =     0.00000000    0.00000000    0.00000000
     atom   10 type  1   force =     0.00000000    0.00000000    0.00000000
     atom   11 type  2   force =     0.00000000    0.00000000    0.00000000
     atom   12 type  2   force =     0.00000000    0.00000000    0.00000000
     atom   13 type  1   force =     0.00000000    0.00000000    0.00000000
     atom   14 type  1   force =     0.00000000    0.00000000    0.00000000
     atom   15 type  2   force =     0.00000000    0.00000000    0.00000000
     atom   16 type  2   force =     0.00000000    0.00000000    0.00000000
     atom   17 type  1   force =     0.00000000    0.00000000    0.00000000
     atom   18 type  1   force =     0.00000000    0.00000000    0.00000000
     atom   19 type  2   force =     0.00000000    0.00000000    0.00000000
     atom   20 type  2   force =     0.00000000    0.00000000    0.00000000
     atom   21 type  1   force =     0.00000000    0.00000000    0.00000000
     atom   22 type  1   force =     0.00000000    0.00000000    0.00000000
     atom   23 type  2   force =     0.00000000    0.00000000    0.00000000
     atom   24 type  2   force =     0.00000000    0.00000000    0.00000000
     The SCF correction term to forces
     atom    1 type  1   force =     0.00000076    0.00000041    0.00000785
     atom    2 type  1   force =    -0.00000122    0.00000191    0.00000599
     atom    3 type  2   force =    -0.00000036    0.00000114   -0.00000207
     atom    4 type  2   force =    -0.00000126    0.00000129   -0.00000200
     atom    5 type  1   force =     0.00000088   -0.00000534    0.00000844
     atom    6 type  1   force =    -0.00000525   -0.00000567    0.00000339
     atom    7 type  2   force =    -0.00000063   -0.00000343   -0.00000386
     atom    8 type  2   force =    -0.00000249   -0.00000213   -0.00000140
     atom    9 type  1   force =     0.00000090    0.00000407    0.00000830
     atom   10 type  1   force =    -0.00000206   -0.00000236    0.00000640
     atom   11 type  2   force =    -0.00000148    0.00000017   -0.00000347
     atom   12 type  2   force =    -0.00000038    0.00000005   -0.00000215
     atom   13 type  1   force =    -0.00000208    0.00000395    0.00000489
     atom   14 type  1   force =     0.00000450    0.00000382    0.00000500
     atom   15 type  2   force =    -0.00000033    0.00000212   -0.00000205
     atom   16 type  2   force =     0.00000129    0.00000152   -0.00000281
     atom   17 type  1   force =    -0.00000046   -0.00000042    0.00000770
     atom   18 type  1   force =     0.00000567   -0.00000029    0.00000712
     atom   19 type  2   force =     0.00000106    0.00000008   -0.00000328
     atom   20 type  2   force =     0.00000188   -0.00000161   -0.00000092
     atom   21 type  1   force =     0.00000238   -0.00000109    0.00000777
     atom   22 type  1   force =     0.00000089    0.00000125    0.00000771
     atom   23 type  2   force =     0.00000209   -0.00000045   -0.00000327
     atom   24 type  2   force =    -0.00000081    0.00000213   -0.00000217

     Total force =     0.050978     Total SCF correction =     0.000030

     General routines

     Parallel routines

   This run was terminated on:   6:34: 6   8Sep2025

   JOB DONE.
Note: The following floating-point exceptions are signalling: IEEE_UNDERFLOW_FLAG IEEE_DENORMAL
Note: The following floating-point exceptions are signalling: IEEE_UNDERFLOW_FLAG IEEE_DENORMAL
Note: The following floating-point exceptions are signalling: IEEE_UNDERFLOW_FLAG IEEE_DENORMAL
Note: The following floating-point exceptions are signalling: IEEE_UNDERFLOW_FLAG IEEE_DENORMAL
Note: The following floating-point exceptions are signalling: IEEE_UNDERFLOW_FLAG IEEE_DENORMAL
Note: The following floating-point exceptions are signalling: IEEE_UNDERFLOW_FLAG IEEE_DENORMAL
Note: The following floating-point exceptions are signalling: IEEE_UNDERFLOW_FLAG IEEE_DENORMAL
Note: The following floating-point exceptions are signalling: IEEE_UNDERFLOW_FLAG IEEE_DENORMAL
Note: The following floating-point exceptions are signalling: IEEE_UNDERFLOW_FLAG IEEE_DENORMAL
Note: The following floating-point exceptions are signalling: IEEE_UNDERFLOW_FLAG IEEE_DENORMAL
Note: The following floating-point exceptions are signalling: IEEE_UNDERFLOW_FLAG IEEE_DENORMAL
Note: The following floating-point exceptions are signalling: IEEE_UNDERFLOW_FLAG IEEE_DENORMAL
Note: The following floating-point exceptions are signalling: IEEE_UNDERFLOW_FLAG IEEE_DENORMAL
Note: The following floating-point exceptions are signalling: IEEE_UNDERFLOW_FLAG IEEE_DENORMAL
Note: The following floating-point exceptions are signalling: IEEE_UNDERFLOW_FLAG IEEE_DENORMAL
Note: The following floating-point exceptions are signalling: IEEE_UNDERFLOW_FLAG IEEE_DENORMAL
Note: The following floating-point exceptions are signalling: IEEE_UNDERFLOW_FLAG IEEE_DENORMAL
Note: The following floating-point exceptions are signalling: IEEE_UNDERFLOW_FLAG IEEE_DENORMAL
Note: The following floating-point exceptions are signalling: IEEE_UNDERFLOW_FLAG IEEE_DENORMAL
Note: The following floating-point exceptions are signalling: IEEE_UNDERFLOW_FLAG IEEE_DENORMAL
Note: The following floating-point exceptions are signalling: IEEE_UNDERFLOW_FLAG IEEE_DENORMAL
Note: The following floating-point exceptions are signalling: IEEE_UNDERFLOW_FLAG IEEE_DENORMAL
Note: The following floating-point exceptions are signalling: IEEE_UNDERFLOW_FLAG IEEE_DENORMAL
Note: The following floating-point exceptions are signalling: IEEE_UNDERFLOW_FLAG IEEE_DENORMAL
Note: The following floating-point exceptions are signalling: IEEE_UNDERFLOW_FLAG IEEE_DENORMAL
Note: The following floating-point exceptions are signalling: IEEE_UNDERFLOW_FLAG IEEE_DENORMAL
Note: The following floating-point exceptions are signalling: IEEE_UNDERFLOW_FLAG IEEE_DENORMAL
Note: The following floating-point exceptions are signalling: IEEE_UNDERFLOW_FLAG IEEE_DENORMAL
Note: The following floating-point exceptions are signalling: IEEE_UNDERFLOW_FLAG IEEE_DENORMAL
Note: The following floating-point exceptions are signalling: IEEE_UNDERFLOW_FLAG IEEE_DENORMAL
Note: The following floating-point exceptions are signalling: IEEE_UNDERFLOW_FLAG IEEE_DENORMAL
Note: The following floating-point exceptions are signalling: IEEE_UNDERFLOW_FLAG IEEE_DENORMAL