     Program PWSCF v.7.0 starts on 10Sep2025 at 16:55:57

     K-points division:     npool     =       8
     R & G space division:  proc/nbgrp/npool/nimage =       4

     Reading input from /home/jvc/QEspresso7.2/ZnO_database/scripts/cell231.in/ZnO-3.60-1.78-231.in
Warning: card &CELL ignored
Warning: card / ignored
Warning: card &FCP ignored
Warning: card / ignored
Warning: card &RISM ignored
Warning: card / ignored

     Current dimensions of program PWSCF are:
     Max number of different atomic species (ntypx) = 10
     Max number of k-points (npk) =  40000
     Max angular momentum in pseudopotentials (lmaxx) =  4
     file Zn.upf: wavefunction(s)  3D renormalized
     Found identity + (  0.0000  0.3333  0.0000) symmetry
     This is a supercell, fractional translations are disabled

     Using Slab Decomposition

     bravais-lattice index     =            0
     lattice parameter (alat)  =      13.5935  a.u.
     unit-cell volume          =    2897.1859 (a.u.)^3
     number of atoms/cell      =           24
     number of atomic types    =            2
     number of electrons       =       216.00
     number of Kohn-Sham states=          108
     kinetic-energy cutoff     =      50.0000  Ry
     charge density cutoff     =     400.0000  Ry
     scf convergence threshold =      1.0E-08
     mixing beta               =       0.3000
     number of iterations used =            8  plain     mixing
     Exchange-correlation= PBE
                           (   1   4   3   4   0   0   0)

     celldm(1)=  13.593479  celldm(2)=   0.000000  celldm(3)=   0.000000
     celldm(4)=   0.000000  celldm(5)=   0.000000  celldm(6)=   0.000000

     crystal axes: (cart. coord. in units of alat)
               a(1) = (   1.000000   0.000000   0.000000 )
               a(2) = (  -0.750000   1.299038   0.000000 )
               a(3) = (   0.000000   0.000000   0.887897 )

     reciprocal axes: (cart. coord. in units 2 pi/alat)
               b(1) = (  1.000000  0.577350 -0.000000 )
               b(2) = (  0.000000  0.769800  0.000000 )
               b(3) = (  0.000000 -0.000000  1.126257 )

     PseudoPot. # 1 for Zn read from file:
     /home/jvc/QEspresso7.2/ZnO_database/pseudos/Zn.upf
     MD5 check sum: 7f56cabf9682ed8c977c2f7d0c5985c5
     Pseudo is Ultrasoft + core correction, Zval = 12.0
     Generated using &quot;atomic&quot; code by A. Dal Corso  v.6.2.2
     Using radial grid of 1201 points,  6 beta functions with:
                l(1) =   0
                l(2) =   0
                l(3) =   1
                l(4) =   1
                l(5) =   2
                l(6) =   2
     Q(r) pseudized with 0 coefficients

     PseudoPot. # 2 for O  read from file:
     /home/jvc/QEspresso7.2/ZnO_database/pseudos/O.upf
     MD5 check sum: 91400c9766925bcf19f520983a725ff0
     Pseudo is Ultrasoft + core correction, Zval =  6.0
     Generated using &quot;atomic&quot; code by A. Dal Corso  v.6.3MaX
     Using radial grid of 1095 points,  4 beta functions with:
                l(1) =   0
                l(2) =   0
                l(3) =   1
                l(4) =   1
     Q(r) pseudized with 0 coefficients

     atomic species   valence    mass     pseudopotential
        Zn            12.00    65.38000     Zn( 1.00)
        O              6.00    15.99900     O ( 1.00)

     No symmetry found

                                    s                        frac. trans.

      isym =  1     identity

 cryst.   s( 1) = (     1          0          0      )
                  (     0          1          0      )
                  (     0          0          1      )

 cart.    s( 1) = (  1.0000000  0.0000000  0.0000000 )
                  (  0.0000000  1.0000000  0.0000000 )
                  (  0.0000000  0.0000000  1.0000000 )

   Cartesian axes

     site n.     atom                  positions (alat units)
         1           Zn  tau(   1) = (   0.2500000   0.1443376   0.4445111  )
         2           Zn  tau(   2) = (  -0.0000000   0.2886751   0.0005626  )
         3           O   tau(   3) = (   0.2500000   0.1443376   0.7810621  )
         4           O   tau(   4) = (  -0.0000000   0.2886751   0.3371136  )
         5           Zn  tau(   5) = (   0.0000000   0.5773503   0.4445111  )
         6           Zn  tau(   6) = (  -0.2500000   0.7216878   0.0005626  )
         7           O   tau(   7) = (   0.0000000   0.5773503   0.7810621  )
         8           O   tau(   8) = (  -0.2500000   0.7216878   0.3371136  )
         9           Zn  tau(   9) = (  -0.2500000   1.0103630   0.4445111  )
        10           Zn  tau(  10) = (  -0.5000000   1.1547005   0.0005626  )
        11           O   tau(  11) = (  -0.2500000   1.0103630   0.7810621  )
        12           O   tau(  12) = (  -0.5000000   1.1547005   0.3371136  )
        13           Zn  tau(  13) = (   0.7500000   0.1443376   0.4445111  )
        14           Zn  tau(  14) = (   0.5000000   0.2886751   0.0005626  )
        15           O   tau(  15) = (   0.7500000   0.1443376   0.7810621  )
        16           O   tau(  16) = (   0.5000000   0.2886751   0.3371136  )
        17           Zn  tau(  17) = (   0.5000000   0.5773503   0.4445111  )
        18           Zn  tau(  18) = (   0.2500000   0.7216878   0.0005626  )
        19           O   tau(  19) = (   0.5000000   0.5773503   0.7810621  )
        20           O   tau(  20) = (   0.2500000   0.7216878   0.3371136  )
        21           Zn  tau(  21) = (   0.2500000   1.0103630   0.4445111  )
        22           Zn  tau(  22) = (   0.0000000   1.1547005   0.0005626  )
        23           O   tau(  23) = (   0.2500000   1.0103630   0.7810621  )
        24           O   tau(  24) = (   0.0000000   1.1547005   0.3371136  )

   Crystallographic axes

     site n.     atom                  positions (cryst. coord.)
         1           Zn  tau(   1) = (  0.3333333  0.1111111  0.5006336  )
         2           Zn  tau(   2) = (  0.1666667  0.2222222  0.0006336  )
         3           O   tau(   3) = (  0.3333333  0.1111111  0.8796764  )
         4           O   tau(   4) = (  0.1666667  0.2222222  0.3796764  )
         5           Zn  tau(   5) = (  0.3333333  0.4444444  0.5006336  )
         6           Zn  tau(   6) = (  0.1666667  0.5555556  0.0006336  )
         7           O   tau(   7) = (  0.3333333  0.4444444  0.8796764  )
         8           O   tau(   8) = (  0.1666667  0.5555556  0.3796764  )
         9           Zn  tau(   9) = (  0.3333333  0.7777778  0.5006336  )
        10           Zn  tau(  10) = (  0.1666667  0.8888889  0.0006336  )
        11           O   tau(  11) = (  0.3333333  0.7777778  0.8796764  )
        12           O   tau(  12) = (  0.1666667  0.8888889  0.3796764  )
        13           Zn  tau(  13) = (  0.8333333  0.1111111  0.5006336  )
        14           Zn  tau(  14) = (  0.6666667  0.2222222  0.0006336  )
        15           O   tau(  15) = (  0.8333333  0.1111111  0.8796764  )
        16           O   tau(  16) = (  0.6666667  0.2222222  0.3796764  )
        17           Zn  tau(  17) = (  0.8333333  0.4444444  0.5006336  )
        18           Zn  tau(  18) = (  0.6666667  0.5555556  0.0006336  )
        19           O   tau(  19) = (  0.8333333  0.4444444  0.8796764  )
        20           O   tau(  20) = (  0.6666667  0.5555556  0.3796764  )
        21           Zn  tau(  21) = (  0.8333333  0.7777778  0.5006336  )
        22           Zn  tau(  22) = (  0.6666667  0.8888889  0.0006336  )
        23           O   tau(  23) = (  0.8333333  0.7777778  0.8796764  )
        24           O   tau(  24) = (  0.6666667  0.8888889  0.3796764  )

     number of k points=   112
                       cart. coord. in units 2pi/alat
        k(    1) = (   0.0000000   0.0000000   0.0000000), wk =   0.0092593
        k(    2) = (   0.0000000   0.0000000   0.1877094), wk =   0.0185185
        k(    3) = (   0.0000000   0.0000000   0.3754189), wk =   0.0185185
        k(    4) = (   0.0000000   0.0000000  -0.5631283), wk =   0.0092593
        k(    5) = (   0.0000000   0.1283001   0.0000000), wk =   0.0185185
        k(    6) = (   0.0000000   0.1283001   0.1877094), wk =   0.0185185
        k(    7) = (   0.0000000   0.1283001   0.3754189), wk =   0.0185185
        k(    8) = (   0.0000000   0.1283001  -0.5631283), wk =   0.0185185
        k(    9) = (   0.0000000   0.2566001   0.0000000), wk =   0.0185185
        k(   10) = (   0.0000000   0.2566001   0.1877094), wk =   0.0185185
        k(   11) = (   0.0000000   0.2566001   0.3754189), wk =   0.0185185
        k(   12) = (   0.0000000   0.2566001  -0.5631283), wk =   0.0185185
        k(   13) = (   0.0000000  -0.3849002   0.0000000), wk =   0.0092593
        k(   14) = (   0.0000000  -0.3849002   0.1877094), wk =   0.0185185
        k(   15) = (   0.0000000  -0.3849002   0.3754189), wk =   0.0185185
        k(   16) = (   0.0000000  -0.3849002  -0.5631283), wk =   0.0092593
        k(   17) = (   0.1666667   0.0962250   0.0000000), wk =   0.0185185
        k(   18) = (   0.1666667   0.0962250   0.1877094), wk =   0.0185185
        k(   19) = (   0.1666667   0.0962250   0.3754189), wk =   0.0185185
        k(   20) = (   0.1666667   0.0962250  -0.5631283), wk =   0.0185185
        k(   21) = (   0.1666667   0.2245251   0.0000000), wk =   0.0185185
        k(   22) = (   0.1666667   0.2245251   0.1877094), wk =   0.0185185
        k(   23) = (   0.1666667   0.2245251   0.3754189), wk =   0.0185185
        k(   24) = (   0.1666667   0.2245251  -0.5631283), wk =   0.0185185
        k(   25) = (   0.1666667   0.3528252   0.0000000), wk =   0.0185185
        k(   26) = (   0.1666667   0.3528252   0.1877094), wk =   0.0185185
        k(   27) = (   0.1666667   0.3528252   0.3754189), wk =   0.0185185
        k(   28) = (   0.1666667   0.3528252  -0.5631283), wk =   0.0185185
        k(   29) = (   0.1666667  -0.2886751   0.0000000), wk =   0.0185185
        k(   30) = (   0.1666667  -0.2886751   0.1877094), wk =   0.0185185
        k(   31) = (   0.1666667  -0.2886751   0.3754189), wk =   0.0185185
        k(   32) = (   0.1666667  -0.2886751  -0.5631283), wk =   0.0185185
        k(   33) = (   0.1666667  -0.1603751   0.0000000), wk =   0.0185185
        k(   34) = (   0.1666667  -0.1603751   0.1877094), wk =   0.0185185
        k(   35) = (   0.1666667  -0.1603751   0.3754189), wk =   0.0185185
        k(   36) = (   0.1666667  -0.1603751  -0.5631283), wk =   0.0185185
        k(   37) = (   0.1666667  -0.0320750   0.0000000), wk =   0.0185185
        k(   38) = (   0.1666667  -0.0320750   0.1877094), wk =   0.0185185
        k(   39) = (   0.1666667  -0.0320750   0.3754189), wk =   0.0185185
        k(   40) = (   0.1666667  -0.0320750  -0.5631283), wk =   0.0185185
        k(   41) = (   0.3333333   0.1924501   0.0000000), wk =   0.0185185
        k(   42) = (   0.3333333   0.1924501   0.1877094), wk =   0.0185185
        k(   43) = (   0.3333333   0.1924501   0.3754189), wk =   0.0185185
        k(   44) = (   0.3333333   0.1924501  -0.5631283), wk =   0.0185185
        k(   45) = (   0.3333333   0.3207501   0.0000000), wk =   0.0185185
[...]

!    total energy              =   -2168.91073381 Ry
     estimated scf accuracy    <          4.6E-09 Ry

     The total energy is the sum of the following terms:
     one-electron contribution =   -1180.47978965 Ry
     hartree contribution      =     803.64542929 Ry
     xc contribution           =    -653.50443112 Ry
     ewald contribution        =   -1138.57194234 Ry

     convergence has been achieved in  33 iterations

     Forces acting on atoms (cartesian axes, Ry/au):

     atom    1 type  1   force =     0.00000217    0.00001573   -0.01910674
     atom    2 type  1   force =     0.00000319   -0.00000296   -0.01911869
     atom    3 type  2   force =     0.00000021    0.00000135    0.01911104
     atom    4 type  2   force =    -0.00000008   -0.00000145    0.01911058
     atom    5 type  1   force =    -0.00000728   -0.00002280   -0.01910421
     atom    6 type  1   force =     0.00000909   -0.00002493   -0.01910625
     atom    7 type  2   force =     0.00000008    0.00000211    0.01911044
     atom    8 type  2   force =    -0.00000005   -0.00000158    0.01910947
     atom    9 type  1   force =    -0.00000198    0.00001170   -0.01910893
     atom   10 type  1   force =     0.00000092    0.00002662   -0.01911121
     atom   11 type  2   force =     0.00000003    0.00000178    0.01910881
     atom   12 type  2   force =    -0.00000011   -0.00000180    0.01910929
     atom   13 type  1   force =    -0.00000285    0.00001876   -0.01910695
     atom   14 type  1   force =    -0.00000205   -0.00001340   -0.01911219
     atom   15 type  2   force =    -0.00000011    0.00000132    0.01911069
     atom   16 type  2   force =     0.00000006   -0.00000139    0.01911080
     atom   17 type  1   force =     0.00000603   -0.00002450   -0.01911277
     atom   18 type  1   force =    -0.00000826   -0.00002419   -0.01911180
     atom   19 type  2   force =     0.00000000    0.00000154    0.01910923
     atom   20 type  2   force =     0.00000006   -0.00000192    0.01910875
     atom   21 type  1   force =     0.00000080    0.00001707   -0.01910470
     atom   22 type  1   force =     0.00000010    0.00002272   -0.01911256
     atom   23 type  2   force =    -0.00000001    0.00000170    0.01910883
     atom   24 type  2   force =     0.00000004   -0.00000148    0.01910909
     The non-local contrib.  to forces
     atom    1 type  1   force =     0.00000076   -0.00000758    0.20505835
     atom    2 type  1   force =     0.00000098    0.00001409    0.20505227
     atom    3 type  2   force =     0.00000095    0.00000519    0.25633656
     atom    4 type  2   force =    -0.00000062   -0.00000928    0.25633614
     atom    5 type  1   force =    -0.00000279   -0.00002526    0.20505969
     atom    6 type  1   force =     0.00000325   -0.00000021    0.20506023
     atom    7 type  2   force =     0.00000108    0.00002122    0.25633485
     atom    8 type  2   force =    -0.00000115   -0.00000435    0.25633243
     atom    9 type  1   force =    -0.00000012   -0.00000426    0.20505997
     atom   10 type  1   force =     0.00000052    0.00002547    0.20505753
     atom   11 type  2   force =     0.00000024    0.00000803    0.25633031
     atom   12 type  2   force =    -0.00000148   -0.00002075    0.25633231
     atom   13 type  1   force =    -0.00000151   -0.00000646    0.20505874
     atom   14 type  1   force =    -0.00000017    0.00001065    0.20505532
     atom   15 type  2   force =    -0.00000040    0.00000485    0.25633591
     atom   16 type  2   force =     0.00000025   -0.00000814    0.25633645
     atom   17 type  1   force =     0.00000175   -0.00002628    0.20505709
     atom   18 type  1   force =    -0.00000239    0.00000032    0.20505878
     atom   19 type  2   force =    -0.00000061    0.00002039    0.25633202
     atom   20 type  2   force =     0.00000080   -0.00000461    0.25633049
     atom   21 type  1   force =    -0.00000058   -0.00000341    0.20506217
     atom   22 type  1   force =     0.00000029    0.00002381    0.20505719
     atom   23 type  2   force =     0.00000029    0.00000697    0.25633021
     atom   24 type  2   force =     0.00000090   -0.00001947    0.25633169
     The ionic contribution  to forces
     atom    1 type  1   force =     0.00000000    0.00000001    1.58113646
     atom    2 type  1   force =     0.00000000    0.00000001    1.58113646
     atom    3 type  2   force =     0.00000000    0.00000000   -1.58113646
     atom    4 type  2   force =     0.00000000    0.00000001   -1.58113646
     atom    5 type  1   force =    -0.00000001    0.00000001    1.58113645
     atom    6 type  1   force =     0.00000000   -0.00000001    1.58113645
     atom    7 type  2   force =    -0.00000001    0.00000000   -1.58113645
     atom    8 type  2   force =     0.00000000   -0.00000000   -1.58113645
     atom    9 type  1   force =     0.00000000   -0.00000001    1.58113646
     atom   10 type  1   force =     0.00000000   -0.00000001    1.58113646
     atom   11 type  2   force =     0.00000000   -0.00000000   -1.58113646
     atom   12 type  2   force =     0.00000000   -0.00000000   -1.58113646
     atom   13 type  1   force =    -0.00000001    0.00000001    1.58113646
     atom   14 type  1   force =     0.00000000    0.00000000    1.58113645
     atom   15 type  2   force =    -0.00000001    0.00000000   -1.58113646
     atom   16 type  2   force =     0.00000000   -0.00000000   -1.58113645
     atom   17 type  1   force =    -0.00000001    0.00000001    1.58113645
     atom   18 type  1   force =     0.00000001   -0.00000001    1.58113645
     atom   19 type  2   force =    -0.00000001    0.00000000   -1.58113645
     atom   20 type  2   force =     0.00000000   -0.00000000   -1.58113645
     atom   21 type  1   force =     0.00000000   -0.00000001    1.58113646
     atom   22 type  1   force =    -0.00000000   -0.00000001    1.58113646
     atom   23 type  2   force =     0.00000000   -0.00000000   -1.58113646
     atom   24 type  2   force =    -0.00000000   -0.00000000   -1.58113646
     The local contribution  to forces
     atom    1 type  1   force =    -0.00000313   -0.00000511   -1.79453165
     atom    2 type  1   force =    -0.00000382   -0.00001331   -1.79451403
     atom    3 type  2   force =    -0.00000074   -0.00001420    1.34637122
     atom    4 type  2   force =     0.00000060    0.00000758    1.34636871
     atom    5 type  1   force =     0.00000994    0.00004948   -1.79453503
     atom    6 type  1   force =    -0.00001342    0.00001965   -1.79453321
     atom    7 type  2   force =     0.00000025    0.00000279    1.34637306
     atom    8 type  2   force =    -0.00000022    0.00002006    1.34637314
     atom    9 type  1   force =     0.00000202   -0.00000125   -1.79453063
     atom   10 type  1   force =    -0.00000087   -0.00005535   -1.79452561
     atom   11 type  2   force =    -0.00000139   -0.00001772    1.34637466
     atom   12 type  2   force =     0.00000000   -0.00000122    1.34637289
     atom   13 type  1   force =     0.00000434   -0.00000937   -1.79453131
     atom   14 type  1   force =     0.00000253    0.00000119   -1.79452348
     atom   15 type  2   force =     0.00000054   -0.00001348    1.34637221
     atom   16 type  2   force =    -0.00000059    0.00000971    1.34636938
     atom   17 type  1   force =    -0.00000840    0.00005319   -1.79452342
     atom   18 type  1   force =     0.00001208    0.00001837   -1.79452620
     atom   19 type  2   force =    -0.00000012    0.00000329    1.34637333
     atom   20 type  2   force =     0.00000030    0.00001952    1.34637389
     atom   21 type  1   force =    -0.00000078   -0.00000829   -1.79453687
     atom   22 type  1   force =    -0.00000045   -0.00004974   -1.79452408
     atom   23 type  2   force =     0.00000099   -0.00001727    1.34637628
     atom   24 type  2   force =     0.00000054   -0.00000110    1.34637315
     The core correction contribution to forces
     atom    1 type  1   force =     0.00000007    0.00000132   -0.01077361
     atom    2 type  1   force =     0.00000006   -0.00000116   -0.01077383
     atom    3 type  2   force =    -0.00000001   -0.00000006   -0.00246135
     atom    4 type  2   force =     0.00000001    0.00000010   -0.00246135
     atom    5 type  1   force =    -0.00000014    0.00000069   -0.01077361
     atom    6 type  1   force =     0.00000028   -0.00000115   -0.01077381
     atom    7 type  2   force =    -0.00000001   -0.00000024   -0.00246133
     atom    8 type  2   force =     0.00000001    0.00000004   -0.00246131
     atom    9 type  1   force =    -0.00000006    0.00000079   -0.01077390
     atom   10 type  1   force =    -0.00000003   -0.00000042   -0.01077385
     atom   11 type  2   force =    -0.00000000   -0.00000009   -0.00246129
     atom   12 type  2   force =     0.00000002    0.00000024   -0.00246131
     atom   13 type  1   force =    -0.00000004    0.00000139   -0.01077367
     atom   14 type  1   force =    -0.00000010   -0.00000147   -0.01077368
     atom   15 type  2   force =     0.00000001   -0.00000005   -0.00246134
     atom   16 type  2   force =    -0.00000001    0.00000009   -0.00246135
     atom   17 type  1   force =     0.00000018    0.00000061   -0.01077389
     atom   18 type  1   force =    -0.00000032   -0.00000115   -0.01077398
     atom   19 type  2   force =     0.00000001   -0.00000024   -0.00246131
     atom   20 type  2   force =    -0.00000001    0.00000005   -0.00246129
     atom   21 type  1   force =     0.00000010    0.00000101   -0.01077385
     atom   22 type  1   force =    -0.00000001   -0.00000052   -0.01077387
     atom   23 type  2   force =    -0.00000000   -0.00000007   -0.00246128
     atom   24 type  2   force =    -0.00000001    0.00000023   -0.00246130
     The Hubbard contrib.    to forces
     atom    1 type  1   force =     0.00000000    0.00000000    0.00000000
     atom    2 type  1   force =     0.00000000    0.00000000    0.00000000
     atom    3 type  2   force =     0.00000000    0.00000000    0.00000000
     atom    4 type  2   force =     0.00000000    0.00000000    0.00000000
     atom    5 type  1   force =     0.00000000    0.00000000    0.00000000
     atom    6 type  1   force =     0.00000000    0.00000000    0.00000000
     atom    7 type  2   force =     0.00000000    0.00000000    0.00000000
     atom    8 type  2   force =     0.00000000    0.00000000    0.00000000
     atom    9 type  1   force =     0.00000000    0.00000000    0.00000000
     atom   10 type  1   force =     0.00000000    0.00000000    0.00000000
     atom   11 type  2   force =     0.00000000    0.00000000    0.00000000
     atom   12 type  2   force =     0.00000000    0.00000000    0.00000000
     atom   13 type  1   force =     0.00000000    0.00000000    0.00000000
     atom   14 type  1   force =     0.00000000    0.00000000    0.00000000
     atom   15 type  2   force =     0.00000000    0.00000000    0.00000000
     atom   16 type  2   force =     0.00000000    0.00000000    0.00000000
     atom   17 type  1   force =     0.00000000    0.00000000    0.00000000
     atom   18 type  1   force =     0.00000000    0.00000000    0.00000000
     atom   19 type  2   force =     0.00000000    0.00000000    0.00000000
     atom   20 type  2   force =     0.00000000    0.00000000    0.00000000
     atom   21 type  1   force =     0.00000000    0.00000000    0.00000000
     atom   22 type  1   force =     0.00000000    0.00000000    0.00000000
     atom   23 type  2   force =     0.00000000    0.00000000    0.00000000
     atom   24 type  2   force =     0.00000000    0.00000000    0.00000000
     The SCF correction term to forces
     atom    1 type  1   force =     0.00000445    0.00002710    0.00000229
     atom    2 type  1   force =     0.00000596   -0.00000260   -0.00002099
     atom    3 type  2   force =    -0.00000000    0.00001041   -0.00000037
     atom    4 type  2   force =    -0.00000008    0.00000015    0.00000211
     atom    5 type  1   force =    -0.00001430   -0.00004772    0.00000685
     atom    6 type  1   force =     0.00001896   -0.00004321    0.00000265
     atom    7 type  2   force =    -0.00000126   -0.00002166   -0.00000112
     atom    8 type  2   force =     0.00000129   -0.00001732    0.00000023
     atom    9 type  1   force =    -0.00000384    0.00001643   -0.00000225
     atom   10 type  1   force =     0.00000129    0.00005694   -0.00000718
     atom   11 type  2   force =     0.00000118    0.00001157    0.00000016
     atom   12 type  2   force =     0.00000133    0.00001993    0.00000041
     atom   13 type  1   force =    -0.00000563    0.00003319    0.00000141
     atom   14 type  1   force =    -0.00000432   -0.00002378   -0.00000823
     atom   15 type  2   force =    -0.00000026    0.00000999   -0.00000106
     atom   16 type  2   force =     0.00000038   -0.00000304    0.00000135
     atom   17 type  1   force =     0.00001248   -0.00005203   -0.00001045
     atom   18 type  1   force =    -0.00001764   -0.00004172   -0.00000828
     atom   19 type  2   force =     0.00000071   -0.00002191    0.00000020
     atom   20 type  2   force =    -0.00000105   -0.00001688    0.00000068
     atom   21 type  1   force =     0.00000206    0.00002776    0.00000597
     atom   22 type  1   force =     0.00000026    0.00004917   -0.00000969
     atom   23 type  2   force =    -0.00000129    0.00001208   -0.00000135
     atom   24 type  2   force =    -0.00000140    0.00001886    0.00000057

     Total force =     0.093618     Total SCF correction =     0.000150

     General routines

     Parallel routines

   This run was terminated on:  17:41: 6  10Sep2025

   JOB DONE.
Note: The following floating-point exceptions are signalling: IEEE_UNDERFLOW_FLAG IEEE_DENORMAL
Note: The following floating-point exceptions are signalling: IEEE_UNDERFLOW_FLAG IEEE_DENORMAL
Note: The following floating-point exceptions are signalling: IEEE_UNDERFLOW_FLAG IEEE_DENORMAL
Note: The following floating-point exceptions are signalling: IEEE_UNDERFLOW_FLAG IEEE_DENORMAL
Note: The following floating-point exceptions are signalling: IEEE_UNDERFLOW_FLAG IEEE_DENORMAL
Note: The following floating-point exceptions are signalling: IEEE_UNDERFLOW_FLAG IEEE_DENORMAL
Note: The following floating-point exceptions are signalling: IEEE_UNDERFLOW_FLAG IEEE_DENORMAL
Note: The following floating-point exceptions are signalling: IEEE_UNDERFLOW_FLAG IEEE_DENORMAL
Note: The following floating-point exceptions are signalling: IEEE_UNDERFLOW_FLAG IEEE_DENORMAL
Note: The following floating-point exceptions are signalling: IEEE_UNDERFLOW_FLAG IEEE_DENORMAL
Note: The following floating-point exceptions are signalling: IEEE_UNDERFLOW_FLAG IEEE_DENORMAL
Note: The following floating-point exceptions are signalling: IEEE_UNDERFLOW_FLAG IEEE_DENORMAL
Note: The following floating-point exceptions are signalling: IEEE_UNDERFLOW_FLAG IEEE_DENORMAL
Note: The following floating-point exceptions are signalling: IEEE_UNDERFLOW_FLAG IEEE_DENORMAL
Note: The following floating-point exceptions are signalling: IEEE_UNDERFLOW_FLAG IEEE_DENORMAL
Note: The following floating-point exceptions are signalling: IEEE_UNDERFLOW_FLAG IEEE_DENORMAL
Note: The following floating-point exceptions are signalling: IEEE_UNDERFLOW_FLAG IEEE_DENORMAL
Note: The following floating-point exceptions are signalling: IEEE_UNDERFLOW_FLAG IEEE_DENORMAL
Note: The following floating-point exceptions are signalling: IEEE_UNDERFLOW_FLAG IEEE_DENORMAL
Note: The following floating-point exceptions are signalling: IEEE_UNDERFLOW_FLAG IEEE_DENORMAL
Note: The following floating-point exceptions are signalling: IEEE_UNDERFLOW_FLAG IEEE_DENORMAL
Note: The following floating-point exceptions are signalling: IEEE_UNDERFLOW_FLAG IEEE_DENORMAL
Note: The following floating-point exceptions are signalling: IEEE_UNDERFLOW_FLAG IEEE_DENORMAL
Note: The following floating-point exceptions are signalling: IEEE_UNDERFLOW_FLAG IEEE_DENORMAL
Note: The following floating-point exceptions are signalling: IEEE_UNDERFLOW_FLAG IEEE_DENORMAL
Note: The following floating-point exceptions are signalling: IEEE_UNDERFLOW_FLAG IEEE_DENORMAL
Note: The following floating-point exceptions are signalling: IEEE_UNDERFLOW_FLAG IEEE_DENORMAL
Note: The following floating-point exceptions are signalling: IEEE_UNDERFLOW_FLAG IEEE_DENORMAL
Note: The following floating-point exceptions are signalling: IEEE_UNDERFLOW_FLAG IEEE_DENORMAL
Note: The following floating-point exceptions are signalling: IEEE_UNDERFLOW_FLAG IEEE_DENORMAL
Note: The following floating-point exceptions are signalling: IEEE_UNDERFLOW_FLAG IEEE_DENORMAL
Note: The following floating-point exceptions are signalling: IEEE_UNDERFLOW_FLAG IEEE_DENORMAL