     Program PWSCF v.7.0 starts on  8Sep2025 at 11: 7: 2

     K-points division:     npool     =       8
     R & G space division:  proc/nbgrp/npool/nimage =       4

     Reading input from /home/jvc/QEspresso7.2/ZnO_database/scripts/cell231.in/ZnO-3.20-1.61-231.in
Warning: card &CELL ignored
Warning: card / ignored
Warning: card &FCP ignored
Warning: card / ignored
Warning: card &RISM ignored
Warning: card / ignored

     Current dimensions of program PWSCF are:
     Max number of different atomic species (ntypx) = 10
     Max number of k-points (npk) =  40000
     Max angular momentum in pseudopotentials (lmaxx) =  4
     file Zn.upf: wavefunction(s)  3D renormalized
     Found identity + (  0.0000  0.3333  0.0000) symmetry
     This is a supercell, fractional translations are disabled

     Using Slab Decomposition

     bravais-lattice index     =            0
     lattice parameter (alat)  =      12.1106  a.u.
     unit-cell volume          =    1862.4467 (a.u.)^3
     number of atoms/cell      =           24
     number of atomic types    =            2
     number of electrons       =       216.00
     number of Kohn-Sham states=          108
     kinetic-energy cutoff     =      50.0000  Ry
     charge density cutoff     =     400.0000  Ry
     scf convergence threshold =      1.0E-08
     mixing beta               =       0.3000
     number of iterations used =            8  plain     mixing
     Exchange-correlation= PBE
                           (   1   4   3   4   0   0   0)

     celldm(1)=  12.110554  celldm(2)=   0.000000  celldm(3)=   0.000000
     celldm(4)=   0.000000  celldm(5)=   0.000000  celldm(6)=   0.000000

     crystal axes: (cart. coord. in units of alat)
               a(1) = (   1.000000   0.000000   0.000000 )
               a(2) = (  -0.750000   1.299038   0.000000 )
               a(3) = (   0.000000   0.000000   0.807179 )

     reciprocal axes: (cart. coord. in units 2 pi/alat)
               b(1) = (  1.000000  0.577350 -0.000000 )
               b(2) = (  0.000000  0.769800  0.000000 )
               b(3) = (  0.000000 -0.000000  1.238882 )

     PseudoPot. # 1 for Zn read from file:
     /home/jvc/QEspresso7.2/ZnO_database/pseudos/Zn.upf
     MD5 check sum: 7f56cabf9682ed8c977c2f7d0c5985c5
     Pseudo is Ultrasoft + core correction, Zval = 12.0
     Generated using &quot;atomic&quot; code by A. Dal Corso  v.6.2.2
     Using radial grid of 1201 points,  6 beta functions with:
                l(1) =   0
                l(2) =   0
                l(3) =   1
                l(4) =   1
                l(5) =   2
                l(6) =   2
     Q(r) pseudized with 0 coefficients

     PseudoPot. # 2 for O  read from file:
     /home/jvc/QEspresso7.2/ZnO_database/pseudos/O.upf
     MD5 check sum: 91400c9766925bcf19f520983a725ff0
     Pseudo is Ultrasoft + core correction, Zval =  6.0
     Generated using &quot;atomic&quot; code by A. Dal Corso  v.6.3MaX
     Using radial grid of 1095 points,  4 beta functions with:
                l(1) =   0
                l(2) =   0
                l(3) =   1
                l(4) =   1
     Q(r) pseudized with 0 coefficients

     atomic species   valence    mass     pseudopotential
        Zn            12.00    65.38000     Zn( 1.00)
        O              6.00    15.99900     O ( 1.00)

     No symmetry found

                                    s                        frac. trans.

      isym =  1     identity

 cryst.   s( 1) = (     1          0          0      )
                  (     0          1          0      )
                  (     0          0          1      )

 cart.    s( 1) = (  1.0000000  0.0000000  0.0000000 )
                  (  0.0000000  1.0000000  0.0000000 )
                  (  0.0000000  0.0000000  1.0000000 )

   Cartesian axes

     site n.     atom                  positions (alat units)
         1           Zn  tau(   1) = (   0.2500000   0.1443376   0.4041010  )
         2           Zn  tau(   2) = (   0.0000000   0.2886751   0.0005114  )
         3           O   tau(   3) = (   0.2500000   0.1443376   0.7100565  )
         4           O   tau(   4) = (   0.0000000   0.2886751   0.3064669  )
         5           Zn  tau(   5) = (  -0.0000000   0.5773503   0.4041010  )
         6           Zn  tau(   6) = (  -0.2500000   0.7216878   0.0005114  )
         7           O   tau(   7) = (  -0.0000000   0.5773503   0.7100565  )
         8           O   tau(   8) = (  -0.2500000   0.7216878   0.3064669  )
         9           Zn  tau(   9) = (  -0.2500000   1.0103630   0.4041010  )
        10           Zn  tau(  10) = (  -0.5000000   1.1547005   0.0005114  )
        11           O   tau(  11) = (  -0.2500000   1.0103630   0.7100565  )
        12           O   tau(  12) = (  -0.5000000   1.1547005   0.3064669  )
        13           Zn  tau(  13) = (   0.7500000   0.1443376   0.4041010  )
        14           Zn  tau(  14) = (   0.5000000   0.2886751   0.0005114  )
        15           O   tau(  15) = (   0.7500000   0.1443376   0.7100565  )
        16           O   tau(  16) = (   0.5000000   0.2886751   0.3064669  )
        17           Zn  tau(  17) = (   0.5000000   0.5773503   0.4041010  )
        18           Zn  tau(  18) = (   0.2500000   0.7216878   0.0005114  )
        19           O   tau(  19) = (   0.5000000   0.5773503   0.7100565  )
        20           O   tau(  20) = (   0.2500000   0.7216878   0.3064669  )
        21           Zn  tau(  21) = (   0.2500000   1.0103630   0.4041010  )
        22           Zn  tau(  22) = (   0.0000000   1.1547005   0.0005114  )
        23           O   tau(  23) = (   0.2500000   1.0103630   0.7100565  )
        24           O   tau(  24) = (   0.0000000   1.1547005   0.3064669  )

   Crystallographic axes

     site n.     atom                  positions (cryst. coord.)
         1           Zn  tau(   1) = (  0.3333333  0.1111111  0.5006336  )
         2           Zn  tau(   2) = (  0.1666667  0.2222222  0.0006336  )
         3           O   tau(   3) = (  0.3333333  0.1111111  0.8796764  )
         4           O   tau(   4) = (  0.1666667  0.2222222  0.3796764  )
         5           Zn  tau(   5) = (  0.3333333  0.4444444  0.5006336  )
         6           Zn  tau(   6) = (  0.1666667  0.5555556  0.0006336  )
         7           O   tau(   7) = (  0.3333333  0.4444444  0.8796764  )
         8           O   tau(   8) = (  0.1666667  0.5555556  0.3796764  )
         9           Zn  tau(   9) = (  0.3333333  0.7777778  0.5006336  )
        10           Zn  tau(  10) = (  0.1666667  0.8888889  0.0006336  )
        11           O   tau(  11) = (  0.3333333  0.7777778  0.8796764  )
        12           O   tau(  12) = (  0.1666667  0.8888889  0.3796764  )
        13           Zn  tau(  13) = (  0.8333333  0.1111111  0.5006336  )
        14           Zn  tau(  14) = (  0.6666667  0.2222222  0.0006336  )
        15           O   tau(  15) = (  0.8333333  0.1111111  0.8796764  )
        16           O   tau(  16) = (  0.6666667  0.2222222  0.3796764  )
        17           Zn  tau(  17) = (  0.8333333  0.4444444  0.5006336  )
        18           Zn  tau(  18) = (  0.6666667  0.5555556  0.0006336  )
        19           O   tau(  19) = (  0.8333333  0.4444444  0.8796764  )
        20           O   tau(  20) = (  0.6666667  0.5555556  0.3796764  )
        21           Zn  tau(  21) = (  0.8333333  0.7777778  0.5006336  )
        22           Zn  tau(  22) = (  0.6666667  0.8888889  0.0006336  )
        23           O   tau(  23) = (  0.8333333  0.7777778  0.8796764  )
        24           O   tau(  24) = (  0.6666667  0.8888889  0.3796764  )

     number of k points=   112
                       cart. coord. in units 2pi/alat
        k(    1) = (   0.0000000   0.0000000   0.0000000), wk =   0.0092593
        k(    2) = (   0.0000000   0.0000000   0.2064804), wk =   0.0185185
        k(    3) = (   0.0000000   0.0000000   0.4129608), wk =   0.0185185
        k(    4) = (   0.0000000   0.0000000  -0.6194412), wk =   0.0092593
        k(    5) = (   0.0000000   0.1283001   0.0000000), wk =   0.0185185
        k(    6) = (   0.0000000   0.1283001   0.2064804), wk =   0.0185185
        k(    7) = (   0.0000000   0.1283001   0.4129608), wk =   0.0185185
        k(    8) = (   0.0000000   0.1283001  -0.6194412), wk =   0.0185185
        k(    9) = (   0.0000000   0.2566001   0.0000000), wk =   0.0185185
        k(   10) = (   0.0000000   0.2566001   0.2064804), wk =   0.0185185
        k(   11) = (   0.0000000   0.2566001   0.4129608), wk =   0.0185185
        k(   12) = (   0.0000000   0.2566001  -0.6194412), wk =   0.0185185
        k(   13) = (   0.0000000  -0.3849002   0.0000000), wk =   0.0092593
        k(   14) = (   0.0000000  -0.3849002   0.2064804), wk =   0.0185185
        k(   15) = (   0.0000000  -0.3849002   0.4129608), wk =   0.0185185
        k(   16) = (   0.0000000  -0.3849002  -0.6194412), wk =   0.0092593
        k(   17) = (   0.1666667   0.0962250   0.0000000), wk =   0.0185185
        k(   18) = (   0.1666667   0.0962250   0.2064804), wk =   0.0185185
        k(   19) = (   0.1666667   0.0962250   0.4129608), wk =   0.0185185
        k(   20) = (   0.1666667   0.0962250  -0.6194412), wk =   0.0185185
        k(   21) = (   0.1666667   0.2245251   0.0000000), wk =   0.0185185
        k(   22) = (   0.1666667   0.2245251   0.2064804), wk =   0.0185185
        k(   23) = (   0.1666667   0.2245251   0.4129608), wk =   0.0185185
        k(   24) = (   0.1666667   0.2245251  -0.6194412), wk =   0.0185185
        k(   25) = (   0.1666667   0.3528252   0.0000000), wk =   0.0185185
        k(   26) = (   0.1666667   0.3528252   0.2064804), wk =   0.0185185
        k(   27) = (   0.1666667   0.3528252   0.4129608), wk =   0.0185185
        k(   28) = (   0.1666667   0.3528252  -0.6194412), wk =   0.0185185
        k(   29) = (   0.1666667  -0.2886751   0.0000000), wk =   0.0185185
        k(   30) = (   0.1666667  -0.2886751   0.2064804), wk =   0.0185185
        k(   31) = (   0.1666667  -0.2886751   0.4129608), wk =   0.0185185
        k(   32) = (   0.1666667  -0.2886751  -0.6194412), wk =   0.0185185
        k(   33) = (   0.1666667  -0.1603751   0.0000000), wk =   0.0185185
        k(   34) = (   0.1666667  -0.1603751   0.2064804), wk =   0.0185185
        k(   35) = (   0.1666667  -0.1603751   0.4129608), wk =   0.0185185
        k(   36) = (   0.1666667  -0.1603751  -0.6194412), wk =   0.0185185
        k(   37) = (   0.1666667  -0.0320750   0.0000000), wk =   0.0185185
        k(   38) = (   0.1666667  -0.0320750   0.2064804), wk =   0.0185185
        k(   39) = (   0.1666667  -0.0320750   0.4129608), wk =   0.0185185
        k(   40) = (   0.1666667  -0.0320750  -0.6194412), wk =   0.0185185
        k(   41) = (   0.3333333   0.1924501   0.0000000), wk =   0.0185185
        k(   42) = (   0.3333333   0.1924501   0.2064804), wk =   0.0185185
        k(   43) = (   0.3333333   0.1924501   0.4129608), wk =   0.0185185
        k(   44) = (   0.3333333   0.1924501  -0.6194412), wk =   0.0185185
        k(   45) = (   0.3333333   0.3207501   0.0000000), wk =   0.0185185
[...]

!    total energy              =   -2169.77698630 Ry
     estimated scf accuracy    <          3.4E-11 Ry

     The total energy is the sum of the following terms:
     one-electron contribution =    -885.05986914 Ry
     hartree contribution      =     694.87700325 Ry
     xc contribution           =    -658.04140698 Ry
     ewald contribution        =   -1321.55271343 Ry

     convergence has been achieved in  31 iterations

     Forces acting on atoms (cartesian axes, Ry/au):

     atom    1 type  1   force =    -0.00000215    0.00000086    0.00019877
     atom    2 type  1   force =    -0.00000071    0.00000081    0.00019712
     atom    3 type  2   force =    -0.00000018    0.00000007   -0.00019838
     atom    4 type  2   force =     0.00000015   -0.00000010   -0.00019768
     atom    5 type  1   force =    -0.00000030   -0.00000065    0.00019768
     atom    6 type  1   force =     0.00000120   -0.00000165    0.00019852
     atom    7 type  2   force =     0.00000012    0.00000012   -0.00019798
     atom    8 type  2   force =     0.00000045    0.00000022   -0.00019790
     atom    9 type  1   force =     0.00000047   -0.00000217    0.00019778
     atom   10 type  1   force =    -0.00000201    0.00000037    0.00019728
     atom   11 type  2   force =     0.00000057    0.00000004   -0.00019831
     atom   12 type  2   force =    -0.00000028   -0.00000004   -0.00019776
     atom   13 type  1   force =     0.00000175    0.00000102    0.00019915
     atom   14 type  1   force =     0.00000095    0.00000065    0.00019670
     atom   15 type  2   force =     0.00000060   -0.00000015   -0.00019828
     atom   16 type  2   force =    -0.00000016   -0.00000006   -0.00019764
     atom   17 type  1   force =     0.00000042    0.00000085    0.00019860
     atom   18 type  1   force =    -0.00000111    0.00000032    0.00019799
     atom   19 type  2   force =    -0.00000013   -0.00000022   -0.00019828
     atom   20 type  2   force =    -0.00000040    0.00000013   -0.00019781
     atom   21 type  1   force =    -0.00000076   -0.00000095    0.00019854
     atom   22 type  1   force =     0.00000184    0.00000073    0.00019751
     atom   23 type  2   force =    -0.00000042    0.00000015   -0.00019816
     atom   24 type  2   force =     0.00000010   -0.00000033   -0.00019744
     The non-local contrib.  to forces
     atom    1 type  1   force =    -0.00000018   -0.00000236   -0.00499355
     atom    2 type  1   force =     0.00000009    0.00000199   -0.00499415
     atom    3 type  2   force =    -0.00000010    0.00000531    0.00483760
     atom    4 type  2   force =    -0.00000000   -0.00000528    0.00483803
     atom    5 type  1   force =    -0.00000025   -0.00000236   -0.00499413
     atom    6 type  1   force =    -0.00000028    0.00000190   -0.00499402
     atom    7 type  2   force =     0.00000027    0.00000528    0.00483778
     atom    8 type  2   force =     0.00000016   -0.00000484    0.00483849
     atom    9 type  1   force =    -0.00000018   -0.00000237   -0.00499350
     atom   10 type  1   force =    -0.00000050    0.00000197   -0.00499357
     atom   11 type  2   force =     0.00000037    0.00000517    0.00483789
     atom   12 type  2   force =    -0.00000051   -0.00000538    0.00483871
     atom   13 type  1   force =    -0.00000010   -0.00000175   -0.00499373
     atom   14 type  1   force =     0.00000025    0.00000285   -0.00499350
     atom   15 type  2   force =     0.00000079    0.00000481    0.00483805
     atom   16 type  2   force =    -0.00000042   -0.00000552    0.00483816
     atom   17 type  1   force =     0.00000011   -0.00000255   -0.00499368
     atom   18 type  1   force =     0.00000033    0.00000240   -0.00499359
     atom   19 type  2   force =    -0.00000007    0.00000526    0.00483789
     atom   20 type  2   force =    -0.00000072   -0.00000545    0.00483813
     atom   21 type  1   force =     0.00000001   -0.00000183   -0.00499388
     atom   22 type  1   force =     0.00000038    0.00000179   -0.00499327
     atom   23 type  2   force =    -0.00000032    0.00000518    0.00483792
     atom   24 type  2   force =    -0.00000042   -0.00000537    0.00483854
     The ionic contribution  to forces
     atom    1 type  1   force =     0.00000002    0.00000001    0.06530282
     atom    2 type  1   force =    -0.00000001    0.00000002    0.06530282
     atom    3 type  2   force =     0.00000001    0.00000000   -0.06530282
     atom    4 type  2   force =    -0.00000000    0.00000001   -0.06530282
     atom    5 type  1   force =     0.00000000    0.00000001    0.06530281
     atom    6 type  1   force =     0.00000001   -0.00000000    0.06530281
     atom    7 type  2   force =     0.00000000    0.00000001   -0.06530281
     atom    8 type  2   force =     0.00000001   -0.00000000   -0.06530281
     atom    9 type  1   force =     0.00000001   -0.00000000    0.06530281
     atom   10 type  1   force =     0.00000002   -0.00000000    0.06530282
     atom   11 type  2   force =     0.00000001    0.00000000   -0.06530281
     atom   12 type  2   force =     0.00000001   -0.00000000   -0.06530282
     atom   13 type  1   force =    -0.00000002    0.00000001    0.06530281
     atom   14 type  1   force =     0.00000001    0.00000000    0.06530281
     atom   15 type  2   force =    -0.00000001    0.00000001   -0.06530281
     atom   16 type  2   force =     0.00000001   -0.00000000   -0.06530281
     atom   17 type  1   force =    -0.00000001    0.00000000    0.06530281
     atom   18 type  1   force =     0.00000000   -0.00000001    0.06530281
     atom   19 type  2   force =    -0.00000001    0.00000000   -0.06530281
     atom   20 type  2   force =     0.00000000   -0.00000001   -0.06530281
     atom   21 type  1   force =    -0.00000002   -0.00000002    0.06530282
     atom   22 type  1   force =    -0.00000001   -0.00000001    0.06530281
     atom   23 type  2   force =    -0.00000001   -0.00000001   -0.06530282
     atom   24 type  2   force =    -0.00000001   -0.00000001   -0.06530281
     The local contribution  to forces
     atom    1 type  1   force =     0.00000223    0.00000105   -0.06066778
     atom    2 type  1   force =     0.00000084   -0.00000194   -0.06066594
     atom    3 type  2   force =     0.00000137   -0.00000584    0.06032277
     atom    4 type  2   force =     0.00000053    0.00000418    0.06032277
     atom    5 type  1   force =     0.00000053    0.00000205   -0.06066639
     atom    6 type  1   force =    -0.00000079    0.00000052   -0.06066722
     atom    7 type  2   force =     0.00000028   -0.00000466    0.06032270
     atom    8 type  2   force =    -0.00000070    0.00000576    0.06032219
     atom    9 type  1   force =    -0.00000024    0.00000366   -0.06066669
     atom   10 type  1   force =     0.00000250   -0.00000162   -0.06066649
     atom   11 type  2   force =    -0.00000020   -0.00000390    0.06032217
     atom   12 type  2   force =     0.00000130    0.00000509    0.06032168
     atom   13 type  1   force =    -0.00000182    0.00000037   -0.06066821
     atom   14 type  1   force =    -0.00000127   -0.00000250   -0.06066574
     atom   15 type  2   force =    -0.00000137   -0.00000572    0.06032233
     atom   16 type  2   force =    -0.00000044    0.00000454    0.06032263
     atom   17 type  1   force =    -0.00000039    0.00000071   -0.06066709
     atom   18 type  1   force =     0.00000073   -0.00000197   -0.06066725
     atom   19 type  2   force =    -0.00000048   -0.00000556    0.06032220
     atom   20 type  2   force =     0.00000101    0.00000550    0.06032283
     atom   21 type  1   force =     0.00000051    0.00000236   -0.06066739
     atom   22 type  1   force =    -0.00000232   -0.00000208   -0.06066676
     atom   23 type  2   force =     0.00000028   -0.00000462    0.06032229
     atom   24 type  2   force =    -0.00000072    0.00000496    0.06032257
     The core correction contribution to forces
     atom    1 type  1   force =    -0.00000004    0.00000028    0.00055476
     atom    2 type  1   force =    -0.00000004   -0.00000024    0.00055474
     atom    3 type  2   force =     0.00000000   -0.00000007   -0.00005576
     atom    4 type  2   force =    -0.00000000    0.00000006   -0.00005577
     atom    5 type  1   force =    -0.00000000    0.00000027    0.00055475
     atom    6 type  1   force =     0.00000002   -0.00000031    0.00055476
     atom    7 type  2   force =    -0.00000000   -0.00000006   -0.00005577
     atom    8 type  2   force =    -0.00000000    0.00000006   -0.00005578
     atom    9 type  1   force =     0.00000001    0.00000023    0.00055471
     atom   10 type  1   force =    -0.00000004   -0.00000025    0.00055471
     atom   11 type  2   force =    -0.00000000   -0.00000006   -0.00005577
     atom   12 type  2   force =     0.00000001    0.00000007   -0.00005578
     atom   13 type  1   force =     0.00000005    0.00000027    0.00055478
     atom   14 type  1   force =     0.00000003   -0.00000028    0.00055469
     atom   15 type  2   force =    -0.00000001   -0.00000006   -0.00005577
     atom   16 type  2   force =     0.00000000    0.00000007   -0.00005577
     atom   17 type  1   force =     0.00000001    0.00000032    0.00055472
     atom   18 type  1   force =    -0.00000003   -0.00000026    0.00055474
     atom   19 type  2   force =     0.00000000   -0.00000007   -0.00005577
     atom   20 type  2   force =     0.00000001    0.00000007   -0.00005577
     atom   21 type  1   force =    -0.00000000    0.00000022    0.00055476
     atom   22 type  1   force =     0.00000005   -0.00000022    0.00055470
     atom   23 type  2   force =     0.00000000   -0.00000006   -0.00005577
     atom   24 type  2   force =     0.00000000    0.00000006   -0.00005577
     The Hubbard contrib.    to forces
     atom    1 type  1   force =     0.00000000    0.00000000    0.00000000
     atom    2 type  1   force =     0.00000000    0.00000000    0.00000000
     atom    3 type  2   force =     0.00000000    0.00000000    0.00000000
     atom    4 type  2   force =     0.00000000    0.00000000    0.00000000
     atom    5 type  1   force =     0.00000000    0.00000000    0.00000000
     atom    6 type  1   force =     0.00000000    0.00000000    0.00000000
     atom    7 type  2   force =     0.00000000    0.00000000    0.00000000
     atom    8 type  2   force =     0.00000000    0.00000000    0.00000000
     atom    9 type  1   force =     0.00000000    0.00000000    0.00000000
     atom   10 type  1   force =     0.00000000    0.00000000    0.00000000
     atom   11 type  2   force =     0.00000000    0.00000000    0.00000000
     atom   12 type  2   force =     0.00000000    0.00000000    0.00000000
     atom   13 type  1   force =     0.00000000    0.00000000    0.00000000
     atom   14 type  1   force =     0.00000000    0.00000000    0.00000000
     atom   15 type  2   force =     0.00000000    0.00000000    0.00000000
     atom   16 type  2   force =     0.00000000    0.00000000    0.00000000
     atom   17 type  1   force =     0.00000000    0.00000000    0.00000000
     atom   18 type  1   force =     0.00000000    0.00000000    0.00000000
     atom   19 type  2   force =     0.00000000    0.00000000    0.00000000
     atom   20 type  2   force =     0.00000000    0.00000000    0.00000000
     atom   21 type  1   force =     0.00000000    0.00000000    0.00000000
     atom   22 type  1   force =     0.00000000    0.00000000    0.00000000
     atom   23 type  2   force =     0.00000000    0.00000000    0.00000000
     atom   24 type  2   force =     0.00000000    0.00000000    0.00000000
     The SCF correction term to forces
     atom    1 type  1   force =    -0.00000422    0.00000181    0.00000198
     atom    2 type  1   force =    -0.00000163    0.00000091   -0.00000089
     atom    3 type  2   force =    -0.00000150    0.00000060   -0.00000070
     atom    4 type  2   force =    -0.00000042    0.00000085   -0.00000043
     atom    5 type  1   force =    -0.00000062   -0.00000069    0.00000010
     atom    6 type  1   force =     0.00000219   -0.00000382    0.00000164
     atom    7 type  2   force =    -0.00000047   -0.00000051   -0.00000043
     atom    8 type  2   force =     0.00000094   -0.00000084   -0.00000054
     atom    9 type  1   force =     0.00000083   -0.00000376   -0.00000009
     atom   10 type  1   force =    -0.00000403    0.00000020   -0.00000073
     atom   11 type  2   force =     0.00000035   -0.00000123   -0.00000033
     atom   12 type  2   force =    -0.00000113    0.00000012   -0.00000009
     atom   13 type  1   force =     0.00000360    0.00000205    0.00000296
     atom   14 type  1   force =     0.00000189    0.00000051   -0.00000210
     atom   15 type  2   force =     0.00000116    0.00000074   -0.00000062
     atom   16 type  2   force =     0.00000065    0.00000078   -0.00000038
     atom   17 type  1   force =     0.00000066    0.00000230    0.00000130
     atom   18 type  1   force =    -0.00000218    0.00000010    0.00000074
     atom   19 type  2   force =     0.00000039    0.00000007   -0.00000033
     atom   20 type  2   force =    -0.00000074   -0.00000005   -0.00000073
     atom   21 type  1   force =    -0.00000130   -0.00000175    0.00000169
     atom   22 type  1   force =     0.00000370    0.00000117   -0.00000051
     atom   23 type  2   force =    -0.00000042   -0.00000041   -0.00000032
     atom   24 type  2   force =     0.00000119   -0.00000003   -0.00000051

     Total force =     0.000970     Total SCF correction =     0.000013

     General routines

     Parallel routines

   This run was terminated on:  11:40: 4   8Sep2025

   JOB DONE.
Note: The following floating-point exceptions are signalling: IEEE_UNDERFLOW_FLAG IEEE_DENORMAL
Note: The following floating-point exceptions are signalling: IEEE_UNDERFLOW_FLAG IEEE_DENORMAL
Note: The following floating-point exceptions are signalling: IEEE_UNDERFLOW_FLAG IEEE_DENORMAL
Note: The following floating-point exceptions are signalling: IEEE_UNDERFLOW_FLAG IEEE_DENORMAL
Note: The following floating-point exceptions are signalling: IEEE_UNDERFLOW_FLAG IEEE_DENORMAL
Note: The following floating-point exceptions are signalling: IEEE_UNDERFLOW_FLAG IEEE_DENORMAL
Note: The following floating-point exceptions are signalling: IEEE_UNDERFLOW_FLAG IEEE_DENORMAL
Note: The following floating-point exceptions are signalling: IEEE_UNDERFLOW_FLAG IEEE_DENORMAL
Note: The following floating-point exceptions are signalling: IEEE_UNDERFLOW_FLAG IEEE_DENORMAL
Note: The following floating-point exceptions are signalling: IEEE_UNDERFLOW_FLAG IEEE_DENORMAL
Note: The following floating-point exceptions are signalling: IEEE_UNDERFLOW_FLAG IEEE_DENORMAL
Note: The following floating-point exceptions are signalling: IEEE_UNDERFLOW_FLAG IEEE_DENORMAL
Note: The following floating-point exceptions are signalling: IEEE_UNDERFLOW_FLAG IEEE_DENORMAL
Note: The following floating-point exceptions are signalling: IEEE_UNDERFLOW_FLAG IEEE_DENORMAL
Note: The following floating-point exceptions are signalling: IEEE_UNDERFLOW_FLAG IEEE_DENORMAL
Note: The following floating-point exceptions are signalling: IEEE_UNDERFLOW_FLAG IEEE_DENORMAL
Note: The following floating-point exceptions are signalling: IEEE_UNDERFLOW_FLAG IEEE_DENORMAL
Note: The following floating-point exceptions are signalling: IEEE_UNDERFLOW_FLAG IEEE_DENORMAL
Note: The following floating-point exceptions are signalling: IEEE_UNDERFLOW_FLAG IEEE_DENORMAL
Note: The following floating-point exceptions are signalling: IEEE_UNDERFLOW_FLAG IEEE_DENORMAL
Note: The following floating-point exceptions are signalling: IEEE_UNDERFLOW_FLAG IEEE_DENORMAL
Note: The following floating-point exceptions are signalling: IEEE_UNDERFLOW_FLAG IEEE_DENORMAL
Note: The following floating-point exceptions are signalling: IEEE_UNDERFLOW_FLAG IEEE_DENORMAL
Note: The following floating-point exceptions are signalling: IEEE_UNDERFLOW_FLAG IEEE_DENORMAL
Note: The following floating-point exceptions are signalling: IEEE_UNDERFLOW_FLAG IEEE_DENORMAL
Note: The following floating-point exceptions are signalling: IEEE_UNDERFLOW_FLAG IEEE_DENORMAL
Note: The following floating-point exceptions are signalling: IEEE_UNDERFLOW_FLAG IEEE_DENORMAL
Note: The following floating-point exceptions are signalling: IEEE_UNDERFLOW_FLAG IEEE_DENORMAL
Note: The following floating-point exceptions are signalling: IEEE_UNDERFLOW_FLAG IEEE_DENORMAL
Note: The following floating-point exceptions are signalling: IEEE_UNDERFLOW_FLAG IEEE_DENORMAL
Note: The following floating-point exceptions are signalling: IEEE_UNDERFLOW_FLAG IEEE_DENORMAL
Note: The following floating-point exceptions are signalling: IEEE_UNDERFLOW_FLAG IEEE_DENORMAL