     Program PWSCF v.7.0 starts on 27Aug2025 at 22:38: 7

     K-points division:     npool     =      17

     Reading input from /home/jvc/QEspresso7.2/ZnO_database/scripts/cell311.in/ZnO-3.34-1.74-311.in
Warning: card &CELL ignored
Warning: card / ignored
Warning: card &FCP ignored
Warning: card / ignored
Warning: card &RISM ignored
Warning: card / ignored

     Current dimensions of program PWSCF are:
     Max number of different atomic species (ntypx) = 10
     Max number of k-points (npk) =  40000
     Max angular momentum in pseudopotentials (lmaxx) =  4
     file Zn.upf: wavefunction(s)  3D renormalized
     Found identity + (  0.3333  0.0000  0.0000) symmetry
     This is a supercell, fractional translations are disabled
     Message from routine setup:
     using ibrav=0 with symmetry is DISCOURAGED, use correct ibrav instead

     Subspace diagonalization in iterative solution of the eigenvalue problem:
     a serial algorithm will be used

     Using Slab Decomposition

     bravais-lattice index     =            0
     lattice parameter (alat)  =      18.9073  a.u.
     unit-cell volume          =    1133.9656 (a.u.)^3
     number of atoms/cell      =           12
     number of atomic types    =            2
     number of electrons       =       108.00
     number of Kohn-Sham states=           54
     kinetic-energy cutoff     =      50.0000  Ry
     charge density cutoff     =     400.0000  Ry
     scf convergence threshold =      1.0E-08
     mixing beta               =       0.3000
     number of iterations used =            8  plain     mixing
     Exchange-correlation= PBE
                           (   1   4   3   4   0   0   0)

     celldm(1)=  18.907293  celldm(2)=   0.000000  celldm(3)=   0.000000
     celldm(4)=   0.000000  celldm(5)=   0.000000  celldm(6)=   0.000000

     crystal axes: (cart. coord. in units of alat)
               a(1) = (   1.000000   0.000000   0.000000 )
               a(2) = (  -0.166667   0.288675   0.000000 )
               a(3) = (   0.000000   0.000000   0.581169 )

     reciprocal axes: (cart. coord. in units 2 pi/alat)
               b(1) = (  1.000000  0.577350 -0.000000 )
               b(2) = (  0.000000  3.464102  0.000000 )
               b(3) = (  0.000000 -0.000000  1.720670 )

     PseudoPot. # 1 for Zn read from file:
     /home/jvc/QEspresso7.2/ZnO_database/pseudos/Zn.upf
     MD5 check sum: 7f56cabf9682ed8c977c2f7d0c5985c5
     Pseudo is Ultrasoft + core correction, Zval = 12.0
     Generated using &quot;atomic&quot; code by A. Dal Corso  v.6.2.2
     Using radial grid of 1201 points,  6 beta functions with:
                l(1) =   0
                l(2) =   0
                l(3) =   1
                l(4) =   1
                l(5) =   2
                l(6) =   2
     Q(r) pseudized with 0 coefficients

     PseudoPot. # 2 for O  read from file:
     /home/jvc/QEspresso7.2/ZnO_database/pseudos/O.upf
     MD5 check sum: 91400c9766925bcf19f520983a725ff0
     Pseudo is Ultrasoft + core correction, Zval =  6.0
     Generated using &quot;atomic&quot; code by A. Dal Corso  v.6.3MaX
     Using radial grid of 1095 points,  4 beta functions with:
                l(1) =   0
                l(2) =   0
                l(3) =   1
                l(4) =   1
     Q(r) pseudized with 0 coefficients

     atomic species   valence    mass     pseudopotential
        Zn            12.00    65.38000     Zn( 1.00)
        O              6.00    15.99900     O ( 1.00)

      2 Sym. Ops. (no inversion) found

                                    s                        frac. trans.

      isym =  1     identity

 cryst.   s( 1) = (     1          0          0      )
                  (     0          1          0      )
                  (     0          0          1      )

 cart.    s( 1) = (  1.0000000  0.0000000  0.0000000 )
                  (  0.0000000  1.0000000  0.0000000 )
                  (  0.0000000  0.0000000  1.0000000 )

      isym =  2     inv. 180 deg rotation - cryst. axis [0,1,0]

 cryst.   s( 2) = (     1          3          0      )
                  (     0         -1          0      )
                  (     0          0          1      )

 cart.    s( 2) = (  0.5000000  0.8660254  0.0000000 )
                  (  0.8660254 -0.5000000  0.0000000 )
                  (  0.0000000  0.0000000  1.0000000 )

   Cartesian axes

     site n.     atom                  positions (alat units)
         1           Zn  tau(   1) = (   0.1666667   0.0962250   0.2909527  )
         2           Zn  tau(   2) = (  -0.0000000   0.1924501   0.0003682  )
         3           O   tau(   3) = (   0.1666667   0.0962250   0.5112407  )
         4           O   tau(   4) = (  -0.0000000   0.1924501   0.2206562  )
         5           Zn  tau(   5) = (   0.5000000   0.0962250   0.2909527  )
         6           Zn  tau(   6) = (   0.3333333   0.1924501   0.0003682  )
         7           O   tau(   7) = (   0.5000000   0.0962250   0.5112407  )
         8           O   tau(   8) = (   0.3333333   0.1924501   0.2206562  )
         9           Zn  tau(   9) = (   0.8333333   0.0962250   0.2909527  )
        10           Zn  tau(  10) = (   0.6666667   0.1924501   0.0003682  )
        11           O   tau(  11) = (   0.8333333   0.0962250   0.5112407  )
        12           O   tau(  12) = (   0.6666667   0.1924501   0.2206562  )

   Crystallographic axes

     site n.     atom                  positions (cryst. coord.)
         1           Zn  tau(   1) = (  0.2222222  0.3333333  0.5006336  )
         2           Zn  tau(   2) = (  0.1111111  0.6666667  0.0006336  )
         3           O   tau(   3) = (  0.2222222  0.3333333  0.8796764  )
         4           O   tau(   4) = (  0.1111111  0.6666667  0.3796764  )
         5           Zn  tau(   5) = (  0.5555556  0.3333333  0.5006336  )
         6           Zn  tau(   6) = (  0.4444444  0.6666667  0.0006336  )
         7           O   tau(   7) = (  0.5555556  0.3333333  0.8796764  )
         8           O   tau(   8) = (  0.4444444  0.6666667  0.3796764  )
         9           Zn  tau(   9) = (  0.8888889  0.3333333  0.5006336  )
        10           Zn  tau(  10) = (  0.7777778  0.6666667  0.0006336  )
        11           O   tau(  11) = (  0.8888889  0.3333333  0.8796764  )
        12           O   tau(  12) = (  0.7777778  0.6666667  0.3796764  )

     number of k points=    68
                       cart. coord. in units 2pi/alat
        k(    1) = (   0.0000000   0.0000000   0.0000000), wk =   0.0092593
        k(    2) = (   0.0000000   0.0000000   0.2867783), wk =   0.0185185
        k(    3) = (   0.0000000   0.0000000   0.5735566), wk =   0.0185185
        k(    4) = (   0.0000000   0.0000000  -0.8603349), wk =   0.0092593
        k(    5) = (   0.0000000   0.5773503   0.0000000), wk =   0.0370370
        k(    6) = (   0.0000000   0.5773503   0.2867783), wk =   0.0370370
        k(    7) = (   0.0000000   0.5773503   0.5735566), wk =   0.0370370
        k(    8) = (   0.0000000   0.5773503  -0.8603349), wk =   0.0370370
        k(    9) = (   0.0000000   1.1547005   0.0000000), wk =   0.0185185
        k(   10) = (   0.0000000   1.1547005   0.2867783), wk =   0.0370370
        k(   11) = (   0.0000000   1.1547005   0.5735566), wk =   0.0370370
        k(   12) = (   0.0000000   1.1547005  -0.8603349), wk =   0.0185185
        k(   13) = (   0.0000000  -1.7320508   0.0000000), wk =   0.0185185
        k(   14) = (   0.0000000  -1.7320508   0.2867783), wk =   0.0370370
        k(   15) = (   0.0000000  -1.7320508   0.5735566), wk =   0.0370370
        k(   16) = (   0.0000000  -1.7320508  -0.8603349), wk =   0.0185185
        k(   17) = (   0.1666667   0.0962250   0.0000000), wk =   0.0185185
        k(   18) = (   0.1666667   0.0962250   0.2867783), wk =   0.0185185
        k(   19) = (   0.1666667   0.0962250   0.5735566), wk =   0.0185185
        k(   20) = (   0.1666667   0.0962250  -0.8603349), wk =   0.0185185
        k(   21) = (   0.1666667   0.6735753   0.0000000), wk =   0.0370370
        k(   22) = (   0.1666667   0.6735753   0.2867783), wk =   0.0370370
        k(   23) = (   0.1666667   0.6735753   0.5735566), wk =   0.0370370
        k(   24) = (   0.1666667   0.6735753  -0.8603349), wk =   0.0370370
        k(   25) = (   0.1666667   1.2509256   0.0000000), wk =   0.0370370
        k(   26) = (   0.1666667   1.2509256   0.2867783), wk =   0.0370370
        k(   27) = (   0.1666667   1.2509256   0.5735566), wk =   0.0370370
        k(   28) = (   0.1666667   1.2509256  -0.8603349), wk =   0.0370370
        k(   29) = (   0.1666667  -1.6358258   0.0000000), wk =   0.0370370
        k(   30) = (   0.1666667  -1.6358258   0.2867783), wk =   0.0370370
        k(   31) = (   0.1666667  -1.6358258   0.5735566), wk =   0.0370370
        k(   32) = (   0.1666667  -1.6358258  -0.8603349), wk =   0.0370370
        k(   33) = (   0.1666667  -0.4811252   0.0000000), wk =   0.0370370
        k(   34) = (   0.1666667  -0.4811252   0.2867783), wk =   0.0370370
        k(   35) = (   0.1666667  -0.4811252   0.5735566), wk =   0.0370370
        k(   36) = (   0.1666667  -0.4811252  -0.8603349), wk =   0.0370370
        k(   37) = (   0.3333333   0.1924501   0.0000000), wk =   0.0185185
        k(   38) = (   0.3333333   0.1924501   0.2867783), wk =   0.0185185
        k(   39) = (   0.3333333   0.1924501   0.5735566), wk =   0.0185185
        k(   40) = (   0.3333333   0.1924501  -0.8603349), wk =   0.0185185
        k(   41) = (   0.3333333   1.3471506   0.0000000), wk =   0.0370370
        k(   42) = (   0.3333333   1.3471506   0.2867783), wk =   0.0370370
        k(   43) = (   0.3333333   1.3471506   0.5735566), wk =   0.0370370
        k(   44) = (   0.3333333   1.3471506  -0.8603349), wk =   0.0370370
        k(   45) = (  -0.5000000  -0.2886751   0.0000000), wk =   0.0092593
        k(   46) = (  -0.5000000  -0.2886751   0.2867783), wk =   0.0185185
        k(   47) = (  -0.5000000  -0.2886751   0.5735566), wk =   0.0185185
        k(   48) = (  -0.5000000  -0.2886751  -0.8603349), wk =   0.0092593
        k(   49) = (  -0.5000000   0.8660254   0.0000000), wk =   0.0185185
        k(   50) = (  -0.5000000   0.8660254   0.2867783), wk =   0.0370370
        k(   51) = (  -0.5000000   0.8660254   0.5735566), wk =   0.0370370
        k(   52) = (  -0.5000000   0.8660254  -0.8603349), wk =   0.0185185
        k(   53) = (   0.5000000  -0.2886751  -0.2867783), wk =   0.0370370
        k(   54) = (   0.5000000  -0.2886751  -0.5735566), wk =   0.0370370
        k(   55) = (   0.1666667   0.0962250  -0.2867783), wk =   0.0185185
        k(   56) = (   0.1666667   0.0962250  -0.5735566), wk =   0.0185185
        k(   57) = (   0.6666667  -0.1924501  -0.2867783), wk =   0.0370370
        k(   58) = (   0.6666667  -0.1924501  -0.5735566), wk =   0.0370370
        k(   59) = (   1.1666667  -0.4811252  -0.2867783), wk =   0.0370370
        k(   60) = (   1.1666667  -0.4811252  -0.5735566), wk =   0.0370370
        k(   61) = (  -1.3333333   0.9622504  -0.2867783), wk =   0.0370370
        k(   62) = (  -1.3333333   0.9622504  -0.5735566), wk =   0.0370370
        k(   63) = (  -0.3333333   0.3849002  -0.2867783), wk =   0.0370370
        k(   64) = (  -0.3333333   0.3849002  -0.5735566), wk =   0.0370370
        k(   65) = (   0.3333333   0.1924501  -0.2867783), wk =   0.0185185
        k(   66) = (   0.3333333   0.1924501  -0.5735566), wk =   0.0185185
        k(   67) = (   1.3333333  -0.3849002  -0.2867783), wk =   0.0370370
        k(   68) = (   1.3333333  -0.3849002  -0.5735566), wk =   0.0370370

                       cryst. coord.
        k(    1) = (   0.0000000   0.0000000   0.0000000), wk =   0.0092593
        k(    2) = (   0.0000000   0.0000000   0.1666667), wk =   0.0185185
        k(    3) = (   0.0000000   0.0000000   0.3333333), wk =   0.0185185
        k(    4) = (   0.0000000   0.0000000  -0.5000000), wk =   0.0092593
        k(    5) = (   0.0000000   0.1666667   0.0000000), wk =   0.0370370
        k(    6) = (   0.0000000   0.1666667   0.1666667), wk =   0.0370370
        k(    7) = (   0.0000000   0.1666667   0.3333333), wk =   0.0370370
        k(    8) = (   0.0000000   0.1666667  -0.5000000), wk =   0.0370370
        k(    9) = (   0.0000000   0.3333333   0.0000000), wk =   0.0185185
        k(   10) = (   0.0000000   0.3333333   0.1666667), wk =   0.0370370
        k(   11) = (   0.0000000   0.3333333   0.3333333), wk =   0.0370370
        k(   12) = (   0.0000000   0.3333333  -0.5000000), wk =   0.0185185
        k(   13) = (   0.0000000  -0.5000000   0.0000000), wk =   0.0185185
        k(   14) = (   0.0000000  -0.5000000   0.1666667), wk =   0.0370370
        k(   15) = (   0.0000000  -0.5000000   0.3333333), wk =   0.0370370
        k(   16) = (   0.0000000  -0.5000000  -0.5000000), wk =   0.0185185
        k(   17) = (   0.1666667  -0.0000000   0.0000000), wk =   0.0185185
        k(   18) = (   0.1666667  -0.0000000   0.1666667), wk =   0.0185185
        k(   19) = (   0.1666667  -0.0000000   0.3333333), wk =   0.0185185
        k(   20) = (   0.1666667  -0.0000000  -0.5000000), wk =   0.0185185
        k(   21) = (   0.1666667   0.1666667   0.0000000), wk =   0.0370370
        k(   22) = (   0.1666667   0.1666667   0.1666667), wk =   0.0370370
        k(   23) = (   0.1666667   0.1666667   0.3333333), wk =   0.0370370
        k(   24) = (   0.1666667   0.1666667  -0.5000000), wk =   0.0370370
        k(   25) = (   0.1666667   0.3333333   0.0000000), wk =   0.0370370
        k(   26) = (   0.1666667   0.3333333   0.1666667), wk =   0.0370370
        k(   27) = (   0.1666667   0.3333333   0.3333333), wk =   0.0370370
        k(   28) = (   0.1666667   0.3333333  -0.5000000), wk =   0.0370370
        k(   29) = (   0.1666667  -0.5000000   0.0000000), wk =   0.0370370
        k(   30) = (   0.1666667  -0.5000000   0.1666667), wk =   0.0370370
        k(   31) = (   0.1666667  -0.5000000   0.3333333), wk =   0.0370370
        k(   32) = (   0.1666667  -0.5000000  -0.5000000), wk =   0.0370370
        k(   33) = (   0.1666667  -0.1666667   0.0000000), wk =   0.0370370
        k(   34) = (   0.1666667  -0.1666667   0.1666667), wk =   0.0370370
        k(   35) = (   0.1666667  -0.1666667   0.3333333), wk =   0.0370370
        k(   36) = (   0.1666667  -0.1666667  -0.5000000), wk =   0.0370370
        k(   37) = (   0.3333333  -0.0000000   0.0000000), wk =   0.0185185
        k(   38) = (   0.3333333  -0.0000000   0.1666667), wk =   0.0185185
        k(   39) = (   0.3333333  -0.0000000   0.3333333), wk =   0.0185185
        k(   40) = (   0.3333333  -0.0000000  -0.5000000), wk =   0.0185185
        k(   41) = (   0.3333333   0.3333333   0.0000000), wk =   0.0370370
        k(   42) = (   0.3333333   0.3333333   0.1666667), wk =   0.0370370
        k(   43) = (   0.3333333   0.3333333   0.3333333), wk =   0.0370370
        k(   44) = (   0.3333333   0.3333333  -0.5000000), wk =   0.0370370
        k(   45) = (  -0.5000000   0.0000000   0.0000000), wk =   0.0092593
        k(   46) = (  -0.5000000   0.0000000   0.1666667), wk =   0.0185185
        k(   47) = (  -0.5000000   0.0000000   0.3333333), wk =   0.0185185
        k(   48) = (  -0.5000000   0.0000000  -0.5000000), wk =   0.0092593
        k(   49) = (  -0.5000000   0.3333333   0.0000000), wk =   0.0185185
        k(   50) = (  -0.5000000   0.3333333   0.1666667), wk =   0.0370370
        k(   51) = (  -0.5000000   0.3333333   0.3333333), wk =   0.0370370
        k(   52) = (  -0.5000000   0.3333333  -0.5000000), wk =   0.0185185
        k(   53) = (   0.5000000  -0.1666667  -0.1666667), wk =   0.0370370
        k(   54) = (   0.5000000  -0.1666667  -0.3333333), wk =   0.0370370
        k(   55) = (   0.1666667   0.0000000  -0.1666667), wk =   0.0185185
        k(   56) = (   0.1666667   0.0000000  -0.3333333), wk =   0.0185185
        k(   57) = (   0.6666667  -0.1666667  -0.1666667), wk =   0.0370370
        k(   58) = (   0.6666667  -0.1666667  -0.3333333), wk =   0.0370370
        k(   59) = (   1.1666667  -0.3333333  -0.1666667), wk =   0.0370370
        k(   60) = (   1.1666667  -0.3333333  -0.3333333), wk =   0.0370370
        k(   61) = (  -1.3333333   0.5000000  -0.1666667), wk =   0.0370370
        k(   62) = (  -1.3333333   0.5000000  -0.3333333), wk =   0.0370370
        k(   63) = (  -0.3333333   0.1666667  -0.1666667), wk =   0.0370370
        k(   64) = (  -0.3333333   0.1666667  -0.3333333), wk =   0.0370370
        k(   65) = (   0.3333333   0.0000000  -0.1666667), wk =   0.0185185
        k(   66) = (   0.3333333   0.0000000  -0.3333333), wk =   0.0185185
        k(   67) = (   1.3333333  -0.3333333  -0.1666667), wk =   0.0370370
        k(   68) = (   1.3333333  -0.3333333  -0.3333333), wk =   0.0370370

     Check: negative core charge=   -0.000002

     Initial potential from superposition of free atoms

     starting charge     107.9776, renormalised to     108.0000
     Starting wfcs are   78 randomized atomic wfcs

     Self-consistent Calculation

     iteration #  1     ecut=    50.00 Ry     beta= 0.30
     Davidson diagonalization with overlap

     ethr =  1.00E-02,  avg # of iterations =  1.7

     total energy              =   -1084.29412980 Ry
     estimated scf accuracy    <       2.27176988 Ry

[...]

     c_bands:  1 eigenvalues not converged
     ethr =  1.12E-07,  avg # of iterations = 10.0

[...]

     c_bands:  1 eigenvalues not converged
     c_bands:  1 eigenvalues not converged
     ethr =  1.51E-08,  avg # of iterations = 15.1

[...]

     total energy              =   -1084.83084323 Ry
     estimated scf accuracy    <       0.00000015 Ry

     iteration # 36     ecut=    50.00 Ry     beta= 0.30
     Davidson diagonalization with overlap

     ethr =  1.39E-10,  avg # of iterations =  6.0

     End of self-consistent calculation

          k = 0.0000 0.0000 0.0000 (  6811 PWs)   bands (ev):

   -11.9121 -11.5517 -11.5517 -11.5000 -11.3186 -11.3186  -0.2044  -0.2044
    -0.0827  -0.0824  -0.0269   0.0122   0.0122   0.0290   0.0292   0.1013
     0.1013   0.2849   0.3265   0.3265   0.3403   0.3403   0.5387   0.5387
     0.6638   0.6638   0.7302   0.7303   0.7825   0.7826   0.8374   0.8374
     0.8598   0.8598   1.0212   1.0212   1.2569   1.6901   1.6901   2.2687
     2.2687   2.9699   2.9699   3.8028   3.8028   4.3789   4.3789   4.5706
     4.5707   4.6370   4.6376   4.8645   5.1121   5.1128

     occupation numbers
     1.0000   1.0000   1.0000   1.0000   1.0000   1.0000   1.0000   1.0000
     1.0000   1.0000   1.0000   1.0000   1.0000   1.0000   1.0000   1.0000
     1.0000   1.0000   1.0000   1.0000   1.0000   1.0000   1.0000   1.0000
     1.0000   1.0000   1.0000   1.0000   1.0000   1.0000   1.0000   1.0000
     1.0000   1.0000   1.0000   1.0000   1.0000   1.0000   1.0000   1.0000
     1.0000   1.0000   1.0000   1.0000   1.0000   1.0000   1.0000   1.0000
     1.0000   1.0000   1.0000   1.0000   1.0000   1.0000

[...]

          k =-0.5000-0.2887 0.0000 (  6736 PWs)   bands (ev):

[...]

          k =-0.3333 0.3849-0.5736 (  6761 PWs)   bands (ev):

[...]

          k = 1.3333-0.3849-0.5736 (  6771 PWs)   bands (ev):

   -11.5433 -11.4138 -11.4094 -11.3381 -11.3287 -11.2936  -0.1782  -0.1456
    -0.0820  -0.0521  -0.0246   0.0952   0.1069   0.1640   0.1793   0.2081
     0.2667   0.3005   0.3272   0.3304   0.3884   0.4104   0.4605   0.5000
     0.7307   0.7624   0.7631   0.7853   0.8033   0.8274   0.8309   0.8742
     0.8791   0.9427   0.9619   1.0449   1.6300   1.7801   1.8372   2.0524
     2.1764   2.6756   2.8396   3.2946   3.3759   3.4003   3.6132   3.6654
     3.9443   4.0040   4.0335   4.1621   4.2484   4.3568

     occupation numbers
     1.0000   1.0000   1.0000   1.0000   1.0000   1.0000   1.0000   1.0000
     1.0000   1.0000   1.0000   1.0000   1.0000   1.0000   1.0000   1.0000
     1.0000   1.0000   1.0000   1.0000   1.0000   1.0000   1.0000   1.0000
     1.0000   1.0000   1.0000   1.0000   1.0000   1.0000   1.0000   1.0000
     1.0000   1.0000   1.0000   1.0000   1.0000   1.0000   1.0000   1.0000
     1.0000   1.0000   1.0000   1.0000   1.0000   1.0000   1.0000   1.0000
     1.0000   1.0000   1.0000   1.0000   1.0000   1.0000

     highest occupied level (ev):     5.1128

!    total energy              =   -1084.83084327 Ry
     estimated scf accuracy    <          5.3E-09 Ry

     The total energy is the sum of the following terms:
     one-electron contribution =    -510.81994058 Ry
     hartree contribution      =     372.00867638 Ry
     xc contribution           =    -327.87598569 Ry
     ewald contribution        =    -618.14359338 Ry

     convergence has been achieved in  36 iterations

     Forces acting on atoms (cartesian axes, Ry/au):

     atom    1 type  1   force =    -0.00000262   -0.00000151    0.00128152
     atom    2 type  1   force =     0.00000280    0.00000162    0.00128647
     atom    3 type  2   force =    -0.00000644   -0.00000372   -0.00128220
     atom    4 type  2   force =     0.00000800    0.00000462   -0.00128378
     atom    5 type  1   force =     0.00000938    0.00000542    0.00127844
     atom    6 type  1   force =     0.00001116    0.00000644    0.00128357
     atom    7 type  2   force =    -0.00000655   -0.00000378   -0.00128037
     atom    8 type  2   force =     0.00000726    0.00000419   -0.00128326
     atom    9 type  1   force =    -0.00001276   -0.00000737    0.00127780
     atom   10 type  1   force =    -0.00000696   -0.00000402    0.00128584
     atom   11 type  2   force =    -0.00000887   -0.00000512   -0.00128218
     atom   12 type  2   force =     0.00000561    0.00000324   -0.00128185
     The non-local contrib.  to forces
     atom    1 type  1   force =     0.00000887    0.00000512    0.19306940
     atom    2 type  1   force =    -0.00001162   -0.00000671    0.19306741
     atom    3 type  2   force =    -0.00021826   -0.00012601    0.20386761
     atom    4 type  2   force =     0.00022070    0.00012742    0.20387001
     atom    5 type  1   force =     0.00001478    0.00000853    0.19306490
     atom    6 type  1   force =    -0.00000824   -0.00000476    0.19306657
     atom    7 type  2   force =    -0.00022150   -0.00012788    0.20386849
     atom    8 type  2   force =     0.00021738    0.00012551    0.20386691
     atom    9 type  1   force =     0.00000906    0.00000523    0.19307027
     atom   10 type  1   force =    -0.00000980   -0.00000566    0.19306545
     atom   11 type  2   force =    -0.00021929   -0.00012660    0.20387016
     atom   12 type  2   force =     0.00021866    0.00012624    0.20387049
     The ionic contribution  to forces
     atom    1 type  1   force =     0.00000001    0.00000001    1.51200265
     atom    2 type  1   force =     0.00000001    0.00000000    1.51200265
     atom    3 type  2   force =     0.00000000    0.00000000   -1.51200265
     atom    4 type  2   force =     0.00000000    0.00000000   -1.51200265
     atom    5 type  1   force =    -0.00000001    0.00000000    1.51200264
     atom    6 type  1   force =     0.00000001   -0.00000000    1.51200264
     atom    7 type  2   force =    -0.00000001    0.00000000   -1.51200264
     atom    8 type  2   force =     0.00000001   -0.00000000   -1.51200264
     atom    9 type  1   force =    -0.00000001   -0.00000000    1.51200265
     atom   10 type  1   force =    -0.00000001   -0.00000001    1.51200265
     atom   11 type  2   force =    -0.00000000   -0.00000000   -1.51200265
     atom   12 type  2   force =    -0.00000000   -0.00000000   -1.51200265
     The local contribution  to forces
     atom    1 type  1   force =    -0.00000175   -0.00000101   -1.69148912
     atom    2 type  1   force =     0.00000472    0.00000267   -1.69149172
     atom    3 type  2   force =     0.00020948    0.00012094    1.30863267
     atom    4 type  2   force =    -0.00020450   -0.00011808    1.30862926
     atom    5 type  1   force =    -0.00001853   -0.00001060   -1.69148280
     atom    6 type  1   force =    -0.00000556   -0.00000331   -1.69148855
     atom    7 type  2   force =     0.00020499    0.00011838    1.30863569
     atom    8 type  2   force =    -0.00021763   -0.00012567    1.30863315
     atom    9 type  1   force =     0.00000636    0.00000372   -1.69148451
     atom   10 type  1   force =     0.00001031    0.00000595   -1.69149156
     atom   11 type  2   force =     0.00021667    0.00012511    1.30863031
     atom   12 type  2   force =    -0.00020347   -0.00011748    1.30862875
     The core correction contribution to forces
     atom    1 type  1   force =    -0.00000952   -0.00000550   -0.01230749
     atom    2 type  1   force =     0.00000964    0.00000552   -0.01230730
     atom    3 type  2   force =     0.00000246    0.00000142   -0.00178489
     atom    4 type  2   force =    -0.00000249   -0.00000144   -0.00178493
     atom    5 type  1   force =    -0.00000935   -0.00000540   -0.01230738
     atom    6 type  1   force =     0.00000959    0.00000554   -0.01230736
     atom    7 type  2   force =     0.00000249    0.00000144   -0.00178489
     atom    8 type  2   force =    -0.00000246   -0.00000142   -0.00178488
     atom    9 type  1   force =    -0.00000984   -0.00000564   -0.01230772
     atom   10 type  1   force =     0.00000936    0.00000541   -0.01230709
     atom   11 type  2   force =     0.00000249    0.00000144   -0.00178492
     atom   12 type  2   force =    -0.00000246   -0.00000142   -0.00178493
     The Hubbard contrib.    to forces
     atom    1 type  1   force =     0.00000000    0.00000000    0.00000000
     atom    2 type  1   force =     0.00000000    0.00000000    0.00000000
     atom    3 type  2   force =     0.00000000    0.00000000    0.00000000
     atom    4 type  2   force =     0.00000000    0.00000000    0.00000000
     atom    5 type  1   force =     0.00000000    0.00000000    0.00000000
     atom    6 type  1   force =     0.00000000    0.00000000    0.00000000
     atom    7 type  2   force =     0.00000000    0.00000000    0.00000000
     atom    8 type  2   force =     0.00000000    0.00000000    0.00000000
     atom    9 type  1   force =     0.00000000    0.00000000    0.00000000
     atom   10 type  1   force =     0.00000000    0.00000000    0.00000000
     atom   11 type  2   force =     0.00000000    0.00000000    0.00000000
     atom   12 type  2   force =     0.00000000    0.00000000    0.00000000
     The SCF correction term to forces
     atom    1 type  1   force =     0.00000018    0.00000010    0.00000465
     atom    2 type  1   force =     0.00000050    0.00000029    0.00001400
     atom    3 type  2   force =     0.00000028    0.00000016    0.00000362
     atom    4 type  2   force =    -0.00000531   -0.00000307    0.00000310
     atom    5 type  1   force =     0.00002285    0.00001319   -0.00000035
     atom    6 type  1   force =     0.00001580    0.00000912    0.00000883
     atom    7 type  2   force =     0.00000785    0.00000453    0.00000155
     atom    8 type  2   force =     0.00001037    0.00000599    0.00000277
     atom    9 type  1   force =    -0.00001798   -0.00001038   -0.00000430
     atom   10 type  1   force =    -0.00001643   -0.00000948    0.00001496
     atom   11 type  2   force =    -0.00000835   -0.00000482    0.00000349
     atom   12 type  2   force =    -0.00000671   -0.00000388    0.00000505

     Total force =     0.004442     Total SCF correction =     0.000053

     General routines

     Parallel routines

   This run was terminated on:  22:53: 4  27Aug2025

   JOB DONE.