     Program PWSCF v.7.0 starts on 28Aug2025 at  2:18:27

     K-points division:     npool     =      17

     Reading input from /home/jvc/QEspresso7.2/ZnO_database/scripts/cell311.in/ZnO-3.47-1.71-311.in
Warning: card &CELL ignored
Warning: card / ignored
Warning: card &FCP ignored
Warning: card / ignored
Warning: card &RISM ignored
Warning: card / ignored

     Current dimensions of program PWSCF are:
     Max number of different atomic species (ntypx) = 10
     Max number of k-points (npk) =  40000
     Max angular momentum in pseudopotentials (lmaxx) =  4
     file Zn.upf: wavefunction(s)  3D renormalized
     Found identity + (  0.3333  0.0000  0.0000) symmetry
     This is a supercell, fractional translations are disabled
     Message from routine setup:
     using ibrav=0 with symmetry is DISCOURAGED, use correct ibrav instead

     Subspace diagonalization in iterative solution of the eigenvalue problem:
     a serial algorithm will be used

     Using Slab Decomposition

     bravais-lattice index     =            0
     lattice parameter (alat)  =      19.6488  a.u.
     unit-cell volume          =    1249.1054 (a.u.)^3
     number of atoms/cell      =           12
     number of atomic types    =            2
     number of electrons       =       108.00
     number of Kohn-Sham states=           54
     kinetic-energy cutoff     =      50.0000  Ry
     charge density cutoff     =     400.0000  Ry
     scf convergence threshold =      1.0E-08
     mixing beta               =       0.3000
     number of iterations used =            8  plain     mixing
     Exchange-correlation= PBE
                           (   1   4   3   4   0   0   0)

     celldm(1)=  19.648756  celldm(2)=   0.000000  celldm(3)=   0.000000
     celldm(4)=   0.000000  celldm(5)=   0.000000  celldm(6)=   0.000000

     crystal axes: (cart. coord. in units of alat)
               a(1) = (   1.000000   0.000000   0.000000 )
               a(2) = (  -0.166667   0.288675   0.000000 )
               a(3) = (   0.000000   0.000000   0.570407 )

     reciprocal axes: (cart. coord. in units 2 pi/alat)
               b(1) = (  1.000000  0.577350 -0.000000 )
               b(2) = (  0.000000  3.464102  0.000000 )
               b(3) = (  0.000000 -0.000000  1.753135 )

     PseudoPot. # 1 for Zn read from file:
     /home/jvc/QEspresso7.2/ZnO_database/pseudos/Zn.upf
     MD5 check sum: 7f56cabf9682ed8c977c2f7d0c5985c5
     Pseudo is Ultrasoft + core correction, Zval = 12.0
     Generated using &quot;atomic&quot; code by A. Dal Corso  v.6.2.2
     Using radial grid of 1201 points,  6 beta functions with:
                l(1) =   0
                l(2) =   0
                l(3) =   1
                l(4) =   1
                l(5) =   2
                l(6) =   2
     Q(r) pseudized with 0 coefficients

     PseudoPot. # 2 for O  read from file:
     /home/jvc/QEspresso7.2/ZnO_database/pseudos/O.upf
     MD5 check sum: 91400c9766925bcf19f520983a725ff0
     Pseudo is Ultrasoft + core correction, Zval =  6.0
     Generated using &quot;atomic&quot; code by A. Dal Corso  v.6.3MaX
     Using radial grid of 1095 points,  4 beta functions with:
                l(1) =   0
                l(2) =   0
                l(3) =   1
                l(4) =   1
     Q(r) pseudized with 0 coefficients

     atomic species   valence    mass     pseudopotential
        Zn            12.00    65.38000     Zn( 1.00)
        O              6.00    15.99900     O ( 1.00)

      2 Sym. Ops. (no inversion) found

                                    s                        frac. trans.

      isym =  1     identity

 cryst.   s( 1) = (     1          0          0      )
                  (     0          1          0      )
                  (     0          0          1      )

 cart.    s( 1) = (  1.0000000  0.0000000  0.0000000 )
                  (  0.0000000  1.0000000  0.0000000 )
                  (  0.0000000  0.0000000  1.0000000 )

      isym =  2     inv. 180 deg rotation - cryst. axis [0,1,0]

 cryst.   s( 2) = (     1          3          0      )
                  (     0         -1          0      )
                  (     0          0          1      )

 cart.    s( 2) = (  0.5000000  0.8660254  0.0000000 )
                  (  0.8660254 -0.5000000  0.0000000 )
                  (  0.0000000  0.0000000  1.0000000 )

   Cartesian axes

     site n.     atom                  positions (alat units)
         1           Zn  tau(   1) = (   0.1666667   0.0962250   0.2855647  )
         2           Zn  tau(   2) = (  -0.0000000   0.1924501   0.0003614  )
         3           O   tau(   3) = (   0.1666667   0.0962250   0.5017732  )
         4           O   tau(   4) = (  -0.0000000   0.1924501   0.2165699  )
         5           Zn  tau(   5) = (   0.5000000   0.0962250   0.2855647  )
         6           Zn  tau(   6) = (   0.3333333   0.1924501   0.0003614  )
         7           O   tau(   7) = (   0.5000000   0.0962250   0.5017732  )
         8           O   tau(   8) = (   0.3333333   0.1924501   0.2165699  )
         9           Zn  tau(   9) = (   0.8333333   0.0962250   0.2855647  )
        10           Zn  tau(  10) = (   0.6666667   0.1924501   0.0003614  )
        11           O   tau(  11) = (   0.8333333   0.0962250   0.5017732  )
        12           O   tau(  12) = (   0.6666667   0.1924501   0.2165699  )

   Crystallographic axes

     site n.     atom                  positions (cryst. coord.)
         1           Zn  tau(   1) = (  0.2222222  0.3333333  0.5006336  )
         2           Zn  tau(   2) = (  0.1111111  0.6666667  0.0006336  )
         3           O   tau(   3) = (  0.2222222  0.3333333  0.8796764  )
         4           O   tau(   4) = (  0.1111111  0.6666667  0.3796764  )
         5           Zn  tau(   5) = (  0.5555556  0.3333333  0.5006336  )
         6           Zn  tau(   6) = (  0.4444444  0.6666667  0.0006336  )
         7           O   tau(   7) = (  0.5555556  0.3333333  0.8796764  )
         8           O   tau(   8) = (  0.4444444  0.6666667  0.3796764  )
         9           Zn  tau(   9) = (  0.8888889  0.3333333  0.5006336  )
        10           Zn  tau(  10) = (  0.7777778  0.6666667  0.0006336  )
        11           O   tau(  11) = (  0.8888889  0.3333333  0.8796764  )
        12           O   tau(  12) = (  0.7777778  0.6666667  0.3796764  )

     number of k points=    68
                       cart. coord. in units 2pi/alat
        k(    1) = (   0.0000000   0.0000000   0.0000000), wk =   0.0092593
        k(    2) = (   0.0000000   0.0000000   0.2921892), wk =   0.0185185
        k(    3) = (   0.0000000   0.0000000   0.5843784), wk =   0.0185185
        k(    4) = (   0.0000000   0.0000000  -0.8765677), wk =   0.0092593
        k(    5) = (   0.0000000   0.5773503   0.0000000), wk =   0.0370370
        k(    6) = (   0.0000000   0.5773503   0.2921892), wk =   0.0370370
        k(    7) = (   0.0000000   0.5773503   0.5843784), wk =   0.0370370
        k(    8) = (   0.0000000   0.5773503  -0.8765677), wk =   0.0370370
        k(    9) = (   0.0000000   1.1547005   0.0000000), wk =   0.0185185
        k(   10) = (   0.0000000   1.1547005   0.2921892), wk =   0.0370370
        k(   11) = (   0.0000000   1.1547005   0.5843784), wk =   0.0370370
        k(   12) = (   0.0000000   1.1547005  -0.8765677), wk =   0.0185185
        k(   13) = (   0.0000000  -1.7320508   0.0000000), wk =   0.0185185
        k(   14) = (   0.0000000  -1.7320508   0.2921892), wk =   0.0370370
        k(   15) = (   0.0000000  -1.7320508   0.5843784), wk =   0.0370370
        k(   16) = (   0.0000000  -1.7320508  -0.8765677), wk =   0.0185185
        k(   17) = (   0.1666667   0.0962250   0.0000000), wk =   0.0185185
        k(   18) = (   0.1666667   0.0962250   0.2921892), wk =   0.0185185
        k(   19) = (   0.1666667   0.0962250   0.5843784), wk =   0.0185185
        k(   20) = (   0.1666667   0.0962250  -0.8765677), wk =   0.0185185
        k(   21) = (   0.1666667   0.6735753   0.0000000), wk =   0.0370370
        k(   22) = (   0.1666667   0.6735753   0.2921892), wk =   0.0370370
        k(   23) = (   0.1666667   0.6735753   0.5843784), wk =   0.0370370
        k(   24) = (   0.1666667   0.6735753  -0.8765677), wk =   0.0370370
        k(   25) = (   0.1666667   1.2509256   0.0000000), wk =   0.0370370
        k(   26) = (   0.1666667   1.2509256   0.2921892), wk =   0.0370370
        k(   27) = (   0.1666667   1.2509256   0.5843784), wk =   0.0370370
        k(   28) = (   0.1666667   1.2509256  -0.8765677), wk =   0.0370370
        k(   29) = (   0.1666667  -1.6358258   0.0000000), wk =   0.0370370
        k(   30) = (   0.1666667  -1.6358258   0.2921892), wk =   0.0370370
        k(   31) = (   0.1666667  -1.6358258   0.5843784), wk =   0.0370370
        k(   32) = (   0.1666667  -1.6358258  -0.8765677), wk =   0.0370370
        k(   33) = (   0.1666667  -0.4811252   0.0000000), wk =   0.0370370
        k(   34) = (   0.1666667  -0.4811252   0.2921892), wk =   0.0370370
        k(   35) = (   0.1666667  -0.4811252   0.5843784), wk =   0.0370370
        k(   36) = (   0.1666667  -0.4811252  -0.8765677), wk =   0.0370370
        k(   37) = (   0.3333333   0.1924501   0.0000000), wk =   0.0185185
        k(   38) = (   0.3333333   0.1924501   0.2921892), wk =   0.0185185
        k(   39) = (   0.3333333   0.1924501   0.5843784), wk =   0.0185185
        k(   40) = (   0.3333333   0.1924501  -0.8765677), wk =   0.0185185
        k(   41) = (   0.3333333   1.3471506   0.0000000), wk =   0.0370370
        k(   42) = (   0.3333333   1.3471506   0.2921892), wk =   0.0370370
        k(   43) = (   0.3333333   1.3471506   0.5843784), wk =   0.0370370
        k(   44) = (   0.3333333   1.3471506  -0.8765677), wk =   0.0370370
        k(   45) = (  -0.5000000  -0.2886751   0.0000000), wk =   0.0092593
        k(   46) = (  -0.5000000  -0.2886751   0.2921892), wk =   0.0185185
        k(   47) = (  -0.5000000  -0.2886751   0.5843784), wk =   0.0185185
        k(   48) = (  -0.5000000  -0.2886751  -0.8765677), wk =   0.0092593
        k(   49) = (  -0.5000000   0.8660254   0.0000000), wk =   0.0185185
        k(   50) = (  -0.5000000   0.8660254   0.2921892), wk =   0.0370370
        k(   51) = (  -0.5000000   0.8660254   0.5843784), wk =   0.0370370
        k(   52) = (  -0.5000000   0.8660254  -0.8765677), wk =   0.0185185
        k(   53) = (   0.5000000  -0.2886751  -0.2921892), wk =   0.0370370
        k(   54) = (   0.5000000  -0.2886751  -0.5843784), wk =   0.0370370
        k(   55) = (   0.1666667   0.0962250  -0.2921892), wk =   0.0185185
        k(   56) = (   0.1666667   0.0962250  -0.5843784), wk =   0.0185185
        k(   57) = (   0.6666667  -0.1924501  -0.2921892), wk =   0.0370370
        k(   58) = (   0.6666667  -0.1924501  -0.5843784), wk =   0.0370370
        k(   59) = (   1.1666667  -0.4811252  -0.2921892), wk =   0.0370370
        k(   60) = (   1.1666667  -0.4811252  -0.5843784), wk =   0.0370370
        k(   61) = (  -1.3333333   0.9622504  -0.2921892), wk =   0.0370370
        k(   62) = (  -1.3333333   0.9622504  -0.5843784), wk =   0.0370370
        k(   63) = (  -0.3333333   0.3849002  -0.2921892), wk =   0.0370370
        k(   64) = (  -0.3333333   0.3849002  -0.5843784), wk =   0.0370370
        k(   65) = (   0.3333333   0.1924501  -0.2921892), wk =   0.0185185
        k(   66) = (   0.3333333   0.1924501  -0.5843784), wk =   0.0185185
        k(   67) = (   1.3333333  -0.3849002  -0.2921892), wk =   0.0370370
        k(   68) = (   1.3333333  -0.3849002  -0.5843784), wk =   0.0370370

                       cryst. coord.
        k(    1) = (   0.0000000   0.0000000   0.0000000), wk =   0.0092593
        k(    2) = (   0.0000000   0.0000000   0.1666667), wk =   0.0185185
        k(    3) = (   0.0000000   0.0000000   0.3333333), wk =   0.0185185
        k(    4) = (   0.0000000   0.0000000  -0.5000000), wk =   0.0092593
        k(    5) = (   0.0000000   0.1666667   0.0000000), wk =   0.0370370
        k(    6) = (   0.0000000   0.1666667   0.1666667), wk =   0.0370370
        k(    7) = (   0.0000000   0.1666667   0.3333333), wk =   0.0370370
        k(    8) = (   0.0000000   0.1666667  -0.5000000), wk =   0.0370370
        k(    9) = (   0.0000000   0.3333333   0.0000000), wk =   0.0185185
        k(   10) = (   0.0000000   0.3333333   0.1666667), wk =   0.0370370
        k(   11) = (   0.0000000   0.3333333   0.3333333), wk =   0.0370370
        k(   12) = (   0.0000000   0.3333333  -0.5000000), wk =   0.0185185
        k(   13) = (   0.0000000  -0.5000000   0.0000000), wk =   0.0185185
        k(   14) = (   0.0000000  -0.5000000   0.1666667), wk =   0.0370370
        k(   15) = (   0.0000000  -0.5000000   0.3333333), wk =   0.0370370
        k(   16) = (   0.0000000  -0.5000000  -0.5000000), wk =   0.0185185
        k(   17) = (   0.1666667   0.0000000   0.0000000), wk =   0.0185185
        k(   18) = (   0.1666667   0.0000000   0.1666667), wk =   0.0185185
        k(   19) = (   0.1666667   0.0000000   0.3333333), wk =   0.0185185
        k(   20) = (   0.1666667   0.0000000  -0.5000000), wk =   0.0185185
        k(   21) = (   0.1666667   0.1666667   0.0000000), wk =   0.0370370
        k(   22) = (   0.1666667   0.1666667   0.1666667), wk =   0.0370370
        k(   23) = (   0.1666667   0.1666667   0.3333333), wk =   0.0370370
        k(   24) = (   0.1666667   0.1666667  -0.5000000), wk =   0.0370370
        k(   25) = (   0.1666667   0.3333333   0.0000000), wk =   0.0370370
        k(   26) = (   0.1666667   0.3333333   0.1666667), wk =   0.0370370
        k(   27) = (   0.1666667   0.3333333   0.3333333), wk =   0.0370370
        k(   28) = (   0.1666667   0.3333333  -0.5000000), wk =   0.0370370
        k(   29) = (   0.1666667  -0.5000000   0.0000000), wk =   0.0370370
        k(   30) = (   0.1666667  -0.5000000   0.1666667), wk =   0.0370370
        k(   31) = (   0.1666667  -0.5000000   0.3333333), wk =   0.0370370
        k(   32) = (   0.1666667  -0.5000000  -0.5000000), wk =   0.0370370
        k(   33) = (   0.1666667  -0.1666667   0.0000000), wk =   0.0370370
        k(   34) = (   0.1666667  -0.1666667   0.1666667), wk =   0.0370370
        k(   35) = (   0.1666667  -0.1666667   0.3333333), wk =   0.0370370
        k(   36) = (   0.1666667  -0.1666667  -0.5000000), wk =   0.0370370
        k(   37) = (   0.3333333   0.0000000   0.0000000), wk =   0.0185185
        k(   38) = (   0.3333333   0.0000000   0.1666667), wk =   0.0185185
        k(   39) = (   0.3333333   0.0000000   0.3333333), wk =   0.0185185
        k(   40) = (   0.3333333   0.0000000  -0.5000000), wk =   0.0185185
        k(   41) = (   0.3333333   0.3333333   0.0000000), wk =   0.0370370
        k(   42) = (   0.3333333   0.3333333   0.1666667), wk =   0.0370370
        k(   43) = (   0.3333333   0.3333333   0.3333333), wk =   0.0370370
        k(   44) = (   0.3333333   0.3333333  -0.5000000), wk =   0.0370370
        k(   45) = (  -0.5000000   0.0000000   0.0000000), wk =   0.0092593
        k(   46) = (  -0.5000000   0.0000000   0.1666667), wk =   0.0185185
        k(   47) = (  -0.5000000   0.0000000   0.3333333), wk =   0.0185185
        k(   48) = (  -0.5000000   0.0000000  -0.5000000), wk =   0.0092593
        k(   49) = (  -0.5000000   0.3333333   0.0000000), wk =   0.0185185
        k(   50) = (  -0.5000000   0.3333333   0.1666667), wk =   0.0370370
        k(   51) = (  -0.5000000   0.3333333   0.3333333), wk =   0.0370370
        k(   52) = (  -0.5000000   0.3333333  -0.5000000), wk =   0.0185185
        k(   53) = (   0.5000000  -0.1666667  -0.1666667), wk =   0.0370370
        k(   54) = (   0.5000000  -0.1666667  -0.3333333), wk =   0.0370370
        k(   55) = (   0.1666667   0.0000000  -0.1666667), wk =   0.0185185
        k(   56) = (   0.1666667   0.0000000  -0.3333333), wk =   0.0185185
        k(   57) = (   0.6666667  -0.1666667  -0.1666667), wk =   0.0370370
        k(   58) = (   0.6666667  -0.1666667  -0.3333333), wk =   0.0370370
        k(   59) = (   1.1666667  -0.3333333  -0.1666667), wk =   0.0370370
        k(   60) = (   1.1666667  -0.3333333  -0.3333333), wk =   0.0370370
        k(   61) = (  -1.3333333   0.5000000  -0.1666667), wk =   0.0370370
        k(   62) = (  -1.3333333   0.5000000  -0.3333333), wk =   0.0370370
        k(   63) = (  -0.3333333   0.1666667  -0.1666667), wk =   0.0370370
        k(   64) = (  -0.3333333   0.1666667  -0.3333333), wk =   0.0370370
        k(   65) = (   0.3333333   0.0000000  -0.1666667), wk =   0.0185185
        k(   66) = (   0.3333333   0.0000000  -0.3333333), wk =   0.0185185
        k(   67) = (   1.3333333  -0.3333333  -0.1666667), wk =   0.0370370
        k(   68) = (   1.3333333  -0.3333333  -0.3333333), wk =   0.0370370

     Check: negative core charge=   -0.000002

     Initial potential from superposition of free atoms

     starting charge     107.9776, renormalised to     108.0000
     Starting wfcs are   78 randomized atomic wfcs

     Self-consistent Calculation

     iteration #  1     ecut=    50.00 Ry     beta= 0.30
     Davidson diagonalization with overlap

     ethr =  1.00E-02,  avg # of iterations =  1.5

     total energy              =   -1084.13425196 Ry
     estimated scf accuracy    <       2.44414426 Ry

[...]

     c_bands:  1 eigenvalues not converged
     c_bands:  1 eigenvalues not converged
     ethr =  6.03E-07,  avg # of iterations = 14.5

[...]

     c_bands:  1 eigenvalues not converged
     ethr =  3.31E-11,  avg # of iterations = 12.9

     total energy              =   -1084.72200762 Ry
     estimated scf accuracy    <       0.00000009 Ry

     iteration # 30     ecut=    50.00 Ry     beta= 0.30
     Davidson diagonalization with overlap

     ethr =  3.31E-11,  avg # of iterations =  6.9

     End of self-consistent calculation

          k = 0.0000 0.0000 0.0000 (  7505 PWs)   bands (ev):

   -12.4863 -12.2047 -12.2047 -12.1448 -12.0116 -12.0116  -1.0145  -1.0145
    -0.9846  -0.9843  -0.9471  -0.8900  -0.8897  -0.8653  -0.8653  -0.8417
    -0.8417  -0.6523  -0.6523  -0.6418  -0.6418  -0.4993  -0.4993  -0.4692
    -0.4202  -0.4202  -0.3925  -0.3924  -0.3488  -0.3488  -0.3022  -0.3022
    -0.2854  -0.2854  -0.1536  -0.1536   0.3096   0.8843   0.8843   1.3762
     1.3762   1.9872   1.9872   2.8167   2.8167   3.3715   3.3716   3.5108
     3.5108   3.5288   3.5296   3.8000   3.9603   3.9611

     occupation numbers
     1.0000   1.0000   1.0000   1.0000   1.0000   1.0000   1.0000   1.0000
     1.0000   1.0000   1.0000   1.0000   1.0000   1.0000   1.0000   1.0000
     1.0000   1.0000   1.0000   1.0000   1.0000   1.0000   1.0000   1.0000
     1.0000   1.0000   1.0000   1.0000   1.0000   1.0000   1.0000   1.0000
     1.0000   1.0000   1.0000   1.0000   1.0000   1.0000   1.0000   1.0000
     1.0000   1.0000   1.0000   1.0000   1.0000   1.0000   1.0000   1.0000
     1.0000   1.0000   1.0000   1.0000   1.0000   1.0000

[...]

          k =-0.5000-0.2887 0.0000 (  7442 PWs)   bands (ev):

[...]

          k =-0.3333 0.3849-0.5844 (  7477 PWs)   bands (ev):

[...]

          k = 1.3333-0.3849-0.5844 (  7453 PWs)   bands (ev):

   -12.1947 -12.0947 -12.0839 -12.0358 -12.0242 -11.9988  -0.9957  -0.9714
    -0.9259  -0.8994  -0.8906  -0.8292  -0.8014  -0.7769  -0.7727  -0.7378
    -0.7051  -0.6672  -0.6536  -0.6394  -0.5966  -0.5878  -0.5456  -0.5202
    -0.3821  -0.3566  -0.3543  -0.3454  -0.3291  -0.3122  -0.3081  -0.2734
    -0.2617  -0.2122  -0.1959  -0.1409   0.7755   0.8549   0.9353   1.1005
     1.1971   1.6283   1.9858   2.4104   2.4772   2.5118   2.6831   2.7478
     2.9482   3.0174   3.0894   3.1920   3.2553   3.3234

     occupation numbers
     1.0000   1.0000   1.0000   1.0000   1.0000   1.0000   1.0000   1.0000
     1.0000   1.0000   1.0000   1.0000   1.0000   1.0000   1.0000   1.0000
     1.0000   1.0000   1.0000   1.0000   1.0000   1.0000   1.0000   1.0000
     1.0000   1.0000   1.0000   1.0000   1.0000   1.0000   1.0000   1.0000
     1.0000   1.0000   1.0000   1.0000   1.0000   1.0000   1.0000   1.0000
     1.0000   1.0000   1.0000   1.0000   1.0000   1.0000   1.0000   1.0000
     1.0000   1.0000   1.0000   1.0000   1.0000   1.0000

     highest occupied level (ev):     3.9611

!    total energy              =   -1084.72200763 Ry
     estimated scf accuracy    <          2.2E-10 Ry

     The total energy is the sum of the following terms:
     one-electron contribution =    -541.88063525 Ry
     hartree contribution      =     383.40517968 Ry
     xc contribution           =    -327.38745839 Ry
     ewald contribution        =    -598.85909367 Ry

     convergence has been achieved in  30 iterations

     Forces acting on atoms (cartesian axes, Ry/au):

     atom    1 type  1   force =    -0.00001210   -0.00000698   -0.00458130
     atom    2 type  1   force =     0.00000688    0.00000397   -0.00458038
     atom    3 type  2   force =    -0.00000930   -0.00000537    0.00458090
     atom    4 type  2   force =     0.00000923    0.00000533    0.00458103
     atom    5 type  1   force =    -0.00000680   -0.00000393   -0.00458154
     atom    6 type  1   force =     0.00001020    0.00000589   -0.00458100
     atom    7 type  2   force =    -0.00000956   -0.00000552    0.00458130
     atom    8 type  2   force =     0.00000916    0.00000529    0.00458053
     atom    9 type  1   force =    -0.00000700   -0.00000404   -0.00458023
     atom   10 type  1   force =     0.00000995    0.00000574   -0.00458165
     atom   11 type  2   force =    -0.00000954   -0.00000551    0.00458109
     atom   12 type  2   force =     0.00000888    0.00000513    0.00458125
     The non-local contrib.  to forces
     atom    1 type  1   force =     0.00002494    0.00001440    0.13824021
     atom    2 type  1   force =    -0.00002947   -0.00001702    0.13823922
     atom    3 type  2   force =    -0.00022554   -0.00013021    0.15835519
     atom    4 type  2   force =     0.00023068    0.00013318    0.15835552
     atom    5 type  1   force =     0.00002925    0.00001689    0.13824007
     atom    6 type  1   force =    -0.00002692   -0.00001554    0.13824040
     atom    7 type  2   force =    -0.00023060   -0.00013314    0.15835575
     atom    8 type  2   force =     0.00022783    0.00013154    0.15835499
     atom    9 type  1   force =     0.00002868    0.00001656    0.13823953
     atom   10 type  1   force =    -0.00002631   -0.00001519    0.13823919
     atom   11 type  2   force =    -0.00022858   -0.00013197    0.15835559
     atom   12 type  2   force =     0.00022593    0.00013044    0.15835600
     The ionic contribution  to forces
     atom    1 type  1   force =     0.00000001    0.00000000    1.08495936
     atom    2 type  1   force =     0.00000001    0.00000000    1.08495936
     atom    3 type  2   force =     0.00000000    0.00000000   -1.08495936
     atom    4 type  2   force =     0.00000000    0.00000000   -1.08495936
     atom    5 type  1   force =    -0.00000001    0.00000000    1.08495936
     atom    6 type  1   force =     0.00000001   -0.00000000    1.08495936
     atom    7 type  2   force =    -0.00000001    0.00000000   -1.08495936
     atom    8 type  2   force =     0.00000001   -0.00000000   -1.08495936
     atom    9 type  1   force =    -0.00000001   -0.00000000    1.08495936
     atom   10 type  1   force =    -0.00000001   -0.00000000    1.08495936
     atom   11 type  2   force =    -0.00000000   -0.00000000   -1.08495936
     atom   12 type  2   force =    -0.00000000   -0.00000000   -1.08495936
     The local contribution  to forces
     atom    1 type  1   force =    -0.00001946   -0.00001124   -1.21962329
     atom    2 type  1   force =     0.00003027    0.00001742   -1.21962233
     atom    3 type  2   force =     0.00021693    0.00012524    0.93263559
     atom    4 type  2   force =    -0.00021590   -0.00012466    0.93263377
     atom    5 type  1   force =    -0.00003018   -0.00001732   -1.21962291
     atom    6 type  1   force =     0.00002426    0.00001390   -1.21962356
     atom    7 type  2   force =     0.00021552    0.00012446    0.93263426
     atom    8 type  2   force =    -0.00021738   -0.00012553    0.93263548
     atom    9 type  1   force =    -0.00002838   -0.00001633   -1.21962287
     atom   10 type  1   force =     0.00002258    0.00001304   -1.21962148
     atom   11 type  2   force =     0.00021735    0.00012550    0.93263617
     atom   12 type  2   force =    -0.00021708   -0.00012533    0.93263492
     The core correction contribution to forces
     atom    1 type  1   force =    -0.00000938   -0.00000536   -0.00816124
     atom    2 type  1   force =     0.00000907    0.00000529   -0.00816126
     atom    3 type  2   force =     0.00000255    0.00000147   -0.00144847
     atom    4 type  2   force =    -0.00000260   -0.00000151   -0.00144848
     atom    5 type  1   force =    -0.00000929   -0.00000534   -0.00816130
     atom    6 type  1   force =     0.00000932    0.00000535   -0.00816129
     atom    7 type  2   force =     0.00000258    0.00000150   -0.00144848
     atom    8 type  2   force =    -0.00000255   -0.00000148   -0.00144846
     atom    9 type  1   force =    -0.00000914   -0.00000533   -0.00816122
     atom   10 type  1   force =     0.00000938    0.00000537   -0.00816122
     atom   11 type  2   force =     0.00000258    0.00000149   -0.00144848
     atom   12 type  2   force =    -0.00000255   -0.00000147   -0.00144848
     The Hubbard contrib.    to forces
     atom    1 type  1   force =     0.00000000    0.00000000    0.00000000
     atom    2 type  1   force =     0.00000000    0.00000000    0.00000000
     atom    3 type  2   force =     0.00000000    0.00000000    0.00000000
     atom    4 type  2   force =     0.00000000    0.00000000    0.00000000
     atom    5 type  1   force =     0.00000000    0.00000000    0.00000000
     atom    6 type  1   force =     0.00000000    0.00000000    0.00000000
     atom    7 type  2   force =     0.00000000    0.00000000    0.00000000
     atom    8 type  2   force =     0.00000000    0.00000000    0.00000000
     atom    9 type  1   force =     0.00000000    0.00000000    0.00000000
     atom   10 type  1   force =     0.00000000    0.00000000    0.00000000
     atom   11 type  2   force =     0.00000000    0.00000000    0.00000000
     atom   12 type  2   force =     0.00000000    0.00000000    0.00000000
     The SCF correction term to forces
     atom    1 type  1   force =    -0.00000806   -0.00000465    0.00000390
     atom    2 type  1   force =    -0.00000284   -0.00000164    0.00000487
     atom    3 type  2   force =    -0.00000309   -0.00000178   -0.00000182
     atom    4 type  2   force =    -0.00000278   -0.00000161   -0.00000018
     atom    5 type  1   force =     0.00000352    0.00000203    0.00000347
     atom    6 type  1   force =     0.00000374    0.00000216    0.00000434
     atom    7 type  2   force =     0.00000309    0.00000178   -0.00000063
     atom    8 type  2   force =     0.00000143    0.00000083   -0.00000187
     atom    9 type  1   force =     0.00000200    0.00000116    0.00000521
     atom   10 type  1   force =     0.00000448    0.00000259    0.00000273
     atom   11 type  2   force =    -0.00000073   -0.00000042   -0.00000260
     atom   12 type  2   force =     0.00000273    0.00000158   -0.00000159

     Total force =     0.015869     Total SCF correction =     0.000018

     General routines

     Parallel routines

   This run was terminated on:   2:30: 4  28Aug2025

   JOB DONE.