     Program PWSCF v.7.0 starts on 27Aug2025 at 19: 2:43

     K-points division:     npool     =      17

     Reading input from /home/jvc/QEspresso7.2/ZnO_database/scripts/cell311.in/ZnO-3.27-1.49-311.in
Warning: card &CELL ignored
Warning: card / ignored
Warning: card &FCP ignored
Warning: card / ignored
Warning: card &RISM ignored
Warning: card / ignored

     Current dimensions of program PWSCF are:
     Max number of different atomic species (ntypx) = 10
     Max number of k-points (npk) =  40000
     Max angular momentum in pseudopotentials (lmaxx) =  4
     file Zn.upf: wavefunction(s)  3D renormalized
     Found identity + (  0.3333  0.0000  0.0000) symmetry
     This is a supercell, fractional translations are disabled
     Message from routine setup:
     using ibrav=0 with symmetry is DISCOURAGED, use correct ibrav instead

     Subspace diagonalization in iterative solution of the eigenvalue problem:
     a serial algorithm will be used

     Using Slab Decomposition

     bravais-lattice index     =            0
     lattice parameter (alat)  =      18.5366  a.u.
     unit-cell volume          =     910.2558 (a.u.)^3
     number of atoms/cell      =           12
     number of atomic types    =            2
     number of electrons       =       108.00
     number of Kohn-Sham states=           54
     kinetic-energy cutoff     =      50.0000  Ry
     charge density cutoff     =     400.0000  Ry
     scf convergence threshold =      1.0E-08
     mixing beta               =       0.3000
     number of iterations used =            8  plain     mixing
     Exchange-correlation= PBE
                           (   1   4   3   4   0   0   0)

     celldm(1)=  18.536562  celldm(2)=   0.000000  celldm(3)=   0.000000
     celldm(4)=   0.000000  celldm(5)=   0.000000  celldm(6)=   0.000000

     crystal axes: (cart. coord. in units of alat)
               a(1) = (   1.000000   0.000000   0.000000 )
               a(2) = (  -0.166667   0.288675   0.000000 )
               a(3) = (   0.000000   0.000000   0.495070 )

     reciprocal axes: (cart. coord. in units 2 pi/alat)
               b(1) = (  1.000000  0.577350 -0.000000 )
               b(2) = (  0.000000  3.464102  0.000000 )
               b(3) = (  0.000000 -0.000000  2.019917 )

     PseudoPot. # 1 for Zn read from file:
     /home/jvc/QEspresso7.2/ZnO_database/pseudos/Zn.upf
     MD5 check sum: 7f56cabf9682ed8c977c2f7d0c5985c5
     Pseudo is Ultrasoft + core correction, Zval = 12.0
     Generated using &quot;atomic&quot; code by A. Dal Corso  v.6.2.2
     Using radial grid of 1201 points,  6 beta functions with:
                l(1) =   0
                l(2) =   0
                l(3) =   1
                l(4) =   1
                l(5) =   2
                l(6) =   2
     Q(r) pseudized with 0 coefficients

     PseudoPot. # 2 for O  read from file:
     /home/jvc/QEspresso7.2/ZnO_database/pseudos/O.upf
     MD5 check sum: 91400c9766925bcf19f520983a725ff0
     Pseudo is Ultrasoft + core correction, Zval =  6.0
     Generated using &quot;atomic&quot; code by A. Dal Corso  v.6.3MaX
     Using radial grid of 1095 points,  4 beta functions with:
                l(1) =   0
                l(2) =   0
                l(3) =   1
                l(4) =   1
     Q(r) pseudized with 0 coefficients

     atomic species   valence    mass     pseudopotential
        Zn            12.00    65.38000     Zn( 1.00)
        O              6.00    15.99900     O ( 1.00)

      2 Sym. Ops. (no inversion) found

                                    s                        frac. trans.

      isym =  1     identity

 cryst.   s( 1) = (     1          0          0      )
                  (     0          1          0      )
                  (     0          0          1      )

 cart.    s( 1) = (  1.0000000 -0.0000000  0.0000000 )
                  (  0.0000000  1.0000000  0.0000000 )
                  (  0.0000000  0.0000000  1.0000000 )

      isym =  2     inv. 180 deg rotation - cryst. axis [0,1,0]

 cryst.   s( 2) = (     1          3          0      )
                  (     0         -1          0      )
                  (     0          0          1      )

 cart.    s( 2) = (  0.5000000  0.8660254  0.0000000 )
                  (  0.8660254 -0.5000000  0.0000000 )
                  (  0.0000000  0.0000000  1.0000000 )

   Cartesian axes

     site n.     atom                  positions (alat units)
         1           Zn  tau(   1) = (   0.1666667   0.0962250   0.2478486  )
         2           Zn  tau(   2) = (  -0.0000000   0.1924501   0.0003137  )
         3           O   tau(   3) = (   0.1666667   0.0962250   0.4355013  )
         4           O   tau(   4) = (  -0.0000000   0.1924501   0.1879664  )
         5           Zn  tau(   5) = (   0.5000000   0.0962250   0.2478486  )
         6           Zn  tau(   6) = (   0.3333333   0.1924501   0.0003137  )
         7           O   tau(   7) = (   0.5000000   0.0962250   0.4355013  )
         8           O   tau(   8) = (   0.3333333   0.1924501   0.1879664  )
         9           Zn  tau(   9) = (   0.8333333   0.0962250   0.2478486  )
        10           Zn  tau(  10) = (   0.6666667   0.1924501   0.0003137  )
        11           O   tau(  11) = (   0.8333333   0.0962250   0.4355013  )
        12           O   tau(  12) = (   0.6666667   0.1924501   0.1879664  )

   Crystallographic axes

     site n.     atom                  positions (cryst. coord.)
         1           Zn  tau(   1) = (  0.2222222  0.3333333  0.5006336  )
         2           Zn  tau(   2) = (  0.1111111  0.6666667  0.0006336  )
         3           O   tau(   3) = (  0.2222222  0.3333333  0.8796764  )
         4           O   tau(   4) = (  0.1111111  0.6666667  0.3796764  )
         5           Zn  tau(   5) = (  0.5555556  0.3333333  0.5006336  )
         6           Zn  tau(   6) = (  0.4444444  0.6666667  0.0006336  )
         7           O   tau(   7) = (  0.5555556  0.3333333  0.8796764  )
         8           O   tau(   8) = (  0.4444444  0.6666667  0.3796764  )
         9           Zn  tau(   9) = (  0.8888889  0.3333333  0.5006336  )
        10           Zn  tau(  10) = (  0.7777778  0.6666667  0.0006336  )
        11           O   tau(  11) = (  0.8888889  0.3333333  0.8796764  )
        12           O   tau(  12) = (  0.7777778  0.6666667  0.3796764  )

     number of k points=    68
                       cart. coord. in units 2pi/alat
        k(    1) = (   0.0000000   0.0000000   0.0000000), wk =   0.0092593
        k(    2) = (   0.0000000   0.0000000   0.3366528), wk =   0.0185185
        k(    3) = (   0.0000000   0.0000000   0.6733056), wk =   0.0185185
        k(    4) = (   0.0000000   0.0000000  -1.0099584), wk =   0.0092593
        k(    5) = (   0.0000000   0.5773503   0.0000000), wk =   0.0370370
        k(    6) = (   0.0000000   0.5773503   0.3366528), wk =   0.0370370
        k(    7) = (   0.0000000   0.5773503   0.6733056), wk =   0.0370370
        k(    8) = (   0.0000000   0.5773503  -1.0099584), wk =   0.0370370
        k(    9) = (   0.0000000   1.1547005   0.0000000), wk =   0.0185185
        k(   10) = (   0.0000000   1.1547005   0.3366528), wk =   0.0370370
        k(   11) = (   0.0000000   1.1547005   0.6733056), wk =   0.0370370
        k(   12) = (   0.0000000   1.1547005  -1.0099584), wk =   0.0185185
        k(   13) = (   0.0000000  -1.7320508   0.0000000), wk =   0.0185185
        k(   14) = (   0.0000000  -1.7320508   0.3366528), wk =   0.0370370
        k(   15) = (   0.0000000  -1.7320508   0.6733056), wk =   0.0370370
        k(   16) = (   0.0000000  -1.7320508  -1.0099584), wk =   0.0185185
        k(   17) = (   0.1666667   0.0962250   0.0000000), wk =   0.0185185
        k(   18) = (   0.1666667   0.0962250   0.3366528), wk =   0.0185185
        k(   19) = (   0.1666667   0.0962250   0.6733056), wk =   0.0185185
        k(   20) = (   0.1666667   0.0962250  -1.0099584), wk =   0.0185185
        k(   21) = (   0.1666667   0.6735753   0.0000000), wk =   0.0370370
        k(   22) = (   0.1666667   0.6735753   0.3366528), wk =   0.0370370
        k(   23) = (   0.1666667   0.6735753   0.6733056), wk =   0.0370370
        k(   24) = (   0.1666667   0.6735753  -1.0099584), wk =   0.0370370
        k(   25) = (   0.1666667   1.2509256   0.0000000), wk =   0.0370370
        k(   26) = (   0.1666667   1.2509256   0.3366528), wk =   0.0370370
        k(   27) = (   0.1666667   1.2509256   0.6733056), wk =   0.0370370
        k(   28) = (   0.1666667   1.2509256  -1.0099584), wk =   0.0370370
        k(   29) = (   0.1666667  -1.6358258   0.0000000), wk =   0.0370370
        k(   30) = (   0.1666667  -1.6358258   0.3366528), wk =   0.0370370
        k(   31) = (   0.1666667  -1.6358258   0.6733056), wk =   0.0370370
        k(   32) = (   0.1666667  -1.6358258  -1.0099584), wk =   0.0370370
        k(   33) = (   0.1666667  -0.4811252   0.0000000), wk =   0.0370370
        k(   34) = (   0.1666667  -0.4811252   0.3366528), wk =   0.0370370
        k(   35) = (   0.1666667  -0.4811252   0.6733056), wk =   0.0370370
        k(   36) = (   0.1666667  -0.4811252  -1.0099584), wk =   0.0370370
        k(   37) = (   0.3333333   0.1924501   0.0000000), wk =   0.0185185
        k(   38) = (   0.3333333   0.1924501   0.3366528), wk =   0.0185185
        k(   39) = (   0.3333333   0.1924501   0.6733056), wk =   0.0185185
        k(   40) = (   0.3333333   0.1924501  -1.0099584), wk =   0.0185185
        k(   41) = (   0.3333333   1.3471506   0.0000000), wk =   0.0370370
        k(   42) = (   0.3333333   1.3471506   0.3366528), wk =   0.0370370
        k(   43) = (   0.3333333   1.3471506   0.6733056), wk =   0.0370370
        k(   44) = (   0.3333333   1.3471506  -1.0099584), wk =   0.0370370
        k(   45) = (  -0.5000000  -0.2886751   0.0000000), wk =   0.0092593
        k(   46) = (  -0.5000000  -0.2886751   0.3366528), wk =   0.0185185
        k(   47) = (  -0.5000000  -0.2886751   0.6733056), wk =   0.0185185
        k(   48) = (  -0.5000000  -0.2886751  -1.0099584), wk =   0.0092593
        k(   49) = (  -0.5000000   0.8660254   0.0000000), wk =   0.0185185
        k(   50) = (  -0.5000000   0.8660254   0.3366528), wk =   0.0370370
        k(   51) = (  -0.5000000   0.8660254   0.6733056), wk =   0.0370370
        k(   52) = (  -0.5000000   0.8660254  -1.0099584), wk =   0.0185185
        k(   53) = (   0.5000000  -0.2886751  -0.3366528), wk =   0.0370370
        k(   54) = (   0.5000000  -0.2886751  -0.6733056), wk =   0.0370370
        k(   55) = (   0.1666667   0.0962250  -0.3366528), wk =   0.0185185
        k(   56) = (   0.1666667   0.0962250  -0.6733056), wk =   0.0185185
        k(   57) = (   0.6666667  -0.1924501  -0.3366528), wk =   0.0370370
        k(   58) = (   0.6666667  -0.1924501  -0.6733056), wk =   0.0370370
        k(   59) = (   1.1666667  -0.4811252  -0.3366528), wk =   0.0370370
        k(   60) = (   1.1666667  -0.4811252  -0.6733056), wk =   0.0370370
        k(   61) = (  -1.3333333   0.9622504  -0.3366528), wk =   0.0370370
        k(   62) = (  -1.3333333   0.9622504  -0.6733056), wk =   0.0370370
        k(   63) = (  -0.3333333   0.3849002  -0.3366528), wk =   0.0370370
        k(   64) = (  -0.3333333   0.3849002  -0.6733056), wk =   0.0370370
        k(   65) = (   0.3333333   0.1924501  -0.3366528), wk =   0.0185185
        k(   66) = (   0.3333333   0.1924501  -0.6733056), wk =   0.0185185
        k(   67) = (   1.3333333  -0.3849002  -0.3366528), wk =   0.0370370
        k(   68) = (   1.3333333  -0.3849002  -0.6733056), wk =   0.0370370

                       cryst. coord.
        k(    1) = (   0.0000000   0.0000000   0.0000000), wk =   0.0092593
        k(    2) = (   0.0000000   0.0000000   0.1666667), wk =   0.0185185
        k(    3) = (   0.0000000   0.0000000   0.3333333), wk =   0.0185185
        k(    4) = (   0.0000000   0.0000000  -0.5000000), wk =   0.0092593
        k(    5) = (   0.0000000   0.1666667   0.0000000), wk =   0.0370370
        k(    6) = (   0.0000000   0.1666667   0.1666667), wk =   0.0370370
        k(    7) = (   0.0000000   0.1666667   0.3333333), wk =   0.0370370
        k(    8) = (   0.0000000   0.1666667  -0.5000000), wk =   0.0370370
        k(    9) = (   0.0000000   0.3333333   0.0000000), wk =   0.0185185
        k(   10) = (   0.0000000   0.3333333   0.1666667), wk =   0.0370370
        k(   11) = (   0.0000000   0.3333333   0.3333333), wk =   0.0370370
        k(   12) = (   0.0000000   0.3333333  -0.5000000), wk =   0.0185185
        k(   13) = (   0.0000000  -0.5000000   0.0000000), wk =   0.0185185
        k(   14) = (   0.0000000  -0.5000000   0.1666667), wk =   0.0370370
        k(   15) = (   0.0000000  -0.5000000   0.3333333), wk =   0.0370370
        k(   16) = (   0.0000000  -0.5000000  -0.5000000), wk =   0.0185185
        k(   17) = (   0.1666667  -0.0000000   0.0000000), wk =   0.0185185
        k(   18) = (   0.1666667  -0.0000000   0.1666667), wk =   0.0185185
        k(   19) = (   0.1666667  -0.0000000   0.3333333), wk =   0.0185185
        k(   20) = (   0.1666667  -0.0000000  -0.5000000), wk =   0.0185185
        k(   21) = (   0.1666667   0.1666667   0.0000000), wk =   0.0370370
        k(   22) = (   0.1666667   0.1666667   0.1666667), wk =   0.0370370
        k(   23) = (   0.1666667   0.1666667   0.3333333), wk =   0.0370370
        k(   24) = (   0.1666667   0.1666667  -0.5000000), wk =   0.0370370
        k(   25) = (   0.1666667   0.3333333   0.0000000), wk =   0.0370370
        k(   26) = (   0.1666667   0.3333333   0.1666667), wk =   0.0370370
        k(   27) = (   0.1666667   0.3333333   0.3333333), wk =   0.0370370
        k(   28) = (   0.1666667   0.3333333  -0.5000000), wk =   0.0370370
        k(   29) = (   0.1666667  -0.5000000   0.0000000), wk =   0.0370370
        k(   30) = (   0.1666667  -0.5000000   0.1666667), wk =   0.0370370
        k(   31) = (   0.1666667  -0.5000000   0.3333333), wk =   0.0370370
        k(   32) = (   0.1666667  -0.5000000  -0.5000000), wk =   0.0370370
        k(   33) = (   0.1666667  -0.1666667   0.0000000), wk =   0.0370370
        k(   34) = (   0.1666667  -0.1666667   0.1666667), wk =   0.0370370
        k(   35) = (   0.1666667  -0.1666667   0.3333333), wk =   0.0370370
        k(   36) = (   0.1666667  -0.1666667  -0.5000000), wk =   0.0370370
        k(   37) = (   0.3333333  -0.0000000   0.0000000), wk =   0.0185185
        k(   38) = (   0.3333333  -0.0000000   0.1666667), wk =   0.0185185
        k(   39) = (   0.3333333  -0.0000000   0.3333333), wk =   0.0185185
        k(   40) = (   0.3333333  -0.0000000  -0.5000000), wk =   0.0185185
        k(   41) = (   0.3333333   0.3333333   0.0000000), wk =   0.0370370
        k(   42) = (   0.3333333   0.3333333   0.1666667), wk =   0.0370370
        k(   43) = (   0.3333333   0.3333333   0.3333333), wk =   0.0370370
        k(   44) = (   0.3333333   0.3333333  -0.5000000), wk =   0.0370370
        k(   45) = (  -0.5000000   0.0000000   0.0000000), wk =   0.0092593
        k(   46) = (  -0.5000000   0.0000000   0.1666667), wk =   0.0185185
        k(   47) = (  -0.5000000   0.0000000   0.3333333), wk =   0.0185185
        k(   48) = (  -0.5000000   0.0000000  -0.5000000), wk =   0.0092593
        k(   49) = (  -0.5000000   0.3333333   0.0000000), wk =   0.0185185
        k(   50) = (  -0.5000000   0.3333333   0.1666667), wk =   0.0370370
        k(   51) = (  -0.5000000   0.3333333   0.3333333), wk =   0.0370370
        k(   52) = (  -0.5000000   0.3333333  -0.5000000), wk =   0.0185185
        k(   53) = (   0.5000000  -0.1666667  -0.1666667), wk =   0.0370370
        k(   54) = (   0.5000000  -0.1666667  -0.3333333), wk =   0.0370370
        k(   55) = (   0.1666667   0.0000000  -0.1666667), wk =   0.0185185
        k(   56) = (   0.1666667   0.0000000  -0.3333333), wk =   0.0185185
        k(   57) = (   0.6666667  -0.1666667  -0.1666667), wk =   0.0370370
        k(   58) = (   0.6666667  -0.1666667  -0.3333333), wk =   0.0370370
        k(   59) = (   1.1666667  -0.3333333  -0.1666667), wk =   0.0370370
        k(   60) = (   1.1666667  -0.3333333  -0.3333333), wk =   0.0370370
        k(   61) = (  -1.3333333   0.5000000  -0.1666667), wk =   0.0370370
        k(   62) = (  -1.3333333   0.5000000  -0.3333333), wk =   0.0370370
        k(   63) = (  -0.3333333   0.1666667  -0.1666667), wk =   0.0370370
        k(   64) = (  -0.3333333   0.1666667  -0.3333333), wk =   0.0370370
        k(   65) = (   0.3333333   0.0000000  -0.1666667), wk =   0.0185185
        k(   66) = (   0.3333333   0.0000000  -0.3333333), wk =   0.0185185
        k(   67) = (   1.3333333  -0.3333333  -0.1666667), wk =   0.0370370
        k(   68) = (   1.3333333  -0.3333333  -0.3333333), wk =   0.0370370

     Check: negative core charge=   -0.000002

     Initial potential from superposition of free atoms

     starting charge     107.9776, renormalised to     108.0000
     Starting wfcs are   78 randomized atomic wfcs

     Self-consistent Calculation

     iteration #  1     ecut=    50.00 Ry     beta= 0.30
     Davidson diagonalization with overlap

     ethr =  1.00E-02,  avg # of iterations =  2.0

     total energy              =   -1084.37446361 Ry
     estimated scf accuracy    <       2.07052993 Ry

[...]

     c_bands:  1 eigenvalues not converged
     ethr =  7.42E-08,  avg # of iterations = 13.4

[...]

     c_bands:  1 eigenvalues not converged
     ethr =  7.42E-08,  avg # of iterations = 14.4

[...]

     total energy              =   -1084.82716654 Ry
     estimated scf accuracy    <       0.00000006 Ry

     iteration # 30     ecut=    50.00 Ry     beta= 0.30
     Davidson diagonalization with overlap

     ethr =  2.26E-11,  avg # of iterations =  5.5

     End of self-consistent calculation

          k = 0.0000 0.0000 0.0000 (  5403 PWs)   bands (ev):

   -10.4331  -9.9348  -9.9348  -9.4797  -9.3846  -9.3845   1.8296   1.8296
     2.2090   2.2092   2.2118   2.2352   2.2419   2.2419   2.3944   2.3944
     2.4730   2.4731   2.5175   2.5175   2.9115   2.9115   2.9611   2.9611
     3.4525   3.4525   3.4917   3.4918   3.5915   3.5915   3.7932   3.7932
     3.8098   3.8098   3.8431   3.8431   4.0303   4.2416   4.2416   4.9322
     4.9322   5.8480   5.8480   5.8482   5.8482   7.0057   7.0059   7.3240
     7.3240   7.5299   7.5299   8.0899   8.0902   8.1524

     occupation numbers
     1.0000   1.0000   1.0000   1.0000   1.0000   1.0000   1.0000   1.0000
     1.0000   1.0000   1.0000   1.0000   1.0000   1.0000   1.0000   1.0000
     1.0000   1.0000   1.0000   1.0000   1.0000   1.0000   1.0000   1.0000
     1.0000   1.0000   1.0000   1.0000   1.0000   1.0000   1.0000   1.0000
     1.0000   1.0000   1.0000   1.0000   1.0000   1.0000   1.0000   1.0000
     1.0000   1.0000   1.0000   1.0000   1.0000   1.0000   1.0000   1.0000
     1.0000   1.0000   1.0000   1.0000   1.0000   1.0000

[...]

          k =-0.5000-0.2887 0.0000 (  5430 PWs)   bands (ev):

[...]

          k =-0.3333 0.3849-0.6733 (  5433 PWs)   bands (ev):

[...]

          k = 1.3333-0.3849-0.6733 (  5443 PWs)   bands (ev):

    -9.8555  -9.6782  -9.5664  -9.5390  -9.4750  -9.4595   1.6777   1.7046
     1.7725   1.7875   1.8382   1.8967   2.3518   2.3813   2.4268   2.4590
     2.5210   2.5602   2.5603   2.6713   2.6964   2.8214   2.8269   2.8849
     3.5727   3.5831   3.6221   3.6419   3.6533   3.6994   3.7756   3.8078
     3.8434   3.9177   3.9201   4.0420   4.3732   4.5089   4.6595   4.9290
     5.0182   5.1462   5.5791   5.8303   6.1930   6.1992   6.3160   6.3403
     6.5979   6.7898   7.1212   7.1233   7.2992   7.4866

     occupation numbers
     1.0000   1.0000   1.0000   1.0000   1.0000   1.0000   1.0000   1.0000
     1.0000   1.0000   1.0000   1.0000   1.0000   1.0000   1.0000   1.0000
     1.0000   1.0000   1.0000   1.0000   1.0000   1.0000   1.0000   1.0000
     1.0000   1.0000   1.0000   1.0000   1.0000   1.0000   1.0000   1.0000
     1.0000   1.0000   1.0000   1.0000   1.0000   1.0000   1.0000   1.0000
     1.0000   1.0000   1.0000   1.0000   1.0000   1.0000   1.0000   1.0000
     1.0000   1.0000   1.0000   1.0000   1.0000   1.0000

     highest occupied level (ev):     8.1524

!    total energy              =   -1084.82716654 Ry
     estimated scf accuracy    <          3.3E-09 Ry

     The total energy is the sum of the following terms:
     one-electron contribution =    -437.59197508 Ry
     hartree contribution      =     346.19645289 Ry
     xc contribution           =    -329.21280250 Ry
     ewald contribution        =    -664.21884186 Ry

     convergence has been achieved in  30 iterations

     Forces acting on atoms (cartesian axes, Ry/au):

     atom    1 type  1   force =     0.00001663    0.00000960   -0.05201372
     atom    2 type  1   force =    -0.00000641   -0.00000370   -0.05202389
     atom    3 type  2   force =    -0.00000026   -0.00000015    0.05201587
     atom    4 type  2   force =    -0.00000126   -0.00000073    0.05201655
     atom    5 type  1   force =    -0.00000847   -0.00000489   -0.05200158
     atom    6 type  1   force =    -0.00001709   -0.00000987   -0.05201928
     atom    7 type  2   force =     0.00000182    0.00000105    0.05201581
     atom    8 type  2   force =     0.00000294    0.00000170    0.05201673
     atom    9 type  1   force =     0.00002002    0.00001156   -0.05200622
     atom   10 type  1   force =    -0.00000687   -0.00000397   -0.05203269
     atom   11 type  2   force =    -0.00000164   -0.00000095    0.05201567
     atom   12 type  2   force =     0.00000060    0.00000034    0.05201675
     The non-local contrib.  to forces
     atom    1 type  1   force =    -0.00000184   -0.00000106   -0.25818560
     atom    2 type  1   force =     0.00001227    0.00000709   -0.25819363
     atom    3 type  2   force =    -0.00017101   -0.00009873   -0.18020314
     atom    4 type  2   force =     0.00016027    0.00009253   -0.18020838
     atom    5 type  1   force =    -0.00002495   -0.00001441   -0.25818005
     atom    6 type  1   force =     0.00000198    0.00000114   -0.25818976
     atom    7 type  2   force =    -0.00016125   -0.00009310   -0.18020487
     atom    8 type  2   force =     0.00017376    0.00010032   -0.18020695
     atom    9 type  1   force =    -0.00000126   -0.00000073   -0.25817526
     atom   10 type  1   force =     0.00001351    0.00000780   -0.25819614
     atom   11 type  2   force =    -0.00017543   -0.00010128   -0.18020599
     atom   12 type  2   force =     0.00016904    0.00009760   -0.18020512
     The ionic contribution  to forces
     atom    1 type  1   force =     0.00000001    0.00000001   -1.74836659
     atom    2 type  1   force =     0.00000001    0.00000000   -1.74836659
     atom    3 type  2   force =     0.00000000    0.00000000    1.74836659
     atom    4 type  2   force =     0.00000001    0.00000000    1.74836659
     atom    5 type  1   force =    -0.00000001    0.00000000   -1.74836659
     atom    6 type  1   force =     0.00000001   -0.00000000   -1.74836659
     atom    7 type  2   force =    -0.00000001    0.00000000    1.74836659
     atom    8 type  2   force =     0.00000001   -0.00000000    1.74836659
     atom    9 type  1   force =    -0.00000001   -0.00000000   -1.74836659
     atom   10 type  1   force =    -0.00000001   -0.00000001   -1.74836659
     atom   11 type  2   force =    -0.00000001   -0.00000000    1.74836659
     atom   12 type  2   force =    -0.00000000   -0.00000000    1.74836659
     The local contribution  to forces
     atom    1 type  1   force =     0.00000772    0.00000446    1.93344148
     atom    2 type  1   force =    -0.00002832   -0.00001640    1.93345692
     atom    3 type  2   force =     0.00016650    0.00009613   -1.51737019
     atom    4 type  2   force =    -0.00016660   -0.00009620   -1.51737718
     atom    5 type  1   force =     0.00006248    0.00003617    1.93342634
     atom    6 type  1   force =    -0.00001019   -0.00000598    1.93344725
     atom    7 type  2   force =     0.00017588    0.00010157   -1.51736312
     atom    8 type  2   force =    -0.00015970   -0.00009223   -1.51738201
     atom    9 type  1   force =    -0.00000022   -0.00000008    1.93341493
     atom   10 type  1   force =    -0.00003059   -0.00001766    1.93347625
     atom   11 type  2   force =     0.00016289    0.00009406   -1.51735883
     atom   12 type  2   force =    -0.00016844   -0.00009725   -1.51738349
     The core correction contribution to forces
     atom    1 type  1   force =    -0.00000328   -0.00000189    0.02108586
     atom    2 type  1   force =     0.00000326    0.00000188    0.02108592
     atom    3 type  2   force =     0.00000196    0.00000113    0.00122312
     atom    4 type  2   force =    -0.00000180   -0.00000104    0.00122319
     atom    5 type  1   force =    -0.00000394   -0.00000226    0.02108588
     atom    6 type  1   force =     0.00000351    0.00000201    0.02108602
     atom    7 type  2   force =     0.00000184    0.00000106    0.00122317
     atom    8 type  2   force =    -0.00000197   -0.00000114    0.00122315
     atom    9 type  1   force =    -0.00000275   -0.00000158    0.02108644
     atom   10 type  1   force =     0.00000331    0.00000191    0.02108523
     atom   11 type  2   force =     0.00000200    0.00000115    0.00122320
     atom   12 type  2   force =    -0.00000192   -0.00000111    0.00122312
     The Hubbard contrib.    to forces
     atom    1 type  1   force =     0.00000000    0.00000000    0.00000000
     atom    2 type  1   force =     0.00000000    0.00000000    0.00000000
     atom    3 type  2   force =     0.00000000    0.00000000    0.00000000
     atom    4 type  2   force =     0.00000000    0.00000000    0.00000000
     atom    5 type  1   force =     0.00000000    0.00000000    0.00000000
     atom    6 type  1   force =     0.00000000    0.00000000    0.00000000
     atom    7 type  2   force =     0.00000000    0.00000000    0.00000000
     atom    8 type  2   force =     0.00000000    0.00000000    0.00000000
     atom    9 type  1   force =     0.00000000    0.00000000    0.00000000
     atom   10 type  1   force =     0.00000000    0.00000000    0.00000000
     atom   11 type  2   force =     0.00000000    0.00000000    0.00000000
     atom   12 type  2   force =     0.00000000    0.00000000    0.00000000
     The SCF correction term to forces
     atom    1 type  1   force =     0.00001359    0.00000784    0.00001566
     atom    2 type  1   force =     0.00000596    0.00000344   -0.00000197
     atom    3 type  2   force =     0.00000187    0.00000108    0.00000402
     atom    4 type  2   force =     0.00000644    0.00000372    0.00001684
     atom    5 type  1   force =    -0.00004252   -0.00002455    0.00003736
     atom    6 type  1   force =    -0.00001277   -0.00000737    0.00000833
     atom    7 type  2   force =    -0.00001509   -0.00000871   -0.00000145
     atom    8 type  2   force =    -0.00000957   -0.00000552    0.00002047
     atom    9 type  1   force =     0.00002380    0.00001374    0.00003879
     atom   10 type  1   force =     0.00000647    0.00000374   -0.00002691
     atom   11 type  2   force =     0.00000847    0.00000489   -0.00000478
     atom   12 type  2   force =     0.00000149    0.00000086    0.00002018

     Total force =     0.180190     Total SCF correction =     0.000097

     General routines

     Parallel routines

   This run was terminated on:  19:12:54  27Aug2025

   JOB DONE.