     Program PWSCF v.7.0 starts on 27Aug2025 at 12:10:29

     K-points division:     npool     =      17

     Reading input from /home/jvc/QEspresso7.2/ZnO_database/scripts/cell311.in/ZnO-2.94-1.49-311.in
Warning: card &CELL ignored
Warning: card / ignored
Warning: card &FCP ignored
Warning: card / ignored
Warning: card &RISM ignored
Warning: card / ignored

     Current dimensions of program PWSCF are:
     Max number of different atomic species (ntypx) = 10
     Max number of k-points (npk) =  40000
     Max angular momentum in pseudopotentials (lmaxx) =  4
     file Zn.upf: wavefunction(s)  3D renormalized
     Found identity + (  0.3333  0.0000  0.0000) symmetry
     This is a supercell, fractional translations are disabled
     Message from routine setup:
     using ibrav=0 with symmetry is DISCOURAGED, use correct ibrav instead

     Subspace diagonalization in iterative solution of the eigenvalue problem:
     a serial algorithm will be used

     Using Slab Decomposition

     bravais-lattice index     =            0
     lattice parameter (alat)  =      16.6829  a.u.
     unit-cell volume          =     663.5765 (a.u.)^3
     number of atoms/cell      =           12
     number of atomic types    =            2
     number of electrons       =       108.00
     number of Kohn-Sham states=           54
     kinetic-energy cutoff     =      50.0000  Ry
     charge density cutoff     =     400.0000  Ry
     scf convergence threshold =      1.0E-08
     mixing beta               =       0.3000
     number of iterations used =            8  plain     mixing
     Exchange-correlation= PBE
                           (   1   4   3   4   0   0   0)

     celldm(1)=  16.682906  celldm(2)=   0.000000  celldm(3)=   0.000000
     celldm(4)=   0.000000  celldm(5)=   0.000000  celldm(6)=   0.000000

     crystal axes: (cart. coord. in units of alat)
               a(1) = (   1.000000   0.000000   0.000000 )
               a(2) = (  -0.166667   0.288675   0.000000 )
               a(3) = (   0.000000   0.000000   0.495070 )

     reciprocal axes: (cart. coord. in units 2 pi/alat)
               b(1) = (  1.000000  0.577350 -0.000000 )
               b(2) = (  0.000000  3.464102  0.000000 )
               b(3) = (  0.000000 -0.000000  2.019917 )

     PseudoPot. # 1 for Zn read from file:
     /home/jvc/QEspresso7.2/ZnO_database/pseudos/Zn.upf
     MD5 check sum: 7f56cabf9682ed8c977c2f7d0c5985c5
     Pseudo is Ultrasoft + core correction, Zval = 12.0
     Generated using &quot;atomic&quot; code by A. Dal Corso  v.6.2.2
     Using radial grid of 1201 points,  6 beta functions with:
                l(1) =   0
                l(2) =   0
                l(3) =   1
                l(4) =   1
                l(5) =   2
                l(6) =   2
     Q(r) pseudized with 0 coefficients

     PseudoPot. # 2 for O  read from file:
     /home/jvc/QEspresso7.2/ZnO_database/pseudos/O.upf
     MD5 check sum: 91400c9766925bcf19f520983a725ff0
     Pseudo is Ultrasoft + core correction, Zval =  6.0
     Generated using &quot;atomic&quot; code by A. Dal Corso  v.6.3MaX
     Using radial grid of 1095 points,  4 beta functions with:
                l(1) =   0
                l(2) =   0
                l(3) =   1
                l(4) =   1
     Q(r) pseudized with 0 coefficients

     atomic species   valence    mass     pseudopotential
        Zn            12.00    65.38000     Zn( 1.00)
        O              6.00    15.99900     O ( 1.00)

      2 Sym. Ops. (no inversion) found

                                    s                        frac. trans.

      isym =  1     identity

 cryst.   s( 1) = (     1          0          0      )
                  (     0          1          0      )
                  (     0          0          1      )

 cart.    s( 1) = (  1.0000000  0.0000000  0.0000000 )
                  (  0.0000000  1.0000000  0.0000000 )
                  (  0.0000000  0.0000000  1.0000000 )

      isym =  2     inv. 180 deg rotation - cryst. axis [0,1,0]

 cryst.   s( 2) = (     1          3          0      )
                  (     0         -1          0      )
                  (     0          0          1      )

 cart.    s( 2) = (  0.5000000  0.8660254  0.0000000 )
                  (  0.8660254 -0.5000000  0.0000000 )
                  (  0.0000000  0.0000000  1.0000000 )

   Cartesian axes

     site n.     atom                  positions (alat units)
         1           Zn  tau(   1) = (   0.1666667   0.0962250   0.2478486  )
         2           Zn  tau(   2) = (  -0.0000000   0.1924501   0.0003137  )
         3           O   tau(   3) = (   0.1666667   0.0962250   0.4355013  )
         4           O   tau(   4) = (  -0.0000000   0.1924501   0.1879664  )
         5           Zn  tau(   5) = (   0.5000000   0.0962250   0.2478486  )
         6           Zn  tau(   6) = (   0.3333333   0.1924501   0.0003137  )
         7           O   tau(   7) = (   0.5000000   0.0962250   0.4355013  )
         8           O   tau(   8) = (   0.3333333   0.1924501   0.1879664  )
         9           Zn  tau(   9) = (   0.8333333   0.0962250   0.2478486  )
        10           Zn  tau(  10) = (   0.6666667   0.1924501   0.0003137  )
        11           O   tau(  11) = (   0.8333333   0.0962250   0.4355013  )
        12           O   tau(  12) = (   0.6666667   0.1924501   0.1879664  )

   Crystallographic axes

     site n.     atom                  positions (cryst. coord.)
         1           Zn  tau(   1) = (  0.2222222  0.3333333  0.5006336  )
         2           Zn  tau(   2) = (  0.1111111  0.6666667  0.0006336  )
         3           O   tau(   3) = (  0.2222222  0.3333333  0.8796764  )
         4           O   tau(   4) = (  0.1111111  0.6666667  0.3796764  )
         5           Zn  tau(   5) = (  0.5555556  0.3333333  0.5006336  )
         6           Zn  tau(   6) = (  0.4444444  0.6666667  0.0006336  )
         7           O   tau(   7) = (  0.5555556  0.3333333  0.8796764  )
         8           O   tau(   8) = (  0.4444444  0.6666667  0.3796764  )
         9           Zn  tau(   9) = (  0.8888889  0.3333333  0.5006336  )
        10           Zn  tau(  10) = (  0.7777778  0.6666667  0.0006336  )
        11           O   tau(  11) = (  0.8888889  0.3333333  0.8796764  )
        12           O   tau(  12) = (  0.7777778  0.6666667  0.3796764  )

     number of k points=    68
                       cart. coord. in units 2pi/alat
        k(    1) = (   0.0000000   0.0000000   0.0000000), wk =   0.0092593
        k(    2) = (   0.0000000   0.0000000   0.3366528), wk =   0.0185185
        k(    3) = (   0.0000000   0.0000000   0.6733056), wk =   0.0185185
        k(    4) = (   0.0000000   0.0000000  -1.0099584), wk =   0.0092593
        k(    5) = (   0.0000000   0.5773503   0.0000000), wk =   0.0370370
        k(    6) = (   0.0000000   0.5773503   0.3366528), wk =   0.0370370
        k(    7) = (   0.0000000   0.5773503   0.6733056), wk =   0.0370370
        k(    8) = (   0.0000000   0.5773503  -1.0099584), wk =   0.0370370
        k(    9) = (   0.0000000   1.1547005   0.0000000), wk =   0.0185185
        k(   10) = (   0.0000000   1.1547005   0.3366528), wk =   0.0370370
        k(   11) = (   0.0000000   1.1547005   0.6733056), wk =   0.0370370
        k(   12) = (   0.0000000   1.1547005  -1.0099584), wk =   0.0185185
        k(   13) = (   0.0000000  -1.7320508   0.0000000), wk =   0.0185185
        k(   14) = (   0.0000000  -1.7320508   0.3366528), wk =   0.0370370
        k(   15) = (   0.0000000  -1.7320508   0.6733056), wk =   0.0370370
        k(   16) = (   0.0000000  -1.7320508  -1.0099584), wk =   0.0185185
        k(   17) = (   0.1666667   0.0962250   0.0000000), wk =   0.0185185
        k(   18) = (   0.1666667   0.0962250   0.3366528), wk =   0.0185185
        k(   19) = (   0.1666667   0.0962250   0.6733056), wk =   0.0185185
        k(   20) = (   0.1666667   0.0962250  -1.0099584), wk =   0.0185185
        k(   21) = (   0.1666667   0.6735753   0.0000000), wk =   0.0370370
        k(   22) = (   0.1666667   0.6735753   0.3366528), wk =   0.0370370
        k(   23) = (   0.1666667   0.6735753   0.6733056), wk =   0.0370370
        k(   24) = (   0.1666667   0.6735753  -1.0099584), wk =   0.0370370
        k(   25) = (   0.1666667   1.2509256   0.0000000), wk =   0.0370370
        k(   26) = (   0.1666667   1.2509256   0.3366528), wk =   0.0370370
        k(   27) = (   0.1666667   1.2509256   0.6733056), wk =   0.0370370
        k(   28) = (   0.1666667   1.2509256  -1.0099584), wk =   0.0370370
        k(   29) = (   0.1666667  -1.6358258   0.0000000), wk =   0.0370370
        k(   30) = (   0.1666667  -1.6358258   0.3366528), wk =   0.0370370
        k(   31) = (   0.1666667  -1.6358258   0.6733056), wk =   0.0370370
        k(   32) = (   0.1666667  -1.6358258  -1.0099584), wk =   0.0370370
        k(   33) = (   0.1666667  -0.4811252   0.0000000), wk =   0.0370370
        k(   34) = (   0.1666667  -0.4811252   0.3366528), wk =   0.0370370
        k(   35) = (   0.1666667  -0.4811252   0.6733056), wk =   0.0370370
        k(   36) = (   0.1666667  -0.4811252  -1.0099584), wk =   0.0370370
        k(   37) = (   0.3333333   0.1924501   0.0000000), wk =   0.0185185
        k(   38) = (   0.3333333   0.1924501   0.3366528), wk =   0.0185185
        k(   39) = (   0.3333333   0.1924501   0.6733056), wk =   0.0185185
        k(   40) = (   0.3333333   0.1924501  -1.0099584), wk =   0.0185185
        k(   41) = (   0.3333333   1.3471506   0.0000000), wk =   0.0370370
        k(   42) = (   0.3333333   1.3471506   0.3366528), wk =   0.0370370
        k(   43) = (   0.3333333   1.3471506   0.6733056), wk =   0.0370370
        k(   44) = (   0.3333333   1.3471506  -1.0099584), wk =   0.0370370
        k(   45) = (  -0.5000000  -0.2886751   0.0000000), wk =   0.0092593
        k(   46) = (  -0.5000000  -0.2886751   0.3366528), wk =   0.0185185
        k(   47) = (  -0.5000000  -0.2886751   0.6733056), wk =   0.0185185
        k(   48) = (  -0.5000000  -0.2886751  -1.0099584), wk =   0.0092593
        k(   49) = (  -0.5000000   0.8660254   0.0000000), wk =   0.0185185
        k(   50) = (  -0.5000000   0.8660254   0.3366528), wk =   0.0370370
        k(   51) = (  -0.5000000   0.8660254   0.6733056), wk =   0.0370370
        k(   52) = (  -0.5000000   0.8660254  -1.0099584), wk =   0.0185185
        k(   53) = (   0.5000000  -0.2886751  -0.3366528), wk =   0.0370370
        k(   54) = (   0.5000000  -0.2886751  -0.6733056), wk =   0.0370370
        k(   55) = (   0.1666667   0.0962250  -0.3366528), wk =   0.0185185
        k(   56) = (   0.1666667   0.0962250  -0.6733056), wk =   0.0185185
        k(   57) = (   0.6666667  -0.1924501  -0.3366528), wk =   0.0370370
        k(   58) = (   0.6666667  -0.1924501  -0.6733056), wk =   0.0370370
        k(   59) = (   1.1666667  -0.4811252  -0.3366528), wk =   0.0370370
        k(   60) = (   1.1666667  -0.4811252  -0.6733056), wk =   0.0370370
        k(   61) = (  -1.3333333   0.9622504  -0.3366528), wk =   0.0370370
        k(   62) = (  -1.3333333   0.9622504  -0.6733056), wk =   0.0370370
        k(   63) = (  -0.3333333   0.3849002  -0.3366528), wk =   0.0370370
        k(   64) = (  -0.3333333   0.3849002  -0.6733056), wk =   0.0370370
        k(   65) = (   0.3333333   0.1924501  -0.3366528), wk =   0.0185185
        k(   66) = (   0.3333333   0.1924501  -0.6733056), wk =   0.0185185
        k(   67) = (   1.3333333  -0.3849002  -0.3366528), wk =   0.0370370
        k(   68) = (   1.3333333  -0.3849002  -0.6733056), wk =   0.0370370

                       cryst. coord.
        k(    1) = (   0.0000000   0.0000000   0.0000000), wk =   0.0092593
        k(    2) = (   0.0000000   0.0000000   0.1666667), wk =   0.0185185
        k(    3) = (   0.0000000   0.0000000   0.3333333), wk =   0.0185185
        k(    4) = (   0.0000000   0.0000000  -0.5000000), wk =   0.0092593
        k(    5) = (   0.0000000   0.1666667   0.0000000), wk =   0.0370370
        k(    6) = (   0.0000000   0.1666667   0.1666667), wk =   0.0370370
        k(    7) = (   0.0000000   0.1666667   0.3333333), wk =   0.0370370
        k(    8) = (   0.0000000   0.1666667  -0.5000000), wk =   0.0370370
        k(    9) = (   0.0000000   0.3333333   0.0000000), wk =   0.0185185
        k(   10) = (   0.0000000   0.3333333   0.1666667), wk =   0.0370370
        k(   11) = (   0.0000000   0.3333333   0.3333333), wk =   0.0370370
        k(   12) = (   0.0000000   0.3333333  -0.5000000), wk =   0.0185185
        k(   13) = (   0.0000000  -0.5000000   0.0000000), wk =   0.0185185
        k(   14) = (   0.0000000  -0.5000000   0.1666667), wk =   0.0370370
        k(   15) = (   0.0000000  -0.5000000   0.3333333), wk =   0.0370370
        k(   16) = (   0.0000000  -0.5000000  -0.5000000), wk =   0.0185185
        k(   17) = (   0.1666667  -0.0000000   0.0000000), wk =   0.0185185
        k(   18) = (   0.1666667  -0.0000000   0.1666667), wk =   0.0185185
        k(   19) = (   0.1666667  -0.0000000   0.3333333), wk =   0.0185185
        k(   20) = (   0.1666667  -0.0000000  -0.5000000), wk =   0.0185185
        k(   21) = (   0.1666667   0.1666667   0.0000000), wk =   0.0370370
        k(   22) = (   0.1666667   0.1666667   0.1666667), wk =   0.0370370
        k(   23) = (   0.1666667   0.1666667   0.3333333), wk =   0.0370370
        k(   24) = (   0.1666667   0.1666667  -0.5000000), wk =   0.0370370
        k(   25) = (   0.1666667   0.3333333   0.0000000), wk =   0.0370370
        k(   26) = (   0.1666667   0.3333333   0.1666667), wk =   0.0370370
        k(   27) = (   0.1666667   0.3333333   0.3333333), wk =   0.0370370
        k(   28) = (   0.1666667   0.3333333  -0.5000000), wk =   0.0370370
        k(   29) = (   0.1666667  -0.5000000   0.0000000), wk =   0.0370370
        k(   30) = (   0.1666667  -0.5000000   0.1666667), wk =   0.0370370
        k(   31) = (   0.1666667  -0.5000000   0.3333333), wk =   0.0370370
        k(   32) = (   0.1666667  -0.5000000  -0.5000000), wk =   0.0370370
        k(   33) = (   0.1666667  -0.1666667   0.0000000), wk =   0.0370370
        k(   34) = (   0.1666667  -0.1666667   0.1666667), wk =   0.0370370
        k(   35) = (   0.1666667  -0.1666667   0.3333333), wk =   0.0370370
        k(   36) = (   0.1666667  -0.1666667  -0.5000000), wk =   0.0370370
        k(   37) = (   0.3333333  -0.0000000   0.0000000), wk =   0.0185185
        k(   38) = (   0.3333333  -0.0000000   0.1666667), wk =   0.0185185
        k(   39) = (   0.3333333  -0.0000000   0.3333333), wk =   0.0185185
        k(   40) = (   0.3333333  -0.0000000  -0.5000000), wk =   0.0185185
        k(   41) = (   0.3333333   0.3333333   0.0000000), wk =   0.0370370
        k(   42) = (   0.3333333   0.3333333   0.1666667), wk =   0.0370370
        k(   43) = (   0.3333333   0.3333333   0.3333333), wk =   0.0370370
        k(   44) = (   0.3333333   0.3333333  -0.5000000), wk =   0.0370370
        k(   45) = (  -0.5000000   0.0000000   0.0000000), wk =   0.0092593
        k(   46) = (  -0.5000000   0.0000000   0.1666667), wk =   0.0185185
        k(   47) = (  -0.5000000   0.0000000   0.3333333), wk =   0.0185185
        k(   48) = (  -0.5000000   0.0000000  -0.5000000), wk =   0.0092593
        k(   49) = (  -0.5000000   0.3333333   0.0000000), wk =   0.0185185
        k(   50) = (  -0.5000000   0.3333333   0.1666667), wk =   0.0370370
        k(   51) = (  -0.5000000   0.3333333   0.3333333), wk =   0.0370370
        k(   52) = (  -0.5000000   0.3333333  -0.5000000), wk =   0.0185185
        k(   53) = (   0.5000000  -0.1666667  -0.1666667), wk =   0.0370370
        k(   54) = (   0.5000000  -0.1666667  -0.3333333), wk =   0.0370370
        k(   55) = (   0.1666667   0.0000000  -0.1666667), wk =   0.0185185
        k(   56) = (   0.1666667   0.0000000  -0.3333333), wk =   0.0185185
        k(   57) = (   0.6666667  -0.1666667  -0.1666667), wk =   0.0370370
        k(   58) = (   0.6666667  -0.1666667  -0.3333333), wk =   0.0370370
        k(   59) = (   1.1666667  -0.3333333  -0.1666667), wk =   0.0370370
        k(   60) = (   1.1666667  -0.3333333  -0.3333333), wk =   0.0370370
        k(   61) = (  -1.3333333   0.5000000  -0.1666667), wk =   0.0370370
        k(   62) = (  -1.3333333   0.5000000  -0.3333333), wk =   0.0370370
        k(   63) = (  -0.3333333   0.1666667  -0.1666667), wk =   0.0370370
        k(   64) = (  -0.3333333   0.1666667  -0.3333333), wk =   0.0370370
        k(   65) = (   0.3333333   0.0000000  -0.1666667), wk =   0.0185185
        k(   66) = (   0.3333333   0.0000000  -0.3333333), wk =   0.0185185
        k(   67) = (   1.3333333  -0.3333333  -0.1666667), wk =   0.0370370
        k(   68) = (   1.3333333  -0.3333333  -0.3333333), wk =   0.0370370

     Initial potential from superposition of free atoms

     starting charge     107.9776, renormalised to     108.0000
     Starting wfcs are   78 randomized atomic wfcs

     Self-consistent Calculation

     iteration #  1     ecut=    50.00 Ry     beta= 0.30
     Davidson diagonalization with overlap

     ethr =  1.00E-02,  avg # of iterations =  2.5

     total energy              =   -1083.40832853 Ry
     estimated scf accuracy    <       2.17009558 Ry

[...]

     total energy              =   -1083.78631677 Ry
     estimated scf accuracy    <       0.00000001 Ry

     iteration # 24     ecut=    50.00 Ry     beta= 0.30
     Davidson diagonalization with overlap

     ethr =  9.27E-12,  avg # of iterations =  4.1

     End of self-consistent calculation

          k = 0.0000 0.0000 0.0000 (  3973 PWs)   bands (ev):

    -7.7744  -6.8867  -6.8867  -6.0942  -5.9068  -5.9068   4.9985   4.9985
     5.2187   5.5232   5.5232   5.8201   5.8203   5.9134   6.1199   6.1199
     6.1676   6.1676   6.2221   6.2222   6.7900   6.7900   6.8695   6.8695
     8.0298   8.0298   8.2678   8.2678   8.4594   8.4594   8.6271   8.6271
     8.8499   8.8499   8.9567   8.9567   9.3297   9.6585   9.6585  10.0669
    10.0669  10.8461  10.8461  11.4439  11.4439  12.5438  12.5439  13.0295
    13.0295  13.2464  13.2464  14.1310  14.1501  14.1503

     occupation numbers
     1.0000   1.0000   1.0000   1.0000   1.0000   1.0000   1.0000   1.0000
     1.0000   1.0000   1.0000   1.0000   1.0000   1.0000   1.0000   1.0000
     1.0000   1.0000   1.0000   1.0000   1.0000   1.0000   1.0000   1.0000
     1.0000   1.0000   1.0000   1.0000   1.0000   1.0000   1.0000   1.0000
     1.0000   1.0000   1.0000   1.0000   1.0000   1.0000   1.0000   1.0000
     1.0000   1.0000   1.0000   1.0000   1.0000   1.0000   1.0000   1.0000
     1.0000   1.0000   1.0000   1.0000   1.0000   1.0000

[...]

          k =-0.5000-0.2887 0.0000 (  3970 PWs)   bands (ev):

[...]

          k =-0.3333 0.3849-0.6733 (  3964 PWs)   bands (ev):

[...]

          k = 1.3333-0.3849-0.6733 (  3960 PWs)   bands (ev):

    -6.7441  -6.4136  -6.2065  -6.1768  -6.0491  -6.0151   4.7252   4.8232
     4.8315   4.9029   4.9747   5.0112   5.8849   6.0372   6.0469   6.1061
     6.1221   6.1833   6.3452   6.5197   6.5758   6.7435   6.7991   6.8651
     8.3718   8.4061   8.4692   8.5586   8.5734   8.6793   8.8253   8.8764
     8.9101   9.0257   9.0442   9.2683   9.4798   9.6786   9.8460  10.2180
    10.2752  10.4971  10.9366  11.1436  11.3429  11.4835  11.6220  11.6326
    11.9858  12.2258  12.6667  12.7206  12.9421  13.2215

     occupation numbers
     1.0000   1.0000   1.0000   1.0000   1.0000   1.0000   1.0000   1.0000
     1.0000   1.0000   1.0000   1.0000   1.0000   1.0000   1.0000   1.0000
     1.0000   1.0000   1.0000   1.0000   1.0000   1.0000   1.0000   1.0000
     1.0000   1.0000   1.0000   1.0000   1.0000   1.0000   1.0000   1.0000
     1.0000   1.0000   1.0000   1.0000   1.0000   1.0000   1.0000   1.0000
     1.0000   1.0000   1.0000   1.0000   1.0000   1.0000   1.0000   1.0000
     1.0000   1.0000   1.0000   1.0000   1.0000   1.0000

     highest occupied level (ev):    14.1503

!    total energy              =   -1083.78631678 Ry
     estimated scf accuracy    <          1.8E-10 Ry

     The total energy is the sum of the following terms:
     one-electron contribution =    -321.53199339 Ry
     hartree contribution      =     307.59886846 Ry
     xc contribution           =    -331.83225645 Ry
     ewald contribution        =    -738.02093540 Ry

     convergence has been achieved in  24 iterations

     Forces acting on atoms (cartesian axes, Ry/au):

     atom    1 type  1   force =     0.00001405    0.00000811   -0.15380207
     atom    2 type  1   force =    -0.00002451   -0.00001415   -0.15380476
     atom    3 type  2   force =    -0.00000263   -0.00000152    0.15380326
     atom    4 type  2   force =     0.00000135    0.00000078    0.15380378
     atom    5 type  1   force =     0.00002132    0.00001231   -0.15380317
     atom    6 type  1   force =    -0.00001492   -0.00000862   -0.15380250
     atom    7 type  2   force =    -0.00000194   -0.00000112    0.15380324
     atom    8 type  2   force =     0.00000219    0.00000126    0.15380365
     atom    9 type  1   force =     0.00002062    0.00001191   -0.15380520
     atom   10 type  1   force =    -0.00001630   -0.00000941   -0.15380348
     atom   11 type  2   force =    -0.00000139   -0.00000080    0.15380382
     atom   12 type  2   force =     0.00000215    0.00000124    0.15380343
     The non-local contrib.  to forces
     atom    1 type  1   force =    -0.00002425   -0.00001400   -0.30119820
     atom    2 type  1   force =     0.00001960    0.00001132   -0.30119926
     atom    3 type  2   force =    -0.00013152   -0.00007593   -0.15044012
     atom    4 type  2   force =     0.00013639    0.00007874   -0.15044058
     atom    5 type  1   force =    -0.00002041   -0.00001178   -0.30119845
     atom    6 type  1   force =     0.00002382    0.00001375   -0.30119874
     atom    7 type  2   force =    -0.00013509   -0.00007800   -0.15044014
     atom    8 type  2   force =     0.00013317    0.00007689   -0.15044046
     atom    9 type  1   force =    -0.00002075   -0.00001198   -0.30119940
     atom   10 type  1   force =     0.00002237    0.00001292   -0.30119925
     atom   11 type  2   force =    -0.00013368   -0.00007718   -0.15043977
     atom   12 type  2   force =     0.00013226    0.00007636   -0.15044119
     The ionic contribution  to forces
     atom    1 type  1   force =     0.00000001    0.00000001   -2.15847727
     atom    2 type  1   force =     0.00000001    0.00000000   -2.15847727
     atom    3 type  2   force =     0.00000000    0.00000000    2.15847727
     atom    4 type  2   force =     0.00000001    0.00000000    2.15847727
     atom    5 type  1   force =    -0.00000002    0.00000000   -2.15847728
     atom    6 type  1   force =     0.00000002   -0.00000000   -2.15847728
     atom    7 type  2   force =    -0.00000001    0.00000001    2.15847728
     atom    8 type  2   force =     0.00000001   -0.00000001    2.15847728
     atom    9 type  1   force =    -0.00000001   -0.00000000   -2.15847727
     atom   10 type  1   force =    -0.00000001   -0.00000001   -2.15847727
     atom   11 type  2   force =    -0.00000001   -0.00000000    2.15847727
     atom   12 type  2   force =    -0.00000000   -0.00000000    2.15847727
     The local contribution  to forces
     atom    1 type  1   force =     0.00004517    0.00002608    2.27262219
     atom    2 type  1   force =    -0.00003403   -0.00001969    2.27262282
     atom    3 type  2   force =     0.00013032    0.00007524   -1.85476309
     atom    4 type  2   force =    -0.00012642   -0.00007300   -1.85476586
     atom    5 type  1   force =     0.00003673    0.00002129    2.27262245
     atom    6 type  1   force =    -0.00004547   -0.00002634    2.27262039
     atom    7 type  2   force =     0.00012760    0.00007369   -1.85476401
     atom    8 type  2   force =    -0.00013049   -0.00007536   -1.85476575
     atom    9 type  1   force =     0.00003857    0.00002231    2.27262530
     atom   10 type  1   force =    -0.00004145   -0.00002393    2.27262101
     atom   11 type  2   force =     0.00012851    0.00007421   -1.85476290
     atom   12 type  2   force =    -0.00013021   -0.00007517   -1.85476484
     The core correction contribution to forces
     atom    1 type  1   force =    -0.00000171   -0.00000099    0.03325172
     atom    2 type  1   force =     0.00000179    0.00000103    0.03325188
     atom    3 type  2   force =     0.00000146    0.00000084    0.00053251
     atom    4 type  2   force =    -0.00000153   -0.00000088    0.00053251
     atom    5 type  1   force =    -0.00000177   -0.00000101    0.03325177
     atom    6 type  1   force =     0.00000177    0.00000101    0.03325187
     atom    7 type  2   force =     0.00000151    0.00000087    0.00053251
     atom    8 type  2   force =    -0.00000149   -0.00000086    0.00053251
     atom    9 type  1   force =    -0.00000184   -0.00000106    0.03325176
     atom   10 type  1   force =     0.00000173    0.00000100    0.03325190
     atom   11 type  2   force =     0.00000149    0.00000086    0.00053251
     atom   12 type  2   force =    -0.00000147   -0.00000085    0.00053252
     The Hubbard contrib.    to forces
     atom    1 type  1   force =     0.00000000    0.00000000    0.00000000
     atom    2 type  1   force =     0.00000000    0.00000000    0.00000000
     atom    3 type  2   force =     0.00000000    0.00000000    0.00000000
     atom    4 type  2   force =     0.00000000    0.00000000    0.00000000
     atom    5 type  1   force =     0.00000000    0.00000000    0.00000000
     atom    6 type  1   force =     0.00000000    0.00000000    0.00000000
     atom    7 type  2   force =     0.00000000    0.00000000    0.00000000
     atom    8 type  2   force =     0.00000000    0.00000000    0.00000000
     atom    9 type  1   force =     0.00000000    0.00000000    0.00000000
     atom   10 type  1   force =     0.00000000    0.00000000    0.00000000
     atom   11 type  2   force =     0.00000000    0.00000000    0.00000000
     atom   12 type  2   force =     0.00000000    0.00000000    0.00000000
     The SCF correction term to forces
     atom    1 type  1   force =    -0.00000511   -0.00000295    0.00000153
     atom    2 type  1   force =    -0.00001179   -0.00000681   -0.00000088
     atom    3 type  2   force =    -0.00000284   -0.00000164   -0.00000128
     atom    4 type  2   force =    -0.00000703   -0.00000406    0.00000248
     atom    5 type  1   force =     0.00000680    0.00000392    0.00000037
     atom    6 type  1   force =     0.00000505    0.00000292    0.00000329
     atom    7 type  2   force =     0.00000410    0.00000237   -0.00000036
     atom    8 type  2   force =     0.00000106    0.00000061    0.00000210
     atom    9 type  1   force =     0.00000469    0.00000271   -0.00000356
     atom   10 type  1   force =     0.00000112    0.00000064    0.00000217
     atom   11 type  2   force =     0.00000235    0.00000136   -0.00000127
     atom   12 type  2   force =     0.00000163    0.00000094    0.00000169

     Total force =     0.532791     Total SCF correction =     0.000023

     General routines

     Parallel routines

   This run was terminated on:  12:15: 4  27Aug2025

   JOB DONE.