     Program PWSCF v.7.0 starts on 27Aug2025 at 23:50:51

     K-points division:     npool     =      17

     Reading input from /home/jvc/QEspresso7.2/ZnO_database/scripts/cell311.in/ZnO-3.40-1.61-311.in
Warning: card &CELL ignored
Warning: card / ignored
Warning: card &FCP ignored
Warning: card / ignored
Warning: card &RISM ignored
Warning: card / ignored

     Current dimensions of program PWSCF are:
     Max number of different atomic species (ntypx) = 10
     Max number of k-points (npk) =  40000
     Max angular momentum in pseudopotentials (lmaxx) =  4
     file Zn.upf: wavefunction(s)  3D renormalized
     Found identity + (  0.3333  0.0000  0.0000) symmetry
     This is a supercell, fractional translations are disabled
     Message from routine setup:
     using ibrav=0 with symmetry is DISCOURAGED, use correct ibrav instead

     Subspace diagonalization in iterative solution of the eigenvalue problem:
     a serial algorithm will be used

     Using Slab Decomposition

     bravais-lattice index     =            0
     lattice parameter (alat)  =      19.2780  a.u.
     unit-cell volume          =    1112.9500 (a.u.)^3
     number of atoms/cell      =           12
     number of atomic types    =            2
     number of electrons       =       108.00
     number of Kohn-Sham states=           54
     kinetic-energy cutoff     =      50.0000  Ry
     charge density cutoff     =     400.0000  Ry
     scf convergence threshold =      1.0E-08
     mixing beta               =       0.3000
     number of iterations used =            8  plain     mixing
     Exchange-correlation= PBE
                           (   1   4   3   4   0   0   0)

     celldm(1)=  19.278024  celldm(2)=   0.000000  celldm(3)=   0.000000
     celldm(4)=   0.000000  celldm(5)=   0.000000  celldm(6)=   0.000000

     crystal axes: (cart. coord. in units of alat)
               a(1) = (   1.000000   0.000000   0.000000 )
               a(2) = (  -0.166667   0.288675   0.000000 )
               a(3) = (   0.000000   0.000000   0.538119 )

     reciprocal axes: (cart. coord. in units 2 pi/alat)
               b(1) = (  1.000000  0.577350 -0.000000 )
               b(2) = (  0.000000  3.464102  0.000000 )
               b(3) = (  0.000000 -0.000000  1.858323 )

     PseudoPot. # 1 for Zn read from file:
     /home/jvc/QEspresso7.2/ZnO_database/pseudos/Zn.upf
     MD5 check sum: 7f56cabf9682ed8c977c2f7d0c5985c5
     Pseudo is Ultrasoft + core correction, Zval = 12.0
     Generated using &quot;atomic&quot; code by A. Dal Corso  v.6.2.2
     Using radial grid of 1201 points,  6 beta functions with:
                l(1) =   0
                l(2) =   0
                l(3) =   1
                l(4) =   1
                l(5) =   2
                l(6) =   2
     Q(r) pseudized with 0 coefficients

     PseudoPot. # 2 for O  read from file:
     /home/jvc/QEspresso7.2/ZnO_database/pseudos/O.upf
     MD5 check sum: 91400c9766925bcf19f520983a725ff0
     Pseudo is Ultrasoft + core correction, Zval =  6.0
     Generated using &quot;atomic&quot; code by A. Dal Corso  v.6.3MaX
     Using radial grid of 1095 points,  4 beta functions with:
                l(1) =   0
                l(2) =   0
                l(3) =   1
                l(4) =   1
     Q(r) pseudized with 0 coefficients

     atomic species   valence    mass     pseudopotential
        Zn            12.00    65.38000     Zn( 1.00)
        O              6.00    15.99900     O ( 1.00)

      2 Sym. Ops. (no inversion) found

                                    s                        frac. trans.

      isym =  1     identity

 cryst.   s( 1) = (     1          0          0      )
                  (     0          1          0      )
                  (     0          0          1      )

 cart.    s( 1) = (  1.0000000  0.0000000  0.0000000 )
                  (  0.0000000  1.0000000  0.0000000 )
                  (  0.0000000  0.0000000  1.0000000 )

      isym =  2     inv. 180 deg rotation - cryst. axis [0,1,0]

 cryst.   s( 2) = (     1          3          0      )
                  (     0         -1          0      )
                  (     0          0          1      )

 cart.    s( 2) = (  0.5000000  0.8660254  0.0000000 )
                  (  0.8660254 -0.5000000  0.0000000 )
                  (  0.0000000  0.0000000  1.0000000 )

   Cartesian axes

     site n.     atom                  positions (alat units)
         1           Zn  tau(   1) = (   0.1666667   0.0962250   0.2694007  )
         2           Zn  tau(   2) = (  -0.0000000   0.1924501   0.0003409  )
         3           O   tau(   3) = (   0.1666667   0.0962250   0.4733710  )
         4           O   tau(   4) = (  -0.0000000   0.1924501   0.2043113  )
         5           Zn  tau(   5) = (   0.5000000   0.0962250   0.2694007  )
         6           Zn  tau(   6) = (   0.3333333   0.1924501   0.0003409  )
         7           O   tau(   7) = (   0.5000000   0.0962250   0.4733710  )
         8           O   tau(   8) = (   0.3333333   0.1924501   0.2043113  )
         9           Zn  tau(   9) = (   0.8333333   0.0962250   0.2694007  )
        10           Zn  tau(  10) = (   0.6666667   0.1924501   0.0003409  )
        11           O   tau(  11) = (   0.8333333   0.0962250   0.4733710  )
        12           O   tau(  12) = (   0.6666667   0.1924501   0.2043113  )

   Crystallographic axes

     site n.     atom                  positions (cryst. coord.)
         1           Zn  tau(   1) = (  0.2222222  0.3333333  0.5006336  )
         2           Zn  tau(   2) = (  0.1111111  0.6666667  0.0006336  )
         3           O   tau(   3) = (  0.2222222  0.3333333  0.8796764  )
         4           O   tau(   4) = (  0.1111111  0.6666667  0.3796764  )
         5           Zn  tau(   5) = (  0.5555556  0.3333333  0.5006336  )
         6           Zn  tau(   6) = (  0.4444444  0.6666667  0.0006336  )
         7           O   tau(   7) = (  0.5555556  0.3333333  0.8796764  )
         8           O   tau(   8) = (  0.4444444  0.6666667  0.3796764  )
         9           Zn  tau(   9) = (  0.8888889  0.3333333  0.5006336  )
        10           Zn  tau(  10) = (  0.7777778  0.6666667  0.0006336  )
        11           O   tau(  11) = (  0.8888889  0.3333333  0.8796764  )
        12           O   tau(  12) = (  0.7777778  0.6666667  0.3796764  )

     number of k points=    68
                       cart. coord. in units 2pi/alat
        k(    1) = (   0.0000000   0.0000000   0.0000000), wk =   0.0092593
        k(    2) = (   0.0000000   0.0000000   0.3097206), wk =   0.0185185
        k(    3) = (   0.0000000   0.0000000   0.6194412), wk =   0.0185185
        k(    4) = (   0.0000000   0.0000000  -0.9291617), wk =   0.0092593
        k(    5) = (   0.0000000   0.5773503   0.0000000), wk =   0.0370370
        k(    6) = (   0.0000000   0.5773503   0.3097206), wk =   0.0370370
        k(    7) = (   0.0000000   0.5773503   0.6194412), wk =   0.0370370
        k(    8) = (   0.0000000   0.5773503  -0.9291617), wk =   0.0370370
        k(    9) = (   0.0000000   1.1547005   0.0000000), wk =   0.0185185
        k(   10) = (   0.0000000   1.1547005   0.3097206), wk =   0.0370370
        k(   11) = (   0.0000000   1.1547005   0.6194412), wk =   0.0370370
        k(   12) = (   0.0000000   1.1547005  -0.9291617), wk =   0.0185185
        k(   13) = (   0.0000000  -1.7320508   0.0000000), wk =   0.0185185
        k(   14) = (   0.0000000  -1.7320508   0.3097206), wk =   0.0370370
        k(   15) = (   0.0000000  -1.7320508   0.6194412), wk =   0.0370370
        k(   16) = (   0.0000000  -1.7320508  -0.9291617), wk =   0.0185185
        k(   17) = (   0.1666667   0.0962250   0.0000000), wk =   0.0185185
        k(   18) = (   0.1666667   0.0962250   0.3097206), wk =   0.0185185
        k(   19) = (   0.1666667   0.0962250   0.6194412), wk =   0.0185185
        k(   20) = (   0.1666667   0.0962250  -0.9291617), wk =   0.0185185
        k(   21) = (   0.1666667   0.6735753   0.0000000), wk =   0.0370370
        k(   22) = (   0.1666667   0.6735753   0.3097206), wk =   0.0370370
        k(   23) = (   0.1666667   0.6735753   0.6194412), wk =   0.0370370
        k(   24) = (   0.1666667   0.6735753  -0.9291617), wk =   0.0370370
        k(   25) = (   0.1666667   1.2509256   0.0000000), wk =   0.0370370
        k(   26) = (   0.1666667   1.2509256   0.3097206), wk =   0.0370370
        k(   27) = (   0.1666667   1.2509256   0.6194412), wk =   0.0370370
        k(   28) = (   0.1666667   1.2509256  -0.9291617), wk =   0.0370370
        k(   29) = (   0.1666667  -1.6358258   0.0000000), wk =   0.0370370
        k(   30) = (   0.1666667  -1.6358258   0.3097206), wk =   0.0370370
        k(   31) = (   0.1666667  -1.6358258   0.6194412), wk =   0.0370370
        k(   32) = (   0.1666667  -1.6358258  -0.9291617), wk =   0.0370370
        k(   33) = (   0.1666667  -0.4811252   0.0000000), wk =   0.0370370
        k(   34) = (   0.1666667  -0.4811252   0.3097206), wk =   0.0370370
        k(   35) = (   0.1666667  -0.4811252   0.6194412), wk =   0.0370370
        k(   36) = (   0.1666667  -0.4811252  -0.9291617), wk =   0.0370370
        k(   37) = (   0.3333333   0.1924501   0.0000000), wk =   0.0185185
        k(   38) = (   0.3333333   0.1924501   0.3097206), wk =   0.0185185
        k(   39) = (   0.3333333   0.1924501   0.6194412), wk =   0.0185185
        k(   40) = (   0.3333333   0.1924501  -0.9291617), wk =   0.0185185
        k(   41) = (   0.3333333   1.3471506   0.0000000), wk =   0.0370370
        k(   42) = (   0.3333333   1.3471506   0.3097206), wk =   0.0370370
        k(   43) = (   0.3333333   1.3471506   0.6194412), wk =   0.0370370
        k(   44) = (   0.3333333   1.3471506  -0.9291617), wk =   0.0370370
        k(   45) = (  -0.5000000  -0.2886751   0.0000000), wk =   0.0092593
        k(   46) = (  -0.5000000  -0.2886751   0.3097206), wk =   0.0185185
        k(   47) = (  -0.5000000  -0.2886751   0.6194412), wk =   0.0185185
        k(   48) = (  -0.5000000  -0.2886751  -0.9291617), wk =   0.0092593
        k(   49) = (  -0.5000000   0.8660254   0.0000000), wk =   0.0185185
        k(   50) = (  -0.5000000   0.8660254   0.3097206), wk =   0.0370370
        k(   51) = (  -0.5000000   0.8660254   0.6194412), wk =   0.0370370
        k(   52) = (  -0.5000000   0.8660254  -0.9291617), wk =   0.0185185
        k(   53) = (   0.5000000  -0.2886751  -0.3097206), wk =   0.0370370
        k(   54) = (   0.5000000  -0.2886751  -0.6194412), wk =   0.0370370
        k(   55) = (   0.1666667   0.0962250  -0.3097206), wk =   0.0185185
        k(   56) = (   0.1666667   0.0962250  -0.6194412), wk =   0.0185185
        k(   57) = (   0.6666667  -0.1924501  -0.3097206), wk =   0.0370370
        k(   58) = (   0.6666667  -0.1924501  -0.6194412), wk =   0.0370370
        k(   59) = (   1.1666667  -0.4811252  -0.3097206), wk =   0.0370370
        k(   60) = (   1.1666667  -0.4811252  -0.6194412), wk =   0.0370370
        k(   61) = (  -1.3333333   0.9622504  -0.3097206), wk =   0.0370370
        k(   62) = (  -1.3333333   0.9622504  -0.6194412), wk =   0.0370370
        k(   63) = (  -0.3333333   0.3849002  -0.3097206), wk =   0.0370370
        k(   64) = (  -0.3333333   0.3849002  -0.6194412), wk =   0.0370370
        k(   65) = (   0.3333333   0.1924501  -0.3097206), wk =   0.0185185
        k(   66) = (   0.3333333   0.1924501  -0.6194412), wk =   0.0185185
        k(   67) = (   1.3333333  -0.3849002  -0.3097206), wk =   0.0370370
        k(   68) = (   1.3333333  -0.3849002  -0.6194412), wk =   0.0370370

                       cryst. coord.
        k(    1) = (   0.0000000   0.0000000   0.0000000), wk =   0.0092593
        k(    2) = (   0.0000000   0.0000000   0.1666667), wk =   0.0185185
        k(    3) = (   0.0000000   0.0000000   0.3333333), wk =   0.0185185
        k(    4) = (   0.0000000   0.0000000  -0.5000000), wk =   0.0092593
        k(    5) = (   0.0000000   0.1666667   0.0000000), wk =   0.0370370
        k(    6) = (   0.0000000   0.1666667   0.1666667), wk =   0.0370370
        k(    7) = (   0.0000000   0.1666667   0.3333333), wk =   0.0370370
        k(    8) = (   0.0000000   0.1666667  -0.5000000), wk =   0.0370370
        k(    9) = (   0.0000000   0.3333333   0.0000000), wk =   0.0185185
        k(   10) = (   0.0000000   0.3333333   0.1666667), wk =   0.0370370
        k(   11) = (   0.0000000   0.3333333   0.3333333), wk =   0.0370370
        k(   12) = (   0.0000000   0.3333333  -0.5000000), wk =   0.0185185
        k(   13) = (   0.0000000  -0.5000000   0.0000000), wk =   0.0185185
        k(   14) = (   0.0000000  -0.5000000   0.1666667), wk =   0.0370370
        k(   15) = (   0.0000000  -0.5000000   0.3333333), wk =   0.0370370
        k(   16) = (   0.0000000  -0.5000000  -0.5000000), wk =   0.0185185
        k(   17) = (   0.1666667  -0.0000000   0.0000000), wk =   0.0185185
        k(   18) = (   0.1666667  -0.0000000   0.1666667), wk =   0.0185185
        k(   19) = (   0.1666667  -0.0000000   0.3333333), wk =   0.0185185
        k(   20) = (   0.1666667  -0.0000000  -0.5000000), wk =   0.0185185
        k(   21) = (   0.1666667   0.1666667   0.0000000), wk =   0.0370370
        k(   22) = (   0.1666667   0.1666667   0.1666667), wk =   0.0370370
        k(   23) = (   0.1666667   0.1666667   0.3333333), wk =   0.0370370
        k(   24) = (   0.1666667   0.1666667  -0.5000000), wk =   0.0370370
        k(   25) = (   0.1666667   0.3333333   0.0000000), wk =   0.0370370
        k(   26) = (   0.1666667   0.3333333   0.1666667), wk =   0.0370370
        k(   27) = (   0.1666667   0.3333333   0.3333333), wk =   0.0370370
        k(   28) = (   0.1666667   0.3333333  -0.5000000), wk =   0.0370370
        k(   29) = (   0.1666667  -0.5000000   0.0000000), wk =   0.0370370
        k(   30) = (   0.1666667  -0.5000000   0.1666667), wk =   0.0370370
        k(   31) = (   0.1666667  -0.5000000   0.3333333), wk =   0.0370370
        k(   32) = (   0.1666667  -0.5000000  -0.5000000), wk =   0.0370370
        k(   33) = (   0.1666667  -0.1666667   0.0000000), wk =   0.0370370
        k(   34) = (   0.1666667  -0.1666667   0.1666667), wk =   0.0370370
        k(   35) = (   0.1666667  -0.1666667   0.3333333), wk =   0.0370370
        k(   36) = (   0.1666667  -0.1666667  -0.5000000), wk =   0.0370370
        k(   37) = (   0.3333333  -0.0000000   0.0000000), wk =   0.0185185
        k(   38) = (   0.3333333  -0.0000000   0.1666667), wk =   0.0185185
        k(   39) = (   0.3333333  -0.0000000   0.3333333), wk =   0.0185185
        k(   40) = (   0.3333333  -0.0000000  -0.5000000), wk =   0.0185185
        k(   41) = (   0.3333333   0.3333333   0.0000000), wk =   0.0370370
        k(   42) = (   0.3333333   0.3333333   0.1666667), wk =   0.0370370
        k(   43) = (   0.3333333   0.3333333   0.3333333), wk =   0.0370370
        k(   44) = (   0.3333333   0.3333333  -0.5000000), wk =   0.0370370
        k(   45) = (  -0.5000000   0.0000000   0.0000000), wk =   0.0092593
        k(   46) = (  -0.5000000   0.0000000   0.1666667), wk =   0.0185185
        k(   47) = (  -0.5000000   0.0000000   0.3333333), wk =   0.0185185
        k(   48) = (  -0.5000000   0.0000000  -0.5000000), wk =   0.0092593
        k(   49) = (  -0.5000000   0.3333333   0.0000000), wk =   0.0185185
        k(   50) = (  -0.5000000   0.3333333   0.1666667), wk =   0.0370370
        k(   51) = (  -0.5000000   0.3333333   0.3333333), wk =   0.0370370
        k(   52) = (  -0.5000000   0.3333333  -0.5000000), wk =   0.0185185
        k(   53) = (   0.5000000  -0.1666667  -0.1666667), wk =   0.0370370
        k(   54) = (   0.5000000  -0.1666667  -0.3333333), wk =   0.0370370
        k(   55) = (   0.1666667   0.0000000  -0.1666667), wk =   0.0185185
        k(   56) = (   0.1666667   0.0000000  -0.3333333), wk =   0.0185185
        k(   57) = (   0.6666667  -0.1666667  -0.1666667), wk =   0.0370370
        k(   58) = (   0.6666667  -0.1666667  -0.3333333), wk =   0.0370370
        k(   59) = (   1.1666667  -0.3333333  -0.1666667), wk =   0.0370370
        k(   60) = (   1.1666667  -0.3333333  -0.3333333), wk =   0.0370370
        k(   61) = (  -1.3333333   0.5000000  -0.1666667), wk =   0.0370370
        k(   62) = (  -1.3333333   0.5000000  -0.3333333), wk =   0.0370370
        k(   63) = (  -0.3333333   0.1666667  -0.1666667), wk =   0.0370370
        k(   64) = (  -0.3333333   0.1666667  -0.3333333), wk =   0.0370370
        k(   65) = (   0.3333333   0.0000000  -0.1666667), wk =   0.0185185
        k(   66) = (   0.3333333   0.0000000  -0.3333333), wk =   0.0185185
        k(   67) = (   1.3333333  -0.3333333  -0.1666667), wk =   0.0370370
        k(   68) = (   1.3333333  -0.3333333  -0.3333333), wk =   0.0370370

     Check: negative core charge=   -0.000002

     Initial potential from superposition of free atoms

     starting charge     107.9776, renormalised to     108.0000
     Starting wfcs are   78 randomized atomic wfcs

     Self-consistent Calculation

     iteration #  1     ecut=    50.00 Ry     beta= 0.30
     Davidson diagonalization with overlap

     ethr =  1.00E-02,  avg # of iterations =  1.7

     total energy              =   -1084.34016561 Ry
     estimated scf accuracy    <       2.22258687 Ry

[...]

     c_bands:  1 eigenvalues not converged
     ethr =  2.43E-06,  avg # of iterations = 11.0

[...]

     total energy              =   -1084.86439783 Ry
     estimated scf accuracy    <       0.00000002 Ry

     iteration # 29     ecut=    50.00 Ry     beta= 0.30
     Davidson diagonalization with overlap

     ethr =  1.66E-11,  avg # of iterations =  6.1

     End of self-consistent calculation

          k = 0.0000 0.0000 0.0000 (  6645 PWs)   bands (ev):

   -11.7733 -11.4247 -11.4247 -11.2504 -11.1263 -11.1263   0.0193   0.0193
     0.1475   0.1478   0.1749   0.2623   0.2623   0.2957   0.2959   0.3095
     0.3095   0.5113   0.5113   0.6122   0.6138   0.6138   0.7621   0.7621
     0.9170   0.9170   0.9478   0.9479   1.0028   1.0028   1.0967   1.0967
     1.1191   1.1191   1.2895   1.2895   1.3730   1.8126   1.8126   2.4749
     2.4749   3.1776   3.1776   3.7818   3.7818   4.6208   4.6208   4.6414
     4.6420   4.7929   4.7929   5.2295   5.2789   5.2794

     occupation numbers
     1.0000   1.0000   1.0000   1.0000   1.0000   1.0000   1.0000   1.0000
     1.0000   1.0000   1.0000   1.0000   1.0000   1.0000   1.0000   1.0000
     1.0000   1.0000   1.0000   1.0000   1.0000   1.0000   1.0000   1.0000
     1.0000   1.0000   1.0000   1.0000   1.0000   1.0000   1.0000   1.0000
     1.0000   1.0000   1.0000   1.0000   1.0000   1.0000   1.0000   1.0000
     1.0000   1.0000   1.0000   1.0000   1.0000   1.0000   1.0000   1.0000
     1.0000   1.0000   1.0000   1.0000   1.0000   1.0000

[...]

          k =-0.5000-0.2887 0.0000 (  6642 PWs)   bands (ev):

[...]

          k =-0.3333 0.3849-0.6194 (  6634 PWs)   bands (ev):

[...]

          k = 1.3333-0.3849-0.6194 (  6634 PWs)   bands (ev):

   -11.3958 -11.2726 -11.2246 -11.1978 -11.1632 -11.1404   0.0038   0.0246
     0.1091   0.1309   0.1547   0.2444   0.3233   0.3732   0.3772   0.3905
     0.4688   0.4956   0.5318   0.5498   0.5742   0.5993   0.6628   0.6862
     0.9795   0.9959   1.0109   1.0186   1.0336   1.0588   1.0826   1.1154
     1.1423   1.2006   1.2041   1.2872   1.8491   1.9666   2.0730   2.2918
     2.3682   2.8756   2.9496   3.5174   3.6367   3.6721   3.7627   3.9348
     4.0213   4.2156   4.3433   4.4721   4.5040   4.6130

     occupation numbers
     1.0000   1.0000   1.0000   1.0000   1.0000   1.0000   1.0000   1.0000
     1.0000   1.0000   1.0000   1.0000   1.0000   1.0000   1.0000   1.0000
     1.0000   1.0000   1.0000   1.0000   1.0000   1.0000   1.0000   1.0000
     1.0000   1.0000   1.0000   1.0000   1.0000   1.0000   1.0000   1.0000
     1.0000   1.0000   1.0000   1.0000   1.0000   1.0000   1.0000   1.0000
     1.0000   1.0000   1.0000   1.0000   1.0000   1.0000   1.0000   1.0000
     1.0000   1.0000   1.0000   1.0000   1.0000   1.0000

     highest occupied level (ev):     5.2794

!    total energy              =   -1084.86439785 Ry
     estimated scf accuracy    <          4.4E-10 Ry

     The total energy is the sum of the following terms:
     one-electron contribution =    -503.45143290 Ry
     hartree contribution      =     369.20325022 Ry
     xc contribution           =    -327.96157134 Ry
     ewald contribution        =    -622.65464383 Ry

     convergence has been achieved in  29 iterations

     Forces acting on atoms (cartesian axes, Ry/au):

     atom    1 type  1   force =    -0.00000589   -0.00000340   -0.00009576
     atom    2 type  1   force =    -0.00000544   -0.00000314   -0.00009188
     atom    3 type  2   force =    -0.00000488   -0.00000282    0.00009302
     atom    4 type  2   force =     0.00000336    0.00000194    0.00009300
     atom    5 type  1   force =     0.00000733    0.00000423   -0.00008775
     atom    6 type  1   force =     0.00000382    0.00000221   -0.00009550
     atom    7 type  2   force =    -0.00000431   -0.00000249    0.00009308
     atom    8 type  2   force =     0.00000324    0.00000187    0.00009316
     atom    9 type  1   force =     0.00000612    0.00000353   -0.00009581
     atom   10 type  1   force =    -0.00000253   -0.00000146   -0.00009177
     atom   11 type  2   force =    -0.00000398   -0.00000230    0.00009281
     atom   12 type  2   force =     0.00000316    0.00000182    0.00009340
     The non-local contrib.  to forces
     atom    1 type  1   force =     0.00000091    0.00000053   -0.00455563
     atom    2 type  1   force =    -0.00000738   -0.00000426   -0.00455339
     atom    3 type  2   force =    -0.00020989   -0.00012118    0.00625078
     atom    4 type  2   force =     0.00021147    0.00012209    0.00625080
     atom    5 type  1   force =     0.00000779    0.00000450   -0.00455320
     atom    6 type  1   force =    -0.00000182   -0.00000105   -0.00455581
     atom    7 type  2   force =    -0.00021131   -0.00012200    0.00625064
     atom    8 type  2   force =     0.00020985    0.00012116    0.00625083
     atom    9 type  1   force =     0.00000671    0.00000387   -0.00455658
     atom   10 type  1   force =    -0.00000554   -0.00000320   -0.00455441
     atom   11 type  2   force =    -0.00020931   -0.00012084    0.00625017
     atom   12 type  2   force =     0.00020859    0.00012043    0.00625196
     The ionic contribution  to forces
     atom    1 type  1   force =     0.00000001    0.00000001    0.05798523
     atom    2 type  1   force =     0.00000001    0.00000000    0.05798523
     atom    3 type  2   force =     0.00000000    0.00000000   -0.05798523
     atom    4 type  2   force =     0.00000000    0.00000000   -0.05798523
     atom    5 type  1   force =    -0.00000001    0.00000000    0.05798522
     atom    6 type  1   force =     0.00000001   -0.00000000    0.05798522
     atom    7 type  2   force =    -0.00000001    0.00000000   -0.05798522
     atom    8 type  2   force =     0.00000001   -0.00000000   -0.05798522
     atom    9 type  1   force =    -0.00000001   -0.00000000    0.05798523
     atom   10 type  1   force =    -0.00000001   -0.00000001    0.05798523
     atom   11 type  2   force =    -0.00000000   -0.00000000   -0.05798523
     atom   12 type  2   force =    -0.00000000   -0.00000000   -0.05798523
     The local contribution  to forces
     atom    1 type  1   force =     0.00001500    0.00000866   -0.05387609
     atom    2 type  1   force =     0.00000266    0.00000148   -0.05388441
     atom    3 type  2   force =     0.00020979    0.00012112    0.05190862
     atom    4 type  2   force =    -0.00020205   -0.00011666    0.05190726
     atom    5 type  1   force =    -0.00000567   -0.00000317   -0.05388575
     atom    6 type  1   force =    -0.00001138   -0.00000667   -0.05387444
     atom    7 type  2   force =     0.00019916    0.00011501    0.05190704
     atom    8 type  2   force =    -0.00020449   -0.00011809    0.05190515
     atom    9 type  1   force =    -0.00000146   -0.00000079   -0.05387406
     atom   10 type  1   force =    -0.00000048   -0.00000028   -0.05388078
     atom   11 type  2   force =     0.00020487    0.00011829    0.05190649
     atom   12 type  2   force =    -0.00020403   -0.00011780    0.05190729
     The core correction contribution to forces
     atom    1 type  1   force =    -0.00000680   -0.00000387    0.00035329
     atom    2 type  1   force =     0.00000672    0.00000385    0.00035354
     atom    3 type  2   force =     0.00000240    0.00000138   -0.00007021
     atom    4 type  2   force =    -0.00000238   -0.00000138   -0.00007021
     atom    5 type  1   force =    -0.00000649   -0.00000375    0.00035347
     atom    6 type  1   force =     0.00000671    0.00000387    0.00035322
     atom    7 type  2   force =     0.00000239    0.00000138   -0.00007022
     atom    8 type  2   force =    -0.00000237   -0.00000138   -0.00007023
     atom    9 type  1   force =    -0.00000672   -0.00000385    0.00035330
     atom   10 type  1   force =     0.00000655    0.00000372    0.00035340
     atom   11 type  2   force =     0.00000236    0.00000136   -0.00007021
     atom   12 type  2   force =    -0.00000236   -0.00000136   -0.00007023
     The Hubbard contrib.    to forces
     atom    1 type  1   force =     0.00000000    0.00000000    0.00000000
     atom    2 type  1   force =     0.00000000    0.00000000    0.00000000
     atom    3 type  2   force =     0.00000000    0.00000000    0.00000000
     atom    4 type  2   force =     0.00000000    0.00000000    0.00000000
     atom    5 type  1   force =     0.00000000    0.00000000    0.00000000
     atom    6 type  1   force =     0.00000000    0.00000000    0.00000000
     atom    7 type  2   force =     0.00000000    0.00000000    0.00000000
     atom    8 type  2   force =     0.00000000    0.00000000    0.00000000
     atom    9 type  1   force =     0.00000000    0.00000000    0.00000000
     atom   10 type  1   force =     0.00000000    0.00000000    0.00000000
     atom   11 type  2   force =     0.00000000    0.00000000    0.00000000
     atom   12 type  2   force =     0.00000000    0.00000000    0.00000000
     The SCF correction term to forces
     atom    1 type  1   force =    -0.00001451   -0.00000838    0.00000017
     atom    2 type  1   force =    -0.00000689   -0.00000398    0.00000988
     atom    3 type  2   force =    -0.00000666   -0.00000384   -0.00000821
     atom    4 type  2   force =    -0.00000316   -0.00000182   -0.00000688
     atom    5 type  1   force =     0.00001217    0.00000703    0.00001523
     atom    6 type  1   force =     0.00001086    0.00000627   -0.00000096
     atom    7 type  2   force =     0.00000595    0.00000344   -0.00000643
     atom    8 type  2   force =     0.00000078    0.00000045   -0.00000464
     atom    9 type  1   force =     0.00000809    0.00000467   -0.00000097
     atom   10 type  1   force =    -0.00000251   -0.00000145    0.00000752
     atom   11 type  2   force =    -0.00000138   -0.00000079   -0.00000568
     atom   12 type  2   force =     0.00000149    0.00000086   -0.00000766

     Total force =     0.000323     Total SCF correction =     0.000040
     SCF correction compared to forces is large: reduce conv_thr to get better values

     General routines

     Parallel routines

   This run was terminated on:   0: 0:29  28Aug2025

   JOB DONE.