     Program PWSCF v.7.0 starts on 27Aug2025 at 15:56:27

     K-points division:     npool     =      17

     Reading input from /home/jvc/QEspresso7.2/ZnO_database/scripts/cell311.in/ZnO-3.14-1.58-311.in
Warning: card &CELL ignored
Warning: card / ignored
Warning: card &FCP ignored
Warning: card / ignored
Warning: card &RISM ignored
Warning: card / ignored

     Current dimensions of program PWSCF are:
     Max number of different atomic species (ntypx) = 10
     Max number of k-points (npk) =  40000
     Max angular momentum in pseudopotentials (lmaxx) =  4
     file Zn.upf: wavefunction(s)  3D renormalized
     Found identity + (  0.3333  0.0000  0.0000) symmetry
     This is a supercell, fractional translations are disabled
     Message from routine setup:
     using ibrav=0 with symmetry is DISCOURAGED, use correct ibrav instead

     Subspace diagonalization in iterative solution of the eigenvalue problem:
     a serial algorithm will be used

     Using Slab Decomposition

     bravais-lattice index     =            0
     lattice parameter (alat)  =      17.7951  a.u.
     unit-cell volume          =     857.8580 (a.u.)^3
     number of atoms/cell      =           12
     number of atomic types    =            2
     number of electrons       =       108.00
     number of Kohn-Sham states=           54
     kinetic-energy cutoff     =      50.0000  Ry
     charge density cutoff     =     400.0000  Ry
     scf convergence threshold =      1.0E-08
     mixing beta               =       0.3000
     number of iterations used =            8  plain     mixing
     Exchange-correlation= PBE
                           (   1   4   3   4   0   0   0)

     celldm(1)=  17.795099  celldm(2)=   0.000000  celldm(3)=   0.000000
     celldm(4)=   0.000000  celldm(5)=   0.000000  celldm(6)=   0.000000

     crystal axes: (cart. coord. in units of alat)
               a(1) = (   1.000000   0.000000   0.000000 )
               a(2) = (  -0.166667   0.288675   0.000000 )
               a(3) = (   0.000000   0.000000   0.527357 )

     reciprocal axes: (cart. coord. in units 2 pi/alat)
               b(1) = (  1.000000  0.577350 -0.000000 )
               b(2) = (  0.000000  3.464102  0.000000 )
               b(3) = (  0.000000 -0.000000  1.896248 )

     PseudoPot. # 1 for Zn read from file:
     /home/jvc/QEspresso7.2/ZnO_database/pseudos/Zn.upf
     MD5 check sum: 7f56cabf9682ed8c977c2f7d0c5985c5
     Pseudo is Ultrasoft + core correction, Zval = 12.0
     Generated using &quot;atomic&quot; code by A. Dal Corso  v.6.2.2
     Using radial grid of 1201 points,  6 beta functions with:
                l(1) =   0
                l(2) =   0
                l(3) =   1
                l(4) =   1
                l(5) =   2
                l(6) =   2
     Q(r) pseudized with 0 coefficients

     PseudoPot. # 2 for O  read from file:
     /home/jvc/QEspresso7.2/ZnO_database/pseudos/O.upf
     MD5 check sum: 91400c9766925bcf19f520983a725ff0
     Pseudo is Ultrasoft + core correction, Zval =  6.0
     Generated using &quot;atomic&quot; code by A. Dal Corso  v.6.3MaX
     Using radial grid of 1095 points,  4 beta functions with:
                l(1) =   0
                l(2) =   0
                l(3) =   1
                l(4) =   1
     Q(r) pseudized with 0 coefficients

     atomic species   valence    mass     pseudopotential
        Zn            12.00    65.38000     Zn( 1.00)
        O              6.00    15.99900     O ( 1.00)

      2 Sym. Ops. (no inversion) found

                                    s                        frac. trans.

      isym =  1     identity

 cryst.   s( 1) = (     1          0          0      )
                  (     0          1          0      )
                  (     0          0          1      )

 cart.    s( 1) = (  1.0000000  0.0000000  0.0000000 )
                  (  0.0000000  1.0000000  0.0000000 )
                  (  0.0000000  0.0000000  1.0000000 )

      isym =  2     inv. 180 deg rotation - cryst. axis [0,1,0]

 cryst.   s( 2) = (     1          3          0      )
                  (     0         -1          0      )
                  (     0          0          1      )

 cart.    s( 2) = (  0.5000000  0.8660254  0.0000000 )
                  (  0.8660254 -0.5000000  0.0000000 )
                  (  0.0000000  0.0000000  1.0000000 )

   Cartesian axes

     site n.     atom                  positions (alat units)
         1           Zn  tau(   1) = (   0.1666667   0.0962250   0.2640127  )
         2           Zn  tau(   2) = (  -0.0000000   0.1924501   0.0003341  )
         3           O   tau(   3) = (   0.1666667   0.0962250   0.4639036  )
         4           O   tau(   4) = (  -0.0000000   0.1924501   0.2002250  )
         5           Zn  tau(   5) = (   0.5000000   0.0962250   0.2640127  )
         6           Zn  tau(   6) = (   0.3333333   0.1924501   0.0003341  )
         7           O   tau(   7) = (   0.5000000   0.0962250   0.4639036  )
         8           O   tau(   8) = (   0.3333333   0.1924501   0.2002250  )
         9           Zn  tau(   9) = (   0.8333333   0.0962250   0.2640127  )
        10           Zn  tau(  10) = (   0.6666667   0.1924501   0.0003341  )
        11           O   tau(  11) = (   0.8333333   0.0962250   0.4639036  )
        12           O   tau(  12) = (   0.6666667   0.1924501   0.2002250  )

   Crystallographic axes

     site n.     atom                  positions (cryst. coord.)
         1           Zn  tau(   1) = (  0.2222222  0.3333333  0.5006336  )
         2           Zn  tau(   2) = (  0.1111111  0.6666667  0.0006336  )
         3           O   tau(   3) = (  0.2222222  0.3333333  0.8796764  )
         4           O   tau(   4) = (  0.1111111  0.6666667  0.3796764  )
         5           Zn  tau(   5) = (  0.5555556  0.3333333  0.5006336  )
         6           Zn  tau(   6) = (  0.4444444  0.6666667  0.0006336  )
         7           O   tau(   7) = (  0.5555556  0.3333333  0.8796764  )
         8           O   tau(   8) = (  0.4444444  0.6666667  0.3796764  )
         9           Zn  tau(   9) = (  0.8888889  0.3333333  0.5006336  )
        10           Zn  tau(  10) = (  0.7777778  0.6666667  0.0006336  )
        11           O   tau(  11) = (  0.8888889  0.3333333  0.8796764  )
        12           O   tau(  12) = (  0.7777778  0.6666667  0.3796764  )

     number of k points=    68
                       cart. coord. in units 2pi/alat
        k(    1) = (   0.0000000   0.0000000   0.0000000), wk =   0.0092593
        k(    2) = (   0.0000000   0.0000000   0.3160414), wk =   0.0185185
        k(    3) = (   0.0000000   0.0000000   0.6320828), wk =   0.0185185
        k(    4) = (   0.0000000   0.0000000  -0.9481242), wk =   0.0092593
        k(    5) = (   0.0000000   0.5773503   0.0000000), wk =   0.0370370
        k(    6) = (   0.0000000   0.5773503   0.3160414), wk =   0.0370370
        k(    7) = (   0.0000000   0.5773503   0.6320828), wk =   0.0370370
        k(    8) = (   0.0000000   0.5773503  -0.9481242), wk =   0.0370370
        k(    9) = (   0.0000000   1.1547005   0.0000000), wk =   0.0185185
        k(   10) = (   0.0000000   1.1547005   0.3160414), wk =   0.0370370
        k(   11) = (   0.0000000   1.1547005   0.6320828), wk =   0.0370370
        k(   12) = (   0.0000000   1.1547005  -0.9481242), wk =   0.0185185
        k(   13) = (   0.0000000  -1.7320508   0.0000000), wk =   0.0185185
        k(   14) = (   0.0000000  -1.7320508   0.3160414), wk =   0.0370370
        k(   15) = (   0.0000000  -1.7320508   0.6320828), wk =   0.0370370
        k(   16) = (   0.0000000  -1.7320508  -0.9481242), wk =   0.0185185
        k(   17) = (   0.1666667   0.0962250   0.0000000), wk =   0.0185185
        k(   18) = (   0.1666667   0.0962250   0.3160414), wk =   0.0185185
        k(   19) = (   0.1666667   0.0962250   0.6320828), wk =   0.0185185
        k(   20) = (   0.1666667   0.0962250  -0.9481242), wk =   0.0185185
        k(   21) = (   0.1666667   0.6735753   0.0000000), wk =   0.0370370
        k(   22) = (   0.1666667   0.6735753   0.3160414), wk =   0.0370370
        k(   23) = (   0.1666667   0.6735753   0.6320828), wk =   0.0370370
        k(   24) = (   0.1666667   0.6735753  -0.9481242), wk =   0.0370370
        k(   25) = (   0.1666667   1.2509256   0.0000000), wk =   0.0370370
        k(   26) = (   0.1666667   1.2509256   0.3160414), wk =   0.0370370
        k(   27) = (   0.1666667   1.2509256   0.6320828), wk =   0.0370370
        k(   28) = (   0.1666667   1.2509256  -0.9481242), wk =   0.0370370
        k(   29) = (   0.1666667  -1.6358258   0.0000000), wk =   0.0370370
        k(   30) = (   0.1666667  -1.6358258   0.3160414), wk =   0.0370370
        k(   31) = (   0.1666667  -1.6358258   0.6320828), wk =   0.0370370
        k(   32) = (   0.1666667  -1.6358258  -0.9481242), wk =   0.0370370
        k(   33) = (   0.1666667  -0.4811252   0.0000000), wk =   0.0370370
        k(   34) = (   0.1666667  -0.4811252   0.3160414), wk =   0.0370370
        k(   35) = (   0.1666667  -0.4811252   0.6320828), wk =   0.0370370
        k(   36) = (   0.1666667  -0.4811252  -0.9481242), wk =   0.0370370
        k(   37) = (   0.3333333   0.1924501   0.0000000), wk =   0.0185185
        k(   38) = (   0.3333333   0.1924501   0.3160414), wk =   0.0185185
        k(   39) = (   0.3333333   0.1924501   0.6320828), wk =   0.0185185
        k(   40) = (   0.3333333   0.1924501  -0.9481242), wk =   0.0185185
        k(   41) = (   0.3333333   1.3471506   0.0000000), wk =   0.0370370
        k(   42) = (   0.3333333   1.3471506   0.3160414), wk =   0.0370370
        k(   43) = (   0.3333333   1.3471506   0.6320828), wk =   0.0370370
        k(   44) = (   0.3333333   1.3471506  -0.9481242), wk =   0.0370370
        k(   45) = (  -0.5000000  -0.2886751   0.0000000), wk =   0.0092593
        k(   46) = (  -0.5000000  -0.2886751   0.3160414), wk =   0.0185185
        k(   47) = (  -0.5000000  -0.2886751   0.6320828), wk =   0.0185185
        k(   48) = (  -0.5000000  -0.2886751  -0.9481242), wk =   0.0092593
        k(   49) = (  -0.5000000   0.8660254   0.0000000), wk =   0.0185185
        k(   50) = (  -0.5000000   0.8660254   0.3160414), wk =   0.0370370
        k(   51) = (  -0.5000000   0.8660254   0.6320828), wk =   0.0370370
        k(   52) = (  -0.5000000   0.8660254  -0.9481242), wk =   0.0185185
        k(   53) = (   0.5000000  -0.2886751  -0.3160414), wk =   0.0370370
        k(   54) = (   0.5000000  -0.2886751  -0.6320828), wk =   0.0370370
        k(   55) = (   0.1666667   0.0962250  -0.3160414), wk =   0.0185185
        k(   56) = (   0.1666667   0.0962250  -0.6320828), wk =   0.0185185
        k(   57) = (   0.6666667  -0.1924501  -0.3160414), wk =   0.0370370
        k(   58) = (   0.6666667  -0.1924501  -0.6320828), wk =   0.0370370
        k(   59) = (   1.1666667  -0.4811252  -0.3160414), wk =   0.0370370
        k(   60) = (   1.1666667  -0.4811252  -0.6320828), wk =   0.0370370
        k(   61) = (  -1.3333333   0.9622504  -0.3160414), wk =   0.0370370
        k(   62) = (  -1.3333333   0.9622504  -0.6320828), wk =   0.0370370
        k(   63) = (  -0.3333333   0.3849002  -0.3160414), wk =   0.0370370
        k(   64) = (  -0.3333333   0.3849002  -0.6320828), wk =   0.0370370
        k(   65) = (   0.3333333   0.1924501  -0.3160414), wk =   0.0185185
        k(   66) = (   0.3333333   0.1924501  -0.6320828), wk =   0.0185185
        k(   67) = (   1.3333333  -0.3849002  -0.3160414), wk =   0.0370370
        k(   68) = (   1.3333333  -0.3849002  -0.6320828), wk =   0.0370370

                       cryst. coord.
        k(    1) = (   0.0000000   0.0000000   0.0000000), wk =   0.0092593
        k(    2) = (   0.0000000   0.0000000   0.1666667), wk =   0.0185185
        k(    3) = (   0.0000000   0.0000000   0.3333333), wk =   0.0185185
        k(    4) = (   0.0000000   0.0000000  -0.5000000), wk =   0.0092593
        k(    5) = (   0.0000000   0.1666667   0.0000000), wk =   0.0370370
        k(    6) = (   0.0000000   0.1666667   0.1666667), wk =   0.0370370
        k(    7) = (   0.0000000   0.1666667   0.3333333), wk =   0.0370370
        k(    8) = (   0.0000000   0.1666667  -0.5000000), wk =   0.0370370
        k(    9) = (   0.0000000   0.3333333   0.0000000), wk =   0.0185185
        k(   10) = (   0.0000000   0.3333333   0.1666667), wk =   0.0370370
        k(   11) = (   0.0000000   0.3333333   0.3333333), wk =   0.0370370
        k(   12) = (   0.0000000   0.3333333  -0.5000000), wk =   0.0185185
        k(   13) = (   0.0000000  -0.5000000   0.0000000), wk =   0.0185185
        k(   14) = (   0.0000000  -0.5000000   0.1666667), wk =   0.0370370
        k(   15) = (   0.0000000  -0.5000000   0.3333333), wk =   0.0370370
        k(   16) = (   0.0000000  -0.5000000  -0.5000000), wk =   0.0185185
        k(   17) = (   0.1666667   0.0000000   0.0000000), wk =   0.0185185
        k(   18) = (   0.1666667   0.0000000   0.1666667), wk =   0.0185185
        k(   19) = (   0.1666667   0.0000000   0.3333333), wk =   0.0185185
        k(   20) = (   0.1666667   0.0000000  -0.5000000), wk =   0.0185185
        k(   21) = (   0.1666667   0.1666667   0.0000000), wk =   0.0370370
        k(   22) = (   0.1666667   0.1666667   0.1666667), wk =   0.0370370
        k(   23) = (   0.1666667   0.1666667   0.3333333), wk =   0.0370370
        k(   24) = (   0.1666667   0.1666667  -0.5000000), wk =   0.0370370
        k(   25) = (   0.1666667   0.3333333   0.0000000), wk =   0.0370370
        k(   26) = (   0.1666667   0.3333333   0.1666667), wk =   0.0370370
        k(   27) = (   0.1666667   0.3333333   0.3333333), wk =   0.0370370
        k(   28) = (   0.1666667   0.3333333  -0.5000000), wk =   0.0370370
        k(   29) = (   0.1666667  -0.5000000   0.0000000), wk =   0.0370370
        k(   30) = (   0.1666667  -0.5000000   0.1666667), wk =   0.0370370
        k(   31) = (   0.1666667  -0.5000000   0.3333333), wk =   0.0370370
        k(   32) = (   0.1666667  -0.5000000  -0.5000000), wk =   0.0370370
        k(   33) = (   0.1666667  -0.1666667   0.0000000), wk =   0.0370370
        k(   34) = (   0.1666667  -0.1666667   0.1666667), wk =   0.0370370
        k(   35) = (   0.1666667  -0.1666667   0.3333333), wk =   0.0370370
        k(   36) = (   0.1666667  -0.1666667  -0.5000000), wk =   0.0370370
        k(   37) = (   0.3333333   0.0000000   0.0000000), wk =   0.0185185
        k(   38) = (   0.3333333   0.0000000   0.1666667), wk =   0.0185185
        k(   39) = (   0.3333333   0.0000000   0.3333333), wk =   0.0185185
        k(   40) = (   0.3333333   0.0000000  -0.5000000), wk =   0.0185185
        k(   41) = (   0.3333333   0.3333333   0.0000000), wk =   0.0370370
        k(   42) = (   0.3333333   0.3333333   0.1666667), wk =   0.0370370
        k(   43) = (   0.3333333   0.3333333   0.3333333), wk =   0.0370370
        k(   44) = (   0.3333333   0.3333333  -0.5000000), wk =   0.0370370
        k(   45) = (  -0.5000000   0.0000000   0.0000000), wk =   0.0092593
        k(   46) = (  -0.5000000   0.0000000   0.1666667), wk =   0.0185185
        k(   47) = (  -0.5000000   0.0000000   0.3333333), wk =   0.0185185
        k(   48) = (  -0.5000000   0.0000000  -0.5000000), wk =   0.0092593
        k(   49) = (  -0.5000000   0.3333333   0.0000000), wk =   0.0185185
        k(   50) = (  -0.5000000   0.3333333   0.1666667), wk =   0.0370370
        k(   51) = (  -0.5000000   0.3333333   0.3333333), wk =   0.0370370
        k(   52) = (  -0.5000000   0.3333333  -0.5000000), wk =   0.0185185
        k(   53) = (   0.5000000  -0.1666667  -0.1666667), wk =   0.0370370
        k(   54) = (   0.5000000  -0.1666667  -0.3333333), wk =   0.0370370
        k(   55) = (   0.1666667   0.0000000  -0.1666667), wk =   0.0185185
        k(   56) = (   0.1666667   0.0000000  -0.3333333), wk =   0.0185185
        k(   57) = (   0.6666667  -0.1666667  -0.1666667), wk =   0.0370370
        k(   58) = (   0.6666667  -0.1666667  -0.3333333), wk =   0.0370370
        k(   59) = (   1.1666667  -0.3333333  -0.1666667), wk =   0.0370370
        k(   60) = (   1.1666667  -0.3333333  -0.3333333), wk =   0.0370370
        k(   61) = (  -1.3333333   0.5000000  -0.1666667), wk =   0.0370370
        k(   62) = (  -1.3333333   0.5000000  -0.3333333), wk =   0.0370370
        k(   63) = (  -0.3333333   0.1666667  -0.1666667), wk =   0.0370370
        k(   64) = (  -0.3333333   0.1666667  -0.3333333), wk =   0.0370370
        k(   65) = (   0.3333333   0.0000000  -0.1666667), wk =   0.0185185
        k(   66) = (   0.3333333   0.0000000  -0.3333333), wk =   0.0185185
        k(   67) = (   1.3333333  -0.3333333  -0.1666667), wk =   0.0370370
        k(   68) = (   1.3333333  -0.3333333  -0.3333333), wk =   0.0370370

     Check: negative core charge=   -0.000002

     Initial potential from superposition of free atoms

     starting charge     107.9776, renormalised to     108.0000
     Starting wfcs are   78 randomized atomic wfcs

     Self-consistent Calculation

     iteration #  1     ecut=    50.00 Ry     beta= 0.30
     Davidson diagonalization with overlap

     ethr =  1.00E-02,  avg # of iterations =  2.0

     total energy              =   -1084.36577456 Ry
     estimated scf accuracy    <       2.01792741 Ry

[...]

     total energy              =   -1084.79296881 Ry
     estimated scf accuracy    <       0.00000034 Ry

     iteration # 26     ecut=    50.00 Ry     beta= 0.30
     Davidson diagonalization with overlap

     ethr =  3.18E-11,  avg # of iterations =  8.4

     End of self-consistent calculation

          k = 0.0000 0.0000 0.0000 (  5121 PWs)   bands (ev):

    -9.9649  -9.3728  -9.3728  -9.0130  -8.8241  -8.8240   2.3427   2.3427
     2.5729   2.7748   2.7748   2.8151   2.8153   2.8661   3.0607   3.0609
     3.0616   3.0616   3.2058   3.2058   3.5568   3.5568   3.5586   3.5586
     4.2265   4.2265   4.3633   4.3634   4.4628   4.4628   4.6552   4.6553
     4.6927   4.6927   4.7012   4.7012   4.9632   5.1502   5.1502   5.7103
     5.7103   6.7661   6.7661   6.9037   6.9037   8.1491   8.1493   8.2023
     8.2023   8.4420   8.4420   9.0590   9.1386   9.1389

     occupation numbers
     1.0000   1.0000   1.0000   1.0000   1.0000   1.0000   1.0000   1.0000
     1.0000   1.0000   1.0000   1.0000   1.0000   1.0000   1.0000   1.0000
     1.0000   1.0000   1.0000   1.0000   1.0000   1.0000   1.0000   1.0000
     1.0000   1.0000   1.0000   1.0000   1.0000   1.0000   1.0000   1.0000
     1.0000   1.0000   1.0000   1.0000   1.0000   1.0000   1.0000   1.0000
     1.0000   1.0000   1.0000   1.0000   1.0000   1.0000   1.0000   1.0000
     1.0000   1.0000   1.0000   1.0000   1.0000   1.0000

[...]

          k =-0.5000-0.2887 0.0000 (  5136 PWs)   bands (ev):

[...]

          k =-0.3333 0.3849-0.6321 (  5126 PWs)   bands (ev):

[...]

          k = 1.3333-0.3849-0.6321 (  5119 PWs)   bands (ev):

    -9.3131  -9.0983  -8.9976  -8.9671  -8.8965  -8.8613   2.2506   2.2843
     2.3562   2.3752   2.4748   2.5350   3.0039   3.0420   3.0908   3.1312
     3.1894   3.2272   3.2419   3.3427   3.4188   3.5088   3.5809   3.6131
     4.4139   4.4209   4.4590   4.4985   4.5136   4.5713   4.6284   4.6742
     4.7026   4.7913   4.7928   4.9633   5.1530   5.3590   5.4899   5.7769
     5.9348   5.9949   6.5068   6.7339   6.9167   6.9310   7.0036   7.2988
     7.3246   7.6631   7.8222   8.0180   8.0620   8.2247

     occupation numbers
     1.0000   1.0000   1.0000   1.0000   1.0000   1.0000   1.0000   1.0000
     1.0000   1.0000   1.0000   1.0000   1.0000   1.0000   1.0000   1.0000
     1.0000   1.0000   1.0000   1.0000   1.0000   1.0000   1.0000   1.0000
     1.0000   1.0000   1.0000   1.0000   1.0000   1.0000   1.0000   1.0000
     1.0000   1.0000   1.0000   1.0000   1.0000   1.0000   1.0000   1.0000
     1.0000   1.0000   1.0000   1.0000   1.0000   1.0000   1.0000   1.0000
     1.0000   1.0000   1.0000   1.0000   1.0000   1.0000

     highest occupied level (ev):     9.1389

!    total energy              =   -1084.79296886 Ry
     estimated scf accuracy    <          1.9E-09 Ry

     The total energy is the sum of the following terms:
     one-electron contribution =    -413.82129974 Ry
     hartree contribution      =     337.55369541 Ry
     xc contribution           =    -329.59223864 Ry
     ewald contribution        =    -678.93312589 Ry

     convergence has been achieved in  26 iterations

     Forces acting on atoms (cartesian axes, Ry/au):

     atom    1 type  1   force =     0.00000894    0.00000516   -0.01315849
     atom    2 type  1   force =    -0.00001401   -0.00000809   -0.01314758
     atom    3 type  2   force =    -0.00000083   -0.00000048    0.01315152
     atom    4 type  2   force =     0.00000128    0.00000074    0.01315274
     atom    5 type  1   force =     0.00001788    0.00001032   -0.01316390
     atom    6 type  1   force =     0.00001085    0.00000626   -0.01313966
     atom    7 type  2   force =    -0.00000079   -0.00000045    0.01315196
     atom    8 type  2   force =     0.00000135    0.00000078    0.01315302
     atom    9 type  1   force =    -0.00001257   -0.00000726   -0.01316307
     atom   10 type  1   force =    -0.00001377   -0.00000795   -0.01313997
     atom   11 type  2   force =     0.00000005    0.00000003    0.01315115
     atom   12 type  2   force =     0.00000161    0.00000093    0.01315228
     The non-local contrib.  to forces
     atom    1 type  1   force =    -0.00001923   -0.00001110   -0.06768951
     atom    2 type  1   force =     0.00001864    0.00001076   -0.06768559
     atom    3 type  2   force =    -0.00017685   -0.00010210   -0.04161607
     atom    4 type  2   force =     0.00017542    0.00010128   -0.04162191
     atom    5 type  1   force =    -0.00001493   -0.00000862   -0.06769498
     atom    6 type  1   force =     0.00002850    0.00001645   -0.06768296
     atom    7 type  2   force =    -0.00017737   -0.00010241   -0.04161942
     atom    8 type  2   force =     0.00016950    0.00009786   -0.04161790
     atom    9 type  1   force =    -0.00002872   -0.00001658   -0.06769273
     atom   10 type  1   force =     0.00001528    0.00000882   -0.06768453
     atom   11 type  2   force =    -0.00016719   -0.00009653   -0.04161876
     atom   12 type  2   force =     0.00017248    0.00009958   -0.04161794
     The ionic contribution  to forces
     atom    1 type  1   force =     0.00000001    0.00000001   -0.38870528
     atom    2 type  1   force =     0.00000001    0.00000000   -0.38870528
     atom    3 type  2   force =     0.00000000    0.00000000    0.38870528
     atom    4 type  2   force =     0.00000001    0.00000000    0.38870528
     atom    5 type  1   force =    -0.00000001    0.00000000   -0.38870529
     atom    6 type  1   force =     0.00000001   -0.00000000   -0.38870529
     atom    7 type  2   force =    -0.00000001    0.00000000    0.38870529
     atom    8 type  2   force =     0.00000001   -0.00000000    0.38870529
     atom    9 type  1   force =    -0.00000001   -0.00000000   -0.38870528
     atom   10 type  1   force =    -0.00000001   -0.00000001   -0.38870528
     atom   11 type  2   force =    -0.00000001   -0.00000000    0.38870528
     atom   12 type  2   force =    -0.00000000   -0.00000000    0.38870528
     The local contribution  to forces
     atom    1 type  1   force =     0.00003142    0.00001814    0.43736160
     atom    2 type  1   force =    -0.00002940   -0.00001702    0.43734201
     atom    3 type  2   force =     0.00017007    0.00009819   -0.33419498
     atom    4 type  2   force =    -0.00016917   -0.00009768   -0.33419471
     atom    5 type  1   force =     0.00002302    0.00001338    0.43737162
     atom    6 type  1   force =    -0.00005987   -0.00003466    0.43733278
     atom    7 type  2   force =     0.00016347    0.00009441   -0.33420935
     atom    8 type  2   force =    -0.00017515   -0.00010114   -0.33419281
     atom    9 type  1   force =     0.00006180    0.00003573    0.43736784
     atom   10 type  1   force =    -0.00002422   -0.00001398    0.43733397
     atom   11 type  2   force =     0.00017518    0.00010115   -0.33420099
     atom   12 type  2   force =    -0.00015872   -0.00009164   -0.33419846
     The core correction contribution to forces
     atom    1 type  1   force =    -0.00000408   -0.00000236    0.00589069
     atom    2 type  1   force =     0.00000421    0.00000242    0.00589135
     atom    3 type  2   force =     0.00000202    0.00000117    0.00026282
     atom    4 type  2   force =    -0.00000199   -0.00000115    0.00026291
     atom    5 type  1   force =    -0.00000430   -0.00000247    0.00589081
     atom    6 type  1   force =     0.00000447    0.00000257    0.00589140
     atom    7 type  2   force =     0.00000200    0.00000116    0.00026282
     atom    8 type  2   force =    -0.00000193   -0.00000112    0.00026286
     atom    9 type  1   force =    -0.00000448   -0.00000258    0.00589078
     atom   10 type  1   force =     0.00000428    0.00000247    0.00589152
     atom   11 type  2   force =     0.00000190    0.00000110    0.00026284
     atom   12 type  2   force =    -0.00000193   -0.00000111    0.00026283
     The Hubbard contrib.    to forces
     atom    1 type  1   force =     0.00000000    0.00000000    0.00000000
     atom    2 type  1   force =     0.00000000    0.00000000    0.00000000
     atom    3 type  2   force =     0.00000000    0.00000000    0.00000000
     atom    4 type  2   force =     0.00000000    0.00000000    0.00000000
     atom    5 type  1   force =     0.00000000    0.00000000    0.00000000
     atom    6 type  1   force =     0.00000000    0.00000000    0.00000000
     atom    7 type  2   force =     0.00000000    0.00000000    0.00000000
     atom    8 type  2   force =     0.00000000    0.00000000    0.00000000
     atom    9 type  1   force =     0.00000000    0.00000000    0.00000000
     atom   10 type  1   force =     0.00000000    0.00000000    0.00000000
     atom   11 type  2   force =     0.00000000    0.00000000    0.00000000
     atom   12 type  2   force =     0.00000000    0.00000000    0.00000000
     The SCF correction term to forces
     atom    1 type  1   force =     0.00000027    0.00000016   -0.00001386
     atom    2 type  1   force =    -0.00000799   -0.00000461    0.00001207
     atom    3 type  2   force =     0.00000337    0.00000195   -0.00000341
     atom    4 type  2   force =    -0.00000353   -0.00000204    0.00000330
     atom    5 type  1   force =     0.00001350    0.00000779   -0.00002393
     atom    6 type  1   force =     0.00003724    0.00002150    0.00002654
     atom    7 type  2   force =     0.00001055    0.00000609    0.00001476
     atom    8 type  2   force =     0.00000839    0.00000484   -0.00000228
     atom    9 type  1   force =    -0.00004173   -0.00002409   -0.00002154
     atom   10 type  1   force =    -0.00000965   -0.00000557    0.00002649
     atom   11 type  2   force =    -0.00001038   -0.00000599    0.00000491
     atom   12 type  2   force =    -0.00001077   -0.00000622    0.00000270

     Total force =     0.045560     Total SCF correction =     0.000091

     General routines

     Parallel routines

   This run was terminated on:  16: 4: 1  27Aug2025

   JOB DONE.