     Program PWSCF v.7.0 starts on 27Aug2025 at 23:31: 0

     K-points division:     npool     =      17

     Reading input from /home/jvc/QEspresso7.2/ZnO_database/scripts/cell311.in/ZnO-3.40-1.55-311.in
Warning: card &CELL ignored
Warning: card / ignored
Warning: card &FCP ignored
Warning: card / ignored
Warning: card &RISM ignored
Warning: card / ignored

     Current dimensions of program PWSCF are:
     Max number of different atomic species (ntypx) = 10
     Max number of k-points (npk) =  40000
     Max angular momentum in pseudopotentials (lmaxx) =  4
     file Zn.upf: wavefunction(s)  3D renormalized
     Found identity + (  0.3333  0.0000  0.0000) symmetry
     This is a supercell, fractional translations are disabled
     Message from routine setup:
     using ibrav=0 with symmetry is DISCOURAGED, use correct ibrav instead

     Subspace diagonalization in iterative solution of the eigenvalue problem:
     a serial algorithm will be used

     Using Slab Decomposition

     bravais-lattice index     =            0
     lattice parameter (alat)  =      19.2780  a.u.
     unit-cell volume          =    1068.4320 (a.u.)^3
     number of atoms/cell      =           12
     number of atomic types    =            2
     number of electrons       =       108.00
     number of Kohn-Sham states=           54
     kinetic-energy cutoff     =      50.0000  Ry
     charge density cutoff     =     400.0000  Ry
     scf convergence threshold =      1.0E-08
     mixing beta               =       0.3000
     number of iterations used =            8  plain     mixing
     Exchange-correlation= PBE
                           (   1   4   3   4   0   0   0)

     celldm(1)=  19.278024  celldm(2)=   0.000000  celldm(3)=   0.000000
     celldm(4)=   0.000000  celldm(5)=   0.000000  celldm(6)=   0.000000

     crystal axes: (cart. coord. in units of alat)
               a(1) = (   1.000000   0.000000   0.000000 )
               a(2) = (  -0.166667   0.288675   0.000000 )
               a(3) = (   0.000000   0.000000   0.516595 )

     reciprocal axes: (cart. coord. in units 2 pi/alat)
               b(1) = (  1.000000  0.577350 -0.000000 )
               b(2) = (  0.000000  3.464102  0.000000 )
               b(3) = (  0.000000 -0.000000  1.935754 )

     PseudoPot. # 1 for Zn read from file:
     /home/jvc/QEspresso7.2/ZnO_database/pseudos/Zn.upf
     MD5 check sum: 7f56cabf9682ed8c977c2f7d0c5985c5
     Pseudo is Ultrasoft + core correction, Zval = 12.0
     Generated using &quot;atomic&quot; code by A. Dal Corso  v.6.2.2
     Using radial grid of 1201 points,  6 beta functions with:
                l(1) =   0
                l(2) =   0
                l(3) =   1
                l(4) =   1
                l(5) =   2
                l(6) =   2
     Q(r) pseudized with 0 coefficients

     PseudoPot. # 2 for O  read from file:
     /home/jvc/QEspresso7.2/ZnO_database/pseudos/O.upf
     MD5 check sum: 91400c9766925bcf19f520983a725ff0
     Pseudo is Ultrasoft + core correction, Zval =  6.0
     Generated using &quot;atomic&quot; code by A. Dal Corso  v.6.3MaX
     Using radial grid of 1095 points,  4 beta functions with:
                l(1) =   0
                l(2) =   0
                l(3) =   1
                l(4) =   1
     Q(r) pseudized with 0 coefficients

     atomic species   valence    mass     pseudopotential
        Zn            12.00    65.38000     Zn( 1.00)
        O              6.00    15.99900     O ( 1.00)

      2 Sym. Ops. (no inversion) found

                                    s                        frac. trans.

      isym =  1     identity

 cryst.   s( 1) = (     1          0          0      )
                  (     0          1          0      )
                  (     0          0          1      )

 cart.    s( 1) = (  1.0000000  0.0000000  0.0000000 )
                  (  0.0000000  1.0000000  0.0000000 )
                  (  0.0000000  0.0000000  1.0000000 )

      isym =  2     inv. 180 deg rotation - cryst. axis [0,1,0]

 cryst.   s( 2) = (     1          3          0      )
                  (     0         -1          0      )
                  (     0          0          1      )

 cart.    s( 2) = (  0.5000000  0.8660254  0.0000000 )
                  (  0.8660254 -0.5000000  0.0000000 )
                  (  0.0000000  0.0000000  1.0000000 )

   Cartesian axes

     site n.     atom                  positions (alat units)
         1           Zn  tau(   1) = (   0.1666667   0.0962250   0.2586246  )
         2           Zn  tau(   2) = (  -0.0000000   0.1924501   0.0003273  )
         3           O   tau(   3) = (   0.1666667   0.0962250   0.4544362  )
         4           O   tau(   4) = (  -0.0000000   0.1924501   0.1961388  )
         5           Zn  tau(   5) = (   0.5000000   0.0962250   0.2586246  )
         6           Zn  tau(   6) = (   0.3333333   0.1924501   0.0003273  )
         7           O   tau(   7) = (   0.5000000   0.0962250   0.4544362  )
         8           O   tau(   8) = (   0.3333333   0.1924501   0.1961388  )
         9           Zn  tau(   9) = (   0.8333333   0.0962250   0.2586246  )
        10           Zn  tau(  10) = (   0.6666667   0.1924501   0.0003273  )
        11           O   tau(  11) = (   0.8333333   0.0962250   0.4544362  )
        12           O   tau(  12) = (   0.6666667   0.1924501   0.1961388  )

   Crystallographic axes

     site n.     atom                  positions (cryst. coord.)
         1           Zn  tau(   1) = (  0.2222222  0.3333333  0.5006336  )
         2           Zn  tau(   2) = (  0.1111111  0.6666667  0.0006336  )
         3           O   tau(   3) = (  0.2222222  0.3333333  0.8796764  )
         4           O   tau(   4) = (  0.1111111  0.6666667  0.3796764  )
         5           Zn  tau(   5) = (  0.5555556  0.3333333  0.5006336  )
         6           Zn  tau(   6) = (  0.4444444  0.6666667  0.0006336  )
         7           O   tau(   7) = (  0.5555556  0.3333333  0.8796764  )
         8           O   tau(   8) = (  0.4444444  0.6666667  0.3796764  )
         9           Zn  tau(   9) = (  0.8888889  0.3333333  0.5006336  )
        10           Zn  tau(  10) = (  0.7777778  0.6666667  0.0006336  )
        11           O   tau(  11) = (  0.8888889  0.3333333  0.8796764  )
        12           O   tau(  12) = (  0.7777778  0.6666667  0.3796764  )

     number of k points=    68
                       cart. coord. in units 2pi/alat
        k(    1) = (   0.0000000   0.0000000   0.0000000), wk =   0.0092593
        k(    2) = (   0.0000000   0.0000000   0.3226256), wk =   0.0185185
        k(    3) = (   0.0000000   0.0000000   0.6452512), wk =   0.0185185
        k(    4) = (   0.0000000   0.0000000  -0.9678768), wk =   0.0092593
        k(    5) = (   0.0000000   0.5773503   0.0000000), wk =   0.0370370
        k(    6) = (   0.0000000   0.5773503   0.3226256), wk =   0.0370370
        k(    7) = (   0.0000000   0.5773503   0.6452512), wk =   0.0370370
        k(    8) = (   0.0000000   0.5773503  -0.9678768), wk =   0.0370370
        k(    9) = (   0.0000000   1.1547005   0.0000000), wk =   0.0185185
        k(   10) = (   0.0000000   1.1547005   0.3226256), wk =   0.0370370
        k(   11) = (   0.0000000   1.1547005   0.6452512), wk =   0.0370370
        k(   12) = (   0.0000000   1.1547005  -0.9678768), wk =   0.0185185
        k(   13) = (   0.0000000  -1.7320508   0.0000000), wk =   0.0185185
        k(   14) = (   0.0000000  -1.7320508   0.3226256), wk =   0.0370370
        k(   15) = (   0.0000000  -1.7320508   0.6452512), wk =   0.0370370
        k(   16) = (   0.0000000  -1.7320508  -0.9678768), wk =   0.0185185
        k(   17) = (   0.1666667   0.0962250   0.0000000), wk =   0.0185185
        k(   18) = (   0.1666667   0.0962250   0.3226256), wk =   0.0185185
        k(   19) = (   0.1666667   0.0962250   0.6452512), wk =   0.0185185
        k(   20) = (   0.1666667   0.0962250  -0.9678768), wk =   0.0185185
        k(   21) = (   0.1666667   0.6735753   0.0000000), wk =   0.0370370
        k(   22) = (   0.1666667   0.6735753   0.3226256), wk =   0.0370370
        k(   23) = (   0.1666667   0.6735753   0.6452512), wk =   0.0370370
        k(   24) = (   0.1666667   0.6735753  -0.9678768), wk =   0.0370370
        k(   25) = (   0.1666667   1.2509256   0.0000000), wk =   0.0370370
        k(   26) = (   0.1666667   1.2509256   0.3226256), wk =   0.0370370
        k(   27) = (   0.1666667   1.2509256   0.6452512), wk =   0.0370370
        k(   28) = (   0.1666667   1.2509256  -0.9678768), wk =   0.0370370
        k(   29) = (   0.1666667  -1.6358258   0.0000000), wk =   0.0370370
        k(   30) = (   0.1666667  -1.6358258   0.3226256), wk =   0.0370370
        k(   31) = (   0.1666667  -1.6358258   0.6452512), wk =   0.0370370
        k(   32) = (   0.1666667  -1.6358258  -0.9678768), wk =   0.0370370
        k(   33) = (   0.1666667  -0.4811252   0.0000000), wk =   0.0370370
        k(   34) = (   0.1666667  -0.4811252   0.3226256), wk =   0.0370370
        k(   35) = (   0.1666667  -0.4811252   0.6452512), wk =   0.0370370
        k(   36) = (   0.1666667  -0.4811252  -0.9678768), wk =   0.0370370
        k(   37) = (   0.3333333   0.1924501   0.0000000), wk =   0.0185185
        k(   38) = (   0.3333333   0.1924501   0.3226256), wk =   0.0185185
        k(   39) = (   0.3333333   0.1924501   0.6452512), wk =   0.0185185
        k(   40) = (   0.3333333   0.1924501  -0.9678768), wk =   0.0185185
        k(   41) = (   0.3333333   1.3471506   0.0000000), wk =   0.0370370
        k(   42) = (   0.3333333   1.3471506   0.3226256), wk =   0.0370370
        k(   43) = (   0.3333333   1.3471506   0.6452512), wk =   0.0370370
        k(   44) = (   0.3333333   1.3471506  -0.9678768), wk =   0.0370370
        k(   45) = (  -0.5000000  -0.2886751   0.0000000), wk =   0.0092593
        k(   46) = (  -0.5000000  -0.2886751   0.3226256), wk =   0.0185185
        k(   47) = (  -0.5000000  -0.2886751   0.6452512), wk =   0.0185185
        k(   48) = (  -0.5000000  -0.2886751  -0.9678768), wk =   0.0092593
        k(   49) = (  -0.5000000   0.8660254   0.0000000), wk =   0.0185185
        k(   50) = (  -0.5000000   0.8660254   0.3226256), wk =   0.0370370
        k(   51) = (  -0.5000000   0.8660254   0.6452512), wk =   0.0370370
        k(   52) = (  -0.5000000   0.8660254  -0.9678768), wk =   0.0185185
        k(   53) = (   0.5000000  -0.2886751  -0.3226256), wk =   0.0370370
        k(   54) = (   0.5000000  -0.2886751  -0.6452512), wk =   0.0370370
        k(   55) = (   0.1666667   0.0962250  -0.3226256), wk =   0.0185185
        k(   56) = (   0.1666667   0.0962250  -0.6452512), wk =   0.0185185
        k(   57) = (   0.6666667  -0.1924501  -0.3226256), wk =   0.0370370
        k(   58) = (   0.6666667  -0.1924501  -0.6452512), wk =   0.0370370
        k(   59) = (   1.1666667  -0.4811252  -0.3226256), wk =   0.0370370
        k(   60) = (   1.1666667  -0.4811252  -0.6452512), wk =   0.0370370
        k(   61) = (  -1.3333333   0.9622504  -0.3226256), wk =   0.0370370
        k(   62) = (  -1.3333333   0.9622504  -0.6452512), wk =   0.0370370
        k(   63) = (  -0.3333333   0.3849002  -0.3226256), wk =   0.0370370
        k(   64) = (  -0.3333333   0.3849002  -0.6452512), wk =   0.0370370
        k(   65) = (   0.3333333   0.1924501  -0.3226256), wk =   0.0185185
        k(   66) = (   0.3333333   0.1924501  -0.6452512), wk =   0.0185185
        k(   67) = (   1.3333333  -0.3849002  -0.3226256), wk =   0.0370370
        k(   68) = (   1.3333333  -0.3849002  -0.6452512), wk =   0.0370370

                       cryst. coord.
        k(    1) = (   0.0000000   0.0000000   0.0000000), wk =   0.0092593
        k(    2) = (   0.0000000   0.0000000   0.1666667), wk =   0.0185185
        k(    3) = (   0.0000000   0.0000000   0.3333333), wk =   0.0185185
        k(    4) = (   0.0000000   0.0000000  -0.5000000), wk =   0.0092593
        k(    5) = (   0.0000000   0.1666667   0.0000000), wk =   0.0370370
        k(    6) = (   0.0000000   0.1666667   0.1666667), wk =   0.0370370
        k(    7) = (   0.0000000   0.1666667   0.3333333), wk =   0.0370370
        k(    8) = (   0.0000000   0.1666667  -0.5000000), wk =   0.0370370
        k(    9) = (   0.0000000   0.3333333   0.0000000), wk =   0.0185185
        k(   10) = (   0.0000000   0.3333333   0.1666667), wk =   0.0370370
        k(   11) = (   0.0000000   0.3333333   0.3333333), wk =   0.0370370
        k(   12) = (   0.0000000   0.3333333  -0.5000000), wk =   0.0185185
        k(   13) = (   0.0000000  -0.5000000   0.0000000), wk =   0.0185185
        k(   14) = (   0.0000000  -0.5000000   0.1666667), wk =   0.0370370
        k(   15) = (   0.0000000  -0.5000000   0.3333333), wk =   0.0370370
        k(   16) = (   0.0000000  -0.5000000  -0.5000000), wk =   0.0185185
        k(   17) = (   0.1666667  -0.0000000   0.0000000), wk =   0.0185185
        k(   18) = (   0.1666667  -0.0000000   0.1666667), wk =   0.0185185
        k(   19) = (   0.1666667  -0.0000000   0.3333333), wk =   0.0185185
        k(   20) = (   0.1666667  -0.0000000  -0.5000000), wk =   0.0185185
        k(   21) = (   0.1666667   0.1666667   0.0000000), wk =   0.0370370
        k(   22) = (   0.1666667   0.1666667   0.1666667), wk =   0.0370370
        k(   23) = (   0.1666667   0.1666667   0.3333333), wk =   0.0370370
        k(   24) = (   0.1666667   0.1666667  -0.5000000), wk =   0.0370370
        k(   25) = (   0.1666667   0.3333333   0.0000000), wk =   0.0370370
        k(   26) = (   0.1666667   0.3333333   0.1666667), wk =   0.0370370
        k(   27) = (   0.1666667   0.3333333   0.3333333), wk =   0.0370370
        k(   28) = (   0.1666667   0.3333333  -0.5000000), wk =   0.0370370
        k(   29) = (   0.1666667  -0.5000000   0.0000000), wk =   0.0370370
        k(   30) = (   0.1666667  -0.5000000   0.1666667), wk =   0.0370370
        k(   31) = (   0.1666667  -0.5000000   0.3333333), wk =   0.0370370
        k(   32) = (   0.1666667  -0.5000000  -0.5000000), wk =   0.0370370
        k(   33) = (   0.1666667  -0.1666667   0.0000000), wk =   0.0370370
        k(   34) = (   0.1666667  -0.1666667   0.1666667), wk =   0.0370370
        k(   35) = (   0.1666667  -0.1666667   0.3333333), wk =   0.0370370
        k(   36) = (   0.1666667  -0.1666667  -0.5000000), wk =   0.0370370
        k(   37) = (   0.3333333  -0.0000000   0.0000000), wk =   0.0185185
        k(   38) = (   0.3333333  -0.0000000   0.1666667), wk =   0.0185185
        k(   39) = (   0.3333333  -0.0000000   0.3333333), wk =   0.0185185
        k(   40) = (   0.3333333  -0.0000000  -0.5000000), wk =   0.0185185
        k(   41) = (   0.3333333   0.3333333   0.0000000), wk =   0.0370370
        k(   42) = (   0.3333333   0.3333333   0.1666667), wk =   0.0370370
        k(   43) = (   0.3333333   0.3333333   0.3333333), wk =   0.0370370
        k(   44) = (   0.3333333   0.3333333  -0.5000000), wk =   0.0370370
        k(   45) = (  -0.5000000   0.0000000   0.0000000), wk =   0.0092593
        k(   46) = (  -0.5000000   0.0000000   0.1666667), wk =   0.0185185
        k(   47) = (  -0.5000000   0.0000000   0.3333333), wk =   0.0185185
        k(   48) = (  -0.5000000   0.0000000  -0.5000000), wk =   0.0092593
        k(   49) = (  -0.5000000   0.3333333   0.0000000), wk =   0.0185185
        k(   50) = (  -0.5000000   0.3333333   0.1666667), wk =   0.0370370
        k(   51) = (  -0.5000000   0.3333333   0.3333333), wk =   0.0370370
        k(   52) = (  -0.5000000   0.3333333  -0.5000000), wk =   0.0185185
        k(   53) = (   0.5000000  -0.1666667  -0.1666667), wk =   0.0370370
        k(   54) = (   0.5000000  -0.1666667  -0.3333333), wk =   0.0370370
        k(   55) = (   0.1666667   0.0000000  -0.1666667), wk =   0.0185185
        k(   56) = (   0.1666667   0.0000000  -0.3333333), wk =   0.0185185
        k(   57) = (   0.6666667  -0.1666667  -0.1666667), wk =   0.0370370
        k(   58) = (   0.6666667  -0.1666667  -0.3333333), wk =   0.0370370
        k(   59) = (   1.1666667  -0.3333333  -0.1666667), wk =   0.0370370
        k(   60) = (   1.1666667  -0.3333333  -0.3333333), wk =   0.0370370
        k(   61) = (  -1.3333333   0.5000000  -0.1666667), wk =   0.0370370
        k(   62) = (  -1.3333333   0.5000000  -0.3333333), wk =   0.0370370
        k(   63) = (  -0.3333333   0.1666667  -0.1666667), wk =   0.0370370
        k(   64) = (  -0.3333333   0.1666667  -0.3333333), wk =   0.0370370
        k(   65) = (   0.3333333   0.0000000  -0.1666667), wk =   0.0185185
        k(   66) = (   0.3333333   0.0000000  -0.3333333), wk =   0.0185185
        k(   67) = (   1.3333333  -0.3333333  -0.1666667), wk =   0.0370370
        k(   68) = (   1.3333333  -0.3333333  -0.3333333), wk =   0.0370370

     Check: negative core charge=   -0.000002

     Initial potential from superposition of free atoms

     starting charge     107.9776, renormalised to     108.0000
     Starting wfcs are   78 randomized atomic wfcs

     Self-consistent Calculation

     iteration #  1     ecut=    50.00 Ry     beta= 0.30
     Davidson diagonalization with overlap

     ethr =  1.00E-02,  avg # of iterations =  1.9

     total energy              =   -1084.37870376 Ry
     estimated scf accuracy    <       2.17049714 Ry

[...]

     c_bands:  1 eigenvalues not converged
     c_bands:  1 eigenvalues not converged
     ethr =  5.12E-08,  avg # of iterations = 14.7

[...]

     total energy              =   -1084.88599544 Ry
     estimated scf accuracy    <       0.00000003 Ry

     iteration # 33     ecut=    50.00 Ry     beta= 0.30
     Davidson diagonalization with overlap

     ethr =  2.50E-11,  avg # of iterations =  2.1

     End of self-consistent calculation

          k = 0.0000 0.0000 0.0000 (  6385 PWs)   bands (ev):

   -11.5160 -11.1477 -11.1476 -10.8882 -10.7880 -10.7879   0.3938   0.3938
     0.5662   0.5664   0.5755   0.6809   0.6809   0.7236   0.7236   0.7467
     0.7468   0.9070   0.9071   0.9873   1.0865   1.0865   1.2131   1.2131
     1.4203   1.4203   1.4336   1.4337   1.4976   1.4976   1.6204   1.6205
     1.6487   1.6487   1.8074   1.8074   1.8308   2.1919   2.1919   2.9246
     2.9246   3.6670   3.6670   4.0914   4.0915   5.0079   5.0083   5.1187
     5.1187   5.3028   5.3029   5.7784   5.7788   5.7921

     occupation numbers
     1.0000   1.0000   1.0000   1.0000   1.0000   1.0000   1.0000   1.0000
     1.0000   1.0000   1.0000   1.0000   1.0000   1.0000   1.0000   1.0000
     1.0000   1.0000   1.0000   1.0000   1.0000   1.0000   1.0000   1.0000
     1.0000   1.0000   1.0000   1.0000   1.0000   1.0000   1.0000   1.0000
     1.0000   1.0000   1.0000   1.0000   1.0000   1.0000   1.0000   1.0000
     1.0000   1.0000   1.0000   1.0000   1.0000   1.0000   1.0000   1.0000
     1.0000   1.0000   1.0000   1.0000   1.0000   1.0000

[...]

          k =-0.5000-0.2887 0.0000 (  6390 PWs)   bands (ev):

[...]

          k =-0.3333 0.3849-0.6453 (  6374 PWs)   bands (ev):

[...]

          k = 1.3333-0.3849-0.6453 (  6384 PWs)   bands (ev):

   -11.1039 -10.9743 -10.8975 -10.8941 -10.8421 -10.8246   0.3422   0.3528
     0.4507   0.4635   0.4882   0.5686   0.7344   0.7578   0.7848   0.8041
     0.8735   0.9097   0.9344   0.9604   0.9921   1.0463   1.0958   1.1112
     1.4857   1.4925   1.5174   1.5235   1.5359   1.5652   1.6044   1.6341
     1.6666   1.7255   1.7262   1.8131   2.3144   2.4267   2.5543   2.7837
     2.8440   3.3206   3.3652   3.9355   4.1305   4.1605   4.2307   4.4048
     4.4509   4.6906   4.8893   4.9792   5.0280   5.1789

     occupation numbers
     1.0000   1.0000   1.0000   1.0000   1.0000   1.0000   1.0000   1.0000
     1.0000   1.0000   1.0000   1.0000   1.0000   1.0000   1.0000   1.0000
     1.0000   1.0000   1.0000   1.0000   1.0000   1.0000   1.0000   1.0000
     1.0000   1.0000   1.0000   1.0000   1.0000   1.0000   1.0000   1.0000
     1.0000   1.0000   1.0000   1.0000   1.0000   1.0000   1.0000   1.0000
     1.0000   1.0000   1.0000   1.0000   1.0000   1.0000   1.0000   1.0000
     1.0000   1.0000   1.0000   1.0000   1.0000   1.0000

     highest occupied level (ev):     5.7921

!    total energy              =   -1084.88599543 Ry
     estimated scf accuracy    <          9.4E-09 Ry

     The total energy is the sum of the following terms:
     one-electron contribution =    -490.65727119 Ry
     hartree contribution      =     364.69751838 Ry
     xc contribution           =    -328.19417762 Ry
     ewald contribution        =    -630.73206500 Ry

     convergence has been achieved in  33 iterations

     Forces acting on atoms (cartesian axes, Ry/au):

     atom    1 type  1   force =     0.00000395    0.00000228   -0.00870565
     atom    2 type  1   force =    -0.00000648   -0.00000374   -0.00869914
     atom    3 type  2   force =    -0.00000147   -0.00000085    0.00870524
     atom    4 type  2   force =    -0.00000052   -0.00000030    0.00870407
     atom    5 type  1   force =     0.00000362    0.00000209   -0.00870445
     atom    6 type  1   force =    -0.00000620   -0.00000358   -0.00870498
     atom    7 type  2   force =    -0.00000244   -0.00000141    0.00870434
     atom    8 type  2   force =     0.00000375    0.00000217    0.00870427
     atom    9 type  1   force =     0.00001083    0.00000625   -0.00870787
     atom   10 type  1   force =    -0.00000490   -0.00000283   -0.00870375
     atom   11 type  2   force =    -0.00000344   -0.00000199    0.00870689
     atom   12 type  2   force =     0.00000329    0.00000190    0.00870105
     The non-local contrib.  to forces
     atom    1 type  1   force =     0.00000337    0.00000195   -0.11769152
     atom    2 type  1   force =    -0.00000077   -0.00000045   -0.11769203
     atom    3 type  2   force =    -0.00019830   -0.00011449   -0.09344871
     atom    4 type  2   force =     0.00019710    0.00011379   -0.09344671
     atom    5 type  1   force =     0.00000450    0.00000260   -0.11769309
     atom    6 type  1   force =    -0.00000261   -0.00000151   -0.11769284
     atom    7 type  2   force =    -0.00019534   -0.00011278   -0.09344902
     atom    8 type  2   force =     0.00019592    0.00011311   -0.09344788
     atom    9 type  1   force =     0.00000025    0.00000014   -0.11769423
     atom   10 type  1   force =    -0.00000450   -0.00000260   -0.11769049
     atom   11 type  2   force =    -0.00019560   -0.00011293   -0.09344932
     atom   12 type  2   force =     0.00019807    0.00011435   -0.09344734
     The ionic contribution  to forces
     atom    1 type  1   force =     0.00000001    0.00000001   -0.73897918
     atom    2 type  1   force =     0.00000001    0.00000000   -0.73897918
     atom    3 type  2   force =     0.00000000    0.00000000    0.73897918
     atom    4 type  2   force =     0.00000000    0.00000000    0.73897918
     atom    5 type  1   force =    -0.00000001    0.00000000   -0.73897919
     atom    6 type  1   force =     0.00000001   -0.00000000   -0.73897919
     atom    7 type  2   force =    -0.00000001    0.00000000    0.73897919
     atom    8 type  2   force =     0.00000001   -0.00000000    0.73897919
     atom    9 type  1   force =    -0.00000001   -0.00000000   -0.73897918
     atom   10 type  1   force =    -0.00000001   -0.00000001   -0.73897918
     atom   11 type  2   force =    -0.00000000   -0.00000000    0.73897918
     atom   12 type  2   force =    -0.00000000   -0.00000000    0.73897918
     The local contribution  to forces
     atom    1 type  1   force =     0.00000731    0.00000422    0.83976198
     atom    2 type  1   force =    -0.00000899   -0.00000524    0.83975777
     atom    3 type  2   force =     0.00019240    0.00011108   -0.63756872
     atom    4 type  2   force =    -0.00019334   -0.00011164   -0.63757070
     atom    5 type  1   force =     0.00000508    0.00000304    0.83976274
     atom    6 type  1   force =    -0.00000627   -0.00000372    0.83976234
     atom    7 type  2   force =     0.00019100    0.00011030   -0.63757064
     atom    8 type  2   force =    -0.00018964   -0.00010952   -0.63757138
     atom    9 type  1   force =     0.00000666    0.00000389    0.83976623
     atom   10 type  1   force =    -0.00000442   -0.00000255    0.83975856
     atom   11 type  2   force =     0.00019125    0.00011043   -0.63756920
     atom   12 type  2   force =    -0.00019316   -0.00011152   -0.63757090
     The core correction contribution to forces
     atom    1 type  1   force =    -0.00000512   -0.00000289    0.00820074
     atom    2 type  1   force =     0.00000527    0.00000301    0.00820071
     atom    3 type  2   force =     0.00000226    0.00000130    0.00074022
     atom    4 type  2   force =    -0.00000224   -0.00000129    0.00074018
     atom    5 type  1   force =    -0.00000525   -0.00000303    0.00820072
     atom    6 type  1   force =     0.00000522    0.00000301    0.00820075
     atom    7 type  2   force =     0.00000222    0.00000127    0.00074021
     atom    8 type  2   force =    -0.00000222   -0.00000127    0.00074019
     atom    9 type  1   force =    -0.00000529   -0.00000302    0.00820068
     atom   10 type  1   force =     0.00000515    0.00000291    0.00820082
     atom   11 type  2   force =     0.00000221    0.00000128    0.00074023
     atom   12 type  2   force =    -0.00000226   -0.00000130    0.00074019
     The Hubbard contrib.    to forces
     atom    1 type  1   force =     0.00000000    0.00000000    0.00000000
     atom    2 type  1   force =     0.00000000    0.00000000    0.00000000
     atom    3 type  2   force =     0.00000000    0.00000000    0.00000000
     atom    4 type  2   force =     0.00000000    0.00000000    0.00000000
     atom    5 type  1   force =     0.00000000    0.00000000    0.00000000
     atom    6 type  1   force =     0.00000000    0.00000000    0.00000000
     atom    7 type  2   force =     0.00000000    0.00000000    0.00000000
     atom    8 type  2   force =     0.00000000    0.00000000    0.00000000
     atom    9 type  1   force =     0.00000000    0.00000000    0.00000000
     atom   10 type  1   force =     0.00000000    0.00000000    0.00000000
     atom   11 type  2   force =     0.00000000    0.00000000    0.00000000
     atom   12 type  2   force =     0.00000000    0.00000000    0.00000000
     The SCF correction term to forces
     atom    1 type  1   force =    -0.00000164   -0.00000095    0.00000357
     atom    2 type  1   force =    -0.00000194   -0.00000112    0.00001483
     atom    3 type  2   force =     0.00000218    0.00000126    0.00000451
     atom    4 type  2   force =    -0.00000202   -0.00000116    0.00000336
     atom    5 type  1   force =    -0.00000074   -0.00000043    0.00000560
     atom    6 type  1   force =    -0.00000249   -0.00000144    0.00000520
     atom    7 type  2   force =    -0.00000031   -0.00000018    0.00000584
     atom    8 type  2   force =    -0.00000028   -0.00000016    0.00000540
     atom    9 type  1   force =     0.00000920    0.00000531   -0.00000012
     atom   10 type  1   force =    -0.00000108   -0.00000062    0.00000778
     atom   11 type  2   force =    -0.00000130   -0.00000075    0.00000725
     atom   12 type  2   force =     0.00000066    0.00000038    0.00000116

     Total force =     0.030153     Total SCF correction =     0.000025

     General routines

     Parallel routines

   This run was terminated on:  23:41:49  27Aug2025

   JOB DONE.