     Program PWSCF v.7.0 starts on 27Aug2025 at 17: 0:40

     K-points division:     npool     =      17

     Reading input from /home/jvc/QEspresso7.2/ZnO_database/scripts/cell311.in/ZnO-3.20-1.45-311.in
Warning: card &CELL ignored
Warning: card / ignored
Warning: card &FCP ignored
Warning: card / ignored
Warning: card &RISM ignored
Warning: card / ignored

     Current dimensions of program PWSCF are:
     Max number of different atomic species (ntypx) = 10
     Max number of k-points (npk) =  40000
     Max angular momentum in pseudopotentials (lmaxx) =  4
     file Zn.upf: wavefunction(s)  3D renormalized
     Found identity + (  0.3333  0.0000  0.0000) symmetry
     This is a supercell, fractional translations are disabled
     Message from routine setup:
     using ibrav=0 with symmetry is DISCOURAGED, use correct ibrav instead

     Subspace diagonalization in iterative solution of the eigenvalue problem:
     a serial algorithm will be used

     Using Slab Decomposition

     bravais-lattice index     =            0
     lattice parameter (alat)  =      18.1658  a.u.
     unit-cell volume          =     838.1010 (a.u.)^3
     number of atoms/cell      =           12
     number of atomic types    =            2
     number of electrons       =       108.00
     number of Kohn-Sham states=           54
     kinetic-energy cutoff     =      50.0000  Ry
     charge density cutoff     =     400.0000  Ry
     scf convergence threshold =      1.0E-08
     mixing beta               =       0.3000
     number of iterations used =            8  plain     mixing
     Exchange-correlation= PBE
                           (   1   4   3   4   0   0   0)

     celldm(1)=  18.165831  celldm(2)=   0.000000  celldm(3)=   0.000000
     celldm(4)=   0.000000  celldm(5)=   0.000000  celldm(6)=   0.000000

     crystal axes: (cart. coord. in units of alat)
               a(1) = (   1.000000   0.000000   0.000000 )
               a(2) = (  -0.166667   0.288675   0.000000 )
               a(3) = (   0.000000   0.000000   0.484308 )

     reciprocal axes: (cart. coord. in units 2 pi/alat)
               b(1) = (  1.000000  0.577350 -0.000000 )
               b(2) = (  0.000000  3.464102  0.000000 )
               b(3) = (  0.000000 -0.000000  2.064804 )

     PseudoPot. # 1 for Zn read from file:
     /home/jvc/QEspresso7.2/ZnO_database/pseudos/Zn.upf
     MD5 check sum: 7f56cabf9682ed8c977c2f7d0c5985c5
     Pseudo is Ultrasoft + core correction, Zval = 12.0
     Generated using &quot;atomic&quot; code by A. Dal Corso  v.6.2.2
     Using radial grid of 1201 points,  6 beta functions with:
                l(1) =   0
                l(2) =   0
                l(3) =   1
                l(4) =   1
                l(5) =   2
                l(6) =   2
     Q(r) pseudized with 0 coefficients

     PseudoPot. # 2 for O  read from file:
     /home/jvc/QEspresso7.2/ZnO_database/pseudos/O.upf
     MD5 check sum: 91400c9766925bcf19f520983a725ff0
     Pseudo is Ultrasoft + core correction, Zval =  6.0
     Generated using &quot;atomic&quot; code by A. Dal Corso  v.6.3MaX
     Using radial grid of 1095 points,  4 beta functions with:
                l(1) =   0
                l(2) =   0
                l(3) =   1
                l(4) =   1
     Q(r) pseudized with 0 coefficients

     atomic species   valence    mass     pseudopotential
        Zn            12.00    65.38000     Zn( 1.00)
        O              6.00    15.99900     O ( 1.00)

      2 Sym. Ops. (no inversion) found

                                    s                        frac. trans.

      isym =  1     identity

 cryst.   s( 1) = (     1          0          0      )
                  (     0          1          0      )
                  (     0          0          1      )

 cart.    s( 1) = (  1.0000000  0.0000000  0.0000000 )
                  (  0.0000000  1.0000000  0.0000000 )
                  (  0.0000000  0.0000000  1.0000000 )

      isym =  2     inv. 180 deg rotation - cryst. axis [0,1,0]

 cryst.   s( 2) = (     1          3          0      )
                  (     0         -1          0      )
                  (     0          0          1      )

 cart.    s( 2) = (  0.5000000  0.8660254  0.0000000 )
                  (  0.8660254 -0.5000000  0.0000000 )
                  (  0.0000000  0.0000000  1.0000000 )

   Cartesian axes

     site n.     atom                  positions (alat units)
         1           Zn  tau(   1) = (   0.1666667   0.0962250   0.2424606  )
         2           Zn  tau(   2) = (  -0.0000000   0.1924501   0.0003069  )
         3           O   tau(   3) = (   0.1666667   0.0962250   0.4260339  )
         4           O   tau(   4) = (  -0.0000000   0.1924501   0.1838801  )
         5           Zn  tau(   5) = (   0.5000000   0.0962250   0.2424606  )
         6           Zn  tau(   6) = (   0.3333333   0.1924501   0.0003069  )
         7           O   tau(   7) = (   0.5000000   0.0962250   0.4260339  )
         8           O   tau(   8) = (   0.3333333   0.1924501   0.1838801  )
         9           Zn  tau(   9) = (   0.8333333   0.0962250   0.2424606  )
        10           Zn  tau(  10) = (   0.6666667   0.1924501   0.0003069  )
        11           O   tau(  11) = (   0.8333333   0.0962250   0.4260339  )
        12           O   tau(  12) = (   0.6666667   0.1924501   0.1838801  )

   Crystallographic axes

     site n.     atom                  positions (cryst. coord.)
         1           Zn  tau(   1) = (  0.2222222  0.3333333  0.5006336  )
         2           Zn  tau(   2) = (  0.1111111  0.6666667  0.0006336  )
         3           O   tau(   3) = (  0.2222222  0.3333333  0.8796764  )
         4           O   tau(   4) = (  0.1111111  0.6666667  0.3796764  )
         5           Zn  tau(   5) = (  0.5555556  0.3333333  0.5006336  )
         6           Zn  tau(   6) = (  0.4444444  0.6666667  0.0006336  )
         7           O   tau(   7) = (  0.5555556  0.3333333  0.8796764  )
         8           O   tau(   8) = (  0.4444444  0.6666667  0.3796764  )
         9           Zn  tau(   9) = (  0.8888889  0.3333333  0.5006336  )
        10           Zn  tau(  10) = (  0.7777778  0.6666667  0.0006336  )
        11           O   tau(  11) = (  0.8888889  0.3333333  0.8796764  )
        12           O   tau(  12) = (  0.7777778  0.6666667  0.3796764  )

     number of k points=    68
                       cart. coord. in units 2pi/alat
        k(    1) = (   0.0000000   0.0000000   0.0000000), wk =   0.0092593
        k(    2) = (   0.0000000   0.0000000   0.3441340), wk =   0.0185185
        k(    3) = (   0.0000000   0.0000000   0.6882679), wk =   0.0185185
        k(    4) = (   0.0000000   0.0000000  -1.0324019), wk =   0.0092593
        k(    5) = (   0.0000000   0.5773503   0.0000000), wk =   0.0370370
        k(    6) = (   0.0000000   0.5773503   0.3441340), wk =   0.0370370
        k(    7) = (   0.0000000   0.5773503   0.6882679), wk =   0.0370370
        k(    8) = (   0.0000000   0.5773503  -1.0324019), wk =   0.0370370
        k(    9) = (   0.0000000   1.1547005   0.0000000), wk =   0.0185185
        k(   10) = (   0.0000000   1.1547005   0.3441340), wk =   0.0370370
        k(   11) = (   0.0000000   1.1547005   0.6882679), wk =   0.0370370
        k(   12) = (   0.0000000   1.1547005  -1.0324019), wk =   0.0185185
        k(   13) = (   0.0000000  -1.7320508   0.0000000), wk =   0.0185185
        k(   14) = (   0.0000000  -1.7320508   0.3441340), wk =   0.0370370
        k(   15) = (   0.0000000  -1.7320508   0.6882679), wk =   0.0370370
        k(   16) = (   0.0000000  -1.7320508  -1.0324019), wk =   0.0185185
        k(   17) = (   0.1666667   0.0962250   0.0000000), wk =   0.0185185
        k(   18) = (   0.1666667   0.0962250   0.3441340), wk =   0.0185185
        k(   19) = (   0.1666667   0.0962250   0.6882679), wk =   0.0185185
        k(   20) = (   0.1666667   0.0962250  -1.0324019), wk =   0.0185185
        k(   21) = (   0.1666667   0.6735753   0.0000000), wk =   0.0370370
        k(   22) = (   0.1666667   0.6735753   0.3441340), wk =   0.0370370
        k(   23) = (   0.1666667   0.6735753   0.6882679), wk =   0.0370370
        k(   24) = (   0.1666667   0.6735753  -1.0324019), wk =   0.0370370
        k(   25) = (   0.1666667   1.2509256   0.0000000), wk =   0.0370370
        k(   26) = (   0.1666667   1.2509256   0.3441340), wk =   0.0370370
        k(   27) = (   0.1666667   1.2509256   0.6882679), wk =   0.0370370
        k(   28) = (   0.1666667   1.2509256  -1.0324019), wk =   0.0370370
        k(   29) = (   0.1666667  -1.6358258   0.0000000), wk =   0.0370370
        k(   30) = (   0.1666667  -1.6358258   0.3441340), wk =   0.0370370
        k(   31) = (   0.1666667  -1.6358258   0.6882679), wk =   0.0370370
        k(   32) = (   0.1666667  -1.6358258  -1.0324019), wk =   0.0370370
        k(   33) = (   0.1666667  -0.4811252   0.0000000), wk =   0.0370370
        k(   34) = (   0.1666667  -0.4811252   0.3441340), wk =   0.0370370
        k(   35) = (   0.1666667  -0.4811252   0.6882679), wk =   0.0370370
        k(   36) = (   0.1666667  -0.4811252  -1.0324019), wk =   0.0370370
        k(   37) = (   0.3333333   0.1924501   0.0000000), wk =   0.0185185
        k(   38) = (   0.3333333   0.1924501   0.3441340), wk =   0.0185185
        k(   39) = (   0.3333333   0.1924501   0.6882679), wk =   0.0185185
        k(   40) = (   0.3333333   0.1924501  -1.0324019), wk =   0.0185185
        k(   41) = (   0.3333333   1.3471506   0.0000000), wk =   0.0370370
        k(   42) = (   0.3333333   1.3471506   0.3441340), wk =   0.0370370
        k(   43) = (   0.3333333   1.3471506   0.6882679), wk =   0.0370370
        k(   44) = (   0.3333333   1.3471506  -1.0324019), wk =   0.0370370
        k(   45) = (  -0.5000000  -0.2886751   0.0000000), wk =   0.0092593
        k(   46) = (  -0.5000000  -0.2886751   0.3441340), wk =   0.0185185
        k(   47) = (  -0.5000000  -0.2886751   0.6882679), wk =   0.0185185
        k(   48) = (  -0.5000000  -0.2886751  -1.0324019), wk =   0.0092593
        k(   49) = (  -0.5000000   0.8660254   0.0000000), wk =   0.0185185
        k(   50) = (  -0.5000000   0.8660254   0.3441340), wk =   0.0370370
        k(   51) = (  -0.5000000   0.8660254   0.6882679), wk =   0.0370370
        k(   52) = (  -0.5000000   0.8660254  -1.0324019), wk =   0.0185185
        k(   53) = (   0.5000000  -0.2886751  -0.3441340), wk =   0.0370370
        k(   54) = (   0.5000000  -0.2886751  -0.6882679), wk =   0.0370370
        k(   55) = (   0.1666667   0.0962250  -0.3441340), wk =   0.0185185
        k(   56) = (   0.1666667   0.0962250  -0.6882679), wk =   0.0185185
        k(   57) = (   0.6666667  -0.1924501  -0.3441340), wk =   0.0370370
        k(   58) = (   0.6666667  -0.1924501  -0.6882679), wk =   0.0370370
        k(   59) = (   1.1666667  -0.4811252  -0.3441340), wk =   0.0370370
        k(   60) = (   1.1666667  -0.4811252  -0.6882679), wk =   0.0370370
        k(   61) = (  -1.3333333   0.9622504  -0.3441340), wk =   0.0370370
        k(   62) = (  -1.3333333   0.9622504  -0.6882679), wk =   0.0370370
        k(   63) = (  -0.3333333   0.3849002  -0.3441340), wk =   0.0370370
        k(   64) = (  -0.3333333   0.3849002  -0.6882679), wk =   0.0370370
        k(   65) = (   0.3333333   0.1924501  -0.3441340), wk =   0.0185185
        k(   66) = (   0.3333333   0.1924501  -0.6882679), wk =   0.0185185
        k(   67) = (   1.3333333  -0.3849002  -0.3441340), wk =   0.0370370
        k(   68) = (   1.3333333  -0.3849002  -0.6882679), wk =   0.0370370

                       cryst. coord.
        k(    1) = (   0.0000000   0.0000000   0.0000000), wk =   0.0092593
        k(    2) = (   0.0000000   0.0000000   0.1666667), wk =   0.0185185
        k(    3) = (   0.0000000   0.0000000   0.3333333), wk =   0.0185185
        k(    4) = (   0.0000000   0.0000000  -0.5000000), wk =   0.0092593
        k(    5) = (   0.0000000   0.1666667   0.0000000), wk =   0.0370370
        k(    6) = (   0.0000000   0.1666667   0.1666667), wk =   0.0370370
        k(    7) = (   0.0000000   0.1666667   0.3333333), wk =   0.0370370
        k(    8) = (   0.0000000   0.1666667  -0.5000000), wk =   0.0370370
        k(    9) = (   0.0000000   0.3333333   0.0000000), wk =   0.0185185
        k(   10) = (   0.0000000   0.3333333   0.1666667), wk =   0.0370370
        k(   11) = (   0.0000000   0.3333333   0.3333333), wk =   0.0370370
        k(   12) = (   0.0000000   0.3333333  -0.5000000), wk =   0.0185185
        k(   13) = (   0.0000000  -0.5000000   0.0000000), wk =   0.0185185
        k(   14) = (   0.0000000  -0.5000000   0.1666667), wk =   0.0370370
        k(   15) = (   0.0000000  -0.5000000   0.3333333), wk =   0.0370370
        k(   16) = (   0.0000000  -0.5000000  -0.5000000), wk =   0.0185185
        k(   17) = (   0.1666667   0.0000000   0.0000000), wk =   0.0185185
        k(   18) = (   0.1666667   0.0000000   0.1666667), wk =   0.0185185
        k(   19) = (   0.1666667   0.0000000   0.3333333), wk =   0.0185185
        k(   20) = (   0.1666667   0.0000000  -0.5000000), wk =   0.0185185
        k(   21) = (   0.1666667   0.1666667   0.0000000), wk =   0.0370370
        k(   22) = (   0.1666667   0.1666667   0.1666667), wk =   0.0370370
        k(   23) = (   0.1666667   0.1666667   0.3333333), wk =   0.0370370
        k(   24) = (   0.1666667   0.1666667  -0.5000000), wk =   0.0370370
        k(   25) = (   0.1666667   0.3333333   0.0000000), wk =   0.0370370
        k(   26) = (   0.1666667   0.3333333   0.1666667), wk =   0.0370370
        k(   27) = (   0.1666667   0.3333333   0.3333333), wk =   0.0370370
        k(   28) = (   0.1666667   0.3333333  -0.5000000), wk =   0.0370370
        k(   29) = (   0.1666667  -0.5000000   0.0000000), wk =   0.0370370
        k(   30) = (   0.1666667  -0.5000000   0.1666667), wk =   0.0370370
        k(   31) = (   0.1666667  -0.5000000   0.3333333), wk =   0.0370370
        k(   32) = (   0.1666667  -0.5000000  -0.5000000), wk =   0.0370370
        k(   33) = (   0.1666667  -0.1666667   0.0000000), wk =   0.0370370
        k(   34) = (   0.1666667  -0.1666667   0.1666667), wk =   0.0370370
        k(   35) = (   0.1666667  -0.1666667   0.3333333), wk =   0.0370370
        k(   36) = (   0.1666667  -0.1666667  -0.5000000), wk =   0.0370370
        k(   37) = (   0.3333333   0.0000000   0.0000000), wk =   0.0185185
        k(   38) = (   0.3333333   0.0000000   0.1666667), wk =   0.0185185
        k(   39) = (   0.3333333   0.0000000   0.3333333), wk =   0.0185185
        k(   40) = (   0.3333333   0.0000000  -0.5000000), wk =   0.0185185
        k(   41) = (   0.3333333   0.3333333   0.0000000), wk =   0.0370370
        k(   42) = (   0.3333333   0.3333333   0.1666667), wk =   0.0370370
        k(   43) = (   0.3333333   0.3333333   0.3333333), wk =   0.0370370
        k(   44) = (   0.3333333   0.3333333  -0.5000000), wk =   0.0370370
        k(   45) = (  -0.5000000  -0.0000000   0.0000000), wk =   0.0092593
        k(   46) = (  -0.5000000  -0.0000000   0.1666667), wk =   0.0185185
        k(   47) = (  -0.5000000  -0.0000000   0.3333333), wk =   0.0185185
        k(   48) = (  -0.5000000  -0.0000000  -0.5000000), wk =   0.0092593
        k(   49) = (  -0.5000000   0.3333333   0.0000000), wk =   0.0185185
        k(   50) = (  -0.5000000   0.3333333   0.1666667), wk =   0.0370370
        k(   51) = (  -0.5000000   0.3333333   0.3333333), wk =   0.0370370
        k(   52) = (  -0.5000000   0.3333333  -0.5000000), wk =   0.0185185
        k(   53) = (   0.5000000  -0.1666667  -0.1666667), wk =   0.0370370
        k(   54) = (   0.5000000  -0.1666667  -0.3333333), wk =   0.0370370
        k(   55) = (   0.1666667  -0.0000000  -0.1666667), wk =   0.0185185
        k(   56) = (   0.1666667  -0.0000000  -0.3333333), wk =   0.0185185
        k(   57) = (   0.6666667  -0.1666667  -0.1666667), wk =   0.0370370
        k(   58) = (   0.6666667  -0.1666667  -0.3333333), wk =   0.0370370
        k(   59) = (   1.1666667  -0.3333333  -0.1666667), wk =   0.0370370
        k(   60) = (   1.1666667  -0.3333333  -0.3333333), wk =   0.0370370
        k(   61) = (  -1.3333333   0.5000000  -0.1666667), wk =   0.0370370
        k(   62) = (  -1.3333333   0.5000000  -0.3333333), wk =   0.0370370
        k(   63) = (  -0.3333333   0.1666667  -0.1666667), wk =   0.0370370
        k(   64) = (  -0.3333333   0.1666667  -0.3333333), wk =   0.0370370
        k(   65) = (   0.3333333  -0.0000000  -0.1666667), wk =   0.0185185
        k(   66) = (   0.3333333  -0.0000000  -0.3333333), wk =   0.0185185
        k(   67) = (   1.3333333  -0.3333333  -0.1666667), wk =   0.0370370
        k(   68) = (   1.3333333  -0.3333333  -0.3333333), wk =   0.0370370

     Check: negative core charge=   -0.000001

     Initial potential from superposition of free atoms

     starting charge     107.9776, renormalised to     108.0000
     Starting wfcs are   78 randomized atomic wfcs

     Self-consistent Calculation

     iteration #  1     ecut=    50.00 Ry     beta= 0.30
     Davidson diagonalization with overlap

     ethr =  1.00E-02,  avg # of iterations =  2.0

     total energy              =   -1084.23751416 Ry
     estimated scf accuracy    <       2.06426978 Ry

[...]

     c_bands:  1 eigenvalues not converged
     c_bands:  1 eigenvalues not converged
     ethr =  1.08E-10,  avg # of iterations = 11.8

[...]

     total energy              =   -1084.66862641 Ry
     estimated scf accuracy    <       0.00000002 Ry

     iteration # 18     ecut=    50.00 Ry     beta= 0.30
     Davidson diagonalization with overlap

     ethr =  1.77E-11,  avg # of iterations =  4.4

     End of self-consistent calculation

          k = 0.0000 0.0000 0.0000 (  4991 PWs)   bands (ev):

    -9.8258  -9.2511  -9.2511  -8.6677  -8.5805  -8.5805   2.5987   2.5987
     2.9690   3.0475   3.0475   3.0935   3.0937   3.0984   3.2920   3.2920
     3.3927   3.3927   3.4048   3.4049   3.8877   3.8877   3.8886   3.8886
     4.5715   4.5715   4.6252   4.6252   4.7517   4.7517   4.9173   4.9173
     5.0019   5.0020   5.0701   5.0701   5.2829   5.5051   5.5051   6.1524
     6.1524   6.8998   6.8998   7.1414   7.1414   8.1868   8.1869   8.6464
     8.6464   8.8506   8.8506   9.4577   9.4580   9.5470

     occupation numbers
     1.0000   1.0000   1.0000   1.0000   1.0000   1.0000   1.0000   1.0000
     1.0000   1.0000   1.0000   1.0000   1.0000   1.0000   1.0000   1.0000
     1.0000   1.0000   1.0000   1.0000   1.0000   1.0000   1.0000   1.0000
     1.0000   1.0000   1.0000   1.0000   1.0000   1.0000   1.0000   1.0000
     1.0000   1.0000   1.0000   1.0000   1.0000   1.0000   1.0000   1.0000
     1.0000   1.0000   1.0000   1.0000   1.0000   1.0000   1.0000   1.0000
     1.0000   1.0000   1.0000   1.0000   1.0000   1.0000

[...]

          k =-0.5000-0.2887 0.0000 (  4950 PWs)   bands (ev):

[...]

          k =-0.3333 0.3849-0.6883 (  4994 PWs)   bands (ev):

[...]

          k = 1.3333-0.3849-0.6883 (  5001 PWs)   bands (ev):

    -9.1467  -8.9407  -8.8096  -8.7601  -8.6922  -8.6787   2.3825   2.4333
     2.4665   2.4987   2.5481   2.5941   3.2010   3.2619   3.3076   3.3371
     3.3843   3.3984   3.4674   3.5989   3.6122   3.7556   3.7643   3.8250
     4.7227   4.7455   4.7887   4.8204   4.8321   4.8876   4.9892   5.0224
     5.0579   5.1403   5.1481   5.2854   5.5931   5.7324   5.8997   6.1914
     6.2765   6.2942   6.8805   6.9635   7.4118   7.4504   7.5076   7.6023
     7.9057   8.0421   8.3981   8.4725   8.6714   8.8760

     occupation numbers
     1.0000   1.0000   1.0000   1.0000   1.0000   1.0000   1.0000   1.0000
     1.0000   1.0000   1.0000   1.0000   1.0000   1.0000   1.0000   1.0000
     1.0000   1.0000   1.0000   1.0000   1.0000   1.0000   1.0000   1.0000
     1.0000   1.0000   1.0000   1.0000   1.0000   1.0000   1.0000   1.0000
     1.0000   1.0000   1.0000   1.0000   1.0000   1.0000   1.0000   1.0000
     1.0000   1.0000   1.0000   1.0000   1.0000   1.0000   1.0000   1.0000
     1.0000   1.0000   1.0000   1.0000   1.0000   1.0000

     highest occupied level (ev):     9.5470

!    total energy              =   -1084.66862642 Ry
     estimated scf accuracy    <          1.1E-09 Ry

     The total energy is the sum of the following terms:
     one-electron contribution =    -409.80478870 Ry
     hartree contribution      =     336.87803765 Ry
     xc contribution           =    -329.82760878 Ry
     ewald contribution        =    -681.91426659 Ry

     convergence has been achieved in  18 iterations

     Forces acting on atoms (cartesian axes, Ry/au):

     atom    1 type  1   force =     0.00001100    0.00000635   -0.09681646
     atom    2 type  1   force =    -0.00001138   -0.00000657   -0.09681565
     atom    3 type  2   force =    -0.00000075   -0.00000043    0.09681633
     atom    4 type  2   force =     0.00000027    0.00000015    0.09681635
     atom    5 type  1   force =     0.00001145    0.00000661   -0.09681595
     atom    6 type  1   force =    -0.00001136   -0.00000656   -0.09681641
     atom    7 type  2   force =    -0.00000038   -0.00000022    0.09681657
     atom    8 type  2   force =     0.00000053    0.00000030    0.09681625
     atom    9 type  1   force =     0.00001113    0.00000642   -0.09681736
     atom   10 type  1   force =    -0.00001083   -0.00000625   -0.09681657
     atom   11 type  2   force =    -0.00000033   -0.00000019    0.09681660
     atom   12 type  2   force =     0.00000064    0.00000037    0.09681629
     The non-local contrib.  to forces
     atom    1 type  1   force =    -0.00001141   -0.00000659   -0.33938267
     atom    2 type  1   force =     0.00001191    0.00000687   -0.33938213
     atom    3 type  2   force =    -0.00015453   -0.00008922   -0.21529631
     atom    4 type  2   force =     0.00015438    0.00008913   -0.21529637
     atom    5 type  1   force =    -0.00001182   -0.00000682   -0.33938239
     atom    6 type  1   force =     0.00001121    0.00000647   -0.33938271
     atom    7 type  2   force =    -0.00015390   -0.00008886   -0.21529598
     atom    8 type  2   force =     0.00015436    0.00008912   -0.21529645
     atom    9 type  1   force =    -0.00001179   -0.00000681   -0.33938279
     atom   10 type  1   force =     0.00001175    0.00000678   -0.33938252
     atom   11 type  2   force =    -0.00015405   -0.00008894   -0.21529619
     atom   12 type  2   force =     0.00015436    0.00008912   -0.21529641
     The ionic contribution  to forces
     atom    1 type  1   force =     0.00000001    0.00000001   -2.35338397
     atom    2 type  1   force =     0.00000001    0.00000000   -2.35338397
     atom    3 type  2   force =     0.00000000    0.00000000    2.35338397
     atom    4 type  2   force =     0.00000001    0.00000000    2.35338397
     atom    5 type  1   force =    -0.00000001    0.00000000   -2.35338398
     atom    6 type  1   force =     0.00000001   -0.00000000   -2.35338398
     atom    7 type  2   force =    -0.00000001    0.00000000    2.35338398
     atom    8 type  2   force =     0.00000001   -0.00000000    2.35338398
     atom    9 type  1   force =    -0.00000001   -0.00000000   -2.35338397
     atom   10 type  1   force =    -0.00000001   -0.00000001   -2.35338397
     atom   11 type  2   force =    -0.00000001   -0.00000000    2.35338397
     atom   12 type  2   force =    -0.00000000   -0.00000000    2.35338397
     The local contribution  to forces
     atom    1 type  1   force =     0.00002610    0.00001507    2.56573876
     atom    2 type  1   force =    -0.00002689   -0.00001558    2.56573729
     atom    3 type  2   force =     0.00015213    0.00008783   -2.04255757
     atom    4 type  2   force =    -0.00015255   -0.00008809   -2.04255638
     atom    5 type  1   force =     0.00002641    0.00001534    2.56573795
     atom    6 type  1   force =    -0.00002560   -0.00001488    2.56573906
     atom    7 type  2   force =     0.00015214    0.00008787   -2.04255712
     atom    8 type  2   force =    -0.00015230   -0.00008795   -2.04255733
     atom    9 type  1   force =     0.00002657    0.00001539    2.56573939
     atom   10 type  1   force =    -0.00002656   -0.00001533    2.56573828
     atom   11 type  2   force =     0.00015251    0.00008806   -2.04255739
     atom   12 type  2   force =    -0.00015266   -0.00008814   -2.04255707
     The core correction contribution to forces
     atom    1 type  1   force =    -0.00000241   -0.00000139    0.03020867
     atom    2 type  1   force =     0.00000243    0.00000139    0.03020867
     atom    3 type  2   force =     0.00000176    0.00000102    0.00128838
     atom    4 type  2   force =    -0.00000176   -0.00000102    0.00128838
     atom    5 type  1   force =    -0.00000241   -0.00000138    0.03020867
     atom    6 type  1   force =     0.00000242    0.00000138    0.03020866
     atom    7 type  2   force =     0.00000175    0.00000101    0.00128837
     atom    8 type  2   force =    -0.00000176   -0.00000102    0.00128838
     atom    9 type  1   force =    -0.00000241   -0.00000139    0.03020867
     atom   10 type  1   force =     0.00000238    0.00000137    0.03020869
     atom   11 type  2   force =     0.00000176    0.00000101    0.00128838
     atom   12 type  2   force =    -0.00000176   -0.00000102    0.00128838
     The Hubbard contrib.    to forces
     atom    1 type  1   force =     0.00000000    0.00000000    0.00000000
     atom    2 type  1   force =     0.00000000    0.00000000    0.00000000
     atom    3 type  2   force =     0.00000000    0.00000000    0.00000000
     atom    4 type  2   force =     0.00000000    0.00000000    0.00000000
     atom    5 type  1   force =     0.00000000    0.00000000    0.00000000
     atom    6 type  1   force =     0.00000000    0.00000000    0.00000000
     atom    7 type  2   force =     0.00000000    0.00000000    0.00000000
     atom    8 type  2   force =     0.00000000    0.00000000    0.00000000
     atom    9 type  1   force =     0.00000000    0.00000000    0.00000000
     atom   10 type  1   force =     0.00000000    0.00000000    0.00000000
     atom   11 type  2   force =     0.00000000    0.00000000    0.00000000
     atom   12 type  2   force =     0.00000000    0.00000000    0.00000000
     The SCF correction term to forces
     atom    1 type  1   force =    -0.00000128   -0.00000074    0.00000338
     atom    2 type  1   force =     0.00000122    0.00000070    0.00000512
     atom    3 type  2   force =    -0.00000010   -0.00000006   -0.00000151
     atom    4 type  2   force =     0.00000021    0.00000012   -0.00000262
     atom    5 type  1   force =    -0.00000075   -0.00000043    0.00000443
     atom    6 type  1   force =     0.00000066    0.00000038    0.00000319
     atom    7 type  2   force =    -0.00000037   -0.00000021   -0.00000205
     atom    8 type  2   force =     0.00000025    0.00000014   -0.00000170
     atom    9 type  1   force =    -0.00000125   -0.00000072    0.00000199
     atom   10 type  1   force =     0.00000163    0.00000094    0.00000359
     atom   11 type  2   force =    -0.00000053   -0.00000030   -0.00000153
     atom   12 type  2   force =     0.00000072    0.00000042   -0.00000196

     Total force =     0.335382     Total SCF correction =     0.000011

     General routines

     Parallel routines

   This run was terminated on:  17: 6:52  27Aug2025

   JOB DONE.