     Program PWSCF v.7.0 starts on 27Aug2025 at 18: 5:21

     K-points division:     npool     =      17

     Reading input from /home/jvc/QEspresso7.2/ZnO_database/scripts/cell311.in/ZnO-3.20-1.68-311.in
Warning: card &CELL ignored
Warning: card / ignored
Warning: card &FCP ignored
Warning: card / ignored
Warning: card &RISM ignored
Warning: card / ignored

     Current dimensions of program PWSCF are:
     Max number of different atomic species (ntypx) = 10
     Max number of k-points (npk) =  40000
     Max angular momentum in pseudopotentials (lmaxx) =  4
     file Zn.upf: wavefunction(s)  3D renormalized
     Found identity + (  0.3333  0.0000  0.0000) symmetry
     This is a supercell, fractional translations are disabled
     Message from routine setup:
     using ibrav=0 with symmetry is DISCOURAGED, use correct ibrav instead

     Subspace diagonalization in iterative solution of the eigenvalue problem:
     a serial algorithm will be used

     Using Slab Decomposition

     bravais-lattice index     =            0
     lattice parameter (alat)  =      18.1658  a.u.
     unit-cell volume          =     968.4723 (a.u.)^3
     number of atoms/cell      =           12
     number of atomic types    =            2
     number of electrons       =       108.00
     number of Kohn-Sham states=           54
     kinetic-energy cutoff     =      50.0000  Ry
     charge density cutoff     =     400.0000  Ry
     scf convergence threshold =      1.0E-08
     mixing beta               =       0.3000
     number of iterations used =            8  plain     mixing
     Exchange-correlation= PBE
                           (   1   4   3   4   0   0   0)

     celldm(1)=  18.165831  celldm(2)=   0.000000  celldm(3)=   0.000000
     celldm(4)=   0.000000  celldm(5)=   0.000000  celldm(6)=   0.000000

     crystal axes: (cart. coord. in units of alat)
               a(1) = (   1.000000   0.000000   0.000000 )
               a(2) = (  -0.166667   0.288675   0.000000 )
               a(3) = (   0.000000   0.000000   0.559644 )

     reciprocal axes: (cart. coord. in units 2 pi/alat)
               b(1) = (  1.000000  0.577350 -0.000000 )
               b(2) = (  0.000000  3.464102  0.000000 )
               b(3) = (  0.000000 -0.000000  1.786849 )

     PseudoPot. # 1 for Zn read from file:
     /home/jvc/QEspresso7.2/ZnO_database/pseudos/Zn.upf
     MD5 check sum: 7f56cabf9682ed8c977c2f7d0c5985c5
     Pseudo is Ultrasoft + core correction, Zval = 12.0
     Generated using &quot;atomic&quot; code by A. Dal Corso  v.6.2.2
     Using radial grid of 1201 points,  6 beta functions with:
                l(1) =   0
                l(2) =   0
                l(3) =   1
                l(4) =   1
                l(5) =   2
                l(6) =   2
     Q(r) pseudized with 0 coefficients

     PseudoPot. # 2 for O  read from file:
     /home/jvc/QEspresso7.2/ZnO_database/pseudos/O.upf
     MD5 check sum: 91400c9766925bcf19f520983a725ff0
     Pseudo is Ultrasoft + core correction, Zval =  6.0
     Generated using &quot;atomic&quot; code by A. Dal Corso  v.6.3MaX
     Using radial grid of 1095 points,  4 beta functions with:
                l(1) =   0
                l(2) =   0
                l(3) =   1
                l(4) =   1
     Q(r) pseudized with 0 coefficients

     atomic species   valence    mass     pseudopotential
        Zn            12.00    65.38000     Zn( 1.00)
        O              6.00    15.99900     O ( 1.00)

      2 Sym. Ops. (no inversion) found

                                    s                        frac. trans.

      isym =  1     identity

 cryst.   s( 1) = (     1          0          0      )
                  (     0          1          0      )
                  (     0          0          1      )

 cart.    s( 1) = (  1.0000000  0.0000000  0.0000000 )
                  (  0.0000000  1.0000000  0.0000000 )
                  (  0.0000000  0.0000000  1.0000000 )

      isym =  2     inv. 180 deg rotation - cryst. axis [0,1,0]

 cryst.   s( 2) = (     1          3          0      )
                  (     0         -1          0      )
                  (     0          0          1      )

 cart.    s( 2) = (  0.5000000  0.8660254  0.0000000 )
                  (  0.8660254 -0.5000000  0.0000000 )
                  (  0.0000000  0.0000000  1.0000000 )

   Cartesian axes

     site n.     atom                  positions (alat units)
         1           Zn  tau(   1) = (   0.1666667   0.0962250   0.2801767  )
         2           Zn  tau(   2) = (  -0.0000000   0.1924501   0.0003546  )
         3           O   tau(   3) = (   0.1666667   0.0962250   0.4923058  )
         4           O   tau(   4) = (  -0.0000000   0.1924501   0.2124837  )
         5           Zn  tau(   5) = (   0.5000000   0.0962250   0.2801767  )
         6           Zn  tau(   6) = (   0.3333333   0.1924501   0.0003546  )
         7           O   tau(   7) = (   0.5000000   0.0962250   0.4923058  )
         8           O   tau(   8) = (   0.3333333   0.1924501   0.2124837  )
         9           Zn  tau(   9) = (   0.8333333   0.0962250   0.2801767  )
        10           Zn  tau(  10) = (   0.6666667   0.1924501   0.0003546  )
        11           O   tau(  11) = (   0.8333333   0.0962250   0.4923058  )
        12           O   tau(  12) = (   0.6666667   0.1924501   0.2124837  )

   Crystallographic axes

     site n.     atom                  positions (cryst. coord.)
         1           Zn  tau(   1) = (  0.2222222  0.3333333  0.5006336  )
         2           Zn  tau(   2) = (  0.1111111  0.6666667  0.0006336  )
         3           O   tau(   3) = (  0.2222222  0.3333333  0.8796764  )
         4           O   tau(   4) = (  0.1111111  0.6666667  0.3796764  )
         5           Zn  tau(   5) = (  0.5555556  0.3333333  0.5006336  )
         6           Zn  tau(   6) = (  0.4444444  0.6666667  0.0006336  )
         7           O   tau(   7) = (  0.5555556  0.3333333  0.8796764  )
         8           O   tau(   8) = (  0.4444444  0.6666667  0.3796764  )
         9           Zn  tau(   9) = (  0.8888889  0.3333333  0.5006336  )
        10           Zn  tau(  10) = (  0.7777778  0.6666667  0.0006336  )
        11           O   tau(  11) = (  0.8888889  0.3333333  0.8796764  )
        12           O   tau(  12) = (  0.7777778  0.6666667  0.3796764  )

     number of k points=    68
                       cart. coord. in units 2pi/alat
        k(    1) = (   0.0000000   0.0000000   0.0000000), wk =   0.0092593
        k(    2) = (   0.0000000   0.0000000   0.2978082), wk =   0.0185185
        k(    3) = (   0.0000000   0.0000000   0.5956165), wk =   0.0185185
        k(    4) = (   0.0000000   0.0000000  -0.8934247), wk =   0.0092593
        k(    5) = (   0.0000000   0.5773503   0.0000000), wk =   0.0370370
        k(    6) = (   0.0000000   0.5773503   0.2978082), wk =   0.0370370
        k(    7) = (   0.0000000   0.5773503   0.5956165), wk =   0.0370370
        k(    8) = (   0.0000000   0.5773503  -0.8934247), wk =   0.0370370
        k(    9) = (   0.0000000   1.1547005   0.0000000), wk =   0.0185185
        k(   10) = (   0.0000000   1.1547005   0.2978082), wk =   0.0370370
        k(   11) = (   0.0000000   1.1547005   0.5956165), wk =   0.0370370
        k(   12) = (   0.0000000   1.1547005  -0.8934247), wk =   0.0185185
        k(   13) = (   0.0000000  -1.7320508   0.0000000), wk =   0.0185185
        k(   14) = (   0.0000000  -1.7320508   0.2978082), wk =   0.0370370
        k(   15) = (   0.0000000  -1.7320508   0.5956165), wk =   0.0370370
        k(   16) = (   0.0000000  -1.7320508  -0.8934247), wk =   0.0185185
        k(   17) = (   0.1666667   0.0962250   0.0000000), wk =   0.0185185
        k(   18) = (   0.1666667   0.0962250   0.2978082), wk =   0.0185185
        k(   19) = (   0.1666667   0.0962250   0.5956165), wk =   0.0185185
        k(   20) = (   0.1666667   0.0962250  -0.8934247), wk =   0.0185185
        k(   21) = (   0.1666667   0.6735753   0.0000000), wk =   0.0370370
        k(   22) = (   0.1666667   0.6735753   0.2978082), wk =   0.0370370
        k(   23) = (   0.1666667   0.6735753   0.5956165), wk =   0.0370370
        k(   24) = (   0.1666667   0.6735753  -0.8934247), wk =   0.0370370
        k(   25) = (   0.1666667   1.2509256   0.0000000), wk =   0.0370370
        k(   26) = (   0.1666667   1.2509256   0.2978082), wk =   0.0370370
        k(   27) = (   0.1666667   1.2509256   0.5956165), wk =   0.0370370
        k(   28) = (   0.1666667   1.2509256  -0.8934247), wk =   0.0370370
        k(   29) = (   0.1666667  -1.6358258   0.0000000), wk =   0.0370370
        k(   30) = (   0.1666667  -1.6358258   0.2978082), wk =   0.0370370
        k(   31) = (   0.1666667  -1.6358258   0.5956165), wk =   0.0370370
        k(   32) = (   0.1666667  -1.6358258  -0.8934247), wk =   0.0370370
        k(   33) = (   0.1666667  -0.4811252   0.0000000), wk =   0.0370370
        k(   34) = (   0.1666667  -0.4811252   0.2978082), wk =   0.0370370
        k(   35) = (   0.1666667  -0.4811252   0.5956165), wk =   0.0370370
        k(   36) = (   0.1666667  -0.4811252  -0.8934247), wk =   0.0370370
        k(   37) = (   0.3333333   0.1924501   0.0000000), wk =   0.0185185
        k(   38) = (   0.3333333   0.1924501   0.2978082), wk =   0.0185185
        k(   39) = (   0.3333333   0.1924501   0.5956165), wk =   0.0185185
        k(   40) = (   0.3333333   0.1924501  -0.8934247), wk =   0.0185185
        k(   41) = (   0.3333333   1.3471506   0.0000000), wk =   0.0370370
        k(   42) = (   0.3333333   1.3471506   0.2978082), wk =   0.0370370
        k(   43) = (   0.3333333   1.3471506   0.5956165), wk =   0.0370370
        k(   44) = (   0.3333333   1.3471506  -0.8934247), wk =   0.0370370
        k(   45) = (  -0.5000000  -0.2886751   0.0000000), wk =   0.0092593
        k(   46) = (  -0.5000000  -0.2886751   0.2978082), wk =   0.0185185
        k(   47) = (  -0.5000000  -0.2886751   0.5956165), wk =   0.0185185
        k(   48) = (  -0.5000000  -0.2886751  -0.8934247), wk =   0.0092593
        k(   49) = (  -0.5000000   0.8660254   0.0000000), wk =   0.0185185
        k(   50) = (  -0.5000000   0.8660254   0.2978082), wk =   0.0370370
        k(   51) = (  -0.5000000   0.8660254   0.5956165), wk =   0.0370370
        k(   52) = (  -0.5000000   0.8660254  -0.8934247), wk =   0.0185185
        k(   53) = (   0.5000000  -0.2886751  -0.2978082), wk =   0.0370370
        k(   54) = (   0.5000000  -0.2886751  -0.5956165), wk =   0.0370370
        k(   55) = (   0.1666667   0.0962250  -0.2978082), wk =   0.0185185
        k(   56) = (   0.1666667   0.0962250  -0.5956165), wk =   0.0185185
        k(   57) = (   0.6666667  -0.1924501  -0.2978082), wk =   0.0370370
        k(   58) = (   0.6666667  -0.1924501  -0.5956165), wk =   0.0370370
        k(   59) = (   1.1666667  -0.4811252  -0.2978082), wk =   0.0370370
        k(   60) = (   1.1666667  -0.4811252  -0.5956165), wk =   0.0370370
        k(   61) = (  -1.3333333   0.9622504  -0.2978082), wk =   0.0370370
        k(   62) = (  -1.3333333   0.9622504  -0.5956165), wk =   0.0370370
        k(   63) = (  -0.3333333   0.3849002  -0.2978082), wk =   0.0370370
        k(   64) = (  -0.3333333   0.3849002  -0.5956165), wk =   0.0370370
        k(   65) = (   0.3333333   0.1924501  -0.2978082), wk =   0.0185185
        k(   66) = (   0.3333333   0.1924501  -0.5956165), wk =   0.0185185
        k(   67) = (   1.3333333  -0.3849002  -0.2978082), wk =   0.0370370
        k(   68) = (   1.3333333  -0.3849002  -0.5956165), wk =   0.0370370

                       cryst. coord.
        k(    1) = (   0.0000000   0.0000000   0.0000000), wk =   0.0092593
        k(    2) = (   0.0000000   0.0000000   0.1666667), wk =   0.0185185
        k(    3) = (   0.0000000   0.0000000   0.3333333), wk =   0.0185185
        k(    4) = (   0.0000000   0.0000000  -0.5000000), wk =   0.0092593
        k(    5) = (   0.0000000   0.1666667   0.0000000), wk =   0.0370370
        k(    6) = (   0.0000000   0.1666667   0.1666667), wk =   0.0370370
        k(    7) = (   0.0000000   0.1666667   0.3333333), wk =   0.0370370
        k(    8) = (   0.0000000   0.1666667  -0.5000000), wk =   0.0370370
        k(    9) = (   0.0000000   0.3333333   0.0000000), wk =   0.0185185
        k(   10) = (   0.0000000   0.3333333   0.1666667), wk =   0.0370370
        k(   11) = (   0.0000000   0.3333333   0.3333333), wk =   0.0370370
        k(   12) = (   0.0000000   0.3333333  -0.5000000), wk =   0.0185185
        k(   13) = (   0.0000000  -0.5000000   0.0000000), wk =   0.0185185
        k(   14) = (   0.0000000  -0.5000000   0.1666667), wk =   0.0370370
        k(   15) = (   0.0000000  -0.5000000   0.3333333), wk =   0.0370370
        k(   16) = (   0.0000000  -0.5000000  -0.5000000), wk =   0.0185185
        k(   17) = (   0.1666667   0.0000000   0.0000000), wk =   0.0185185
        k(   18) = (   0.1666667   0.0000000   0.1666667), wk =   0.0185185
        k(   19) = (   0.1666667   0.0000000   0.3333333), wk =   0.0185185
        k(   20) = (   0.1666667   0.0000000  -0.5000000), wk =   0.0185185
        k(   21) = (   0.1666667   0.1666667   0.0000000), wk =   0.0370370
        k(   22) = (   0.1666667   0.1666667   0.1666667), wk =   0.0370370
        k(   23) = (   0.1666667   0.1666667   0.3333333), wk =   0.0370370
        k(   24) = (   0.1666667   0.1666667  -0.5000000), wk =   0.0370370
        k(   25) = (   0.1666667   0.3333333   0.0000000), wk =   0.0370370
        k(   26) = (   0.1666667   0.3333333   0.1666667), wk =   0.0370370
        k(   27) = (   0.1666667   0.3333333   0.3333333), wk =   0.0370370
        k(   28) = (   0.1666667   0.3333333  -0.5000000), wk =   0.0370370
        k(   29) = (   0.1666667  -0.5000000   0.0000000), wk =   0.0370370
        k(   30) = (   0.1666667  -0.5000000   0.1666667), wk =   0.0370370
        k(   31) = (   0.1666667  -0.5000000   0.3333333), wk =   0.0370370
        k(   32) = (   0.1666667  -0.5000000  -0.5000000), wk =   0.0370370
        k(   33) = (   0.1666667  -0.1666667   0.0000000), wk =   0.0370370
        k(   34) = (   0.1666667  -0.1666667   0.1666667), wk =   0.0370370
        k(   35) = (   0.1666667  -0.1666667   0.3333333), wk =   0.0370370
        k(   36) = (   0.1666667  -0.1666667  -0.5000000), wk =   0.0370370
        k(   37) = (   0.3333333   0.0000000   0.0000000), wk =   0.0185185
        k(   38) = (   0.3333333   0.0000000   0.1666667), wk =   0.0185185
        k(   39) = (   0.3333333   0.0000000   0.3333333), wk =   0.0185185
        k(   40) = (   0.3333333   0.0000000  -0.5000000), wk =   0.0185185
        k(   41) = (   0.3333333   0.3333333   0.0000000), wk =   0.0370370
        k(   42) = (   0.3333333   0.3333333   0.1666667), wk =   0.0370370
        k(   43) = (   0.3333333   0.3333333   0.3333333), wk =   0.0370370
        k(   44) = (   0.3333333   0.3333333  -0.5000000), wk =   0.0370370
        k(   45) = (  -0.5000000  -0.0000000   0.0000000), wk =   0.0092593
        k(   46) = (  -0.5000000  -0.0000000   0.1666667), wk =   0.0185185
        k(   47) = (  -0.5000000  -0.0000000   0.3333333), wk =   0.0185185
        k(   48) = (  -0.5000000  -0.0000000  -0.5000000), wk =   0.0092593
        k(   49) = (  -0.5000000   0.3333333   0.0000000), wk =   0.0185185
        k(   50) = (  -0.5000000   0.3333333   0.1666667), wk =   0.0370370
        k(   51) = (  -0.5000000   0.3333333   0.3333333), wk =   0.0370370
        k(   52) = (  -0.5000000   0.3333333  -0.5000000), wk =   0.0185185
        k(   53) = (   0.5000000  -0.1666667  -0.1666667), wk =   0.0370370
        k(   54) = (   0.5000000  -0.1666667  -0.3333333), wk =   0.0370370
        k(   55) = (   0.1666667  -0.0000000  -0.1666667), wk =   0.0185185
        k(   56) = (   0.1666667  -0.0000000  -0.3333333), wk =   0.0185185
        k(   57) = (   0.6666667  -0.1666667  -0.1666667), wk =   0.0370370
        k(   58) = (   0.6666667  -0.1666667  -0.3333333), wk =   0.0370370
        k(   59) = (   1.1666667  -0.3333333  -0.1666667), wk =   0.0370370
        k(   60) = (   1.1666667  -0.3333333  -0.3333333), wk =   0.0370370
        k(   61) = (  -1.3333333   0.5000000  -0.1666667), wk =   0.0370370
        k(   62) = (  -1.3333333   0.5000000  -0.3333333), wk =   0.0370370
        k(   63) = (  -0.3333333   0.1666667  -0.1666667), wk =   0.0370370
        k(   64) = (  -0.3333333   0.1666667  -0.3333333), wk =   0.0370370
        k(   65) = (   0.3333333  -0.0000000  -0.1666667), wk =   0.0185185
        k(   66) = (   0.3333333  -0.0000000  -0.3333333), wk =   0.0185185
        k(   67) = (   1.3333333  -0.3333333  -0.1666667), wk =   0.0370370
        k(   68) = (   1.3333333  -0.3333333  -0.3333333), wk =   0.0370370

     Check: negative core charge=   -0.000002

     Initial potential from superposition of free atoms

     starting charge     107.9776, renormalised to     108.0000
     Starting wfcs are   78 randomized atomic wfcs

     Self-consistent Calculation

     iteration #  1     ecut=    50.00 Ry     beta= 0.30
     Davidson diagonalization with overlap

     ethr =  1.00E-02,  avg # of iterations =  2.0

     total energy              =   -1084.43502703 Ry
     estimated scf accuracy    <       2.05944962 Ry

[...]

     c_bands:  1 eigenvalues not converged
     ethr =  4.42E-08,  avg # of iterations = 16.9

[...]

     total energy              =   -1084.89947763 Ry
     estimated scf accuracy    <       0.00000001 Ry

     iteration # 31     ecut=    50.00 Ry     beta= 0.30
     Davidson diagonalization with overlap

     ethr =  1.13E-11,  avg # of iterations =  7.7

     End of self-consistent calculation

          k = 0.0000 0.0000 0.0000 (  5795 PWs)   bands (ev):

   -10.8588 -10.3693 -10.3692 -10.2083  -9.9979  -9.9978   1.1876   1.1876
     1.5032   1.5034   1.5071   1.5337   1.5337   1.5641   1.6744   1.6746
     1.7342   1.7342   1.9624   1.9624   2.0925   2.0926   2.2270   2.2271
     2.6031   2.6031   2.7173   2.7174   2.7886   2.7887   2.8985   2.8985
     2.9291   2.9291   3.1092   3.1092   3.2150   3.3501   3.3501   4.0507
     4.0507   4.9486   4.9486   5.4961   5.4961   6.3598   6.3598   6.5505
     6.5509   6.6000   6.6000   7.0505   7.2452   7.2457

     occupation numbers
     1.0000   1.0000   1.0000   1.0000   1.0000   1.0000   1.0000   1.0000
     1.0000   1.0000   1.0000   1.0000   1.0000   1.0000   1.0000   1.0000
     1.0000   1.0000   1.0000   1.0000   1.0000   1.0000   1.0000   1.0000
     1.0000   1.0000   1.0000   1.0000   1.0000   1.0000   1.0000   1.0000
     1.0000   1.0000   1.0000   1.0000   1.0000   1.0000   1.0000   1.0000
     1.0000   1.0000   1.0000   1.0000   1.0000   1.0000   1.0000   1.0000
     1.0000   1.0000   1.0000   1.0000   1.0000   1.0000

[...]

          k =-0.5000-0.2887 0.0000 (  5782 PWs)   bands (ev):

[...]

          k =-0.3333 0.3849-0.5956 (  5775 PWs)   bands (ev):

[...]

          k = 1.3333-0.3849-0.5956 (  5777 PWs)   bands (ev):

   -10.3436 -10.1665 -10.1302 -10.0612 -10.0307  -9.9901   1.1932   1.1999
     1.3064   1.3113   1.4075   1.4982   1.7301   1.7698   1.7869   1.8189
     1.9219   1.9349   1.9583   1.9750   2.0690   2.0991   2.1988   2.2166
     2.7284   2.7547   2.7667   2.8017   2.8188   2.8599   2.8813   2.9300
     2.9446   3.0256   3.0314   3.1735   3.4309   3.6466   3.7304   3.9870
     4.1264   4.4728   4.6940   5.0864   5.1988   5.2001   5.3512   5.5189
     5.7519   5.9187   5.9568   6.1221   6.2535   6.3285

     occupation numbers
     1.0000   1.0000   1.0000   1.0000   1.0000   1.0000   1.0000   1.0000
     1.0000   1.0000   1.0000   1.0000   1.0000   1.0000   1.0000   1.0000
     1.0000   1.0000   1.0000   1.0000   1.0000   1.0000   1.0000   1.0000
     1.0000   1.0000   1.0000   1.0000   1.0000   1.0000   1.0000   1.0000
     1.0000   1.0000   1.0000   1.0000   1.0000   1.0000   1.0000   1.0000
     1.0000   1.0000   1.0000   1.0000   1.0000   1.0000   1.0000   1.0000
     1.0000   1.0000   1.0000   1.0000   1.0000   1.0000

     highest occupied level (ev):     7.2457

!    total energy              =   -1084.89947764 Ry
     estimated scf accuracy    <          9.1E-09 Ry

     The total energy is the sum of the following terms:
     one-electron contribution =    -456.29984418 Ry
     hartree contribution      =     352.27751004 Ry
     xc contribution           =    -328.77132207 Ry
     ewald contribution        =    -652.10582143 Ry

     convergence has been achieved in  31 iterations

     Forces acting on atoms (cartesian axes, Ry/au):

     atom    1 type  1   force =     0.00001034    0.00000597    0.01193554
     atom    2 type  1   force =    -0.00000670   -0.00000387    0.01191886
     atom    3 type  2   force =    -0.00000280   -0.00000162   -0.01192927
     atom    4 type  2   force =     0.00000264    0.00000153   -0.01192935
     atom    5 type  1   force =     0.00000177    0.00000102    0.01191949
     atom    6 type  1   force =    -0.00001685   -0.00000973    0.01193703
     atom    7 type  2   force =    -0.00000325   -0.00000188   -0.01192979
     atom    8 type  2   force =     0.00000336    0.00000194   -0.01192924
     atom    9 type  1   force =     0.00000625    0.00000361    0.01193357
     atom   10 type  1   force =     0.00000538    0.00000311    0.01193157
     atom   11 type  2   force =    -0.00000321   -0.00000185   -0.01192902
     atom   12 type  2   force =     0.00000306    0.00000177   -0.01192939
     The non-local contrib.  to forces
     atom    1 type  1   force =    -0.00001086   -0.00000627    0.10645612
     atom    2 type  1   force =     0.00001266    0.00000731    0.10644858
     atom    3 type  2   force =    -0.00019587   -0.00011309    0.10081652
     atom    4 type  2   force =     0.00019715    0.00011383    0.10081669
     atom    5 type  1   force =    -0.00001551   -0.00000896    0.10644943
     atom    6 type  1   force =     0.00000772    0.00000446    0.10645738
     atom    7 type  2   force =    -0.00019773   -0.00011416    0.10081592
     atom    8 type  2   force =     0.00019976    0.00011533    0.10081678
     atom    9 type  1   force =    -0.00001223   -0.00000706    0.10645564
     atom   10 type  1   force =     0.00001866    0.00001077    0.10645509
     atom   11 type  2   force =    -0.00020060   -0.00011581    0.10081666
     atom   12 type  2   force =     0.00019753    0.00011404    0.10081662
     The ionic contribution  to forces
     atom    1 type  1   force =     0.00000001    0.00000001    0.88513272
     atom    2 type  1   force =     0.00000001    0.00000000    0.88513272
     atom    3 type  2   force =     0.00000000    0.00000000   -0.88513272
     atom    4 type  2   force =     0.00000000    0.00000000   -0.88513272
     atom    5 type  1   force =    -0.00000001    0.00000000    0.88513271
     atom    6 type  1   force =     0.00000001   -0.00000000    0.88513271
     atom    7 type  2   force =    -0.00000001    0.00000000   -0.88513271
     atom    8 type  2   force =     0.00000001   -0.00000000   -0.88513271
     atom    9 type  1   force =    -0.00000001   -0.00000000    0.88513272
     atom   10 type  1   force =    -0.00000001   -0.00000001    0.88513272
     atom   11 type  2   force =    -0.00000000   -0.00000000   -0.88513272
     atom   12 type  2   force =    -0.00000000   -0.00000000   -0.88513272
     The local contribution  to forces
     atom    1 type  1   force =     0.00001698    0.00000981   -0.97192724
     atom    2 type  1   force =    -0.00002658   -0.00001539   -0.97189922
     atom    3 type  2   force =     0.00019356    0.00011175    0.77319452
     atom    4 type  2   force =    -0.00019416   -0.00011211    0.77319020
     atom    5 type  1   force =     0.00003346    0.00001942   -0.97190021
     atom    6 type  1   force =    -0.00000611   -0.00000362   -0.97192981
     atom    7 type  2   force =     0.00019573    0.00011303    0.77318962
     atom    8 type  2   force =    -0.00018984   -0.00010963    0.77319456
     atom    9 type  1   force =     0.00002761    0.00001599   -0.97192402
     atom   10 type  1   force =    -0.00004601   -0.00002657   -0.97192046
     atom   11 type  2   force =     0.00018764    0.00010835    0.77319291
     atom   12 type  2   force =    -0.00019416   -0.00011210    0.77319360
     The core correction contribution to forces
     atom    1 type  1   force =    -0.00000685   -0.00000395   -0.00773159
     atom    2 type  1   force =     0.00000719    0.00000414   -0.00773218
     atom    3 type  2   force =     0.00000223    0.00000129   -0.00080588
     atom    4 type  2   force =    -0.00000225   -0.00000130   -0.00080589
     atom    5 type  1   force =    -0.00000720   -0.00000414   -0.00773225
     atom    6 type  1   force =     0.00000666    0.00000383   -0.00773163
     atom    7 type  2   force =     0.00000226    0.00000130   -0.00080589
     atom    8 type  2   force =    -0.00000228   -0.00000132   -0.00080589
     atom    9 type  1   force =    -0.00000730   -0.00000421   -0.00773171
     atom   10 type  1   force =     0.00000747    0.00000431   -0.00773184
     atom   11 type  2   force =     0.00000229    0.00000132   -0.00080589
     atom   12 type  2   force =    -0.00000225   -0.00000130   -0.00080589
     The Hubbard contrib.    to forces
     atom    1 type  1   force =     0.00000000    0.00000000    0.00000000
     atom    2 type  1   force =     0.00000000    0.00000000    0.00000000
     atom    3 type  2   force =     0.00000000    0.00000000    0.00000000
     atom    4 type  2   force =     0.00000000    0.00000000    0.00000000
     atom    5 type  1   force =     0.00000000    0.00000000    0.00000000
     atom    6 type  1   force =     0.00000000    0.00000000    0.00000000
     atom    7 type  2   force =     0.00000000    0.00000000    0.00000000
     atom    8 type  2   force =     0.00000000    0.00000000    0.00000000
     atom    9 type  1   force =     0.00000000    0.00000000    0.00000000
     atom   10 type  1   force =     0.00000000    0.00000000    0.00000000
     atom   11 type  2   force =     0.00000000    0.00000000    0.00000000
     atom   12 type  2   force =     0.00000000    0.00000000    0.00000000
     The SCF correction term to forces
     atom    1 type  1   force =     0.00001110    0.00000641    0.00000405
     atom    2 type  1   force =     0.00000009    0.00000005   -0.00003251
     atom    3 type  2   force =    -0.00000268   -0.00000155   -0.00000319
     atom    4 type  2   force =     0.00000195    0.00000112    0.00000089
     atom    5 type  1   force =    -0.00000898   -0.00000519   -0.00003168
     atom    6 type  1   force =    -0.00002503   -0.00001445    0.00000690
     atom    7 type  2   force =    -0.00000347   -0.00000200    0.00000179
     atom    8 type  2   force =    -0.00000423   -0.00000244   -0.00000346
     atom    9 type  1   force =    -0.00000181   -0.00000104   -0.00000054
     atom   10 type  1   force =     0.00002532    0.00001462   -0.00000542
     atom   11 type  2   force =     0.00000750    0.00000433   -0.00000146
     atom   12 type  2   force =     0.00000199    0.00000115   -0.00000248

     Total force =     0.041324     Total SCF correction =     0.000065

     General routines

     Parallel routines

   This run was terminated on:  18:16: 9  27Aug2025

   JOB DONE.