     Program PWSCF v.7.0 starts on 27Aug2025 at 12:15: 5

     K-points division:     npool     =      17

     Reading input from /home/jvc/QEspresso7.2/ZnO_database/scripts/cell311.in/ZnO-2.94-1.52-311.in
Warning: card &CELL ignored
Warning: card / ignored
Warning: card &FCP ignored
Warning: card / ignored
Warning: card &RISM ignored
Warning: card / ignored

     Current dimensions of program PWSCF are:
     Max number of different atomic species (ntypx) = 10
     Max number of k-points (npk) =  40000
     Max angular momentum in pseudopotentials (lmaxx) =  4
     file Zn.upf: wavefunction(s)  3D renormalized
     Found identity + (  0.3333  0.0000  0.0000) symmetry
     This is a supercell, fractional translations are disabled
     Message from routine setup:
     using ibrav=0 with symmetry is DISCOURAGED, use correct ibrav instead

     Subspace diagonalization in iterative solution of the eigenvalue problem:
     a serial algorithm will be used

     Using Slab Decomposition

     bravais-lattice index     =            0
     lattice parameter (alat)  =      16.6829  a.u.
     unit-cell volume          =     678.0021 (a.u.)^3
     number of atoms/cell      =           12
     number of atomic types    =            2
     number of electrons       =       108.00
     number of Kohn-Sham states=           54
     kinetic-energy cutoff     =      50.0000  Ry
     charge density cutoff     =     400.0000  Ry
     scf convergence threshold =      1.0E-08
     mixing beta               =       0.3000
     number of iterations used =            8  plain     mixing
     Exchange-correlation= PBE
                           (   1   4   3   4   0   0   0)

     celldm(1)=  16.682906  celldm(2)=   0.000000  celldm(3)=   0.000000
     celldm(4)=   0.000000  celldm(5)=   0.000000  celldm(6)=   0.000000

     crystal axes: (cart. coord. in units of alat)
               a(1) = (   1.000000   0.000000   0.000000 )
               a(2) = (  -0.166667   0.288675   0.000000 )
               a(3) = (   0.000000   0.000000   0.505832 )

     reciprocal axes: (cart. coord. in units 2 pi/alat)
               b(1) = (  1.000000  0.577350 -0.000000 )
               b(2) = (  0.000000  3.464102  0.000000 )
               b(3) = (  0.000000 -0.000000  1.976940 )

     PseudoPot. # 1 for Zn read from file:
     /home/jvc/QEspresso7.2/ZnO_database/pseudos/Zn.upf
     MD5 check sum: 7f56cabf9682ed8c977c2f7d0c5985c5
     Pseudo is Ultrasoft + core correction, Zval = 12.0
     Generated using &quot;atomic&quot; code by A. Dal Corso  v.6.2.2
     Using radial grid of 1201 points,  6 beta functions with:
                l(1) =   0
                l(2) =   0
                l(3) =   1
                l(4) =   1
                l(5) =   2
                l(6) =   2
     Q(r) pseudized with 0 coefficients

     PseudoPot. # 2 for O  read from file:
     /home/jvc/QEspresso7.2/ZnO_database/pseudos/O.upf
     MD5 check sum: 91400c9766925bcf19f520983a725ff0
     Pseudo is Ultrasoft + core correction, Zval =  6.0
     Generated using &quot;atomic&quot; code by A. Dal Corso  v.6.3MaX
     Using radial grid of 1095 points,  4 beta functions with:
                l(1) =   0
                l(2) =   0
                l(3) =   1
                l(4) =   1
     Q(r) pseudized with 0 coefficients

     atomic species   valence    mass     pseudopotential
        Zn            12.00    65.38000     Zn( 1.00)
        O              6.00    15.99900     O ( 1.00)

      2 Sym. Ops. (no inversion) found

                                    s                        frac. trans.

      isym =  1     identity

 cryst.   s( 1) = (     1          0          0      )
                  (     0          1          0      )
                  (     0          0          1      )

 cart.    s( 1) = (  1.0000000  0.0000000  0.0000000 )
                  (  0.0000000  1.0000000  0.0000000 )
                  (  0.0000000  0.0000000  1.0000000 )

      isym =  2     inv. 180 deg rotation - cryst. axis [0,1,0]

 cryst.   s( 2) = (     1          3          0      )
                  (     0         -1          0      )
                  (     0          0          1      )

 cart.    s( 2) = (  0.5000000  0.8660254  0.0000000 )
                  (  0.8660254 -0.5000000  0.0000000 )
                  (  0.0000000  0.0000000  1.0000000 )

   Cartesian axes

     site n.     atom                  positions (alat units)
         1           Zn  tau(   1) = (   0.1666667   0.0962250   0.2532366  )
         2           Zn  tau(   2) = (  -0.0000000   0.1924501   0.0003205  )
         3           O   tau(   3) = (   0.1666667   0.0962250   0.4449687  )
         4           O   tau(   4) = (  -0.0000000   0.1924501   0.1920526  )
         5           Zn  tau(   5) = (   0.5000000   0.0962250   0.2532366  )
         6           Zn  tau(   6) = (   0.3333333   0.1924501   0.0003205  )
         7           O   tau(   7) = (   0.5000000   0.0962250   0.4449687  )
         8           O   tau(   8) = (   0.3333333   0.1924501   0.1920526  )
         9           Zn  tau(   9) = (   0.8333333   0.0962250   0.2532366  )
        10           Zn  tau(  10) = (   0.6666667   0.1924501   0.0003205  )
        11           O   tau(  11) = (   0.8333333   0.0962250   0.4449687  )
        12           O   tau(  12) = (   0.6666667   0.1924501   0.1920526  )

   Crystallographic axes

     site n.     atom                  positions (cryst. coord.)
         1           Zn  tau(   1) = (  0.2222222  0.3333333  0.5006336  )
         2           Zn  tau(   2) = (  0.1111111  0.6666667  0.0006336  )
         3           O   tau(   3) = (  0.2222222  0.3333333  0.8796764  )
         4           O   tau(   4) = (  0.1111111  0.6666667  0.3796764  )
         5           Zn  tau(   5) = (  0.5555556  0.3333333  0.5006336  )
         6           Zn  tau(   6) = (  0.4444444  0.6666667  0.0006336  )
         7           O   tau(   7) = (  0.5555556  0.3333333  0.8796764  )
         8           O   tau(   8) = (  0.4444444  0.6666667  0.3796764  )
         9           Zn  tau(   9) = (  0.8888889  0.3333333  0.5006336  )
        10           Zn  tau(  10) = (  0.7777778  0.6666667  0.0006336  )
        11           O   tau(  11) = (  0.8888889  0.3333333  0.8796764  )
        12           O   tau(  12) = (  0.7777778  0.6666667  0.3796764  )

     number of k points=    68
                       cart. coord. in units 2pi/alat
        k(    1) = (   0.0000000   0.0000000   0.0000000), wk =   0.0092593
        k(    2) = (   0.0000000   0.0000000   0.3294900), wk =   0.0185185
        k(    3) = (   0.0000000   0.0000000   0.6589799), wk =   0.0185185
        k(    4) = (   0.0000000   0.0000000  -0.9884699), wk =   0.0092593
        k(    5) = (   0.0000000   0.5773503   0.0000000), wk =   0.0370370
        k(    6) = (   0.0000000   0.5773503   0.3294900), wk =   0.0370370
        k(    7) = (   0.0000000   0.5773503   0.6589799), wk =   0.0370370
        k(    8) = (   0.0000000   0.5773503  -0.9884699), wk =   0.0370370
        k(    9) = (   0.0000000   1.1547005   0.0000000), wk =   0.0185185
        k(   10) = (   0.0000000   1.1547005   0.3294900), wk =   0.0370370
        k(   11) = (   0.0000000   1.1547005   0.6589799), wk =   0.0370370
        k(   12) = (   0.0000000   1.1547005  -0.9884699), wk =   0.0185185
        k(   13) = (   0.0000000  -1.7320508   0.0000000), wk =   0.0185185
        k(   14) = (   0.0000000  -1.7320508   0.3294900), wk =   0.0370370
        k(   15) = (   0.0000000  -1.7320508   0.6589799), wk =   0.0370370
        k(   16) = (   0.0000000  -1.7320508  -0.9884699), wk =   0.0185185
        k(   17) = (   0.1666667   0.0962250   0.0000000), wk =   0.0185185
        k(   18) = (   0.1666667   0.0962250   0.3294900), wk =   0.0185185
        k(   19) = (   0.1666667   0.0962250   0.6589799), wk =   0.0185185
        k(   20) = (   0.1666667   0.0962250  -0.9884699), wk =   0.0185185
        k(   21) = (   0.1666667   0.6735753   0.0000000), wk =   0.0370370
        k(   22) = (   0.1666667   0.6735753   0.3294900), wk =   0.0370370
        k(   23) = (   0.1666667   0.6735753   0.6589799), wk =   0.0370370
        k(   24) = (   0.1666667   0.6735753  -0.9884699), wk =   0.0370370
        k(   25) = (   0.1666667   1.2509256   0.0000000), wk =   0.0370370
        k(   26) = (   0.1666667   1.2509256   0.3294900), wk =   0.0370370
        k(   27) = (   0.1666667   1.2509256   0.6589799), wk =   0.0370370
        k(   28) = (   0.1666667   1.2509256  -0.9884699), wk =   0.0370370
        k(   29) = (   0.1666667  -1.6358258   0.0000000), wk =   0.0370370
        k(   30) = (   0.1666667  -1.6358258   0.3294900), wk =   0.0370370
        k(   31) = (   0.1666667  -1.6358258   0.6589799), wk =   0.0370370
        k(   32) = (   0.1666667  -1.6358258  -0.9884699), wk =   0.0370370
        k(   33) = (   0.1666667  -0.4811252   0.0000000), wk =   0.0370370
        k(   34) = (   0.1666667  -0.4811252   0.3294900), wk =   0.0370370
        k(   35) = (   0.1666667  -0.4811252   0.6589799), wk =   0.0370370
        k(   36) = (   0.1666667  -0.4811252  -0.9884699), wk =   0.0370370
        k(   37) = (   0.3333333   0.1924501   0.0000000), wk =   0.0185185
        k(   38) = (   0.3333333   0.1924501   0.3294900), wk =   0.0185185
        k(   39) = (   0.3333333   0.1924501   0.6589799), wk =   0.0185185
        k(   40) = (   0.3333333   0.1924501  -0.9884699), wk =   0.0185185
        k(   41) = (   0.3333333   1.3471506   0.0000000), wk =   0.0370370
        k(   42) = (   0.3333333   1.3471506   0.3294900), wk =   0.0370370
        k(   43) = (   0.3333333   1.3471506   0.6589799), wk =   0.0370370
        k(   44) = (   0.3333333   1.3471506  -0.9884699), wk =   0.0370370
        k(   45) = (  -0.5000000  -0.2886751   0.0000000), wk =   0.0092593
        k(   46) = (  -0.5000000  -0.2886751   0.3294900), wk =   0.0185185
        k(   47) = (  -0.5000000  -0.2886751   0.6589799), wk =   0.0185185
        k(   48) = (  -0.5000000  -0.2886751  -0.9884699), wk =   0.0092593
        k(   49) = (  -0.5000000   0.8660254   0.0000000), wk =   0.0185185
        k(   50) = (  -0.5000000   0.8660254   0.3294900), wk =   0.0370370
        k(   51) = (  -0.5000000   0.8660254   0.6589799), wk =   0.0370370
        k(   52) = (  -0.5000000   0.8660254  -0.9884699), wk =   0.0185185
        k(   53) = (   0.5000000  -0.2886751  -0.3294900), wk =   0.0370370
        k(   54) = (   0.5000000  -0.2886751  -0.6589799), wk =   0.0370370
        k(   55) = (   0.1666667   0.0962250  -0.3294900), wk =   0.0185185
        k(   56) = (   0.1666667   0.0962250  -0.6589799), wk =   0.0185185
        k(   57) = (   0.6666667  -0.1924501  -0.3294900), wk =   0.0370370
        k(   58) = (   0.6666667  -0.1924501  -0.6589799), wk =   0.0370370
        k(   59) = (   1.1666667  -0.4811252  -0.3294900), wk =   0.0370370
        k(   60) = (   1.1666667  -0.4811252  -0.6589799), wk =   0.0370370
        k(   61) = (  -1.3333333   0.9622504  -0.3294900), wk =   0.0370370
        k(   62) = (  -1.3333333   0.9622504  -0.6589799), wk =   0.0370370
        k(   63) = (  -0.3333333   0.3849002  -0.3294900), wk =   0.0370370
        k(   64) = (  -0.3333333   0.3849002  -0.6589799), wk =   0.0370370
        k(   65) = (   0.3333333   0.1924501  -0.3294900), wk =   0.0185185
        k(   66) = (   0.3333333   0.1924501  -0.6589799), wk =   0.0185185
        k(   67) = (   1.3333333  -0.3849002  -0.3294900), wk =   0.0370370
        k(   68) = (   1.3333333  -0.3849002  -0.6589799), wk =   0.0370370

                       cryst. coord.
        k(    1) = (   0.0000000   0.0000000   0.0000000), wk =   0.0092593
        k(    2) = (   0.0000000   0.0000000   0.1666667), wk =   0.0185185
        k(    3) = (   0.0000000   0.0000000   0.3333333), wk =   0.0185185
        k(    4) = (   0.0000000   0.0000000  -0.5000000), wk =   0.0092593
        k(    5) = (   0.0000000   0.1666667   0.0000000), wk =   0.0370370
        k(    6) = (   0.0000000   0.1666667   0.1666667), wk =   0.0370370
        k(    7) = (   0.0000000   0.1666667   0.3333333), wk =   0.0370370
        k(    8) = (   0.0000000   0.1666667  -0.5000000), wk =   0.0370370
        k(    9) = (   0.0000000   0.3333333   0.0000000), wk =   0.0185185
        k(   10) = (   0.0000000   0.3333333   0.1666667), wk =   0.0370370
        k(   11) = (   0.0000000   0.3333333   0.3333333), wk =   0.0370370
        k(   12) = (   0.0000000   0.3333333  -0.5000000), wk =   0.0185185
        k(   13) = (   0.0000000  -0.5000000   0.0000000), wk =   0.0185185
        k(   14) = (   0.0000000  -0.5000000   0.1666667), wk =   0.0370370
        k(   15) = (   0.0000000  -0.5000000   0.3333333), wk =   0.0370370
        k(   16) = (   0.0000000  -0.5000000  -0.5000000), wk =   0.0185185
        k(   17) = (   0.1666667   0.0000000   0.0000000), wk =   0.0185185
        k(   18) = (   0.1666667   0.0000000   0.1666667), wk =   0.0185185
        k(   19) = (   0.1666667   0.0000000   0.3333333), wk =   0.0185185
        k(   20) = (   0.1666667   0.0000000  -0.5000000), wk =   0.0185185
        k(   21) = (   0.1666667   0.1666667   0.0000000), wk =   0.0370370
        k(   22) = (   0.1666667   0.1666667   0.1666667), wk =   0.0370370
        k(   23) = (   0.1666667   0.1666667   0.3333333), wk =   0.0370370
        k(   24) = (   0.1666667   0.1666667  -0.5000000), wk =   0.0370370
        k(   25) = (   0.1666667   0.3333333   0.0000000), wk =   0.0370370
        k(   26) = (   0.1666667   0.3333333   0.1666667), wk =   0.0370370
        k(   27) = (   0.1666667   0.3333333   0.3333333), wk =   0.0370370
        k(   28) = (   0.1666667   0.3333333  -0.5000000), wk =   0.0370370
        k(   29) = (   0.1666667  -0.5000000   0.0000000), wk =   0.0370370
        k(   30) = (   0.1666667  -0.5000000   0.1666667), wk =   0.0370370
        k(   31) = (   0.1666667  -0.5000000   0.3333333), wk =   0.0370370
        k(   32) = (   0.1666667  -0.5000000  -0.5000000), wk =   0.0370370
        k(   33) = (   0.1666667  -0.1666667   0.0000000), wk =   0.0370370
        k(   34) = (   0.1666667  -0.1666667   0.1666667), wk =   0.0370370
        k(   35) = (   0.1666667  -0.1666667   0.3333333), wk =   0.0370370
        k(   36) = (   0.1666667  -0.1666667  -0.5000000), wk =   0.0370370
        k(   37) = (   0.3333333   0.0000000   0.0000000), wk =   0.0185185
        k(   38) = (   0.3333333   0.0000000   0.1666667), wk =   0.0185185
        k(   39) = (   0.3333333   0.0000000   0.3333333), wk =   0.0185185
        k(   40) = (   0.3333333   0.0000000  -0.5000000), wk =   0.0185185
        k(   41) = (   0.3333333   0.3333333   0.0000000), wk =   0.0370370
        k(   42) = (   0.3333333   0.3333333   0.1666667), wk =   0.0370370
        k(   43) = (   0.3333333   0.3333333   0.3333333), wk =   0.0370370
        k(   44) = (   0.3333333   0.3333333  -0.5000000), wk =   0.0370370
        k(   45) = (  -0.5000000  -0.0000000   0.0000000), wk =   0.0092593
        k(   46) = (  -0.5000000  -0.0000000   0.1666667), wk =   0.0185185
        k(   47) = (  -0.5000000  -0.0000000   0.3333333), wk =   0.0185185
        k(   48) = (  -0.5000000  -0.0000000  -0.5000000), wk =   0.0092593
        k(   49) = (  -0.5000000   0.3333333   0.0000000), wk =   0.0185185
        k(   50) = (  -0.5000000   0.3333333   0.1666667), wk =   0.0370370
        k(   51) = (  -0.5000000   0.3333333   0.3333333), wk =   0.0370370
        k(   52) = (  -0.5000000   0.3333333  -0.5000000), wk =   0.0185185
        k(   53) = (   0.5000000  -0.1666667  -0.1666667), wk =   0.0370370
        k(   54) = (   0.5000000  -0.1666667  -0.3333333), wk =   0.0370370
        k(   55) = (   0.1666667   0.0000000  -0.1666667), wk =   0.0185185
        k(   56) = (   0.1666667   0.0000000  -0.3333333), wk =   0.0185185
        k(   57) = (   0.6666667  -0.1666667  -0.1666667), wk =   0.0370370
        k(   58) = (   0.6666667  -0.1666667  -0.3333333), wk =   0.0370370
        k(   59) = (   1.1666667  -0.3333333  -0.1666667), wk =   0.0370370
        k(   60) = (   1.1666667  -0.3333333  -0.3333333), wk =   0.0370370
        k(   61) = (  -1.3333333   0.5000000  -0.1666667), wk =   0.0370370
        k(   62) = (  -1.3333333   0.5000000  -0.3333333), wk =   0.0370370
        k(   63) = (  -0.3333333   0.1666667  -0.1666667), wk =   0.0370370
        k(   64) = (  -0.3333333   0.1666667  -0.3333333), wk =   0.0370370
        k(   65) = (   0.3333333   0.0000000  -0.1666667), wk =   0.0185185
        k(   66) = (   0.3333333   0.0000000  -0.3333333), wk =   0.0185185
        k(   67) = (   1.3333333  -0.3333333  -0.1666667), wk =   0.0370370
        k(   68) = (   1.3333333  -0.3333333  -0.3333333), wk =   0.0370370

     Initial potential from superposition of free atoms

     starting charge     107.9776, renormalised to     108.0000
     Starting wfcs are   78 randomized atomic wfcs

     Self-consistent Calculation

     iteration #  1     ecut=    50.00 Ry     beta= 0.30
     Davidson diagonalization with overlap

     ethr =  1.00E-02,  avg # of iterations =  2.4

     total energy              =   -1083.57682689 Ry
     estimated scf accuracy    <       2.12619535 Ry

[...]

     total energy              =   -1083.95232545 Ry
     estimated scf accuracy    <       0.00000023 Ry

     iteration # 24     ecut=    50.00 Ry     beta= 0.30
     Davidson diagonalization with overlap

     ethr =  1.88E-11,  avg # of iterations =  8.1

     End of self-consistent calculation

          k = 0.0000 0.0000 0.0000 (  4073 PWs)   bands (ev):

    -7.9677  -7.0945  -7.0945  -6.3980  -6.1802  -6.1802   4.7511   4.7511
     4.9064   5.2749   5.2749   5.5478   5.5480   5.6397   5.8576   5.8576
     5.8888   5.8888   5.9215   5.9216   6.4660   6.4660   6.5668   6.5668
     7.6880   7.6880   7.9392   7.9392   8.1135   8.1135   8.2907   8.2907
     8.4712   8.4713   8.5654   8.5654   8.9380   9.2612   9.2612   9.6173
     9.6173  10.5535  10.5535  11.0168  11.0168  12.2088  12.2090  12.5484
    12.5484  12.7931  12.7931  13.6345  13.7007  13.7009

     occupation numbers
     1.0000   1.0000   1.0000   1.0000   1.0000   1.0000   1.0000   1.0000
     1.0000   1.0000   1.0000   1.0000   1.0000   1.0000   1.0000   1.0000
     1.0000   1.0000   1.0000   1.0000   1.0000   1.0000   1.0000   1.0000
     1.0000   1.0000   1.0000   1.0000   1.0000   1.0000   1.0000   1.0000
     1.0000   1.0000   1.0000   1.0000   1.0000   1.0000   1.0000   1.0000
     1.0000   1.0000   1.0000   1.0000   1.0000   1.0000   1.0000   1.0000
     1.0000   1.0000   1.0000   1.0000   1.0000   1.0000

[...]

          k =-0.5000-0.2887 0.0000 (  4046 PWs)   bands (ev):

[...]

          k =-0.3333 0.3849-0.6590 (  4045 PWs)   bands (ev):

[...]

          k = 1.3333-0.3849-0.6590 (  4044 PWs)   bands (ev):

    -6.9727  -6.6478  -6.4461  -6.4445  -6.3088  -6.2682   4.5173   4.6169
     4.6205   4.6911   4.7796   4.8187   5.6405   5.7873   5.7955   5.8477
     5.8724   5.9386   6.0747   6.2444   6.3095   6.4671   6.5348   6.5965
     8.0237   8.0470   8.1085   8.1959   8.2096   8.3146   8.4392   8.4943
     8.5253   8.6402   8.6530   8.8800   9.0614   9.2741   9.4332   9.8261
     9.8478  10.0864  10.5672  10.6836  10.8917  11.0326  11.1100  11.2598
    11.4732  11.7951  12.1301  12.2955  12.3991  12.6744

     occupation numbers
     1.0000   1.0000   1.0000   1.0000   1.0000   1.0000   1.0000   1.0000
     1.0000   1.0000   1.0000   1.0000   1.0000   1.0000   1.0000   1.0000
     1.0000   1.0000   1.0000   1.0000   1.0000   1.0000   1.0000   1.0000
     1.0000   1.0000   1.0000   1.0000   1.0000   1.0000   1.0000   1.0000
     1.0000   1.0000   1.0000   1.0000   1.0000   1.0000   1.0000   1.0000
     1.0000   1.0000   1.0000   1.0000   1.0000   1.0000   1.0000   1.0000
     1.0000   1.0000   1.0000   1.0000   1.0000   1.0000

     highest occupied level (ev):    13.7009

!    total energy              =   -1083.95232549 Ry
     estimated scf accuracy    <          6.0E-10 Ry

     The total energy is the sum of the following terms:
     one-electron contribution =    -328.45874827 Ry
     hartree contribution      =     309.55999814 Ry
     xc contribution           =    -331.59653038 Ry
     ewald contribution        =    -733.45704498 Ry

     convergence has been achieved in  24 iterations

     Forces acting on atoms (cartesian axes, Ry/au):

     atom    1 type  1   force =     0.00001670    0.00000964   -0.10227800
     atom    2 type  1   force =    -0.00001689   -0.00000975   -0.10227617
     atom    3 type  2   force =    -0.00000188   -0.00000108    0.10227791
     atom    4 type  2   force =     0.00000215    0.00000124    0.10227737
     atom    5 type  1   force =     0.00001618    0.00000934   -0.10227789
     atom    6 type  1   force =    -0.00001746   -0.00001008   -0.10227825
     atom    7 type  2   force =    -0.00000206   -0.00000119    0.10227761
     atom    8 type  2   force =     0.00000240    0.00000138    0.10227739
     atom    9 type  1   force =     0.00001648    0.00000952   -0.10227939
     atom   10 type  1   force =    -0.00001547   -0.00000893   -0.10227543
     atom   11 type  2   force =    -0.00000250   -0.00000144    0.10227762
     atom   12 type  2   force =     0.00000234    0.00000135    0.10227722
     The non-local contrib.  to forces
     atom    1 type  1   force =    -0.00002495   -0.00001440   -0.22286658
     atom    2 type  1   force =     0.00002450    0.00001414   -0.22286587
     atom    3 type  2   force =    -0.00014224   -0.00008212   -0.11663887
     atom    4 type  2   force =     0.00014308    0.00008261   -0.11663884
     atom    5 type  1   force =    -0.00002490   -0.00001438   -0.22286675
     atom    6 type  1   force =     0.00002456    0.00001418   -0.22286690
     atom    7 type  2   force =    -0.00014276   -0.00008242   -0.11663917
     atom    8 type  2   force =     0.00014245    0.00008225   -0.11663897
     atom    9 type  1   force =    -0.00002481   -0.00001432   -0.22286755
     atom   10 type  1   force =     0.00002551    0.00001473   -0.22286556
     atom   11 type  2   force =    -0.00014238   -0.00008220   -0.11663934
     atom   12 type  2   force =     0.00014214    0.00008207   -0.11663902
     The ionic contribution  to forces
     atom    1 type  1   force =     0.00000001    0.00000001   -1.55809773
     atom    2 type  1   force =     0.00000001    0.00000000   -1.55809773
     atom    3 type  2   force =     0.00000000    0.00000000    1.55809773
     atom    4 type  2   force =     0.00000001    0.00000000    1.55809773
     atom    5 type  1   force =    -0.00000002    0.00000000   -1.55809773
     atom    6 type  1   force =     0.00000002   -0.00000000   -1.55809773
     atom    7 type  2   force =    -0.00000001    0.00000001    1.55809773
     atom    8 type  2   force =     0.00000001   -0.00000001    1.55809773
     atom    9 type  1   force =    -0.00000001   -0.00000000   -1.55809773
     atom   10 type  1   force =    -0.00000001   -0.00000001   -1.55809773
     atom   11 type  2   force =    -0.00000001   -0.00000000    1.55809773
     atom   12 type  2   force =    -0.00000000   -0.00000000    1.55809773
     The local contribution  to forces
     atom    1 type  1   force =     0.00004380    0.00002529    1.65470651
     atom    2 type  1   force =    -0.00004249   -0.00002457    1.65470472
     atom    3 type  2   force =     0.00013742    0.00007934   -1.33966103
     atom    4 type  2   force =    -0.00013844   -0.00007994   -1.33965921
     atom    5 type  1   force =     0.00004356    0.00002524    1.65470671
     atom    6 type  1   force =    -0.00004263   -0.00002470    1.65470707
     atom    7 type  2   force =     0.00013994    0.00008082   -1.33965880
     atom    8 type  2   force =    -0.00013934   -0.00008047   -1.33966068
     atom    9 type  1   force =     0.00004369    0.00002527    1.65470858
     atom   10 type  1   force =    -0.00004536   -0.00002619    1.65470342
     atom   11 type  2   force =     0.00013776    0.00007955   -1.33966241
     atom   12 type  2   force =    -0.00013847   -0.00007994   -1.33965694
     The core correction contribution to forces
     atom    1 type  1   force =    -0.00000221   -0.00000128    0.02398714
     atom    2 type  1   force =     0.00000221    0.00000127    0.02398714
     atom    3 type  2   force =     0.00000161    0.00000093    0.00047828
     atom    4 type  2   force =    -0.00000163   -0.00000094    0.00047829
     atom    5 type  1   force =    -0.00000219   -0.00000125    0.02398714
     atom    6 type  1   force =     0.00000222    0.00000127    0.02398717
     atom    7 type  2   force =     0.00000163    0.00000094    0.00047830
     atom    8 type  2   force =    -0.00000162   -0.00000094    0.00047829
     atom    9 type  1   force =    -0.00000222   -0.00000127    0.02398717
     atom   10 type  1   force =     0.00000222    0.00000128    0.02398714
     atom   11 type  2   force =     0.00000161    0.00000093    0.00047829
     atom   12 type  2   force =    -0.00000161   -0.00000093    0.00047830
     The Hubbard contrib.    to forces
     atom    1 type  1   force =     0.00000000    0.00000000    0.00000000
     atom    2 type  1   force =     0.00000000    0.00000000    0.00000000
     atom    3 type  2   force =     0.00000000    0.00000000    0.00000000
     atom    4 type  2   force =     0.00000000    0.00000000    0.00000000
     atom    5 type  1   force =     0.00000000    0.00000000    0.00000000
     atom    6 type  1   force =     0.00000000    0.00000000    0.00000000
     atom    7 type  2   force =     0.00000000    0.00000000    0.00000000
     atom    8 type  2   force =     0.00000000    0.00000000    0.00000000
     atom    9 type  1   force =     0.00000000    0.00000000    0.00000000
     atom   10 type  1   force =     0.00000000    0.00000000    0.00000000
     atom   11 type  2   force =     0.00000000    0.00000000    0.00000000
     atom   12 type  2   force =     0.00000000    0.00000000    0.00000000
     The SCF correction term to forces
     atom    1 type  1   force =    -0.00000002   -0.00000001   -0.00000589
     atom    2 type  1   force =    -0.00000116   -0.00000067   -0.00000299
     atom    3 type  2   force =     0.00000126    0.00000073    0.00000324
     atom    4 type  2   force =    -0.00000093   -0.00000054    0.00000086
     atom    5 type  1   force =    -0.00000038   -0.00000022   -0.00000582
     atom    6 type  1   force =    -0.00000165   -0.00000095   -0.00000640
     atom    7 type  2   force =    -0.00000094   -0.00000054    0.00000100
     atom    8 type  2   force =     0.00000085    0.00000049    0.00000247
     atom    9 type  1   force =    -0.00000026   -0.00000015   -0.00000842
     atom   10 type  1   force =     0.00000212    0.00000122   -0.00000125
     atom   11 type  2   force =     0.00000045    0.00000026    0.00000480
     atom   12 type  2   force =     0.00000022    0.00000013   -0.00000141

     Total force =     0.354300     Total SCF correction =     0.000016

     General routines

     Parallel routines

   This run was terminated on:  12:20:55  27Aug2025

   JOB DONE.