     Program PWSCF v.7.0 starts on 27Aug2025 at 14: 9:59

     K-points division:     npool     =      17

     Reading input from /home/jvc/QEspresso7.2/ZnO_database/scripts/cell311.in/ZnO-3.07-1.45-311.in
Warning: card &CELL ignored
Warning: card / ignored
Warning: card &FCP ignored
Warning: card / ignored
Warning: card &RISM ignored
Warning: card / ignored

     Current dimensions of program PWSCF are:
     Max number of different atomic species (ntypx) = 10
     Max number of k-points (npk) =  40000
     Max angular momentum in pseudopotentials (lmaxx) =  4
     file Zn.upf: wavefunction(s)  3D renormalized
     Found identity + (  0.3333  0.0000  0.0000) symmetry
     This is a supercell, fractional translations are disabled
     Message from routine setup:
     using ibrav=0 with symmetry is DISCOURAGED, use correct ibrav instead

     Subspace diagonalization in iterative solution of the eigenvalue problem:
     a serial algorithm will be used

     Using Slab Decomposition

     bravais-lattice index     =            0
     lattice parameter (alat)  =      17.4244  a.u.
     unit-cell volume          =     739.6082 (a.u.)^3
     number of atoms/cell      =           12
     number of atomic types    =            2
     number of electrons       =       108.00
     number of Kohn-Sham states=           54
     kinetic-energy cutoff     =      50.0000  Ry
     charge density cutoff     =     400.0000  Ry
     scf convergence threshold =      1.0E-08
     mixing beta               =       0.3000
     number of iterations used =            8  plain     mixing
     Exchange-correlation= PBE
                           (   1   4   3   4   0   0   0)

     celldm(1)=  17.424368  celldm(2)=   0.000000  celldm(3)=   0.000000
     celldm(4)=   0.000000  celldm(5)=   0.000000  celldm(6)=   0.000000

     crystal axes: (cart. coord. in units of alat)
               a(1) = (   1.000000   0.000000   0.000000 )
               a(2) = (  -0.166667   0.288675   0.000000 )
               a(3) = (   0.000000   0.000000   0.484308 )

     reciprocal axes: (cart. coord. in units 2 pi/alat)
               b(1) = (  1.000000  0.577350 -0.000000 )
               b(2) = (  0.000000  3.464102  0.000000 )
               b(3) = (  0.000000 -0.000000  2.064804 )

     PseudoPot. # 1 for Zn read from file:
     /home/jvc/QEspresso7.2/ZnO_database/pseudos/Zn.upf
     MD5 check sum: 7f56cabf9682ed8c977c2f7d0c5985c5
     Pseudo is Ultrasoft + core correction, Zval = 12.0
     Generated using &quot;atomic&quot; code by A. Dal Corso  v.6.2.2
     Using radial grid of 1201 points,  6 beta functions with:
                l(1) =   0
                l(2) =   0
                l(3) =   1
                l(4) =   1
                l(5) =   2
                l(6) =   2
     Q(r) pseudized with 0 coefficients

     PseudoPot. # 2 for O  read from file:
     /home/jvc/QEspresso7.2/ZnO_database/pseudos/O.upf
     MD5 check sum: 91400c9766925bcf19f520983a725ff0
     Pseudo is Ultrasoft + core correction, Zval =  6.0
     Generated using &quot;atomic&quot; code by A. Dal Corso  v.6.3MaX
     Using radial grid of 1095 points,  4 beta functions with:
                l(1) =   0
                l(2) =   0
                l(3) =   1
                l(4) =   1
     Q(r) pseudized with 0 coefficients

     atomic species   valence    mass     pseudopotential
        Zn            12.00    65.38000     Zn( 1.00)
        O              6.00    15.99900     O ( 1.00)

      2 Sym. Ops. (no inversion) found

                                    s                        frac. trans.

      isym =  1     identity

 cryst.   s( 1) = (     1          0          0      )
                  (     0          1          0      )
                  (     0          0          1      )

 cart.    s( 1) = (  1.0000000  0.0000000  0.0000000 )
                  (  0.0000000  1.0000000  0.0000000 )
                  (  0.0000000  0.0000000  1.0000000 )

      isym =  2     inv. 180 deg rotation - cryst. axis [0,1,0]

 cryst.   s( 2) = (     1          3          0      )
                  (     0         -1          0      )
                  (     0          0          1      )

 cart.    s( 2) = (  0.5000000  0.8660254  0.0000000 )
                  (  0.8660254 -0.5000000  0.0000000 )
                  (  0.0000000  0.0000000  1.0000000 )

   Cartesian axes

     site n.     atom                  positions (alat units)
         1           Zn  tau(   1) = (   0.1666667   0.0962250   0.2424606  )
         2           Zn  tau(   2) = (  -0.0000000   0.1924501   0.0003069  )
         3           O   tau(   3) = (   0.1666667   0.0962250   0.4260339  )
         4           O   tau(   4) = (  -0.0000000   0.1924501   0.1838801  )
         5           Zn  tau(   5) = (   0.5000000   0.0962250   0.2424606  )
         6           Zn  tau(   6) = (   0.3333333   0.1924501   0.0003069  )
         7           O   tau(   7) = (   0.5000000   0.0962250   0.4260339  )
         8           O   tau(   8) = (   0.3333333   0.1924501   0.1838801  )
         9           Zn  tau(   9) = (   0.8333333   0.0962250   0.2424606  )
        10           Zn  tau(  10) = (   0.6666667   0.1924501   0.0003069  )
        11           O   tau(  11) = (   0.8333333   0.0962250   0.4260339  )
        12           O   tau(  12) = (   0.6666667   0.1924501   0.1838801  )

   Crystallographic axes

     site n.     atom                  positions (cryst. coord.)
         1           Zn  tau(   1) = (  0.2222222  0.3333333  0.5006336  )
         2           Zn  tau(   2) = (  0.1111111  0.6666667  0.0006336  )
         3           O   tau(   3) = (  0.2222222  0.3333333  0.8796764  )
         4           O   tau(   4) = (  0.1111111  0.6666667  0.3796764  )
         5           Zn  tau(   5) = (  0.5555556  0.3333333  0.5006336  )
         6           Zn  tau(   6) = (  0.4444444  0.6666667  0.0006336  )
         7           O   tau(   7) = (  0.5555556  0.3333333  0.8796764  )
         8           O   tau(   8) = (  0.4444444  0.6666667  0.3796764  )
         9           Zn  tau(   9) = (  0.8888889  0.3333333  0.5006336  )
        10           Zn  tau(  10) = (  0.7777778  0.6666667  0.0006336  )
        11           O   tau(  11) = (  0.8888889  0.3333333  0.8796764  )
        12           O   tau(  12) = (  0.7777778  0.6666667  0.3796764  )

     number of k points=    68
                       cart. coord. in units 2pi/alat
        k(    1) = (   0.0000000   0.0000000   0.0000000), wk =   0.0092593
        k(    2) = (   0.0000000   0.0000000   0.3441340), wk =   0.0185185
        k(    3) = (   0.0000000   0.0000000   0.6882679), wk =   0.0185185
        k(    4) = (   0.0000000   0.0000000  -1.0324019), wk =   0.0092593
        k(    5) = (   0.0000000   0.5773503   0.0000000), wk =   0.0370370
        k(    6) = (   0.0000000   0.5773503   0.3441340), wk =   0.0370370
        k(    7) = (   0.0000000   0.5773503   0.6882679), wk =   0.0370370
        k(    8) = (   0.0000000   0.5773503  -1.0324019), wk =   0.0370370
        k(    9) = (   0.0000000   1.1547005   0.0000000), wk =   0.0185185
        k(   10) = (   0.0000000   1.1547005   0.3441340), wk =   0.0370370
        k(   11) = (   0.0000000   1.1547005   0.6882679), wk =   0.0370370
        k(   12) = (   0.0000000   1.1547005  -1.0324019), wk =   0.0185185
        k(   13) = (   0.0000000  -1.7320508   0.0000000), wk =   0.0185185
        k(   14) = (   0.0000000  -1.7320508   0.3441340), wk =   0.0370370
        k(   15) = (   0.0000000  -1.7320508   0.6882679), wk =   0.0370370
        k(   16) = (   0.0000000  -1.7320508  -1.0324019), wk =   0.0185185
        k(   17) = (   0.1666667   0.0962250   0.0000000), wk =   0.0185185
        k(   18) = (   0.1666667   0.0962250   0.3441340), wk =   0.0185185
        k(   19) = (   0.1666667   0.0962250   0.6882679), wk =   0.0185185
        k(   20) = (   0.1666667   0.0962250  -1.0324019), wk =   0.0185185
        k(   21) = (   0.1666667   0.6735753   0.0000000), wk =   0.0370370
        k(   22) = (   0.1666667   0.6735753   0.3441340), wk =   0.0370370
        k(   23) = (   0.1666667   0.6735753   0.6882679), wk =   0.0370370
        k(   24) = (   0.1666667   0.6735753  -1.0324019), wk =   0.0370370
        k(   25) = (   0.1666667   1.2509256   0.0000000), wk =   0.0370370
        k(   26) = (   0.1666667   1.2509256   0.3441340), wk =   0.0370370
        k(   27) = (   0.1666667   1.2509256   0.6882679), wk =   0.0370370
        k(   28) = (   0.1666667   1.2509256  -1.0324019), wk =   0.0370370
        k(   29) = (   0.1666667  -1.6358258   0.0000000), wk =   0.0370370
        k(   30) = (   0.1666667  -1.6358258   0.3441340), wk =   0.0370370
        k(   31) = (   0.1666667  -1.6358258   0.6882679), wk =   0.0370370
        k(   32) = (   0.1666667  -1.6358258  -1.0324019), wk =   0.0370370
        k(   33) = (   0.1666667  -0.4811252   0.0000000), wk =   0.0370370
        k(   34) = (   0.1666667  -0.4811252   0.3441340), wk =   0.0370370
        k(   35) = (   0.1666667  -0.4811252   0.6882679), wk =   0.0370370
        k(   36) = (   0.1666667  -0.4811252  -1.0324019), wk =   0.0370370
        k(   37) = (   0.3333333   0.1924501   0.0000000), wk =   0.0185185
        k(   38) = (   0.3333333   0.1924501   0.3441340), wk =   0.0185185
        k(   39) = (   0.3333333   0.1924501   0.6882679), wk =   0.0185185
        k(   40) = (   0.3333333   0.1924501  -1.0324019), wk =   0.0185185
        k(   41) = (   0.3333333   1.3471506   0.0000000), wk =   0.0370370
        k(   42) = (   0.3333333   1.3471506   0.3441340), wk =   0.0370370
        k(   43) = (   0.3333333   1.3471506   0.6882679), wk =   0.0370370
        k(   44) = (   0.3333333   1.3471506  -1.0324019), wk =   0.0370370
        k(   45) = (  -0.5000000  -0.2886751   0.0000000), wk =   0.0092593
        k(   46) = (  -0.5000000  -0.2886751   0.3441340), wk =   0.0185185
        k(   47) = (  -0.5000000  -0.2886751   0.6882679), wk =   0.0185185
        k(   48) = (  -0.5000000  -0.2886751  -1.0324019), wk =   0.0092593
        k(   49) = (  -0.5000000   0.8660254   0.0000000), wk =   0.0185185
        k(   50) = (  -0.5000000   0.8660254   0.3441340), wk =   0.0370370
        k(   51) = (  -0.5000000   0.8660254   0.6882679), wk =   0.0370370
        k(   52) = (  -0.5000000   0.8660254  -1.0324019), wk =   0.0185185
        k(   53) = (   0.5000000  -0.2886751  -0.3441340), wk =   0.0370370
        k(   54) = (   0.5000000  -0.2886751  -0.6882679), wk =   0.0370370
        k(   55) = (   0.1666667   0.0962250  -0.3441340), wk =   0.0185185
        k(   56) = (   0.1666667   0.0962250  -0.6882679), wk =   0.0185185
        k(   57) = (   0.6666667  -0.1924501  -0.3441340), wk =   0.0370370
        k(   58) = (   0.6666667  -0.1924501  -0.6882679), wk =   0.0370370
        k(   59) = (   1.1666667  -0.4811252  -0.3441340), wk =   0.0370370
        k(   60) = (   1.1666667  -0.4811252  -0.6882679), wk =   0.0370370
        k(   61) = (  -1.3333333   0.9622504  -0.3441340), wk =   0.0370370
        k(   62) = (  -1.3333333   0.9622504  -0.6882679), wk =   0.0370370
        k(   63) = (  -0.3333333   0.3849002  -0.3441340), wk =   0.0370370
        k(   64) = (  -0.3333333   0.3849002  -0.6882679), wk =   0.0370370
        k(   65) = (   0.3333333   0.1924501  -0.3441340), wk =   0.0185185
        k(   66) = (   0.3333333   0.1924501  -0.6882679), wk =   0.0185185
        k(   67) = (   1.3333333  -0.3849002  -0.3441340), wk =   0.0370370
        k(   68) = (   1.3333333  -0.3849002  -0.6882679), wk =   0.0370370

                       cryst. coord.
        k(    1) = (   0.0000000   0.0000000   0.0000000), wk =   0.0092593
        k(    2) = (   0.0000000   0.0000000   0.1666667), wk =   0.0185185
        k(    3) = (   0.0000000   0.0000000   0.3333333), wk =   0.0185185
        k(    4) = (   0.0000000   0.0000000  -0.5000000), wk =   0.0092593
        k(    5) = (   0.0000000   0.1666667   0.0000000), wk =   0.0370370
        k(    6) = (   0.0000000   0.1666667   0.1666667), wk =   0.0370370
        k(    7) = (   0.0000000   0.1666667   0.3333333), wk =   0.0370370
        k(    8) = (   0.0000000   0.1666667  -0.5000000), wk =   0.0370370
        k(    9) = (   0.0000000   0.3333333   0.0000000), wk =   0.0185185
        k(   10) = (   0.0000000   0.3333333   0.1666667), wk =   0.0370370
        k(   11) = (   0.0000000   0.3333333   0.3333333), wk =   0.0370370
        k(   12) = (   0.0000000   0.3333333  -0.5000000), wk =   0.0185185
        k(   13) = (   0.0000000  -0.5000000   0.0000000), wk =   0.0185185
        k(   14) = (   0.0000000  -0.5000000   0.1666667), wk =   0.0370370
        k(   15) = (   0.0000000  -0.5000000   0.3333333), wk =   0.0370370
        k(   16) = (   0.0000000  -0.5000000  -0.5000000), wk =   0.0185185
        k(   17) = (   0.1666667   0.0000000   0.0000000), wk =   0.0185185
        k(   18) = (   0.1666667   0.0000000   0.1666667), wk =   0.0185185
        k(   19) = (   0.1666667   0.0000000   0.3333333), wk =   0.0185185
        k(   20) = (   0.1666667   0.0000000  -0.5000000), wk =   0.0185185
        k(   21) = (   0.1666667   0.1666667   0.0000000), wk =   0.0370370
        k(   22) = (   0.1666667   0.1666667   0.1666667), wk =   0.0370370
        k(   23) = (   0.1666667   0.1666667   0.3333333), wk =   0.0370370
        k(   24) = (   0.1666667   0.1666667  -0.5000000), wk =   0.0370370
        k(   25) = (   0.1666667   0.3333333   0.0000000), wk =   0.0370370
        k(   26) = (   0.1666667   0.3333333   0.1666667), wk =   0.0370370
        k(   27) = (   0.1666667   0.3333333   0.3333333), wk =   0.0370370
        k(   28) = (   0.1666667   0.3333333  -0.5000000), wk =   0.0370370
        k(   29) = (   0.1666667  -0.5000000   0.0000000), wk =   0.0370370
        k(   30) = (   0.1666667  -0.5000000   0.1666667), wk =   0.0370370
        k(   31) = (   0.1666667  -0.5000000   0.3333333), wk =   0.0370370
        k(   32) = (   0.1666667  -0.5000000  -0.5000000), wk =   0.0370370
        k(   33) = (   0.1666667  -0.1666667   0.0000000), wk =   0.0370370
        k(   34) = (   0.1666667  -0.1666667   0.1666667), wk =   0.0370370
        k(   35) = (   0.1666667  -0.1666667   0.3333333), wk =   0.0370370
        k(   36) = (   0.1666667  -0.1666667  -0.5000000), wk =   0.0370370
        k(   37) = (   0.3333333   0.0000000   0.0000000), wk =   0.0185185
        k(   38) = (   0.3333333   0.0000000   0.1666667), wk =   0.0185185
        k(   39) = (   0.3333333   0.0000000   0.3333333), wk =   0.0185185
        k(   40) = (   0.3333333   0.0000000  -0.5000000), wk =   0.0185185
        k(   41) = (   0.3333333   0.3333333   0.0000000), wk =   0.0370370
        k(   42) = (   0.3333333   0.3333333   0.1666667), wk =   0.0370370
        k(   43) = (   0.3333333   0.3333333   0.3333333), wk =   0.0370370
        k(   44) = (   0.3333333   0.3333333  -0.5000000), wk =   0.0370370
        k(   45) = (  -0.5000000   0.0000000   0.0000000), wk =   0.0092593
        k(   46) = (  -0.5000000   0.0000000   0.1666667), wk =   0.0185185
        k(   47) = (  -0.5000000   0.0000000   0.3333333), wk =   0.0185185
        k(   48) = (  -0.5000000   0.0000000  -0.5000000), wk =   0.0092593
        k(   49) = (  -0.5000000   0.3333333   0.0000000), wk =   0.0185185
        k(   50) = (  -0.5000000   0.3333333   0.1666667), wk =   0.0370370
        k(   51) = (  -0.5000000   0.3333333   0.3333333), wk =   0.0370370
        k(   52) = (  -0.5000000   0.3333333  -0.5000000), wk =   0.0185185
        k(   53) = (   0.5000000  -0.1666667  -0.1666667), wk =   0.0370370
        k(   54) = (   0.5000000  -0.1666667  -0.3333333), wk =   0.0370370
        k(   55) = (   0.1666667   0.0000000  -0.1666667), wk =   0.0185185
        k(   56) = (   0.1666667   0.0000000  -0.3333333), wk =   0.0185185
        k(   57) = (   0.6666667  -0.1666667  -0.1666667), wk =   0.0370370
        k(   58) = (   0.6666667  -0.1666667  -0.3333333), wk =   0.0370370
        k(   59) = (   1.1666667  -0.3333333  -0.1666667), wk =   0.0370370
        k(   60) = (   1.1666667  -0.3333333  -0.3333333), wk =   0.0370370
        k(   61) = (  -1.3333333   0.5000000  -0.1666667), wk =   0.0370370
        k(   62) = (  -1.3333333   0.5000000  -0.3333333), wk =   0.0370370
        k(   63) = (  -0.3333333   0.1666667  -0.1666667), wk =   0.0370370
        k(   64) = (  -0.3333333   0.1666667  -0.3333333), wk =   0.0370370
        k(   65) = (   0.3333333   0.0000000  -0.1666667), wk =   0.0185185
        k(   66) = (   0.3333333   0.0000000  -0.3333333), wk =   0.0185185
        k(   67) = (   1.3333333  -0.3333333  -0.1666667), wk =   0.0370370
        k(   68) = (   1.3333333  -0.3333333  -0.3333333), wk =   0.0370370

     Check: negative core charge=   -0.000001

     Initial potential from superposition of free atoms

     starting charge     107.9776, renormalised to     108.0000
     Starting wfcs are   78 randomized atomic wfcs

     Self-consistent Calculation

     iteration #  1     ecut=    50.00 Ry     beta= 0.30
     Davidson diagonalization with overlap

     ethr =  1.00E-02,  avg # of iterations =  2.2

     total energy              =   -1083.88041262 Ry
     estimated scf accuracy    <       2.10852465 Ry

[...]

     total energy              =   -1084.28654754 Ry
     estimated scf accuracy    <       0.00000019 Ry

     iteration # 22     ecut=    50.00 Ry     beta= 0.30
     Davidson diagonalization with overlap

     ethr =  2.06E-11,  avg # of iterations =  7.6

     End of self-consistent calculation

          k = 0.0000 0.0000 0.0000 (  4457 PWs)   bands (ev):

    -8.7922  -8.0694  -8.0694  -7.3444  -7.2276  -7.2276   3.8349   3.8349
     4.1407   4.3200   4.3200   4.5047   4.5049   4.5465   4.7458   4.7458
     4.8278   4.8279   4.8702   4.8703   5.3830   5.3830   5.4290   5.4290
     6.3611   6.3611   6.4899   6.4899   6.6538   6.6538   6.8003   6.8003
     6.9762   6.9762   7.0687   7.0687   7.3509   7.6162   7.6163   8.1675
     8.1675   8.8363   8.8363   9.3166   9.3166  10.3317  10.3318  10.8733
    10.8734  11.0717  11.0717  11.8100  11.8102  11.8790

     occupation numbers
     1.0000   1.0000   1.0000   1.0000   1.0000   1.0000   1.0000   1.0000
     1.0000   1.0000   1.0000   1.0000   1.0000   1.0000   1.0000   1.0000
     1.0000   1.0000   1.0000   1.0000   1.0000   1.0000   1.0000   1.0000
     1.0000   1.0000   1.0000   1.0000   1.0000   1.0000   1.0000   1.0000
     1.0000   1.0000   1.0000   1.0000   1.0000   1.0000   1.0000   1.0000
     1.0000   1.0000   1.0000   1.0000   1.0000   1.0000   1.0000   1.0000
     1.0000   1.0000   1.0000   1.0000   1.0000   1.0000

[...]

          k =-0.5000-0.2887 0.0000 (  4420 PWs)   bands (ev):

[...]

          k =-0.3333 0.3849-0.6883 (  4413 PWs)   bands (ev):

[...]

          k = 1.3333-0.3849-0.6883 (  4405 PWs)   bands (ev):

    -7.9377  -7.6736  -7.5060  -7.4509  -7.3606  -7.3413   3.5677   3.6507
     3.6516   3.7096   3.7665   3.8030   4.5783   4.6927   4.7424   4.7496
     4.7642   4.8118   4.9440   5.0965   5.1243   5.2885   5.3015   5.3696
     6.6002   6.6334   6.6859   6.7436   6.7574   6.8343   6.9649   7.0047
     7.0401   7.1392   7.1532   7.3315   7.5882   7.7529   7.9322   8.2473
     8.2795   8.4302   8.9483   9.0630   9.4190   9.5225   9.5435   9.6806
    10.0149  10.1560  10.5718  10.6453  10.8820  11.1217

     occupation numbers
     1.0000   1.0000   1.0000   1.0000   1.0000   1.0000   1.0000   1.0000
     1.0000   1.0000   1.0000   1.0000   1.0000   1.0000   1.0000   1.0000
     1.0000   1.0000   1.0000   1.0000   1.0000   1.0000   1.0000   1.0000
     1.0000   1.0000   1.0000   1.0000   1.0000   1.0000   1.0000   1.0000
     1.0000   1.0000   1.0000   1.0000   1.0000   1.0000   1.0000   1.0000
     1.0000   1.0000   1.0000   1.0000   1.0000   1.0000   1.0000   1.0000
     1.0000   1.0000   1.0000   1.0000   1.0000   1.0000

     highest occupied level (ev):    11.8790

!    total energy              =   -1084.28654758 Ry
     estimated scf accuracy    <          4.3E-10 Ry

     The total energy is the sum of the following terms:
     one-electron contribution =    -364.12480789 Ry
     hartree contribution      =     321.61577386 Ry
     xc contribution           =    -330.84561858 Ry
     ewald contribution        =    -710.93189496 Ry

     convergence has been achieved in  22 iterations

     Forces acting on atoms (cartesian axes, Ry/au):

     atom    1 type  1   force =     0.00001390    0.00000802   -0.14726014
     atom    2 type  1   force =    -0.00000746   -0.00000431   -0.14725746
     atom    3 type  2   force =    -0.00000189   -0.00000109    0.14725823
     atom    4 type  2   force =     0.00000222    0.00000128    0.14725815
     atom    5 type  1   force =     0.00001353    0.00000781   -0.14725831
     atom    6 type  1   force =    -0.00001193   -0.00000689   -0.14725845
     atom    7 type  2   force =    -0.00000145   -0.00000084    0.14725852
     atom    8 type  2   force =     0.00000159    0.00000092    0.14725814
     atom    9 type  1   force =     0.00000855    0.00000493   -0.14725720
     atom   10 type  1   force =    -0.00001715   -0.00000990   -0.14725780
     atom   11 type  2   force =    -0.00000204   -0.00000118    0.14725787
     atom   12 type  2   force =     0.00000214    0.00000124    0.14725845
     The non-local contrib.  to forces
     atom    1 type  1   force =    -0.00001559   -0.00000900   -0.36008973
     atom    2 type  1   force =     0.00002069    0.00001194   -0.36008871
     atom    3 type  2   force =    -0.00014305   -0.00008259   -0.19922649
     atom    4 type  2   force =     0.00013972    0.00008067   -0.19922609
     atom    5 type  1   force =    -0.00001729   -0.00000998   -0.36008895
     atom    6 type  1   force =     0.00001778    0.00001027   -0.36008907
     atom    7 type  2   force =    -0.00014020   -0.00008095   -0.19922614
     atom    8 type  2   force =     0.00013999    0.00008083   -0.19922589
     atom    9 type  1   force =    -0.00001984   -0.00001145   -0.36008848
     atom   10 type  1   force =     0.00001460    0.00000843   -0.36008880
     atom   11 type  2   force =    -0.00014007   -0.00008087   -0.19922611
     atom   12 type  2   force =     0.00014318    0.00008266   -0.19922599
     The ionic contribution  to forces
     atom    1 type  1   force =     0.00000001    0.00000001   -2.55793342
     atom    2 type  1   force =     0.00000001    0.00000000   -2.55793342
     atom    3 type  2   force =     0.00000000    0.00000000    2.55793342
     atom    4 type  2   force =     0.00000001    0.00000000    2.55793342
     atom    5 type  1   force =    -0.00000001    0.00000000   -2.55793342
     atom    6 type  1   force =     0.00000001   -0.00000000   -2.55793342
     atom    7 type  2   force =    -0.00000001    0.00000001    2.55793342
     atom    8 type  2   force =     0.00000001   -0.00000001    2.55793342
     atom    9 type  1   force =    -0.00000001   -0.00000000   -2.55793342
     atom   10 type  1   force =    -0.00000001   -0.00000001   -2.55793342
     atom   11 type  2   force =    -0.00000001   -0.00000000    2.55793342
     atom   12 type  2   force =    -0.00000000   -0.00000000    2.55793342
     The local contribution  to forces
     atom    1 type  1   force =     0.00003017    0.00001742    2.73464153
     atom    2 type  1   force =    -0.00004190   -0.00002424    2.73463859
     atom    3 type  2   force =     0.00013769    0.00007949   -2.21239924
     atom    4 type  2   force =    -0.00014296   -0.00008255   -2.21240065
     atom    5 type  1   force =     0.00003348    0.00001942    2.73463893
     atom    6 type  1   force =    -0.00003574   -0.00002073    2.73463953
     atom    7 type  2   force =     0.00014113    0.00008151   -2.21239829
     atom    8 type  2   force =    -0.00013926   -0.00008042   -2.21239670
     atom    9 type  1   force =     0.00004012    0.00002321    2.73464012
     atom   10 type  1   force =    -0.00002635   -0.00001521    2.73463850
     atom   11 type  2   force =     0.00014278    0.00008244   -2.21239736
     atom   12 type  2   force =    -0.00013799   -0.00007967   -2.21240075
     The core correction contribution to forces
     atom    1 type  1   force =    -0.00000168   -0.00000097    0.03614388
     atom    2 type  1   force =     0.00000173    0.00000100    0.03614389
     atom    3 type  2   force =     0.00000162    0.00000094    0.00093315
     atom    4 type  2   force =    -0.00000158   -0.00000091    0.00093314
     atom    5 type  1   force =    -0.00000173   -0.00000099    0.03614391
     atom    6 type  1   force =     0.00000178    0.00000102    0.03614389
     atom    7 type  2   force =     0.00000159    0.00000092    0.00093315
     atom    8 type  2   force =    -0.00000158   -0.00000091    0.00093315
     atom    9 type  1   force =    -0.00000173   -0.00000099    0.03614377
     atom   10 type  1   force =     0.00000163    0.00000094    0.03614392
     atom   11 type  2   force =     0.00000159    0.00000092    0.00093315
     atom   12 type  2   force =    -0.00000163   -0.00000094    0.00093313
     The Hubbard contrib.    to forces
     atom    1 type  1   force =     0.00000000    0.00000000    0.00000000
     atom    2 type  1   force =     0.00000000    0.00000000    0.00000000
     atom    3 type  2   force =     0.00000000    0.00000000    0.00000000
     atom    4 type  2   force =     0.00000000    0.00000000    0.00000000
     atom    5 type  1   force =     0.00000000    0.00000000    0.00000000
     atom    6 type  1   force =     0.00000000    0.00000000    0.00000000
     atom    7 type  2   force =     0.00000000    0.00000000    0.00000000
     atom    8 type  2   force =     0.00000000    0.00000000    0.00000000
     atom    9 type  1   force =     0.00000000    0.00000000    0.00000000
     atom   10 type  1   force =     0.00000000    0.00000000    0.00000000
     atom   11 type  2   force =     0.00000000    0.00000000    0.00000000
     atom   12 type  2   force =     0.00000000    0.00000000    0.00000000
     The SCF correction term to forces
     atom    1 type  1   force =     0.00000087    0.00000050   -0.00002811
     atom    2 type  1   force =     0.00001191    0.00000688   -0.00002351
     atom    3 type  2   force =     0.00000173    0.00000100    0.00001169
     atom    4 type  2   force =     0.00000692    0.00000399    0.00001262
     atom    5 type  1   force =    -0.00000109   -0.00000063   -0.00002448
     atom    6 type  1   force =     0.00000416    0.00000240   -0.00002508
     atom    7 type  2   force =    -0.00000409   -0.00000236    0.00001068
     atom    8 type  2   force =     0.00000232    0.00000134    0.00000846
     atom    9 type  1   force =    -0.00001014   -0.00000585   -0.00002489
     atom   10 type  1   force =    -0.00000714   -0.00000412   -0.00002371
     atom   11 type  2   force =    -0.00000645   -0.00000373    0.00000907
     atom   12 type  2   force =    -0.00000153   -0.00000089    0.00001293

     Total force =     0.510117     Total SCF correction =     0.000071

     General routines

     Parallel routines

   This run was terminated on:  14:15:45  27Aug2025

   JOB DONE.