     Program PWSCF v.7.0 starts on 28Aug2025 at  3:50: 8

     K-points division:     npool     =      17

     Reading input from /home/jvc/QEspresso7.2/ZnO_database/scripts/cell311.in/ZnO-3.53-1.61-311.in
Warning: card &CELL ignored
Warning: card / ignored
Warning: card &FCP ignored
Warning: card / ignored
Warning: card &RISM ignored
Warning: card / ignored

     Current dimensions of program PWSCF are:
     Max number of different atomic species (ntypx) = 10
     Max number of k-points (npk) =  40000
     Max angular momentum in pseudopotentials (lmaxx) =  4
     file Zn.upf: wavefunction(s)  3D renormalized
     Found identity + (  0.3333  0.0000  0.0000) symmetry
     This is a supercell, fractional translations are disabled
     Message from routine setup:
     using ibrav=0 with symmetry is DISCOURAGED, use correct ibrav instead

     Subspace diagonalization in iterative solution of the eigenvalue problem:
     a serial algorithm will be used

     Using Slab Decomposition

     bravais-lattice index     =            0
     lattice parameter (alat)  =      20.0195  a.u.
     unit-cell volume          =    1246.3697 (a.u.)^3
     number of atoms/cell      =           12
     number of atomic types    =            2
     number of electrons       =       108.00
     number of Kohn-Sham states=           54
     kinetic-energy cutoff     =      50.0000  Ry
     charge density cutoff     =     400.0000  Ry
     scf convergence threshold =      1.0E-08
     mixing beta               =       0.3000
     number of iterations used =            8  plain     mixing
     Exchange-correlation= PBE
                           (   1   4   3   4   0   0   0)

     celldm(1)=  20.019487  celldm(2)=   0.000000  celldm(3)=   0.000000
     celldm(4)=   0.000000  celldm(5)=   0.000000  celldm(6)=   0.000000

     crystal axes: (cart. coord. in units of alat)
               a(1) = (   1.000000   0.000000   0.000000 )
               a(2) = (  -0.166667   0.288675   0.000000 )
               a(3) = (   0.000000   0.000000   0.538119 )

     reciprocal axes: (cart. coord. in units 2 pi/alat)
               b(1) = (  1.000000  0.577350 -0.000000 )
               b(2) = (  0.000000  3.464102  0.000000 )
               b(3) = (  0.000000 -0.000000  1.858323 )

     PseudoPot. # 1 for Zn read from file:
     /home/jvc/QEspresso7.2/ZnO_database/pseudos/Zn.upf
     MD5 check sum: 7f56cabf9682ed8c977c2f7d0c5985c5
     Pseudo is Ultrasoft + core correction, Zval = 12.0
     Generated using &quot;atomic&quot; code by A. Dal Corso  v.6.2.2
     Using radial grid of 1201 points,  6 beta functions with:
                l(1) =   0
                l(2) =   0
                l(3) =   1
                l(4) =   1
                l(5) =   2
                l(6) =   2
     Q(r) pseudized with 0 coefficients

     PseudoPot. # 2 for O  read from file:
     /home/jvc/QEspresso7.2/ZnO_database/pseudos/O.upf
     MD5 check sum: 91400c9766925bcf19f520983a725ff0
     Pseudo is Ultrasoft + core correction, Zval =  6.0
     Generated using &quot;atomic&quot; code by A. Dal Corso  v.6.3MaX
     Using radial grid of 1095 points,  4 beta functions with:
                l(1) =   0
                l(2) =   0
                l(3) =   1
                l(4) =   1
     Q(r) pseudized with 0 coefficients

     atomic species   valence    mass     pseudopotential
        Zn            12.00    65.38000     Zn( 1.00)
        O              6.00    15.99900     O ( 1.00)

      2 Sym. Ops. (no inversion) found

                                    s                        frac. trans.

      isym =  1     identity

 cryst.   s( 1) = (     1          0          0      )
                  (     0          1          0      )
                  (     0          0          1      )

 cart.    s( 1) = (  1.0000000  0.0000000  0.0000000 )
                  (  0.0000000  1.0000000  0.0000000 )
                  (  0.0000000  0.0000000  1.0000000 )

      isym =  2     inv. 180 deg rotation - cryst. axis [0,1,0]

 cryst.   s( 2) = (     1          3          0      )
                  (     0         -1          0      )
                  (     0          0          1      )

 cart.    s( 2) = (  0.5000000  0.8660254  0.0000000 )
                  (  0.8660254 -0.5000000  0.0000000 )
                  (  0.0000000  0.0000000  1.0000000 )

   Cartesian axes

     site n.     atom                  positions (alat units)
         1           Zn  tau(   1) = (   0.1666667   0.0962250   0.2694007  )
         2           Zn  tau(   2) = (  -0.0000000   0.1924501   0.0003409  )
         3           O   tau(   3) = (   0.1666667   0.0962250   0.4733710  )
         4           O   tau(   4) = (  -0.0000000   0.1924501   0.2043113  )
         5           Zn  tau(   5) = (   0.5000000   0.0962250   0.2694007  )
         6           Zn  tau(   6) = (   0.3333333   0.1924501   0.0003409  )
         7           O   tau(   7) = (   0.5000000   0.0962250   0.4733710  )
         8           O   tau(   8) = (   0.3333333   0.1924501   0.2043113  )
         9           Zn  tau(   9) = (   0.8333333   0.0962250   0.2694007  )
        10           Zn  tau(  10) = (   0.6666667   0.1924501   0.0003409  )
        11           O   tau(  11) = (   0.8333333   0.0962250   0.4733710  )
        12           O   tau(  12) = (   0.6666667   0.1924501   0.2043113  )

   Crystallographic axes

     site n.     atom                  positions (cryst. coord.)
         1           Zn  tau(   1) = (  0.2222222  0.3333333  0.5006336  )
         2           Zn  tau(   2) = (  0.1111111  0.6666667  0.0006336  )
         3           O   tau(   3) = (  0.2222222  0.3333333  0.8796764  )
         4           O   tau(   4) = (  0.1111111  0.6666667  0.3796764  )
         5           Zn  tau(   5) = (  0.5555556  0.3333333  0.5006336  )
         6           Zn  tau(   6) = (  0.4444444  0.6666667  0.0006336  )
         7           O   tau(   7) = (  0.5555556  0.3333333  0.8796764  )
         8           O   tau(   8) = (  0.4444444  0.6666667  0.3796764  )
         9           Zn  tau(   9) = (  0.8888889  0.3333333  0.5006336  )
        10           Zn  tau(  10) = (  0.7777778  0.6666667  0.0006336  )
        11           O   tau(  11) = (  0.8888889  0.3333333  0.8796764  )
        12           O   tau(  12) = (  0.7777778  0.6666667  0.3796764  )

     number of k points=    68
                       cart. coord. in units 2pi/alat
        k(    1) = (   0.0000000   0.0000000   0.0000000), wk =   0.0092593
        k(    2) = (   0.0000000   0.0000000   0.3097206), wk =   0.0185185
        k(    3) = (   0.0000000   0.0000000   0.6194412), wk =   0.0185185
        k(    4) = (   0.0000000   0.0000000  -0.9291617), wk =   0.0092593
        k(    5) = (   0.0000000   0.5773503   0.0000000), wk =   0.0370370
        k(    6) = (   0.0000000   0.5773503   0.3097206), wk =   0.0370370
        k(    7) = (   0.0000000   0.5773503   0.6194412), wk =   0.0370370
        k(    8) = (   0.0000000   0.5773503  -0.9291617), wk =   0.0370370
        k(    9) = (   0.0000000   1.1547005   0.0000000), wk =   0.0185185
        k(   10) = (   0.0000000   1.1547005   0.3097206), wk =   0.0370370
        k(   11) = (   0.0000000   1.1547005   0.6194412), wk =   0.0370370
        k(   12) = (   0.0000000   1.1547005  -0.9291617), wk =   0.0185185
        k(   13) = (   0.0000000  -1.7320508   0.0000000), wk =   0.0185185
        k(   14) = (   0.0000000  -1.7320508   0.3097206), wk =   0.0370370
        k(   15) = (   0.0000000  -1.7320508   0.6194412), wk =   0.0370370
        k(   16) = (   0.0000000  -1.7320508  -0.9291617), wk =   0.0185185
        k(   17) = (   0.1666667   0.0962250   0.0000000), wk =   0.0185185
        k(   18) = (   0.1666667   0.0962250   0.3097206), wk =   0.0185185
        k(   19) = (   0.1666667   0.0962250   0.6194412), wk =   0.0185185
        k(   20) = (   0.1666667   0.0962250  -0.9291617), wk =   0.0185185
        k(   21) = (   0.1666667   0.6735753   0.0000000), wk =   0.0370370
        k(   22) = (   0.1666667   0.6735753   0.3097206), wk =   0.0370370
        k(   23) = (   0.1666667   0.6735753   0.6194412), wk =   0.0370370
        k(   24) = (   0.1666667   0.6735753  -0.9291617), wk =   0.0370370
        k(   25) = (   0.1666667   1.2509256   0.0000000), wk =   0.0370370
        k(   26) = (   0.1666667   1.2509256   0.3097206), wk =   0.0370370
        k(   27) = (   0.1666667   1.2509256   0.6194412), wk =   0.0370370
        k(   28) = (   0.1666667   1.2509256  -0.9291617), wk =   0.0370370
        k(   29) = (   0.1666667  -1.6358258   0.0000000), wk =   0.0370370
        k(   30) = (   0.1666667  -1.6358258   0.3097206), wk =   0.0370370
        k(   31) = (   0.1666667  -1.6358258   0.6194412), wk =   0.0370370
        k(   32) = (   0.1666667  -1.6358258  -0.9291617), wk =   0.0370370
        k(   33) = (   0.1666667  -0.4811252   0.0000000), wk =   0.0370370
        k(   34) = (   0.1666667  -0.4811252   0.3097206), wk =   0.0370370
        k(   35) = (   0.1666667  -0.4811252   0.6194412), wk =   0.0370370
        k(   36) = (   0.1666667  -0.4811252  -0.9291617), wk =   0.0370370
        k(   37) = (   0.3333333   0.1924501   0.0000000), wk =   0.0185185
        k(   38) = (   0.3333333   0.1924501   0.3097206), wk =   0.0185185
        k(   39) = (   0.3333333   0.1924501   0.6194412), wk =   0.0185185
        k(   40) = (   0.3333333   0.1924501  -0.9291617), wk =   0.0185185
        k(   41) = (   0.3333333   1.3471506   0.0000000), wk =   0.0370370
        k(   42) = (   0.3333333   1.3471506   0.3097206), wk =   0.0370370
        k(   43) = (   0.3333333   1.3471506   0.6194412), wk =   0.0370370
        k(   44) = (   0.3333333   1.3471506  -0.9291617), wk =   0.0370370
        k(   45) = (  -0.5000000  -0.2886751   0.0000000), wk =   0.0092593
        k(   46) = (  -0.5000000  -0.2886751   0.3097206), wk =   0.0185185
        k(   47) = (  -0.5000000  -0.2886751   0.6194412), wk =   0.0185185
        k(   48) = (  -0.5000000  -0.2886751  -0.9291617), wk =   0.0092593
        k(   49) = (  -0.5000000   0.8660254   0.0000000), wk =   0.0185185
        k(   50) = (  -0.5000000   0.8660254   0.3097206), wk =   0.0370370
        k(   51) = (  -0.5000000   0.8660254   0.6194412), wk =   0.0370370
        k(   52) = (  -0.5000000   0.8660254  -0.9291617), wk =   0.0185185
        k(   53) = (   0.5000000  -0.2886751  -0.3097206), wk =   0.0370370
        k(   54) = (   0.5000000  -0.2886751  -0.6194412), wk =   0.0370370
        k(   55) = (   0.1666667   0.0962250  -0.3097206), wk =   0.0185185
        k(   56) = (   0.1666667   0.0962250  -0.6194412), wk =   0.0185185
        k(   57) = (   0.6666667  -0.1924501  -0.3097206), wk =   0.0370370
        k(   58) = (   0.6666667  -0.1924501  -0.6194412), wk =   0.0370370
        k(   59) = (   1.1666667  -0.4811252  -0.3097206), wk =   0.0370370
        k(   60) = (   1.1666667  -0.4811252  -0.6194412), wk =   0.0370370
        k(   61) = (  -1.3333333   0.9622504  -0.3097206), wk =   0.0370370
        k(   62) = (  -1.3333333   0.9622504  -0.6194412), wk =   0.0370370
        k(   63) = (  -0.3333333   0.3849002  -0.3097206), wk =   0.0370370
        k(   64) = (  -0.3333333   0.3849002  -0.6194412), wk =   0.0370370
        k(   65) = (   0.3333333   0.1924501  -0.3097206), wk =   0.0185185
        k(   66) = (   0.3333333   0.1924501  -0.6194412), wk =   0.0185185
        k(   67) = (   1.3333333  -0.3849002  -0.3097206), wk =   0.0370370
        k(   68) = (   1.3333333  -0.3849002  -0.6194412), wk =   0.0370370

                       cryst. coord.
        k(    1) = (   0.0000000   0.0000000   0.0000000), wk =   0.0092593
        k(    2) = (   0.0000000   0.0000000   0.1666667), wk =   0.0185185
        k(    3) = (   0.0000000   0.0000000   0.3333333), wk =   0.0185185
        k(    4) = (   0.0000000   0.0000000  -0.5000000), wk =   0.0092593
        k(    5) = (   0.0000000   0.1666667   0.0000000), wk =   0.0370370
        k(    6) = (   0.0000000   0.1666667   0.1666667), wk =   0.0370370
        k(    7) = (   0.0000000   0.1666667   0.3333333), wk =   0.0370370
        k(    8) = (   0.0000000   0.1666667  -0.5000000), wk =   0.0370370
        k(    9) = (   0.0000000   0.3333333   0.0000000), wk =   0.0185185
        k(   10) = (   0.0000000   0.3333333   0.1666667), wk =   0.0370370
        k(   11) = (   0.0000000   0.3333333   0.3333333), wk =   0.0370370
        k(   12) = (   0.0000000   0.3333333  -0.5000000), wk =   0.0185185
        k(   13) = (   0.0000000  -0.5000000   0.0000000), wk =   0.0185185
        k(   14) = (   0.0000000  -0.5000000   0.1666667), wk =   0.0370370
        k(   15) = (   0.0000000  -0.5000000   0.3333333), wk =   0.0370370
        k(   16) = (   0.0000000  -0.5000000  -0.5000000), wk =   0.0185185
        k(   17) = (   0.1666667  -0.0000000   0.0000000), wk =   0.0185185
        k(   18) = (   0.1666667  -0.0000000   0.1666667), wk =   0.0185185
        k(   19) = (   0.1666667  -0.0000000   0.3333333), wk =   0.0185185
        k(   20) = (   0.1666667  -0.0000000  -0.5000000), wk =   0.0185185
        k(   21) = (   0.1666667   0.1666667   0.0000000), wk =   0.0370370
        k(   22) = (   0.1666667   0.1666667   0.1666667), wk =   0.0370370
        k(   23) = (   0.1666667   0.1666667   0.3333333), wk =   0.0370370
        k(   24) = (   0.1666667   0.1666667  -0.5000000), wk =   0.0370370
        k(   25) = (   0.1666667   0.3333333   0.0000000), wk =   0.0370370
        k(   26) = (   0.1666667   0.3333333   0.1666667), wk =   0.0370370
        k(   27) = (   0.1666667   0.3333333   0.3333333), wk =   0.0370370
        k(   28) = (   0.1666667   0.3333333  -0.5000000), wk =   0.0370370
        k(   29) = (   0.1666667  -0.5000000   0.0000000), wk =   0.0370370
        k(   30) = (   0.1666667  -0.5000000   0.1666667), wk =   0.0370370
        k(   31) = (   0.1666667  -0.5000000   0.3333333), wk =   0.0370370
        k(   32) = (   0.1666667  -0.5000000  -0.5000000), wk =   0.0370370
        k(   33) = (   0.1666667  -0.1666667   0.0000000), wk =   0.0370370
        k(   34) = (   0.1666667  -0.1666667   0.1666667), wk =   0.0370370
        k(   35) = (   0.1666667  -0.1666667   0.3333333), wk =   0.0370370
        k(   36) = (   0.1666667  -0.1666667  -0.5000000), wk =   0.0370370
        k(   37) = (   0.3333333  -0.0000000   0.0000000), wk =   0.0185185
        k(   38) = (   0.3333333  -0.0000000   0.1666667), wk =   0.0185185
        k(   39) = (   0.3333333  -0.0000000   0.3333333), wk =   0.0185185
        k(   40) = (   0.3333333  -0.0000000  -0.5000000), wk =   0.0185185
        k(   41) = (   0.3333333   0.3333333   0.0000000), wk =   0.0370370
        k(   42) = (   0.3333333   0.3333333   0.1666667), wk =   0.0370370
        k(   43) = (   0.3333333   0.3333333   0.3333333), wk =   0.0370370
        k(   44) = (   0.3333333   0.3333333  -0.5000000), wk =   0.0370370
        k(   45) = (  -0.5000000   0.0000000   0.0000000), wk =   0.0092593
        k(   46) = (  -0.5000000   0.0000000   0.1666667), wk =   0.0185185
        k(   47) = (  -0.5000000   0.0000000   0.3333333), wk =   0.0185185
        k(   48) = (  -0.5000000   0.0000000  -0.5000000), wk =   0.0092593
        k(   49) = (  -0.5000000   0.3333333   0.0000000), wk =   0.0185185
        k(   50) = (  -0.5000000   0.3333333   0.1666667), wk =   0.0370370
        k(   51) = (  -0.5000000   0.3333333   0.3333333), wk =   0.0370370
        k(   52) = (  -0.5000000   0.3333333  -0.5000000), wk =   0.0185185
        k(   53) = (   0.5000000  -0.1666667  -0.1666667), wk =   0.0370370
        k(   54) = (   0.5000000  -0.1666667  -0.3333333), wk =   0.0370370
        k(   55) = (   0.1666667   0.0000000  -0.1666667), wk =   0.0185185
        k(   56) = (   0.1666667   0.0000000  -0.3333333), wk =   0.0185185
        k(   57) = (   0.6666667  -0.1666667  -0.1666667), wk =   0.0370370
        k(   58) = (   0.6666667  -0.1666667  -0.3333333), wk =   0.0370370
        k(   59) = (   1.1666667  -0.3333333  -0.1666667), wk =   0.0370370
        k(   60) = (   1.1666667  -0.3333333  -0.3333333), wk =   0.0370370
        k(   61) = (  -1.3333333   0.5000000  -0.1666667), wk =   0.0370370
        k(   62) = (  -1.3333333   0.5000000  -0.3333333), wk =   0.0370370
        k(   63) = (  -0.3333333   0.1666667  -0.1666667), wk =   0.0370370
        k(   64) = (  -0.3333333   0.1666667  -0.3333333), wk =   0.0370370
        k(   65) = (   0.3333333   0.0000000  -0.1666667), wk =   0.0185185
        k(   66) = (   0.3333333   0.0000000  -0.3333333), wk =   0.0185185
        k(   67) = (   1.3333333  -0.3333333  -0.1666667), wk =   0.0370370
        k(   68) = (   1.3333333  -0.3333333  -0.3333333), wk =   0.0370370

     Check: negative core charge=   -0.000002

     Initial potential from superposition of free atoms

     starting charge     107.9776, renormalised to     108.0000
     Starting wfcs are   78 randomized atomic wfcs

     Self-consistent Calculation

     iteration #  1     ecut=    50.00 Ry     beta= 0.30
     Davidson diagonalization with overlap

     ethr =  1.00E-02,  avg # of iterations =  1.5

     total energy              =   -1084.15011078 Ry
     estimated scf accuracy    <       2.42300781 Ry

[...]

     c_bands:  1 eigenvalues not converged
     c_bands:  1 eigenvalues not converged
     ethr =  7.72E-08,  avg # of iterations = 18.4

[...]

     c_bands:  1 eigenvalues not converged
     c_bands:  1 eigenvalues not converged
     ethr =  2.60E-11,  avg # of iterations = 11.7

     total energy              =   -1084.73160187 Ry
     estimated scf accuracy    <       0.00000041 Ry

     iteration # 28     ecut=    50.00 Ry     beta= 0.30
     Davidson diagonalization with overlap

     ethr =  2.60E-11,  avg # of iterations = 10.8

     End of self-consistent calculation

          k = 0.0000 0.0000 0.0000 (  7461 PWs)   bands (ev):

   -12.4608 -12.1939 -12.1939 -12.0620 -11.9670 -11.9670  -0.9669  -0.9669
    -0.9357  -0.9355  -0.9189  -0.8212  -0.8210  -0.8108  -0.8108  -0.8058
    -0.8058  -0.6286  -0.6286  -0.5785  -0.5785  -0.4743  -0.4743  -0.3749
    -0.3748  -0.3747  -0.3747  -0.3309  -0.3309  -0.3228  -0.2616  -0.2615
    -0.2449  -0.2449  -0.1095  -0.1095   0.2571   0.8729   0.8729   1.4197
     1.4197   2.0090   2.0090   2.7029   2.7029   3.4031   3.4031   3.4135
     3.4142   3.5435   3.5435   3.9183   3.9443   3.9450

     occupation numbers
     1.0000   1.0000   1.0000   1.0000   1.0000   1.0000   1.0000   1.0000
     1.0000   1.0000   1.0000   1.0000   1.0000   1.0000   1.0000   1.0000
     1.0000   1.0000   1.0000   1.0000   1.0000   1.0000   1.0000   1.0000
     1.0000   1.0000   1.0000   1.0000   1.0000   1.0000   1.0000   1.0000
     1.0000   1.0000   1.0000   1.0000   1.0000   1.0000   1.0000   1.0000
     1.0000   1.0000   1.0000   1.0000   1.0000   1.0000   1.0000   1.0000
     1.0000   1.0000   1.0000   1.0000   1.0000   1.0000

[...]

          k =-0.5000-0.2887 0.0000 (  7460 PWs)   bands (ev):

[...]

          k =-0.3333 0.3849-0.6194 (  7457 PWs)   bands (ev):

[...]

          k = 1.3333-0.3849-0.6194 (  7433 PWs)   bands (ev):

   -12.1719 -12.0785 -12.0418 -12.0219 -11.9953 -11.9781  -0.9674  -0.9505
    -0.8888  -0.8717  -0.8606  -0.7982  -0.7932  -0.7398  -0.7384  -0.7315
    -0.6674  -0.6590  -0.6107  -0.5881  -0.5880  -0.5756  -0.5300  -0.5045
    -0.3454  -0.3301  -0.3194  -0.3194  -0.3055  -0.2887  -0.2721  -0.2445
    -0.2193  -0.1755  -0.1697  -0.1162   0.8024   0.8613   0.9765   1.1414
     1.1930   1.6362   1.9650   2.4453   2.5509   2.5875   2.6842   2.8202
     2.8894   3.0465   3.1780   3.2824   3.2900   3.3969

     occupation numbers
     1.0000   1.0000   1.0000   1.0000   1.0000   1.0000   1.0000   1.0000
     1.0000   1.0000   1.0000   1.0000   1.0000   1.0000   1.0000   1.0000
     1.0000   1.0000   1.0000   1.0000   1.0000   1.0000   1.0000   1.0000
     1.0000   1.0000   1.0000   1.0000   1.0000   1.0000   1.0000   1.0000
     1.0000   1.0000   1.0000   1.0000   1.0000   1.0000   1.0000   1.0000
     1.0000   1.0000   1.0000   1.0000   1.0000   1.0000   1.0000   1.0000
     1.0000   1.0000   1.0000   1.0000   1.0000   1.0000

     highest occupied level (ev):     3.9450

!    total energy              =   -1084.73160194 Ry
     estimated scf accuracy    <          5.7E-10 Ry

     The total energy is the sum of the following terms:
     one-electron contribution =    -540.64715953 Ry
     hartree contribution      =     382.89968259 Ry
     xc contribution           =    -327.39076428 Ry
     ewald contribution        =    -599.59336072 Ry

     convergence has been achieved in  28 iterations

     Forces acting on atoms (cartesian axes, Ry/au):

     atom    1 type  1   force =    -0.00000957   -0.00000553   -0.00010909
     atom    2 type  1   force =    -0.00000681   -0.00000393   -0.00010915
     atom    3 type  2   force =    -0.00000615   -0.00000355    0.00011076
     atom    4 type  2   force =     0.00000631    0.00000364    0.00011096
     atom    5 type  1   force =    -0.00000171   -0.00000099   -0.00010598
     atom    6 type  1   force =     0.00000768    0.00000443   -0.00011623
     atom    7 type  2   force =    -0.00000655   -0.00000378    0.00011067
     atom    8 type  2   force =     0.00000617    0.00000356    0.00011074
     atom    9 type  1   force =    -0.00000175   -0.00000101   -0.00011717
     atom   10 type  1   force =     0.00001250    0.00000722   -0.00010713
     atom   11 type  2   force =    -0.00000606   -0.00000350    0.00011103
     atom   12 type  2   force =     0.00000593    0.00000342    0.00011059
     The non-local contrib.  to forces
     atom    1 type  1   force =     0.00002374    0.00001371   -0.00456797
     atom    2 type  1   force =    -0.00003278   -0.00001893   -0.00456878
     atom    3 type  2   force =    -0.00022188   -0.00012810    0.00645005
     atom    4 type  2   force =     0.00022542    0.00013014    0.00644788
     atom    5 type  1   force =     0.00002932    0.00001693   -0.00456691
     atom    6 type  1   force =    -0.00002527   -0.00001459   -0.00457245
     atom    7 type  2   force =    -0.00022453   -0.00012963    0.00644861
     atom    8 type  2   force =     0.00022272    0.00012859    0.00644645
     atom    9 type  1   force =     0.00002963    0.00001711   -0.00457236
     atom   10 type  1   force =    -0.00002422   -0.00001398   -0.00456865
     atom   11 type  2   force =    -0.00022247   -0.00012844    0.00644746
     atom   12 type  2   force =     0.00022018    0.00012712    0.00644879
     The ionic contribution  to forces
     atom    1 type  1   force =     0.00000001    0.00000000    0.05376957
     atom    2 type  1   force =     0.00000001    0.00000000    0.05376957
     atom    3 type  2   force =     0.00000000    0.00000000   -0.05376957
     atom    4 type  2   force =     0.00000000    0.00000000   -0.05376957
     atom    5 type  1   force =    -0.00000001    0.00000000    0.05376956
     atom    6 type  1   force =     0.00000001   -0.00000000    0.05376956
     atom    7 type  2   force =    -0.00000001    0.00000000   -0.05376956
     atom    8 type  2   force =     0.00000001   -0.00000000   -0.05376956
     atom    9 type  1   force =    -0.00000001   -0.00000000    0.05376957
     atom   10 type  1   force =    -0.00000001   -0.00000000    0.05376957
     atom   11 type  2   force =    -0.00000000   -0.00000000   -0.05376957
     atom   12 type  2   force =    -0.00000000   -0.00000000   -0.05376957
     The local contribution  to forces
     atom    1 type  1   force =    -0.00001417   -0.00000818   -0.04959475
     atom    2 type  1   force =     0.00004031    0.00002322   -0.04959733
     atom    3 type  2   force =     0.00021050    0.00012153    0.04750895
     atom    4 type  2   force =    -0.00020703   -0.00011954    0.04750586
     atom    5 type  1   force =    -0.00003190   -0.00001831   -0.04960117
     atom    6 type  1   force =     0.00001915    0.00001095   -0.04958522
     atom    7 type  2   force =     0.00021049    0.00012155    0.04751144
     atom    8 type  2   force =    -0.00021177   -0.00012230    0.04750447
     atom    9 type  1   force =    -0.00003029   -0.00001743   -0.04958717
     atom   10 type  1   force =     0.00001662    0.00000960   -0.04959629
     atom   11 type  2   force =     0.00021053    0.00012156    0.04750322
     atom   12 type  2   force =    -0.00021288   -0.00012290    0.04751060
     The core correction contribution to forces
     atom    1 type  1   force =    -0.00000768   -0.00000451    0.00028197
     atom    2 type  1   force =     0.00000741    0.00000428    0.00028223
     atom    3 type  2   force =     0.00000247    0.00000142   -0.00007326
     atom    4 type  2   force =    -0.00000252   -0.00000145   -0.00007325
     atom    5 type  1   force =    -0.00000718   -0.00000429    0.00028216
     atom    6 type  1   force =     0.00000744    0.00000443    0.00028193
     atom    7 type  2   force =     0.00000253    0.00000147   -0.00007325
     atom    8 type  2   force =    -0.00000250   -0.00000145   -0.00007324
     atom    9 type  1   force =    -0.00000748   -0.00000432    0.00028216
     atom   10 type  1   force =     0.00000747    0.00000439    0.00028208
     atom   11 type  2   force =     0.00000249    0.00000143   -0.00007325
     atom   12 type  2   force =    -0.00000246   -0.00000141   -0.00007324
     The Hubbard contrib.    to forces
     atom    1 type  1   force =     0.00000000    0.00000000    0.00000000
     atom    2 type  1   force =     0.00000000    0.00000000    0.00000000
     atom    3 type  2   force =     0.00000000    0.00000000    0.00000000
     atom    4 type  2   force =     0.00000000    0.00000000    0.00000000
     atom    5 type  1   force =     0.00000000    0.00000000    0.00000000
     atom    6 type  1   force =     0.00000000    0.00000000    0.00000000
     atom    7 type  2   force =     0.00000000    0.00000000    0.00000000
     atom    8 type  2   force =     0.00000000    0.00000000    0.00000000
     atom    9 type  1   force =     0.00000000    0.00000000    0.00000000
     atom   10 type  1   force =     0.00000000    0.00000000    0.00000000
     atom   11 type  2   force =     0.00000000    0.00000000    0.00000000
     atom   12 type  2   force =     0.00000000    0.00000000    0.00000000
     The SCF correction term to forces
     atom    1 type  1   force =    -0.00001140   -0.00000658    0.00000139
     atom    2 type  1   force =    -0.00002170   -0.00001253    0.00000445
     atom    3 type  2   force =     0.00000279    0.00000161   -0.00000611
     atom    4 type  2   force =    -0.00000952   -0.00000550   -0.00000066
     atom    5 type  1   force =     0.00000811    0.00000468    0.00000966
     atom    6 type  1   force =     0.00000637    0.00000368   -0.00001075
     atom    7 type  2   force =     0.00000498    0.00000288   -0.00000727
     atom    8 type  2   force =    -0.00000223   -0.00000129    0.00000192
     atom    9 type  1   force =     0.00000640    0.00000370   -0.00001008
     atom   10 type  1   force =     0.00001263    0.00000729    0.00000546
     atom   11 type  2   force =     0.00000342    0.00000198    0.00000246
     atom   12 type  2   force =     0.00000111    0.00000064   -0.00000669

     Total force =     0.000385     Total SCF correction =     0.000044
     SCF correction compared to forces is large: reduce conv_thr to get better values

     General routines

     Parallel routines

   This run was terminated on:   4: 3:21  28Aug2025

   JOB DONE.