     Program PWSCF v.7.0 starts on 28Aug2025 at  3:35:47

     K-points division:     npool     =      17

     Reading input from /home/jvc/QEspresso7.2/ZnO_database/scripts/cell311.in/ZnO-3.53-1.58-311.in
Warning: card &CELL ignored
Warning: card / ignored
Warning: card &FCP ignored
Warning: card / ignored
Warning: card &RISM ignored
Warning: card / ignored

     Current dimensions of program PWSCF are:
     Max number of different atomic species (ntypx) = 10
     Max number of k-points (npk) =  40000
     Max angular momentum in pseudopotentials (lmaxx) =  4
     file Zn.upf: wavefunction(s)  3D renormalized
     Found identity + (  0.3333  0.0000  0.0000) symmetry
     This is a supercell, fractional translations are disabled
     Message from routine setup:
     using ibrav=0 with symmetry is DISCOURAGED, use correct ibrav instead

     Subspace diagonalization in iterative solution of the eigenvalue problem:
     a serial algorithm will be used

     Using Slab Decomposition

     bravais-lattice index     =            0
     lattice parameter (alat)  =      20.0195  a.u.
     unit-cell volume          =    1221.4423 (a.u.)^3
     number of atoms/cell      =           12
     number of atomic types    =            2
     number of electrons       =       108.00
     number of Kohn-Sham states=           54
     kinetic-energy cutoff     =      50.0000  Ry
     charge density cutoff     =     400.0000  Ry
     scf convergence threshold =      1.0E-08
     mixing beta               =       0.3000
     number of iterations used =            8  plain     mixing
     Exchange-correlation= PBE
                           (   1   4   3   4   0   0   0)

     celldm(1)=  20.019487  celldm(2)=   0.000000  celldm(3)=   0.000000
     celldm(4)=   0.000000  celldm(5)=   0.000000  celldm(6)=   0.000000

     crystal axes: (cart. coord. in units of alat)
               a(1) = (   1.000000   0.000000   0.000000 )
               a(2) = (  -0.166667   0.288675   0.000000 )
               a(3) = (   0.000000   0.000000   0.527357 )

     reciprocal axes: (cart. coord. in units 2 pi/alat)
               b(1) = (  1.000000  0.577350 -0.000000 )
               b(2) = (  0.000000  3.464102  0.000000 )
               b(3) = (  0.000000 -0.000000  1.896248 )

     PseudoPot. # 1 for Zn read from file:
     /home/jvc/QEspresso7.2/ZnO_database/pseudos/Zn.upf
     MD5 check sum: 7f56cabf9682ed8c977c2f7d0c5985c5
     Pseudo is Ultrasoft + core correction, Zval = 12.0
     Generated using &quot;atomic&quot; code by A. Dal Corso  v.6.2.2
     Using radial grid of 1201 points,  6 beta functions with:
                l(1) =   0
                l(2) =   0
                l(3) =   1
                l(4) =   1
                l(5) =   2
                l(6) =   2
     Q(r) pseudized with 0 coefficients

     PseudoPot. # 2 for O  read from file:
     /home/jvc/QEspresso7.2/ZnO_database/pseudos/O.upf
     MD5 check sum: 91400c9766925bcf19f520983a725ff0
     Pseudo is Ultrasoft + core correction, Zval =  6.0
     Generated using &quot;atomic&quot; code by A. Dal Corso  v.6.3MaX
     Using radial grid of 1095 points,  4 beta functions with:
                l(1) =   0
                l(2) =   0
                l(3) =   1
                l(4) =   1
     Q(r) pseudized with 0 coefficients

     atomic species   valence    mass     pseudopotential
        Zn            12.00    65.38000     Zn( 1.00)
        O              6.00    15.99900     O ( 1.00)

      2 Sym. Ops. (no inversion) found

                                    s                        frac. trans.

      isym =  1     identity

 cryst.   s( 1) = (     1          0          0      )
                  (     0          1          0      )
                  (     0          0          1      )

 cart.    s( 1) = (  1.0000000 -0.0000000  0.0000000 )
                  (  0.0000000  1.0000000  0.0000000 )
                  (  0.0000000  0.0000000  1.0000000 )

      isym =  2     inv. 180 deg rotation - cryst. axis [0,1,0]

 cryst.   s( 2) = (     1          3          0      )
                  (     0         -1          0      )
                  (     0          0          1      )

 cart.    s( 2) = (  0.5000000  0.8660254  0.0000000 )
                  (  0.8660254 -0.5000000  0.0000000 )
                  (  0.0000000  0.0000000  1.0000000 )

   Cartesian axes

     site n.     atom                  positions (alat units)
         1           Zn  tau(   1) = (   0.1666667   0.0962250   0.2640127  )
         2           Zn  tau(   2) = (  -0.0000000   0.1924501   0.0003341  )
         3           O   tau(   3) = (   0.1666667   0.0962250   0.4639036  )
         4           O   tau(   4) = (  -0.0000000   0.1924501   0.2002250  )
         5           Zn  tau(   5) = (   0.5000000   0.0962250   0.2640127  )
         6           Zn  tau(   6) = (   0.3333333   0.1924501   0.0003341  )
         7           O   tau(   7) = (   0.5000000   0.0962250   0.4639036  )
         8           O   tau(   8) = (   0.3333333   0.1924501   0.2002250  )
         9           Zn  tau(   9) = (   0.8333333   0.0962250   0.2640127  )
        10           Zn  tau(  10) = (   0.6666667   0.1924501   0.0003341  )
        11           O   tau(  11) = (   0.8333333   0.0962250   0.4639036  )
        12           O   tau(  12) = (   0.6666667   0.1924501   0.2002250  )

   Crystallographic axes

     site n.     atom                  positions (cryst. coord.)
         1           Zn  tau(   1) = (  0.2222222  0.3333333  0.5006336  )
         2           Zn  tau(   2) = (  0.1111111  0.6666667  0.0006336  )
         3           O   tau(   3) = (  0.2222222  0.3333333  0.8796764  )
         4           O   tau(   4) = (  0.1111111  0.6666667  0.3796764  )
         5           Zn  tau(   5) = (  0.5555556  0.3333333  0.5006336  )
         6           Zn  tau(   6) = (  0.4444444  0.6666667  0.0006336  )
         7           O   tau(   7) = (  0.5555556  0.3333333  0.8796764  )
         8           O   tau(   8) = (  0.4444444  0.6666667  0.3796764  )
         9           Zn  tau(   9) = (  0.8888889  0.3333333  0.5006336  )
        10           Zn  tau(  10) = (  0.7777778  0.6666667  0.0006336  )
        11           O   tau(  11) = (  0.8888889  0.3333333  0.8796764  )
        12           O   tau(  12) = (  0.7777778  0.6666667  0.3796764  )

     number of k points=    68
                       cart. coord. in units 2pi/alat
        k(    1) = (   0.0000000   0.0000000   0.0000000), wk =   0.0092593
        k(    2) = (   0.0000000   0.0000000   0.3160414), wk =   0.0185185
        k(    3) = (   0.0000000   0.0000000   0.6320828), wk =   0.0185185
        k(    4) = (   0.0000000   0.0000000  -0.9481242), wk =   0.0092593
        k(    5) = (   0.0000000   0.5773503   0.0000000), wk =   0.0370370
        k(    6) = (   0.0000000   0.5773503   0.3160414), wk =   0.0370370
        k(    7) = (   0.0000000   0.5773503   0.6320828), wk =   0.0370370
        k(    8) = (   0.0000000   0.5773503  -0.9481242), wk =   0.0370370
        k(    9) = (   0.0000000   1.1547005   0.0000000), wk =   0.0185185
        k(   10) = (   0.0000000   1.1547005   0.3160414), wk =   0.0370370
        k(   11) = (   0.0000000   1.1547005   0.6320828), wk =   0.0370370
        k(   12) = (   0.0000000   1.1547005  -0.9481242), wk =   0.0185185
        k(   13) = (   0.0000000  -1.7320508   0.0000000), wk =   0.0185185
        k(   14) = (   0.0000000  -1.7320508   0.3160414), wk =   0.0370370
        k(   15) = (   0.0000000  -1.7320508   0.6320828), wk =   0.0370370
        k(   16) = (   0.0000000  -1.7320508  -0.9481242), wk =   0.0185185
        k(   17) = (   0.1666667   0.0962250   0.0000000), wk =   0.0185185
        k(   18) = (   0.1666667   0.0962250   0.3160414), wk =   0.0185185
        k(   19) = (   0.1666667   0.0962250   0.6320828), wk =   0.0185185
        k(   20) = (   0.1666667   0.0962250  -0.9481242), wk =   0.0185185
        k(   21) = (   0.1666667   0.6735753   0.0000000), wk =   0.0370370
        k(   22) = (   0.1666667   0.6735753   0.3160414), wk =   0.0370370
        k(   23) = (   0.1666667   0.6735753   0.6320828), wk =   0.0370370
        k(   24) = (   0.1666667   0.6735753  -0.9481242), wk =   0.0370370
        k(   25) = (   0.1666667   1.2509256   0.0000000), wk =   0.0370370
        k(   26) = (   0.1666667   1.2509256   0.3160414), wk =   0.0370370
        k(   27) = (   0.1666667   1.2509256   0.6320828), wk =   0.0370370
        k(   28) = (   0.1666667   1.2509256  -0.9481242), wk =   0.0370370
        k(   29) = (   0.1666667  -1.6358258   0.0000000), wk =   0.0370370
        k(   30) = (   0.1666667  -1.6358258   0.3160414), wk =   0.0370370
        k(   31) = (   0.1666667  -1.6358258   0.6320828), wk =   0.0370370
        k(   32) = (   0.1666667  -1.6358258  -0.9481242), wk =   0.0370370
        k(   33) = (   0.1666667  -0.4811252   0.0000000), wk =   0.0370370
        k(   34) = (   0.1666667  -0.4811252   0.3160414), wk =   0.0370370
        k(   35) = (   0.1666667  -0.4811252   0.6320828), wk =   0.0370370
        k(   36) = (   0.1666667  -0.4811252  -0.9481242), wk =   0.0370370
        k(   37) = (   0.3333333   0.1924501   0.0000000), wk =   0.0185185
        k(   38) = (   0.3333333   0.1924501   0.3160414), wk =   0.0185185
        k(   39) = (   0.3333333   0.1924501   0.6320828), wk =   0.0185185
        k(   40) = (   0.3333333   0.1924501  -0.9481242), wk =   0.0185185
        k(   41) = (   0.3333333   1.3471506   0.0000000), wk =   0.0370370
        k(   42) = (   0.3333333   1.3471506   0.3160414), wk =   0.0370370
        k(   43) = (   0.3333333   1.3471506   0.6320828), wk =   0.0370370
        k(   44) = (   0.3333333   1.3471506  -0.9481242), wk =   0.0370370
        k(   45) = (  -0.5000000  -0.2886751   0.0000000), wk =   0.0092593
        k(   46) = (  -0.5000000  -0.2886751   0.3160414), wk =   0.0185185
        k(   47) = (  -0.5000000  -0.2886751   0.6320828), wk =   0.0185185
        k(   48) = (  -0.5000000  -0.2886751  -0.9481242), wk =   0.0092593
        k(   49) = (  -0.5000000   0.8660254   0.0000000), wk =   0.0185185
        k(   50) = (  -0.5000000   0.8660254   0.3160414), wk =   0.0370370
        k(   51) = (  -0.5000000   0.8660254   0.6320828), wk =   0.0370370
        k(   52) = (  -0.5000000   0.8660254  -0.9481242), wk =   0.0185185
        k(   53) = (   0.5000000  -0.2886751  -0.3160414), wk =   0.0370370
        k(   54) = (   0.5000000  -0.2886751  -0.6320828), wk =   0.0370370
        k(   55) = (   0.1666667   0.0962250  -0.3160414), wk =   0.0185185
        k(   56) = (   0.1666667   0.0962250  -0.6320828), wk =   0.0185185
        k(   57) = (   0.6666667  -0.1924501  -0.3160414), wk =   0.0370370
        k(   58) = (   0.6666667  -0.1924501  -0.6320828), wk =   0.0370370
        k(   59) = (   1.1666667  -0.4811252  -0.3160414), wk =   0.0370370
        k(   60) = (   1.1666667  -0.4811252  -0.6320828), wk =   0.0370370
        k(   61) = (  -1.3333333   0.9622504  -0.3160414), wk =   0.0370370
        k(   62) = (  -1.3333333   0.9622504  -0.6320828), wk =   0.0370370
        k(   63) = (  -0.3333333   0.3849002  -0.3160414), wk =   0.0370370
        k(   64) = (  -0.3333333   0.3849002  -0.6320828), wk =   0.0370370
        k(   65) = (   0.3333333   0.1924501  -0.3160414), wk =   0.0185185
        k(   66) = (   0.3333333   0.1924501  -0.6320828), wk =   0.0185185
        k(   67) = (   1.3333333  -0.3849002  -0.3160414), wk =   0.0370370
        k(   68) = (   1.3333333  -0.3849002  -0.6320828), wk =   0.0370370

                       cryst. coord.
        k(    1) = (   0.0000000   0.0000000   0.0000000), wk =   0.0092593
        k(    2) = (   0.0000000   0.0000000   0.1666667), wk =   0.0185185
        k(    3) = (   0.0000000   0.0000000   0.3333333), wk =   0.0185185
        k(    4) = (   0.0000000   0.0000000  -0.5000000), wk =   0.0092593
        k(    5) = (   0.0000000   0.1666667   0.0000000), wk =   0.0370370
        k(    6) = (   0.0000000   0.1666667   0.1666667), wk =   0.0370370
        k(    7) = (   0.0000000   0.1666667   0.3333333), wk =   0.0370370
        k(    8) = (   0.0000000   0.1666667  -0.5000000), wk =   0.0370370
        k(    9) = (   0.0000000   0.3333333   0.0000000), wk =   0.0185185
        k(   10) = (   0.0000000   0.3333333   0.1666667), wk =   0.0370370
        k(   11) = (   0.0000000   0.3333333   0.3333333), wk =   0.0370370
        k(   12) = (   0.0000000   0.3333333  -0.5000000), wk =   0.0185185
        k(   13) = (   0.0000000  -0.5000000   0.0000000), wk =   0.0185185
        k(   14) = (   0.0000000  -0.5000000   0.1666667), wk =   0.0370370
        k(   15) = (   0.0000000  -0.5000000   0.3333333), wk =   0.0370370
        k(   16) = (   0.0000000  -0.5000000  -0.5000000), wk =   0.0185185
        k(   17) = (   0.1666667  -0.0000000   0.0000000), wk =   0.0185185
        k(   18) = (   0.1666667  -0.0000000   0.1666667), wk =   0.0185185
        k(   19) = (   0.1666667  -0.0000000   0.3333333), wk =   0.0185185
        k(   20) = (   0.1666667  -0.0000000  -0.5000000), wk =   0.0185185
        k(   21) = (   0.1666667   0.1666667   0.0000000), wk =   0.0370370
        k(   22) = (   0.1666667   0.1666667   0.1666667), wk =   0.0370370
        k(   23) = (   0.1666667   0.1666667   0.3333333), wk =   0.0370370
        k(   24) = (   0.1666667   0.1666667  -0.5000000), wk =   0.0370370
        k(   25) = (   0.1666667   0.3333333   0.0000000), wk =   0.0370370
        k(   26) = (   0.1666667   0.3333333   0.1666667), wk =   0.0370370
        k(   27) = (   0.1666667   0.3333333   0.3333333), wk =   0.0370370
        k(   28) = (   0.1666667   0.3333333  -0.5000000), wk =   0.0370370
        k(   29) = (   0.1666667  -0.5000000   0.0000000), wk =   0.0370370
        k(   30) = (   0.1666667  -0.5000000   0.1666667), wk =   0.0370370
        k(   31) = (   0.1666667  -0.5000000   0.3333333), wk =   0.0370370
        k(   32) = (   0.1666667  -0.5000000  -0.5000000), wk =   0.0370370
        k(   33) = (   0.1666667  -0.1666667   0.0000000), wk =   0.0370370
        k(   34) = (   0.1666667  -0.1666667   0.1666667), wk =   0.0370370
        k(   35) = (   0.1666667  -0.1666667   0.3333333), wk =   0.0370370
        k(   36) = (   0.1666667  -0.1666667  -0.5000000), wk =   0.0370370
        k(   37) = (   0.3333333  -0.0000000   0.0000000), wk =   0.0185185
        k(   38) = (   0.3333333  -0.0000000   0.1666667), wk =   0.0185185
        k(   39) = (   0.3333333  -0.0000000   0.3333333), wk =   0.0185185
        k(   40) = (   0.3333333  -0.0000000  -0.5000000), wk =   0.0185185
        k(   41) = (   0.3333333   0.3333333   0.0000000), wk =   0.0370370
        k(   42) = (   0.3333333   0.3333333   0.1666667), wk =   0.0370370
        k(   43) = (   0.3333333   0.3333333   0.3333333), wk =   0.0370370
        k(   44) = (   0.3333333   0.3333333  -0.5000000), wk =   0.0370370
        k(   45) = (  -0.5000000   0.0000000   0.0000000), wk =   0.0092593
        k(   46) = (  -0.5000000   0.0000000   0.1666667), wk =   0.0185185
        k(   47) = (  -0.5000000   0.0000000   0.3333333), wk =   0.0185185
        k(   48) = (  -0.5000000   0.0000000  -0.5000000), wk =   0.0092593
        k(   49) = (  -0.5000000   0.3333333   0.0000000), wk =   0.0185185
        k(   50) = (  -0.5000000   0.3333333   0.1666667), wk =   0.0370370
        k(   51) = (  -0.5000000   0.3333333   0.3333333), wk =   0.0370370
        k(   52) = (  -0.5000000   0.3333333  -0.5000000), wk =   0.0185185
        k(   53) = (   0.5000000  -0.1666667  -0.1666667), wk =   0.0370370
        k(   54) = (   0.5000000  -0.1666667  -0.3333333), wk =   0.0370370
        k(   55) = (   0.1666667   0.0000000  -0.1666667), wk =   0.0185185
        k(   56) = (   0.1666667   0.0000000  -0.3333333), wk =   0.0185185
        k(   57) = (   0.6666667  -0.1666667  -0.1666667), wk =   0.0370370
        k(   58) = (   0.6666667  -0.1666667  -0.3333333), wk =   0.0370370
        k(   59) = (   1.1666667  -0.3333333  -0.1666667), wk =   0.0370370
        k(   60) = (   1.1666667  -0.3333333  -0.3333333), wk =   0.0370370
        k(   61) = (  -1.3333333   0.5000000  -0.1666667), wk =   0.0370370
        k(   62) = (  -1.3333333   0.5000000  -0.3333333), wk =   0.0370370
        k(   63) = (  -0.3333333   0.1666667  -0.1666667), wk =   0.0370370
        k(   64) = (  -0.3333333   0.1666667  -0.3333333), wk =   0.0370370
        k(   65) = (   0.3333333   0.0000000  -0.1666667), wk =   0.0185185
        k(   66) = (   0.3333333   0.0000000  -0.3333333), wk =   0.0185185
        k(   67) = (   1.3333333  -0.3333333  -0.1666667), wk =   0.0370370
        k(   68) = (   1.3333333  -0.3333333  -0.3333333), wk =   0.0370370

     Check: negative core charge=   -0.000002

     Initial potential from superposition of free atoms

     starting charge     107.9776, renormalised to     108.0000
     Starting wfcs are   78 randomized atomic wfcs

     Self-consistent Calculation

     iteration #  1     ecut=    50.00 Ry     beta= 0.30
     Davidson diagonalization with overlap

     ethr =  1.00E-02,  avg # of iterations =  1.5

     total energy              =   -1084.18839818 Ry
     estimated scf accuracy    <       2.38423318 Ry

[...]

     c_bands:  1 eigenvalues not converged
     c_bands:  1 eigenvalues not converged
     ethr =  1.94E-11,  avg # of iterations = 14.9

[...]

     c_bands:  1 eigenvalues not converged
     ethr =  1.94E-11,  avg # of iterations = 15.2

[...]

     total energy              =   -1084.75927055 Ry
     estimated scf accuracy    <       0.00000021 Ry

     iteration # 43     ecut=    50.00 Ry     beta= 0.30
     Davidson diagonalization with overlap

     ethr =  1.94E-11,  avg # of iterations =  9.6

     End of self-consistent calculation

          k = 0.0000 0.0000 0.0000 (  7311 PWs)   bands (ev):

   -12.3420 -12.0670 -12.0669 -11.9024 -11.8164 -11.8163  -0.7841  -0.7841
    -0.7371  -0.7369  -0.7273  -0.6133  -0.6132  -0.6095  -0.6094  -0.6050
    -0.6050  -0.4292  -0.4292  -0.3576  -0.3576  -0.2579  -0.2579  -0.1505
    -0.1505  -0.1432  -0.1432  -0.1042  -0.1042  -0.0839  -0.0228  -0.0228
    -0.0050  -0.0050   0.1348   0.1349   0.3879   1.0186   1.0186   1.6041
     1.6042   2.2040   2.2040   2.8353   2.8353   3.5697   3.5704   3.6082
     3.6083   3.7600   3.7600   4.1562   4.1569   4.1570

     occupation numbers
     1.0000   1.0000   1.0000   1.0000   1.0000   1.0000   1.0000   1.0000
     1.0000   1.0000   1.0000   1.0000   1.0000   1.0000   1.0000   1.0000
     1.0000   1.0000   1.0000   1.0000   1.0000   1.0000   1.0000   1.0000
     1.0000   1.0000   1.0000   1.0000   1.0000   1.0000   1.0000   1.0000
     1.0000   1.0000   1.0000   1.0000   1.0000   1.0000   1.0000   1.0000
     1.0000   1.0000   1.0000   1.0000   1.0000   1.0000   1.0000   1.0000
     1.0000   1.0000   1.0000   1.0000   1.0000   1.0000

[...]

          k =-0.5000-0.2887 0.0000 (  7300 PWs)   bands (ev):

[...]

          k =-0.3333 0.3849-0.6321 (  7318 PWs)   bands (ev):

[...]

          k = 1.3333-0.3849-0.6321 (  7282 PWs)   bands (ev):

   -12.0394 -11.9435 -11.8957 -11.8847 -11.8515 -11.8363  -0.7962  -0.7800
    -0.7078  -0.6935  -0.6833  -0.6213  -0.5952  -0.5449  -0.5402  -0.5395
    -0.4729  -0.4543  -0.4147  -0.3869  -0.3785  -0.3694  -0.3243  -0.3003
    -0.1137  -0.1020  -0.0889  -0.0878  -0.0761  -0.0576  -0.0351  -0.0088
     0.0197   0.0635   0.0671   0.1231   0.9772   1.0381   1.1636   1.3380
     1.3777   1.8366   2.1154   2.6221   2.7550   2.7913   2.8709   3.0313
     3.0507   3.2467   3.4023   3.4912   3.5112   3.6310

     occupation numbers
     1.0000   1.0000   1.0000   1.0000   1.0000   1.0000   1.0000   1.0000
     1.0000   1.0000   1.0000   1.0000   1.0000   1.0000   1.0000   1.0000
     1.0000   1.0000   1.0000   1.0000   1.0000   1.0000   1.0000   1.0000
     1.0000   1.0000   1.0000   1.0000   1.0000   1.0000   1.0000   1.0000
     1.0000   1.0000   1.0000   1.0000   1.0000   1.0000   1.0000   1.0000
     1.0000   1.0000   1.0000   1.0000   1.0000   1.0000   1.0000   1.0000
     1.0000   1.0000   1.0000   1.0000   1.0000   1.0000

     highest occupied level (ev):     4.1570

!    total energy              =   -1084.75927059 Ry
     estimated scf accuracy    <          3.4E-09 Ry

     The total energy is the sum of the following terms:
     one-electron contribution =    -534.39296845 Ry
     hartree contribution      =     380.61945321 Ry
     xc contribution           =    -327.48964345 Ry
     ewald contribution        =    -603.49611190 Ry

     convergence has been achieved in  43 iterations

     Forces acting on atoms (cartesian axes, Ry/au):

     atom    1 type  1   force =    -0.00000605   -0.00000349   -0.00014185
     atom    2 type  1   force =    -0.00000008   -0.00000005   -0.00013318
     atom    3 type  2   force =    -0.00000508   -0.00000293    0.00013893
     atom    4 type  2   force =     0.00000499    0.00000288    0.00013802
     atom    5 type  1   force =     0.00000595    0.00000344   -0.00015251
     atom    6 type  1   force =    -0.00000189   -0.00000109   -0.00013125
     atom    7 type  2   force =    -0.00000568   -0.00000328    0.00013880
     atom    8 type  2   force =     0.00000488    0.00000282    0.00013783
     atom    9 type  1   force =    -0.00000357   -0.00000206   -0.00014803
     atom   10 type  1   force =     0.00000801    0.00000463   -0.00012384
     atom   11 type  2   force =    -0.00000598   -0.00000345    0.00013873
     atom   12 type  2   force =     0.00000449    0.00000259    0.00013835
     The non-local contrib.  to forces
     atom    1 type  1   force =     0.00002203    0.00001272   -0.05630854
     atom    2 type  1   force =    -0.00002649   -0.00001529   -0.05631463
     atom    3 type  2   force =    -0.00021504   -0.00012415   -0.04517185
     atom    4 type  2   force =     0.00021960    0.00012678   -0.04518117
     atom    5 type  1   force =     0.00002543    0.00001468   -0.05631215
     atom    6 type  1   force =    -0.00002506   -0.00001447   -0.05631232
     atom    7 type  2   force =    -0.00021845   -0.00012612   -0.04517176
     atom    8 type  2   force =     0.00021703    0.00012530   -0.04518330
     atom    9 type  1   force =     0.00002342    0.00001352   -0.05630950
     atom   10 type  1   force =    -0.00001966   -0.00001135   -0.05631206
     atom   11 type  2   force =    -0.00021877   -0.00012631   -0.04517262
     atom   12 type  2   force =     0.00021762    0.00012564   -0.04518009
     The ionic contribution  to forces
     atom    1 type  1   force =     0.00000001    0.00000001   -0.30712516
     atom    2 type  1   force =     0.00000001    0.00000000   -0.30712516
     atom    3 type  2   force =     0.00000000    0.00000000    0.30712516
     atom    4 type  2   force =     0.00000000    0.00000000    0.30712516
     atom    5 type  1   force =    -0.00000001    0.00000000   -0.30712516
     atom    6 type  1   force =     0.00000001   -0.00000000   -0.30712516
     atom    7 type  2   force =    -0.00000001    0.00000000    0.30712516
     atom    8 type  2   force =     0.00000001   -0.00000000    0.30712516
     atom    9 type  1   force =    -0.00000001   -0.00000000   -0.30712516
     atom   10 type  1   force =    -0.00000001   -0.00000001   -0.30712516
     atom   11 type  2   force =    -0.00000000   -0.00000000    0.30712516
     atom   12 type  2   force =    -0.00000000   -0.00000000    0.30712516
     The local contribution  to forces
     atom    1 type  1   force =    -0.00001744   -0.00001007    0.35984927
     atom    2 type  1   force =     0.00002660    0.00001530    0.35985891
     atom    3 type  2   force =     0.00020733    0.00011970   -0.26219829
     atom    4 type  2   force =    -0.00020949   -0.00012096   -0.26219881
     atom    5 type  1   force =    -0.00002499   -0.00001432    0.35986534
     atom    6 type  1   force =     0.00002768    0.00001587    0.35984831
     atom    7 type  2   force =     0.00020885    0.00012061   -0.26219433
     atom    8 type  2   force =    -0.00021401   -0.00012359   -0.26220017
     atom    9 type  1   force =    -0.00001795   -0.00001031    0.35985026
     atom   10 type  1   force =     0.00000449    0.00000259    0.35985004
     atom   11 type  2   force =     0.00021204    0.00012244   -0.26219787
     atom   12 type  2   force =    -0.00020766   -0.00011990   -0.26220100
     The core correction contribution to forces
     atom    1 type  1   force =    -0.00000660   -0.00000389    0.00345482
     atom    2 type  1   force =     0.00000666    0.00000385    0.00345451
     atom    3 type  2   force =     0.00000241    0.00000139    0.00038287
     atom    4 type  2   force =    -0.00000249   -0.00000143    0.00038298
     atom    5 type  1   force =    -0.00000669   -0.00000402    0.00345443
     atom    6 type  1   force =     0.00000627    0.00000378    0.00345489
     atom    7 type  2   force =     0.00000247    0.00000143    0.00038287
     atom    8 type  2   force =    -0.00000247   -0.00000143    0.00038299
     atom    9 type  1   force =    -0.00000686   -0.00000397    0.00345507
     atom   10 type  1   force =     0.00000718    0.00000422    0.00345452
     atom   11 type  2   force =     0.00000248    0.00000143    0.00038287
     atom   12 type  2   force =    -0.00000245   -0.00000141    0.00038297
     The Hubbard contrib.    to forces
     atom    1 type  1   force =     0.00000000    0.00000000    0.00000000
     atom    2 type  1   force =     0.00000000    0.00000000    0.00000000
     atom    3 type  2   force =     0.00000000    0.00000000    0.00000000
     atom    4 type  2   force =     0.00000000    0.00000000    0.00000000
     atom    5 type  1   force =     0.00000000    0.00000000    0.00000000
     atom    6 type  1   force =     0.00000000    0.00000000    0.00000000
     atom    7 type  2   force =     0.00000000    0.00000000    0.00000000
     atom    8 type  2   force =     0.00000000    0.00000000    0.00000000
     atom    9 type  1   force =     0.00000000    0.00000000    0.00000000
     atom   10 type  1   force =     0.00000000    0.00000000    0.00000000
     atom   11 type  2   force =     0.00000000    0.00000000    0.00000000
     atom   12 type  2   force =     0.00000000    0.00000000    0.00000000
     The SCF correction term to forces
     atom    1 type  1   force =    -0.00000359   -0.00000207   -0.00001723
     atom    2 type  1   force =    -0.00000642   -0.00000370   -0.00001180
     atom    3 type  2   force =     0.00000064    0.00000037   -0.00000395
     atom    4 type  2   force =    -0.00000220   -0.00000127    0.00000487
     atom    5 type  1   force =     0.00001265    0.00000731   -0.00003997
     atom    6 type  1   force =    -0.00001038   -0.00000599   -0.00000195
     atom    7 type  2   force =     0.00000185    0.00000107   -0.00000814
     atom    8 type  2   force =     0.00000476    0.00000275    0.00000815
     atom    9 type  1   force =    -0.00000177   -0.00000102   -0.00002369
     atom   10 type  1   force =     0.00001640    0.00000947    0.00000383
     atom   11 type  2   force =    -0.00000131   -0.00000076   -0.00000380
     atom   12 type  2   force =    -0.00000260   -0.00000150    0.00000632

     Total force =     0.000481     Total SCF correction =     0.000061
     SCF correction compared to forces is large: reduce conv_thr to get better values

     General routines

     Parallel routines

   This run was terminated on:   3:50: 7  28Aug2025

   JOB DONE.