     Program PWSCF v.7.0 starts on 27Aug2025 at 13: 5:27

     K-points division:     npool     =      17

     Reading input from /home/jvc/QEspresso7.2/ZnO_database/scripts/cell311.in/ZnO-3.01-1.45-311.in
Warning: card &CELL ignored
Warning: card / ignored
Warning: card &FCP ignored
Warning: card / ignored
Warning: card &RISM ignored
Warning: card / ignored

     Current dimensions of program PWSCF are:
     Max number of different atomic species (ntypx) = 10
     Max number of k-points (npk) =  40000
     Max angular momentum in pseudopotentials (lmaxx) =  4
     file Zn.upf: wavefunction(s)  3D renormalized
     Found identity + (  0.3333  0.0000  0.0000) symmetry
     This is a supercell, fractional translations are disabled
     Message from routine setup:
     using ibrav=0 with symmetry is DISCOURAGED, use correct ibrav instead

     Subspace diagonalization in iterative solution of the eigenvalue problem:
     a serial algorithm will be used

     Using Slab Decomposition

     bravais-lattice index     =            0
     lattice parameter (alat)  =      17.0536  a.u.
     unit-cell volume          =     693.3965 (a.u.)^3
     number of atoms/cell      =           12
     number of atomic types    =            2
     number of electrons       =       108.00
     number of Kohn-Sham states=           54
     kinetic-energy cutoff     =      50.0000  Ry
     charge density cutoff     =     400.0000  Ry
     scf convergence threshold =      1.0E-08
     mixing beta               =       0.3000
     number of iterations used =            8  plain     mixing
     Exchange-correlation= PBE
                           (   1   4   3   4   0   0   0)

     celldm(1)=  17.053637  celldm(2)=   0.000000  celldm(3)=   0.000000
     celldm(4)=   0.000000  celldm(5)=   0.000000  celldm(6)=   0.000000

     crystal axes: (cart. coord. in units of alat)
               a(1) = (   1.000000   0.000000   0.000000 )
               a(2) = (  -0.166667   0.288675   0.000000 )
               a(3) = (   0.000000   0.000000   0.484308 )

     reciprocal axes: (cart. coord. in units 2 pi/alat)
               b(1) = (  1.000000  0.577350 -0.000000 )
               b(2) = (  0.000000  3.464102  0.000000 )
               b(3) = (  0.000000 -0.000000  2.064804 )

     PseudoPot. # 1 for Zn read from file:
     /home/jvc/QEspresso7.2/ZnO_database/pseudos/Zn.upf
     MD5 check sum: 7f56cabf9682ed8c977c2f7d0c5985c5
     Pseudo is Ultrasoft + core correction, Zval = 12.0
     Generated using &quot;atomic&quot; code by A. Dal Corso  v.6.2.2
     Using radial grid of 1201 points,  6 beta functions with:
                l(1) =   0
                l(2) =   0
                l(3) =   1
                l(4) =   1
                l(5) =   2
                l(6) =   2
     Q(r) pseudized with 0 coefficients

     PseudoPot. # 2 for O  read from file:
     /home/jvc/QEspresso7.2/ZnO_database/pseudos/O.upf
     MD5 check sum: 91400c9766925bcf19f520983a725ff0
     Pseudo is Ultrasoft + core correction, Zval =  6.0
     Generated using &quot;atomic&quot; code by A. Dal Corso  v.6.3MaX
     Using radial grid of 1095 points,  4 beta functions with:
                l(1) =   0
                l(2) =   0
                l(3) =   1
                l(4) =   1
     Q(r) pseudized with 0 coefficients

     atomic species   valence    mass     pseudopotential
        Zn            12.00    65.38000     Zn( 1.00)
        O              6.00    15.99900     O ( 1.00)

      2 Sym. Ops. (no inversion) found

                                    s                        frac. trans.

      isym =  1     identity

 cryst.   s( 1) = (     1          0          0      )
                  (     0          1          0      )
                  (     0          0          1      )

 cart.    s( 1) = (  1.0000000  0.0000000  0.0000000 )
                  (  0.0000000  1.0000000  0.0000000 )
                  (  0.0000000  0.0000000  1.0000000 )

      isym =  2     inv. 180 deg rotation - cryst. axis [0,1,0]

 cryst.   s( 2) = (     1          3          0      )
                  (     0         -1          0      )
                  (     0          0          1      )

 cart.    s( 2) = (  0.5000000  0.8660254  0.0000000 )
                  (  0.8660254 -0.5000000  0.0000000 )
                  (  0.0000000  0.0000000  1.0000000 )

   Cartesian axes

     site n.     atom                  positions (alat units)
         1           Zn  tau(   1) = (   0.1666667   0.0962250   0.2424606  )
         2           Zn  tau(   2) = (  -0.0000000   0.1924501   0.0003069  )
         3           O   tau(   3) = (   0.1666667   0.0962250   0.4260339  )
         4           O   tau(   4) = (  -0.0000000   0.1924501   0.1838801  )
         5           Zn  tau(   5) = (   0.5000000   0.0962250   0.2424606  )
         6           Zn  tau(   6) = (   0.3333333   0.1924501   0.0003069  )
         7           O   tau(   7) = (   0.5000000   0.0962250   0.4260339  )
         8           O   tau(   8) = (   0.3333333   0.1924501   0.1838801  )
         9           Zn  tau(   9) = (   0.8333333   0.0962250   0.2424606  )
        10           Zn  tau(  10) = (   0.6666667   0.1924501   0.0003069  )
        11           O   tau(  11) = (   0.8333333   0.0962250   0.4260339  )
        12           O   tau(  12) = (   0.6666667   0.1924501   0.1838801  )

   Crystallographic axes

     site n.     atom                  positions (cryst. coord.)
         1           Zn  tau(   1) = (  0.2222222  0.3333333  0.5006336  )
         2           Zn  tau(   2) = (  0.1111111  0.6666667  0.0006336  )
         3           O   tau(   3) = (  0.2222222  0.3333333  0.8796764  )
         4           O   tau(   4) = (  0.1111111  0.6666667  0.3796764  )
         5           Zn  tau(   5) = (  0.5555556  0.3333333  0.5006336  )
         6           Zn  tau(   6) = (  0.4444444  0.6666667  0.0006336  )
         7           O   tau(   7) = (  0.5555556  0.3333333  0.8796764  )
         8           O   tau(   8) = (  0.4444444  0.6666667  0.3796764  )
         9           Zn  tau(   9) = (  0.8888889  0.3333333  0.5006336  )
        10           Zn  tau(  10) = (  0.7777778  0.6666667  0.0006336  )
        11           O   tau(  11) = (  0.8888889  0.3333333  0.8796764  )
        12           O   tau(  12) = (  0.7777778  0.6666667  0.3796764  )

     number of k points=    68
                       cart. coord. in units 2pi/alat
        k(    1) = (   0.0000000   0.0000000   0.0000000), wk =   0.0092593
        k(    2) = (   0.0000000   0.0000000   0.3441340), wk =   0.0185185
        k(    3) = (   0.0000000   0.0000000   0.6882679), wk =   0.0185185
        k(    4) = (   0.0000000   0.0000000  -1.0324019), wk =   0.0092593
        k(    5) = (   0.0000000   0.5773503   0.0000000), wk =   0.0370370
        k(    6) = (   0.0000000   0.5773503   0.3441340), wk =   0.0370370
        k(    7) = (   0.0000000   0.5773503   0.6882679), wk =   0.0370370
        k(    8) = (   0.0000000   0.5773503  -1.0324019), wk =   0.0370370
        k(    9) = (   0.0000000   1.1547005   0.0000000), wk =   0.0185185
        k(   10) = (   0.0000000   1.1547005   0.3441340), wk =   0.0370370
        k(   11) = (   0.0000000   1.1547005   0.6882679), wk =   0.0370370
        k(   12) = (   0.0000000   1.1547005  -1.0324019), wk =   0.0185185
        k(   13) = (   0.0000000  -1.7320508   0.0000000), wk =   0.0185185
        k(   14) = (   0.0000000  -1.7320508   0.3441340), wk =   0.0370370
        k(   15) = (   0.0000000  -1.7320508   0.6882679), wk =   0.0370370
        k(   16) = (   0.0000000  -1.7320508  -1.0324019), wk =   0.0185185
        k(   17) = (   0.1666667   0.0962250   0.0000000), wk =   0.0185185
        k(   18) = (   0.1666667   0.0962250   0.3441340), wk =   0.0185185
        k(   19) = (   0.1666667   0.0962250   0.6882679), wk =   0.0185185
        k(   20) = (   0.1666667   0.0962250  -1.0324019), wk =   0.0185185
        k(   21) = (   0.1666667   0.6735753   0.0000000), wk =   0.0370370
        k(   22) = (   0.1666667   0.6735753   0.3441340), wk =   0.0370370
        k(   23) = (   0.1666667   0.6735753   0.6882679), wk =   0.0370370
        k(   24) = (   0.1666667   0.6735753  -1.0324019), wk =   0.0370370
        k(   25) = (   0.1666667   1.2509256   0.0000000), wk =   0.0370370
        k(   26) = (   0.1666667   1.2509256   0.3441340), wk =   0.0370370
        k(   27) = (   0.1666667   1.2509256   0.6882679), wk =   0.0370370
        k(   28) = (   0.1666667   1.2509256  -1.0324019), wk =   0.0370370
        k(   29) = (   0.1666667  -1.6358258   0.0000000), wk =   0.0370370
        k(   30) = (   0.1666667  -1.6358258   0.3441340), wk =   0.0370370
        k(   31) = (   0.1666667  -1.6358258   0.6882679), wk =   0.0370370
        k(   32) = (   0.1666667  -1.6358258  -1.0324019), wk =   0.0370370
        k(   33) = (   0.1666667  -0.4811252   0.0000000), wk =   0.0370370
        k(   34) = (   0.1666667  -0.4811252   0.3441340), wk =   0.0370370
        k(   35) = (   0.1666667  -0.4811252   0.6882679), wk =   0.0370370
        k(   36) = (   0.1666667  -0.4811252  -1.0324019), wk =   0.0370370
        k(   37) = (   0.3333333   0.1924501   0.0000000), wk =   0.0185185
        k(   38) = (   0.3333333   0.1924501   0.3441340), wk =   0.0185185
        k(   39) = (   0.3333333   0.1924501   0.6882679), wk =   0.0185185
        k(   40) = (   0.3333333   0.1924501  -1.0324019), wk =   0.0185185
        k(   41) = (   0.3333333   1.3471506   0.0000000), wk =   0.0370370
        k(   42) = (   0.3333333   1.3471506   0.3441340), wk =   0.0370370
        k(   43) = (   0.3333333   1.3471506   0.6882679), wk =   0.0370370
        k(   44) = (   0.3333333   1.3471506  -1.0324019), wk =   0.0370370
        k(   45) = (  -0.5000000  -0.2886751   0.0000000), wk =   0.0092593
        k(   46) = (  -0.5000000  -0.2886751   0.3441340), wk =   0.0185185
        k(   47) = (  -0.5000000  -0.2886751   0.6882679), wk =   0.0185185
        k(   48) = (  -0.5000000  -0.2886751  -1.0324019), wk =   0.0092593
        k(   49) = (  -0.5000000   0.8660254   0.0000000), wk =   0.0185185
        k(   50) = (  -0.5000000   0.8660254   0.3441340), wk =   0.0370370
        k(   51) = (  -0.5000000   0.8660254   0.6882679), wk =   0.0370370
        k(   52) = (  -0.5000000   0.8660254  -1.0324019), wk =   0.0185185
        k(   53) = (   0.5000000  -0.2886751  -0.3441340), wk =   0.0370370
        k(   54) = (   0.5000000  -0.2886751  -0.6882679), wk =   0.0370370
        k(   55) = (   0.1666667   0.0962250  -0.3441340), wk =   0.0185185
        k(   56) = (   0.1666667   0.0962250  -0.6882679), wk =   0.0185185
        k(   57) = (   0.6666667  -0.1924501  -0.3441340), wk =   0.0370370
        k(   58) = (   0.6666667  -0.1924501  -0.6882679), wk =   0.0370370
        k(   59) = (   1.1666667  -0.4811252  -0.3441340), wk =   0.0370370
        k(   60) = (   1.1666667  -0.4811252  -0.6882679), wk =   0.0370370
        k(   61) = (  -1.3333333   0.9622504  -0.3441340), wk =   0.0370370
        k(   62) = (  -1.3333333   0.9622504  -0.6882679), wk =   0.0370370
        k(   63) = (  -0.3333333   0.3849002  -0.3441340), wk =   0.0370370
        k(   64) = (  -0.3333333   0.3849002  -0.6882679), wk =   0.0370370
        k(   65) = (   0.3333333   0.1924501  -0.3441340), wk =   0.0185185
        k(   66) = (   0.3333333   0.1924501  -0.6882679), wk =   0.0185185
        k(   67) = (   1.3333333  -0.3849002  -0.3441340), wk =   0.0370370
        k(   68) = (   1.3333333  -0.3849002  -0.6882679), wk =   0.0370370

                       cryst. coord.
        k(    1) = (   0.0000000   0.0000000   0.0000000), wk =   0.0092593
        k(    2) = (   0.0000000   0.0000000   0.1666667), wk =   0.0185185
        k(    3) = (   0.0000000   0.0000000   0.3333333), wk =   0.0185185
        k(    4) = (   0.0000000   0.0000000  -0.5000000), wk =   0.0092593
        k(    5) = (   0.0000000   0.1666667   0.0000000), wk =   0.0370370
        k(    6) = (   0.0000000   0.1666667   0.1666667), wk =   0.0370370
        k(    7) = (   0.0000000   0.1666667   0.3333333), wk =   0.0370370
        k(    8) = (   0.0000000   0.1666667  -0.5000000), wk =   0.0370370
        k(    9) = (   0.0000000   0.3333333   0.0000000), wk =   0.0185185
        k(   10) = (   0.0000000   0.3333333   0.1666667), wk =   0.0370370
        k(   11) = (   0.0000000   0.3333333   0.3333333), wk =   0.0370370
        k(   12) = (   0.0000000   0.3333333  -0.5000000), wk =   0.0185185
        k(   13) = (   0.0000000  -0.5000000   0.0000000), wk =   0.0185185
        k(   14) = (   0.0000000  -0.5000000   0.1666667), wk =   0.0370370
        k(   15) = (   0.0000000  -0.5000000   0.3333333), wk =   0.0370370
        k(   16) = (   0.0000000  -0.5000000  -0.5000000), wk =   0.0185185
        k(   17) = (   0.1666667   0.0000000   0.0000000), wk =   0.0185185
        k(   18) = (   0.1666667   0.0000000   0.1666667), wk =   0.0185185
        k(   19) = (   0.1666667   0.0000000   0.3333333), wk =   0.0185185
        k(   20) = (   0.1666667   0.0000000  -0.5000000), wk =   0.0185185
        k(   21) = (   0.1666667   0.1666667   0.0000000), wk =   0.0370370
        k(   22) = (   0.1666667   0.1666667   0.1666667), wk =   0.0370370
        k(   23) = (   0.1666667   0.1666667   0.3333333), wk =   0.0370370
        k(   24) = (   0.1666667   0.1666667  -0.5000000), wk =   0.0370370
        k(   25) = (   0.1666667   0.3333333   0.0000000), wk =   0.0370370
        k(   26) = (   0.1666667   0.3333333   0.1666667), wk =   0.0370370
        k(   27) = (   0.1666667   0.3333333   0.3333333), wk =   0.0370370
        k(   28) = (   0.1666667   0.3333333  -0.5000000), wk =   0.0370370
        k(   29) = (   0.1666667  -0.5000000   0.0000000), wk =   0.0370370
        k(   30) = (   0.1666667  -0.5000000   0.1666667), wk =   0.0370370
        k(   31) = (   0.1666667  -0.5000000   0.3333333), wk =   0.0370370
        k(   32) = (   0.1666667  -0.5000000  -0.5000000), wk =   0.0370370
        k(   33) = (   0.1666667  -0.1666667   0.0000000), wk =   0.0370370
        k(   34) = (   0.1666667  -0.1666667   0.1666667), wk =   0.0370370
        k(   35) = (   0.1666667  -0.1666667   0.3333333), wk =   0.0370370
        k(   36) = (   0.1666667  -0.1666667  -0.5000000), wk =   0.0370370
        k(   37) = (   0.3333333   0.0000000   0.0000000), wk =   0.0185185
        k(   38) = (   0.3333333   0.0000000   0.1666667), wk =   0.0185185
        k(   39) = (   0.3333333   0.0000000   0.3333333), wk =   0.0185185
        k(   40) = (   0.3333333   0.0000000  -0.5000000), wk =   0.0185185
        k(   41) = (   0.3333333   0.3333333   0.0000000), wk =   0.0370370
        k(   42) = (   0.3333333   0.3333333   0.1666667), wk =   0.0370370
        k(   43) = (   0.3333333   0.3333333   0.3333333), wk =   0.0370370
        k(   44) = (   0.3333333   0.3333333  -0.5000000), wk =   0.0370370
        k(   45) = (  -0.5000000   0.0000000   0.0000000), wk =   0.0092593
        k(   46) = (  -0.5000000   0.0000000   0.1666667), wk =   0.0185185
        k(   47) = (  -0.5000000   0.0000000   0.3333333), wk =   0.0185185
        k(   48) = (  -0.5000000   0.0000000  -0.5000000), wk =   0.0092593
        k(   49) = (  -0.5000000   0.3333333   0.0000000), wk =   0.0185185
        k(   50) = (  -0.5000000   0.3333333   0.1666667), wk =   0.0370370
        k(   51) = (  -0.5000000   0.3333333   0.3333333), wk =   0.0370370
        k(   52) = (  -0.5000000   0.3333333  -0.5000000), wk =   0.0185185
        k(   53) = (   0.5000000  -0.1666667  -0.1666667), wk =   0.0370370
        k(   54) = (   0.5000000  -0.1666667  -0.3333333), wk =   0.0370370
        k(   55) = (   0.1666667   0.0000000  -0.1666667), wk =   0.0185185
        k(   56) = (   0.1666667   0.0000000  -0.3333333), wk =   0.0185185
        k(   57) = (   0.6666667  -0.1666667  -0.1666667), wk =   0.0370370
        k(   58) = (   0.6666667  -0.1666667  -0.3333333), wk =   0.0370370
        k(   59) = (   1.1666667  -0.3333333  -0.1666667), wk =   0.0370370
        k(   60) = (   1.1666667  -0.3333333  -0.3333333), wk =   0.0370370
        k(   61) = (  -1.3333333   0.5000000  -0.1666667), wk =   0.0370370
        k(   62) = (  -1.3333333   0.5000000  -0.3333333), wk =   0.0370370
        k(   63) = (  -0.3333333   0.1666667  -0.1666667), wk =   0.0370370
        k(   64) = (  -0.3333333   0.1666667  -0.3333333), wk =   0.0370370
        k(   65) = (   0.3333333   0.0000000  -0.1666667), wk =   0.0185185
        k(   66) = (   0.3333333   0.0000000  -0.3333333), wk =   0.0185185
        k(   67) = (   1.3333333  -0.3333333  -0.1666667), wk =   0.0370370
        k(   68) = (   1.3333333  -0.3333333  -0.3333333), wk =   0.0370370

     Check: negative core charge=   -0.000001

     Initial potential from superposition of free atoms

     starting charge     107.9776, renormalised to     108.0000
     Starting wfcs are   78 randomized atomic wfcs

     Self-consistent Calculation

     iteration #  1     ecut=    50.00 Ry     beta= 0.30
     Davidson diagonalization with overlap

     ethr =  1.00E-02,  avg # of iterations =  2.3

     total energy              =   -1083.59073689 Ry
     estimated scf accuracy    <       2.15755221 Ry

[...]

     total energy              =   -1083.98439077 Ry
     estimated scf accuracy    <       0.00000008 Ry

     iteration # 24     ecut=    50.00 Ry     beta= 0.30
     Davidson diagonalization with overlap

     ethr =  7.23E-11,  avg # of iterations =  3.9

     End of self-consistent calculation

          k = 0.0000 0.0000 0.0000 (  4173 PWs)   bands (ev):

    -8.2102  -7.4019  -7.4019  -6.5965  -6.4619  -6.4618   4.5158   4.5158
     4.8129   5.0201   5.0201   5.2752   5.2753   5.3414   5.5391   5.5391
     5.6169   5.6169   5.6724   5.6725   6.2197   6.2197   6.2719   6.2719
     7.3406   7.3406   7.5122   7.5122   7.6986   7.6987   7.8477   7.8477
     8.0665   8.0665   8.1737   8.1737   8.5007   8.7928   8.7928   9.3076
     9.3076   9.9440   9.9440  10.5487  10.5487  11.5562  11.5563  12.1444
    12.1444  12.3379  12.3380  13.1521  13.1522  13.2029

     occupation numbers
     1.0000   1.0000   1.0000   1.0000   1.0000   1.0000   1.0000   1.0000
     1.0000   1.0000   1.0000   1.0000   1.0000   1.0000   1.0000   1.0000
     1.0000   1.0000   1.0000   1.0000   1.0000   1.0000   1.0000   1.0000
     1.0000   1.0000   1.0000   1.0000   1.0000   1.0000   1.0000   1.0000
     1.0000   1.0000   1.0000   1.0000   1.0000   1.0000   1.0000   1.0000
     1.0000   1.0000   1.0000   1.0000   1.0000   1.0000   1.0000   1.0000
     1.0000   1.0000   1.0000   1.0000   1.0000   1.0000

[...]

          k =-0.5000-0.2887 0.0000 (  4172 PWs)   bands (ev):

[...]

          k =-0.3333 0.3849-0.6883 (  4145 PWs)   bands (ev):

[...]

          k = 1.3333-0.3849-0.6883 (  4132 PWs)   bands (ev):

    -7.2542  -6.9560  -6.7671  -6.7096  -6.6058  -6.5829   4.2253   4.3130
     4.3235   4.3857   4.4423   4.4768   5.3299   5.4744   5.4888   5.5273
     5.5427   5.5943   5.7531   5.9173   5.9550   6.1242   6.1526   6.2205
     7.6299   7.6693   7.7273   7.8016   7.8167   7.9069   8.0554   8.0988
     8.1340   8.2417   8.2611   8.4596   8.7069   8.8824   9.0629   9.3828
     9.4517   9.6270  10.0826  10.2880  10.5636  10.6893  10.7319  10.8693
    11.2193  11.3619  11.8119  11.8841  12.1419  12.4014

     occupation numbers
     1.0000   1.0000   1.0000   1.0000   1.0000   1.0000   1.0000   1.0000
     1.0000   1.0000   1.0000   1.0000   1.0000   1.0000   1.0000   1.0000
     1.0000   1.0000   1.0000   1.0000   1.0000   1.0000   1.0000   1.0000
     1.0000   1.0000   1.0000   1.0000   1.0000   1.0000   1.0000   1.0000
     1.0000   1.0000   1.0000   1.0000   1.0000   1.0000   1.0000   1.0000
     1.0000   1.0000   1.0000   1.0000   1.0000   1.0000   1.0000   1.0000
     1.0000   1.0000   1.0000   1.0000   1.0000   1.0000

     highest occupied level (ev):    13.2029

!    total energy              =   -1083.98439078 Ry
     estimated scf accuracy    <          6.5E-09 Ry

     The total energy is the sum of the following terms:
     one-electron contribution =    -339.92205847 Ry
     hartree contribution      =     313.75933889 Ry
     xc contribution           =    -331.43473504 Ry
     ewald contribution        =    -726.38693615 Ry

     convergence has been achieved in  24 iterations

     Forces acting on atoms (cartesian axes, Ry/au):

     atom    1 type  1   force =    -0.00001252   -0.00000723   -0.17908418
     atom    2 type  1   force =    -0.00004444   -0.00002566   -0.17909277
     atom    3 type  2   force =    -0.00000235   -0.00000136    0.17909383
     atom    4 type  2   force =     0.00000197    0.00000114    0.17909317
     atom    5 type  1   force =     0.00006596    0.00003808   -0.17908612
     atom    6 type  1   force =     0.00002899    0.00001674   -0.17910536
     atom    7 type  2   force =    -0.00000279   -0.00000161    0.17909238
     atom    8 type  2   force =     0.00000160    0.00000092    0.17909298
     atom    9 type  1   force =    -0.00000867   -0.00000500   -0.17909299
     atom   10 type  1   force =    -0.00002989   -0.00001726   -0.17909731
     atom   11 type  2   force =    -0.00000011   -0.00000006    0.17909312
     atom   12 type  2   force =     0.00000225    0.00000130    0.17909325
     The non-local contrib.  to forces
     atom    1 type  1   force =    -0.00003610   -0.00002084   -0.37106612
     atom    2 type  1   force =     0.00000347    0.00000200   -0.37107111
     atom    3 type  2   force =    -0.00013135   -0.00007583   -0.19044650
     atom    4 type  2   force =     0.00014315    0.00008265   -0.19044619
     atom    5 type  1   force =     0.00000925    0.00000534   -0.37106933
     atom    6 type  1   force =     0.00004575    0.00002641   -0.37107668
     atom    7 type  2   force =    -0.00014462   -0.00008350   -0.19044661
     atom    8 type  2   force =     0.00012465    0.00007197   -0.19044684
     atom    9 type  1   force =    -0.00003152   -0.00001820   -0.37107192
     atom   10 type  1   force =     0.00000824    0.00000476   -0.37107625
     atom   11 type  2   force =    -0.00012756   -0.00007365   -0.19044652
     atom   12 type  2   force =     0.00013376    0.00007723   -0.19044770
     The ionic contribution  to forces
     atom    1 type  1   force =     0.00000001    0.00000001   -2.67035677
     atom    2 type  1   force =     0.00000001    0.00000000   -2.67035677
     atom    3 type  2   force =     0.00000000    0.00000000    2.67035677
     atom    4 type  2   force =     0.00000001    0.00000000    2.67035677
     atom    5 type  1   force =    -0.00000002    0.00000000   -2.67035677
     atom    6 type  1   force =     0.00000002   -0.00000000   -2.67035677
     atom    7 type  2   force =    -0.00000001    0.00000001    2.67035677
     atom    8 type  2   force =     0.00000001   -0.00000001    2.67035677
     atom    9 type  1   force =    -0.00000001   -0.00000000   -2.67035677
     atom   10 type  1   force =    -0.00000001   -0.00000001   -2.67035677
     atom   11 type  2   force =    -0.00000001   -0.00000000    2.67035677
     atom   12 type  2   force =    -0.00000000   -0.00000000    2.67035677
     The local contribution  to forces
     atom    1 type  1   force =     0.00007949    0.00004590    2.82270313
     atom    2 type  1   force =     0.00000811    0.00000463    2.82270741
     atom    3 type  2   force =     0.00014430    0.00008331   -2.30154021
     atom    4 type  2   force =    -0.00010982   -0.00006342   -2.30156001
     atom    5 type  1   force =    -0.00003953   -0.00002273    2.82269708
     atom    6 type  1   force =    -0.00010410   -0.00006019    2.82273227
     atom    7 type  2   force =     0.00009352    0.00005402   -2.30155151
     atom    8 type  2   force =    -0.00016768   -0.00009684   -2.30155944
     atom    9 type  1   force =     0.00006981    0.00004035    2.82271033
     atom   10 type  1   force =    -0.00001259   -0.00000727    2.82271577
     atom   11 type  2   force =     0.00015433    0.00008911   -2.30155178
     atom   12 type  2   force =    -0.00011464   -0.00006619   -2.30155754
     The core correction contribution to forces
     atom    1 type  1   force =    -0.00000158   -0.00000091    0.03961889
     atom    2 type  1   force =     0.00000116    0.00000066    0.03961933
     atom    3 type  2   force =     0.00000150    0.00000087    0.00073533
     atom    4 type  2   force =    -0.00000160   -0.00000092    0.00073527
     atom    5 type  1   force =    -0.00000113   -0.00000064    0.03961950
     atom    6 type  1   force =     0.00000167    0.00000095    0.03961884
     atom    7 type  2   force =     0.00000158    0.00000091    0.00073529
     atom    8 type  2   force =    -0.00000146   -0.00000084    0.00073528
     atom    9 type  1   force =    -0.00000164   -0.00000094    0.03961915
     atom   10 type  1   force =     0.00000160    0.00000092    0.03961935
     atom   11 type  2   force =     0.00000148    0.00000086    0.00073529
     atom   12 type  2   force =    -0.00000148   -0.00000085    0.00073529
     The Hubbard contrib.    to forces
     atom    1 type  1   force =     0.00000000    0.00000000    0.00000000
     atom    2 type  1   force =     0.00000000    0.00000000    0.00000000
     atom    3 type  2   force =     0.00000000    0.00000000    0.00000000
     atom    4 type  2   force =     0.00000000    0.00000000    0.00000000
     atom    5 type  1   force =     0.00000000    0.00000000    0.00000000
     atom    6 type  1   force =     0.00000000    0.00000000    0.00000000
     atom    7 type  2   force =     0.00000000    0.00000000    0.00000000
     atom    8 type  2   force =     0.00000000    0.00000000    0.00000000
     atom    9 type  1   force =     0.00000000    0.00000000    0.00000000
     atom   10 type  1   force =     0.00000000    0.00000000    0.00000000
     atom   11 type  2   force =     0.00000000    0.00000000    0.00000000
     atom   12 type  2   force =     0.00000000    0.00000000    0.00000000
     The SCF correction term to forces
     atom    1 type  1   force =    -0.00005475   -0.00003161    0.00001906
     atom    2 type  1   force =    -0.00005757   -0.00003324    0.00001074
     atom    3 type  2   force =    -0.00001720   -0.00000993   -0.00000919
     atom    4 type  2   force =    -0.00003016   -0.00001741    0.00000970
     atom    5 type  1   force =     0.00009693    0.00005596    0.00002578
     atom    6 type  1   force =     0.00008531    0.00004925   -0.00002064
     atom    7 type  2   force =     0.00004631    0.00002674    0.00000082
     atom    8 type  2   force =     0.00004570    0.00002638    0.00000959
     atom    9 type  1   force =    -0.00004573   -0.00002640    0.00000860
     atom   10 type  1   force =    -0.00002752   -0.00001589    0.00000296
     atom   11 type  2   force =    -0.00002876   -0.00001660    0.00000174
     atom   12 type  2   force =    -0.00001579   -0.00000912    0.00000880

     Total force =     0.620397     Total SCF correction =     0.000212

     General routines

     Parallel routines

   This run was terminated on:  13:10: 8  27Aug2025

   JOB DONE.