     Program PWSCF v.7.0 starts on 28Aug2025 at 16: 1:47

     K-points division:     npool     =      17

     Reading input from ZnO-3.34-1.55-311.in
Warning: card &CELL ignored
Warning: card / ignored
Warning: card &FCP ignored
Warning: card / ignored
Warning: card &RISM ignored
Warning: card / ignored

     Current dimensions of program PWSCF are:
     Max number of different atomic species (ntypx) = 10
     Max number of k-points (npk) =  40000
     Max angular momentum in pseudopotentials (lmaxx) =  4
     file Zn.upf: wavefunction(s)  3D renormalized
     Found identity + (  0.3333  0.0000  0.0000) symmetry
     This is a supercell, fractional translations are disabled
     Message from routine setup:
     using ibrav=0 with symmetry is DISCOURAGED, use correct ibrav instead

     Subspace diagonalization in iterative solution of the eigenvalue problem:
     a serial algorithm will be used

     Using Slab Decomposition

     bravais-lattice index     =            0
     lattice parameter (alat)  =      18.9073  a.u.
     unit-cell volume          =    1007.9695 (a.u.)^3
     number of atoms/cell      =           12
     number of atomic types    =            2
     number of electrons       =       108.00
     number of Kohn-Sham states=           54
     kinetic-energy cutoff     =      50.0000  Ry
     charge density cutoff     =     400.0000  Ry
     scf convergence threshold =      1.0E-08
     mixing beta               =       0.3000
     number of iterations used =            8  plain     mixing
     Exchange-correlation= PBE
                           (   1   4   3   4   0   0   0)

     celldm(1)=  18.907293  celldm(2)=   0.000000  celldm(3)=   0.000000
     celldm(4)=   0.000000  celldm(5)=   0.000000  celldm(6)=   0.000000

     crystal axes: (cart. coord. in units of alat)
               a(1) = (   1.000000   0.000000   0.000000 )
               a(2) = (  -0.166667   0.288675   0.000000 )
               a(3) = (   0.000000   0.000000   0.516595 )

     reciprocal axes: (cart. coord. in units 2 pi/alat)
               b(1) = (  1.000000  0.577350 -0.000000 )
               b(2) = (  0.000000  3.464102  0.000000 )
               b(3) = (  0.000000 -0.000000  1.935754 )

     PseudoPot. # 1 for Zn read from file:
     /home/jvc/QEspresso7.2/ZnO_database/pseudos/Zn.upf
     MD5 check sum: 7f56cabf9682ed8c977c2f7d0c5985c5
     Pseudo is Ultrasoft + core correction, Zval = 12.0
     Generated using &quot;atomic&quot; code by A. Dal Corso  v.6.2.2
     Using radial grid of 1201 points,  6 beta functions with:
                l(1) =   0
                l(2) =   0
                l(3) =   1
                l(4) =   1
                l(5) =   2
                l(6) =   2
     Q(r) pseudized with 0 coefficients

     PseudoPot. # 2 for O  read from file:
     /home/jvc/QEspresso7.2/ZnO_database/pseudos/O.upf
     MD5 check sum: 91400c9766925bcf19f520983a725ff0
     Pseudo is Ultrasoft + core correction, Zval =  6.0
     Generated using &quot;atomic&quot; code by A. Dal Corso  v.6.3MaX
     Using radial grid of 1095 points,  4 beta functions with:
                l(1) =   0
                l(2) =   0
                l(3) =   1
                l(4) =   1
     Q(r) pseudized with 0 coefficients

     atomic species   valence    mass     pseudopotential
        Zn            12.00    65.38000     Zn( 1.00)
        O              6.00    15.99900     O ( 1.00)

      2 Sym. Ops. (no inversion) found

                                    s                        frac. trans.

      isym =  1     identity

 cryst.   s( 1) = (     1          0          0      )
                  (     0          1          0      )
                  (     0          0          1      )

 cart.    s( 1) = (  1.0000000  0.0000000  0.0000000 )
                  (  0.0000000  1.0000000  0.0000000 )
                  (  0.0000000  0.0000000  1.0000000 )

      isym =  2     inv. 180 deg rotation - cryst. axis [0,1,0]

 cryst.   s( 2) = (     1          3          0      )
                  (     0         -1          0      )
                  (     0          0          1      )

 cart.    s( 2) = (  0.5000000  0.8660254  0.0000000 )
                  (  0.8660254 -0.5000000  0.0000000 )
                  (  0.0000000  0.0000000  1.0000000 )

   Cartesian axes

     site n.     atom                  positions (alat units)
         1           Zn  tau(   1) = (   0.1666667   0.0962250   0.2586246  )
         2           Zn  tau(   2) = (  -0.0000000   0.1924501   0.0003273  )
         3           O   tau(   3) = (   0.1666667   0.0962250   0.4544362  )
         4           O   tau(   4) = (  -0.0000000   0.1924501   0.1961388  )
         5           Zn  tau(   5) = (   0.5000000   0.0962250   0.2586246  )
         6           Zn  tau(   6) = (   0.3333333   0.1924501   0.0003273  )
         7           O   tau(   7) = (   0.5000000   0.0962250   0.4544362  )
         8           O   tau(   8) = (   0.3333333   0.1924501   0.1961388  )
         9           Zn  tau(   9) = (   0.8333333   0.0962250   0.2586246  )
        10           Zn  tau(  10) = (   0.6666667   0.1924501   0.0003273  )
        11           O   tau(  11) = (   0.8333333   0.0962250   0.4544362  )
        12           O   tau(  12) = (   0.6666667   0.1924501   0.1961388  )

   Crystallographic axes

     site n.     atom                  positions (cryst. coord.)
         1           Zn  tau(   1) = (  0.2222222  0.3333333  0.5006336  )
         2           Zn  tau(   2) = (  0.1111111  0.6666667  0.0006336  )
         3           O   tau(   3) = (  0.2222222  0.3333333  0.8796764  )
         4           O   tau(   4) = (  0.1111111  0.6666667  0.3796764  )
         5           Zn  tau(   5) = (  0.5555556  0.3333333  0.5006336  )
         6           Zn  tau(   6) = (  0.4444444  0.6666667  0.0006336  )
         7           O   tau(   7) = (  0.5555556  0.3333333  0.8796764  )
         8           O   tau(   8) = (  0.4444444  0.6666667  0.3796764  )
         9           Zn  tau(   9) = (  0.8888889  0.3333333  0.5006336  )
        10           Zn  tau(  10) = (  0.7777778  0.6666667  0.0006336  )
        11           O   tau(  11) = (  0.8888889  0.3333333  0.8796764  )
        12           O   tau(  12) = (  0.7777778  0.6666667  0.3796764  )

     number of k points=    68
                       cart. coord. in units 2pi/alat
        k(    1) = (   0.0000000   0.0000000   0.0000000), wk =   0.0092593
        k(    2) = (   0.0000000   0.0000000   0.3226256), wk =   0.0185185
        k(    3) = (   0.0000000   0.0000000   0.6452512), wk =   0.0185185
        k(    4) = (   0.0000000   0.0000000  -0.9678768), wk =   0.0092593
        k(    5) = (   0.0000000   0.5773503   0.0000000), wk =   0.0370370
        k(    6) = (   0.0000000   0.5773503   0.3226256), wk =   0.0370370
        k(    7) = (   0.0000000   0.5773503   0.6452512), wk =   0.0370370
        k(    8) = (   0.0000000   0.5773503  -0.9678768), wk =   0.0370370
        k(    9) = (   0.0000000   1.1547005   0.0000000), wk =   0.0185185
        k(   10) = (   0.0000000   1.1547005   0.3226256), wk =   0.0370370
        k(   11) = (   0.0000000   1.1547005   0.6452512), wk =   0.0370370
        k(   12) = (   0.0000000   1.1547005  -0.9678768), wk =   0.0185185
        k(   13) = (   0.0000000  -1.7320508   0.0000000), wk =   0.0185185
        k(   14) = (   0.0000000  -1.7320508   0.3226256), wk =   0.0370370
        k(   15) = (   0.0000000  -1.7320508   0.6452512), wk =   0.0370370
        k(   16) = (   0.0000000  -1.7320508  -0.9678768), wk =   0.0185185
        k(   17) = (   0.1666667   0.0962250   0.0000000), wk =   0.0185185
        k(   18) = (   0.1666667   0.0962250   0.3226256), wk =   0.0185185
        k(   19) = (   0.1666667   0.0962250   0.6452512), wk =   0.0185185
        k(   20) = (   0.1666667   0.0962250  -0.9678768), wk =   0.0185185
        k(   21) = (   0.1666667   0.6735753   0.0000000), wk =   0.0370370
        k(   22) = (   0.1666667   0.6735753   0.3226256), wk =   0.0370370
        k(   23) = (   0.1666667   0.6735753   0.6452512), wk =   0.0370370
        k(   24) = (   0.1666667   0.6735753  -0.9678768), wk =   0.0370370
        k(   25) = (   0.1666667   1.2509256   0.0000000), wk =   0.0370370
        k(   26) = (   0.1666667   1.2509256   0.3226256), wk =   0.0370370
        k(   27) = (   0.1666667   1.2509256   0.6452512), wk =   0.0370370
        k(   28) = (   0.1666667   1.2509256  -0.9678768), wk =   0.0370370
        k(   29) = (   0.1666667  -1.6358258   0.0000000), wk =   0.0370370
        k(   30) = (   0.1666667  -1.6358258   0.3226256), wk =   0.0370370
        k(   31) = (   0.1666667  -1.6358258   0.6452512), wk =   0.0370370
        k(   32) = (   0.1666667  -1.6358258  -0.9678768), wk =   0.0370370
        k(   33) = (   0.1666667  -0.4811252   0.0000000), wk =   0.0370370
        k(   34) = (   0.1666667  -0.4811252   0.3226256), wk =   0.0370370
        k(   35) = (   0.1666667  -0.4811252   0.6452512), wk =   0.0370370
        k(   36) = (   0.1666667  -0.4811252  -0.9678768), wk =   0.0370370
        k(   37) = (   0.3333333   0.1924501   0.0000000), wk =   0.0185185
        k(   38) = (   0.3333333   0.1924501   0.3226256), wk =   0.0185185
        k(   39) = (   0.3333333   0.1924501   0.6452512), wk =   0.0185185
        k(   40) = (   0.3333333   0.1924501  -0.9678768), wk =   0.0185185
        k(   41) = (   0.3333333   1.3471506   0.0000000), wk =   0.0370370
        k(   42) = (   0.3333333   1.3471506   0.3226256), wk =   0.0370370
        k(   43) = (   0.3333333   1.3471506   0.6452512), wk =   0.0370370
        k(   44) = (   0.3333333   1.3471506  -0.9678768), wk =   0.0370370
        k(   45) = (  -0.5000000  -0.2886751   0.0000000), wk =   0.0092593
        k(   46) = (  -0.5000000  -0.2886751   0.3226256), wk =   0.0185185
        k(   47) = (  -0.5000000  -0.2886751   0.6452512), wk =   0.0185185
        k(   48) = (  -0.5000000  -0.2886751  -0.9678768), wk =   0.0092593
        k(   49) = (  -0.5000000   0.8660254   0.0000000), wk =   0.0185185
        k(   50) = (  -0.5000000   0.8660254   0.3226256), wk =   0.0370370
        k(   51) = (  -0.5000000   0.8660254   0.6452512), wk =   0.0370370
        k(   52) = (  -0.5000000   0.8660254  -0.9678768), wk =   0.0185185
        k(   53) = (   0.5000000  -0.2886751  -0.3226256), wk =   0.0370370
        k(   54) = (   0.5000000  -0.2886751  -0.6452512), wk =   0.0370370
        k(   55) = (   0.1666667   0.0962250  -0.3226256), wk =   0.0185185
        k(   56) = (   0.1666667   0.0962250  -0.6452512), wk =   0.0185185
        k(   57) = (   0.6666667  -0.1924501  -0.3226256), wk =   0.0370370
        k(   58) = (   0.6666667  -0.1924501  -0.6452512), wk =   0.0370370
        k(   59) = (   1.1666667  -0.4811252  -0.3226256), wk =   0.0370370
        k(   60) = (   1.1666667  -0.4811252  -0.6452512), wk =   0.0370370
        k(   61) = (  -1.3333333   0.9622504  -0.3226256), wk =   0.0370370
        k(   62) = (  -1.3333333   0.9622504  -0.6452512), wk =   0.0370370
        k(   63) = (  -0.3333333   0.3849002  -0.3226256), wk =   0.0370370
        k(   64) = (  -0.3333333   0.3849002  -0.6452512), wk =   0.0370370
        k(   65) = (   0.3333333   0.1924501  -0.3226256), wk =   0.0185185
        k(   66) = (   0.3333333   0.1924501  -0.6452512), wk =   0.0185185
        k(   67) = (   1.3333333  -0.3849002  -0.3226256), wk =   0.0370370
        k(   68) = (   1.3333333  -0.3849002  -0.6452512), wk =   0.0370370

                       cryst. coord.
        k(    1) = (   0.0000000   0.0000000   0.0000000), wk =   0.0092593
        k(    2) = (   0.0000000   0.0000000   0.1666667), wk =   0.0185185
        k(    3) = (   0.0000000   0.0000000   0.3333333), wk =   0.0185185
        k(    4) = (   0.0000000   0.0000000  -0.5000000), wk =   0.0092593
        k(    5) = (   0.0000000   0.1666667   0.0000000), wk =   0.0370370
        k(    6) = (   0.0000000   0.1666667   0.1666667), wk =   0.0370370
        k(    7) = (   0.0000000   0.1666667   0.3333333), wk =   0.0370370
        k(    8) = (   0.0000000   0.1666667  -0.5000000), wk =   0.0370370
        k(    9) = (   0.0000000   0.3333333   0.0000000), wk =   0.0185185
        k(   10) = (   0.0000000   0.3333333   0.1666667), wk =   0.0370370
        k(   11) = (   0.0000000   0.3333333   0.3333333), wk =   0.0370370
        k(   12) = (   0.0000000   0.3333333  -0.5000000), wk =   0.0185185
        k(   13) = (   0.0000000  -0.5000000   0.0000000), wk =   0.0185185
        k(   14) = (   0.0000000  -0.5000000   0.1666667), wk =   0.0370370
        k(   15) = (   0.0000000  -0.5000000   0.3333333), wk =   0.0370370
        k(   16) = (   0.0000000  -0.5000000  -0.5000000), wk =   0.0185185
        k(   17) = (   0.1666667   0.0000000   0.0000000), wk =   0.0185185
        k(   18) = (   0.1666667   0.0000000   0.1666667), wk =   0.0185185
        k(   19) = (   0.1666667   0.0000000   0.3333333), wk =   0.0185185
        k(   20) = (   0.1666667   0.0000000  -0.5000000), wk =   0.0185185
        k(   21) = (   0.1666667   0.1666667   0.0000000), wk =   0.0370370
        k(   22) = (   0.1666667   0.1666667   0.1666667), wk =   0.0370370
        k(   23) = (   0.1666667   0.1666667   0.3333333), wk =   0.0370370
        k(   24) = (   0.1666667   0.1666667  -0.5000000), wk =   0.0370370
        k(   25) = (   0.1666667   0.3333333   0.0000000), wk =   0.0370370
        k(   26) = (   0.1666667   0.3333333   0.1666667), wk =   0.0370370
        k(   27) = (   0.1666667   0.3333333   0.3333333), wk =   0.0370370
        k(   28) = (   0.1666667   0.3333333  -0.5000000), wk =   0.0370370
        k(   29) = (   0.1666667  -0.5000000   0.0000000), wk =   0.0370370
        k(   30) = (   0.1666667  -0.5000000   0.1666667), wk =   0.0370370
        k(   31) = (   0.1666667  -0.5000000   0.3333333), wk =   0.0370370
        k(   32) = (   0.1666667  -0.5000000  -0.5000000), wk =   0.0370370
        k(   33) = (   0.1666667  -0.1666667   0.0000000), wk =   0.0370370
        k(   34) = (   0.1666667  -0.1666667   0.1666667), wk =   0.0370370
        k(   35) = (   0.1666667  -0.1666667   0.3333333), wk =   0.0370370
        k(   36) = (   0.1666667  -0.1666667  -0.5000000), wk =   0.0370370
        k(   37) = (   0.3333333   0.0000000   0.0000000), wk =   0.0185185
        k(   38) = (   0.3333333   0.0000000   0.1666667), wk =   0.0185185
        k(   39) = (   0.3333333   0.0000000   0.3333333), wk =   0.0185185
        k(   40) = (   0.3333333   0.0000000  -0.5000000), wk =   0.0185185
        k(   41) = (   0.3333333   0.3333333   0.0000000), wk =   0.0370370
        k(   42) = (   0.3333333   0.3333333   0.1666667), wk =   0.0370370
        k(   43) = (   0.3333333   0.3333333   0.3333333), wk =   0.0370370
        k(   44) = (   0.3333333   0.3333333  -0.5000000), wk =   0.0370370
        k(   45) = (  -0.5000000  -0.0000000   0.0000000), wk =   0.0092593
        k(   46) = (  -0.5000000  -0.0000000   0.1666667), wk =   0.0185185
        k(   47) = (  -0.5000000  -0.0000000   0.3333333), wk =   0.0185185
        k(   48) = (  -0.5000000  -0.0000000  -0.5000000), wk =   0.0092593
        k(   49) = (  -0.5000000   0.3333333   0.0000000), wk =   0.0185185
        k(   50) = (  -0.5000000   0.3333333   0.1666667), wk =   0.0370370
        k(   51) = (  -0.5000000   0.3333333   0.3333333), wk =   0.0370370
        k(   52) = (  -0.5000000   0.3333333  -0.5000000), wk =   0.0185185
        k(   53) = (   0.5000000  -0.1666667  -0.1666667), wk =   0.0370370
        k(   54) = (   0.5000000  -0.1666667  -0.3333333), wk =   0.0370370
        k(   55) = (   0.1666667  -0.0000000  -0.1666667), wk =   0.0185185
        k(   56) = (   0.1666667  -0.0000000  -0.3333333), wk =   0.0185185
        k(   57) = (   0.6666667  -0.1666667  -0.1666667), wk =   0.0370370
        k(   58) = (   0.6666667  -0.1666667  -0.3333333), wk =   0.0370370
        k(   59) = (   1.1666667  -0.3333333  -0.1666667), wk =   0.0370370
        k(   60) = (   1.1666667  -0.3333333  -0.3333333), wk =   0.0370370
        k(   61) = (  -1.3333333   0.5000000  -0.1666667), wk =   0.0370370
        k(   62) = (  -1.3333333   0.5000000  -0.3333333), wk =   0.0370370
        k(   63) = (  -0.3333333   0.1666667  -0.1666667), wk =   0.0370370
        k(   64) = (  -0.3333333   0.1666667  -0.3333333), wk =   0.0370370
        k(   65) = (   0.3333333  -0.0000000  -0.1666667), wk =   0.0185185
        k(   66) = (   0.3333333  -0.0000000  -0.3333333), wk =   0.0185185
        k(   67) = (   1.3333333  -0.3333333  -0.1666667), wk =   0.0370370
        k(   68) = (   1.3333333  -0.3333333  -0.3333333), wk =   0.0370370

     Check: negative core charge=   -0.000002

     Initial potential from superposition of free atoms

     starting charge     107.9776, renormalised to     108.0000
     Starting wfcs are   78 randomized atomic wfcs

     Self-consistent Calculation

     iteration #  1     ecut=    50.00 Ry     beta= 0.30
     Davidson diagonalization with overlap

     ethr =  1.00E-02,  avg # of iterations =  2.0

     total energy              =   -1084.42041990 Ry
     estimated scf accuracy    <       2.10435408 Ry

[...]

     c_bands:  1 eigenvalues not converged
     ethr =  8.57E-08,  avg # of iterations = 14.2

[...]

     c_bands:  1 eigenvalues not converged
     ethr =  2.88E-08,  avg # of iterations = 15.0

[...]

     total energy              =   -1084.90336452 Ry
     estimated scf accuracy    <       0.00000115 Ry

     iteration # 29     ecut=    50.00 Ry     beta= 0.30
     Davidson diagonalization with overlap

     ethr =  1.06E-09,  avg # of iterations =  5.0

     End of self-consistent calculation

          k = 0.0000 0.0000 0.0000 (  5959 PWs)   bands (ev):

   -11.1305 -10.7121 -10.7120 -10.4174 -10.3028 -10.3028   0.9047   0.9047
     1.1479   1.1481   1.1641   1.2371   1.2371   1.3246   1.3247   1.3488
     1.3489   1.3913   1.4995   1.4995   1.7291   1.7291   1.8484   1.8484
     2.1325   2.1325   2.1695   2.1696   2.2420   2.2420   2.3834   2.3835
     2.4162   2.4162   2.5490   2.5490   2.6049   2.8482   2.8482   3.5888
     3.5888   4.4047   4.4047   4.7400   4.7400   5.7418   5.7421   5.8624
     5.8624   6.0571   6.0572   6.5806   6.5810   6.5865

     occupation numbers
     1.0000   1.0000   1.0000   1.0000   1.0000   1.0000   1.0000   1.0000
     1.0000   1.0000   1.0000   1.0000   1.0000   1.0000   1.0000   1.0000
     1.0000   1.0000   1.0000   1.0000   1.0000   1.0000   1.0000   1.0000
     1.0000   1.0000   1.0000   1.0000   1.0000   1.0000   1.0000   1.0000
     1.0000   1.0000   1.0000   1.0000   1.0000   1.0000   1.0000   1.0000
     1.0000   1.0000   1.0000   1.0000   1.0000   1.0000   1.0000   1.0000
     1.0000   1.0000   1.0000   1.0000   1.0000   1.0000

[...]

          k =-0.5000-0.2887 0.0000 (  5976 PWs)   bands (ev):

[...]

          k =-0.3333 0.3849-0.6453 (  6013 PWs)   bands (ev):

[...]

          k = 1.3333-0.3849-0.6453 (  6024 PWs)   bands (ev):

   -10.6624 -10.5142 -10.4274 -10.4226 -10.3637 -10.3435   0.8423   0.8444
     0.9474   0.9529   1.0010   1.0779   1.3292   1.3388   1.3775   1.4044
     1.4823   1.5032   1.5431   1.5553   1.6128   1.6815   1.7299   1.7525
     2.2247   2.2305   2.2598   2.2714   2.2844   2.3194   2.3649   2.3974
     2.4304   2.4970   2.4972   2.6020   2.9983   3.1334   3.2598   3.5067
     3.5868   3.9408   4.1258   4.5949   4.8025   4.8273   4.8995   5.0897
     5.1410   5.4016   5.6064   5.7145   5.7594   5.9244

     occupation numbers
     1.0000   1.0000   1.0000   1.0000   1.0000   1.0000   1.0000   1.0000
     1.0000   1.0000   1.0000   1.0000   1.0000   1.0000   1.0000   1.0000
     1.0000   1.0000   1.0000   1.0000   1.0000   1.0000   1.0000   1.0000
     1.0000   1.0000   1.0000   1.0000   1.0000   1.0000   1.0000   1.0000
     1.0000   1.0000   1.0000   1.0000   1.0000   1.0000   1.0000   1.0000
     1.0000   1.0000   1.0000   1.0000   1.0000   1.0000   1.0000   1.0000
     1.0000   1.0000   1.0000   1.0000   1.0000   1.0000

     highest occupied level (ev):     6.5865

!    total energy              =   -1084.90336492 Ry
     estimated scf accuracy    <          7.8E-09 Ry

     The total energy is the sum of the following terms:
     one-electron contribution =    -470.87400621 Ry
     hartree contribution      =     357.60390946 Ry
     xc contribution           =    -328.53390778 Ry
     ewald contribution        =    -643.09936039 Ry

     convergence has been achieved in  29 iterations

     Forces acting on atoms (cartesian axes, Ry/au):

     atom    1 type  1   force =     0.00001734    0.00001001   -0.01303208
     atom    2 type  1   force =    -0.00000932   -0.00000538   -0.01301857
     atom    3 type  2   force =     0.00000014    0.00000008    0.01303186
     atom    4 type  2   force =     0.00000128    0.00000074    0.01303274
     atom    5 type  1   force =    -0.00000029   -0.00000017   -0.01302903
     atom    6 type  1   force =    -0.00001950   -0.00001126   -0.01303674
     atom    7 type  2   force =    -0.00000063   -0.00000036    0.01303382
     atom    8 type  2   force =     0.00000148    0.00000085    0.01303029
     atom    9 type  1   force =     0.00001486    0.00000858   -0.01303592
     atom   10 type  1   force =    -0.00000214   -0.00000124   -0.01303730
     atom   11 type  2   force =    -0.00000197   -0.00000114    0.01303033
     atom   12 type  2   force =    -0.00000125   -0.00000072    0.01303060
     The non-local contrib.  to forces
     atom    1 type  1   force =    -0.00000104   -0.00000060   -0.12125295
     atom    2 type  1   force =     0.00000169    0.00000097   -0.12125079
     atom    3 type  2   force =    -0.00018728   -0.00010813   -0.09170284
     atom    4 type  2   force =     0.00018866    0.00010892   -0.09169602
     atom    5 type  1   force =    -0.00000546   -0.00000315   -0.12125004
     atom    6 type  1   force =    -0.00000301   -0.00000174   -0.12125507
     atom    7 type  2   force =    -0.00018556   -0.00010713   -0.09169801
     atom    8 type  2   force =     0.00019249    0.00011113   -0.09170848
     atom    9 type  1   force =     0.00000028    0.00000016   -0.12125481
     atom   10 type  1   force =     0.00000795    0.00000459   -0.12125271
     atom   11 type  2   force =    -0.00019204   -0.00011087   -0.09170325
     atom   12 type  2   force =     0.00018880    0.00010900   -0.09170999
     The ionic contribution  to forces
     atom    1 type  1   force =     0.00000001    0.00000001   -0.76824287
     atom    2 type  1   force =     0.00000001    0.00000000   -0.76824287
     atom    3 type  2   force =     0.00000000    0.00000000    0.76824287
     atom    4 type  2   force =     0.00000000    0.00000000    0.76824287
     atom    5 type  1   force =    -0.00000001    0.00000000   -0.76824288
     atom    6 type  1   force =     0.00000001   -0.00000000   -0.76824288
     atom    7 type  2   force =    -0.00000001    0.00000000    0.76824288
     atom    8 type  2   force =     0.00000001   -0.00000000    0.76824288
     atom    9 type  1   force =    -0.00000001   -0.00000000   -0.76824287
     atom   10 type  1   force =    -0.00000001   -0.00000001   -0.76824287
     atom   11 type  2   force =    -0.00000000   -0.00000000    0.76824287
     atom   12 type  2   force =    -0.00000000   -0.00000000    0.76824287
     The local contribution  to forces
     atom    1 type  1   force =     0.00001022    0.00000590    0.86755486
     atom    2 type  1   force =    -0.00001293   -0.00000751    0.86753547
     atom    3 type  2   force =     0.00018572    0.00010722   -0.66419713
     atom    4 type  2   force =    -0.00018997   -0.00010969   -0.66419137
     atom    5 type  1   force =     0.00002743    0.00001594    0.86754312
     atom    6 type  1   force =    -0.00000161   -0.00000103    0.86755183
     atom    7 type  2   force =     0.00019634    0.00011338   -0.66419186
     atom    8 type  2   force =    -0.00018254   -0.00010542   -0.66418882
     atom    9 type  1   force =     0.00000142    0.00000087    0.86755337
     atom   10 type  1   force =    -0.00002491   -0.00001438    0.86755401
     atom   11 type  2   force =     0.00017324    0.00010003   -0.66419495
     atom   12 type  2   force =    -0.00019790   -0.00011426   -0.66418575
     The core correction contribution to forces
     atom    1 type  1   force =    -0.00000517   -0.00000294    0.00892521
     atom    2 type  1   force =     0.00000511    0.00000289    0.00892569
     atom    3 type  2   force =     0.00000214    0.00000124    0.00069328
     atom    4 type  2   force =    -0.00000217   -0.00000126    0.00069319
     atom    5 type  1   force =    -0.00000523   -0.00000304    0.00892548
     atom    6 type  1   force =     0.00000494    0.00000287    0.00892556
     atom    7 type  2   force =     0.00000217    0.00000125    0.00069322
     atom    8 type  2   force =    -0.00000220   -0.00000127    0.00069338
     atom    9 type  1   force =    -0.00000468   -0.00000264    0.00892552
     atom   10 type  1   force =     0.00000498    0.00000283    0.00892529
     atom   11 type  2   force =     0.00000215    0.00000124    0.00069328
     atom   12 type  2   force =    -0.00000219   -0.00000127    0.00069340
     The Hubbard contrib.    to forces
     atom    1 type  1   force =     0.00000000    0.00000000    0.00000000
     atom    2 type  1   force =     0.00000000    0.00000000    0.00000000
     atom    3 type  2   force =     0.00000000    0.00000000    0.00000000
     atom    4 type  2   force =     0.00000000    0.00000000    0.00000000
     atom    5 type  1   force =     0.00000000    0.00000000    0.00000000
     atom    6 type  1   force =     0.00000000    0.00000000    0.00000000
     atom    7 type  2   force =     0.00000000    0.00000000    0.00000000
     atom    8 type  2   force =     0.00000000    0.00000000    0.00000000
     atom    9 type  1   force =     0.00000000    0.00000000    0.00000000
     atom   10 type  1   force =     0.00000000    0.00000000    0.00000000
     atom   11 type  2   force =     0.00000000    0.00000000    0.00000000
     atom   12 type  2   force =     0.00000000    0.00000000    0.00000000
     The SCF correction term to forces
     atom    1 type  1   force =     0.00001304    0.00000753   -0.00002217
     atom    2 type  1   force =    -0.00000341   -0.00000197    0.00000809
     atom    3 type  2   force =    -0.00000069   -0.00000040   -0.00001017
     atom    4 type  2   force =     0.00000450    0.00000260   -0.00002178
     atom    5 type  1   force =    -0.00001732   -0.00001000   -0.00001058
     atom    6 type  1   force =    -0.00002005   -0.00001158   -0.00002203
     atom    7 type  2   force =    -0.00001384   -0.00000799   -0.00001826
     atom    8 type  2   force =    -0.00000652   -0.00000377   -0.00001451
     atom    9 type  1   force =     0.00001754    0.00001013   -0.00002297
     atom   10 type  1   force =     0.00000960    0.00000554   -0.00002687
     atom   11 type  2   force =     0.00001441    0.00000832   -0.00001348
     atom   12 type  2   force =     0.00000979    0.00000565   -0.00001578

     Total force =     0.045143     Total SCF correction =     0.000080

     General routines

     Parallel routines

   This run was terminated on:  16: 8:54  28Aug2025

   JOB DONE.