     Program PWSCF v.7.0 starts on 27Aug2025 at 12:42:37

     K-points division:     npool     =      17

     Reading input from /home/jvc/QEspresso7.2/ZnO_database/scripts/cell311.in/ZnO-2.94-1.68-311.in
Warning: card &CELL ignored
Warning: card / ignored
Warning: card &FCP ignored
Warning: card / ignored
Warning: card &RISM ignored
Warning: card / ignored

     Current dimensions of program PWSCF are:
     Max number of different atomic species (ntypx) = 10
     Max number of k-points (npk) =  40000
     Max angular momentum in pseudopotentials (lmaxx) =  4
     file Zn.upf: wavefunction(s)  3D renormalized
     Found identity + (  0.3333  0.0000  0.0000) symmetry
     This is a supercell, fractional translations are disabled
     Message from routine setup:
     using ibrav=0 with symmetry is DISCOURAGED, use correct ibrav instead

     Subspace diagonalization in iterative solution of the eigenvalue problem:
     a serial algorithm will be used

     Using Slab Decomposition

     bravais-lattice index     =            0
     lattice parameter (alat)  =      16.6829  a.u.
     unit-cell volume          =     750.1299 (a.u.)^3
     number of atoms/cell      =           12
     number of atomic types    =            2
     number of electrons       =       108.00
     number of Kohn-Sham states=           54
     kinetic-energy cutoff     =      50.0000  Ry
     charge density cutoff     =     400.0000  Ry
     scf convergence threshold =      1.0E-08
     mixing beta               =       0.3000
     number of iterations used =            8  plain     mixing
     Exchange-correlation= PBE
                           (   1   4   3   4   0   0   0)

     celldm(1)=  16.682906  celldm(2)=   0.000000  celldm(3)=   0.000000
     celldm(4)=   0.000000  celldm(5)=   0.000000  celldm(6)=   0.000000

     crystal axes: (cart. coord. in units of alat)
               a(1) = (   1.000000   0.000000   0.000000 )
               a(2) = (  -0.166667   0.288675   0.000000 )
               a(3) = (   0.000000   0.000000   0.559644 )

     reciprocal axes: (cart. coord. in units 2 pi/alat)
               b(1) = (  1.000000  0.577350 -0.000000 )
               b(2) = (  0.000000  3.464102  0.000000 )
               b(3) = (  0.000000 -0.000000  1.786849 )

     PseudoPot. # 1 for Zn read from file:
     /home/jvc/QEspresso7.2/ZnO_database/pseudos/Zn.upf
     MD5 check sum: 7f56cabf9682ed8c977c2f7d0c5985c5
     Pseudo is Ultrasoft + core correction, Zval = 12.0
     Generated using &quot;atomic&quot; code by A. Dal Corso  v.6.2.2
     Using radial grid of 1201 points,  6 beta functions with:
                l(1) =   0
                l(2) =   0
                l(3) =   1
                l(4) =   1
                l(5) =   2
                l(6) =   2
     Q(r) pseudized with 0 coefficients

     PseudoPot. # 2 for O  read from file:
     /home/jvc/QEspresso7.2/ZnO_database/pseudos/O.upf
     MD5 check sum: 91400c9766925bcf19f520983a725ff0
     Pseudo is Ultrasoft + core correction, Zval =  6.0
     Generated using &quot;atomic&quot; code by A. Dal Corso  v.6.3MaX
     Using radial grid of 1095 points,  4 beta functions with:
                l(1) =   0
                l(2) =   0
                l(3) =   1
                l(4) =   1
     Q(r) pseudized with 0 coefficients

     atomic species   valence    mass     pseudopotential
        Zn            12.00    65.38000     Zn( 1.00)
        O              6.00    15.99900     O ( 1.00)

      2 Sym. Ops. (no inversion) found

                                    s                        frac. trans.

      isym =  1     identity

 cryst.   s( 1) = (     1          0          0      )
                  (     0          1          0      )
                  (     0          0          1      )

 cart.    s( 1) = (  1.0000000  0.0000000  0.0000000 )
                  (  0.0000000  1.0000000  0.0000000 )
                  (  0.0000000  0.0000000  1.0000000 )

      isym =  2     inv. 180 deg rotation - cryst. axis [0,1,0]

 cryst.   s( 2) = (     1          3          0      )
                  (     0         -1          0      )
                  (     0          0          1      )

 cart.    s( 2) = (  0.5000000  0.8660254  0.0000000 )
                  (  0.8660254 -0.5000000  0.0000000 )
                  (  0.0000000  0.0000000  1.0000000 )

   Cartesian axes

     site n.     atom                  positions (alat units)
         1           Zn  tau(   1) = (   0.1666667   0.0962250   0.2801767  )
         2           Zn  tau(   2) = (  -0.0000000   0.1924501   0.0003546  )
         3           O   tau(   3) = (   0.1666667   0.0962250   0.4923058  )
         4           O   tau(   4) = (  -0.0000000   0.1924501   0.2124837  )
         5           Zn  tau(   5) = (   0.5000000   0.0962250   0.2801767  )
         6           Zn  tau(   6) = (   0.3333333   0.1924501   0.0003546  )
         7           O   tau(   7) = (   0.5000000   0.0962250   0.4923058  )
         8           O   tau(   8) = (   0.3333333   0.1924501   0.2124837  )
         9           Zn  tau(   9) = (   0.8333333   0.0962250   0.2801767  )
        10           Zn  tau(  10) = (   0.6666667   0.1924501   0.0003546  )
        11           O   tau(  11) = (   0.8333333   0.0962250   0.4923058  )
        12           O   tau(  12) = (   0.6666667   0.1924501   0.2124837  )

   Crystallographic axes

     site n.     atom                  positions (cryst. coord.)
         1           Zn  tau(   1) = (  0.2222222  0.3333333  0.5006336  )
         2           Zn  tau(   2) = (  0.1111111  0.6666667  0.0006336  )
         3           O   tau(   3) = (  0.2222222  0.3333333  0.8796764  )
         4           O   tau(   4) = (  0.1111111  0.6666667  0.3796764  )
         5           Zn  tau(   5) = (  0.5555556  0.3333333  0.5006336  )
         6           Zn  tau(   6) = (  0.4444444  0.6666667  0.0006336  )
         7           O   tau(   7) = (  0.5555556  0.3333333  0.8796764  )
         8           O   tau(   8) = (  0.4444444  0.6666667  0.3796764  )
         9           Zn  tau(   9) = (  0.8888889  0.3333333  0.5006336  )
        10           Zn  tau(  10) = (  0.7777778  0.6666667  0.0006336  )
        11           O   tau(  11) = (  0.8888889  0.3333333  0.8796764  )
        12           O   tau(  12) = (  0.7777778  0.6666667  0.3796764  )

     number of k points=    68
                       cart. coord. in units 2pi/alat
        k(    1) = (   0.0000000   0.0000000   0.0000000), wk =   0.0092593
        k(    2) = (   0.0000000   0.0000000   0.2978082), wk =   0.0185185
        k(    3) = (   0.0000000   0.0000000   0.5956165), wk =   0.0185185
        k(    4) = (   0.0000000   0.0000000  -0.8934247), wk =   0.0092593
        k(    5) = (   0.0000000   0.5773503   0.0000000), wk =   0.0370370
        k(    6) = (   0.0000000   0.5773503   0.2978082), wk =   0.0370370
        k(    7) = (   0.0000000   0.5773503   0.5956165), wk =   0.0370370
        k(    8) = (   0.0000000   0.5773503  -0.8934247), wk =   0.0370370
        k(    9) = (   0.0000000   1.1547005   0.0000000), wk =   0.0185185
        k(   10) = (   0.0000000   1.1547005   0.2978082), wk =   0.0370370
        k(   11) = (   0.0000000   1.1547005   0.5956165), wk =   0.0370370
        k(   12) = (   0.0000000   1.1547005  -0.8934247), wk =   0.0185185
        k(   13) = (   0.0000000  -1.7320508   0.0000000), wk =   0.0185185
        k(   14) = (   0.0000000  -1.7320508   0.2978082), wk =   0.0370370
        k(   15) = (   0.0000000  -1.7320508   0.5956165), wk =   0.0370370
        k(   16) = (   0.0000000  -1.7320508  -0.8934247), wk =   0.0185185
        k(   17) = (   0.1666667   0.0962250   0.0000000), wk =   0.0185185
        k(   18) = (   0.1666667   0.0962250   0.2978082), wk =   0.0185185
        k(   19) = (   0.1666667   0.0962250   0.5956165), wk =   0.0185185
        k(   20) = (   0.1666667   0.0962250  -0.8934247), wk =   0.0185185
        k(   21) = (   0.1666667   0.6735753   0.0000000), wk =   0.0370370
        k(   22) = (   0.1666667   0.6735753   0.2978082), wk =   0.0370370
        k(   23) = (   0.1666667   0.6735753   0.5956165), wk =   0.0370370
        k(   24) = (   0.1666667   0.6735753  -0.8934247), wk =   0.0370370
        k(   25) = (   0.1666667   1.2509256   0.0000000), wk =   0.0370370
        k(   26) = (   0.1666667   1.2509256   0.2978082), wk =   0.0370370
        k(   27) = (   0.1666667   1.2509256   0.5956165), wk =   0.0370370
        k(   28) = (   0.1666667   1.2509256  -0.8934247), wk =   0.0370370
        k(   29) = (   0.1666667  -1.6358258   0.0000000), wk =   0.0370370
        k(   30) = (   0.1666667  -1.6358258   0.2978082), wk =   0.0370370
        k(   31) = (   0.1666667  -1.6358258   0.5956165), wk =   0.0370370
        k(   32) = (   0.1666667  -1.6358258  -0.8934247), wk =   0.0370370
        k(   33) = (   0.1666667  -0.4811252   0.0000000), wk =   0.0370370
        k(   34) = (   0.1666667  -0.4811252   0.2978082), wk =   0.0370370
        k(   35) = (   0.1666667  -0.4811252   0.5956165), wk =   0.0370370
        k(   36) = (   0.1666667  -0.4811252  -0.8934247), wk =   0.0370370
        k(   37) = (   0.3333333   0.1924501   0.0000000), wk =   0.0185185
        k(   38) = (   0.3333333   0.1924501   0.2978082), wk =   0.0185185
        k(   39) = (   0.3333333   0.1924501   0.5956165), wk =   0.0185185
        k(   40) = (   0.3333333   0.1924501  -0.8934247), wk =   0.0185185
        k(   41) = (   0.3333333   1.3471506   0.0000000), wk =   0.0370370
        k(   42) = (   0.3333333   1.3471506   0.2978082), wk =   0.0370370
        k(   43) = (   0.3333333   1.3471506   0.5956165), wk =   0.0370370
        k(   44) = (   0.3333333   1.3471506  -0.8934247), wk =   0.0370370
        k(   45) = (  -0.5000000  -0.2886751   0.0000000), wk =   0.0092593
        k(   46) = (  -0.5000000  -0.2886751   0.2978082), wk =   0.0185185
        k(   47) = (  -0.5000000  -0.2886751   0.5956165), wk =   0.0185185
        k(   48) = (  -0.5000000  -0.2886751  -0.8934247), wk =   0.0092593
        k(   49) = (  -0.5000000   0.8660254   0.0000000), wk =   0.0185185
        k(   50) = (  -0.5000000   0.8660254   0.2978082), wk =   0.0370370
        k(   51) = (  -0.5000000   0.8660254   0.5956165), wk =   0.0370370
        k(   52) = (  -0.5000000   0.8660254  -0.8934247), wk =   0.0185185
        k(   53) = (   0.5000000  -0.2886751  -0.2978082), wk =   0.0370370
        k(   54) = (   0.5000000  -0.2886751  -0.5956165), wk =   0.0370370
        k(   55) = (   0.1666667   0.0962250  -0.2978082), wk =   0.0185185
        k(   56) = (   0.1666667   0.0962250  -0.5956165), wk =   0.0185185
        k(   57) = (   0.6666667  -0.1924501  -0.2978082), wk =   0.0370370
        k(   58) = (   0.6666667  -0.1924501  -0.5956165), wk =   0.0370370
        k(   59) = (   1.1666667  -0.4811252  -0.2978082), wk =   0.0370370
        k(   60) = (   1.1666667  -0.4811252  -0.5956165), wk =   0.0370370
        k(   61) = (  -1.3333333   0.9622504  -0.2978082), wk =   0.0370370
        k(   62) = (  -1.3333333   0.9622504  -0.5956165), wk =   0.0370370
        k(   63) = (  -0.3333333   0.3849002  -0.2978082), wk =   0.0370370
        k(   64) = (  -0.3333333   0.3849002  -0.5956165), wk =   0.0370370
        k(   65) = (   0.3333333   0.1924501  -0.2978082), wk =   0.0185185
        k(   66) = (   0.3333333   0.1924501  -0.5956165), wk =   0.0185185
        k(   67) = (   1.3333333  -0.3849002  -0.2978082), wk =   0.0370370
        k(   68) = (   1.3333333  -0.3849002  -0.5956165), wk =   0.0370370

                       cryst. coord.
        k(    1) = (   0.0000000   0.0000000   0.0000000), wk =   0.0092593
        k(    2) = (   0.0000000   0.0000000   0.1666667), wk =   0.0185185
        k(    3) = (   0.0000000   0.0000000   0.3333333), wk =   0.0185185
        k(    4) = (   0.0000000   0.0000000  -0.5000000), wk =   0.0092593
        k(    5) = (   0.0000000   0.1666667   0.0000000), wk =   0.0370370
        k(    6) = (   0.0000000   0.1666667   0.1666667), wk =   0.0370370
        k(    7) = (   0.0000000   0.1666667   0.3333333), wk =   0.0370370
        k(    8) = (   0.0000000   0.1666667  -0.5000000), wk =   0.0370370
        k(    9) = (   0.0000000   0.3333333   0.0000000), wk =   0.0185185
        k(   10) = (   0.0000000   0.3333333   0.1666667), wk =   0.0370370
        k(   11) = (   0.0000000   0.3333333   0.3333333), wk =   0.0370370
        k(   12) = (   0.0000000   0.3333333  -0.5000000), wk =   0.0185185
        k(   13) = (   0.0000000  -0.5000000   0.0000000), wk =   0.0185185
        k(   14) = (   0.0000000  -0.5000000   0.1666667), wk =   0.0370370
        k(   15) = (   0.0000000  -0.5000000   0.3333333), wk =   0.0370370
        k(   16) = (   0.0000000  -0.5000000  -0.5000000), wk =   0.0185185
        k(   17) = (   0.1666667   0.0000000   0.0000000), wk =   0.0185185
        k(   18) = (   0.1666667   0.0000000   0.1666667), wk =   0.0185185
        k(   19) = (   0.1666667   0.0000000   0.3333333), wk =   0.0185185
        k(   20) = (   0.1666667   0.0000000  -0.5000000), wk =   0.0185185
        k(   21) = (   0.1666667   0.1666667   0.0000000), wk =   0.0370370
        k(   22) = (   0.1666667   0.1666667   0.1666667), wk =   0.0370370
        k(   23) = (   0.1666667   0.1666667   0.3333333), wk =   0.0370370
        k(   24) = (   0.1666667   0.1666667  -0.5000000), wk =   0.0370370
        k(   25) = (   0.1666667   0.3333333   0.0000000), wk =   0.0370370
        k(   26) = (   0.1666667   0.3333333   0.1666667), wk =   0.0370370
        k(   27) = (   0.1666667   0.3333333   0.3333333), wk =   0.0370370
        k(   28) = (   0.1666667   0.3333333  -0.5000000), wk =   0.0370370
        k(   29) = (   0.1666667  -0.5000000   0.0000000), wk =   0.0370370
        k(   30) = (   0.1666667  -0.5000000   0.1666667), wk =   0.0370370
        k(   31) = (   0.1666667  -0.5000000   0.3333333), wk =   0.0370370
        k(   32) = (   0.1666667  -0.5000000  -0.5000000), wk =   0.0370370
        k(   33) = (   0.1666667  -0.1666667   0.0000000), wk =   0.0370370
        k(   34) = (   0.1666667  -0.1666667   0.1666667), wk =   0.0370370
        k(   35) = (   0.1666667  -0.1666667   0.3333333), wk =   0.0370370
        k(   36) = (   0.1666667  -0.1666667  -0.5000000), wk =   0.0370370
        k(   37) = (   0.3333333   0.0000000   0.0000000), wk =   0.0185185
        k(   38) = (   0.3333333   0.0000000   0.1666667), wk =   0.0185185
        k(   39) = (   0.3333333   0.0000000   0.3333333), wk =   0.0185185
        k(   40) = (   0.3333333   0.0000000  -0.5000000), wk =   0.0185185
        k(   41) = (   0.3333333   0.3333333   0.0000000), wk =   0.0370370
        k(   42) = (   0.3333333   0.3333333   0.1666667), wk =   0.0370370
        k(   43) = (   0.3333333   0.3333333   0.3333333), wk =   0.0370370
        k(   44) = (   0.3333333   0.3333333  -0.5000000), wk =   0.0370370
        k(   45) = (  -0.5000000  -0.0000000   0.0000000), wk =   0.0092593
        k(   46) = (  -0.5000000  -0.0000000   0.1666667), wk =   0.0185185
        k(   47) = (  -0.5000000  -0.0000000   0.3333333), wk =   0.0185185
        k(   48) = (  -0.5000000  -0.0000000  -0.5000000), wk =   0.0092593
        k(   49) = (  -0.5000000   0.3333333   0.0000000), wk =   0.0185185
        k(   50) = (  -0.5000000   0.3333333   0.1666667), wk =   0.0370370
        k(   51) = (  -0.5000000   0.3333333   0.3333333), wk =   0.0370370
        k(   52) = (  -0.5000000   0.3333333  -0.5000000), wk =   0.0185185
        k(   53) = (   0.5000000  -0.1666667  -0.1666667), wk =   0.0370370
        k(   54) = (   0.5000000  -0.1666667  -0.3333333), wk =   0.0370370
        k(   55) = (   0.1666667   0.0000000  -0.1666667), wk =   0.0185185
        k(   56) = (   0.1666667   0.0000000  -0.3333333), wk =   0.0185185
        k(   57) = (   0.6666667  -0.1666667  -0.1666667), wk =   0.0370370
        k(   58) = (   0.6666667  -0.1666667  -0.3333333), wk =   0.0370370
        k(   59) = (   1.1666667  -0.3333333  -0.1666667), wk =   0.0370370
        k(   60) = (   1.1666667  -0.3333333  -0.3333333), wk =   0.0370370
        k(   61) = (  -1.3333333   0.5000000  -0.1666667), wk =   0.0370370
        k(   62) = (  -1.3333333   0.5000000  -0.3333333), wk =   0.0370370
        k(   63) = (  -0.3333333   0.1666667  -0.1666667), wk =   0.0370370
        k(   64) = (  -0.3333333   0.1666667  -0.3333333), wk =   0.0370370
        k(   65) = (   0.3333333   0.0000000  -0.1666667), wk =   0.0185185
        k(   66) = (   0.3333333   0.0000000  -0.3333333), wk =   0.0185185
        k(   67) = (   1.3333333  -0.3333333  -0.1666667), wk =   0.0370370
        k(   68) = (   1.3333333  -0.3333333  -0.3333333), wk =   0.0370370

     Check: negative core charge=   -0.000001

     Initial potential from superposition of free atoms

     starting charge     107.9776, renormalised to     108.0000
     Starting wfcs are   78 randomized atomic wfcs

     Self-consistent Calculation

     iteration #  1     ecut=    50.00 Ry     beta= 0.30
     Davidson diagonalization with overlap

     ethr =  1.00E-02,  avg # of iterations =  2.1

     total energy              =   -1084.04776172 Ry
     estimated scf accuracy    <       2.03689282 Ry

[...]

     total energy              =   -1084.43858030 Ry
     estimated scf accuracy    <       0.00000004 Ry

     iteration # 23     ecut=    50.00 Ry     beta= 0.30
     Davidson diagonalization with overlap

     ethr =  4.08E-11,  avg # of iterations =  5.3

     End of self-consistent calculation

          k = 0.0000 0.0000 0.0000 (  4491 PWs)   bands (ev):

    -8.8756  -8.0757  -8.0757  -7.7908  -7.4501  -7.4501   3.5674   3.5674
     3.5949   4.0709   4.0709   4.2673   4.2676   4.3495   4.5202   4.5204
     4.6050   4.6050   4.7171   4.7171   5.0323   5.0323   5.1215   5.1215
     6.1226   6.1226   6.3932   6.3932   6.5103   6.5103   6.7179   6.7180
     6.7522   6.7522   6.7716   6.7716   7.1719   7.3047   7.3047   7.7934
     7.7934   9.1099   9.1099   9.2644   9.2644  10.4464  10.4464  10.7164
    10.7167  10.8103  10.8103  11.3880  11.7199  11.7202

     occupation numbers
     1.0000   1.0000   1.0000   1.0000   1.0000   1.0000   1.0000   1.0000
     1.0000   1.0000   1.0000   1.0000   1.0000   1.0000   1.0000   1.0000
     1.0000   1.0000   1.0000   1.0000   1.0000   1.0000   1.0000   1.0000
     1.0000   1.0000   1.0000   1.0000   1.0000   1.0000   1.0000   1.0000
     1.0000   1.0000   1.0000   1.0000   1.0000   1.0000   1.0000   1.0000
     1.0000   1.0000   1.0000   1.0000   1.0000   1.0000   1.0000   1.0000
     1.0000   1.0000   1.0000   1.0000   1.0000   1.0000

[...]

          k =-0.5000-0.2887 0.0000 (  4466 PWs)   bands (ev):

[...]

          k =-0.3333 0.3849-0.5956 (  4475 PWs)   bands (ev):

[...]

          k = 1.3333-0.3849-0.5956 (  4475 PWs)   bands (ev):

    -8.0317  -7.7340  -7.6719  -7.5572  -7.5049  -7.4375   3.5141   3.5776
     3.6421   3.6797   3.8214   3.8790   4.4951   4.5447   4.6131   4.6486
     4.6664   4.7916   4.8031   4.9203   5.0468   5.1252   5.2716   5.2922
     6.3852   6.4055   6.4350   6.5349   6.5447   6.6392   6.6822   6.7580
     6.7585   6.8716   6.8791   7.1064   7.1932   7.4814   7.5992   7.9141
     8.1041   8.1503   8.7048   8.8226   8.8887   9.1196   9.1278   9.3832
     9.6559   9.8837   9.9013  10.1285  10.3313  10.4521

     occupation numbers
     1.0000   1.0000   1.0000   1.0000   1.0000   1.0000   1.0000   1.0000
     1.0000   1.0000   1.0000   1.0000   1.0000   1.0000   1.0000   1.0000
     1.0000   1.0000   1.0000   1.0000   1.0000   1.0000   1.0000   1.0000
     1.0000   1.0000   1.0000   1.0000   1.0000   1.0000   1.0000   1.0000
     1.0000   1.0000   1.0000   1.0000   1.0000   1.0000   1.0000   1.0000
     1.0000   1.0000   1.0000   1.0000   1.0000   1.0000   1.0000   1.0000
     1.0000   1.0000   1.0000   1.0000   1.0000   1.0000

     highest occupied level (ev):    11.7202

!    total energy              =   -1084.43858032 Ry
     estimated scf accuracy    <          3.6E-10 Ry

     The total energy is the sum of the following terms:
     one-electron contribution =    -364.63088384 Ry
     hartree contribution      =     320.90792271 Ry
     xc contribution           =    -330.64483586 Ry
     ewald contribution        =    -710.07078334 Ry

     convergence has been achieved in  23 iterations

     Forces acting on atoms (cartesian axes, Ry/au):

     atom    1 type  1   force =     0.00001491    0.00000861    0.04102208
     atom    2 type  1   force =    -0.00001483   -0.00000856    0.04102130
     atom    3 type  2   force =    -0.00000087   -0.00000050   -0.04102113
     atom    4 type  2   force =     0.00000187    0.00000108   -0.04102217
     atom    5 type  1   force =     0.00001554    0.00000897    0.04102234
     atom    6 type  1   force =    -0.00001148   -0.00000663    0.04101981
     atom    7 type  2   force =    -0.00000027   -0.00000016   -0.04101967
     atom    8 type  2   force =     0.00000203    0.00000117   -0.04102129
     atom    9 type  1   force =     0.00001292    0.00000746    0.04101964
     atom   10 type  1   force =    -0.00001731   -0.00000999    0.04102141
     atom   11 type  2   force =    -0.00000280   -0.00000162   -0.04102140
     atom   12 type  2   force =     0.00000028    0.00000016   -0.04102093
     The non-local contrib.  to forces
     atom    1 type  1   force =    -0.00002711   -0.00001565    0.11998272
     atom    2 type  1   force =     0.00002627    0.00001517    0.11998138
     atom    3 type  2   force =    -0.00016305   -0.00009414    0.08476710
     atom    4 type  2   force =     0.00016515    0.00009535    0.08476673
     atom    5 type  1   force =    -0.00002630   -0.00001518    0.11998222
     atom    6 type  1   force =     0.00002588    0.00001494    0.11998137
     atom    7 type  2   force =    -0.00016496   -0.00009524    0.08476634
     atom    8 type  2   force =     0.00016588    0.00009577    0.08476700
     atom    9 type  1   force =    -0.00002670   -0.00001541    0.11998178
     atom   10 type  1   force =     0.00002670    0.00001542    0.11998185
     atom   11 type  2   force =    -0.00016638   -0.00009606    0.08476680
     atom   12 type  2   force =     0.00016355    0.00009443    0.08476692
     The ionic contribution  to forces
     atom    1 type  1   force =     0.00000001    0.00000001    1.04948328
     atom    2 type  1   force =     0.00000001    0.00000000    1.04948328
     atom    3 type  2   force =     0.00000000    0.00000000   -1.04948328
     atom    4 type  2   force =     0.00000001    0.00000000   -1.04948328
     atom    5 type  1   force =    -0.00000001    0.00000000    1.04948328
     atom    6 type  1   force =     0.00000001   -0.00000000    1.04948328
     atom    7 type  2   force =    -0.00000001    0.00000001   -1.04948328
     atom    8 type  2   force =     0.00000001   -0.00000001   -1.04948328
     atom    9 type  1   force =    -0.00000001   -0.00000000    1.04948328
     atom   10 type  1   force =    -0.00000001   -0.00000001    1.04948328
     atom   11 type  2   force =    -0.00000001   -0.00000000   -1.04948328
     atom   12 type  2   force =    -0.00000000   -0.00000000   -1.04948328
     The local contribution  to forces
     atom    1 type  1   force =     0.00004662    0.00002692   -1.11767605
     atom    2 type  1   force =    -0.00004546   -0.00002629   -1.11767438
     atom    3 type  2   force =     0.00015818    0.00009133    0.92420087
     atom    4 type  2   force =    -0.00016080   -0.00009285    0.92419841
     atom    5 type  1   force =     0.00004430    0.00002566   -1.11767674
     atom    6 type  1   force =    -0.00004829   -0.00002796   -1.11767241
     atom    7 type  2   force =     0.00016183    0.00009346    0.92420350
     atom    8 type  2   force =    -0.00016327   -0.00009429    0.92420036
     atom    9 type  1   force =     0.00004755    0.00002750   -1.11767368
     atom   10 type  1   force =    -0.00004339   -0.00002505   -1.11767512
     atom   11 type  2   force =     0.00016304    0.00009414    0.92419992
     atom   12 type  2   force =    -0.00015995   -0.00009235    0.92420169
     The core correction contribution to forces
     atom    1 type  1   force =    -0.00000562   -0.00000324   -0.01076889
     atom    2 type  1   force =     0.00000561    0.00000323   -0.01076891
     atom    3 type  2   force =     0.00000183    0.00000106   -0.00050679
     atom    4 type  2   force =    -0.00000186   -0.00000107   -0.00050680
     atom    5 type  1   force =    -0.00000557   -0.00000320   -0.01076886
     atom    6 type  1   force =     0.00000564    0.00000325   -0.01076894
     atom    7 type  2   force =     0.00000187    0.00000108   -0.00050677
     atom    8 type  2   force =    -0.00000187   -0.00000108   -0.00050678
     atom    9 type  1   force =    -0.00000560   -0.00000323   -0.01076887
     atom   10 type  1   force =     0.00000559    0.00000323   -0.01076890
     atom   11 type  2   force =     0.00000187    0.00000108   -0.00050679
     atom   12 type  2   force =    -0.00000185   -0.00000107   -0.00050678
     The Hubbard contrib.    to forces
     atom    1 type  1   force =     0.00000000    0.00000000    0.00000000
     atom    2 type  1   force =     0.00000000    0.00000000    0.00000000
     atom    3 type  2   force =     0.00000000    0.00000000    0.00000000
     atom    4 type  2   force =     0.00000000    0.00000000    0.00000000
     atom    5 type  1   force =     0.00000000    0.00000000    0.00000000
     atom    6 type  1   force =     0.00000000    0.00000000    0.00000000
     atom    7 type  2   force =     0.00000000    0.00000000    0.00000000
     atom    8 type  2   force =     0.00000000    0.00000000    0.00000000
     atom    9 type  1   force =     0.00000000    0.00000000    0.00000000
     atom   10 type  1   force =     0.00000000    0.00000000    0.00000000
     atom   11 type  2   force =     0.00000000    0.00000000    0.00000000
     atom   12 type  2   force =     0.00000000    0.00000000    0.00000000
     The SCF correction term to forces
     atom    1 type  1   force =     0.00000092    0.00000053    0.00000216
     atom    2 type  1   force =    -0.00000132   -0.00000076    0.00000107
     atom    3 type  2   force =     0.00000207    0.00000120    0.00000211
     atom    4 type  2   force =    -0.00000070   -0.00000041    0.00000390
     atom    5 type  1   force =     0.00000300    0.00000173    0.00000358
     atom    6 type  1   force =     0.00000524    0.00000302   -0.00000235
     atom    7 type  2   force =     0.00000090    0.00000052    0.00000168
     atom    8 type  2   force =     0.00000121    0.00000070    0.00000256
     atom    9 type  1   force =    -0.00000242   -0.00000140   -0.00000172
     atom   10 type  1   force =    -0.00000629   -0.00000363    0.00000144
     atom   11 type  2   force =    -0.00000142   -0.00000082    0.00000310
     atom   12 type  2   force =    -0.00000156   -0.00000090    0.00000166

     Total force =     0.142101     Total SCF correction =     0.000014

     General routines

     Parallel routines

   This run was terminated on:  12:48: 1  27Aug2025

   JOB DONE.