     Program PWSCF v.7.0 starts on 27Aug2025 at 18:27:58

     K-points division:     npool     =      17

     Reading input from /home/jvc/QEspresso7.2/ZnO_database/scripts/cell311.in/ZnO-3.20-1.74-311.in
Warning: card &CELL ignored
Warning: card / ignored
Warning: card &FCP ignored
Warning: card / ignored
Warning: card &RISM ignored
Warning: card / ignored

     Current dimensions of program PWSCF are:
     Max number of different atomic species (ntypx) = 10
     Max number of k-points (npk) =  40000
     Max angular momentum in pseudopotentials (lmaxx) =  4
     file Zn.upf: wavefunction(s)  3D renormalized
     Found identity + (  0.3333  0.0000  0.0000) symmetry
     This is a supercell, fractional translations are disabled
     Message from routine setup:
     using ibrav=0 with symmetry is DISCOURAGED, use correct ibrav instead

     Subspace diagonalization in iterative solution of the eigenvalue problem:
     a serial algorithm will be used

     Using Slab Decomposition

     bravais-lattice index     =            0
     lattice parameter (alat)  =      18.1658  a.u.
     unit-cell volume          =    1005.7212 (a.u.)^3
     number of atoms/cell      =           12
     number of atomic types    =            2
     number of electrons       =       108.00
     number of Kohn-Sham states=           54
     kinetic-energy cutoff     =      50.0000  Ry
     charge density cutoff     =     400.0000  Ry
     scf convergence threshold =      1.0E-08
     mixing beta               =       0.3000
     number of iterations used =            8  plain     mixing
     Exchange-correlation= PBE
                           (   1   4   3   4   0   0   0)

     celldm(1)=  18.165831  celldm(2)=   0.000000  celldm(3)=   0.000000
     celldm(4)=   0.000000  celldm(5)=   0.000000  celldm(6)=   0.000000

     crystal axes: (cart. coord. in units of alat)
               a(1) = (   1.000000   0.000000   0.000000 )
               a(2) = (  -0.166667   0.288675   0.000000 )
               a(3) = (   0.000000   0.000000   0.581169 )

     reciprocal axes: (cart. coord. in units 2 pi/alat)
               b(1) = (  1.000000  0.577350 -0.000000 )
               b(2) = (  0.000000  3.464102  0.000000 )
               b(3) = (  0.000000 -0.000000  1.720670 )

     PseudoPot. # 1 for Zn read from file:
     /home/jvc/QEspresso7.2/ZnO_database/pseudos/Zn.upf
     MD5 check sum: 7f56cabf9682ed8c977c2f7d0c5985c5
     Pseudo is Ultrasoft + core correction, Zval = 12.0
     Generated using &quot;atomic&quot; code by A. Dal Corso  v.6.2.2
     Using radial grid of 1201 points,  6 beta functions with:
                l(1) =   0
                l(2) =   0
                l(3) =   1
                l(4) =   1
                l(5) =   2
                l(6) =   2
     Q(r) pseudized with 0 coefficients

     PseudoPot. # 2 for O  read from file:
     /home/jvc/QEspresso7.2/ZnO_database/pseudos/O.upf
     MD5 check sum: 91400c9766925bcf19f520983a725ff0
     Pseudo is Ultrasoft + core correction, Zval =  6.0
     Generated using &quot;atomic&quot; code by A. Dal Corso  v.6.3MaX
     Using radial grid of 1095 points,  4 beta functions with:
                l(1) =   0
                l(2) =   0
                l(3) =   1
                l(4) =   1
     Q(r) pseudized with 0 coefficients

     atomic species   valence    mass     pseudopotential
        Zn            12.00    65.38000     Zn( 1.00)
        O              6.00    15.99900     O ( 1.00)

      2 Sym. Ops. (no inversion) found

                                    s                        frac. trans.

      isym =  1     identity

 cryst.   s( 1) = (     1          0          0      )
                  (     0          1          0      )
                  (     0          0          1      )

 cart.    s( 1) = (  1.0000000  0.0000000  0.0000000 )
                  (  0.0000000  1.0000000  0.0000000 )
                  (  0.0000000  0.0000000  1.0000000 )

      isym =  2     inv. 180 deg rotation - cryst. axis [0,1,0]

 cryst.   s( 2) = (     1          3          0      )
                  (     0         -1          0      )
                  (     0          0          1      )

 cart.    s( 2) = (  0.5000000  0.8660254  0.0000000 )
                  (  0.8660254 -0.5000000  0.0000000 )
                  (  0.0000000  0.0000000  1.0000000 )

   Cartesian axes

     site n.     atom                  positions (alat units)
         1           Zn  tau(   1) = (   0.1666667   0.0962250   0.2909527  )
         2           Zn  tau(   2) = (  -0.0000000   0.1924501   0.0003682  )
         3           O   tau(   3) = (   0.1666667   0.0962250   0.5112407  )
         4           O   tau(   4) = (  -0.0000000   0.1924501   0.2206562  )
         5           Zn  tau(   5) = (   0.5000000   0.0962250   0.2909527  )
         6           Zn  tau(   6) = (   0.3333333   0.1924501   0.0003682  )
         7           O   tau(   7) = (   0.5000000   0.0962250   0.5112407  )
         8           O   tau(   8) = (   0.3333333   0.1924501   0.2206562  )
         9           Zn  tau(   9) = (   0.8333333   0.0962250   0.2909527  )
        10           Zn  tau(  10) = (   0.6666667   0.1924501   0.0003682  )
        11           O   tau(  11) = (   0.8333333   0.0962250   0.5112407  )
        12           O   tau(  12) = (   0.6666667   0.1924501   0.2206562  )

   Crystallographic axes

     site n.     atom                  positions (cryst. coord.)
         1           Zn  tau(   1) = (  0.2222222  0.3333333  0.5006336  )
         2           Zn  tau(   2) = (  0.1111111  0.6666667  0.0006336  )
         3           O   tau(   3) = (  0.2222222  0.3333333  0.8796764  )
         4           O   tau(   4) = (  0.1111111  0.6666667  0.3796764  )
         5           Zn  tau(   5) = (  0.5555556  0.3333333  0.5006336  )
         6           Zn  tau(   6) = (  0.4444444  0.6666667  0.0006336  )
         7           O   tau(   7) = (  0.5555556  0.3333333  0.8796764  )
         8           O   tau(   8) = (  0.4444444  0.6666667  0.3796764  )
         9           Zn  tau(   9) = (  0.8888889  0.3333333  0.5006336  )
        10           Zn  tau(  10) = (  0.7777778  0.6666667  0.0006336  )
        11           O   tau(  11) = (  0.8888889  0.3333333  0.8796764  )
        12           O   tau(  12) = (  0.7777778  0.6666667  0.3796764  )

     number of k points=    68
                       cart. coord. in units 2pi/alat
        k(    1) = (   0.0000000   0.0000000   0.0000000), wk =   0.0092593
        k(    2) = (   0.0000000   0.0000000   0.2867783), wk =   0.0185185
        k(    3) = (   0.0000000   0.0000000   0.5735566), wk =   0.0185185
        k(    4) = (   0.0000000   0.0000000  -0.8603349), wk =   0.0092593
        k(    5) = (   0.0000000   0.5773503   0.0000000), wk =   0.0370370
        k(    6) = (   0.0000000   0.5773503   0.2867783), wk =   0.0370370
        k(    7) = (   0.0000000   0.5773503   0.5735566), wk =   0.0370370
        k(    8) = (   0.0000000   0.5773503  -0.8603349), wk =   0.0370370
        k(    9) = (   0.0000000   1.1547005   0.0000000), wk =   0.0185185
        k(   10) = (   0.0000000   1.1547005   0.2867783), wk =   0.0370370
        k(   11) = (   0.0000000   1.1547005   0.5735566), wk =   0.0370370
        k(   12) = (   0.0000000   1.1547005  -0.8603349), wk =   0.0185185
        k(   13) = (   0.0000000  -1.7320508   0.0000000), wk =   0.0185185
        k(   14) = (   0.0000000  -1.7320508   0.2867783), wk =   0.0370370
        k(   15) = (   0.0000000  -1.7320508   0.5735566), wk =   0.0370370
        k(   16) = (   0.0000000  -1.7320508  -0.8603349), wk =   0.0185185
        k(   17) = (   0.1666667   0.0962250   0.0000000), wk =   0.0185185
        k(   18) = (   0.1666667   0.0962250   0.2867783), wk =   0.0185185
        k(   19) = (   0.1666667   0.0962250   0.5735566), wk =   0.0185185
        k(   20) = (   0.1666667   0.0962250  -0.8603349), wk =   0.0185185
        k(   21) = (   0.1666667   0.6735753   0.0000000), wk =   0.0370370
        k(   22) = (   0.1666667   0.6735753   0.2867783), wk =   0.0370370
        k(   23) = (   0.1666667   0.6735753   0.5735566), wk =   0.0370370
        k(   24) = (   0.1666667   0.6735753  -0.8603349), wk =   0.0370370
        k(   25) = (   0.1666667   1.2509256   0.0000000), wk =   0.0370370
        k(   26) = (   0.1666667   1.2509256   0.2867783), wk =   0.0370370
        k(   27) = (   0.1666667   1.2509256   0.5735566), wk =   0.0370370
        k(   28) = (   0.1666667   1.2509256  -0.8603349), wk =   0.0370370
        k(   29) = (   0.1666667  -1.6358258   0.0000000), wk =   0.0370370
        k(   30) = (   0.1666667  -1.6358258   0.2867783), wk =   0.0370370
        k(   31) = (   0.1666667  -1.6358258   0.5735566), wk =   0.0370370
        k(   32) = (   0.1666667  -1.6358258  -0.8603349), wk =   0.0370370
        k(   33) = (   0.1666667  -0.4811252   0.0000000), wk =   0.0370370
        k(   34) = (   0.1666667  -0.4811252   0.2867783), wk =   0.0370370
        k(   35) = (   0.1666667  -0.4811252   0.5735566), wk =   0.0370370
        k(   36) = (   0.1666667  -0.4811252  -0.8603349), wk =   0.0370370
        k(   37) = (   0.3333333   0.1924501   0.0000000), wk =   0.0185185
        k(   38) = (   0.3333333   0.1924501   0.2867783), wk =   0.0185185
        k(   39) = (   0.3333333   0.1924501   0.5735566), wk =   0.0185185
        k(   40) = (   0.3333333   0.1924501  -0.8603349), wk =   0.0185185
        k(   41) = (   0.3333333   1.3471506   0.0000000), wk =   0.0370370
        k(   42) = (   0.3333333   1.3471506   0.2867783), wk =   0.0370370
        k(   43) = (   0.3333333   1.3471506   0.5735566), wk =   0.0370370
        k(   44) = (   0.3333333   1.3471506  -0.8603349), wk =   0.0370370
        k(   45) = (  -0.5000000  -0.2886751   0.0000000), wk =   0.0092593
        k(   46) = (  -0.5000000  -0.2886751   0.2867783), wk =   0.0185185
        k(   47) = (  -0.5000000  -0.2886751   0.5735566), wk =   0.0185185
        k(   48) = (  -0.5000000  -0.2886751  -0.8603349), wk =   0.0092593
        k(   49) = (  -0.5000000   0.8660254   0.0000000), wk =   0.0185185
        k(   50) = (  -0.5000000   0.8660254   0.2867783), wk =   0.0370370
        k(   51) = (  -0.5000000   0.8660254   0.5735566), wk =   0.0370370
        k(   52) = (  -0.5000000   0.8660254  -0.8603349), wk =   0.0185185
        k(   53) = (   0.5000000  -0.2886751  -0.2867783), wk =   0.0370370
        k(   54) = (   0.5000000  -0.2886751  -0.5735566), wk =   0.0370370
        k(   55) = (   0.1666667   0.0962250  -0.2867783), wk =   0.0185185
        k(   56) = (   0.1666667   0.0962250  -0.5735566), wk =   0.0185185
        k(   57) = (   0.6666667  -0.1924501  -0.2867783), wk =   0.0370370
        k(   58) = (   0.6666667  -0.1924501  -0.5735566), wk =   0.0370370
        k(   59) = (   1.1666667  -0.4811252  -0.2867783), wk =   0.0370370
        k(   60) = (   1.1666667  -0.4811252  -0.5735566), wk =   0.0370370
        k(   61) = (  -1.3333333   0.9622504  -0.2867783), wk =   0.0370370
        k(   62) = (  -1.3333333   0.9622504  -0.5735566), wk =   0.0370370
        k(   63) = (  -0.3333333   0.3849002  -0.2867783), wk =   0.0370370
        k(   64) = (  -0.3333333   0.3849002  -0.5735566), wk =   0.0370370
        k(   65) = (   0.3333333   0.1924501  -0.2867783), wk =   0.0185185
        k(   66) = (   0.3333333   0.1924501  -0.5735566), wk =   0.0185185
        k(   67) = (   1.3333333  -0.3849002  -0.2867783), wk =   0.0370370
        k(   68) = (   1.3333333  -0.3849002  -0.5735566), wk =   0.0370370

                       cryst. coord.
        k(    1) = (   0.0000000   0.0000000   0.0000000), wk =   0.0092593
        k(    2) = (   0.0000000   0.0000000   0.1666667), wk =   0.0185185
        k(    3) = (   0.0000000   0.0000000   0.3333333), wk =   0.0185185
        k(    4) = (   0.0000000   0.0000000  -0.5000000), wk =   0.0092593
        k(    5) = (   0.0000000   0.1666667   0.0000000), wk =   0.0370370
        k(    6) = (   0.0000000   0.1666667   0.1666667), wk =   0.0370370
        k(    7) = (   0.0000000   0.1666667   0.3333333), wk =   0.0370370
        k(    8) = (   0.0000000   0.1666667  -0.5000000), wk =   0.0370370
        k(    9) = (   0.0000000   0.3333333   0.0000000), wk =   0.0185185
        k(   10) = (   0.0000000   0.3333333   0.1666667), wk =   0.0370370
        k(   11) = (   0.0000000   0.3333333   0.3333333), wk =   0.0370370
        k(   12) = (   0.0000000   0.3333333  -0.5000000), wk =   0.0185185
        k(   13) = (   0.0000000  -0.5000000   0.0000000), wk =   0.0185185
        k(   14) = (   0.0000000  -0.5000000   0.1666667), wk =   0.0370370
        k(   15) = (   0.0000000  -0.5000000   0.3333333), wk =   0.0370370
        k(   16) = (   0.0000000  -0.5000000  -0.5000000), wk =   0.0185185
        k(   17) = (   0.1666667  -0.0000000   0.0000000), wk =   0.0185185
        k(   18) = (   0.1666667  -0.0000000   0.1666667), wk =   0.0185185
        k(   19) = (   0.1666667  -0.0000000   0.3333333), wk =   0.0185185
        k(   20) = (   0.1666667  -0.0000000  -0.5000000), wk =   0.0185185
        k(   21) = (   0.1666667   0.1666667   0.0000000), wk =   0.0370370
        k(   22) = (   0.1666667   0.1666667   0.1666667), wk =   0.0370370
        k(   23) = (   0.1666667   0.1666667   0.3333333), wk =   0.0370370
        k(   24) = (   0.1666667   0.1666667  -0.5000000), wk =   0.0370370
        k(   25) = (   0.1666667   0.3333333   0.0000000), wk =   0.0370370
        k(   26) = (   0.1666667   0.3333333   0.1666667), wk =   0.0370370
        k(   27) = (   0.1666667   0.3333333   0.3333333), wk =   0.0370370
        k(   28) = (   0.1666667   0.3333333  -0.5000000), wk =   0.0370370
        k(   29) = (   0.1666667  -0.5000000   0.0000000), wk =   0.0370370
        k(   30) = (   0.1666667  -0.5000000   0.1666667), wk =   0.0370370
        k(   31) = (   0.1666667  -0.5000000   0.3333333), wk =   0.0370370
        k(   32) = (   0.1666667  -0.5000000  -0.5000000), wk =   0.0370370
        k(   33) = (   0.1666667  -0.1666667   0.0000000), wk =   0.0370370
        k(   34) = (   0.1666667  -0.1666667   0.1666667), wk =   0.0370370
        k(   35) = (   0.1666667  -0.1666667   0.3333333), wk =   0.0370370
        k(   36) = (   0.1666667  -0.1666667  -0.5000000), wk =   0.0370370
        k(   37) = (   0.3333333  -0.0000000   0.0000000), wk =   0.0185185
        k(   38) = (   0.3333333  -0.0000000   0.1666667), wk =   0.0185185
        k(   39) = (   0.3333333  -0.0000000   0.3333333), wk =   0.0185185
        k(   40) = (   0.3333333  -0.0000000  -0.5000000), wk =   0.0185185
        k(   41) = (   0.3333333   0.3333333   0.0000000), wk =   0.0370370
        k(   42) = (   0.3333333   0.3333333   0.1666667), wk =   0.0370370
        k(   43) = (   0.3333333   0.3333333   0.3333333), wk =   0.0370370
        k(   44) = (   0.3333333   0.3333333  -0.5000000), wk =   0.0370370
        k(   45) = (  -0.5000000   0.0000000   0.0000000), wk =   0.0092593
        k(   46) = (  -0.5000000   0.0000000   0.1666667), wk =   0.0185185
        k(   47) = (  -0.5000000   0.0000000   0.3333333), wk =   0.0185185
        k(   48) = (  -0.5000000   0.0000000  -0.5000000), wk =   0.0092593
        k(   49) = (  -0.5000000   0.3333333   0.0000000), wk =   0.0185185
        k(   50) = (  -0.5000000   0.3333333   0.1666667), wk =   0.0370370
        k(   51) = (  -0.5000000   0.3333333   0.3333333), wk =   0.0370370
        k(   52) = (  -0.5000000   0.3333333  -0.5000000), wk =   0.0185185
        k(   53) = (   0.5000000  -0.1666667  -0.1666667), wk =   0.0370370
        k(   54) = (   0.5000000  -0.1666667  -0.3333333), wk =   0.0370370
        k(   55) = (   0.1666667   0.0000000  -0.1666667), wk =   0.0185185
        k(   56) = (   0.1666667   0.0000000  -0.3333333), wk =   0.0185185
        k(   57) = (   0.6666667  -0.1666667  -0.1666667), wk =   0.0370370
        k(   58) = (   0.6666667  -0.1666667  -0.3333333), wk =   0.0370370
        k(   59) = (   1.1666667  -0.3333333  -0.1666667), wk =   0.0370370
        k(   60) = (   1.1666667  -0.3333333  -0.3333333), wk =   0.0370370
        k(   61) = (  -1.3333333   0.5000000  -0.1666667), wk =   0.0370370
        k(   62) = (  -1.3333333   0.5000000  -0.3333333), wk =   0.0370370
        k(   63) = (  -0.3333333   0.1666667  -0.1666667), wk =   0.0370370
        k(   64) = (  -0.3333333   0.1666667  -0.3333333), wk =   0.0370370
        k(   65) = (   0.3333333   0.0000000  -0.1666667), wk =   0.0185185
        k(   66) = (   0.3333333   0.0000000  -0.3333333), wk =   0.0185185
        k(   67) = (   1.3333333  -0.3333333  -0.1666667), wk =   0.0370370
        k(   68) = (   1.3333333  -0.3333333  -0.3333333), wk =   0.0370370

     Check: negative core charge=   -0.000002

     Initial potential from superposition of free atoms

     starting charge     107.9776, renormalised to     108.0000
     Starting wfcs are   78 randomized atomic wfcs

     Self-consistent Calculation

     iteration #  1     ecut=    50.00 Ry     beta= 0.30
     Davidson diagonalization with overlap

     ethr =  1.00E-02,  avg # of iterations =  2.0

     total energy              =   -1084.40341449 Ry
     estimated scf accuracy    <       2.10975881 Ry

[...]

     c_bands:  1 eigenvalues not converged
     ethr =  2.04E-07,  avg # of iterations = 13.7

[...]

     total energy              =   -1084.88602363 Ry
     estimated scf accuracy    <       0.00000009 Ry

     iteration # 45     ecut=    50.00 Ry     beta= 0.30
     Davidson diagonalization with overlap

     ethr =  4.76E-11,  avg # of iterations =  5.5

     End of self-consistent calculation

          k = 0.0000 0.0000 0.0000 (  6023 PWs)   bands (ev):

   -11.1344 -10.6655 -10.6654 -10.5898 -10.3563 -10.3562   0.8139   0.8139
     1.0904   1.0907   1.1263   1.1263   1.1485   1.1596   1.2325   1.2328
     1.3218   1.3218   1.5745   1.5745   1.6248   1.6248   1.8087   1.8087
     2.1101   2.1101   2.2255   2.2255   2.2903   2.2903   2.3686   2.3686
     2.3976   2.3976   2.5966   2.5966   2.7278   2.8944   2.8945   3.5892
     3.5892   4.4393   4.4393   5.1571   5.1572   5.8292   5.8293   6.0843
     6.0843   6.1531   6.1537   6.4314   6.7304   6.7309

     occupation numbers
     1.0000   1.0000   1.0000   1.0000   1.0000   1.0000   1.0000   1.0000
     1.0000   1.0000   1.0000   1.0000   1.0000   1.0000   1.0000   1.0000
     1.0000   1.0000   1.0000   1.0000   1.0000   1.0000   1.0000   1.0000
     1.0000   1.0000   1.0000   1.0000   1.0000   1.0000   1.0000   1.0000
     1.0000   1.0000   1.0000   1.0000   1.0000   1.0000   1.0000   1.0000
     1.0000   1.0000   1.0000   1.0000   1.0000   1.0000   1.0000   1.0000
     1.0000   1.0000   1.0000   1.0000   1.0000   1.0000

[...]

          k =-0.5000-0.2887 0.0000 (  5994 PWs)   bands (ev):

[...]

          k =-0.3333 0.3849-0.5736 (  5995 PWs)   bands (ev):

[...]

          k = 1.3333-0.3849-0.5736 (  6007 PWs)   bands (ev):

   -10.6538 -10.4835 -10.4760 -10.3839 -10.3707 -10.3250   0.8462   0.8653
     0.9613   0.9735   1.0587   1.1673   1.3152   1.3781   1.3975   1.4067
     1.5211   1.5343   1.5415   1.5790   1.6506   1.6854   1.7655   1.8018
     2.2176   2.2526   2.2536   2.2950   2.3127   2.3501   2.3578   2.4111
     2.4118   2.4914   2.5072   2.6380   2.9364   3.1636   3.2193   3.4673
     3.6133   4.0748   4.1806   4.5952   4.6974   4.7106   4.9338   5.0163
     5.3383   5.4152   5.4217   5.5807   5.6935   5.8370

     occupation numbers
     1.0000   1.0000   1.0000   1.0000   1.0000   1.0000   1.0000   1.0000
     1.0000   1.0000   1.0000   1.0000   1.0000   1.0000   1.0000   1.0000
     1.0000   1.0000   1.0000   1.0000   1.0000   1.0000   1.0000   1.0000
     1.0000   1.0000   1.0000   1.0000   1.0000   1.0000   1.0000   1.0000
     1.0000   1.0000   1.0000   1.0000   1.0000   1.0000   1.0000   1.0000
     1.0000   1.0000   1.0000   1.0000   1.0000   1.0000   1.0000   1.0000
     1.0000   1.0000   1.0000   1.0000   1.0000   1.0000

     highest occupied level (ev):     6.7309

!    total energy              =   -1084.88602364 Ry
     estimated scf accuracy    <          4.5E-09 Ry

     The total energy is the sum of the following terms:
     one-electron contribution =    -470.34897700 Ry
     hartree contribution      =     357.38839360 Ry
     xc contribution           =    -328.55149610 Ry
     ewald contribution        =    -643.37394413 Ry

     convergence has been achieved in  45 iterations

     Forces acting on atoms (cartesian axes, Ry/au):

     atom    1 type  1   force =    -0.00000156   -0.00000090    0.01504882
     atom    2 type  1   force =    -0.00000519   -0.00000299    0.01505933
     atom    3 type  2   force =    -0.00000643   -0.00000371   -0.01505053
     atom    4 type  2   force =     0.00000188    0.00000109   -0.01504823
     atom    5 type  1   force =     0.00000110    0.00000063    0.01506367
     atom    6 type  1   force =     0.00001581    0.00000913    0.01503738
     atom    7 type  2   force =     0.00000071    0.00000041   -0.01504705
     atom    8 type  2   force =     0.00000632    0.00000365   -0.01504947
     atom    9 type  1   force =     0.00000131    0.00000076    0.01504240
     atom   10 type  1   force =    -0.00001288   -0.00000744    0.01504112
     atom   11 type  2   force =    -0.00000397   -0.00000229   -0.01504921
     atom   12 type  2   force =     0.00000290    0.00000167   -0.01504824
     The non-local contrib.  to forces
     atom    1 type  1   force =    -0.00000913   -0.00000527    0.20626117
     atom    2 type  1   force =     0.00001024    0.00000591    0.20626853
     atom    3 type  2   force =    -0.00021509   -0.00012418    0.19745593
     atom    4 type  2   force =     0.00020489    0.00011830    0.19745749
     atom    5 type  1   force =    -0.00000745   -0.00000430    0.20627047
     atom    6 type  1   force =     0.00001075    0.00000621    0.20624505
     atom    7 type  2   force =    -0.00020361   -0.00011756    0.19745951
     atom    8 type  2   force =     0.00020899    0.00012066    0.19745670
     atom    9 type  1   force =    -0.00000425   -0.00000245    0.20625139
     atom   10 type  1   force =    -0.00000037   -0.00000021    0.20625770
     atom   11 type  2   force =    -0.00020412   -0.00011785    0.19745572
     atom   12 type  2   force =     0.00020601    0.00011894    0.19745709
     The ionic contribution  to forces
     atom    1 type  1   force =     0.00000001    0.00000001    1.63795039
     atom    2 type  1   force =     0.00000001    0.00000000    1.63795039
     atom    3 type  2   force =     0.00000000    0.00000000   -1.63795039
     atom    4 type  2   force =     0.00000000    0.00000000   -1.63795039
     atom    5 type  1   force =    -0.00000001    0.00000000    1.63795038
     atom    6 type  1   force =     0.00000001   -0.00000000    1.63795038
     atom    7 type  2   force =    -0.00000001    0.00000000   -1.63795038
     atom    8 type  2   force =     0.00000001   -0.00000000   -1.63795038
     atom    9 type  1   force =    -0.00000001   -0.00000000    1.63795039
     atom   10 type  1   force =    -0.00000001   -0.00000001    1.63795039
     atom   11 type  2   force =    -0.00000000   -0.00000000   -1.63795039
     atom   12 type  2   force =    -0.00000000   -0.00000000   -1.63795039
     The local contribution  to forces
     atom    1 type  1   force =     0.00002325    0.00001342   -1.81462897
     atom    2 type  1   force =    -0.00001824   -0.00001058   -1.81465017
     atom    3 type  2   force =     0.00019964    0.00011526    1.42705017
     atom    4 type  2   force =    -0.00019279   -0.00011132    1.42705214
     atom    5 type  1   force =     0.00002372    0.00001379   -1.81465589
     atom    6 type  1   force =    -0.00003953   -0.00002292   -1.81460768
     atom    7 type  2   force =     0.00019531    0.00011279    1.42705512
     atom    8 type  2   force =    -0.00020856   -0.00012044    1.42704697
     atom    9 type  1   force =     0.00001536    0.00000892   -1.81462150
     atom   10 type  1   force =    -0.00000102   -0.00000059   -1.81462205
     atom   11 type  2   force =     0.00021070    0.00012166    1.42704826
     atom   12 type  2   force =    -0.00020286   -0.00011712    1.42705513
     The core correction contribution to forces
     atom    1 type  1   force =    -0.00000900   -0.00000520   -0.01453029
     atom    2 type  1   force =     0.00000885    0.00000510   -0.01452995
     atom    3 type  2   force =     0.00000245    0.00000141   -0.00161955
     atom    4 type  2   force =    -0.00000230   -0.00000133   -0.00161956
     atom    5 type  1   force =    -0.00000905   -0.00000521   -0.01452952
     atom    6 type  1   force =     0.00000963    0.00000555   -0.01453011
     atom    7 type  2   force =     0.00000230    0.00000133   -0.00161958
     atom    8 type  2   force =    -0.00000240   -0.00000138   -0.00161955
     atom    9 type  1   force =    -0.00000877   -0.00000506   -0.01452975
     atom   10 type  1   force =     0.00000841    0.00000485   -0.01453022
     atom   11 type  2   force =     0.00000233    0.00000135   -0.00161954
     atom   12 type  2   force =    -0.00000235   -0.00000136   -0.00161954
     The Hubbard contrib.    to forces
     atom    1 type  1   force =     0.00000000    0.00000000    0.00000000
     atom    2 type  1   force =     0.00000000    0.00000000    0.00000000
     atom    3 type  2   force =     0.00000000    0.00000000    0.00000000
     atom    4 type  2   force =     0.00000000    0.00000000    0.00000000
     atom    5 type  1   force =     0.00000000    0.00000000    0.00000000
     atom    6 type  1   force =     0.00000000    0.00000000    0.00000000
     atom    7 type  2   force =     0.00000000    0.00000000    0.00000000
     atom    8 type  2   force =     0.00000000    0.00000000    0.00000000
     atom    9 type  1   force =     0.00000000    0.00000000    0.00000000
     atom   10 type  1   force =     0.00000000    0.00000000    0.00000000
     atom   11 type  2   force =     0.00000000    0.00000000    0.00000000
     atom   12 type  2   force =     0.00000000    0.00000000    0.00000000
     The SCF correction term to forces
     atom    1 type  1   force =    -0.00000726   -0.00000419   -0.00000638
     atom    2 type  1   force =    -0.00000661   -0.00000381    0.00001763
     atom    3 type  2   force =     0.00000598    0.00000345    0.00001039
     atom    4 type  2   force =    -0.00000851   -0.00000491    0.00000918
     atom    5 type  1   force =    -0.00000674   -0.00000389    0.00002532
     atom    6 type  1   force =     0.00003441    0.00001987   -0.00002317
     atom    7 type  2   force =     0.00000611    0.00000353    0.00000539
     atom    8 type  2   force =     0.00000770    0.00000445    0.00001389
     atom    9 type  1   force =    -0.00000163   -0.00000094   -0.00001104
     atom   10 type  1   force =    -0.00002048   -0.00001183   -0.00001761
     atom   11 type  2   force =    -0.00001347   -0.00000778    0.00001383
     atom   12 type  2   force =     0.00000152    0.00000088    0.00000656

     Total force =     0.052131     Total SCF correction =     0.000074

     General routines

     Parallel routines

   This run was terminated on:  18:41:35  27Aug2025

   JOB DONE.