     Program PWSCF v.7.0 starts on 27Aug2025 at 22:53: 5

     K-points division:     npool     =      17

     Reading input from /home/jvc/QEspresso7.2/ZnO_database/scripts/cell311.in/ZnO-3.34-1.78-311.in
Warning: card &CELL ignored
Warning: card / ignored
Warning: card &FCP ignored
Warning: card / ignored
Warning: card &RISM ignored
Warning: card / ignored

     Current dimensions of program PWSCF are:
     Max number of different atomic species (ntypx) = 10
     Max number of k-points (npk) =  40000
     Max angular momentum in pseudopotentials (lmaxx) =  4
     file Zn.upf: wavefunction(s)  3D renormalized
     Found identity + (  0.3333  0.0000  0.0000) symmetry
     This is a supercell, fractional translations are disabled
     Message from routine setup:
     using ibrav=0 with symmetry is DISCOURAGED, use correct ibrav instead

     Subspace diagonalization in iterative solution of the eigenvalue problem:
     a serial algorithm will be used

     Using Slab Decomposition

     bravais-lattice index     =            0
     lattice parameter (alat)  =      18.9073  a.u.
     unit-cell volume          =    1154.9650 (a.u.)^3
     number of atoms/cell      =           12
     number of atomic types    =            2
     number of electrons       =       108.00
     number of Kohn-Sham states=           54
     kinetic-energy cutoff     =      50.0000  Ry
     charge density cutoff     =     400.0000  Ry
     scf convergence threshold =      1.0E-08
     mixing beta               =       0.3000
     number of iterations used =            8  plain     mixing
     Exchange-correlation= PBE
                           (   1   4   3   4   0   0   0)

     celldm(1)=  18.907293  celldm(2)=   0.000000  celldm(3)=   0.000000
     celldm(4)=   0.000000  celldm(5)=   0.000000  celldm(6)=   0.000000

     crystal axes: (cart. coord. in units of alat)
               a(1) = (   1.000000   0.000000   0.000000 )
               a(2) = (  -0.166667   0.288675   0.000000 )
               a(3) = (   0.000000   0.000000   0.591931 )

     reciprocal axes: (cart. coord. in units 2 pi/alat)
               b(1) = (  1.000000  0.577350 -0.000000 )
               b(2) = (  0.000000  3.464102  0.000000 )
               b(3) = (  0.000000 -0.000000  1.689385 )

     PseudoPot. # 1 for Zn read from file:
     /home/jvc/QEspresso7.2/ZnO_database/pseudos/Zn.upf
     MD5 check sum: 7f56cabf9682ed8c977c2f7d0c5985c5
     Pseudo is Ultrasoft + core correction, Zval = 12.0
     Generated using &quot;atomic&quot; code by A. Dal Corso  v.6.2.2
     Using radial grid of 1201 points,  6 beta functions with:
                l(1) =   0
                l(2) =   0
                l(3) =   1
                l(4) =   1
                l(5) =   2
                l(6) =   2
     Q(r) pseudized with 0 coefficients

     PseudoPot. # 2 for O  read from file:
     /home/jvc/QEspresso7.2/ZnO_database/pseudos/O.upf
     MD5 check sum: 91400c9766925bcf19f520983a725ff0
     Pseudo is Ultrasoft + core correction, Zval =  6.0
     Generated using &quot;atomic&quot; code by A. Dal Corso  v.6.3MaX
     Using radial grid of 1095 points,  4 beta functions with:
                l(1) =   0
                l(2) =   0
                l(3) =   1
                l(4) =   1
     Q(r) pseudized with 0 coefficients

     atomic species   valence    mass     pseudopotential
        Zn            12.00    65.38000     Zn( 1.00)
        O              6.00    15.99900     O ( 1.00)

      2 Sym. Ops. (no inversion) found

                                    s                        frac. trans.

      isym =  1     identity

 cryst.   s( 1) = (     1          0          0      )
                  (     0          1          0      )
                  (     0          0          1      )

 cart.    s( 1) = (  1.0000000  0.0000000  0.0000000 )
                  (  0.0000000  1.0000000  0.0000000 )
                  (  0.0000000  0.0000000  1.0000000 )

      isym =  2     inv. 180 deg rotation - cryst. axis [0,1,0]

 cryst.   s( 2) = (     1          3          0      )
                  (     0         -1          0      )
                  (     0          0          1      )

 cart.    s( 2) = (  0.5000000  0.8660254  0.0000000 )
                  (  0.8660254 -0.5000000  0.0000000 )
                  (  0.0000000  0.0000000  1.0000000 )

   Cartesian axes

     site n.     atom                  positions (alat units)
         1           Zn  tau(   1) = (   0.1666667   0.0962250   0.2963407  )
         2           Zn  tau(   2) = (  -0.0000000   0.1924501   0.0003750  )
         3           O   tau(   3) = (   0.1666667   0.0962250   0.5207081  )
         4           O   tau(   4) = (  -0.0000000   0.1924501   0.2247424  )
         5           Zn  tau(   5) = (   0.5000000   0.0962250   0.2963407  )
         6           Zn  tau(   6) = (   0.3333333   0.1924501   0.0003750  )
         7           O   tau(   7) = (   0.5000000   0.0962250   0.5207081  )
         8           O   tau(   8) = (   0.3333333   0.1924501   0.2247424  )
         9           Zn  tau(   9) = (   0.8333333   0.0962250   0.2963407  )
        10           Zn  tau(  10) = (   0.6666667   0.1924501   0.0003750  )
        11           O   tau(  11) = (   0.8333333   0.0962250   0.5207081  )
        12           O   tau(  12) = (   0.6666667   0.1924501   0.2247424  )

   Crystallographic axes

     site n.     atom                  positions (cryst. coord.)
         1           Zn  tau(   1) = (  0.2222222  0.3333333  0.5006336  )
         2           Zn  tau(   2) = (  0.1111111  0.6666667  0.0006336  )
         3           O   tau(   3) = (  0.2222222  0.3333333  0.8796764  )
         4           O   tau(   4) = (  0.1111111  0.6666667  0.3796764  )
         5           Zn  tau(   5) = (  0.5555556  0.3333333  0.5006336  )
         6           Zn  tau(   6) = (  0.4444444  0.6666667  0.0006336  )
         7           O   tau(   7) = (  0.5555556  0.3333333  0.8796764  )
         8           O   tau(   8) = (  0.4444444  0.6666667  0.3796764  )
         9           Zn  tau(   9) = (  0.8888889  0.3333333  0.5006336  )
        10           Zn  tau(  10) = (  0.7777778  0.6666667  0.0006336  )
        11           O   tau(  11) = (  0.8888889  0.3333333  0.8796764  )
        12           O   tau(  12) = (  0.7777778  0.6666667  0.3796764  )

     number of k points=    68
                       cart. coord. in units 2pi/alat
        k(    1) = (   0.0000000   0.0000000   0.0000000), wk =   0.0092593
        k(    2) = (   0.0000000   0.0000000   0.2815642), wk =   0.0185185
        k(    3) = (   0.0000000   0.0000000   0.5631283), wk =   0.0185185
        k(    4) = (   0.0000000   0.0000000  -0.8446925), wk =   0.0092593
        k(    5) = (   0.0000000   0.5773503   0.0000000), wk =   0.0370370
        k(    6) = (   0.0000000   0.5773503   0.2815642), wk =   0.0370370
        k(    7) = (   0.0000000   0.5773503   0.5631283), wk =   0.0370370
        k(    8) = (   0.0000000   0.5773503  -0.8446925), wk =   0.0370370
        k(    9) = (   0.0000000   1.1547005   0.0000000), wk =   0.0185185
        k(   10) = (   0.0000000   1.1547005   0.2815642), wk =   0.0370370
        k(   11) = (   0.0000000   1.1547005   0.5631283), wk =   0.0370370
        k(   12) = (   0.0000000   1.1547005  -0.8446925), wk =   0.0185185
        k(   13) = (   0.0000000  -1.7320508   0.0000000), wk =   0.0185185
        k(   14) = (   0.0000000  -1.7320508   0.2815642), wk =   0.0370370
        k(   15) = (   0.0000000  -1.7320508   0.5631283), wk =   0.0370370
        k(   16) = (   0.0000000  -1.7320508  -0.8446925), wk =   0.0185185
        k(   17) = (   0.1666667   0.0962250   0.0000000), wk =   0.0185185
        k(   18) = (   0.1666667   0.0962250   0.2815642), wk =   0.0185185
        k(   19) = (   0.1666667   0.0962250   0.5631283), wk =   0.0185185
        k(   20) = (   0.1666667   0.0962250  -0.8446925), wk =   0.0185185
        k(   21) = (   0.1666667   0.6735753   0.0000000), wk =   0.0370370
        k(   22) = (   0.1666667   0.6735753   0.2815642), wk =   0.0370370
        k(   23) = (   0.1666667   0.6735753   0.5631283), wk =   0.0370370
        k(   24) = (   0.1666667   0.6735753  -0.8446925), wk =   0.0370370
        k(   25) = (   0.1666667   1.2509256   0.0000000), wk =   0.0370370
        k(   26) = (   0.1666667   1.2509256   0.2815642), wk =   0.0370370
        k(   27) = (   0.1666667   1.2509256   0.5631283), wk =   0.0370370
        k(   28) = (   0.1666667   1.2509256  -0.8446925), wk =   0.0370370
        k(   29) = (   0.1666667  -1.6358258   0.0000000), wk =   0.0370370
        k(   30) = (   0.1666667  -1.6358258   0.2815642), wk =   0.0370370
        k(   31) = (   0.1666667  -1.6358258   0.5631283), wk =   0.0370370
        k(   32) = (   0.1666667  -1.6358258  -0.8446925), wk =   0.0370370
        k(   33) = (   0.1666667  -0.4811252   0.0000000), wk =   0.0370370
        k(   34) = (   0.1666667  -0.4811252   0.2815642), wk =   0.0370370
        k(   35) = (   0.1666667  -0.4811252   0.5631283), wk =   0.0370370
        k(   36) = (   0.1666667  -0.4811252  -0.8446925), wk =   0.0370370
        k(   37) = (   0.3333333   0.1924501   0.0000000), wk =   0.0185185
        k(   38) = (   0.3333333   0.1924501   0.2815642), wk =   0.0185185
        k(   39) = (   0.3333333   0.1924501   0.5631283), wk =   0.0185185
        k(   40) = (   0.3333333   0.1924501  -0.8446925), wk =   0.0185185
        k(   41) = (   0.3333333   1.3471506   0.0000000), wk =   0.0370370
        k(   42) = (   0.3333333   1.3471506   0.2815642), wk =   0.0370370
        k(   43) = (   0.3333333   1.3471506   0.5631283), wk =   0.0370370
        k(   44) = (   0.3333333   1.3471506  -0.8446925), wk =   0.0370370
        k(   45) = (  -0.5000000  -0.2886751   0.0000000), wk =   0.0092593
        k(   46) = (  -0.5000000  -0.2886751   0.2815642), wk =   0.0185185
        k(   47) = (  -0.5000000  -0.2886751   0.5631283), wk =   0.0185185
        k(   48) = (  -0.5000000  -0.2886751  -0.8446925), wk =   0.0092593
        k(   49) = (  -0.5000000   0.8660254   0.0000000), wk =   0.0185185
        k(   50) = (  -0.5000000   0.8660254   0.2815642), wk =   0.0370370
        k(   51) = (  -0.5000000   0.8660254   0.5631283), wk =   0.0370370
        k(   52) = (  -0.5000000   0.8660254  -0.8446925), wk =   0.0185185
        k(   53) = (   0.5000000  -0.2886751  -0.2815642), wk =   0.0370370
        k(   54) = (   0.5000000  -0.2886751  -0.5631283), wk =   0.0370370
        k(   55) = (   0.1666667   0.0962250  -0.2815642), wk =   0.0185185
        k(   56) = (   0.1666667   0.0962250  -0.5631283), wk =   0.0185185
        k(   57) = (   0.6666667  -0.1924501  -0.2815642), wk =   0.0370370
        k(   58) = (   0.6666667  -0.1924501  -0.5631283), wk =   0.0370370
        k(   59) = (   1.1666667  -0.4811252  -0.2815642), wk =   0.0370370
        k(   60) = (   1.1666667  -0.4811252  -0.5631283), wk =   0.0370370
        k(   61) = (  -1.3333333   0.9622504  -0.2815642), wk =   0.0370370
        k(   62) = (  -1.3333333   0.9622504  -0.5631283), wk =   0.0370370
        k(   63) = (  -0.3333333   0.3849002  -0.2815642), wk =   0.0370370
        k(   64) = (  -0.3333333   0.3849002  -0.5631283), wk =   0.0370370
        k(   65) = (   0.3333333   0.1924501  -0.2815642), wk =   0.0185185
        k(   66) = (   0.3333333   0.1924501  -0.5631283), wk =   0.0185185
        k(   67) = (   1.3333333  -0.3849002  -0.2815642), wk =   0.0370370
        k(   68) = (   1.3333333  -0.3849002  -0.5631283), wk =   0.0370370

                       cryst. coord.
        k(    1) = (   0.0000000   0.0000000   0.0000000), wk =   0.0092593
        k(    2) = (   0.0000000   0.0000000   0.1666667), wk =   0.0185185
        k(    3) = (   0.0000000   0.0000000   0.3333333), wk =   0.0185185
        k(    4) = (   0.0000000   0.0000000  -0.5000000), wk =   0.0092593
        k(    5) = (   0.0000000   0.1666667   0.0000000), wk =   0.0370370
        k(    6) = (   0.0000000   0.1666667   0.1666667), wk =   0.0370370
        k(    7) = (   0.0000000   0.1666667   0.3333333), wk =   0.0370370
        k(    8) = (   0.0000000   0.1666667  -0.5000000), wk =   0.0370370
        k(    9) = (   0.0000000   0.3333333   0.0000000), wk =   0.0185185
        k(   10) = (   0.0000000   0.3333333   0.1666667), wk =   0.0370370
        k(   11) = (   0.0000000   0.3333333   0.3333333), wk =   0.0370370
        k(   12) = (   0.0000000   0.3333333  -0.5000000), wk =   0.0185185
        k(   13) = (   0.0000000  -0.5000000   0.0000000), wk =   0.0185185
        k(   14) = (   0.0000000  -0.5000000   0.1666667), wk =   0.0370370
        k(   15) = (   0.0000000  -0.5000000   0.3333333), wk =   0.0370370
        k(   16) = (   0.0000000  -0.5000000  -0.5000000), wk =   0.0185185
        k(   17) = (   0.1666667  -0.0000000   0.0000000), wk =   0.0185185
        k(   18) = (   0.1666667  -0.0000000   0.1666667), wk =   0.0185185
        k(   19) = (   0.1666667  -0.0000000   0.3333333), wk =   0.0185185
        k(   20) = (   0.1666667  -0.0000000  -0.5000000), wk =   0.0185185
        k(   21) = (   0.1666667   0.1666667   0.0000000), wk =   0.0370370
        k(   22) = (   0.1666667   0.1666667   0.1666667), wk =   0.0370370
        k(   23) = (   0.1666667   0.1666667   0.3333333), wk =   0.0370370
        k(   24) = (   0.1666667   0.1666667  -0.5000000), wk =   0.0370370
        k(   25) = (   0.1666667   0.3333333   0.0000000), wk =   0.0370370
        k(   26) = (   0.1666667   0.3333333   0.1666667), wk =   0.0370370
        k(   27) = (   0.1666667   0.3333333   0.3333333), wk =   0.0370370
        k(   28) = (   0.1666667   0.3333333  -0.5000000), wk =   0.0370370
        k(   29) = (   0.1666667  -0.5000000   0.0000000), wk =   0.0370370
        k(   30) = (   0.1666667  -0.5000000   0.1666667), wk =   0.0370370
        k(   31) = (   0.1666667  -0.5000000   0.3333333), wk =   0.0370370
        k(   32) = (   0.1666667  -0.5000000  -0.5000000), wk =   0.0370370
        k(   33) = (   0.1666667  -0.1666667   0.0000000), wk =   0.0370370
        k(   34) = (   0.1666667  -0.1666667   0.1666667), wk =   0.0370370
        k(   35) = (   0.1666667  -0.1666667   0.3333333), wk =   0.0370370
        k(   36) = (   0.1666667  -0.1666667  -0.5000000), wk =   0.0370370
        k(   37) = (   0.3333333  -0.0000000   0.0000000), wk =   0.0185185
        k(   38) = (   0.3333333  -0.0000000   0.1666667), wk =   0.0185185
        k(   39) = (   0.3333333  -0.0000000   0.3333333), wk =   0.0185185
        k(   40) = (   0.3333333  -0.0000000  -0.5000000), wk =   0.0185185
        k(   41) = (   0.3333333   0.3333333   0.0000000), wk =   0.0370370
        k(   42) = (   0.3333333   0.3333333   0.1666667), wk =   0.0370370
        k(   43) = (   0.3333333   0.3333333   0.3333333), wk =   0.0370370
        k(   44) = (   0.3333333   0.3333333  -0.5000000), wk =   0.0370370
        k(   45) = (  -0.5000000   0.0000000   0.0000000), wk =   0.0092593
        k(   46) = (  -0.5000000   0.0000000   0.1666667), wk =   0.0185185
        k(   47) = (  -0.5000000   0.0000000   0.3333333), wk =   0.0185185
        k(   48) = (  -0.5000000   0.0000000  -0.5000000), wk =   0.0092593
        k(   49) = (  -0.5000000   0.3333333   0.0000000), wk =   0.0185185
        k(   50) = (  -0.5000000   0.3333333   0.1666667), wk =   0.0370370
        k(   51) = (  -0.5000000   0.3333333   0.3333333), wk =   0.0370370
        k(   52) = (  -0.5000000   0.3333333  -0.5000000), wk =   0.0185185
        k(   53) = (   0.5000000  -0.1666667  -0.1666667), wk =   0.0370370
        k(   54) = (   0.5000000  -0.1666667  -0.3333333), wk =   0.0370370
        k(   55) = (   0.1666667   0.0000000  -0.1666667), wk =   0.0185185
        k(   56) = (   0.1666667   0.0000000  -0.3333333), wk =   0.0185185
        k(   57) = (   0.6666667  -0.1666667  -0.1666667), wk =   0.0370370
        k(   58) = (   0.6666667  -0.1666667  -0.3333333), wk =   0.0370370
        k(   59) = (   1.1666667  -0.3333333  -0.1666667), wk =   0.0370370
        k(   60) = (   1.1666667  -0.3333333  -0.3333333), wk =   0.0370370
        k(   61) = (  -1.3333333   0.5000000  -0.1666667), wk =   0.0370370
        k(   62) = (  -1.3333333   0.5000000  -0.3333333), wk =   0.0370370
        k(   63) = (  -0.3333333   0.1666667  -0.1666667), wk =   0.0370370
        k(   64) = (  -0.3333333   0.1666667  -0.3333333), wk =   0.0370370
        k(   65) = (   0.3333333   0.0000000  -0.1666667), wk =   0.0185185
        k(   66) = (   0.3333333   0.0000000  -0.3333333), wk =   0.0185185
        k(   67) = (   1.3333333  -0.3333333  -0.1666667), wk =   0.0370370
        k(   68) = (   1.3333333  -0.3333333  -0.3333333), wk =   0.0370370

     Check: negative core charge=   -0.000002

     Initial potential from superposition of free atoms

     starting charge     107.9776, renormalised to     108.0000
     Starting wfcs are   78 randomized atomic wfcs

     Self-consistent Calculation

     iteration #  1     ecut=    50.00 Ry     beta= 0.30
     Davidson diagonalization with overlap

     ethr =  1.00E-02,  avg # of iterations =  1.7

     total energy              =   -1084.25679853 Ry
     estimated scf accuracy    <       2.31296917 Ry

[...]

     c_bands:  1 eigenvalues not converged
     ethr =  2.01E-08,  avg # of iterations = 11.5

[...]

     c_bands:  1 eigenvalues not converged
     ethr =  1.86E-10,  avg # of iterations = 11.8

[...]

     total energy              =   -1084.80514512 Ry
     estimated scf accuracy    <       0.00000002 Ry

     iteration # 31     ecut=    50.00 Ry     beta= 0.30
     Davidson diagonalization with overlap

     ethr =  1.59E-11,  avg # of iterations =  5.2

     End of self-consistent calculation

          k = 0.0000 0.0000 0.0000 (  6903 PWs)   bands (ev):

   -12.0352 -11.6827 -11.6826 -11.6604 -11.4714 -11.4713  -0.3784  -0.3784
    -0.2713  -0.2710  -0.2132  -0.1783  -0.1783  -0.1706  -0.1704  -0.0888
    -0.0887   0.0989   0.1287   0.1287   0.1362   0.1362   0.3338   0.3339
     0.4433   0.4433   0.5111   0.5112   0.5621   0.5621   0.6059   0.6059
     0.6284   0.6284   0.7772   0.7772   1.0811   1.5410   1.5410   2.0853
     2.0854   2.7740   2.7740   3.6630   3.6631   4.1673   4.1674   4.3627
     4.3627   4.4732   4.4739   4.5987   4.9039   4.9047

     occupation numbers
     1.0000   1.0000   1.0000   1.0000   1.0000   1.0000   1.0000   1.0000
     1.0000   1.0000   1.0000   1.0000   1.0000   1.0000   1.0000   1.0000
     1.0000   1.0000   1.0000   1.0000   1.0000   1.0000   1.0000   1.0000
     1.0000   1.0000   1.0000   1.0000   1.0000   1.0000   1.0000   1.0000
     1.0000   1.0000   1.0000   1.0000   1.0000   1.0000   1.0000   1.0000
     1.0000   1.0000   1.0000   1.0000   1.0000   1.0000   1.0000   1.0000
     1.0000   1.0000   1.0000   1.0000   1.0000   1.0000

[...]

          k =-0.5000-0.2887 0.0000 (  6864 PWs)   bands (ev):

[...]

          k =-0.3333 0.3849-0.5631 (  6875 PWs)   bands (ev):

[...]

          k = 1.3333-0.3849-0.5631 (  6895 PWs)   bands (ev):

   -11.6791 -11.5576 -11.5521 -11.4784 -11.4750 -11.4381  -0.3457  -0.3112
    -0.2558  -0.2233  -0.2033  -0.0858  -0.0788  -0.0291  -0.0136   0.0275
     0.0713   0.1165   0.1202   0.1360   0.2047   0.2226   0.2656   0.3043
     0.5052   0.5362   0.5402   0.5619   0.5797   0.6022   0.6030   0.6447
     0.6472   0.7079   0.7330   0.8094   1.4499   1.5968   1.6431   1.8506
     1.9838   2.4702   2.6868   3.1043   3.1821   3.2037   3.4488   3.4699
     3.7750   3.8049   3.8227   3.9508   4.0276   4.1607

     occupation numbers
     1.0000   1.0000   1.0000   1.0000   1.0000   1.0000   1.0000   1.0000
     1.0000   1.0000   1.0000   1.0000   1.0000   1.0000   1.0000   1.0000
     1.0000   1.0000   1.0000   1.0000   1.0000   1.0000   1.0000   1.0000
     1.0000   1.0000   1.0000   1.0000   1.0000   1.0000   1.0000   1.0000
     1.0000   1.0000   1.0000   1.0000   1.0000   1.0000   1.0000   1.0000
     1.0000   1.0000   1.0000   1.0000   1.0000   1.0000   1.0000   1.0000
     1.0000   1.0000   1.0000   1.0000   1.0000   1.0000

     highest occupied level (ev):     4.9047

!    total energy              =   -1084.80514512 Ry
     estimated scf accuracy    <          3.0E-09 Ry

     The total energy is the sum of the following terms:
     one-electron contribution =    -517.71235912 Ry
     hartree contribution      =     374.63103806 Ry
     xc contribution           =    -327.78797280 Ry
     ewald contribution        =    -613.93585126 Ry

     convergence has been achieved in  31 iterations

     Forces acting on atoms (cartesian axes, Ry/au):

     atom    1 type  1   force =    -0.00001899   -0.00001096   -0.00153461
     atom    2 type  1   force =     0.00000203    0.00000117   -0.00156236
     atom    3 type  2   force =    -0.00000787   -0.00000454    0.00155052
     atom    4 type  2   force =     0.00000924    0.00000533    0.00154977
     atom    5 type  1   force =     0.00000747    0.00000431   -0.00154279
     atom    6 type  1   force =    -0.00000281   -0.00000163   -0.00156084
     atom    7 type  2   force =    -0.00000938   -0.00000541    0.00155065
     atom    8 type  2   force =     0.00000845    0.00000488    0.00154932
     atom    9 type  1   force =    -0.00000167   -0.00000097   -0.00155104
     atom   10 type  1   force =     0.00001362    0.00000787   -0.00154893
     atom   11 type  2   force =    -0.00000806   -0.00000465    0.00155066
     atom   12 type  2   force =     0.00000796    0.00000460    0.00154964
     The non-local contrib.  to forces
     atom    1 type  1   force =     0.00000925    0.00000534    0.23567583
     atom    2 type  1   force =    -0.00001945   -0.00001123    0.23566257
     atom    3 type  2   force =    -0.00021988   -0.00012695    0.25230138
     atom    4 type  2   force =     0.00022499    0.00012990    0.25230225
     atom    5 type  1   force =     0.00001918    0.00001107    0.23567394
     atom    6 type  1   force =    -0.00001739   -0.00001004    0.23566533
     atom    7 type  2   force =    -0.00022282   -0.00012865    0.25229953
     atom    8 type  2   force =     0.00022250    0.00012846    0.25230057
     atom    9 type  1   force =     0.00001973    0.00001139    0.23566885
     atom   10 type  1   force =    -0.00001199   -0.00000692    0.23566893
     atom   11 type  2   force =    -0.00022461   -0.00012968    0.25230384
     atom   12 type  2   force =     0.00021835    0.00012606    0.25230223
     The ionic contribution  to forces
     atom    1 type  1   force =     0.00000001    0.00000001    1.83888419
     atom    2 type  1   force =     0.00000001    0.00000000    1.83888419
     atom    3 type  2   force =     0.00000000    0.00000000   -1.83888419
     atom    4 type  2   force =     0.00000000    0.00000000   -1.83888419
     atom    5 type  1   force =    -0.00000001    0.00000000    1.83888419
     atom    6 type  1   force =     0.00000001   -0.00000000    1.83888419
     atom    7 type  2   force =    -0.00000001    0.00000000   -1.83888419
     atom    8 type  2   force =     0.00000001   -0.00000000   -1.83888419
     atom    9 type  1   force =    -0.00000001   -0.00000000    1.83888419
     atom   10 type  1   force =    -0.00000001   -0.00000001    1.83888419
     atom   11 type  2   force =    -0.00000000   -0.00000000   -1.83888419
     atom   12 type  2   force =    -0.00000000   -0.00000000   -1.83888419
     The local contribution  to forces
     atom    1 type  1   force =     0.00001193    0.00000689   -2.06135056
     atom    2 type  1   force =     0.00001445    0.00000829   -2.06130885
     atom    3 type  2   force =     0.00021629    0.00012487    1.59037470
     atom    4 type  2   force =    -0.00020467   -0.00011818    1.59036231
     atom    5 type  1   force =    -0.00002823   -0.00001620   -2.06134144
     atom    6 type  1   force =     0.00002067    0.00001183   -2.06131161
     atom    7 type  2   force =     0.00021296    0.00012298    1.59037248
     atom    8 type  2   force =    -0.00021212   -0.00012249    1.59036635
     atom    9 type  1   force =    -0.00001532   -0.00000879   -2.06132691
     atom   10 type  1   force =    -0.00000246   -0.00000142   -2.06132878
     atom   11 type  2   force =     0.00020559    0.00011871    1.59036756
     atom   12 type  2   force =    -0.00021575   -0.00012456    1.59036577
     The core correction contribution to forces
     atom    1 type  1   force =    -0.00001079   -0.00000623   -0.01477329
     atom    2 type  1   force =     0.00001068    0.00000612   -0.01477377
     atom    3 type  2   force =     0.00000248    0.00000143   -0.00223343
     atom    4 type  2   force =    -0.00000254   -0.00000147   -0.00223347
     atom    5 type  1   force =    -0.00000996   -0.00000575   -0.01477351
     atom    6 type  1   force =     0.00001015    0.00000586   -0.01477399
     atom    7 type  2   force =     0.00000252    0.00000146   -0.00223343
     atom    8 type  2   force =    -0.00000250   -0.00000145   -0.00223345
     atom    9 type  1   force =    -0.00001068   -0.00000612   -0.01477356
     atom   10 type  1   force =     0.00001064    0.00000615   -0.01477355
     atom   11 type  2   force =     0.00000253    0.00000147   -0.00223348
     atom   12 type  2   force =    -0.00000246   -0.00000142   -0.00223346
     The Hubbard contrib.    to forces
     atom    1 type  1   force =     0.00000000    0.00000000    0.00000000
     atom    2 type  1   force =     0.00000000    0.00000000    0.00000000
     atom    3 type  2   force =     0.00000000    0.00000000    0.00000000
     atom    4 type  2   force =     0.00000000    0.00000000    0.00000000
     atom    5 type  1   force =     0.00000000    0.00000000    0.00000000
     atom    6 type  1   force =     0.00000000    0.00000000    0.00000000
     atom    7 type  2   force =     0.00000000    0.00000000    0.00000000
     atom    8 type  2   force =     0.00000000    0.00000000    0.00000000
     atom    9 type  1   force =     0.00000000    0.00000000    0.00000000
     atom   10 type  1   force =     0.00000000    0.00000000    0.00000000
     atom   11 type  2   force =     0.00000000    0.00000000    0.00000000
     atom   12 type  2   force =     0.00000000    0.00000000    0.00000000
     The SCF correction term to forces
     atom    1 type  1   force =    -0.00002943   -0.00001699    0.00003068
     atom    2 type  1   force =    -0.00000367   -0.00000212   -0.00002503
     atom    3 type  2   force =    -0.00000679   -0.00000392   -0.00000647
     atom    4 type  2   force =    -0.00000857   -0.00000495    0.00000433
     atom    5 type  1   force =     0.00002640    0.00001524    0.00001549
     atom    6 type  1   force =    -0.00001624   -0.00000938   -0.00002329
     atom    7 type  2   force =    -0.00000208   -0.00000120   -0.00000228
     atom    8 type  2   force =     0.00000053    0.00000031    0.00000150
     atom    9 type  1   force =     0.00000451    0.00000260   -0.00000214
     atom   10 type  1   force =     0.00001740    0.00001004    0.00000174
     atom   11 type  2   force =     0.00000838    0.00000484   -0.00000160
     atom   12 type  2   force =     0.00000778    0.00000449    0.00000075

     Total force =     0.005370     Total SCF correction =     0.000075

     General routines

     Parallel routines

   This run was terminated on:  23: 3:52  27Aug2025

   JOB DONE.