     Program PWSCF v.7.0 starts on 27Aug2025 at 21:47:44

     K-points division:     npool     =      17

     Reading input from /home/jvc/QEspresso7.2/ZnO_database/scripts/cell311.in/ZnO-3.34-1.61-311.in
Warning: card &CELL ignored
Warning: card / ignored
Warning: card &FCP ignored
Warning: card / ignored
Warning: card &RISM ignored
Warning: card / ignored

     Current dimensions of program PWSCF are:
     Max number of different atomic species (ntypx) = 10
     Max number of k-points (npk) =  40000
     Max angular momentum in pseudopotentials (lmaxx) =  4
     file Zn.upf: wavefunction(s)  3D renormalized
     Found identity + (  0.3333  0.0000  0.0000) symmetry
     This is a supercell, fractional translations are disabled
     Message from routine setup:
     using ibrav=0 with symmetry is DISCOURAGED, use correct ibrav instead

     Subspace diagonalization in iterative solution of the eigenvalue problem:
     a serial algorithm will be used

     Using Slab Decomposition

     bravais-lattice index     =            0
     lattice parameter (alat)  =      18.9073  a.u.
     unit-cell volume          =    1049.9682 (a.u.)^3
     number of atoms/cell      =           12
     number of atomic types    =            2
     number of electrons       =       108.00
     number of Kohn-Sham states=           54
     kinetic-energy cutoff     =      50.0000  Ry
     charge density cutoff     =     400.0000  Ry
     scf convergence threshold =      1.0E-08
     mixing beta               =       0.3000
     number of iterations used =            8  plain     mixing
     Exchange-correlation= PBE
                           (   1   4   3   4   0   0   0)

     celldm(1)=  18.907293  celldm(2)=   0.000000  celldm(3)=   0.000000
     celldm(4)=   0.000000  celldm(5)=   0.000000  celldm(6)=   0.000000

     crystal axes: (cart. coord. in units of alat)
               a(1) = (   1.000000   0.000000   0.000000 )
               a(2) = (  -0.166667   0.288675   0.000000 )
               a(3) = (   0.000000   0.000000   0.538119 )

     reciprocal axes: (cart. coord. in units 2 pi/alat)
               b(1) = (  1.000000  0.577350 -0.000000 )
               b(2) = (  0.000000  3.464102  0.000000 )
               b(3) = (  0.000000 -0.000000  1.858323 )

     PseudoPot. # 1 for Zn read from file:
     /home/jvc/QEspresso7.2/ZnO_database/pseudos/Zn.upf
     MD5 check sum: 7f56cabf9682ed8c977c2f7d0c5985c5
     Pseudo is Ultrasoft + core correction, Zval = 12.0
     Generated using &quot;atomic&quot; code by A. Dal Corso  v.6.2.2
     Using radial grid of 1201 points,  6 beta functions with:
                l(1) =   0
                l(2) =   0
                l(3) =   1
                l(4) =   1
                l(5) =   2
                l(6) =   2
     Q(r) pseudized with 0 coefficients

     PseudoPot. # 2 for O  read from file:
     /home/jvc/QEspresso7.2/ZnO_database/pseudos/O.upf
     MD5 check sum: 91400c9766925bcf19f520983a725ff0
     Pseudo is Ultrasoft + core correction, Zval =  6.0
     Generated using &quot;atomic&quot; code by A. Dal Corso  v.6.3MaX
     Using radial grid of 1095 points,  4 beta functions with:
                l(1) =   0
                l(2) =   0
                l(3) =   1
                l(4) =   1
     Q(r) pseudized with 0 coefficients

     atomic species   valence    mass     pseudopotential
        Zn            12.00    65.38000     Zn( 1.00)
        O              6.00    15.99900     O ( 1.00)

      2 Sym. Ops. (no inversion) found

                                    s                        frac. trans.

      isym =  1     identity

 cryst.   s( 1) = (     1          0          0      )
                  (     0          1          0      )
                  (     0          0          1      )

 cart.    s( 1) = (  1.0000000  0.0000000  0.0000000 )
                  (  0.0000000  1.0000000  0.0000000 )
                  (  0.0000000  0.0000000  1.0000000 )

      isym =  2     inv. 180 deg rotation - cryst. axis [0,1,0]

 cryst.   s( 2) = (     1          3          0      )
                  (     0         -1          0      )
                  (     0          0          1      )

 cart.    s( 2) = (  0.5000000  0.8660254  0.0000000 )
                  (  0.8660254 -0.5000000  0.0000000 )
                  (  0.0000000  0.0000000  1.0000000 )

   Cartesian axes

     site n.     atom                  positions (alat units)
         1           Zn  tau(   1) = (   0.1666667   0.0962250   0.2694007  )
         2           Zn  tau(   2) = (  -0.0000000   0.1924501   0.0003409  )
         3           O   tau(   3) = (   0.1666667   0.0962250   0.4733710  )
         4           O   tau(   4) = (  -0.0000000   0.1924501   0.2043113  )
         5           Zn  tau(   5) = (   0.5000000   0.0962250   0.2694007  )
         6           Zn  tau(   6) = (   0.3333333   0.1924501   0.0003409  )
         7           O   tau(   7) = (   0.5000000   0.0962250   0.4733710  )
         8           O   tau(   8) = (   0.3333333   0.1924501   0.2043113  )
         9           Zn  tau(   9) = (   0.8333333   0.0962250   0.2694007  )
        10           Zn  tau(  10) = (   0.6666667   0.1924501   0.0003409  )
        11           O   tau(  11) = (   0.8333333   0.0962250   0.4733710  )
        12           O   tau(  12) = (   0.6666667   0.1924501   0.2043113  )

   Crystallographic axes

     site n.     atom                  positions (cryst. coord.)
         1           Zn  tau(   1) = (  0.2222222  0.3333333  0.5006336  )
         2           Zn  tau(   2) = (  0.1111111  0.6666667  0.0006336  )
         3           O   tau(   3) = (  0.2222222  0.3333333  0.8796764  )
         4           O   tau(   4) = (  0.1111111  0.6666667  0.3796764  )
         5           Zn  tau(   5) = (  0.5555556  0.3333333  0.5006336  )
         6           Zn  tau(   6) = (  0.4444444  0.6666667  0.0006336  )
         7           O   tau(   7) = (  0.5555556  0.3333333  0.8796764  )
         8           O   tau(   8) = (  0.4444444  0.6666667  0.3796764  )
         9           Zn  tau(   9) = (  0.8888889  0.3333333  0.5006336  )
        10           Zn  tau(  10) = (  0.7777778  0.6666667  0.0006336  )
        11           O   tau(  11) = (  0.8888889  0.3333333  0.8796764  )
        12           O   tau(  12) = (  0.7777778  0.6666667  0.3796764  )

     number of k points=    68
                       cart. coord. in units 2pi/alat
        k(    1) = (   0.0000000   0.0000000   0.0000000), wk =   0.0092593
        k(    2) = (   0.0000000   0.0000000   0.3097206), wk =   0.0185185
        k(    3) = (   0.0000000   0.0000000   0.6194412), wk =   0.0185185
        k(    4) = (   0.0000000   0.0000000  -0.9291617), wk =   0.0092593
        k(    5) = (   0.0000000   0.5773503   0.0000000), wk =   0.0370370
        k(    6) = (   0.0000000   0.5773503   0.3097206), wk =   0.0370370
        k(    7) = (   0.0000000   0.5773503   0.6194412), wk =   0.0370370
        k(    8) = (   0.0000000   0.5773503  -0.9291617), wk =   0.0370370
        k(    9) = (   0.0000000   1.1547005   0.0000000), wk =   0.0185185
        k(   10) = (   0.0000000   1.1547005   0.3097206), wk =   0.0370370
        k(   11) = (   0.0000000   1.1547005   0.6194412), wk =   0.0370370
        k(   12) = (   0.0000000   1.1547005  -0.9291617), wk =   0.0185185
        k(   13) = (   0.0000000  -1.7320508   0.0000000), wk =   0.0185185
        k(   14) = (   0.0000000  -1.7320508   0.3097206), wk =   0.0370370
        k(   15) = (   0.0000000  -1.7320508   0.6194412), wk =   0.0370370
        k(   16) = (   0.0000000  -1.7320508  -0.9291617), wk =   0.0185185
        k(   17) = (   0.1666667   0.0962250   0.0000000), wk =   0.0185185
        k(   18) = (   0.1666667   0.0962250   0.3097206), wk =   0.0185185
        k(   19) = (   0.1666667   0.0962250   0.6194412), wk =   0.0185185
        k(   20) = (   0.1666667   0.0962250  -0.9291617), wk =   0.0185185
        k(   21) = (   0.1666667   0.6735753   0.0000000), wk =   0.0370370
        k(   22) = (   0.1666667   0.6735753   0.3097206), wk =   0.0370370
        k(   23) = (   0.1666667   0.6735753   0.6194412), wk =   0.0370370
        k(   24) = (   0.1666667   0.6735753  -0.9291617), wk =   0.0370370
        k(   25) = (   0.1666667   1.2509256   0.0000000), wk =   0.0370370
        k(   26) = (   0.1666667   1.2509256   0.3097206), wk =   0.0370370
        k(   27) = (   0.1666667   1.2509256   0.6194412), wk =   0.0370370
        k(   28) = (   0.1666667   1.2509256  -0.9291617), wk =   0.0370370
        k(   29) = (   0.1666667  -1.6358258   0.0000000), wk =   0.0370370
        k(   30) = (   0.1666667  -1.6358258   0.3097206), wk =   0.0370370
        k(   31) = (   0.1666667  -1.6358258   0.6194412), wk =   0.0370370
        k(   32) = (   0.1666667  -1.6358258  -0.9291617), wk =   0.0370370
        k(   33) = (   0.1666667  -0.4811252   0.0000000), wk =   0.0370370
        k(   34) = (   0.1666667  -0.4811252   0.3097206), wk =   0.0370370
        k(   35) = (   0.1666667  -0.4811252   0.6194412), wk =   0.0370370
        k(   36) = (   0.1666667  -0.4811252  -0.9291617), wk =   0.0370370
        k(   37) = (   0.3333333   0.1924501   0.0000000), wk =   0.0185185
        k(   38) = (   0.3333333   0.1924501   0.3097206), wk =   0.0185185
        k(   39) = (   0.3333333   0.1924501   0.6194412), wk =   0.0185185
        k(   40) = (   0.3333333   0.1924501  -0.9291617), wk =   0.0185185
        k(   41) = (   0.3333333   1.3471506   0.0000000), wk =   0.0370370
        k(   42) = (   0.3333333   1.3471506   0.3097206), wk =   0.0370370
        k(   43) = (   0.3333333   1.3471506   0.6194412), wk =   0.0370370
        k(   44) = (   0.3333333   1.3471506  -0.9291617), wk =   0.0370370
        k(   45) = (  -0.5000000  -0.2886751   0.0000000), wk =   0.0092593
        k(   46) = (  -0.5000000  -0.2886751   0.3097206), wk =   0.0185185
        k(   47) = (  -0.5000000  -0.2886751   0.6194412), wk =   0.0185185
        k(   48) = (  -0.5000000  -0.2886751  -0.9291617), wk =   0.0092593
        k(   49) = (  -0.5000000   0.8660254   0.0000000), wk =   0.0185185
        k(   50) = (  -0.5000000   0.8660254   0.3097206), wk =   0.0370370
        k(   51) = (  -0.5000000   0.8660254   0.6194412), wk =   0.0370370
        k(   52) = (  -0.5000000   0.8660254  -0.9291617), wk =   0.0185185
        k(   53) = (   0.5000000  -0.2886751  -0.3097206), wk =   0.0370370
        k(   54) = (   0.5000000  -0.2886751  -0.6194412), wk =   0.0370370
        k(   55) = (   0.1666667   0.0962250  -0.3097206), wk =   0.0185185
        k(   56) = (   0.1666667   0.0962250  -0.6194412), wk =   0.0185185
        k(   57) = (   0.6666667  -0.1924501  -0.3097206), wk =   0.0370370
        k(   58) = (   0.6666667  -0.1924501  -0.6194412), wk =   0.0370370
        k(   59) = (   1.1666667  -0.4811252  -0.3097206), wk =   0.0370370
        k(   60) = (   1.1666667  -0.4811252  -0.6194412), wk =   0.0370370
        k(   61) = (  -1.3333333   0.9622504  -0.3097206), wk =   0.0370370
        k(   62) = (  -1.3333333   0.9622504  -0.6194412), wk =   0.0370370
        k(   63) = (  -0.3333333   0.3849002  -0.3097206), wk =   0.0370370
        k(   64) = (  -0.3333333   0.3849002  -0.6194412), wk =   0.0370370
        k(   65) = (   0.3333333   0.1924501  -0.3097206), wk =   0.0185185
        k(   66) = (   0.3333333   0.1924501  -0.6194412), wk =   0.0185185
        k(   67) = (   1.3333333  -0.3849002  -0.3097206), wk =   0.0370370
        k(   68) = (   1.3333333  -0.3849002  -0.6194412), wk =   0.0370370

                       cryst. coord.
        k(    1) = (   0.0000000   0.0000000   0.0000000), wk =   0.0092593
        k(    2) = (   0.0000000   0.0000000   0.1666667), wk =   0.0185185
        k(    3) = (   0.0000000   0.0000000   0.3333333), wk =   0.0185185
        k(    4) = (   0.0000000   0.0000000  -0.5000000), wk =   0.0092593
        k(    5) = (   0.0000000   0.1666667   0.0000000), wk =   0.0370370
        k(    6) = (   0.0000000   0.1666667   0.1666667), wk =   0.0370370
        k(    7) = (   0.0000000   0.1666667   0.3333333), wk =   0.0370370
        k(    8) = (   0.0000000   0.1666667  -0.5000000), wk =   0.0370370
        k(    9) = (   0.0000000   0.3333333   0.0000000), wk =   0.0185185
        k(   10) = (   0.0000000   0.3333333   0.1666667), wk =   0.0370370
        k(   11) = (   0.0000000   0.3333333   0.3333333), wk =   0.0370370
        k(   12) = (   0.0000000   0.3333333  -0.5000000), wk =   0.0185185
        k(   13) = (   0.0000000  -0.5000000   0.0000000), wk =   0.0185185
        k(   14) = (   0.0000000  -0.5000000   0.1666667), wk =   0.0370370
        k(   15) = (   0.0000000  -0.5000000   0.3333333), wk =   0.0370370
        k(   16) = (   0.0000000  -0.5000000  -0.5000000), wk =   0.0185185
        k(   17) = (   0.1666667  -0.0000000   0.0000000), wk =   0.0185185
        k(   18) = (   0.1666667  -0.0000000   0.1666667), wk =   0.0185185
        k(   19) = (   0.1666667  -0.0000000   0.3333333), wk =   0.0185185
        k(   20) = (   0.1666667  -0.0000000  -0.5000000), wk =   0.0185185
        k(   21) = (   0.1666667   0.1666667   0.0000000), wk =   0.0370370
        k(   22) = (   0.1666667   0.1666667   0.1666667), wk =   0.0370370
        k(   23) = (   0.1666667   0.1666667   0.3333333), wk =   0.0370370
        k(   24) = (   0.1666667   0.1666667  -0.5000000), wk =   0.0370370
        k(   25) = (   0.1666667   0.3333333   0.0000000), wk =   0.0370370
        k(   26) = (   0.1666667   0.3333333   0.1666667), wk =   0.0370370
        k(   27) = (   0.1666667   0.3333333   0.3333333), wk =   0.0370370
        k(   28) = (   0.1666667   0.3333333  -0.5000000), wk =   0.0370370
        k(   29) = (   0.1666667  -0.5000000   0.0000000), wk =   0.0370370
        k(   30) = (   0.1666667  -0.5000000   0.1666667), wk =   0.0370370
        k(   31) = (   0.1666667  -0.5000000   0.3333333), wk =   0.0370370
        k(   32) = (   0.1666667  -0.5000000  -0.5000000), wk =   0.0370370
        k(   33) = (   0.1666667  -0.1666667   0.0000000), wk =   0.0370370
        k(   34) = (   0.1666667  -0.1666667   0.1666667), wk =   0.0370370
        k(   35) = (   0.1666667  -0.1666667   0.3333333), wk =   0.0370370
        k(   36) = (   0.1666667  -0.1666667  -0.5000000), wk =   0.0370370
        k(   37) = (   0.3333333  -0.0000000   0.0000000), wk =   0.0185185
        k(   38) = (   0.3333333  -0.0000000   0.1666667), wk =   0.0185185
        k(   39) = (   0.3333333  -0.0000000   0.3333333), wk =   0.0185185
        k(   40) = (   0.3333333  -0.0000000  -0.5000000), wk =   0.0185185
        k(   41) = (   0.3333333   0.3333333   0.0000000), wk =   0.0370370
        k(   42) = (   0.3333333   0.3333333   0.1666667), wk =   0.0370370
        k(   43) = (   0.3333333   0.3333333   0.3333333), wk =   0.0370370
        k(   44) = (   0.3333333   0.3333333  -0.5000000), wk =   0.0370370
        k(   45) = (  -0.5000000   0.0000000   0.0000000), wk =   0.0092593
        k(   46) = (  -0.5000000   0.0000000   0.1666667), wk =   0.0185185
        k(   47) = (  -0.5000000   0.0000000   0.3333333), wk =   0.0185185
        k(   48) = (  -0.5000000   0.0000000  -0.5000000), wk =   0.0092593
        k(   49) = (  -0.5000000   0.3333333   0.0000000), wk =   0.0185185
        k(   50) = (  -0.5000000   0.3333333   0.1666667), wk =   0.0370370
        k(   51) = (  -0.5000000   0.3333333   0.3333333), wk =   0.0370370
        k(   52) = (  -0.5000000   0.3333333  -0.5000000), wk =   0.0185185
        k(   53) = (   0.5000000  -0.1666667  -0.1666667), wk =   0.0370370
        k(   54) = (   0.5000000  -0.1666667  -0.3333333), wk =   0.0370370
        k(   55) = (   0.1666667   0.0000000  -0.1666667), wk =   0.0185185
        k(   56) = (   0.1666667   0.0000000  -0.3333333), wk =   0.0185185
        k(   57) = (   0.6666667  -0.1666667  -0.1666667), wk =   0.0370370
        k(   58) = (   0.6666667  -0.1666667  -0.3333333), wk =   0.0370370
        k(   59) = (   1.1666667  -0.3333333  -0.1666667), wk =   0.0370370
        k(   60) = (   1.1666667  -0.3333333  -0.3333333), wk =   0.0370370
        k(   61) = (  -1.3333333   0.5000000  -0.1666667), wk =   0.0370370
        k(   62) = (  -1.3333333   0.5000000  -0.3333333), wk =   0.0370370
        k(   63) = (  -0.3333333   0.1666667  -0.1666667), wk =   0.0370370
        k(   64) = (  -0.3333333   0.1666667  -0.3333333), wk =   0.0370370
        k(   65) = (   0.3333333   0.0000000  -0.1666667), wk =   0.0185185
        k(   66) = (   0.3333333   0.0000000  -0.3333333), wk =   0.0185185
        k(   67) = (   1.3333333  -0.3333333  -0.1666667), wk =   0.0370370
        k(   68) = (   1.3333333  -0.3333333  -0.3333333), wk =   0.0370370

     Check: negative core charge=   -0.000002

     Initial potential from superposition of free atoms

     starting charge     107.9776, renormalised to     108.0000
     Starting wfcs are   78 randomized atomic wfcs

     Self-consistent Calculation

     iteration #  1     ecut=    50.00 Ry     beta= 0.30
     Davidson diagonalization with overlap

     ethr =  1.00E-02,  avg # of iterations =  1.9

     total energy              =   -1084.40325260 Ry
     estimated scf accuracy    <       2.14050988 Ry

[...]

     c_bands:  2 eigenvalues not converged
     ethr =  2.44E-08,  avg # of iterations = 16.3

[...]

     total energy              =   -1084.90091469 Ry
     estimated scf accuracy    <       0.00000002 Ry

     iteration # 25     ecut=    50.00 Ry     beta= 0.30
     Davidson diagonalization with overlap

     ethr =  2.12E-11,  avg # of iterations =  2.0

     End of self-consistent calculation

          k = 0.0000 0.0000 0.0000 (  6245 PWs)   bands (ev):

   -11.3985 -11.0014 -11.0013 -10.8015 -10.6602 -10.6601   0.5239   0.5239
     0.7197   0.7199   0.7536   0.8136   0.8136   0.8860   0.8862   0.9022
     0.9022   1.0198   1.1058   1.1058   1.2443   1.2444   1.3970   1.3970
     1.6132   1.6132   1.6666   1.6667   1.7289   1.7289   1.8376   1.8377
     1.8636   1.8636   2.0415   2.0415   2.0979   2.3906   2.3906   3.0980
     3.0980   3.8741   3.8741   4.4063   4.4063   5.3216   5.3216   5.3477
     5.3481   5.5113   5.5113   5.9808   6.0451   6.0456

     occupation numbers
     1.0000   1.0000   1.0000   1.0000   1.0000   1.0000   1.0000   1.0000
     1.0000   1.0000   1.0000   1.0000   1.0000   1.0000   1.0000   1.0000
     1.0000   1.0000   1.0000   1.0000   1.0000   1.0000   1.0000   1.0000
     1.0000   1.0000   1.0000   1.0000   1.0000   1.0000   1.0000   1.0000
     1.0000   1.0000   1.0000   1.0000   1.0000   1.0000   1.0000   1.0000
     1.0000   1.0000   1.0000   1.0000   1.0000   1.0000   1.0000   1.0000
     1.0000   1.0000   1.0000   1.0000   1.0000   1.0000

[...]

          k =-0.5000-0.2887 0.0000 (  6264 PWs)   bands (ev):

[...]

          k =-0.3333 0.3849-0.6194 (  6250 PWs)   bands (ev):

[...]

          k = 1.3333-0.3849-0.6194 (  6280 PWs)   bands (ev):

   -10.9684 -10.8271 -10.7725 -10.7415 -10.7020 -10.6758   0.5018   0.5173
     0.6115   0.6264   0.6748   0.7640   0.9115   0.9487   0.9636   0.9854
     1.0676   1.1076   1.1211   1.1322   1.1916   1.2235   1.2974   1.3133
     1.6992   1.7157   1.7334   1.7470   1.7623   1.7930   1.8212   1.8573
     1.8841   1.9504   1.9524   2.0544   2.4835   2.6300   2.7339   2.9727
     3.0655   3.5319   3.5970   4.1434   4.2687   4.2997   4.3874   4.5817
     4.6760   4.8913   5.0148   5.1575   5.2044   5.3128

     occupation numbers
     1.0000   1.0000   1.0000   1.0000   1.0000   1.0000   1.0000   1.0000
     1.0000   1.0000   1.0000   1.0000   1.0000   1.0000   1.0000   1.0000
     1.0000   1.0000   1.0000   1.0000   1.0000   1.0000   1.0000   1.0000
     1.0000   1.0000   1.0000   1.0000   1.0000   1.0000   1.0000   1.0000
     1.0000   1.0000   1.0000   1.0000   1.0000   1.0000   1.0000   1.0000
     1.0000   1.0000   1.0000   1.0000   1.0000   1.0000   1.0000   1.0000
     1.0000   1.0000   1.0000   1.0000   1.0000   1.0000

     highest occupied level (ev):     6.0456

!    total energy              =   -1084.90091469 Ry
     estimated scf accuracy    <          4.6E-09 Ry

     The total energy is the sum of the following terms:
     one-electron contribution =    -483.86732261 Ry
     hartree contribution      =     362.11434738 Ry
     xc contribution           =    -328.28438104 Ry
     ewald contribution        =    -634.86355841 Ry

     convergence has been achieved in  25 iterations

     Forces acting on atoms (cartesian axes, Ry/au):

     atom    1 type  1   force =     0.00000350    0.00000202   -0.00004421
     atom    2 type  1   force =    -0.00001804   -0.00001042   -0.00005284
     atom    3 type  2   force =    -0.00000149   -0.00000086    0.00004968
     atom    4 type  2   force =     0.00000400    0.00000231    0.00004905
     atom    5 type  1   force =     0.00002209    0.00001276   -0.00005290
     atom    6 type  1   force =     0.00000123    0.00000071   -0.00004745
     atom    7 type  2   force =    -0.00000456   -0.00000263    0.00004862
     atom    8 type  2   force =     0.00000100    0.00000058    0.00004998
     atom    9 type  1   force =    -0.00000426   -0.00000246   -0.00004991
     atom   10 type  1   force =    -0.00000402   -0.00000232   -0.00004721
     atom   11 type  2   force =    -0.00000259   -0.00000149    0.00004805
     atom   12 type  2   force =     0.00000313    0.00000181    0.00004915
     The non-local contrib.  to forces
     atom    1 type  1   force =    -0.00000609   -0.00000351   -0.00463187
     atom    2 type  1   force =    -0.00000552   -0.00000319   -0.00463967
     atom    3 type  2   force =    -0.00020008   -0.00011551    0.00598704
     atom    4 type  2   force =     0.00021009    0.00012129    0.00598804
     atom    5 type  1   force =     0.00000821    0.00000474   -0.00463957
     atom    6 type  1   force =     0.00001028    0.00000594   -0.00463382
     atom    7 type  2   force =    -0.00020937   -0.00012088    0.00598771
     atom    8 type  2   force =     0.00019686    0.00011365    0.00598828
     atom    9 type  1   force =    -0.00001024   -0.00000591   -0.00463703
     atom   10 type  1   force =     0.00000378    0.00000218   -0.00463489
     atom   11 type  2   force =    -0.00019789   -0.00011425    0.00598799
     atom   12 type  2   force =     0.00020135    0.00011625    0.00598984
     The ionic contribution  to forces
     atom    1 type  1   force =     0.00000001    0.00000001    0.06028145
     atom    2 type  1   force =     0.00000001    0.00000000    0.06028145
     atom    3 type  2   force =     0.00000000    0.00000000   -0.06028145
     atom    4 type  2   force =     0.00000000    0.00000000   -0.06028145
     atom    5 type  1   force =    -0.00000001    0.00000000    0.06028145
     atom    6 type  1   force =     0.00000001   -0.00000000    0.06028145
     atom    7 type  2   force =    -0.00000001    0.00000000   -0.06028145
     atom    8 type  2   force =     0.00000001   -0.00000000   -0.06028145
     atom    9 type  1   force =    -0.00000001   -0.00000000    0.06028145
     atom   10 type  1   force =    -0.00000001   -0.00000001    0.06028145
     atom   11 type  2   force =    -0.00000000   -0.00000000   -0.06028145
     atom   12 type  2   force =    -0.00000000   -0.00000000   -0.06028145
     The local contribution  to forces
     atom    1 type  1   force =     0.00001593    0.00000920   -0.05610797
     atom    2 type  1   force =     0.00000839    0.00000479   -0.05608623
     atom    3 type  2   force =     0.00020040    0.00011570    0.05441243
     atom    4 type  2   force =    -0.00019400   -0.00011202    0.05440903
     atom    5 type  1   force =    -0.00001592   -0.00000909   -0.05608937
     atom    6 type  1   force =    -0.00002665   -0.00001549   -0.05610127
     atom    7 type  2   force =     0.00019482    0.00011251    0.05440892
     atom    8 type  2   force =    -0.00020166   -0.00011646    0.05441180
     atom    9 type  1   force =     0.00003615    0.00002092   -0.05609767
     atom   10 type  1   force =    -0.00001918   -0.00001107   -0.05610308
     atom   11 type  2   force =     0.00019779    0.00011421    0.05440681
     atom   12 type  2   force =    -0.00019290   -0.00011137    0.05440696
     The core correction contribution to forces
     atom    1 type  1   force =    -0.00000612   -0.00000350    0.00040522
     atom    2 type  1   force =     0.00000613    0.00000347    0.00040472
     atom    3 type  2   force =     0.00000227    0.00000131   -0.00006719
     atom    4 type  2   force =    -0.00000239   -0.00000138   -0.00006721
     atom    5 type  1   force =    -0.00000590   -0.00000342    0.00040501
     atom    6 type  1   force =     0.00000621    0.00000360    0.00040504
     atom    7 type  2   force =     0.00000241    0.00000139   -0.00006720
     atom    8 type  2   force =    -0.00000224   -0.00000129   -0.00006720
     atom    9 type  1   force =    -0.00000707   -0.00000401    0.00040525
     atom   10 type  1   force =     0.00000666    0.00000382    0.00040532
     atom   11 type  2   force =     0.00000223    0.00000129   -0.00006721
     atom   12 type  2   force =    -0.00000227   -0.00000131   -0.00006723
     The Hubbard contrib.    to forces
     atom    1 type  1   force =     0.00000000    0.00000000    0.00000000
     atom    2 type  1   force =     0.00000000    0.00000000    0.00000000
     atom    3 type  2   force =     0.00000000    0.00000000    0.00000000
     atom    4 type  2   force =     0.00000000    0.00000000    0.00000000
     atom    5 type  1   force =     0.00000000    0.00000000    0.00000000
     atom    6 type  1   force =     0.00000000    0.00000000    0.00000000
     atom    7 type  2   force =     0.00000000    0.00000000    0.00000000
     atom    8 type  2   force =     0.00000000    0.00000000    0.00000000
     atom    9 type  1   force =     0.00000000    0.00000000    0.00000000
     atom   10 type  1   force =     0.00000000    0.00000000    0.00000000
     atom   11 type  2   force =     0.00000000    0.00000000    0.00000000
     atom   12 type  2   force =     0.00000000    0.00000000    0.00000000
     The SCF correction term to forces
     atom    1 type  1   force =     0.00000000    0.00000000    0.00000989
     atom    2 type  1   force =    -0.00002675   -0.00001545   -0.00001218
     atom    3 type  2   force =    -0.00000384   -0.00000222   -0.00000022
     atom    4 type  2   force =    -0.00000945   -0.00000546    0.00000157
     atom    5 type  1   force =     0.00003592    0.00002074   -0.00000948
     atom    6 type  1   force =     0.00001167    0.00000674    0.00000208
     atom    7 type  2   force =     0.00000782    0.00000452    0.00000157
     atom    8 type  2   force =     0.00000830    0.00000479   -0.00000052
     atom    9 type  1   force =    -0.00002291   -0.00001322   -0.00000098
     atom   10 type  1   force =     0.00000499    0.00000288    0.00000491
     atom   11 type  2   force =    -0.00000448   -0.00000258    0.00000285
     atom   12 type  2   force =    -0.00000280   -0.00000162    0.00000197

     Total force =     0.000174     Total SCF correction =     0.000066
     SCF correction compared to forces is large: reduce conv_thr to get better values

     General routines

     Parallel routines

   This run was terminated on:  21:59:36  27Aug2025

   JOB DONE.