     Program PWSCF v.7.0 starts on 27Aug2025 at 12: 5:50

     K-points division:     npool     =      17

     Reading input from /home/jvc/QEspresso7.2/ZnO_database/scripts/cell311.in/ZnO-2.94-1.45-311.in
Warning: card &CELL ignored
Warning: card / ignored
Warning: card &FCP ignored
Warning: card / ignored
Warning: card &RISM ignored
Warning: card / ignored

     Current dimensions of program PWSCF are:
     Max number of different atomic species (ntypx) = 10
     Max number of k-points (npk) =  40000
     Max angular momentum in pseudopotentials (lmaxx) =  4
     file Zn.upf: wavefunction(s)  3D renormalized
     Found identity + (  0.3333  0.0000  0.0000) symmetry
     This is a supercell, fractional translations are disabled
     Message from routine setup:
     using ibrav=0 with symmetry is DISCOURAGED, use correct ibrav instead

     Subspace diagonalization in iterative solution of the eigenvalue problem:
     a serial algorithm will be used

     Using Slab Decomposition

     bravais-lattice index     =            0
     lattice parameter (alat)  =      16.6829  a.u.
     unit-cell volume          =     649.1509 (a.u.)^3
     number of atoms/cell      =           12
     number of atomic types    =            2
     number of electrons       =       108.00
     number of Kohn-Sham states=           54
     kinetic-energy cutoff     =      50.0000  Ry
     charge density cutoff     =     400.0000  Ry
     scf convergence threshold =      1.0E-08
     mixing beta               =       0.3000
     number of iterations used =            8  plain     mixing
     Exchange-correlation= PBE
                           (   1   4   3   4   0   0   0)

     celldm(1)=  16.682906  celldm(2)=   0.000000  celldm(3)=   0.000000
     celldm(4)=   0.000000  celldm(5)=   0.000000  celldm(6)=   0.000000

     crystal axes: (cart. coord. in units of alat)
               a(1) = (   1.000000   0.000000   0.000000 )
               a(2) = (  -0.166667   0.288675   0.000000 )
               a(3) = (   0.000000   0.000000   0.484308 )

     reciprocal axes: (cart. coord. in units 2 pi/alat)
               b(1) = (  1.000000  0.577350 -0.000000 )
               b(2) = (  0.000000  3.464102  0.000000 )
               b(3) = (  0.000000 -0.000000  2.064804 )

     PseudoPot. # 1 for Zn read from file:
     /home/jvc/QEspresso7.2/ZnO_database/pseudos/Zn.upf
     MD5 check sum: 7f56cabf9682ed8c977c2f7d0c5985c5
     Pseudo is Ultrasoft + core correction, Zval = 12.0
     Generated using &quot;atomic&quot; code by A. Dal Corso  v.6.2.2
     Using radial grid of 1201 points,  6 beta functions with:
                l(1) =   0
                l(2) =   0
                l(3) =   1
                l(4) =   1
                l(5) =   2
                l(6) =   2
     Q(r) pseudized with 0 coefficients

     PseudoPot. # 2 for O  read from file:
     /home/jvc/QEspresso7.2/ZnO_database/pseudos/O.upf
     MD5 check sum: 91400c9766925bcf19f520983a725ff0
     Pseudo is Ultrasoft + core correction, Zval =  6.0
     Generated using &quot;atomic&quot; code by A. Dal Corso  v.6.3MaX
     Using radial grid of 1095 points,  4 beta functions with:
                l(1) =   0
                l(2) =   0
                l(3) =   1
                l(4) =   1
     Q(r) pseudized with 0 coefficients

     atomic species   valence    mass     pseudopotential
        Zn            12.00    65.38000     Zn( 1.00)
        O              6.00    15.99900     O ( 1.00)

      2 Sym. Ops. (no inversion) found

                                    s                        frac. trans.

      isym =  1     identity

 cryst.   s( 1) = (     1          0          0      )
                  (     0          1          0      )
                  (     0          0          1      )

 cart.    s( 1) = (  1.0000000  0.0000000  0.0000000 )
                  (  0.0000000  1.0000000  0.0000000 )
                  (  0.0000000  0.0000000  1.0000000 )

      isym =  2     inv. 180 deg rotation - cryst. axis [0,1,0]

 cryst.   s( 2) = (     1          3          0      )
                  (     0         -1          0      )
                  (     0          0          1      )

 cart.    s( 2) = (  0.5000000  0.8660254  0.0000000 )
                  (  0.8660254 -0.5000000  0.0000000 )
                  (  0.0000000  0.0000000  1.0000000 )

   Cartesian axes

     site n.     atom                  positions (alat units)
         1           Zn  tau(   1) = (   0.1666667   0.0962250   0.2424606  )
         2           Zn  tau(   2) = (  -0.0000000   0.1924501   0.0003069  )
         3           O   tau(   3) = (   0.1666667   0.0962250   0.4260339  )
         4           O   tau(   4) = (  -0.0000000   0.1924501   0.1838801  )
         5           Zn  tau(   5) = (   0.5000000   0.0962250   0.2424606  )
         6           Zn  tau(   6) = (   0.3333333   0.1924501   0.0003069  )
         7           O   tau(   7) = (   0.5000000   0.0962250   0.4260339  )
         8           O   tau(   8) = (   0.3333333   0.1924501   0.1838801  )
         9           Zn  tau(   9) = (   0.8333333   0.0962250   0.2424606  )
        10           Zn  tau(  10) = (   0.6666667   0.1924501   0.0003069  )
        11           O   tau(  11) = (   0.8333333   0.0962250   0.4260339  )
        12           O   tau(  12) = (   0.6666667   0.1924501   0.1838801  )

   Crystallographic axes

     site n.     atom                  positions (cryst. coord.)
         1           Zn  tau(   1) = (  0.2222222  0.3333333  0.5006336  )
         2           Zn  tau(   2) = (  0.1111111  0.6666667  0.0006336  )
         3           O   tau(   3) = (  0.2222222  0.3333333  0.8796764  )
         4           O   tau(   4) = (  0.1111111  0.6666667  0.3796764  )
         5           Zn  tau(   5) = (  0.5555556  0.3333333  0.5006336  )
         6           Zn  tau(   6) = (  0.4444444  0.6666667  0.0006336  )
         7           O   tau(   7) = (  0.5555556  0.3333333  0.8796764  )
         8           O   tau(   8) = (  0.4444444  0.6666667  0.3796764  )
         9           Zn  tau(   9) = (  0.8888889  0.3333333  0.5006336  )
        10           Zn  tau(  10) = (  0.7777778  0.6666667  0.0006336  )
        11           O   tau(  11) = (  0.8888889  0.3333333  0.8796764  )
        12           O   tau(  12) = (  0.7777778  0.6666667  0.3796764  )

     number of k points=    68
                       cart. coord. in units 2pi/alat
        k(    1) = (   0.0000000   0.0000000   0.0000000), wk =   0.0092593
        k(    2) = (   0.0000000   0.0000000   0.3441340), wk =   0.0185185
        k(    3) = (   0.0000000   0.0000000   0.6882679), wk =   0.0185185
        k(    4) = (   0.0000000   0.0000000  -1.0324019), wk =   0.0092593
        k(    5) = (   0.0000000   0.5773503   0.0000000), wk =   0.0370370
        k(    6) = (   0.0000000   0.5773503   0.3441340), wk =   0.0370370
        k(    7) = (   0.0000000   0.5773503   0.6882679), wk =   0.0370370
        k(    8) = (   0.0000000   0.5773503  -1.0324019), wk =   0.0370370
        k(    9) = (   0.0000000   1.1547005   0.0000000), wk =   0.0185185
        k(   10) = (   0.0000000   1.1547005   0.3441340), wk =   0.0370370
        k(   11) = (   0.0000000   1.1547005   0.6882679), wk =   0.0370370
        k(   12) = (   0.0000000   1.1547005  -1.0324019), wk =   0.0185185
        k(   13) = (   0.0000000  -1.7320508   0.0000000), wk =   0.0185185
        k(   14) = (   0.0000000  -1.7320508   0.3441340), wk =   0.0370370
        k(   15) = (   0.0000000  -1.7320508   0.6882679), wk =   0.0370370
        k(   16) = (   0.0000000  -1.7320508  -1.0324019), wk =   0.0185185
        k(   17) = (   0.1666667   0.0962250   0.0000000), wk =   0.0185185
        k(   18) = (   0.1666667   0.0962250   0.3441340), wk =   0.0185185
        k(   19) = (   0.1666667   0.0962250   0.6882679), wk =   0.0185185
        k(   20) = (   0.1666667   0.0962250  -1.0324019), wk =   0.0185185
        k(   21) = (   0.1666667   0.6735753   0.0000000), wk =   0.0370370
        k(   22) = (   0.1666667   0.6735753   0.3441340), wk =   0.0370370
        k(   23) = (   0.1666667   0.6735753   0.6882679), wk =   0.0370370
        k(   24) = (   0.1666667   0.6735753  -1.0324019), wk =   0.0370370
        k(   25) = (   0.1666667   1.2509256   0.0000000), wk =   0.0370370
        k(   26) = (   0.1666667   1.2509256   0.3441340), wk =   0.0370370
        k(   27) = (   0.1666667   1.2509256   0.6882679), wk =   0.0370370
        k(   28) = (   0.1666667   1.2509256  -1.0324019), wk =   0.0370370
        k(   29) = (   0.1666667  -1.6358258   0.0000000), wk =   0.0370370
        k(   30) = (   0.1666667  -1.6358258   0.3441340), wk =   0.0370370
        k(   31) = (   0.1666667  -1.6358258   0.6882679), wk =   0.0370370
        k(   32) = (   0.1666667  -1.6358258  -1.0324019), wk =   0.0370370
        k(   33) = (   0.1666667  -0.4811252   0.0000000), wk =   0.0370370
        k(   34) = (   0.1666667  -0.4811252   0.3441340), wk =   0.0370370
        k(   35) = (   0.1666667  -0.4811252   0.6882679), wk =   0.0370370
        k(   36) = (   0.1666667  -0.4811252  -1.0324019), wk =   0.0370370
        k(   37) = (   0.3333333   0.1924501   0.0000000), wk =   0.0185185
        k(   38) = (   0.3333333   0.1924501   0.3441340), wk =   0.0185185
        k(   39) = (   0.3333333   0.1924501   0.6882679), wk =   0.0185185
        k(   40) = (   0.3333333   0.1924501  -1.0324019), wk =   0.0185185
        k(   41) = (   0.3333333   1.3471506   0.0000000), wk =   0.0370370
        k(   42) = (   0.3333333   1.3471506   0.3441340), wk =   0.0370370
        k(   43) = (   0.3333333   1.3471506   0.6882679), wk =   0.0370370
        k(   44) = (   0.3333333   1.3471506  -1.0324019), wk =   0.0370370
        k(   45) = (  -0.5000000  -0.2886751   0.0000000), wk =   0.0092593
        k(   46) = (  -0.5000000  -0.2886751   0.3441340), wk =   0.0185185
        k(   47) = (  -0.5000000  -0.2886751   0.6882679), wk =   0.0185185
        k(   48) = (  -0.5000000  -0.2886751  -1.0324019), wk =   0.0092593
        k(   49) = (  -0.5000000   0.8660254   0.0000000), wk =   0.0185185
        k(   50) = (  -0.5000000   0.8660254   0.3441340), wk =   0.0370370
        k(   51) = (  -0.5000000   0.8660254   0.6882679), wk =   0.0370370
        k(   52) = (  -0.5000000   0.8660254  -1.0324019), wk =   0.0185185
        k(   53) = (   0.5000000  -0.2886751  -0.3441340), wk =   0.0370370
        k(   54) = (   0.5000000  -0.2886751  -0.6882679), wk =   0.0370370
        k(   55) = (   0.1666667   0.0962250  -0.3441340), wk =   0.0185185
        k(   56) = (   0.1666667   0.0962250  -0.6882679), wk =   0.0185185
        k(   57) = (   0.6666667  -0.1924501  -0.3441340), wk =   0.0370370
        k(   58) = (   0.6666667  -0.1924501  -0.6882679), wk =   0.0370370
        k(   59) = (   1.1666667  -0.4811252  -0.3441340), wk =   0.0370370
        k(   60) = (   1.1666667  -0.4811252  -0.6882679), wk =   0.0370370
        k(   61) = (  -1.3333333   0.9622504  -0.3441340), wk =   0.0370370
        k(   62) = (  -1.3333333   0.9622504  -0.6882679), wk =   0.0370370
        k(   63) = (  -0.3333333   0.3849002  -0.3441340), wk =   0.0370370
        k(   64) = (  -0.3333333   0.3849002  -0.6882679), wk =   0.0370370
        k(   65) = (   0.3333333   0.1924501  -0.3441340), wk =   0.0185185
        k(   66) = (   0.3333333   0.1924501  -0.6882679), wk =   0.0185185
        k(   67) = (   1.3333333  -0.3849002  -0.3441340), wk =   0.0370370
        k(   68) = (   1.3333333  -0.3849002  -0.6882679), wk =   0.0370370

                       cryst. coord.
        k(    1) = (   0.0000000   0.0000000   0.0000000), wk =   0.0092593
        k(    2) = (   0.0000000   0.0000000   0.1666667), wk =   0.0185185
        k(    3) = (   0.0000000   0.0000000   0.3333333), wk =   0.0185185
        k(    4) = (   0.0000000   0.0000000  -0.5000000), wk =   0.0092593
        k(    5) = (   0.0000000   0.1666667   0.0000000), wk =   0.0370370
        k(    6) = (   0.0000000   0.1666667   0.1666667), wk =   0.0370370
        k(    7) = (   0.0000000   0.1666667   0.3333333), wk =   0.0370370
        k(    8) = (   0.0000000   0.1666667  -0.5000000), wk =   0.0370370
        k(    9) = (   0.0000000   0.3333333   0.0000000), wk =   0.0185185
        k(   10) = (   0.0000000   0.3333333   0.1666667), wk =   0.0370370
        k(   11) = (   0.0000000   0.3333333   0.3333333), wk =   0.0370370
        k(   12) = (   0.0000000   0.3333333  -0.5000000), wk =   0.0185185
        k(   13) = (   0.0000000  -0.5000000   0.0000000), wk =   0.0185185
        k(   14) = (   0.0000000  -0.5000000   0.1666667), wk =   0.0370370
        k(   15) = (   0.0000000  -0.5000000   0.3333333), wk =   0.0370370
        k(   16) = (   0.0000000  -0.5000000  -0.5000000), wk =   0.0185185
        k(   17) = (   0.1666667  -0.0000000   0.0000000), wk =   0.0185185
        k(   18) = (   0.1666667  -0.0000000   0.1666667), wk =   0.0185185
        k(   19) = (   0.1666667  -0.0000000   0.3333333), wk =   0.0185185
        k(   20) = (   0.1666667  -0.0000000  -0.5000000), wk =   0.0185185
        k(   21) = (   0.1666667   0.1666667   0.0000000), wk =   0.0370370
        k(   22) = (   0.1666667   0.1666667   0.1666667), wk =   0.0370370
        k(   23) = (   0.1666667   0.1666667   0.3333333), wk =   0.0370370
        k(   24) = (   0.1666667   0.1666667  -0.5000000), wk =   0.0370370
        k(   25) = (   0.1666667   0.3333333   0.0000000), wk =   0.0370370
        k(   26) = (   0.1666667   0.3333333   0.1666667), wk =   0.0370370
        k(   27) = (   0.1666667   0.3333333   0.3333333), wk =   0.0370370
        k(   28) = (   0.1666667   0.3333333  -0.5000000), wk =   0.0370370
        k(   29) = (   0.1666667  -0.5000000   0.0000000), wk =   0.0370370
        k(   30) = (   0.1666667  -0.5000000   0.1666667), wk =   0.0370370
        k(   31) = (   0.1666667  -0.5000000   0.3333333), wk =   0.0370370
        k(   32) = (   0.1666667  -0.5000000  -0.5000000), wk =   0.0370370
        k(   33) = (   0.1666667  -0.1666667   0.0000000), wk =   0.0370370
        k(   34) = (   0.1666667  -0.1666667   0.1666667), wk =   0.0370370
        k(   35) = (   0.1666667  -0.1666667   0.3333333), wk =   0.0370370
        k(   36) = (   0.1666667  -0.1666667  -0.5000000), wk =   0.0370370
        k(   37) = (   0.3333333  -0.0000000   0.0000000), wk =   0.0185185
        k(   38) = (   0.3333333  -0.0000000   0.1666667), wk =   0.0185185
        k(   39) = (   0.3333333  -0.0000000   0.3333333), wk =   0.0185185
        k(   40) = (   0.3333333  -0.0000000  -0.5000000), wk =   0.0185185
        k(   41) = (   0.3333333   0.3333333   0.0000000), wk =   0.0370370
        k(   42) = (   0.3333333   0.3333333   0.1666667), wk =   0.0370370
        k(   43) = (   0.3333333   0.3333333   0.3333333), wk =   0.0370370
        k(   44) = (   0.3333333   0.3333333  -0.5000000), wk =   0.0370370
        k(   45) = (  -0.5000000   0.0000000   0.0000000), wk =   0.0092593
        k(   46) = (  -0.5000000   0.0000000   0.1666667), wk =   0.0185185
        k(   47) = (  -0.5000000   0.0000000   0.3333333), wk =   0.0185185
        k(   48) = (  -0.5000000   0.0000000  -0.5000000), wk =   0.0092593
        k(   49) = (  -0.5000000   0.3333333   0.0000000), wk =   0.0185185
        k(   50) = (  -0.5000000   0.3333333   0.1666667), wk =   0.0370370
        k(   51) = (  -0.5000000   0.3333333   0.3333333), wk =   0.0370370
        k(   52) = (  -0.5000000   0.3333333  -0.5000000), wk =   0.0185185
        k(   53) = (   0.5000000  -0.1666667  -0.1666667), wk =   0.0370370
        k(   54) = (   0.5000000  -0.1666667  -0.3333333), wk =   0.0370370
        k(   55) = (   0.1666667   0.0000000  -0.1666667), wk =   0.0185185
        k(   56) = (   0.1666667   0.0000000  -0.3333333), wk =   0.0185185
        k(   57) = (   0.6666667  -0.1666667  -0.1666667), wk =   0.0370370
        k(   58) = (   0.6666667  -0.1666667  -0.3333333), wk =   0.0370370
        k(   59) = (   1.1666667  -0.3333333  -0.1666667), wk =   0.0370370
        k(   60) = (   1.1666667  -0.3333333  -0.3333333), wk =   0.0370370
        k(   61) = (  -1.3333333   0.5000000  -0.1666667), wk =   0.0370370
        k(   62) = (  -1.3333333   0.5000000  -0.3333333), wk =   0.0370370
        k(   63) = (  -0.3333333   0.1666667  -0.1666667), wk =   0.0370370
        k(   64) = (  -0.3333333   0.1666667  -0.3333333), wk =   0.0370370
        k(   65) = (   0.3333333   0.0000000  -0.1666667), wk =   0.0185185
        k(   66) = (   0.3333333   0.0000000  -0.3333333), wk =   0.0185185
        k(   67) = (   1.3333333  -0.3333333  -0.1666667), wk =   0.0370370
        k(   68) = (   1.3333333  -0.3333333  -0.3333333), wk =   0.0370370

     Initial potential from superposition of free atoms

     starting charge     107.9776, renormalised to     108.0000
     Starting wfcs are   78 randomized atomic wfcs

     Self-consistent Calculation

     iteration #  1     ecut=    50.00 Ry     beta= 0.30
     Davidson diagonalization with overlap

     ethr =  1.00E-02,  avg # of iterations =  2.6

     total energy              =   -1083.20369941 Ry
     estimated scf accuracy    <       2.22959214 Ry

[...]

     total energy              =   -1083.58755606 Ry
     estimated scf accuracy    <       0.00000001 Ry

     iteration # 20     ecut=    50.00 Ry     beta= 0.30
     Davidson diagonalization with overlap

     ethr =  1.17E-11,  avg # of iterations =  6.4

     End of self-consistent calculation

          k = 0.0000 0.0000 0.0000 (  3837 PWs)   bands (ev):

    -7.5767  -6.6746  -6.6746  -5.7822  -5.6275  -5.6275   5.2478   5.2478
     5.5523   5.7743   5.7743   6.0969   6.0971   6.1927   6.3850   6.3850
     6.4657   6.4657   6.5288   6.5289   7.1278   7.1278   7.1748   7.1748
     8.3834   8.3834   8.6030   8.6030   8.8146   8.8146   8.9733   8.9733
     9.2374   9.2375   9.3596   9.3596   9.7394  10.0601  10.0601  10.5465
    10.5465  11.1541  11.1541  11.8884  11.8884  12.8939  12.8940  13.5349
    13.5349  13.7213  13.7213  14.6195  14.6197  14.6451

     occupation numbers
     1.0000   1.0000   1.0000   1.0000   1.0000   1.0000   1.0000   1.0000
     1.0000   1.0000   1.0000   1.0000   1.0000   1.0000   1.0000   1.0000
     1.0000   1.0000   1.0000   1.0000   1.0000   1.0000   1.0000   1.0000
     1.0000   1.0000   1.0000   1.0000   1.0000   1.0000   1.0000   1.0000
     1.0000   1.0000   1.0000   1.0000   1.0000   1.0000   1.0000   1.0000
     1.0000   1.0000   1.0000   1.0000   1.0000   1.0000   1.0000   1.0000
     1.0000   1.0000   1.0000   1.0000   1.0000   1.0000

[...]

          k =-0.5000-0.2887 0.0000 (  3854 PWs)   bands (ev):

[...]

          k =-0.3333 0.3849-0.6883 (  3880 PWs)   bands (ev):

[...]

          k = 1.3333-0.3849-0.6883 (  3880 PWs)   bands (ev):

    -6.5092  -6.1732  -5.9606  -5.9011  -5.7820  -5.7551   4.9357   5.0290
     5.0488   5.1175   5.1719   5.2063   6.1328   6.2819   6.3098   6.3664
     6.3744   6.4320   6.6196   6.7961   6.8451   7.0198   7.0657   7.1343
     8.7284   8.7750   8.8389   8.9326   8.9486   9.0551   9.2242   9.2714
     9.3072   9.4229   9.4489   9.6674   9.9165  10.1015  10.2779  10.6276
    10.7191  10.9193  11.3225  11.6126  11.8133  11.9562  12.0474  12.1701
    12.5360  12.6793  13.1670  13.2370  13.5177  13.7989

     occupation numbers
     1.0000   1.0000   1.0000   1.0000   1.0000   1.0000   1.0000   1.0000
     1.0000   1.0000   1.0000   1.0000   1.0000   1.0000   1.0000   1.0000
     1.0000   1.0000   1.0000   1.0000   1.0000   1.0000   1.0000   1.0000
     1.0000   1.0000   1.0000   1.0000   1.0000   1.0000   1.0000   1.0000
     1.0000   1.0000   1.0000   1.0000   1.0000   1.0000   1.0000   1.0000
     1.0000   1.0000   1.0000   1.0000   1.0000   1.0000   1.0000   1.0000
     1.0000   1.0000   1.0000   1.0000   1.0000   1.0000

     highest occupied level (ev):    14.6451

!    total energy              =   -1083.58755606 Ry
     estimated scf accuracy    <          6.1E-09 Ry

     The total energy is the sum of the following terms:
     one-electron contribution =    -314.73145611 Ry
     hartree contribution      =     305.76006303 Ry
     xc contribution           =    -332.08729491 Ry
     ewald contribution        =    -742.52886807 Ry

     convergence has been achieved in  20 iterations

     Forces acting on atoms (cartesian axes, Ry/au):

     atom    1 type  1   force =     0.00001341    0.00000774   -0.21628239
     atom    2 type  1   force =    -0.00001794   -0.00001036   -0.21628240
     atom    3 type  2   force =    -0.00000304   -0.00000175    0.21628269
     atom    4 type  2   force =     0.00000231    0.00000133    0.21628222
     atom    5 type  1   force =     0.00001918    0.00001107   -0.21628415
     atom    6 type  1   force =    -0.00001437   -0.00000829   -0.21628125
     atom    7 type  2   force =    -0.00000203   -0.00000117    0.21628287
     atom    8 type  2   force =     0.00000309    0.00000179    0.21628216
     atom    9 type  1   force =     0.00001530    0.00000883   -0.21628404
     atom   10 type  1   force =    -0.00001555   -0.00000898   -0.21628086
     atom   11 type  2   force =    -0.00000273   -0.00000158    0.21628296
     atom   12 type  2   force =     0.00000237    0.00000137    0.21628219
     The non-local contrib.  to forces
     atom    1 type  1   force =    -0.00002219   -0.00001281   -0.38233528
     atom    2 type  1   force =     0.00002006    0.00001158   -0.38233552
     atom    3 type  2   force =    -0.00012737   -0.00007353   -0.18137072
     atom    4 type  2   force =     0.00012798    0.00007389   -0.18137143
     atom    5 type  1   force =    -0.00001981   -0.00001144   -0.38233597
     atom    6 type  1   force =     0.00002179    0.00001258   -0.38233516
     atom    7 type  2   force =    -0.00012756   -0.00007365   -0.18137128
     atom    8 type  2   force =     0.00012761    0.00007368   -0.18137069
     atom    9 type  1   force =    -0.00002125   -0.00001227   -0.38233632
     atom   10 type  1   force =     0.00002128    0.00001228   -0.38233530
     atom   11 type  2   force =    -0.00012771   -0.00007373   -0.18137086
     atom   12 type  2   force =     0.00012708    0.00007337   -0.18137066
     The ionic contribution  to forces
     atom    1 type  1   force =     0.00000001    0.00000001   -2.79035798
     atom    2 type  1   force =     0.00000001    0.00000000   -2.79035799
     atom    3 type  2   force =     0.00000000    0.00000000    2.79035798
     atom    4 type  2   force =     0.00000001    0.00000000    2.79035799
     atom    5 type  1   force =    -0.00000002    0.00000000   -2.79035799
     atom    6 type  1   force =     0.00000002   -0.00000000   -2.79035799
     atom    7 type  2   force =    -0.00000001    0.00000001    2.79035799
     atom    8 type  2   force =     0.00000001   -0.00000001    2.79035799
     atom    9 type  1   force =    -0.00000001   -0.00000000   -2.79035799
     atom   10 type  1   force =    -0.00000001   -0.00000001   -2.79035798
     atom   11 type  2   force =    -0.00000001   -0.00000000    2.79035799
     atom   12 type  2   force =    -0.00000000   -0.00000000    2.79035798
     The local contribution  to forces
     atom    1 type  1   force =     0.00004150    0.00002396    2.91294900
     atom    2 type  1   force =    -0.00003626   -0.00002098    2.91294971
     atom    3 type  2   force =     0.00012521    0.00007229   -2.39323334
     atom    4 type  2   force =    -0.00012219   -0.00007056   -2.39323144
     atom    5 type  1   force =     0.00003459    0.00002006    2.91295192
     atom    6 type  1   force =    -0.00003996   -0.00002316    2.91294828
     atom    7 type  2   force =     0.00012011    0.00006937   -2.39323259
     atom    8 type  2   force =    -0.00012528   -0.00007235   -2.39323314
     atom    9 type  1   force =     0.00003961    0.00002291    2.91295173
     atom   10 type  1   force =    -0.00003946   -0.00002278    2.91294758
     atom   11 type  2   force =     0.00012430    0.00007178   -2.39323369
     atom   12 type  2   force =    -0.00012363   -0.00007138   -2.39323216
     The core correction contribution to forces
     atom    1 type  1   force =    -0.00000119   -0.00000069    0.04347166
     atom    2 type  1   force =     0.00000123    0.00000070    0.04347163
     atom    3 type  2   force =     0.00000143    0.00000083    0.00052957
     atom    4 type  2   force =    -0.00000144   -0.00000083    0.00052958
     atom    5 type  1   force =    -0.00000120   -0.00000068    0.04347162
     atom    6 type  1   force =     0.00000117    0.00000066    0.04347163
     atom    7 type  2   force =     0.00000142    0.00000082    0.00052958
     atom    8 type  2   force =    -0.00000143   -0.00000083    0.00052957
     atom    9 type  1   force =    -0.00000124   -0.00000071    0.04347163
     atom   10 type  1   force =     0.00000123    0.00000071    0.04347167
     atom   11 type  2   force =     0.00000143    0.00000083    0.00052957
     atom   12 type  2   force =    -0.00000142   -0.00000082    0.00052957
     The Hubbard contrib.    to forces
     atom    1 type  1   force =     0.00000000    0.00000000    0.00000000
     atom    2 type  1   force =     0.00000000    0.00000000    0.00000000
     atom    3 type  2   force =     0.00000000    0.00000000    0.00000000
     atom    4 type  2   force =     0.00000000    0.00000000    0.00000000
     atom    5 type  1   force =     0.00000000    0.00000000    0.00000000
     atom    6 type  1   force =     0.00000000    0.00000000    0.00000000
     atom    7 type  2   force =     0.00000000    0.00000000    0.00000000
     atom    8 type  2   force =     0.00000000    0.00000000    0.00000000
     atom    9 type  1   force =     0.00000000    0.00000000    0.00000000
     atom   10 type  1   force =     0.00000000    0.00000000    0.00000000
     atom   11 type  2   force =     0.00000000    0.00000000    0.00000000
     atom   12 type  2   force =     0.00000000    0.00000000    0.00000000
     The SCF correction term to forces
     atom    1 type  1   force =    -0.00000470   -0.00000271   -0.00001384
     atom    2 type  1   force =    -0.00000294   -0.00000170   -0.00001429
     atom    3 type  2   force =    -0.00000230   -0.00000133   -0.00000487
     atom    4 type  2   force =    -0.00000204   -0.00000118   -0.00000655
     atom    5 type  1   force =     0.00000558    0.00000322   -0.00001778
     atom    6 type  1   force =     0.00000269    0.00000155   -0.00001207
     atom    7 type  2   force =     0.00000400    0.00000231   -0.00000489
     atom    8 type  2   force =     0.00000221    0.00000128   -0.00000563
     atom    9 type  1   force =    -0.00000182   -0.00000105   -0.00001716
     atom   10 type  1   force =     0.00000142    0.00000082   -0.00001088
     atom   11 type  2   force =    -0.00000075   -0.00000043   -0.00000411
     atom   12 type  2   force =     0.00000036    0.00000021   -0.00000661

     Total force =     0.749225     Total SCF correction =     0.000040

     General routines

     Parallel routines

   This run was terminated on:  12:10:28  27Aug2025

   JOB DONE.