     Program PWSCF v.7.0 starts on 27Aug2025 at 13:20: 4

     K-points division:     npool     =      17

     Reading input from /home/jvc/QEspresso7.2/ZnO_database/scripts/cell311.in/ZnO-3.01-1.55-311.in
Warning: card &CELL ignored
Warning: card / ignored
Warning: card &FCP ignored
Warning: card / ignored
Warning: card &RISM ignored
Warning: card / ignored

     Current dimensions of program PWSCF are:
     Max number of different atomic species (ntypx) = 10
     Max number of k-points (npk) =  40000
     Max angular momentum in pseudopotentials (lmaxx) =  4
     file Zn.upf: wavefunction(s)  3D renormalized
     Found identity + (  0.3333  0.0000  0.0000) symmetry
     This is a supercell, fractional translations are disabled
     Message from routine setup:
     using ibrav=0 with symmetry is DISCOURAGED, use correct ibrav instead

     Subspace diagonalization in iterative solution of the eigenvalue problem:
     a serial algorithm will be used

     Using Slab Decomposition

     bravais-lattice index     =            0
     lattice parameter (alat)  =      17.0536  a.u.
     unit-cell volume          =     739.6229 (a.u.)^3
     number of atoms/cell      =           12
     number of atomic types    =            2
     number of electrons       =       108.00
     number of Kohn-Sham states=           54
     kinetic-energy cutoff     =      50.0000  Ry
     charge density cutoff     =     400.0000  Ry
     scf convergence threshold =      1.0E-08
     mixing beta               =       0.3000
     number of iterations used =            8  plain     mixing
     Exchange-correlation= PBE
                           (   1   4   3   4   0   0   0)

     celldm(1)=  17.053637  celldm(2)=   0.000000  celldm(3)=   0.000000
     celldm(4)=   0.000000  celldm(5)=   0.000000  celldm(6)=   0.000000

     crystal axes: (cart. coord. in units of alat)
               a(1) = (   1.000000   0.000000   0.000000 )
               a(2) = (  -0.166667   0.288675   0.000000 )
               a(3) = (   0.000000   0.000000   0.516595 )

     reciprocal axes: (cart. coord. in units 2 pi/alat)
               b(1) = (  1.000000  0.577350 -0.000000 )
               b(2) = (  0.000000  3.464102  0.000000 )
               b(3) = (  0.000000 -0.000000  1.935754 )

     PseudoPot. # 1 for Zn read from file:
     /home/jvc/QEspresso7.2/ZnO_database/pseudos/Zn.upf
     MD5 check sum: 7f56cabf9682ed8c977c2f7d0c5985c5
     Pseudo is Ultrasoft + core correction, Zval = 12.0
     Generated using &quot;atomic&quot; code by A. Dal Corso  v.6.2.2
     Using radial grid of 1201 points,  6 beta functions with:
                l(1) =   0
                l(2) =   0
                l(3) =   1
                l(4) =   1
                l(5) =   2
                l(6) =   2
     Q(r) pseudized with 0 coefficients

     PseudoPot. # 2 for O  read from file:
     /home/jvc/QEspresso7.2/ZnO_database/pseudos/O.upf
     MD5 check sum: 91400c9766925bcf19f520983a725ff0
     Pseudo is Ultrasoft + core correction, Zval =  6.0
     Generated using &quot;atomic&quot; code by A. Dal Corso  v.6.3MaX
     Using radial grid of 1095 points,  4 beta functions with:
                l(1) =   0
                l(2) =   0
                l(3) =   1
                l(4) =   1
     Q(r) pseudized with 0 coefficients

     atomic species   valence    mass     pseudopotential
        Zn            12.00    65.38000     Zn( 1.00)
        O              6.00    15.99900     O ( 1.00)

      2 Sym. Ops. (no inversion) found

                                    s                        frac. trans.

      isym =  1     identity

 cryst.   s( 1) = (     1          0          0      )
                  (     0          1          0      )
                  (     0          0          1      )

 cart.    s( 1) = (  1.0000000  0.0000000  0.0000000 )
                  (  0.0000000  1.0000000  0.0000000 )
                  (  0.0000000  0.0000000  1.0000000 )

      isym =  2     inv. 180 deg rotation - cryst. axis [0,1,0]

 cryst.   s( 2) = (     1          3          0      )
                  (     0         -1          0      )
                  (     0          0          1      )

 cart.    s( 2) = (  0.5000000  0.8660254  0.0000000 )
                  (  0.8660254 -0.5000000  0.0000000 )
                  (  0.0000000  0.0000000  1.0000000 )

   Cartesian axes

     site n.     atom                  positions (alat units)
         1           Zn  tau(   1) = (   0.1666667   0.0962250   0.2586246  )
         2           Zn  tau(   2) = (  -0.0000000   0.1924501   0.0003273  )
         3           O   tau(   3) = (   0.1666667   0.0962250   0.4544362  )
         4           O   tau(   4) = (  -0.0000000   0.1924501   0.1961388  )
         5           Zn  tau(   5) = (   0.5000000   0.0962250   0.2586246  )
         6           Zn  tau(   6) = (   0.3333333   0.1924501   0.0003273  )
         7           O   tau(   7) = (   0.5000000   0.0962250   0.4544362  )
         8           O   tau(   8) = (   0.3333333   0.1924501   0.1961388  )
         9           Zn  tau(   9) = (   0.8333333   0.0962250   0.2586246  )
        10           Zn  tau(  10) = (   0.6666667   0.1924501   0.0003273  )
        11           O   tau(  11) = (   0.8333333   0.0962250   0.4544362  )
        12           O   tau(  12) = (   0.6666667   0.1924501   0.1961388  )

   Crystallographic axes

     site n.     atom                  positions (cryst. coord.)
         1           Zn  tau(   1) = (  0.2222222  0.3333333  0.5006336  )
         2           Zn  tau(   2) = (  0.1111111  0.6666667  0.0006336  )
         3           O   tau(   3) = (  0.2222222  0.3333333  0.8796764  )
         4           O   tau(   4) = (  0.1111111  0.6666667  0.3796764  )
         5           Zn  tau(   5) = (  0.5555556  0.3333333  0.5006336  )
         6           Zn  tau(   6) = (  0.4444444  0.6666667  0.0006336  )
         7           O   tau(   7) = (  0.5555556  0.3333333  0.8796764  )
         8           O   tau(   8) = (  0.4444444  0.6666667  0.3796764  )
         9           Zn  tau(   9) = (  0.8888889  0.3333333  0.5006336  )
        10           Zn  tau(  10) = (  0.7777778  0.6666667  0.0006336  )
        11           O   tau(  11) = (  0.8888889  0.3333333  0.8796764  )
        12           O   tau(  12) = (  0.7777778  0.6666667  0.3796764  )

     number of k points=    68
                       cart. coord. in units 2pi/alat
        k(    1) = (   0.0000000   0.0000000   0.0000000), wk =   0.0092593
        k(    2) = (   0.0000000   0.0000000   0.3226256), wk =   0.0185185
        k(    3) = (   0.0000000   0.0000000   0.6452512), wk =   0.0185185
        k(    4) = (   0.0000000   0.0000000  -0.9678768), wk =   0.0092593
        k(    5) = (   0.0000000   0.5773503   0.0000000), wk =   0.0370370
        k(    6) = (   0.0000000   0.5773503   0.3226256), wk =   0.0370370
        k(    7) = (   0.0000000   0.5773503   0.6452512), wk =   0.0370370
        k(    8) = (   0.0000000   0.5773503  -0.9678768), wk =   0.0370370
        k(    9) = (   0.0000000   1.1547005   0.0000000), wk =   0.0185185
        k(   10) = (   0.0000000   1.1547005   0.3226256), wk =   0.0370370
        k(   11) = (   0.0000000   1.1547005   0.6452512), wk =   0.0370370
        k(   12) = (   0.0000000   1.1547005  -0.9678768), wk =   0.0185185
        k(   13) = (   0.0000000  -1.7320508   0.0000000), wk =   0.0185185
        k(   14) = (   0.0000000  -1.7320508   0.3226256), wk =   0.0370370
        k(   15) = (   0.0000000  -1.7320508   0.6452512), wk =   0.0370370
        k(   16) = (   0.0000000  -1.7320508  -0.9678768), wk =   0.0185185
        k(   17) = (   0.1666667   0.0962250   0.0000000), wk =   0.0185185
        k(   18) = (   0.1666667   0.0962250   0.3226256), wk =   0.0185185
        k(   19) = (   0.1666667   0.0962250   0.6452512), wk =   0.0185185
        k(   20) = (   0.1666667   0.0962250  -0.9678768), wk =   0.0185185
        k(   21) = (   0.1666667   0.6735753   0.0000000), wk =   0.0370370
        k(   22) = (   0.1666667   0.6735753   0.3226256), wk =   0.0370370
        k(   23) = (   0.1666667   0.6735753   0.6452512), wk =   0.0370370
        k(   24) = (   0.1666667   0.6735753  -0.9678768), wk =   0.0370370
        k(   25) = (   0.1666667   1.2509256   0.0000000), wk =   0.0370370
        k(   26) = (   0.1666667   1.2509256   0.3226256), wk =   0.0370370
        k(   27) = (   0.1666667   1.2509256   0.6452512), wk =   0.0370370
        k(   28) = (   0.1666667   1.2509256  -0.9678768), wk =   0.0370370
        k(   29) = (   0.1666667  -1.6358258   0.0000000), wk =   0.0370370
        k(   30) = (   0.1666667  -1.6358258   0.3226256), wk =   0.0370370
        k(   31) = (   0.1666667  -1.6358258   0.6452512), wk =   0.0370370
        k(   32) = (   0.1666667  -1.6358258  -0.9678768), wk =   0.0370370
        k(   33) = (   0.1666667  -0.4811252   0.0000000), wk =   0.0370370
        k(   34) = (   0.1666667  -0.4811252   0.3226256), wk =   0.0370370
        k(   35) = (   0.1666667  -0.4811252   0.6452512), wk =   0.0370370
        k(   36) = (   0.1666667  -0.4811252  -0.9678768), wk =   0.0370370
        k(   37) = (   0.3333333   0.1924501   0.0000000), wk =   0.0185185
        k(   38) = (   0.3333333   0.1924501   0.3226256), wk =   0.0185185
        k(   39) = (   0.3333333   0.1924501   0.6452512), wk =   0.0185185
        k(   40) = (   0.3333333   0.1924501  -0.9678768), wk =   0.0185185
        k(   41) = (   0.3333333   1.3471506   0.0000000), wk =   0.0370370
        k(   42) = (   0.3333333   1.3471506   0.3226256), wk =   0.0370370
        k(   43) = (   0.3333333   1.3471506   0.6452512), wk =   0.0370370
        k(   44) = (   0.3333333   1.3471506  -0.9678768), wk =   0.0370370
        k(   45) = (  -0.5000000  -0.2886751   0.0000000), wk =   0.0092593
        k(   46) = (  -0.5000000  -0.2886751   0.3226256), wk =   0.0185185
        k(   47) = (  -0.5000000  -0.2886751   0.6452512), wk =   0.0185185
        k(   48) = (  -0.5000000  -0.2886751  -0.9678768), wk =   0.0092593
        k(   49) = (  -0.5000000   0.8660254   0.0000000), wk =   0.0185185
        k(   50) = (  -0.5000000   0.8660254   0.3226256), wk =   0.0370370
        k(   51) = (  -0.5000000   0.8660254   0.6452512), wk =   0.0370370
        k(   52) = (  -0.5000000   0.8660254  -0.9678768), wk =   0.0185185
        k(   53) = (   0.5000000  -0.2886751  -0.3226256), wk =   0.0370370
        k(   54) = (   0.5000000  -0.2886751  -0.6452512), wk =   0.0370370
        k(   55) = (   0.1666667   0.0962250  -0.3226256), wk =   0.0185185
        k(   56) = (   0.1666667   0.0962250  -0.6452512), wk =   0.0185185
        k(   57) = (   0.6666667  -0.1924501  -0.3226256), wk =   0.0370370
        k(   58) = (   0.6666667  -0.1924501  -0.6452512), wk =   0.0370370
        k(   59) = (   1.1666667  -0.4811252  -0.3226256), wk =   0.0370370
        k(   60) = (   1.1666667  -0.4811252  -0.6452512), wk =   0.0370370
        k(   61) = (  -1.3333333   0.9622504  -0.3226256), wk =   0.0370370
        k(   62) = (  -1.3333333   0.9622504  -0.6452512), wk =   0.0370370
        k(   63) = (  -0.3333333   0.3849002  -0.3226256), wk =   0.0370370
        k(   64) = (  -0.3333333   0.3849002  -0.6452512), wk =   0.0370370
        k(   65) = (   0.3333333   0.1924501  -0.3226256), wk =   0.0185185
        k(   66) = (   0.3333333   0.1924501  -0.6452512), wk =   0.0185185
        k(   67) = (   1.3333333  -0.3849002  -0.3226256), wk =   0.0370370
        k(   68) = (   1.3333333  -0.3849002  -0.6452512), wk =   0.0370370

                       cryst. coord.
        k(    1) = (   0.0000000   0.0000000   0.0000000), wk =   0.0092593
        k(    2) = (   0.0000000   0.0000000   0.1666667), wk =   0.0185185
        k(    3) = (   0.0000000   0.0000000   0.3333333), wk =   0.0185185
        k(    4) = (   0.0000000   0.0000000  -0.5000000), wk =   0.0092593
        k(    5) = (   0.0000000   0.1666667   0.0000000), wk =   0.0370370
        k(    6) = (   0.0000000   0.1666667   0.1666667), wk =   0.0370370
        k(    7) = (   0.0000000   0.1666667   0.3333333), wk =   0.0370370
        k(    8) = (   0.0000000   0.1666667  -0.5000000), wk =   0.0370370
        k(    9) = (   0.0000000   0.3333333   0.0000000), wk =   0.0185185
        k(   10) = (   0.0000000   0.3333333   0.1666667), wk =   0.0370370
        k(   11) = (   0.0000000   0.3333333   0.3333333), wk =   0.0370370
        k(   12) = (   0.0000000   0.3333333  -0.5000000), wk =   0.0185185
        k(   13) = (   0.0000000  -0.5000000   0.0000000), wk =   0.0185185
        k(   14) = (   0.0000000  -0.5000000   0.1666667), wk =   0.0370370
        k(   15) = (   0.0000000  -0.5000000   0.3333333), wk =   0.0370370
        k(   16) = (   0.0000000  -0.5000000  -0.5000000), wk =   0.0185185
        k(   17) = (   0.1666667   0.0000000   0.0000000), wk =   0.0185185
        k(   18) = (   0.1666667   0.0000000   0.1666667), wk =   0.0185185
        k(   19) = (   0.1666667   0.0000000   0.3333333), wk =   0.0185185
        k(   20) = (   0.1666667   0.0000000  -0.5000000), wk =   0.0185185
        k(   21) = (   0.1666667   0.1666667   0.0000000), wk =   0.0370370
        k(   22) = (   0.1666667   0.1666667   0.1666667), wk =   0.0370370
        k(   23) = (   0.1666667   0.1666667   0.3333333), wk =   0.0370370
        k(   24) = (   0.1666667   0.1666667  -0.5000000), wk =   0.0370370
        k(   25) = (   0.1666667   0.3333333   0.0000000), wk =   0.0370370
        k(   26) = (   0.1666667   0.3333333   0.1666667), wk =   0.0370370
        k(   27) = (   0.1666667   0.3333333   0.3333333), wk =   0.0370370
        k(   28) = (   0.1666667   0.3333333  -0.5000000), wk =   0.0370370
        k(   29) = (   0.1666667  -0.5000000   0.0000000), wk =   0.0370370
        k(   30) = (   0.1666667  -0.5000000   0.1666667), wk =   0.0370370
        k(   31) = (   0.1666667  -0.5000000   0.3333333), wk =   0.0370370
        k(   32) = (   0.1666667  -0.5000000  -0.5000000), wk =   0.0370370
        k(   33) = (   0.1666667  -0.1666667   0.0000000), wk =   0.0370370
        k(   34) = (   0.1666667  -0.1666667   0.1666667), wk =   0.0370370
        k(   35) = (   0.1666667  -0.1666667   0.3333333), wk =   0.0370370
        k(   36) = (   0.1666667  -0.1666667  -0.5000000), wk =   0.0370370
        k(   37) = (   0.3333333   0.0000000   0.0000000), wk =   0.0185185
        k(   38) = (   0.3333333   0.0000000   0.1666667), wk =   0.0185185
        k(   39) = (   0.3333333   0.0000000   0.3333333), wk =   0.0185185
        k(   40) = (   0.3333333   0.0000000  -0.5000000), wk =   0.0185185
        k(   41) = (   0.3333333   0.3333333   0.0000000), wk =   0.0370370
        k(   42) = (   0.3333333   0.3333333   0.1666667), wk =   0.0370370
        k(   43) = (   0.3333333   0.3333333   0.3333333), wk =   0.0370370
        k(   44) = (   0.3333333   0.3333333  -0.5000000), wk =   0.0370370
        k(   45) = (  -0.5000000   0.0000000   0.0000000), wk =   0.0092593
        k(   46) = (  -0.5000000   0.0000000   0.1666667), wk =   0.0185185
        k(   47) = (  -0.5000000   0.0000000   0.3333333), wk =   0.0185185
        k(   48) = (  -0.5000000   0.0000000  -0.5000000), wk =   0.0092593
        k(   49) = (  -0.5000000   0.3333333   0.0000000), wk =   0.0185185
        k(   50) = (  -0.5000000   0.3333333   0.1666667), wk =   0.0370370
        k(   51) = (  -0.5000000   0.3333333   0.3333333), wk =   0.0370370
        k(   52) = (  -0.5000000   0.3333333  -0.5000000), wk =   0.0185185
        k(   53) = (   0.5000000  -0.1666667  -0.1666667), wk =   0.0370370
        k(   54) = (   0.5000000  -0.1666667  -0.3333333), wk =   0.0370370
        k(   55) = (   0.1666667   0.0000000  -0.1666667), wk =   0.0185185
        k(   56) = (   0.1666667   0.0000000  -0.3333333), wk =   0.0185185
        k(   57) = (   0.6666667  -0.1666667  -0.1666667), wk =   0.0370370
        k(   58) = (   0.6666667  -0.1666667  -0.3333333), wk =   0.0370370
        k(   59) = (   1.1666667  -0.3333333  -0.1666667), wk =   0.0370370
        k(   60) = (   1.1666667  -0.3333333  -0.3333333), wk =   0.0370370
        k(   61) = (  -1.3333333   0.5000000  -0.1666667), wk =   0.0370370
        k(   62) = (  -1.3333333   0.5000000  -0.3333333), wk =   0.0370370
        k(   63) = (  -0.3333333   0.1666667  -0.1666667), wk =   0.0370370
        k(   64) = (  -0.3333333   0.1666667  -0.3333333), wk =   0.0370370
        k(   65) = (   0.3333333   0.0000000  -0.1666667), wk =   0.0185185
        k(   66) = (   0.3333333   0.0000000  -0.3333333), wk =   0.0185185
        k(   67) = (   1.3333333  -0.3333333  -0.1666667), wk =   0.0370370
        k(   68) = (   1.3333333  -0.3333333  -0.3333333), wk =   0.0370370

     Check: negative core charge=   -0.000001

     Initial potential from superposition of free atoms

     starting charge     107.9776, renormalised to     108.0000
     Starting wfcs are   78 randomized atomic wfcs

     Self-consistent Calculation

     iteration #  1     ecut=    50.00 Ry     beta= 0.30
     Davidson diagonalization with overlap

     ethr =  1.00E-02,  avg # of iterations =  2.2

     total energy              =   -1083.99411863 Ry
     estimated scf accuracy    <       2.05583805 Ry

[...]

     total energy              =   -1084.38503929 Ry
     estimated scf accuracy    <       0.00000201 Ry

     iteration # 24     ecut=    50.00 Ry     beta= 0.30
     Davidson diagonalization with overlap

     ethr =  2.73E-11,  avg # of iterations = 11.6

     End of self-consistent calculation

          k = 0.0000 0.0000 0.0000 (  4405 PWs)   bands (ev):

    -8.7528  -7.9874  -7.9874  -7.4479  -7.2301  -7.2301   3.8101   3.8101
     3.9493   4.3083   4.3083   4.4918   4.4920   4.5655   4.7819   4.7819
     4.8097   4.8098   4.8409   4.8410   5.3097   5.3097   5.4007   5.4007
     6.3515   6.3516   6.5639   6.5640   6.7027   6.7027   6.8894   6.8894
     6.9864   6.9864   7.0570   7.0570   7.3850   7.6516   7.6516   8.0541
     8.0541   9.1248   9.1248   9.3354   9.3354  10.6186  10.6188  10.8016
    10.8016  11.0587  11.0587  11.8056  11.8895  11.8897

     occupation numbers
     1.0000   1.0000   1.0000   1.0000   1.0000   1.0000   1.0000   1.0000
     1.0000   1.0000   1.0000   1.0000   1.0000   1.0000   1.0000   1.0000
     1.0000   1.0000   1.0000   1.0000   1.0000   1.0000   1.0000   1.0000
     1.0000   1.0000   1.0000   1.0000   1.0000   1.0000   1.0000   1.0000
     1.0000   1.0000   1.0000   1.0000   1.0000   1.0000   1.0000   1.0000
     1.0000   1.0000   1.0000   1.0000   1.0000   1.0000   1.0000   1.0000
     1.0000   1.0000   1.0000   1.0000   1.0000   1.0000

[...]

          k =-0.5000-0.2887 0.0000 (  4440 PWs)   bands (ev):

[...]

          k =-0.3333 0.3849-0.6453 (  4419 PWs)   bands (ev):

[...]

          k = 1.3333-0.3849-0.6453 (  4407 PWs)   bands (ev):

    -7.8958  -7.6135  -7.4595  -7.4397  -7.3340  -7.2931   3.6373   3.7139
     3.7414   3.7897   3.8916   3.9359   4.6266   4.7301   4.7851   4.7936
     4.8221   4.8952   4.9798   5.1252   5.1947   5.3279   5.3974   5.4494
     6.6304   6.6386   6.6933   6.7619   6.7756   6.8621   6.9534   7.0068
     7.0357   7.1424   7.1461   7.3582   7.5142   7.7334   7.8860   8.2384
     8.2869   8.4541   9.0253   9.0487   9.2919   9.3844   9.4356   9.6968
     9.7809  10.1475  10.3807  10.6128  10.6211  10.8697

     occupation numbers
     1.0000   1.0000   1.0000   1.0000   1.0000   1.0000   1.0000   1.0000
     1.0000   1.0000   1.0000   1.0000   1.0000   1.0000   1.0000   1.0000
     1.0000   1.0000   1.0000   1.0000   1.0000   1.0000   1.0000   1.0000
     1.0000   1.0000   1.0000   1.0000   1.0000   1.0000   1.0000   1.0000
     1.0000   1.0000   1.0000   1.0000   1.0000   1.0000   1.0000   1.0000
     1.0000   1.0000   1.0000   1.0000   1.0000   1.0000   1.0000   1.0000
     1.0000   1.0000   1.0000   1.0000   1.0000   1.0000

     highest occupied level (ev):    11.8897

!    total energy              =   -1084.38503962 Ry
     estimated scf accuracy    <          9.3E-09 Ry

     The total energy is the sum of the following terms:
     one-electron contribution =    -360.29741013 Ry
     hartree contribution      =     319.69461134 Ry
     xc contribution           =    -330.78077604 Ry
     ewald contribution        =    -713.00146479 Ry

     convergence has been achieved in  24 iterations

     Forces acting on atoms (cartesian axes, Ry/au):

     atom    1 type  1   force =     0.00001988    0.00001148   -0.04883106
     atom    2 type  1   force =     0.00000832    0.00000480   -0.04881635
     atom    3 type  2   force =    -0.00000301   -0.00000174    0.04882427
     atom    4 type  2   force =     0.00000075    0.00000043    0.04882375
     atom    5 type  1   force =    -0.00000084   -0.00000048   -0.04883301
     atom    6 type  1   force =    -0.00002667   -0.00001540   -0.04881801
     atom    7 type  2   force =    -0.00000254   -0.00000147    0.04882335
     atom    8 type  2   force =     0.00000066    0.00000038    0.04882394
     atom    9 type  1   force =     0.00001574    0.00000909   -0.04883973
     atom   10 type  1   force =    -0.00001209   -0.00000698   -0.04880554
     atom   11 type  2   force =    -0.00000234   -0.00000135    0.04882435
     atom   12 type  2   force =     0.00000214    0.00000124    0.04882404
     The non-local contrib.  to forces
     atom    1 type  1   force =    -0.00001807   -0.00001043   -0.14256084
     atom    2 type  1   force =     0.00003308    0.00001910   -0.14255556
     atom    3 type  2   force =    -0.00015745   -0.00009091   -0.08206693
     atom    4 type  2   force =     0.00015135    0.00008738   -0.08207237
     atom    5 type  1   force =    -0.00003169   -0.00001830   -0.14256146
     atom    6 type  1   force =     0.00001774    0.00001024   -0.14255623
     atom    7 type  2   force =    -0.00014836   -0.00008566   -0.08206862
     atom    8 type  2   force =     0.00015623    0.00009020   -0.08207072
     atom    9 type  1   force =    -0.00002504   -0.00001445   -0.14256403
     atom   10 type  1   force =     0.00002347    0.00001355   -0.14255243
     atom   11 type  2   force =    -0.00015311   -0.00008840   -0.08206796
     atom   12 type  2   force =     0.00015765    0.00009102   -0.08206998
     The ionic contribution  to forces
     atom    1 type  1   force =     0.00000001    0.00000001   -0.94432878
     atom    2 type  1   force =     0.00000001    0.00000000   -0.94432879
     atom    3 type  2   force =     0.00000000    0.00000000    0.94432878
     atom    4 type  2   force =     0.00000001    0.00000000    0.94432879
     atom    5 type  1   force =    -0.00000001    0.00000000   -0.94432879
     atom    6 type  1   force =     0.00000001   -0.00000000   -0.94432879
     atom    7 type  2   force =    -0.00000001    0.00000001    0.94432879
     atom    8 type  2   force =     0.00000001   -0.00000001    0.94432879
     atom    9 type  1   force =    -0.00000001   -0.00000000   -0.94432879
     atom   10 type  1   force =    -0.00000001   -0.00000001   -0.94432878
     atom   11 type  2   force =    -0.00000001   -0.00000000    0.94432879
     atom   12 type  2   force =    -0.00000000   -0.00000000    0.94432878
     The local contribution  to forces
     atom    1 type  1   force =     0.00002625    0.00001516    1.02395794
     atom    2 type  1   force =    -0.00007177   -0.00004148    1.02393420
     atom    3 type  2   force =     0.00014461    0.00008349   -0.81388425
     atom    4 type  2   force =    -0.00015522   -0.00008963   -0.81387557
     atom    5 type  1   force =     0.00006265    0.00003626    1.02396366
     atom    6 type  1   force =    -0.00002455   -0.00001426    1.02393225
     atom    7 type  2   force =     0.00015518    0.00008961   -0.81387410
     atom    8 type  2   force =    -0.00014334   -0.00008278   -0.81387733
     atom    9 type  1   force =     0.00004340    0.00002510    1.02397348
     atom   10 type  1   force =    -0.00003810   -0.00002200    1.02392088
     atom   11 type  2   force =     0.00014723    0.00008502   -0.81387535
     atom   12 type  2   force =    -0.00016357   -0.00009444   -0.81387486
     The core correction contribution to forces
     atom    1 type  1   force =    -0.00000289   -0.00000167    0.01413282
     atom    2 type  1   force =     0.00000328    0.00000189    0.01413334
     atom    3 type  2   force =     0.00000178    0.00000103    0.00042738
     atom    4 type  2   force =    -0.00000171   -0.00000099    0.00042748
     atom    5 type  1   force =    -0.00000317   -0.00000182    0.01413256
     atom    6 type  1   force =     0.00000298    0.00000171    0.01413358
     atom    7 type  2   force =     0.00000166    0.00000096    0.00042744
     atom    8 type  2   force =    -0.00000175   -0.00000101    0.00042745
     atom    9 type  1   force =    -0.00000314   -0.00000181    0.01413242
     atom   10 type  1   force =     0.00000273    0.00000158    0.01413350
     atom   11 type  2   force =     0.00000171    0.00000099    0.00042742
     atom   12 type  2   force =    -0.00000183   -0.00000106    0.00042745
     The Hubbard contrib.    to forces
     atom    1 type  1   force =     0.00000000    0.00000000    0.00000000
     atom    2 type  1   force =     0.00000000    0.00000000    0.00000000
     atom    3 type  2   force =     0.00000000    0.00000000    0.00000000
     atom    4 type  2   force =     0.00000000    0.00000000    0.00000000
     atom    5 type  1   force =     0.00000000    0.00000000    0.00000000
     atom    6 type  1   force =     0.00000000    0.00000000    0.00000000
     atom    7 type  2   force =     0.00000000    0.00000000    0.00000000
     atom    8 type  2   force =     0.00000000    0.00000000    0.00000000
     atom    9 type  1   force =     0.00000000    0.00000000    0.00000000
     atom   10 type  1   force =     0.00000000    0.00000000    0.00000000
     atom   11 type  2   force =     0.00000000    0.00000000    0.00000000
     atom   12 type  2   force =     0.00000000    0.00000000    0.00000000
     The SCF correction term to forces
     atom    1 type  1   force =     0.00001573    0.00000908   -0.00004081
     atom    2 type  1   force =     0.00004490    0.00002592   -0.00000815
     atom    3 type  2   force =     0.00000921    0.00000532    0.00001067
     atom    4 type  2   force =     0.00000748    0.00000432    0.00000682
     atom    5 type  1   force =    -0.00002750   -0.00001588   -0.00004759
     atom    6 type  1   force =    -0.00002165   -0.00001250   -0.00000744
     atom    7 type  2   force =    -0.00000987   -0.00000570    0.00000124
     atom    8 type  2   force =    -0.00000932   -0.00000538    0.00000714
     atom    9 type  1   force =     0.00000166    0.00000096   -0.00006143
     atom   10 type  1   force =     0.00000097    0.00000056    0.00001269
     atom   11 type  2   force =     0.00000298    0.00000172    0.00000285
     atom   12 type  2   force =     0.00001105    0.00000638    0.00000405

     Total force =     0.169131     Total SCF correction =     0.000116

     General routines

     Parallel routines

   This run was terminated on:  13:26: 4  27Aug2025

   JOB DONE.