     Program PWSCF v.7.0 starts on 28Aug2025 at  2:52:13

     K-points division:     npool     =      17

     Reading input from /home/jvc/QEspresso7.2/ZnO_database/scripts/cell311.in/ZnO-3.53-1.45-311.in
Warning: card &CELL ignored
Warning: card / ignored
Warning: card &FCP ignored
Warning: card / ignored
Warning: card &RISM ignored
Warning: card / ignored

     Current dimensions of program PWSCF are:
     Max number of different atomic species (ntypx) = 10
     Max number of k-points (npk) =  40000
     Max angular momentum in pseudopotentials (lmaxx) =  4
     file Zn.upf: wavefunction(s)  3D renormalized
     Found identity + (  0.3333  0.0000  0.0000) symmetry
     This is a supercell, fractional translations are disabled
     Message from routine setup:
     using ibrav=0 with symmetry is DISCOURAGED, use correct ibrav instead

     Subspace diagonalization in iterative solution of the eigenvalue problem:
     a serial algorithm will be used

     Using Slab Decomposition

     bravais-lattice index     =            0
     lattice parameter (alat)  =      20.0195  a.u.
     unit-cell volume          =    1121.7328 (a.u.)^3
     number of atoms/cell      =           12
     number of atomic types    =            2
     number of electrons       =       108.00
     number of Kohn-Sham states=           54
     kinetic-energy cutoff     =      50.0000  Ry
     charge density cutoff     =     400.0000  Ry
     scf convergence threshold =      1.0E-08
     mixing beta               =       0.3000
     number of iterations used =            8  plain     mixing
     Exchange-correlation= PBE
                           (   1   4   3   4   0   0   0)

     celldm(1)=  20.019487  celldm(2)=   0.000000  celldm(3)=   0.000000
     celldm(4)=   0.000000  celldm(5)=   0.000000  celldm(6)=   0.000000

     crystal axes: (cart. coord. in units of alat)
               a(1) = (   1.000000   0.000000   0.000000 )
               a(2) = (  -0.166667   0.288675   0.000000 )
               a(3) = (   0.000000   0.000000   0.484308 )

     reciprocal axes: (cart. coord. in units 2 pi/alat)
               b(1) = (  1.000000  0.577350 -0.000000 )
               b(2) = (  0.000000  3.464102  0.000000 )
               b(3) = (  0.000000 -0.000000  2.064804 )

     PseudoPot. # 1 for Zn read from file:
     /home/jvc/QEspresso7.2/ZnO_database/pseudos/Zn.upf
     MD5 check sum: 7f56cabf9682ed8c977c2f7d0c5985c5
     Pseudo is Ultrasoft + core correction, Zval = 12.0
     Generated using &quot;atomic&quot; code by A. Dal Corso  v.6.2.2
     Using radial grid of 1201 points,  6 beta functions with:
                l(1) =   0
                l(2) =   0
                l(3) =   1
                l(4) =   1
                l(5) =   2
                l(6) =   2
     Q(r) pseudized with 0 coefficients

     PseudoPot. # 2 for O  read from file:
     /home/jvc/QEspresso7.2/ZnO_database/pseudos/O.upf
     MD5 check sum: 91400c9766925bcf19f520983a725ff0
     Pseudo is Ultrasoft + core correction, Zval =  6.0
     Generated using &quot;atomic&quot; code by A. Dal Corso  v.6.3MaX
     Using radial grid of 1095 points,  4 beta functions with:
                l(1) =   0
                l(2) =   0
                l(3) =   1
                l(4) =   1
     Q(r) pseudized with 0 coefficients

     atomic species   valence    mass     pseudopotential
        Zn            12.00    65.38000     Zn( 1.00)
        O              6.00    15.99900     O ( 1.00)

      2 Sym. Ops. (no inversion) found

                                    s                        frac. trans.

      isym =  1     identity

 cryst.   s( 1) = (     1          0          0      )
                  (     0          1          0      )
                  (     0          0          1      )

 cart.    s( 1) = (  1.0000000  0.0000000  0.0000000 )
                  (  0.0000000  1.0000000  0.0000000 )
                  (  0.0000000  0.0000000  1.0000000 )

      isym =  2     inv. 180 deg rotation - cryst. axis [0,1,0]

 cryst.   s( 2) = (     1          3          0      )
                  (     0         -1          0      )
                  (     0          0          1      )

 cart.    s( 2) = (  0.5000000  0.8660254  0.0000000 )
                  (  0.8660254 -0.5000000  0.0000000 )
                  (  0.0000000  0.0000000  1.0000000 )

   Cartesian axes

     site n.     atom                  positions (alat units)
         1           Zn  tau(   1) = (   0.1666667   0.0962250   0.2424606  )
         2           Zn  tau(   2) = (  -0.0000000   0.1924501   0.0003069  )
         3           O   tau(   3) = (   0.1666667   0.0962250   0.4260339  )
         4           O   tau(   4) = (  -0.0000000   0.1924501   0.1838801  )
         5           Zn  tau(   5) = (   0.5000000   0.0962250   0.2424606  )
         6           Zn  tau(   6) = (   0.3333333   0.1924501   0.0003069  )
         7           O   tau(   7) = (   0.5000000   0.0962250   0.4260339  )
         8           O   tau(   8) = (   0.3333333   0.1924501   0.1838801  )
         9           Zn  tau(   9) = (   0.8333333   0.0962250   0.2424606  )
        10           Zn  tau(  10) = (   0.6666667   0.1924501   0.0003069  )
        11           O   tau(  11) = (   0.8333333   0.0962250   0.4260339  )
        12           O   tau(  12) = (   0.6666667   0.1924501   0.1838801  )

   Crystallographic axes

     site n.     atom                  positions (cryst. coord.)
         1           Zn  tau(   1) = (  0.2222222  0.3333333  0.5006336  )
         2           Zn  tau(   2) = (  0.1111111  0.6666667  0.0006336  )
         3           O   tau(   3) = (  0.2222222  0.3333333  0.8796764  )
         4           O   tau(   4) = (  0.1111111  0.6666667  0.3796764  )
         5           Zn  tau(   5) = (  0.5555556  0.3333333  0.5006336  )
         6           Zn  tau(   6) = (  0.4444444  0.6666667  0.0006336  )
         7           O   tau(   7) = (  0.5555556  0.3333333  0.8796764  )
         8           O   tau(   8) = (  0.4444444  0.6666667  0.3796764  )
         9           Zn  tau(   9) = (  0.8888889  0.3333333  0.5006336  )
        10           Zn  tau(  10) = (  0.7777778  0.6666667  0.0006336  )
        11           O   tau(  11) = (  0.8888889  0.3333333  0.8796764  )
        12           O   tau(  12) = (  0.7777778  0.6666667  0.3796764  )

     number of k points=    68
                       cart. coord. in units 2pi/alat
        k(    1) = (   0.0000000   0.0000000   0.0000000), wk =   0.0092593
        k(    2) = (   0.0000000   0.0000000   0.3441340), wk =   0.0185185
        k(    3) = (   0.0000000   0.0000000   0.6882679), wk =   0.0185185
        k(    4) = (   0.0000000   0.0000000  -1.0324019), wk =   0.0092593
        k(    5) = (   0.0000000   0.5773503   0.0000000), wk =   0.0370370
        k(    6) = (   0.0000000   0.5773503   0.3441340), wk =   0.0370370
        k(    7) = (   0.0000000   0.5773503   0.6882679), wk =   0.0370370
        k(    8) = (   0.0000000   0.5773503  -1.0324019), wk =   0.0370370
        k(    9) = (   0.0000000   1.1547005   0.0000000), wk =   0.0185185
        k(   10) = (   0.0000000   1.1547005   0.3441340), wk =   0.0370370
        k(   11) = (   0.0000000   1.1547005   0.6882679), wk =   0.0370370
        k(   12) = (   0.0000000   1.1547005  -1.0324019), wk =   0.0185185
        k(   13) = (   0.0000000  -1.7320508   0.0000000), wk =   0.0185185
        k(   14) = (   0.0000000  -1.7320508   0.3441340), wk =   0.0370370
        k(   15) = (   0.0000000  -1.7320508   0.6882679), wk =   0.0370370
        k(   16) = (   0.0000000  -1.7320508  -1.0324019), wk =   0.0185185
        k(   17) = (   0.1666667   0.0962250   0.0000000), wk =   0.0185185
        k(   18) = (   0.1666667   0.0962250   0.3441340), wk =   0.0185185
        k(   19) = (   0.1666667   0.0962250   0.6882679), wk =   0.0185185
        k(   20) = (   0.1666667   0.0962250  -1.0324019), wk =   0.0185185
        k(   21) = (   0.1666667   0.6735753   0.0000000), wk =   0.0370370
        k(   22) = (   0.1666667   0.6735753   0.3441340), wk =   0.0370370
        k(   23) = (   0.1666667   0.6735753   0.6882679), wk =   0.0370370
        k(   24) = (   0.1666667   0.6735753  -1.0324019), wk =   0.0370370
        k(   25) = (   0.1666667   1.2509256   0.0000000), wk =   0.0370370
        k(   26) = (   0.1666667   1.2509256   0.3441340), wk =   0.0370370
        k(   27) = (   0.1666667   1.2509256   0.6882679), wk =   0.0370370
        k(   28) = (   0.1666667   1.2509256  -1.0324019), wk =   0.0370370
        k(   29) = (   0.1666667  -1.6358258   0.0000000), wk =   0.0370370
        k(   30) = (   0.1666667  -1.6358258   0.3441340), wk =   0.0370370
        k(   31) = (   0.1666667  -1.6358258   0.6882679), wk =   0.0370370
        k(   32) = (   0.1666667  -1.6358258  -1.0324019), wk =   0.0370370
        k(   33) = (   0.1666667  -0.4811252   0.0000000), wk =   0.0370370
        k(   34) = (   0.1666667  -0.4811252   0.3441340), wk =   0.0370370
        k(   35) = (   0.1666667  -0.4811252   0.6882679), wk =   0.0370370
        k(   36) = (   0.1666667  -0.4811252  -1.0324019), wk =   0.0370370
        k(   37) = (   0.3333333   0.1924501   0.0000000), wk =   0.0185185
        k(   38) = (   0.3333333   0.1924501   0.3441340), wk =   0.0185185
        k(   39) = (   0.3333333   0.1924501   0.6882679), wk =   0.0185185
        k(   40) = (   0.3333333   0.1924501  -1.0324019), wk =   0.0185185
        k(   41) = (   0.3333333   1.3471506   0.0000000), wk =   0.0370370
        k(   42) = (   0.3333333   1.3471506   0.3441340), wk =   0.0370370
        k(   43) = (   0.3333333   1.3471506   0.6882679), wk =   0.0370370
        k(   44) = (   0.3333333   1.3471506  -1.0324019), wk =   0.0370370
        k(   45) = (  -0.5000000  -0.2886751   0.0000000), wk =   0.0092593
        k(   46) = (  -0.5000000  -0.2886751   0.3441340), wk =   0.0185185
        k(   47) = (  -0.5000000  -0.2886751   0.6882679), wk =   0.0185185
        k(   48) = (  -0.5000000  -0.2886751  -1.0324019), wk =   0.0092593
        k(   49) = (  -0.5000000   0.8660254   0.0000000), wk =   0.0185185
        k(   50) = (  -0.5000000   0.8660254   0.3441340), wk =   0.0370370
        k(   51) = (  -0.5000000   0.8660254   0.6882679), wk =   0.0370370
        k(   52) = (  -0.5000000   0.8660254  -1.0324019), wk =   0.0185185
        k(   53) = (   0.5000000  -0.2886751  -0.3441340), wk =   0.0370370
        k(   54) = (   0.5000000  -0.2886751  -0.6882679), wk =   0.0370370
        k(   55) = (   0.1666667   0.0962250  -0.3441340), wk =   0.0185185
        k(   56) = (   0.1666667   0.0962250  -0.6882679), wk =   0.0185185
        k(   57) = (   0.6666667  -0.1924501  -0.3441340), wk =   0.0370370
        k(   58) = (   0.6666667  -0.1924501  -0.6882679), wk =   0.0370370
        k(   59) = (   1.1666667  -0.4811252  -0.3441340), wk =   0.0370370
        k(   60) = (   1.1666667  -0.4811252  -0.6882679), wk =   0.0370370
        k(   61) = (  -1.3333333   0.9622504  -0.3441340), wk =   0.0370370
        k(   62) = (  -1.3333333   0.9622504  -0.6882679), wk =   0.0370370
        k(   63) = (  -0.3333333   0.3849002  -0.3441340), wk =   0.0370370
        k(   64) = (  -0.3333333   0.3849002  -0.6882679), wk =   0.0370370
        k(   65) = (   0.3333333   0.1924501  -0.3441340), wk =   0.0185185
        k(   66) = (   0.3333333   0.1924501  -0.6882679), wk =   0.0185185
        k(   67) = (   1.3333333  -0.3849002  -0.3441340), wk =   0.0370370
        k(   68) = (   1.3333333  -0.3849002  -0.6882679), wk =   0.0370370

                       cryst. coord.
        k(    1) = (   0.0000000   0.0000000   0.0000000), wk =   0.0092593
        k(    2) = (   0.0000000   0.0000000   0.1666667), wk =   0.0185185
        k(    3) = (   0.0000000   0.0000000   0.3333333), wk =   0.0185185
        k(    4) = (   0.0000000   0.0000000  -0.5000000), wk =   0.0092593
        k(    5) = (   0.0000000   0.1666667   0.0000000), wk =   0.0370370
        k(    6) = (   0.0000000   0.1666667   0.1666667), wk =   0.0370370
        k(    7) = (   0.0000000   0.1666667   0.3333333), wk =   0.0370370
        k(    8) = (   0.0000000   0.1666667  -0.5000000), wk =   0.0370370
        k(    9) = (   0.0000000   0.3333333   0.0000000), wk =   0.0185185
        k(   10) = (   0.0000000   0.3333333   0.1666667), wk =   0.0370370
        k(   11) = (   0.0000000   0.3333333   0.3333333), wk =   0.0370370
        k(   12) = (   0.0000000   0.3333333  -0.5000000), wk =   0.0185185
        k(   13) = (   0.0000000  -0.5000000   0.0000000), wk =   0.0185185
        k(   14) = (   0.0000000  -0.5000000   0.1666667), wk =   0.0370370
        k(   15) = (   0.0000000  -0.5000000   0.3333333), wk =   0.0370370
        k(   16) = (   0.0000000  -0.5000000  -0.5000000), wk =   0.0185185
        k(   17) = (   0.1666667   0.0000000   0.0000000), wk =   0.0185185
        k(   18) = (   0.1666667   0.0000000   0.1666667), wk =   0.0185185
        k(   19) = (   0.1666667   0.0000000   0.3333333), wk =   0.0185185
        k(   20) = (   0.1666667   0.0000000  -0.5000000), wk =   0.0185185
        k(   21) = (   0.1666667   0.1666667   0.0000000), wk =   0.0370370
        k(   22) = (   0.1666667   0.1666667   0.1666667), wk =   0.0370370
        k(   23) = (   0.1666667   0.1666667   0.3333333), wk =   0.0370370
        k(   24) = (   0.1666667   0.1666667  -0.5000000), wk =   0.0370370
        k(   25) = (   0.1666667   0.3333333   0.0000000), wk =   0.0370370
        k(   26) = (   0.1666667   0.3333333   0.1666667), wk =   0.0370370
        k(   27) = (   0.1666667   0.3333333   0.3333333), wk =   0.0370370
        k(   28) = (   0.1666667   0.3333333  -0.5000000), wk =   0.0370370
        k(   29) = (   0.1666667  -0.5000000   0.0000000), wk =   0.0370370
        k(   30) = (   0.1666667  -0.5000000   0.1666667), wk =   0.0370370
        k(   31) = (   0.1666667  -0.5000000   0.3333333), wk =   0.0370370
        k(   32) = (   0.1666667  -0.5000000  -0.5000000), wk =   0.0370370
        k(   33) = (   0.1666667  -0.1666667   0.0000000), wk =   0.0370370
        k(   34) = (   0.1666667  -0.1666667   0.1666667), wk =   0.0370370
        k(   35) = (   0.1666667  -0.1666667   0.3333333), wk =   0.0370370
        k(   36) = (   0.1666667  -0.1666667  -0.5000000), wk =   0.0370370
        k(   37) = (   0.3333333   0.0000000   0.0000000), wk =   0.0185185
        k(   38) = (   0.3333333   0.0000000   0.1666667), wk =   0.0185185
        k(   39) = (   0.3333333   0.0000000   0.3333333), wk =   0.0185185
        k(   40) = (   0.3333333   0.0000000  -0.5000000), wk =   0.0185185
        k(   41) = (   0.3333333   0.3333333   0.0000000), wk =   0.0370370
        k(   42) = (   0.3333333   0.3333333   0.1666667), wk =   0.0370370
        k(   43) = (   0.3333333   0.3333333   0.3333333), wk =   0.0370370
        k(   44) = (   0.3333333   0.3333333  -0.5000000), wk =   0.0370370
        k(   45) = (  -0.5000000  -0.0000000   0.0000000), wk =   0.0092593
        k(   46) = (  -0.5000000  -0.0000000   0.1666667), wk =   0.0185185
        k(   47) = (  -0.5000000  -0.0000000   0.3333333), wk =   0.0185185
        k(   48) = (  -0.5000000  -0.0000000  -0.5000000), wk =   0.0092593
        k(   49) = (  -0.5000000   0.3333333   0.0000000), wk =   0.0185185
        k(   50) = (  -0.5000000   0.3333333   0.1666667), wk =   0.0370370
        k(   51) = (  -0.5000000   0.3333333   0.3333333), wk =   0.0370370
        k(   52) = (  -0.5000000   0.3333333  -0.5000000), wk =   0.0185185
        k(   53) = (   0.5000000  -0.1666667  -0.1666667), wk =   0.0370370
        k(   54) = (   0.5000000  -0.1666667  -0.3333333), wk =   0.0370370
        k(   55) = (   0.1666667   0.0000000  -0.1666667), wk =   0.0185185
        k(   56) = (   0.1666667   0.0000000  -0.3333333), wk =   0.0185185
        k(   57) = (   0.6666667  -0.1666667  -0.1666667), wk =   0.0370370
        k(   58) = (   0.6666667  -0.1666667  -0.3333333), wk =   0.0370370
        k(   59) = (   1.1666667  -0.3333333  -0.1666667), wk =   0.0370370
        k(   60) = (   1.1666667  -0.3333333  -0.3333333), wk =   0.0370370
        k(   61) = (  -1.3333333   0.5000000  -0.1666667), wk =   0.0370370
        k(   62) = (  -1.3333333   0.5000000  -0.3333333), wk =   0.0370370
        k(   63) = (  -0.3333333   0.1666667  -0.1666667), wk =   0.0370370
        k(   64) = (  -0.3333333   0.1666667  -0.3333333), wk =   0.0370370
        k(   65) = (   0.3333333   0.0000000  -0.1666667), wk =   0.0185185
        k(   66) = (   0.3333333   0.0000000  -0.3333333), wk =   0.0185185
        k(   67) = (   1.3333333  -0.3333333  -0.1666667), wk =   0.0370370
        k(   68) = (   1.3333333  -0.3333333  -0.3333333), wk =   0.0370370

     Check: negative core charge=   -0.000002

     Initial potential from superposition of free atoms

     starting charge     107.9776, renormalised to     108.0000
     Starting wfcs are   78 randomized atomic wfcs

     Self-consistent Calculation

     iteration #  1     ecut=    50.00 Ry     beta= 0.30
     Davidson diagonalization with overlap

     ethr =  1.00E-02,  avg # of iterations =  1.8

     total energy              =   -1084.28119054 Ry
     estimated scf accuracy    <       2.27587046 Ry

[...]

     total energy              =   -1084.81838710 Ry
     estimated scf accuracy    <       0.00000009 Ry

     iteration # 28     ecut=    50.00 Ry     beta= 0.30
     Davidson diagonalization with overlap

     ethr =  1.89E-11,  avg # of iterations =  5.3

     End of self-consistent calculation

          k = 0.0000 0.0000 0.0000 (  6701 PWs)   bands (ev):

   -11.8558 -11.5436 -11.5436 -11.2172 -11.1769 -11.1769  -0.0373  -0.0373
     0.0652   0.0990   0.0993   0.2105   0.2105   0.2425   0.2425   0.2931
     0.2932   0.3740   0.3740   0.5818   0.5818   0.6589   0.6589   0.7868
     0.8062   0.8063   0.8566   0.8566   0.8717   0.8717   1.0038   1.0039
     1.0361   1.0361   1.1483   1.1626   1.1626   1.7063   1.7063   2.4612
     2.4612   3.1324   3.1324   3.4144   3.4144   4.2560   4.2564   4.5429
     4.5429   4.7537   4.7537   5.1195   5.1199   5.1887

     occupation numbers
     1.0000   1.0000   1.0000   1.0000   1.0000   1.0000   1.0000   1.0000
     1.0000   1.0000   1.0000   1.0000   1.0000   1.0000   1.0000   1.0000
     1.0000   1.0000   1.0000   1.0000   1.0000   1.0000   1.0000   1.0000
     1.0000   1.0000   1.0000   1.0000   1.0000   1.0000   1.0000   1.0000
     1.0000   1.0000   1.0000   1.0000   1.0000   1.0000   1.0000   1.0000
     1.0000   1.0000   1.0000   1.0000   1.0000   1.0000   1.0000   1.0000
     1.0000   1.0000   1.0000   1.0000   1.0000   1.0000

[...]

          k =-0.5000-0.2887 0.0000 (  6708 PWs)   bands (ev):

[...]

          k =-0.3333 0.3849-0.6883 (  6706 PWs)   bands (ev):

[...]

          k = 1.3333-0.3849-0.6883 (  6694 PWs)   bands (ev):

   -11.4865 -11.3790 -11.3100 -11.2761 -11.2437 -11.2386  -0.1271  -0.1205
    -0.0272  -0.0166  -0.0089   0.0444   0.2227   0.2378   0.2668   0.2832
     0.3438   0.3558   0.4210   0.4402   0.4449   0.5223   0.5257   0.5674
     0.8750   0.8819   0.9063   0.9073   0.9133   0.9403   0.9931   1.0146
     1.0472   1.0903   1.0935   1.1521   1.8349   1.8953   2.0573   2.2595
     2.2599   2.7601   2.8151   3.3786   3.6988   3.7358   3.8007   3.8221
     4.0469   4.1672   4.4064   4.4680   4.5927   4.7286

     occupation numbers
     1.0000   1.0000   1.0000   1.0000   1.0000   1.0000   1.0000   1.0000
     1.0000   1.0000   1.0000   1.0000   1.0000   1.0000   1.0000   1.0000
     1.0000   1.0000   1.0000   1.0000   1.0000   1.0000   1.0000   1.0000
     1.0000   1.0000   1.0000   1.0000   1.0000   1.0000   1.0000   1.0000
     1.0000   1.0000   1.0000   1.0000   1.0000   1.0000   1.0000   1.0000
     1.0000   1.0000   1.0000   1.0000   1.0000   1.0000   1.0000   1.0000
     1.0000   1.0000   1.0000   1.0000   1.0000   1.0000

     highest occupied level (ev):     5.1887

!    total energy              =   -1084.81838711 Ry
     estimated scf accuracy    <          2.7E-09 Ry

     The total energy is the sum of the following terms:
     one-electron contribution =    -510.41622098 Ry
     hartree contribution      =     372.33730359 Ry
     xc contribution           =    -327.96541299 Ry
     ewald contribution        =    -618.77405672 Ry

     convergence has been achieved in  28 iterations

     Forces acting on atoms (cartesian axes, Ry/au):

     atom    1 type  1   force =     0.00000014    0.00000008   -0.02243013
     atom    2 type  1   force =    -0.00000860   -0.00000497   -0.02242796
     atom    3 type  2   force =    -0.00000001   -0.00000001    0.02242804
     atom    4 type  2   force =     0.00000001    0.00000001    0.02242772
     atom    5 type  1   force =    -0.00000117   -0.00000068   -0.02242848
     atom    6 type  1   force =    -0.00001211   -0.00000699   -0.02242514
     atom    7 type  2   force =    -0.00000045   -0.00000026    0.02242854
     atom    8 type  2   force =     0.00000021    0.00000012    0.02242793
     atom    9 type  1   force =     0.00001516    0.00000875   -0.02242834
     atom   10 type  1   force =     0.00000647    0.00000374   -0.02242809
     atom   11 type  2   force =    -0.00000021   -0.00000012    0.02242814
     atom   12 type  2   force =     0.00000056    0.00000032    0.02242775
     The non-local contrib.  to forces
     atom    1 type  1   force =     0.00001391    0.00000803   -0.29408958
     atom    2 type  1   force =    -0.00001822   -0.00001052   -0.29408900
     atom    3 type  2   force =    -0.00018366   -0.00010604   -0.24590975
     atom    4 type  2   force =     0.00018553    0.00010711   -0.24591022
     atom    5 type  1   force =     0.00001271    0.00000734   -0.29408761
     atom    6 type  1   force =    -0.00001884   -0.00001088   -0.29408813
     atom    7 type  2   force =    -0.00018620   -0.00010750   -0.24590844
     atom    8 type  2   force =     0.00018779    0.00010842   -0.24591105
     atom    9 type  1   force =     0.00002097    0.00001211   -0.29408901
     atom   10 type  1   force =    -0.00001052   -0.00000607   -0.29408829
     atom   11 type  2   force =    -0.00018861   -0.00010889   -0.24591010
     atom   12 type  2   force =     0.00018477    0.00010668   -0.24591076
     The ionic contribution  to forces
     atom    1 type  1   force =     0.00000001    0.00000001   -1.93774860
     atom    2 type  1   force =     0.00000001    0.00000000   -1.93774860
     atom    3 type  2   force =     0.00000000    0.00000000    1.93774860
     atom    4 type  2   force =     0.00000000    0.00000000    1.93774860
     atom    5 type  1   force =    -0.00000001    0.00000000   -1.93774860
     atom    6 type  1   force =     0.00000001   -0.00000000   -1.93774860
     atom    7 type  2   force =    -0.00000001    0.00000000    1.93774860
     atom    8 type  2   force =     0.00000001   -0.00000000    1.93774860
     atom    9 type  1   force =    -0.00000001   -0.00000000   -1.93774860
     atom   10 type  1   force =    -0.00000001   -0.00000001   -1.93774860
     atom   11 type  2   force =    -0.00000000   -0.00000000    1.93774860
     atom   12 type  2   force =    -0.00000000   -0.00000000    1.93774860
     The local contribution  to forces
     atom    1 type  1   force =    -0.00000252   -0.00000146    2.18952058
     atom    2 type  1   force =     0.00001385    0.00000794    2.18951541
     atom    3 type  2   force =     0.00018728    0.00010813   -1.67139358
     atom    4 type  2   force =    -0.00018156   -0.00010484   -1.67139470
     atom    5 type  1   force =     0.00000000    0.00000011    2.18951818
     atom    6 type  1   force =     0.00001695    0.00000968    2.18951368
     atom    7 type  2   force =     0.00018777    0.00010844   -1.67139277
     atom    8 type  2   force =    -0.00017989   -0.00010389   -1.67139397
     atom    9 type  1   force =    -0.00002229   -0.00001281    2.18951709
     atom   10 type  1   force =    -0.00000600   -0.00000346    2.18951752
     atom   11 type  2   force =     0.00017688    0.00010213   -1.67139528
     atom   12 type  2   force =    -0.00019041   -0.00010993   -1.67139193
     The core correction contribution to forces
     atom    1 type  1   force =    -0.00000410   -0.00000243    0.01989039
     atom    2 type  1   force =     0.00000395    0.00000228    0.01989061
     atom    3 type  2   force =     0.00000208    0.00000119    0.00198475
     atom    4 type  2   force =    -0.00000211   -0.00000121    0.00198475
     atom    5 type  1   force =    -0.00000379   -0.00000236    0.01989032
     atom    6 type  1   force =     0.00000368    0.00000230    0.01989058
     atom    7 type  2   force =     0.00000213    0.00000123    0.00198473
     atom    8 type  2   force =    -0.00000214   -0.00000123    0.00198476
     atom    9 type  1   force =    -0.00000386   -0.00000223    0.01989052
     atom   10 type  1   force =     0.00000412    0.00000245    0.01989044
     atom   11 type  2   force =     0.00000214    0.00000122    0.00198474
     atom   12 type  2   force =    -0.00000210   -0.00000120    0.00198477
     The Hubbard contrib.    to forces
     atom    1 type  1   force =     0.00000000    0.00000000    0.00000000
     atom    2 type  1   force =     0.00000000    0.00000000    0.00000000
     atom    3 type  2   force =     0.00000000    0.00000000    0.00000000
     atom    4 type  2   force =     0.00000000    0.00000000    0.00000000
     atom    5 type  1   force =     0.00000000    0.00000000    0.00000000
     atom    6 type  1   force =     0.00000000    0.00000000    0.00000000
     atom    7 type  2   force =     0.00000000    0.00000000    0.00000000
     atom    8 type  2   force =     0.00000000    0.00000000    0.00000000
     atom    9 type  1   force =     0.00000000    0.00000000    0.00000000
     atom   10 type  1   force =     0.00000000    0.00000000    0.00000000
     atom   11 type  2   force =     0.00000000    0.00000000    0.00000000
     atom   12 type  2   force =     0.00000000    0.00000000    0.00000000
     The SCF correction term to forces
     atom    1 type  1   force =    -0.00000715   -0.00000413    0.00000001
     atom    2 type  1   force =    -0.00000819   -0.00000473    0.00000656
     atom    3 type  2   force =    -0.00000573   -0.00000331    0.00000096
     atom    4 type  2   force =    -0.00000187   -0.00000108    0.00000222
     atom    5 type  1   force =    -0.00001009   -0.00000582    0.00000216
     atom    6 type  1   force =    -0.00001397   -0.00000806    0.00001027
     atom    7 type  2   force =    -0.00000418   -0.00000241   -0.00000065
     atom    8 type  2   force =    -0.00000557   -0.00000322    0.00000253
     atom    9 type  1   force =     0.00002029    0.00001172    0.00000460
     atom   10 type  1   force =     0.00001883    0.00001087    0.00000378
     atom   11 type  2   force =     0.00000937    0.00000541    0.00000311
     atom   12 type  2   force =     0.00000827    0.00000478    0.00000000

     Total force =     0.077693     Total SCF correction =     0.000046

     General routines

     Parallel routines

   This run was terminated on:   3: 0:49  28Aug2025

   JOB DONE.