     Program PWSCF v.7.0 starts on 27Aug2025 at 14:56:21

     K-points division:     npool     =      17

     Reading input from /home/jvc/QEspresso7.2/ZnO_database/scripts/cell311.in/ZnO-3.07-1.68-311.in
Warning: card &CELL ignored
Warning: card / ignored
Warning: card &FCP ignored
Warning: card / ignored
Warning: card &RISM ignored
Warning: card / ignored

     Current dimensions of program PWSCF are:
     Max number of different atomic species (ntypx) = 10
     Max number of k-points (npk) =  40000
     Max angular momentum in pseudopotentials (lmaxx) =  4
     file Zn.upf: wavefunction(s)  3D renormalized
     Found identity + (  0.3333  0.0000  0.0000) symmetry
     This is a supercell, fractional translations are disabled
     Message from routine setup:
     using ibrav=0 with symmetry is DISCOURAGED, use correct ibrav instead

     Subspace diagonalization in iterative solution of the eigenvalue problem:
     a serial algorithm will be used

     Using Slab Decomposition

     bravais-lattice index     =            0
     lattice parameter (alat)  =      17.4244  a.u.
     unit-cell volume          =     854.6583 (a.u.)^3
     number of atoms/cell      =           12
     number of atomic types    =            2
     number of electrons       =       108.00
     number of Kohn-Sham states=           54
     kinetic-energy cutoff     =      50.0000  Ry
     charge density cutoff     =     400.0000  Ry
     scf convergence threshold =      1.0E-08
     mixing beta               =       0.3000
     number of iterations used =            8  plain     mixing
     Exchange-correlation= PBE
                           (   1   4   3   4   0   0   0)

     celldm(1)=  17.424368  celldm(2)=   0.000000  celldm(3)=   0.000000
     celldm(4)=   0.000000  celldm(5)=   0.000000  celldm(6)=   0.000000

     crystal axes: (cart. coord. in units of alat)
               a(1) = (   1.000000   0.000000   0.000000 )
               a(2) = (  -0.166667   0.288675   0.000000 )
               a(3) = (   0.000000   0.000000   0.559644 )

     reciprocal axes: (cart. coord. in units 2 pi/alat)
               b(1) = (  1.000000  0.577350 -0.000000 )
               b(2) = (  0.000000  3.464102  0.000000 )
               b(3) = (  0.000000 -0.000000  1.786849 )

     PseudoPot. # 1 for Zn read from file:
     /home/jvc/QEspresso7.2/ZnO_database/pseudos/Zn.upf
     MD5 check sum: 7f56cabf9682ed8c977c2f7d0c5985c5
     Pseudo is Ultrasoft + core correction, Zval = 12.0
     Generated using &quot;atomic&quot; code by A. Dal Corso  v.6.2.2
     Using radial grid of 1201 points,  6 beta functions with:
                l(1) =   0
                l(2) =   0
                l(3) =   1
                l(4) =   1
                l(5) =   2
                l(6) =   2
     Q(r) pseudized with 0 coefficients

     PseudoPot. # 2 for O  read from file:
     /home/jvc/QEspresso7.2/ZnO_database/pseudos/O.upf
     MD5 check sum: 91400c9766925bcf19f520983a725ff0
     Pseudo is Ultrasoft + core correction, Zval =  6.0
     Generated using &quot;atomic&quot; code by A. Dal Corso  v.6.3MaX
     Using radial grid of 1095 points,  4 beta functions with:
                l(1) =   0
                l(2) =   0
                l(3) =   1
                l(4) =   1
     Q(r) pseudized with 0 coefficients

     atomic species   valence    mass     pseudopotential
        Zn            12.00    65.38000     Zn( 1.00)
        O              6.00    15.99900     O ( 1.00)

      2 Sym. Ops. (no inversion) found

                                    s                        frac. trans.

      isym =  1     identity

 cryst.   s( 1) = (     1          0          0      )
                  (     0          1          0      )
                  (     0          0          1      )

 cart.    s( 1) = (  1.0000000  0.0000000  0.0000000 )
                  (  0.0000000  1.0000000  0.0000000 )
                  (  0.0000000  0.0000000  1.0000000 )

      isym =  2     inv. 180 deg rotation - cryst. axis [0,1,0]

 cryst.   s( 2) = (     1          3          0      )
                  (     0         -1          0      )
                  (     0          0          1      )

 cart.    s( 2) = (  0.5000000  0.8660254  0.0000000 )
                  (  0.8660254 -0.5000000  0.0000000 )
                  (  0.0000000  0.0000000  1.0000000 )

   Cartesian axes

     site n.     atom                  positions (alat units)
         1           Zn  tau(   1) = (   0.1666667   0.0962250   0.2801767  )
         2           Zn  tau(   2) = (  -0.0000000   0.1924501   0.0003546  )
         3           O   tau(   3) = (   0.1666667   0.0962250   0.4923058  )
         4           O   tau(   4) = (  -0.0000000   0.1924501   0.2124837  )
         5           Zn  tau(   5) = (   0.5000000   0.0962250   0.2801767  )
         6           Zn  tau(   6) = (   0.3333333   0.1924501   0.0003546  )
         7           O   tau(   7) = (   0.5000000   0.0962250   0.4923058  )
         8           O   tau(   8) = (   0.3333333   0.1924501   0.2124837  )
         9           Zn  tau(   9) = (   0.8333333   0.0962250   0.2801767  )
        10           Zn  tau(  10) = (   0.6666667   0.1924501   0.0003546  )
        11           O   tau(  11) = (   0.8333333   0.0962250   0.4923058  )
        12           O   tau(  12) = (   0.6666667   0.1924501   0.2124837  )

   Crystallographic axes

     site n.     atom                  positions (cryst. coord.)
         1           Zn  tau(   1) = (  0.2222222  0.3333333  0.5006336  )
         2           Zn  tau(   2) = (  0.1111111  0.6666667  0.0006336  )
         3           O   tau(   3) = (  0.2222222  0.3333333  0.8796764  )
         4           O   tau(   4) = (  0.1111111  0.6666667  0.3796764  )
         5           Zn  tau(   5) = (  0.5555556  0.3333333  0.5006336  )
         6           Zn  tau(   6) = (  0.4444444  0.6666667  0.0006336  )
         7           O   tau(   7) = (  0.5555556  0.3333333  0.8796764  )
         8           O   tau(   8) = (  0.4444444  0.6666667  0.3796764  )
         9           Zn  tau(   9) = (  0.8888889  0.3333333  0.5006336  )
        10           Zn  tau(  10) = (  0.7777778  0.6666667  0.0006336  )
        11           O   tau(  11) = (  0.8888889  0.3333333  0.8796764  )
        12           O   tau(  12) = (  0.7777778  0.6666667  0.3796764  )

     number of k points=    68
                       cart. coord. in units 2pi/alat
        k(    1) = (   0.0000000   0.0000000   0.0000000), wk =   0.0092593
        k(    2) = (   0.0000000   0.0000000   0.2978082), wk =   0.0185185
        k(    3) = (   0.0000000   0.0000000   0.5956165), wk =   0.0185185
        k(    4) = (   0.0000000   0.0000000  -0.8934247), wk =   0.0092593
        k(    5) = (   0.0000000   0.5773503   0.0000000), wk =   0.0370370
        k(    6) = (   0.0000000   0.5773503   0.2978082), wk =   0.0370370
        k(    7) = (   0.0000000   0.5773503   0.5956165), wk =   0.0370370
        k(    8) = (   0.0000000   0.5773503  -0.8934247), wk =   0.0370370
        k(    9) = (   0.0000000   1.1547005   0.0000000), wk =   0.0185185
        k(   10) = (   0.0000000   1.1547005   0.2978082), wk =   0.0370370
        k(   11) = (   0.0000000   1.1547005   0.5956165), wk =   0.0370370
        k(   12) = (   0.0000000   1.1547005  -0.8934247), wk =   0.0185185
        k(   13) = (   0.0000000  -1.7320508   0.0000000), wk =   0.0185185
        k(   14) = (   0.0000000  -1.7320508   0.2978082), wk =   0.0370370
        k(   15) = (   0.0000000  -1.7320508   0.5956165), wk =   0.0370370
        k(   16) = (   0.0000000  -1.7320508  -0.8934247), wk =   0.0185185
        k(   17) = (   0.1666667   0.0962250   0.0000000), wk =   0.0185185
        k(   18) = (   0.1666667   0.0962250   0.2978082), wk =   0.0185185
        k(   19) = (   0.1666667   0.0962250   0.5956165), wk =   0.0185185
        k(   20) = (   0.1666667   0.0962250  -0.8934247), wk =   0.0185185
        k(   21) = (   0.1666667   0.6735753   0.0000000), wk =   0.0370370
        k(   22) = (   0.1666667   0.6735753   0.2978082), wk =   0.0370370
        k(   23) = (   0.1666667   0.6735753   0.5956165), wk =   0.0370370
        k(   24) = (   0.1666667   0.6735753  -0.8934247), wk =   0.0370370
        k(   25) = (   0.1666667   1.2509256   0.0000000), wk =   0.0370370
        k(   26) = (   0.1666667   1.2509256   0.2978082), wk =   0.0370370
        k(   27) = (   0.1666667   1.2509256   0.5956165), wk =   0.0370370
        k(   28) = (   0.1666667   1.2509256  -0.8934247), wk =   0.0370370
        k(   29) = (   0.1666667  -1.6358258   0.0000000), wk =   0.0370370
        k(   30) = (   0.1666667  -1.6358258   0.2978082), wk =   0.0370370
        k(   31) = (   0.1666667  -1.6358258   0.5956165), wk =   0.0370370
        k(   32) = (   0.1666667  -1.6358258  -0.8934247), wk =   0.0370370
        k(   33) = (   0.1666667  -0.4811252   0.0000000), wk =   0.0370370
        k(   34) = (   0.1666667  -0.4811252   0.2978082), wk =   0.0370370
        k(   35) = (   0.1666667  -0.4811252   0.5956165), wk =   0.0370370
        k(   36) = (   0.1666667  -0.4811252  -0.8934247), wk =   0.0370370
        k(   37) = (   0.3333333   0.1924501   0.0000000), wk =   0.0185185
        k(   38) = (   0.3333333   0.1924501   0.2978082), wk =   0.0185185
        k(   39) = (   0.3333333   0.1924501   0.5956165), wk =   0.0185185
        k(   40) = (   0.3333333   0.1924501  -0.8934247), wk =   0.0185185
        k(   41) = (   0.3333333   1.3471506   0.0000000), wk =   0.0370370
        k(   42) = (   0.3333333   1.3471506   0.2978082), wk =   0.0370370
        k(   43) = (   0.3333333   1.3471506   0.5956165), wk =   0.0370370
        k(   44) = (   0.3333333   1.3471506  -0.8934247), wk =   0.0370370
        k(   45) = (  -0.5000000  -0.2886751   0.0000000), wk =   0.0092593
        k(   46) = (  -0.5000000  -0.2886751   0.2978082), wk =   0.0185185
        k(   47) = (  -0.5000000  -0.2886751   0.5956165), wk =   0.0185185
        k(   48) = (  -0.5000000  -0.2886751  -0.8934247), wk =   0.0092593
        k(   49) = (  -0.5000000   0.8660254   0.0000000), wk =   0.0185185
        k(   50) = (  -0.5000000   0.8660254   0.2978082), wk =   0.0370370
        k(   51) = (  -0.5000000   0.8660254   0.5956165), wk =   0.0370370
        k(   52) = (  -0.5000000   0.8660254  -0.8934247), wk =   0.0185185
        k(   53) = (   0.5000000  -0.2886751  -0.2978082), wk =   0.0370370
        k(   54) = (   0.5000000  -0.2886751  -0.5956165), wk =   0.0370370
        k(   55) = (   0.1666667   0.0962250  -0.2978082), wk =   0.0185185
        k(   56) = (   0.1666667   0.0962250  -0.5956165), wk =   0.0185185
        k(   57) = (   0.6666667  -0.1924501  -0.2978082), wk =   0.0370370
        k(   58) = (   0.6666667  -0.1924501  -0.5956165), wk =   0.0370370
        k(   59) = (   1.1666667  -0.4811252  -0.2978082), wk =   0.0370370
        k(   60) = (   1.1666667  -0.4811252  -0.5956165), wk =   0.0370370
        k(   61) = (  -1.3333333   0.9622504  -0.2978082), wk =   0.0370370
        k(   62) = (  -1.3333333   0.9622504  -0.5956165), wk =   0.0370370
        k(   63) = (  -0.3333333   0.3849002  -0.2978082), wk =   0.0370370
        k(   64) = (  -0.3333333   0.3849002  -0.5956165), wk =   0.0370370
        k(   65) = (   0.3333333   0.1924501  -0.2978082), wk =   0.0185185
        k(   66) = (   0.3333333   0.1924501  -0.5956165), wk =   0.0185185
        k(   67) = (   1.3333333  -0.3849002  -0.2978082), wk =   0.0370370
        k(   68) = (   1.3333333  -0.3849002  -0.5956165), wk =   0.0370370

                       cryst. coord.
        k(    1) = (   0.0000000   0.0000000   0.0000000), wk =   0.0092593
        k(    2) = (   0.0000000   0.0000000   0.1666667), wk =   0.0185185
        k(    3) = (   0.0000000   0.0000000   0.3333333), wk =   0.0185185
        k(    4) = (   0.0000000   0.0000000  -0.5000000), wk =   0.0092593
        k(    5) = (   0.0000000   0.1666667   0.0000000), wk =   0.0370370
        k(    6) = (   0.0000000   0.1666667   0.1666667), wk =   0.0370370
        k(    7) = (   0.0000000   0.1666667   0.3333333), wk =   0.0370370
        k(    8) = (   0.0000000   0.1666667  -0.5000000), wk =   0.0370370
        k(    9) = (   0.0000000   0.3333333   0.0000000), wk =   0.0185185
        k(   10) = (   0.0000000   0.3333333   0.1666667), wk =   0.0370370
        k(   11) = (   0.0000000   0.3333333   0.3333333), wk =   0.0370370
        k(   12) = (   0.0000000   0.3333333  -0.5000000), wk =   0.0185185
        k(   13) = (   0.0000000  -0.5000000   0.0000000), wk =   0.0185185
        k(   14) = (   0.0000000  -0.5000000   0.1666667), wk =   0.0370370
        k(   15) = (   0.0000000  -0.5000000   0.3333333), wk =   0.0370370
        k(   16) = (   0.0000000  -0.5000000  -0.5000000), wk =   0.0185185
        k(   17) = (   0.1666667   0.0000000   0.0000000), wk =   0.0185185
        k(   18) = (   0.1666667   0.0000000   0.1666667), wk =   0.0185185
        k(   19) = (   0.1666667   0.0000000   0.3333333), wk =   0.0185185
        k(   20) = (   0.1666667   0.0000000  -0.5000000), wk =   0.0185185
        k(   21) = (   0.1666667   0.1666667   0.0000000), wk =   0.0370370
        k(   22) = (   0.1666667   0.1666667   0.1666667), wk =   0.0370370
        k(   23) = (   0.1666667   0.1666667   0.3333333), wk =   0.0370370
        k(   24) = (   0.1666667   0.1666667  -0.5000000), wk =   0.0370370
        k(   25) = (   0.1666667   0.3333333   0.0000000), wk =   0.0370370
        k(   26) = (   0.1666667   0.3333333   0.1666667), wk =   0.0370370
        k(   27) = (   0.1666667   0.3333333   0.3333333), wk =   0.0370370
        k(   28) = (   0.1666667   0.3333333  -0.5000000), wk =   0.0370370
        k(   29) = (   0.1666667  -0.5000000   0.0000000), wk =   0.0370370
        k(   30) = (   0.1666667  -0.5000000   0.1666667), wk =   0.0370370
        k(   31) = (   0.1666667  -0.5000000   0.3333333), wk =   0.0370370
        k(   32) = (   0.1666667  -0.5000000  -0.5000000), wk =   0.0370370
        k(   33) = (   0.1666667  -0.1666667   0.0000000), wk =   0.0370370
        k(   34) = (   0.1666667  -0.1666667   0.1666667), wk =   0.0370370
        k(   35) = (   0.1666667  -0.1666667   0.3333333), wk =   0.0370370
        k(   36) = (   0.1666667  -0.1666667  -0.5000000), wk =   0.0370370
        k(   37) = (   0.3333333   0.0000000   0.0000000), wk =   0.0185185
        k(   38) = (   0.3333333   0.0000000   0.1666667), wk =   0.0185185
        k(   39) = (   0.3333333   0.0000000   0.3333333), wk =   0.0185185
        k(   40) = (   0.3333333   0.0000000  -0.5000000), wk =   0.0185185
        k(   41) = (   0.3333333   0.3333333   0.0000000), wk =   0.0370370
        k(   42) = (   0.3333333   0.3333333   0.1666667), wk =   0.0370370
        k(   43) = (   0.3333333   0.3333333   0.3333333), wk =   0.0370370
        k(   44) = (   0.3333333   0.3333333  -0.5000000), wk =   0.0370370
        k(   45) = (  -0.5000000   0.0000000   0.0000000), wk =   0.0092593
        k(   46) = (  -0.5000000   0.0000000   0.1666667), wk =   0.0185185
        k(   47) = (  -0.5000000   0.0000000   0.3333333), wk =   0.0185185
        k(   48) = (  -0.5000000   0.0000000  -0.5000000), wk =   0.0092593
        k(   49) = (  -0.5000000   0.3333333   0.0000000), wk =   0.0185185
        k(   50) = (  -0.5000000   0.3333333   0.1666667), wk =   0.0370370
        k(   51) = (  -0.5000000   0.3333333   0.3333333), wk =   0.0370370
        k(   52) = (  -0.5000000   0.3333333  -0.5000000), wk =   0.0185185
        k(   53) = (   0.5000000  -0.1666667  -0.1666667), wk =   0.0370370
        k(   54) = (   0.5000000  -0.1666667  -0.3333333), wk =   0.0370370
        k(   55) = (   0.1666667   0.0000000  -0.1666667), wk =   0.0185185
        k(   56) = (   0.1666667   0.0000000  -0.3333333), wk =   0.0185185
        k(   57) = (   0.6666667  -0.1666667  -0.1666667), wk =   0.0370370
        k(   58) = (   0.6666667  -0.1666667  -0.3333333), wk =   0.0370370
        k(   59) = (   1.1666667  -0.3333333  -0.1666667), wk =   0.0370370
        k(   60) = (   1.1666667  -0.3333333  -0.3333333), wk =   0.0370370
        k(   61) = (  -1.3333333   0.5000000  -0.1666667), wk =   0.0370370
        k(   62) = (  -1.3333333   0.5000000  -0.3333333), wk =   0.0370370
        k(   63) = (  -0.3333333   0.1666667  -0.1666667), wk =   0.0370370
        k(   64) = (  -0.3333333   0.1666667  -0.3333333), wk =   0.0370370
        k(   65) = (   0.3333333   0.0000000  -0.1666667), wk =   0.0185185
        k(   66) = (   0.3333333   0.0000000  -0.3333333), wk =   0.0185185
        k(   67) = (   1.3333333  -0.3333333  -0.1666667), wk =   0.0370370
        k(   68) = (   1.3333333  -0.3333333  -0.3333333), wk =   0.0370370

     Check: negative core charge=   -0.000002

     Initial potential from superposition of free atoms

     starting charge     107.9776, renormalised to     108.0000
     Starting wfcs are   78 randomized atomic wfcs

     Self-consistent Calculation

     iteration #  1     ecut=    50.00 Ry     beta= 0.30
     Davidson diagonalization with overlap

     ethr =  1.00E-02,  avg # of iterations =  2.0

     total energy              =   -1084.35430187 Ry
     estimated scf accuracy    <       2.01610645 Ry

[...]

     c_bands:  1 eigenvalues not converged
     ethr =  1.57E-05,  avg # of iterations = 14.6

[...]

     total energy              =   -1084.77888147 Ry
     estimated scf accuracy    <       0.00000011 Ry

     iteration # 21     ecut=    50.00 Ry     beta= 0.30
     Davidson diagonalization with overlap

     ethr =  5.42E-11,  avg # of iterations =  6.2

     End of self-consistent calculation

          k = 0.0000 0.0000 0.0000 (  5111 PWs)   bands (ev):

    -9.9421  -9.3136  -9.3136  -9.0984  -8.8296  -8.8296   2.3077   2.3077
     2.4651   2.7389   2.7389   2.8105   2.8107   2.8829   3.0189   3.0191
     3.0913   3.0913   3.2916   3.2916   3.5253   3.5253   3.5342   3.5342
     4.2592   4.2592   4.4404   4.4404   4.5318   4.5318   4.6845   4.6845
     4.7242   4.7242   4.8051   4.8051   5.0496   5.1535   5.1535   5.7513
     5.7513   6.8413   6.8413   7.2012   7.2012   8.2115   8.2115   8.4419
     8.4423   8.5098   8.5098   9.0218   9.2768   9.2771

     occupation numbers
     1.0000   1.0000   1.0000   1.0000   1.0000   1.0000   1.0000   1.0000
     1.0000   1.0000   1.0000   1.0000   1.0000   1.0000   1.0000   1.0000
     1.0000   1.0000   1.0000   1.0000   1.0000   1.0000   1.0000   1.0000
     1.0000   1.0000   1.0000   1.0000   1.0000   1.0000   1.0000   1.0000
     1.0000   1.0000   1.0000   1.0000   1.0000   1.0000   1.0000   1.0000
     1.0000   1.0000   1.0000   1.0000   1.0000   1.0000   1.0000   1.0000
     1.0000   1.0000   1.0000   1.0000   1.0000   1.0000

[...]

          k =-0.5000-0.2887 0.0000 (  5088 PWs)   bands (ev):

[...]

          k =-0.3333 0.3849-0.5956 (  5108 PWs)   bands (ev):

[...]

          k = 1.3333-0.3849-0.5956 (  5102 PWs)   bands (ev):

    -9.2799  -9.0494  -9.0017  -8.9124  -8.8723  -8.8198   2.2884   2.3151
     2.4067   2.4229   2.5494   2.6198   3.0609   3.0641   3.1244   3.1689
     3.2242   3.2839   3.3091   3.3581   3.4794   3.5276   3.6552   3.6629
     4.4447   4.4696   4.4887   4.5499   4.5656   4.6280   4.6586   4.7191
     4.7281   4.8249   4.8291   5.0269   5.1408   5.4107   5.5116   5.7871
     5.9708   6.1001   6.5558   6.7794   6.8670   6.9469   7.0445   7.2639
     7.5186   7.7247   7.7335   7.9352   8.1036   8.1956

     occupation numbers
     1.0000   1.0000   1.0000   1.0000   1.0000   1.0000   1.0000   1.0000
     1.0000   1.0000   1.0000   1.0000   1.0000   1.0000   1.0000   1.0000
     1.0000   1.0000   1.0000   1.0000   1.0000   1.0000   1.0000   1.0000
     1.0000   1.0000   1.0000   1.0000   1.0000   1.0000   1.0000   1.0000
     1.0000   1.0000   1.0000   1.0000   1.0000   1.0000   1.0000   1.0000
     1.0000   1.0000   1.0000   1.0000   1.0000   1.0000   1.0000   1.0000
     1.0000   1.0000   1.0000   1.0000   1.0000   1.0000

     highest occupied level (ev):     9.2771

!    total energy              =   -1084.77888150 Ry
     estimated scf accuracy    <          2.1E-09 Ry

     The total energy is the sum of the following terms:
     one-electron contribution =    -412.24369285 Ry
     hartree contribution      =     336.93676659 Ry
     xc contribution           =    -329.61694992 Ry
     ewald contribution        =    -679.85500533 Ry

     convergence has been achieved in  21 iterations

     Forces acting on atoms (cartesian axes, Ry/au):

     atom    1 type  1   force =     0.00001377    0.00000795    0.02387985
     atom    2 type  1   force =    -0.00000852   -0.00000492    0.02388524
     atom    3 type  2   force =    -0.00000327   -0.00000189   -0.02388341
     atom    4 type  2   force =     0.00000311    0.00000179   -0.02388316
     atom    5 type  1   force =     0.00000609    0.00000351    0.02388620
     atom    6 type  1   force =    -0.00001433   -0.00000827    0.02388112
     atom    7 type  2   force =    -0.00000280   -0.00000162   -0.02388353
     atom    8 type  2   force =     0.00000268    0.00000155   -0.02388264
     atom    9 type  1   force =     0.00001110    0.00000641    0.02388436
     atom   10 type  1   force =    -0.00000819   -0.00000473    0.02388272
     atom   11 type  2   force =    -0.00000243   -0.00000140   -0.02388355
     atom   12 type  2   force =     0.00000280    0.00000161   -0.02388322
     The non-local contrib.  to forces
     atom    1 type  1   force =    -0.00001984   -0.00001145    0.11320947
     atom    2 type  1   force =     0.00002281    0.00001317    0.11321174
     atom    3 type  2   force =    -0.00018359   -0.00010599    0.09420289
     atom    4 type  2   force =     0.00018121    0.00010462    0.09420405
     atom    5 type  1   force =    -0.00002374   -0.00001371    0.11321256
     atom    6 type  1   force =     0.00001911    0.00001103    0.11320998
     atom    7 type  2   force =    -0.00018011   -0.00010399    0.09420452
     atom    8 type  2   force =     0.00018404    0.00010626    0.09420281
     atom    9 type  1   force =    -0.00002110   -0.00001218    0.11321151
     atom   10 type  1   force =     0.00002290    0.00001322    0.11321077
     atom   11 type  2   force =    -0.00018371   -0.00010606    0.09420379
     atom   12 type  2   force =     0.00018266    0.00010546    0.09420273
     The ionic contribution  to forces
     atom    1 type  1   force =     0.00000001    0.00000001    0.96206594
     atom    2 type  1   force =     0.00000001    0.00000000    0.96206593
     atom    3 type  2   force =     0.00000000    0.00000000   -0.96206594
     atom    4 type  2   force =     0.00000001    0.00000000   -0.96206593
     atom    5 type  1   force =    -0.00000001    0.00000000    0.96206593
     atom    6 type  1   force =     0.00000001   -0.00000000    0.96206593
     atom    7 type  2   force =    -0.00000001    0.00000000   -0.96206593
     atom    8 type  2   force =     0.00000001   -0.00000000   -0.96206593
     atom    9 type  1   force =    -0.00000001   -0.00000000    0.96206593
     atom   10 type  1   force =    -0.00000001   -0.00000001    0.96206594
     atom   11 type  2   force =    -0.00000001   -0.00000000   -0.96206593
     atom   12 type  2   force =    -0.00000000   -0.00000000   -0.96206594
     The local contribution  to forces
     atom    1 type  1   force =     0.00003389    0.00001956   -1.04228069
     atom    2 type  1   force =    -0.00004156   -0.00002404   -1.04228714
     atom    3 type  2   force =     0.00017787    0.00010269    0.84465027
     atom    4 type  2   force =    -0.00018080   -0.00010440    0.84465460
     atom    5 type  1   force =     0.00004380    0.00002538   -1.04228804
     atom    6 type  1   force =    -0.00003256   -0.00001889   -1.04228249
     atom    7 type  2   force =     0.00018149    0.00010481    0.84465432
     atom    8 type  2   force =    -0.00017351   -0.00010020    0.84465070
     atom    9 type  1   force =     0.00003714    0.00002149   -1.04228529
     atom   10 type  1   force =    -0.00004094   -0.00002364   -1.04228465
     atom   11 type  2   force =     0.00017363    0.00010026    0.84465280
     atom   12 type  2   force =    -0.00017728   -0.00010235    0.84465033
     The core correction contribution to forces
     atom    1 type  1   force =    -0.00000643   -0.00000371   -0.00911078
     atom    2 type  1   force =     0.00000644    0.00000371   -0.00911076
     atom    3 type  2   force =     0.00000208    0.00000120   -0.00067523
     atom    4 type  2   force =    -0.00000205   -0.00000119   -0.00067523
     atom    5 type  1   force =    -0.00000641   -0.00000369   -0.00911084
     atom    6 type  1   force =     0.00000643    0.00000370   -0.00911075
     atom    7 type  2   force =     0.00000204    0.00000118   -0.00067524
     atom    8 type  2   force =    -0.00000208   -0.00000120   -0.00067523
     atom    9 type  1   force =    -0.00000639   -0.00000368   -0.00911083
     atom   10 type  1   force =     0.00000636    0.00000367   -0.00911076
     atom   11 type  2   force =     0.00000207    0.00000119   -0.00067524
     atom   12 type  2   force =    -0.00000206   -0.00000119   -0.00067523
     The Hubbard contrib.    to forces
     atom    1 type  1   force =     0.00000000    0.00000000    0.00000000
     atom    2 type  1   force =     0.00000000    0.00000000    0.00000000
     atom    3 type  2   force =     0.00000000    0.00000000    0.00000000
     atom    4 type  2   force =     0.00000000    0.00000000    0.00000000
     atom    5 type  1   force =     0.00000000    0.00000000    0.00000000
     atom    6 type  1   force =     0.00000000    0.00000000    0.00000000
     atom    7 type  2   force =     0.00000000    0.00000000    0.00000000
     atom    8 type  2   force =     0.00000000    0.00000000    0.00000000
     atom    9 type  1   force =     0.00000000    0.00000000    0.00000000
     atom   10 type  1   force =     0.00000000    0.00000000    0.00000000
     atom   11 type  2   force =     0.00000000    0.00000000    0.00000000
     atom   12 type  2   force =     0.00000000    0.00000000    0.00000000
     The SCF correction term to forces
     atom    1 type  1   force =     0.00000621    0.00000359   -0.00000261
     atom    2 type  1   force =     0.00000388    0.00000224    0.00000695
     atom    3 type  2   force =     0.00000043    0.00000025    0.00000608
     atom    4 type  2   force =     0.00000482    0.00000278    0.00000084
     atom    5 type  1   force =    -0.00000753   -0.00000435    0.00000806
     atom    6 type  1   force =    -0.00000720   -0.00000415   -0.00000007
     atom    7 type  2   force =    -0.00000616   -0.00000356    0.00000028
     atom    8 type  2   force =    -0.00000570   -0.00000329    0.00000650
     atom    9 type  1   force =     0.00000150    0.00000087    0.00000453
     atom   10 type  1   force =     0.00000357    0.00000206    0.00000290
     atom   11 type  2   force =     0.00000564    0.00000326    0.00000251
     atom   12 type  2   force =    -0.00000045   -0.00000026    0.00000637

     Total force =     0.082734     Total SCF correction =     0.000026

     General routines

     Parallel routines

   This run was terminated on:  15: 4:13  27Aug2025

   JOB DONE.