     Program PWSCF v.7.0 starts on 27Aug2025 at 16:22:37

     K-points division:     npool     =      17

     Reading input from /home/jvc/QEspresso7.2/ZnO_database/scripts/cell311.in/ZnO-3.14-1.68-311.in
Warning: card &CELL ignored
Warning: card / ignored
Warning: card &FCP ignored
Warning: card / ignored
Warning: card &RISM ignored
Warning: card / ignored

     Current dimensions of program PWSCF are:
     Max number of different atomic species (ntypx) = 10
     Max number of k-points (npk) =  40000
     Max angular momentum in pseudopotentials (lmaxx) =  4
     file Zn.upf: wavefunction(s)  3D renormalized
     Found identity + (  0.3333  0.0000  0.0000) symmetry
     This is a supercell, fractional translations are disabled
     Message from routine setup:
     using ibrav=0 with symmetry is DISCOURAGED, use correct ibrav instead

     Subspace diagonalization in iterative solution of the eigenvalue problem:
     a serial algorithm will be used

     Using Slab Decomposition

     bravais-lattice index     =            0
     lattice parameter (alat)  =      17.7951  a.u.
     unit-cell volume          =     910.3799 (a.u.)^3
     number of atoms/cell      =           12
     number of atomic types    =            2
     number of electrons       =       108.00
     number of Kohn-Sham states=           54
     kinetic-energy cutoff     =      50.0000  Ry
     charge density cutoff     =     400.0000  Ry
     scf convergence threshold =      1.0E-08
     mixing beta               =       0.3000
     number of iterations used =            8  plain     mixing
     Exchange-correlation= PBE
                           (   1   4   3   4   0   0   0)

     celldm(1)=  17.795099  celldm(2)=   0.000000  celldm(3)=   0.000000
     celldm(4)=   0.000000  celldm(5)=   0.000000  celldm(6)=   0.000000

     crystal axes: (cart. coord. in units of alat)
               a(1) = (   1.000000   0.000000   0.000000 )
               a(2) = (  -0.166667   0.288675   0.000000 )
               a(3) = (   0.000000   0.000000   0.559644 )

     reciprocal axes: (cart. coord. in units 2 pi/alat)
               b(1) = (  1.000000  0.577350 -0.000000 )
               b(2) = (  0.000000  3.464102  0.000000 )
               b(3) = (  0.000000 -0.000000  1.786849 )

     PseudoPot. # 1 for Zn read from file:
     /home/jvc/QEspresso7.2/ZnO_database/pseudos/Zn.upf
     MD5 check sum: 7f56cabf9682ed8c977c2f7d0c5985c5
     Pseudo is Ultrasoft + core correction, Zval = 12.0
     Generated using &quot;atomic&quot; code by A. Dal Corso  v.6.2.2
     Using radial grid of 1201 points,  6 beta functions with:
                l(1) =   0
                l(2) =   0
                l(3) =   1
                l(4) =   1
                l(5) =   2
                l(6) =   2
     Q(r) pseudized with 0 coefficients

     PseudoPot. # 2 for O  read from file:
     /home/jvc/QEspresso7.2/ZnO_database/pseudos/O.upf
     MD5 check sum: 91400c9766925bcf19f520983a725ff0
     Pseudo is Ultrasoft + core correction, Zval =  6.0
     Generated using &quot;atomic&quot; code by A. Dal Corso  v.6.3MaX
     Using radial grid of 1095 points,  4 beta functions with:
                l(1) =   0
                l(2) =   0
                l(3) =   1
                l(4) =   1
     Q(r) pseudized with 0 coefficients

     atomic species   valence    mass     pseudopotential
        Zn            12.00    65.38000     Zn( 1.00)
        O              6.00    15.99900     O ( 1.00)

      2 Sym. Ops. (no inversion) found

                                    s                        frac. trans.

      isym =  1     identity

 cryst.   s( 1) = (     1          0          0      )
                  (     0          1          0      )
                  (     0          0          1      )

 cart.    s( 1) = (  1.0000000  0.0000000  0.0000000 )
                  (  0.0000000  1.0000000  0.0000000 )
                  (  0.0000000  0.0000000  1.0000000 )

      isym =  2     inv. 180 deg rotation - cryst. axis [0,1,0]

 cryst.   s( 2) = (     1          3          0      )
                  (     0         -1          0      )
                  (     0          0          1      )

 cart.    s( 2) = (  0.5000000  0.8660254  0.0000000 )
                  (  0.8660254 -0.5000000  0.0000000 )
                  (  0.0000000  0.0000000  1.0000000 )

   Cartesian axes

     site n.     atom                  positions (alat units)
         1           Zn  tau(   1) = (   0.1666667   0.0962250   0.2801767  )
         2           Zn  tau(   2) = (  -0.0000000   0.1924501   0.0003546  )
         3           O   tau(   3) = (   0.1666667   0.0962250   0.4923058  )
         4           O   tau(   4) = (  -0.0000000   0.1924501   0.2124837  )
         5           Zn  tau(   5) = (   0.5000000   0.0962250   0.2801767  )
         6           Zn  tau(   6) = (   0.3333333   0.1924501   0.0003546  )
         7           O   tau(   7) = (   0.5000000   0.0962250   0.4923058  )
         8           O   tau(   8) = (   0.3333333   0.1924501   0.2124837  )
         9           Zn  tau(   9) = (   0.8333333   0.0962250   0.2801767  )
        10           Zn  tau(  10) = (   0.6666667   0.1924501   0.0003546  )
        11           O   tau(  11) = (   0.8333333   0.0962250   0.4923058  )
        12           O   tau(  12) = (   0.6666667   0.1924501   0.2124837  )

   Crystallographic axes

     site n.     atom                  positions (cryst. coord.)
         1           Zn  tau(   1) = (  0.2222222  0.3333333  0.5006336  )
         2           Zn  tau(   2) = (  0.1111111  0.6666667  0.0006336  )
         3           O   tau(   3) = (  0.2222222  0.3333333  0.8796764  )
         4           O   tau(   4) = (  0.1111111  0.6666667  0.3796764  )
         5           Zn  tau(   5) = (  0.5555556  0.3333333  0.5006336  )
         6           Zn  tau(   6) = (  0.4444444  0.6666667  0.0006336  )
         7           O   tau(   7) = (  0.5555556  0.3333333  0.8796764  )
         8           O   tau(   8) = (  0.4444444  0.6666667  0.3796764  )
         9           Zn  tau(   9) = (  0.8888889  0.3333333  0.5006336  )
        10           Zn  tau(  10) = (  0.7777778  0.6666667  0.0006336  )
        11           O   tau(  11) = (  0.8888889  0.3333333  0.8796764  )
        12           O   tau(  12) = (  0.7777778  0.6666667  0.3796764  )

     number of k points=    68
                       cart. coord. in units 2pi/alat
        k(    1) = (   0.0000000   0.0000000   0.0000000), wk =   0.0092593
        k(    2) = (   0.0000000   0.0000000   0.2978082), wk =   0.0185185
        k(    3) = (   0.0000000   0.0000000   0.5956165), wk =   0.0185185
        k(    4) = (   0.0000000   0.0000000  -0.8934247), wk =   0.0092593
        k(    5) = (   0.0000000   0.5773503   0.0000000), wk =   0.0370370
        k(    6) = (   0.0000000   0.5773503   0.2978082), wk =   0.0370370
        k(    7) = (   0.0000000   0.5773503   0.5956165), wk =   0.0370370
        k(    8) = (   0.0000000   0.5773503  -0.8934247), wk =   0.0370370
        k(    9) = (   0.0000000   1.1547005   0.0000000), wk =   0.0185185
        k(   10) = (   0.0000000   1.1547005   0.2978082), wk =   0.0370370
        k(   11) = (   0.0000000   1.1547005   0.5956165), wk =   0.0370370
        k(   12) = (   0.0000000   1.1547005  -0.8934247), wk =   0.0185185
        k(   13) = (   0.0000000  -1.7320508   0.0000000), wk =   0.0185185
        k(   14) = (   0.0000000  -1.7320508   0.2978082), wk =   0.0370370
        k(   15) = (   0.0000000  -1.7320508   0.5956165), wk =   0.0370370
        k(   16) = (   0.0000000  -1.7320508  -0.8934247), wk =   0.0185185
        k(   17) = (   0.1666667   0.0962250   0.0000000), wk =   0.0185185
        k(   18) = (   0.1666667   0.0962250   0.2978082), wk =   0.0185185
        k(   19) = (   0.1666667   0.0962250   0.5956165), wk =   0.0185185
        k(   20) = (   0.1666667   0.0962250  -0.8934247), wk =   0.0185185
        k(   21) = (   0.1666667   0.6735753   0.0000000), wk =   0.0370370
        k(   22) = (   0.1666667   0.6735753   0.2978082), wk =   0.0370370
        k(   23) = (   0.1666667   0.6735753   0.5956165), wk =   0.0370370
        k(   24) = (   0.1666667   0.6735753  -0.8934247), wk =   0.0370370
        k(   25) = (   0.1666667   1.2509256   0.0000000), wk =   0.0370370
        k(   26) = (   0.1666667   1.2509256   0.2978082), wk =   0.0370370
        k(   27) = (   0.1666667   1.2509256   0.5956165), wk =   0.0370370
        k(   28) = (   0.1666667   1.2509256  -0.8934247), wk =   0.0370370
        k(   29) = (   0.1666667  -1.6358258   0.0000000), wk =   0.0370370
        k(   30) = (   0.1666667  -1.6358258   0.2978082), wk =   0.0370370
        k(   31) = (   0.1666667  -1.6358258   0.5956165), wk =   0.0370370
        k(   32) = (   0.1666667  -1.6358258  -0.8934247), wk =   0.0370370
        k(   33) = (   0.1666667  -0.4811252   0.0000000), wk =   0.0370370
        k(   34) = (   0.1666667  -0.4811252   0.2978082), wk =   0.0370370
        k(   35) = (   0.1666667  -0.4811252   0.5956165), wk =   0.0370370
        k(   36) = (   0.1666667  -0.4811252  -0.8934247), wk =   0.0370370
        k(   37) = (   0.3333333   0.1924501   0.0000000), wk =   0.0185185
        k(   38) = (   0.3333333   0.1924501   0.2978082), wk =   0.0185185
        k(   39) = (   0.3333333   0.1924501   0.5956165), wk =   0.0185185
        k(   40) = (   0.3333333   0.1924501  -0.8934247), wk =   0.0185185
        k(   41) = (   0.3333333   1.3471506   0.0000000), wk =   0.0370370
        k(   42) = (   0.3333333   1.3471506   0.2978082), wk =   0.0370370
        k(   43) = (   0.3333333   1.3471506   0.5956165), wk =   0.0370370
        k(   44) = (   0.3333333   1.3471506  -0.8934247), wk =   0.0370370
        k(   45) = (  -0.5000000  -0.2886751   0.0000000), wk =   0.0092593
        k(   46) = (  -0.5000000  -0.2886751   0.2978082), wk =   0.0185185
        k(   47) = (  -0.5000000  -0.2886751   0.5956165), wk =   0.0185185
        k(   48) = (  -0.5000000  -0.2886751  -0.8934247), wk =   0.0092593
        k(   49) = (  -0.5000000   0.8660254   0.0000000), wk =   0.0185185
        k(   50) = (  -0.5000000   0.8660254   0.2978082), wk =   0.0370370
        k(   51) = (  -0.5000000   0.8660254   0.5956165), wk =   0.0370370
        k(   52) = (  -0.5000000   0.8660254  -0.8934247), wk =   0.0185185
        k(   53) = (   0.5000000  -0.2886751  -0.2978082), wk =   0.0370370
        k(   54) = (   0.5000000  -0.2886751  -0.5956165), wk =   0.0370370
        k(   55) = (   0.1666667   0.0962250  -0.2978082), wk =   0.0185185
        k(   56) = (   0.1666667   0.0962250  -0.5956165), wk =   0.0185185
        k(   57) = (   0.6666667  -0.1924501  -0.2978082), wk =   0.0370370
        k(   58) = (   0.6666667  -0.1924501  -0.5956165), wk =   0.0370370
        k(   59) = (   1.1666667  -0.4811252  -0.2978082), wk =   0.0370370
        k(   60) = (   1.1666667  -0.4811252  -0.5956165), wk =   0.0370370
        k(   61) = (  -1.3333333   0.9622504  -0.2978082), wk =   0.0370370
        k(   62) = (  -1.3333333   0.9622504  -0.5956165), wk =   0.0370370
        k(   63) = (  -0.3333333   0.3849002  -0.2978082), wk =   0.0370370
        k(   64) = (  -0.3333333   0.3849002  -0.5956165), wk =   0.0370370
        k(   65) = (   0.3333333   0.1924501  -0.2978082), wk =   0.0185185
        k(   66) = (   0.3333333   0.1924501  -0.5956165), wk =   0.0185185
        k(   67) = (   1.3333333  -0.3849002  -0.2978082), wk =   0.0370370
        k(   68) = (   1.3333333  -0.3849002  -0.5956165), wk =   0.0370370

                       cryst. coord.
        k(    1) = (   0.0000000   0.0000000   0.0000000), wk =   0.0092593
        k(    2) = (   0.0000000   0.0000000   0.1666667), wk =   0.0185185
        k(    3) = (   0.0000000   0.0000000   0.3333333), wk =   0.0185185
        k(    4) = (   0.0000000   0.0000000  -0.5000000), wk =   0.0092593
        k(    5) = (   0.0000000   0.1666667   0.0000000), wk =   0.0370370
        k(    6) = (   0.0000000   0.1666667   0.1666667), wk =   0.0370370
        k(    7) = (   0.0000000   0.1666667   0.3333333), wk =   0.0370370
        k(    8) = (   0.0000000   0.1666667  -0.5000000), wk =   0.0370370
        k(    9) = (   0.0000000   0.3333333   0.0000000), wk =   0.0185185
        k(   10) = (   0.0000000   0.3333333   0.1666667), wk =   0.0370370
        k(   11) = (   0.0000000   0.3333333   0.3333333), wk =   0.0370370
        k(   12) = (   0.0000000   0.3333333  -0.5000000), wk =   0.0185185
        k(   13) = (   0.0000000  -0.5000000   0.0000000), wk =   0.0185185
        k(   14) = (   0.0000000  -0.5000000   0.1666667), wk =   0.0370370
        k(   15) = (   0.0000000  -0.5000000   0.3333333), wk =   0.0370370
        k(   16) = (   0.0000000  -0.5000000  -0.5000000), wk =   0.0185185
        k(   17) = (   0.1666667   0.0000000   0.0000000), wk =   0.0185185
        k(   18) = (   0.1666667   0.0000000   0.1666667), wk =   0.0185185
        k(   19) = (   0.1666667   0.0000000   0.3333333), wk =   0.0185185
        k(   20) = (   0.1666667   0.0000000  -0.5000000), wk =   0.0185185
        k(   21) = (   0.1666667   0.1666667   0.0000000), wk =   0.0370370
        k(   22) = (   0.1666667   0.1666667   0.1666667), wk =   0.0370370
        k(   23) = (   0.1666667   0.1666667   0.3333333), wk =   0.0370370
        k(   24) = (   0.1666667   0.1666667  -0.5000000), wk =   0.0370370
        k(   25) = (   0.1666667   0.3333333   0.0000000), wk =   0.0370370
        k(   26) = (   0.1666667   0.3333333   0.1666667), wk =   0.0370370
        k(   27) = (   0.1666667   0.3333333   0.3333333), wk =   0.0370370
        k(   28) = (   0.1666667   0.3333333  -0.5000000), wk =   0.0370370
        k(   29) = (   0.1666667  -0.5000000   0.0000000), wk =   0.0370370
        k(   30) = (   0.1666667  -0.5000000   0.1666667), wk =   0.0370370
        k(   31) = (   0.1666667  -0.5000000   0.3333333), wk =   0.0370370
        k(   32) = (   0.1666667  -0.5000000  -0.5000000), wk =   0.0370370
        k(   33) = (   0.1666667  -0.1666667   0.0000000), wk =   0.0370370
        k(   34) = (   0.1666667  -0.1666667   0.1666667), wk =   0.0370370
        k(   35) = (   0.1666667  -0.1666667   0.3333333), wk =   0.0370370
        k(   36) = (   0.1666667  -0.1666667  -0.5000000), wk =   0.0370370
        k(   37) = (   0.3333333   0.0000000   0.0000000), wk =   0.0185185
        k(   38) = (   0.3333333   0.0000000   0.1666667), wk =   0.0185185
        k(   39) = (   0.3333333   0.0000000   0.3333333), wk =   0.0185185
        k(   40) = (   0.3333333   0.0000000  -0.5000000), wk =   0.0185185
        k(   41) = (   0.3333333   0.3333333   0.0000000), wk =   0.0370370
        k(   42) = (   0.3333333   0.3333333   0.1666667), wk =   0.0370370
        k(   43) = (   0.3333333   0.3333333   0.3333333), wk =   0.0370370
        k(   44) = (   0.3333333   0.3333333  -0.5000000), wk =   0.0370370
        k(   45) = (  -0.5000000  -0.0000000   0.0000000), wk =   0.0092593
        k(   46) = (  -0.5000000  -0.0000000   0.1666667), wk =   0.0185185
        k(   47) = (  -0.5000000  -0.0000000   0.3333333), wk =   0.0185185
        k(   48) = (  -0.5000000  -0.0000000  -0.5000000), wk =   0.0092593
        k(   49) = (  -0.5000000   0.3333333   0.0000000), wk =   0.0185185
        k(   50) = (  -0.5000000   0.3333333   0.1666667), wk =   0.0370370
        k(   51) = (  -0.5000000   0.3333333   0.3333333), wk =   0.0370370
        k(   52) = (  -0.5000000   0.3333333  -0.5000000), wk =   0.0185185
        k(   53) = (   0.5000000  -0.1666667  -0.1666667), wk =   0.0370370
        k(   54) = (   0.5000000  -0.1666667  -0.3333333), wk =   0.0370370
        k(   55) = (   0.1666667   0.0000000  -0.1666667), wk =   0.0185185
        k(   56) = (   0.1666667   0.0000000  -0.3333333), wk =   0.0185185
        k(   57) = (   0.6666667  -0.1666667  -0.1666667), wk =   0.0370370
        k(   58) = (   0.6666667  -0.1666667  -0.3333333), wk =   0.0370370
        k(   59) = (   1.1666667  -0.3333333  -0.1666667), wk =   0.0370370
        k(   60) = (   1.1666667  -0.3333333  -0.3333333), wk =   0.0370370
        k(   61) = (  -1.3333333   0.5000000  -0.1666667), wk =   0.0370370
        k(   62) = (  -1.3333333   0.5000000  -0.3333333), wk =   0.0370370
        k(   63) = (  -0.3333333   0.1666667  -0.1666667), wk =   0.0370370
        k(   64) = (  -0.3333333   0.1666667  -0.3333333), wk =   0.0370370
        k(   65) = (   0.3333333   0.0000000  -0.1666667), wk =   0.0185185
        k(   66) = (   0.3333333   0.0000000  -0.3333333), wk =   0.0185185
        k(   67) = (   1.3333333  -0.3333333  -0.1666667), wk =   0.0370370
        k(   68) = (   1.3333333  -0.3333333  -0.3333333), wk =   0.0370370

     Check: negative core charge=   -0.000002

     Initial potential from superposition of free atoms

     starting charge     107.9776, renormalised to     108.0000
     Starting wfcs are   78 randomized atomic wfcs

     Self-consistent Calculation

     iteration #  1     ecut=    50.00 Ry     beta= 0.30
     Davidson diagonalization with overlap

     ethr =  1.00E-02,  avg # of iterations =  2.0

     total energy              =   -1084.41753775 Ry
     estimated scf accuracy    <       2.02483520 Ry

[...]

     total energy              =   -1084.86139346 Ry
     estimated scf accuracy    <       0.00000005 Ry

     iteration # 28     ecut=    50.00 Ry     beta= 0.30
     Davidson diagonalization with overlap

     ethr =  4.66E-11,  avg # of iterations =  3.5

     End of self-consistent calculation

          k = 0.0000 0.0000 0.0000 (  5403 PWs)   bands (ev):

   -10.4168  -9.8615  -9.8615  -9.6752  -9.4371  -9.4371   1.7338   1.7338
     1.9681   2.1240   2.1240   2.1407   2.1409   2.2074   2.3298   2.3300
     2.3961   2.3961   2.6174   2.6174   2.7919   2.7919   2.8663   2.8663
     3.4074   3.4074   3.5530   3.5531   3.6337   3.6337   3.7641   3.7641
     3.7980   3.7981   3.9339   3.9339   4.0988   4.2015   4.2015   4.8605
     4.8605   5.8508   5.8508   6.3074   6.3074   7.2419   7.2419   7.4524
     7.4528   7.5104   7.5104   7.9910   8.2141   8.2145

     occupation numbers
     1.0000   1.0000   1.0000   1.0000   1.0000   1.0000   1.0000   1.0000
     1.0000   1.0000   1.0000   1.0000   1.0000   1.0000   1.0000   1.0000
     1.0000   1.0000   1.0000   1.0000   1.0000   1.0000   1.0000   1.0000
     1.0000   1.0000   1.0000   1.0000   1.0000   1.0000   1.0000   1.0000
     1.0000   1.0000   1.0000   1.0000   1.0000   1.0000   1.0000   1.0000
     1.0000   1.0000   1.0000   1.0000   1.0000   1.0000   1.0000   1.0000
     1.0000   1.0000   1.0000   1.0000   1.0000   1.0000

[...]

          k =-0.5000-0.2887 0.0000 (  5444 PWs)   bands (ev):

[...]

          k =-0.3333 0.3849-0.5956 (  5449 PWs)   bands (ev):

[...]

          k = 1.3333-0.3849-0.5956 (  5431 PWs)   bands (ev):

    -9.8321  -9.6299  -9.5882  -9.5097  -9.4746  -9.4285   1.7308   1.7400
     1.8456   1.8512   1.9663   2.0466   2.3817   2.4007   2.4398   2.4784
     2.5663   2.5867   2.6267   2.6411   2.7585   2.7948   2.9103   2.9199
     3.5610   3.5870   3.6021   3.6490   3.6655   3.7161   3.7420   3.7960
     3.8083   3.8973   3.9017   4.0716   4.2473   4.4915   4.5827   4.8483
     5.0084   5.2428   5.5902   5.8915   5.9925   6.0250   6.1546   6.3481
     6.5929   6.7790   6.8024   6.9852   7.1354   7.2175

     occupation numbers
     1.0000   1.0000   1.0000   1.0000   1.0000   1.0000   1.0000   1.0000
     1.0000   1.0000   1.0000   1.0000   1.0000   1.0000   1.0000   1.0000
     1.0000   1.0000   1.0000   1.0000   1.0000   1.0000   1.0000   1.0000
     1.0000   1.0000   1.0000   1.0000   1.0000   1.0000   1.0000   1.0000
     1.0000   1.0000   1.0000   1.0000   1.0000   1.0000   1.0000   1.0000
     1.0000   1.0000   1.0000   1.0000   1.0000   1.0000   1.0000   1.0000
     1.0000   1.0000   1.0000   1.0000   1.0000   1.0000

     highest occupied level (ev):     8.2145

!    total energy              =   -1084.86139346 Ry
     estimated scf accuracy    <          4.1E-09 Ry

     The total energy is the sum of the following terms:
     one-electron contribution =    -434.68997268 Ry
     hartree contribution      =     344.69436699 Ry
     xc contribution           =    -329.17442839 Ry
     ewald contribution        =    -665.69135938 Ry

     convergence has been achieved in  28 iterations

     Forces acting on atoms (cartesian axes, Ry/au):

     atom    1 type  1   force =     0.00000798    0.00000461    0.01735917
     atom    2 type  1   force =    -0.00000997   -0.00000576    0.01736260
     atom    3 type  2   force =    -0.00000392   -0.00000226   -0.01736163
     atom    4 type  2   force =     0.00000223    0.00000129   -0.01735972
     atom    5 type  1   force =     0.00000867    0.00000501    0.01736100
     atom    6 type  1   force =    -0.00000570   -0.00000329    0.01736052
     atom    7 type  2   force =    -0.00000231   -0.00000133   -0.01735931
     atom    8 type  2   force =     0.00000317    0.00000183   -0.01736199
     atom    9 type  1   force =     0.00001035    0.00000597    0.01735993
     atom   10 type  1   force =    -0.00001058   -0.00000611    0.01736087
     atom   11 type  2   force =    -0.00000264   -0.00000153   -0.01735996
     atom   12 type  2   force =     0.00000272    0.00000157   -0.01736150
     The non-local contrib.  to forces
     atom    1 type  1   force =    -0.00001591   -0.00000918    0.10980648
     atom    2 type  1   force =     0.00001718    0.00000992    0.10980991
     atom    3 type  2   force =    -0.00018992   -0.00010965    0.09781777
     atom    4 type  2   force =     0.00019044    0.00010995    0.09781825
     atom    5 type  1   force =    -0.00001794   -0.00001036    0.10980977
     atom    6 type  1   force =     0.00001857    0.00001072    0.10980791
     atom    7 type  2   force =    -0.00018928   -0.00010928    0.09781687
     atom    8 type  2   force =     0.00018944    0.00010937    0.09781992
     atom    9 type  1   force =    -0.00001737   -0.00001003    0.10980813
     atom   10 type  1   force =     0.00001533    0.00000885    0.10980837
     atom   11 type  2   force =    -0.00018880   -0.00010900    0.09781761
     atom   12 type  2   force =     0.00018942    0.00010936    0.09781833
     The ionic contribution  to forces
     atom    1 type  1   force =     0.00000001    0.00000001    0.92239742
     atom    2 type  1   force =     0.00000001    0.00000000    0.92239742
     atom    3 type  2   force =     0.00000000    0.00000000   -0.92239742
     atom    4 type  2   force =     0.00000000    0.00000000   -0.92239742
     atom    5 type  1   force =    -0.00000001    0.00000000    0.92239741
     atom    6 type  1   force =     0.00000001   -0.00000000    0.92239741
     atom    7 type  2   force =    -0.00000001    0.00000000   -0.92239741
     atom    8 type  2   force =     0.00000001   -0.00000000   -0.92239741
     atom    9 type  1   force =    -0.00000001   -0.00000000    0.92239742
     atom   10 type  1   force =    -0.00000001   -0.00000001    0.92239742
     atom   11 type  2   force =    -0.00000000   -0.00000000   -0.92239742
     atom   12 type  2   force =    -0.00000000   -0.00000000   -0.92239742
     The local contribution  to forces
     atom    1 type  1   force =     0.00003091    0.00001784   -1.00646074
     atom    2 type  1   force =    -0.00003157   -0.00001828   -1.00646845
     atom    3 type  2   force =     0.00018302    0.00010567    0.80795918
     atom    4 type  2   force =    -0.00018474   -0.00010667    0.80796315
     atom    5 type  1   force =     0.00003346    0.00001941   -1.00646816
     atom    6 type  1   force =    -0.00003747   -0.00002173   -1.00646287
     atom    7 type  2   force =     0.00018428    0.00010642    0.80796238
     atom    8 type  2   force =    -0.00018346   -0.00010595    0.80795857
     atom    9 type  1   force =     0.00003134    0.00001814   -1.00646383
     atom   10 type  1   force =    -0.00002744   -0.00001584   -1.00646357
     atom   11 type  2   force =     0.00018417    0.00010634    0.80796087
     atom   12 type  2   force =    -0.00018393   -0.00010619    0.80796109
     The core correction contribution to forces
     atom    1 type  1   force =    -0.00000679   -0.00000392   -0.00838700
     atom    2 type  1   force =     0.00000674    0.00000388   -0.00838694
     atom    3 type  2   force =     0.00000214    0.00000124   -0.00074405
     atom    4 type  2   force =    -0.00000215   -0.00000124   -0.00074405
     atom    5 type  1   force =    -0.00000682   -0.00000392   -0.00838685
     atom    6 type  1   force =     0.00000693    0.00000399   -0.00838706
     atom    7 type  2   force =     0.00000214    0.00000123   -0.00074403
     atom    8 type  2   force =    -0.00000214   -0.00000123   -0.00074408
     atom    9 type  1   force =    -0.00000675   -0.00000389   -0.00838698
     atom   10 type  1   force =     0.00000664    0.00000384   -0.00838705
     atom   11 type  2   force =     0.00000213    0.00000123   -0.00074404
     atom   12 type  2   force =    -0.00000214   -0.00000123   -0.00074405
     The Hubbard contrib.    to forces
     atom    1 type  1   force =     0.00000000    0.00000000    0.00000000
     atom    2 type  1   force =     0.00000000    0.00000000    0.00000000
     atom    3 type  2   force =     0.00000000    0.00000000    0.00000000
     atom    4 type  2   force =     0.00000000    0.00000000    0.00000000
     atom    5 type  1   force =     0.00000000    0.00000000    0.00000000
     atom    6 type  1   force =     0.00000000    0.00000000    0.00000000
     atom    7 type  2   force =     0.00000000    0.00000000    0.00000000
     atom    8 type  2   force =     0.00000000    0.00000000    0.00000000
     atom    9 type  1   force =     0.00000000    0.00000000    0.00000000
     atom   10 type  1   force =     0.00000000    0.00000000    0.00000000
     atom   11 type  2   force =     0.00000000    0.00000000    0.00000000
     atom   12 type  2   force =     0.00000000    0.00000000    0.00000000
     The SCF correction term to forces
     atom    1 type  1   force =    -0.00000008   -0.00000004    0.00000150
     atom    2 type  1   force =    -0.00000214   -0.00000124    0.00000916
     atom    3 type  2   force =     0.00000100    0.00000058    0.00000138
     atom    4 type  2   force =    -0.00000116   -0.00000067   -0.00000116
     atom    5 type  1   force =     0.00000009    0.00000005    0.00000733
     atom    6 type  1   force =     0.00000648    0.00000374    0.00000363
     atom    7 type  2   force =     0.00000071    0.00000041    0.00000139
     atom    8 type  2   force =    -0.00000050   -0.00000029   -0.00000048
     atom    9 type  1   force =     0.00000326    0.00000188    0.00000368
     atom   10 type  1   force =    -0.00000495   -0.00000286    0.00000420
     atom   11 type  2   force =     0.00000002    0.00000001    0.00000153
     atom   12 type  2   force =    -0.00000046   -0.00000027   -0.00000096

     Total force =     0.060139     Total SCF correction =     0.000017

     General routines

     Parallel routines

   This run was terminated on:  16:30:13  27Aug2025

   JOB DONE.