     Program PWSCF v.7.0 starts on 28Aug2025 at  4:50:20

     K-points division:     npool     =      17

     Reading input from /home/jvc/QEspresso7.2/ZnO_database/scripts/cell311.in/ZnO-3.53-1.78-311.in
Warning: card &CELL ignored
Warning: card / ignored
Warning: card &FCP ignored
Warning: card / ignored
Warning: card &RISM ignored
Warning: card / ignored

     Current dimensions of program PWSCF are:
     Max number of different atomic species (ntypx) = 10
     Max number of k-points (npk) =  40000
     Max angular momentum in pseudopotentials (lmaxx) =  4
     file Zn.upf: wavefunction(s)  3D renormalized
     Found identity + (  0.3333  0.0000  0.0000) symmetry
     This is a supercell, fractional translations are disabled
     Message from routine setup:
     using ibrav=0 with symmetry is DISCOURAGED, use correct ibrav instead

     Subspace diagonalization in iterative solution of the eigenvalue problem:
     a serial algorithm will be used

     Using Slab Decomposition

     bravais-lattice index     =            0
     lattice parameter (alat)  =      20.0195  a.u.
     unit-cell volume          =    1371.0067 (a.u.)^3
     number of atoms/cell      =           12
     number of atomic types    =            2
     number of electrons       =       108.00
     number of Kohn-Sham states=           54
     kinetic-energy cutoff     =      50.0000  Ry
     charge density cutoff     =     400.0000  Ry
     scf convergence threshold =      1.0E-08
     mixing beta               =       0.3000
     number of iterations used =            8  plain     mixing
     Exchange-correlation= PBE
                           (   1   4   3   4   0   0   0)

     celldm(1)=  20.019487  celldm(2)=   0.000000  celldm(3)=   0.000000
     celldm(4)=   0.000000  celldm(5)=   0.000000  celldm(6)=   0.000000

     crystal axes: (cart. coord. in units of alat)
               a(1) = (   1.000000   0.000000   0.000000 )
               a(2) = (  -0.166667   0.288675   0.000000 )
               a(3) = (   0.000000   0.000000   0.591931 )

     reciprocal axes: (cart. coord. in units 2 pi/alat)
               b(1) = (  1.000000  0.577350 -0.000000 )
               b(2) = (  0.000000  3.464102  0.000000 )
               b(3) = (  0.000000 -0.000000  1.689385 )

     PseudoPot. # 1 for Zn read from file:
     /home/jvc/QEspresso7.2/ZnO_database/pseudos/Zn.upf
     MD5 check sum: 7f56cabf9682ed8c977c2f7d0c5985c5
     Pseudo is Ultrasoft + core correction, Zval = 12.0
     Generated using &quot;atomic&quot; code by A. Dal Corso  v.6.2.2
     Using radial grid of 1201 points,  6 beta functions with:
                l(1) =   0
                l(2) =   0
                l(3) =   1
                l(4) =   1
                l(5) =   2
                l(6) =   2
     Q(r) pseudized with 0 coefficients

     PseudoPot. # 2 for O  read from file:
     /home/jvc/QEspresso7.2/ZnO_database/pseudos/O.upf
     MD5 check sum: 91400c9766925bcf19f520983a725ff0
     Pseudo is Ultrasoft + core correction, Zval =  6.0
     Generated using &quot;atomic&quot; code by A. Dal Corso  v.6.3MaX
     Using radial grid of 1095 points,  4 beta functions with:
                l(1) =   0
                l(2) =   0
                l(3) =   1
                l(4) =   1
     Q(r) pseudized with 0 coefficients

     atomic species   valence    mass     pseudopotential
        Zn            12.00    65.38000     Zn( 1.00)
        O              6.00    15.99900     O ( 1.00)

      2 Sym. Ops. (no inversion) found

                                    s                        frac. trans.

      isym =  1     identity

 cryst.   s( 1) = (     1          0          0      )
                  (     0          1          0      )
                  (     0          0          1      )

 cart.    s( 1) = (  1.0000000  0.0000000  0.0000000 )
                  (  0.0000000  1.0000000  0.0000000 )
                  (  0.0000000  0.0000000  1.0000000 )

      isym =  2     inv. 180 deg rotation - cryst. axis [0,1,0]

 cryst.   s( 2) = (     1          3          0      )
                  (     0         -1          0      )
                  (     0          0          1      )

 cart.    s( 2) = (  0.5000000  0.8660254  0.0000000 )
                  (  0.8660254 -0.5000000  0.0000000 )
                  (  0.0000000  0.0000000  1.0000000 )

   Cartesian axes

     site n.     atom                  positions (alat units)
         1           Zn  tau(   1) = (   0.1666667   0.0962250   0.2963407  )
         2           Zn  tau(   2) = (  -0.0000000   0.1924501   0.0003750  )
         3           O   tau(   3) = (   0.1666667   0.0962250   0.5207081  )
         4           O   tau(   4) = (  -0.0000000   0.1924501   0.2247424  )
         5           Zn  tau(   5) = (   0.5000000   0.0962250   0.2963407  )
         6           Zn  tau(   6) = (   0.3333333   0.1924501   0.0003750  )
         7           O   tau(   7) = (   0.5000000   0.0962250   0.5207081  )
         8           O   tau(   8) = (   0.3333333   0.1924501   0.2247424  )
         9           Zn  tau(   9) = (   0.8333333   0.0962250   0.2963407  )
        10           Zn  tau(  10) = (   0.6666667   0.1924501   0.0003750  )
        11           O   tau(  11) = (   0.8333333   0.0962250   0.5207081  )
        12           O   tau(  12) = (   0.6666667   0.1924501   0.2247424  )

   Crystallographic axes

     site n.     atom                  positions (cryst. coord.)
         1           Zn  tau(   1) = (  0.2222222  0.3333333  0.5006336  )
         2           Zn  tau(   2) = (  0.1111111  0.6666667  0.0006336  )
         3           O   tau(   3) = (  0.2222222  0.3333333  0.8796764  )
         4           O   tau(   4) = (  0.1111111  0.6666667  0.3796764  )
         5           Zn  tau(   5) = (  0.5555556  0.3333333  0.5006336  )
         6           Zn  tau(   6) = (  0.4444444  0.6666667  0.0006336  )
         7           O   tau(   7) = (  0.5555556  0.3333333  0.8796764  )
         8           O   tau(   8) = (  0.4444444  0.6666667  0.3796764  )
         9           Zn  tau(   9) = (  0.8888889  0.3333333  0.5006336  )
        10           Zn  tau(  10) = (  0.7777778  0.6666667  0.0006336  )
        11           O   tau(  11) = (  0.8888889  0.3333333  0.8796764  )
        12           O   tau(  12) = (  0.7777778  0.6666667  0.3796764  )

     number of k points=    68
                       cart. coord. in units 2pi/alat
        k(    1) = (   0.0000000   0.0000000   0.0000000), wk =   0.0092593
        k(    2) = (   0.0000000   0.0000000   0.2815642), wk =   0.0185185
        k(    3) = (   0.0000000   0.0000000   0.5631283), wk =   0.0185185
        k(    4) = (   0.0000000   0.0000000  -0.8446925), wk =   0.0092593
        k(    5) = (   0.0000000   0.5773503   0.0000000), wk =   0.0370370
        k(    6) = (   0.0000000   0.5773503   0.2815642), wk =   0.0370370
        k(    7) = (   0.0000000   0.5773503   0.5631283), wk =   0.0370370
        k(    8) = (   0.0000000   0.5773503  -0.8446925), wk =   0.0370370
        k(    9) = (   0.0000000   1.1547005   0.0000000), wk =   0.0185185
        k(   10) = (   0.0000000   1.1547005   0.2815642), wk =   0.0370370
        k(   11) = (   0.0000000   1.1547005   0.5631283), wk =   0.0370370
        k(   12) = (   0.0000000   1.1547005  -0.8446925), wk =   0.0185185
        k(   13) = (   0.0000000  -1.7320508   0.0000000), wk =   0.0185185
        k(   14) = (   0.0000000  -1.7320508   0.2815642), wk =   0.0370370
        k(   15) = (   0.0000000  -1.7320508   0.5631283), wk =   0.0370370
        k(   16) = (   0.0000000  -1.7320508  -0.8446925), wk =   0.0185185
        k(   17) = (   0.1666667   0.0962250   0.0000000), wk =   0.0185185
        k(   18) = (   0.1666667   0.0962250   0.2815642), wk =   0.0185185
        k(   19) = (   0.1666667   0.0962250   0.5631283), wk =   0.0185185
        k(   20) = (   0.1666667   0.0962250  -0.8446925), wk =   0.0185185
        k(   21) = (   0.1666667   0.6735753   0.0000000), wk =   0.0370370
        k(   22) = (   0.1666667   0.6735753   0.2815642), wk =   0.0370370
        k(   23) = (   0.1666667   0.6735753   0.5631283), wk =   0.0370370
        k(   24) = (   0.1666667   0.6735753  -0.8446925), wk =   0.0370370
        k(   25) = (   0.1666667   1.2509256   0.0000000), wk =   0.0370370
        k(   26) = (   0.1666667   1.2509256   0.2815642), wk =   0.0370370
        k(   27) = (   0.1666667   1.2509256   0.5631283), wk =   0.0370370
        k(   28) = (   0.1666667   1.2509256  -0.8446925), wk =   0.0370370
        k(   29) = (   0.1666667  -1.6358258   0.0000000), wk =   0.0370370
        k(   30) = (   0.1666667  -1.6358258   0.2815642), wk =   0.0370370
        k(   31) = (   0.1666667  -1.6358258   0.5631283), wk =   0.0370370
        k(   32) = (   0.1666667  -1.6358258  -0.8446925), wk =   0.0370370
        k(   33) = (   0.1666667  -0.4811252   0.0000000), wk =   0.0370370
        k(   34) = (   0.1666667  -0.4811252   0.2815642), wk =   0.0370370
        k(   35) = (   0.1666667  -0.4811252   0.5631283), wk =   0.0370370
        k(   36) = (   0.1666667  -0.4811252  -0.8446925), wk =   0.0370370
        k(   37) = (   0.3333333   0.1924501   0.0000000), wk =   0.0185185
        k(   38) = (   0.3333333   0.1924501   0.2815642), wk =   0.0185185
        k(   39) = (   0.3333333   0.1924501   0.5631283), wk =   0.0185185
        k(   40) = (   0.3333333   0.1924501  -0.8446925), wk =   0.0185185
        k(   41) = (   0.3333333   1.3471506   0.0000000), wk =   0.0370370
        k(   42) = (   0.3333333   1.3471506   0.2815642), wk =   0.0370370
        k(   43) = (   0.3333333   1.3471506   0.5631283), wk =   0.0370370
        k(   44) = (   0.3333333   1.3471506  -0.8446925), wk =   0.0370370
        k(   45) = (  -0.5000000  -0.2886751   0.0000000), wk =   0.0092593
        k(   46) = (  -0.5000000  -0.2886751   0.2815642), wk =   0.0185185
        k(   47) = (  -0.5000000  -0.2886751   0.5631283), wk =   0.0185185
        k(   48) = (  -0.5000000  -0.2886751  -0.8446925), wk =   0.0092593
        k(   49) = (  -0.5000000   0.8660254   0.0000000), wk =   0.0185185
        k(   50) = (  -0.5000000   0.8660254   0.2815642), wk =   0.0370370
        k(   51) = (  -0.5000000   0.8660254   0.5631283), wk =   0.0370370
        k(   52) = (  -0.5000000   0.8660254  -0.8446925), wk =   0.0185185
        k(   53) = (   0.5000000  -0.2886751  -0.2815642), wk =   0.0370370
        k(   54) = (   0.5000000  -0.2886751  -0.5631283), wk =   0.0370370
        k(   55) = (   0.1666667   0.0962250  -0.2815642), wk =   0.0185185
        k(   56) = (   0.1666667   0.0962250  -0.5631283), wk =   0.0185185
        k(   57) = (   0.6666667  -0.1924501  -0.2815642), wk =   0.0370370
        k(   58) = (   0.6666667  -0.1924501  -0.5631283), wk =   0.0370370
        k(   59) = (   1.1666667  -0.4811252  -0.2815642), wk =   0.0370370
        k(   60) = (   1.1666667  -0.4811252  -0.5631283), wk =   0.0370370
        k(   61) = (  -1.3333333   0.9622504  -0.2815642), wk =   0.0370370
        k(   62) = (  -1.3333333   0.9622504  -0.5631283), wk =   0.0370370
        k(   63) = (  -0.3333333   0.3849002  -0.2815642), wk =   0.0370370
        k(   64) = (  -0.3333333   0.3849002  -0.5631283), wk =   0.0370370
        k(   65) = (   0.3333333   0.1924501  -0.2815642), wk =   0.0185185
        k(   66) = (   0.3333333   0.1924501  -0.5631283), wk =   0.0185185
        k(   67) = (   1.3333333  -0.3849002  -0.2815642), wk =   0.0370370
        k(   68) = (   1.3333333  -0.3849002  -0.5631283), wk =   0.0370370

                       cryst. coord.
        k(    1) = (   0.0000000   0.0000000   0.0000000), wk =   0.0092593
        k(    2) = (   0.0000000   0.0000000   0.1666667), wk =   0.0185185
        k(    3) = (   0.0000000   0.0000000   0.3333333), wk =   0.0185185
        k(    4) = (   0.0000000   0.0000000  -0.5000000), wk =   0.0092593
        k(    5) = (   0.0000000   0.1666667   0.0000000), wk =   0.0370370
        k(    6) = (   0.0000000   0.1666667   0.1666667), wk =   0.0370370
        k(    7) = (   0.0000000   0.1666667   0.3333333), wk =   0.0370370
        k(    8) = (   0.0000000   0.1666667  -0.5000000), wk =   0.0370370
        k(    9) = (   0.0000000   0.3333333   0.0000000), wk =   0.0185185
        k(   10) = (   0.0000000   0.3333333   0.1666667), wk =   0.0370370
        k(   11) = (   0.0000000   0.3333333   0.3333333), wk =   0.0370370
        k(   12) = (   0.0000000   0.3333333  -0.5000000), wk =   0.0185185
        k(   13) = (   0.0000000  -0.5000000   0.0000000), wk =   0.0185185
        k(   14) = (   0.0000000  -0.5000000   0.1666667), wk =   0.0370370
        k(   15) = (   0.0000000  -0.5000000   0.3333333), wk =   0.0370370
        k(   16) = (   0.0000000  -0.5000000  -0.5000000), wk =   0.0185185
        k(   17) = (   0.1666667   0.0000000   0.0000000), wk =   0.0185185
        k(   18) = (   0.1666667   0.0000000   0.1666667), wk =   0.0185185
        k(   19) = (   0.1666667   0.0000000   0.3333333), wk =   0.0185185
        k(   20) = (   0.1666667   0.0000000  -0.5000000), wk =   0.0185185
        k(   21) = (   0.1666667   0.1666667   0.0000000), wk =   0.0370370
        k(   22) = (   0.1666667   0.1666667   0.1666667), wk =   0.0370370
        k(   23) = (   0.1666667   0.1666667   0.3333333), wk =   0.0370370
        k(   24) = (   0.1666667   0.1666667  -0.5000000), wk =   0.0370370
        k(   25) = (   0.1666667   0.3333333   0.0000000), wk =   0.0370370
        k(   26) = (   0.1666667   0.3333333   0.1666667), wk =   0.0370370
        k(   27) = (   0.1666667   0.3333333   0.3333333), wk =   0.0370370
        k(   28) = (   0.1666667   0.3333333  -0.5000000), wk =   0.0370370
        k(   29) = (   0.1666667  -0.5000000   0.0000000), wk =   0.0370370
        k(   30) = (   0.1666667  -0.5000000   0.1666667), wk =   0.0370370
        k(   31) = (   0.1666667  -0.5000000   0.3333333), wk =   0.0370370
        k(   32) = (   0.1666667  -0.5000000  -0.5000000), wk =   0.0370370
        k(   33) = (   0.1666667  -0.1666667   0.0000000), wk =   0.0370370
        k(   34) = (   0.1666667  -0.1666667   0.1666667), wk =   0.0370370
        k(   35) = (   0.1666667  -0.1666667   0.3333333), wk =   0.0370370
        k(   36) = (   0.1666667  -0.1666667  -0.5000000), wk =   0.0370370
        k(   37) = (   0.3333333   0.0000000   0.0000000), wk =   0.0185185
        k(   38) = (   0.3333333   0.0000000   0.1666667), wk =   0.0185185
        k(   39) = (   0.3333333   0.0000000   0.3333333), wk =   0.0185185
        k(   40) = (   0.3333333   0.0000000  -0.5000000), wk =   0.0185185
        k(   41) = (   0.3333333   0.3333333   0.0000000), wk =   0.0370370
        k(   42) = (   0.3333333   0.3333333   0.1666667), wk =   0.0370370
        k(   43) = (   0.3333333   0.3333333   0.3333333), wk =   0.0370370
        k(   44) = (   0.3333333   0.3333333  -0.5000000), wk =   0.0370370
        k(   45) = (  -0.5000000  -0.0000000   0.0000000), wk =   0.0092593
        k(   46) = (  -0.5000000  -0.0000000   0.1666667), wk =   0.0185185
        k(   47) = (  -0.5000000  -0.0000000   0.3333333), wk =   0.0185185
        k(   48) = (  -0.5000000  -0.0000000  -0.5000000), wk =   0.0092593
        k(   49) = (  -0.5000000   0.3333333   0.0000000), wk =   0.0185185
        k(   50) = (  -0.5000000   0.3333333   0.1666667), wk =   0.0370370
        k(   51) = (  -0.5000000   0.3333333   0.3333333), wk =   0.0370370
        k(   52) = (  -0.5000000   0.3333333  -0.5000000), wk =   0.0185185
        k(   53) = (   0.5000000  -0.1666667  -0.1666667), wk =   0.0370370
        k(   54) = (   0.5000000  -0.1666667  -0.3333333), wk =   0.0370370
        k(   55) = (   0.1666667   0.0000000  -0.1666667), wk =   0.0185185
        k(   56) = (   0.1666667   0.0000000  -0.3333333), wk =   0.0185185
        k(   57) = (   0.6666667  -0.1666667  -0.1666667), wk =   0.0370370
        k(   58) = (   0.6666667  -0.1666667  -0.3333333), wk =   0.0370370
        k(   59) = (   1.1666667  -0.3333333  -0.1666667), wk =   0.0370370
        k(   60) = (   1.1666667  -0.3333333  -0.3333333), wk =   0.0370370
        k(   61) = (  -1.3333333   0.5000000  -0.1666667), wk =   0.0370370
        k(   62) = (  -1.3333333   0.5000000  -0.3333333), wk =   0.0370370
        k(   63) = (  -0.3333333   0.1666667  -0.1666667), wk =   0.0370370
        k(   64) = (  -0.3333333   0.1666667  -0.3333333), wk =   0.0370370
        k(   65) = (   0.3333333   0.0000000  -0.1666667), wk =   0.0185185
        k(   66) = (   0.3333333   0.0000000  -0.3333333), wk =   0.0185185
        k(   67) = (   1.3333333  -0.3333333  -0.1666667), wk =   0.0370370
        k(   68) = (   1.3333333  -0.3333333  -0.3333333), wk =   0.0370370

     Check: negative core charge=   -0.000003

     Initial potential from superposition of free atoms

     starting charge     107.9776, renormalised to     108.0000
     Starting wfcs are   78 randomized atomic wfcs

     Self-consistent Calculation

     iteration #  1     ecut=    50.00 Ry     beta= 0.30
     Davidson diagonalization with overlap

     ethr =  1.00E-02,  avg # of iterations =  1.2

     total energy              =   -1083.90165302 Ry
     estimated scf accuracy    <       2.68478566 Ry

[...]

     c_bands:  1 eigenvalues not converged
     c_bands:  1 eigenvalues not converged
     ethr =  1.38E-08,  avg # of iterations = 17.2

[...]

     c_bands:  1 eigenvalues not converged
     ethr =  1.38E-08,  avg # of iterations = 10.7

[...]

     total energy              =   -1084.56012888 Ry
     estimated scf accuracy    <       0.00000012 Ry

     iteration # 21     ecut=    50.00 Ry     beta= 0.30
     Davidson diagonalization with overlap

     ethr =  1.12E-10,  avg # of iterations =  9.1

     End of self-consistent calculation

          k = 0.0000 0.0000 0.0000 (  8155 PWs)   bands (ev):

   -13.0306 -12.7977 -12.7977 -12.7899 -12.6624 -12.6624  -1.8567  -1.8564
    -1.8396  -1.8396  -1.8213  -1.7904  -1.7902  -1.7446  -1.7446  -1.7356
    -1.7356  -1.5948  -1.5947  -1.5783  -1.5783  -1.4764  -1.4764  -1.4349
    -1.4273  -1.4273  -1.4052  -1.4051  -1.3673  -1.3673  -1.3465  -1.3465
    -1.3295  -1.3295  -1.2355  -1.2355  -0.3018   0.2290   0.2290   0.6097
     0.6097   1.2173   1.2173   2.0955   2.0955   2.5004   2.5004   2.6123
     2.6123   2.7042   2.7052   2.7461   3.0221   3.0232

     occupation numbers
     1.0000   1.0000   1.0000   1.0000   1.0000   1.0000   1.0000   1.0000
     1.0000   1.0000   1.0000   1.0000   1.0000   1.0000   1.0000   1.0000
     1.0000   1.0000   1.0000   1.0000   1.0000   1.0000   1.0000   1.0000
     1.0000   1.0000   1.0000   1.0000   1.0000   1.0000   1.0000   1.0000
     1.0000   1.0000   1.0000   1.0000   1.0000   1.0000   1.0000   1.0000
     1.0000   1.0000   1.0000   1.0000   1.0000   1.0000   1.0000   1.0000
     1.0000   1.0000   1.0000   1.0000   1.0000   1.0000

[...]

          k =-0.5000-0.2887 0.0000 (  8216 PWs)   bands (ev):

[...]

          k =-0.3333 0.3849-0.5631 (  8193 PWs)   bands (ev):

[...]

          k = 1.3333-0.3849-0.5631 (  8180 PWs)   bands (ev):

   -12.7960 -12.7183 -12.7131 -12.6650 -12.6637 -12.6391  -1.8150  -1.7999
    -1.7757  -1.7662  -1.7409  -1.7270  -1.6832  -1.6799  -1.6774  -1.6351
    -1.6264  -1.6021  -1.5843  -1.5732  -1.5261  -1.5082  -1.4860  -1.4751
    -1.4045  -1.3788  -1.3763  -1.3692  -1.3544  -1.3454  -1.3413  -1.3127
    -1.3110  -1.2695  -1.2437  -1.2094   0.0905   0.1331   0.2029   0.3156
     0.4274   0.7752   1.3099   1.6480   1.6898   1.7181   1.9339   1.9479
     2.1699   2.1799   2.2424   2.3254   2.3697   2.4547

     occupation numbers
     1.0000   1.0000   1.0000   1.0000   1.0000   1.0000   1.0000   1.0000
     1.0000   1.0000   1.0000   1.0000   1.0000   1.0000   1.0000   1.0000
     1.0000   1.0000   1.0000   1.0000   1.0000   1.0000   1.0000   1.0000
     1.0000   1.0000   1.0000   1.0000   1.0000   1.0000   1.0000   1.0000
     1.0000   1.0000   1.0000   1.0000   1.0000   1.0000   1.0000   1.0000
     1.0000   1.0000   1.0000   1.0000   1.0000   1.0000   1.0000   1.0000
     1.0000   1.0000   1.0000   1.0000   1.0000   1.0000

     highest occupied level (ev):     3.0232

!    total energy              =   -1084.56012902 Ry
     estimated scf accuracy    <          3.8E-09 Ry

     The total energy is the sum of the following terms:
     one-electron contribution =    -573.01551675 Ry
     hartree contribution      =     395.26531675 Ry
     xc contribution           =    -326.98162506 Ry
     ewald contribution        =    -579.82830397 Ry

     convergence has been achieved in  21 iterations

     Forces acting on atoms (cartesian axes, Ry/au):

     atom    1 type  1   force =    -0.00002346   -0.00001355   -0.01604988
     atom    2 type  1   force =     0.00000114    0.00000066   -0.01604297
     atom    3 type  2   force =    -0.00001494   -0.00000863    0.01604679
     atom    4 type  2   force =     0.00001611    0.00000930    0.01604751
     atom    5 type  1   force =    -0.00000450   -0.00000260   -0.01604669
     atom    6 type  1   force =     0.00003132    0.00001809   -0.01604651
     atom    7 type  2   force =    -0.00001573   -0.00000908    0.01604820
     atom    8 type  2   force =     0.00001507    0.00000870    0.01604718
     atom    9 type  1   force =    -0.00002128   -0.00001228   -0.01604639
     atom   10 type  1   force =     0.00001515    0.00000875   -0.01605413
     atom   11 type  2   force =    -0.00001430   -0.00000826    0.01604848
     atom   12 type  2   force =     0.00001542    0.00000890    0.01604841
     The non-local contrib.  to forces
     atom    1 type  1   force =     0.00004553    0.00002628    0.21253644
     atom    2 type  1   force =    -0.00005737   -0.00003312    0.21253912
     atom    3 type  2   force =    -0.00023022   -0.00013292    0.25701224
     atom    4 type  2   force =     0.00023637    0.00013647    0.25701581
     atom    5 type  1   force =     0.00005703    0.00003293    0.21253576
     atom    6 type  1   force =    -0.00004257   -0.00002458    0.21253832
     atom    7 type  2   force =    -0.00023665   -0.00013663    0.25701434
     atom    8 type  2   force =     0.00022647    0.00013075    0.25701604
     atom    9 type  1   force =     0.00004845    0.00002797    0.21253437
     atom   10 type  1   force =    -0.00005243   -0.00003027    0.21253295
     atom   11 type  2   force =    -0.00022542   -0.00013015    0.25701677
     atom   12 type  2   force =     0.00022993    0.00013275    0.25701941
     The ionic contribution  to forces
     atom    1 type  1   force =     0.00000001    0.00000000    1.64023929
     atom    2 type  1   force =     0.00000001    0.00000000    1.64023929
     atom    3 type  2   force =     0.00000000    0.00000000   -1.64023929
     atom    4 type  2   force =     0.00000000    0.00000000   -1.64023929
     atom    5 type  1   force =    -0.00000001    0.00000000    1.64023929
     atom    6 type  1   force =     0.00000001   -0.00000000    1.64023929
     atom    7 type  2   force =    -0.00000001    0.00000000   -1.64023929
     atom    8 type  2   force =     0.00000001   -0.00000000   -1.64023929
     atom    9 type  1   force =    -0.00000001   -0.00000000    1.64023929
     atom   10 type  1   force =    -0.00000001   -0.00000000    1.64023929
     atom   11 type  2   force =    -0.00000000   -0.00000000   -1.64023929
     atom   12 type  2   force =    -0.00000000   -0.00000000   -1.64023929
     The local contribution  to forces
     atom    1 type  1   force =    -0.00004483   -0.00002588   -1.85719164
     atom    2 type  1   force =     0.00007941    0.00004580   -1.85720013
     atom    3 type  2   force =     0.00021744    0.00012554    1.40169476
     atom    4 type  2   force =    -0.00020660   -0.00011930    1.40169798
     atom    5 type  1   force =    -0.00007476   -0.00004306   -1.85719570
     atom    6 type  1   force =     0.00003311    0.00001901   -1.85719571
     atom    7 type  2   force =     0.00020465    0.00011818    1.40169441
     atom    8 type  2   force =    -0.00021817   -0.00012599    1.40169732
     atom    9 type  1   force =    -0.00004892   -0.00002819   -1.85719417
     atom   10 type  1   force =     0.00005845    0.00003375   -1.85718432
     atom   11 type  2   force =     0.00021534    0.00012434    1.40169230
     atom   12 type  2   force =    -0.00021336   -0.00012318    1.40169179
     The core correction contribution to forces
     atom    1 type  1   force =    -0.00001069   -0.00000622   -0.01163153
     atom    2 type  1   force =     0.00001038    0.00000597   -0.01163355
     atom    3 type  2   force =     0.00000256    0.00000149   -0.00242707
     atom    4 type  2   force =    -0.00000266   -0.00000154   -0.00242953
     atom    5 type  1   force =    -0.00001039   -0.00000607   -0.01163120
     atom    6 type  1   force =     0.00001083    0.00000641   -0.01163367
     atom    7 type  2   force =     0.00000267    0.00000157   -0.00242709
     atom    8 type  2   force =    -0.00000255   -0.00000150   -0.00242951
     atom    9 type  1   force =    -0.00001085   -0.00000623   -0.01163116
     atom   10 type  1   force =     0.00001080    0.00000632   -0.01163354
     atom   11 type  2   force =     0.00000253    0.00000146   -0.00242713
     atom   12 type  2   force =    -0.00000256   -0.00000148   -0.00242957
     The Hubbard contrib.    to forces
     atom    1 type  1   force =     0.00000000    0.00000000    0.00000000
     atom    2 type  1   force =     0.00000000    0.00000000    0.00000000
     atom    3 type  2   force =     0.00000000    0.00000000    0.00000000
     atom    4 type  2   force =     0.00000000    0.00000000    0.00000000
     atom    5 type  1   force =     0.00000000    0.00000000    0.00000000
     atom    6 type  1   force =     0.00000000    0.00000000    0.00000000
     atom    7 type  2   force =     0.00000000    0.00000000    0.00000000
     atom    8 type  2   force =     0.00000000    0.00000000    0.00000000
     atom    9 type  1   force =     0.00000000    0.00000000    0.00000000
     atom   10 type  1   force =     0.00000000    0.00000000    0.00000000
     atom   11 type  2   force =     0.00000000    0.00000000    0.00000000
     atom   12 type  2   force =     0.00000000    0.00000000    0.00000000
     The SCF correction term to forces
     atom    1 type  1   force =    -0.00001372   -0.00000792   -0.00000252
     atom    2 type  1   force =    -0.00003152   -0.00001820    0.00001222
     atom    3 type  2   force =    -0.00000500   -0.00000288    0.00000608
     atom    4 type  2   force =    -0.00001127   -0.00000651    0.00000247
     atom    5 type  1   force =     0.00002334    0.00001348    0.00000509
     atom    6 type  1   force =     0.00002966    0.00001712    0.00000518
     atom    7 type  2   force =     0.00001331    0.00000768    0.00000574
     atom    8 type  2   force =     0.00000908    0.00000524    0.00000255
     atom    9 type  1   force =    -0.00001026   -0.00000592    0.00000519
     atom   10 type  1   force =    -0.00000197   -0.00000114   -0.00000859
     atom   11 type  2   force =    -0.00000702   -0.00000405    0.00000575
     atom   12 type  2   force =     0.00000114    0.00000066    0.00000600

     Total force =     0.055591     Total SCF correction =     0.000069

     General routines

     Parallel routines

   This run was terminated on:   5: 0: 6  28Aug2025

   JOB DONE.