     Program PWSCF v.7.0 starts on 27Aug2025 at 19:45: 9

     K-points division:     npool     =      17

     Reading input from /home/jvc/QEspresso7.2/ZnO_database/scripts/cell311.in/ZnO-3.27-1.61-311.in
Warning: card &CELL ignored
Warning: card / ignored
Warning: card &FCP ignored
Warning: card / ignored
Warning: card &RISM ignored
Warning: card / ignored

     Current dimensions of program PWSCF are:
     Max number of different atomic species (ntypx) = 10
     Max number of k-points (npk) =  40000
     Max angular momentum in pseudopotentials (lmaxx) =  4
     file Zn.upf: wavefunction(s)  3D renormalized
     Found identity + (  0.3333  0.0000  0.0000) symmetry
     This is a supercell, fractional translations are disabled
     Message from routine setup:
     using ibrav=0 with symmetry is DISCOURAGED, use correct ibrav instead

     Subspace diagonalization in iterative solution of the eigenvalue problem:
     a serial algorithm will be used

     Using Slab Decomposition

     bravais-lattice index     =            0
     lattice parameter (alat)  =      18.5366  a.u.
     unit-cell volume          =     989.4085 (a.u.)^3
     number of atoms/cell      =           12
     number of atomic types    =            2
     number of electrons       =       108.00
     number of Kohn-Sham states=           54
     kinetic-energy cutoff     =      50.0000  Ry
     charge density cutoff     =     400.0000  Ry
     scf convergence threshold =      1.0E-08
     mixing beta               =       0.3000
     number of iterations used =            8  plain     mixing
     Exchange-correlation= PBE
                           (   1   4   3   4   0   0   0)

     celldm(1)=  18.536562  celldm(2)=   0.000000  celldm(3)=   0.000000
     celldm(4)=   0.000000  celldm(5)=   0.000000  celldm(6)=   0.000000

     crystal axes: (cart. coord. in units of alat)
               a(1) = (   1.000000   0.000000   0.000000 )
               a(2) = (  -0.166667   0.288675   0.000000 )
               a(3) = (   0.000000   0.000000   0.538119 )

     reciprocal axes: (cart. coord. in units 2 pi/alat)
               b(1) = (  1.000000  0.577350 -0.000000 )
               b(2) = (  0.000000  3.464102  0.000000 )
               b(3) = (  0.000000 -0.000000  1.858323 )

     PseudoPot. # 1 for Zn read from file:
     /home/jvc/QEspresso7.2/ZnO_database/pseudos/Zn.upf
     MD5 check sum: 7f56cabf9682ed8c977c2f7d0c5985c5
     Pseudo is Ultrasoft + core correction, Zval = 12.0
     Generated using &quot;atomic&quot; code by A. Dal Corso  v.6.2.2
     Using radial grid of 1201 points,  6 beta functions with:
                l(1) =   0
                l(2) =   0
                l(3) =   1
                l(4) =   1
                l(5) =   2
                l(6) =   2
     Q(r) pseudized with 0 coefficients

     PseudoPot. # 2 for O  read from file:
     /home/jvc/QEspresso7.2/ZnO_database/pseudos/O.upf
     MD5 check sum: 91400c9766925bcf19f520983a725ff0
     Pseudo is Ultrasoft + core correction, Zval =  6.0
     Generated using &quot;atomic&quot; code by A. Dal Corso  v.6.3MaX
     Using radial grid of 1095 points,  4 beta functions with:
                l(1) =   0
                l(2) =   0
                l(3) =   1
                l(4) =   1
     Q(r) pseudized with 0 coefficients

     atomic species   valence    mass     pseudopotential
        Zn            12.00    65.38000     Zn( 1.00)
        O              6.00    15.99900     O ( 1.00)

      2 Sym. Ops. (no inversion) found

                                    s                        frac. trans.

      isym =  1     identity

 cryst.   s( 1) = (     1          0          0      )
                  (     0          1          0      )
                  (     0          0          1      )

 cart.    s( 1) = (  1.0000000  0.0000000  0.0000000 )
                  (  0.0000000  1.0000000  0.0000000 )
                  (  0.0000000  0.0000000  1.0000000 )

      isym =  2     inv. 180 deg rotation - cryst. axis [0,1,0]

 cryst.   s( 2) = (     1          3          0      )
                  (     0         -1          0      )
                  (     0          0          1      )

 cart.    s( 2) = (  0.5000000  0.8660254  0.0000000 )
                  (  0.8660254 -0.5000000  0.0000000 )
                  (  0.0000000  0.0000000  1.0000000 )

   Cartesian axes

     site n.     atom                  positions (alat units)
         1           Zn  tau(   1) = (   0.1666667   0.0962250   0.2694007  )
         2           Zn  tau(   2) = (  -0.0000000   0.1924501   0.0003409  )
         3           O   tau(   3) = (   0.1666667   0.0962250   0.4733710  )
         4           O   tau(   4) = (  -0.0000000   0.1924501   0.2043113  )
         5           Zn  tau(   5) = (   0.5000000   0.0962250   0.2694007  )
         6           Zn  tau(   6) = (   0.3333333   0.1924501   0.0003409  )
         7           O   tau(   7) = (   0.5000000   0.0962250   0.4733710  )
         8           O   tau(   8) = (   0.3333333   0.1924501   0.2043113  )
         9           Zn  tau(   9) = (   0.8333333   0.0962250   0.2694007  )
        10           Zn  tau(  10) = (   0.6666667   0.1924501   0.0003409  )
        11           O   tau(  11) = (   0.8333333   0.0962250   0.4733710  )
        12           O   tau(  12) = (   0.6666667   0.1924501   0.2043113  )

   Crystallographic axes

     site n.     atom                  positions (cryst. coord.)
         1           Zn  tau(   1) = (  0.2222222  0.3333333  0.5006336  )
         2           Zn  tau(   2) = (  0.1111111  0.6666667  0.0006336  )
         3           O   tau(   3) = (  0.2222222  0.3333333  0.8796764  )
         4           O   tau(   4) = (  0.1111111  0.6666667  0.3796764  )
         5           Zn  tau(   5) = (  0.5555556  0.3333333  0.5006336  )
         6           Zn  tau(   6) = (  0.4444444  0.6666667  0.0006336  )
         7           O   tau(   7) = (  0.5555556  0.3333333  0.8796764  )
         8           O   tau(   8) = (  0.4444444  0.6666667  0.3796764  )
         9           Zn  tau(   9) = (  0.8888889  0.3333333  0.5006336  )
        10           Zn  tau(  10) = (  0.7777778  0.6666667  0.0006336  )
        11           O   tau(  11) = (  0.8888889  0.3333333  0.8796764  )
        12           O   tau(  12) = (  0.7777778  0.6666667  0.3796764  )

     number of k points=    68
                       cart. coord. in units 2pi/alat
        k(    1) = (   0.0000000   0.0000000   0.0000000), wk =   0.0092593
        k(    2) = (   0.0000000   0.0000000   0.3097206), wk =   0.0185185
        k(    3) = (   0.0000000   0.0000000   0.6194412), wk =   0.0185185
        k(    4) = (   0.0000000   0.0000000  -0.9291617), wk =   0.0092593
        k(    5) = (   0.0000000   0.5773503   0.0000000), wk =   0.0370370
        k(    6) = (   0.0000000   0.5773503   0.3097206), wk =   0.0370370
        k(    7) = (   0.0000000   0.5773503   0.6194412), wk =   0.0370370
        k(    8) = (   0.0000000   0.5773503  -0.9291617), wk =   0.0370370
        k(    9) = (   0.0000000   1.1547005   0.0000000), wk =   0.0185185
        k(   10) = (   0.0000000   1.1547005   0.3097206), wk =   0.0370370
        k(   11) = (   0.0000000   1.1547005   0.6194412), wk =   0.0370370
        k(   12) = (   0.0000000   1.1547005  -0.9291617), wk =   0.0185185
        k(   13) = (   0.0000000  -1.7320508   0.0000000), wk =   0.0185185
        k(   14) = (   0.0000000  -1.7320508   0.3097206), wk =   0.0370370
        k(   15) = (   0.0000000  -1.7320508   0.6194412), wk =   0.0370370
        k(   16) = (   0.0000000  -1.7320508  -0.9291617), wk =   0.0185185
        k(   17) = (   0.1666667   0.0962250   0.0000000), wk =   0.0185185
        k(   18) = (   0.1666667   0.0962250   0.3097206), wk =   0.0185185
        k(   19) = (   0.1666667   0.0962250   0.6194412), wk =   0.0185185
        k(   20) = (   0.1666667   0.0962250  -0.9291617), wk =   0.0185185
        k(   21) = (   0.1666667   0.6735753   0.0000000), wk =   0.0370370
        k(   22) = (   0.1666667   0.6735753   0.3097206), wk =   0.0370370
        k(   23) = (   0.1666667   0.6735753   0.6194412), wk =   0.0370370
        k(   24) = (   0.1666667   0.6735753  -0.9291617), wk =   0.0370370
        k(   25) = (   0.1666667   1.2509256   0.0000000), wk =   0.0370370
        k(   26) = (   0.1666667   1.2509256   0.3097206), wk =   0.0370370
        k(   27) = (   0.1666667   1.2509256   0.6194412), wk =   0.0370370
        k(   28) = (   0.1666667   1.2509256  -0.9291617), wk =   0.0370370
        k(   29) = (   0.1666667  -1.6358258   0.0000000), wk =   0.0370370
        k(   30) = (   0.1666667  -1.6358258   0.3097206), wk =   0.0370370
        k(   31) = (   0.1666667  -1.6358258   0.6194412), wk =   0.0370370
        k(   32) = (   0.1666667  -1.6358258  -0.9291617), wk =   0.0370370
        k(   33) = (   0.1666667  -0.4811252   0.0000000), wk =   0.0370370
        k(   34) = (   0.1666667  -0.4811252   0.3097206), wk =   0.0370370
        k(   35) = (   0.1666667  -0.4811252   0.6194412), wk =   0.0370370
        k(   36) = (   0.1666667  -0.4811252  -0.9291617), wk =   0.0370370
        k(   37) = (   0.3333333   0.1924501   0.0000000), wk =   0.0185185
        k(   38) = (   0.3333333   0.1924501   0.3097206), wk =   0.0185185
        k(   39) = (   0.3333333   0.1924501   0.6194412), wk =   0.0185185
        k(   40) = (   0.3333333   0.1924501  -0.9291617), wk =   0.0185185
        k(   41) = (   0.3333333   1.3471506   0.0000000), wk =   0.0370370
        k(   42) = (   0.3333333   1.3471506   0.3097206), wk =   0.0370370
        k(   43) = (   0.3333333   1.3471506   0.6194412), wk =   0.0370370
        k(   44) = (   0.3333333   1.3471506  -0.9291617), wk =   0.0370370
        k(   45) = (  -0.5000000  -0.2886751   0.0000000), wk =   0.0092593
        k(   46) = (  -0.5000000  -0.2886751   0.3097206), wk =   0.0185185
        k(   47) = (  -0.5000000  -0.2886751   0.6194412), wk =   0.0185185
        k(   48) = (  -0.5000000  -0.2886751  -0.9291617), wk =   0.0092593
        k(   49) = (  -0.5000000   0.8660254   0.0000000), wk =   0.0185185
        k(   50) = (  -0.5000000   0.8660254   0.3097206), wk =   0.0370370
        k(   51) = (  -0.5000000   0.8660254   0.6194412), wk =   0.0370370
        k(   52) = (  -0.5000000   0.8660254  -0.9291617), wk =   0.0185185
        k(   53) = (   0.5000000  -0.2886751  -0.3097206), wk =   0.0370370
        k(   54) = (   0.5000000  -0.2886751  -0.6194412), wk =   0.0370370
        k(   55) = (   0.1666667   0.0962250  -0.3097206), wk =   0.0185185
        k(   56) = (   0.1666667   0.0962250  -0.6194412), wk =   0.0185185
        k(   57) = (   0.6666667  -0.1924501  -0.3097206), wk =   0.0370370
        k(   58) = (   0.6666667  -0.1924501  -0.6194412), wk =   0.0370370
        k(   59) = (   1.1666667  -0.4811252  -0.3097206), wk =   0.0370370
        k(   60) = (   1.1666667  -0.4811252  -0.6194412), wk =   0.0370370
        k(   61) = (  -1.3333333   0.9622504  -0.3097206), wk =   0.0370370
        k(   62) = (  -1.3333333   0.9622504  -0.6194412), wk =   0.0370370
        k(   63) = (  -0.3333333   0.3849002  -0.3097206), wk =   0.0370370
        k(   64) = (  -0.3333333   0.3849002  -0.6194412), wk =   0.0370370
        k(   65) = (   0.3333333   0.1924501  -0.3097206), wk =   0.0185185
        k(   66) = (   0.3333333   0.1924501  -0.6194412), wk =   0.0185185
        k(   67) = (   1.3333333  -0.3849002  -0.3097206), wk =   0.0370370
        k(   68) = (   1.3333333  -0.3849002  -0.6194412), wk =   0.0370370

                       cryst. coord.
        k(    1) = (   0.0000000   0.0000000   0.0000000), wk =   0.0092593
        k(    2) = (   0.0000000   0.0000000   0.1666667), wk =   0.0185185
        k(    3) = (   0.0000000   0.0000000   0.3333333), wk =   0.0185185
        k(    4) = (   0.0000000   0.0000000  -0.5000000), wk =   0.0092593
        k(    5) = (   0.0000000   0.1666667   0.0000000), wk =   0.0370370
        k(    6) = (   0.0000000   0.1666667   0.1666667), wk =   0.0370370
        k(    7) = (   0.0000000   0.1666667   0.3333333), wk =   0.0370370
        k(    8) = (   0.0000000   0.1666667  -0.5000000), wk =   0.0370370
        k(    9) = (   0.0000000   0.3333333   0.0000000), wk =   0.0185185
        k(   10) = (   0.0000000   0.3333333   0.1666667), wk =   0.0370370
        k(   11) = (   0.0000000   0.3333333   0.3333333), wk =   0.0370370
        k(   12) = (   0.0000000   0.3333333  -0.5000000), wk =   0.0185185
        k(   13) = (   0.0000000  -0.5000000   0.0000000), wk =   0.0185185
        k(   14) = (   0.0000000  -0.5000000   0.1666667), wk =   0.0370370
        k(   15) = (   0.0000000  -0.5000000   0.3333333), wk =   0.0370370
        k(   16) = (   0.0000000  -0.5000000  -0.5000000), wk =   0.0185185
        k(   17) = (   0.1666667  -0.0000000   0.0000000), wk =   0.0185185
        k(   18) = (   0.1666667  -0.0000000   0.1666667), wk =   0.0185185
        k(   19) = (   0.1666667  -0.0000000   0.3333333), wk =   0.0185185
        k(   20) = (   0.1666667  -0.0000000  -0.5000000), wk =   0.0185185
        k(   21) = (   0.1666667   0.1666667   0.0000000), wk =   0.0370370
        k(   22) = (   0.1666667   0.1666667   0.1666667), wk =   0.0370370
        k(   23) = (   0.1666667   0.1666667   0.3333333), wk =   0.0370370
        k(   24) = (   0.1666667   0.1666667  -0.5000000), wk =   0.0370370
        k(   25) = (   0.1666667   0.3333333   0.0000000), wk =   0.0370370
        k(   26) = (   0.1666667   0.3333333   0.1666667), wk =   0.0370370
        k(   27) = (   0.1666667   0.3333333   0.3333333), wk =   0.0370370
        k(   28) = (   0.1666667   0.3333333  -0.5000000), wk =   0.0370370
        k(   29) = (   0.1666667  -0.5000000   0.0000000), wk =   0.0370370
        k(   30) = (   0.1666667  -0.5000000   0.1666667), wk =   0.0370370
        k(   31) = (   0.1666667  -0.5000000   0.3333333), wk =   0.0370370
        k(   32) = (   0.1666667  -0.5000000  -0.5000000), wk =   0.0370370
        k(   33) = (   0.1666667  -0.1666667   0.0000000), wk =   0.0370370
        k(   34) = (   0.1666667  -0.1666667   0.1666667), wk =   0.0370370
        k(   35) = (   0.1666667  -0.1666667   0.3333333), wk =   0.0370370
        k(   36) = (   0.1666667  -0.1666667  -0.5000000), wk =   0.0370370
        k(   37) = (   0.3333333  -0.0000000   0.0000000), wk =   0.0185185
        k(   38) = (   0.3333333  -0.0000000   0.1666667), wk =   0.0185185
        k(   39) = (   0.3333333  -0.0000000   0.3333333), wk =   0.0185185
        k(   40) = (   0.3333333  -0.0000000  -0.5000000), wk =   0.0185185
        k(   41) = (   0.3333333   0.3333333   0.0000000), wk =   0.0370370
        k(   42) = (   0.3333333   0.3333333   0.1666667), wk =   0.0370370
        k(   43) = (   0.3333333   0.3333333   0.3333333), wk =   0.0370370
        k(   44) = (   0.3333333   0.3333333  -0.5000000), wk =   0.0370370
        k(   45) = (  -0.5000000   0.0000000   0.0000000), wk =   0.0092593
        k(   46) = (  -0.5000000   0.0000000   0.1666667), wk =   0.0185185
        k(   47) = (  -0.5000000   0.0000000   0.3333333), wk =   0.0185185
        k(   48) = (  -0.5000000   0.0000000  -0.5000000), wk =   0.0092593
        k(   49) = (  -0.5000000   0.3333333   0.0000000), wk =   0.0185185
        k(   50) = (  -0.5000000   0.3333333   0.1666667), wk =   0.0370370
        k(   51) = (  -0.5000000   0.3333333   0.3333333), wk =   0.0370370
        k(   52) = (  -0.5000000   0.3333333  -0.5000000), wk =   0.0185185
        k(   53) = (   0.5000000  -0.1666667  -0.1666667), wk =   0.0370370
        k(   54) = (   0.5000000  -0.1666667  -0.3333333), wk =   0.0370370
        k(   55) = (   0.1666667   0.0000000  -0.1666667), wk =   0.0185185
        k(   56) = (   0.1666667   0.0000000  -0.3333333), wk =   0.0185185
        k(   57) = (   0.6666667  -0.1666667  -0.1666667), wk =   0.0370370
        k(   58) = (   0.6666667  -0.1666667  -0.3333333), wk =   0.0370370
        k(   59) = (   1.1666667  -0.3333333  -0.1666667), wk =   0.0370370
        k(   60) = (   1.1666667  -0.3333333  -0.3333333), wk =   0.0370370
        k(   61) = (  -1.3333333   0.5000000  -0.1666667), wk =   0.0370370
        k(   62) = (  -1.3333333   0.5000000  -0.3333333), wk =   0.0370370
        k(   63) = (  -0.3333333   0.1666667  -0.1666667), wk =   0.0370370
        k(   64) = (  -0.3333333   0.1666667  -0.3333333), wk =   0.0370370
        k(   65) = (   0.3333333   0.0000000  -0.1666667), wk =   0.0185185
        k(   66) = (   0.3333333   0.0000000  -0.3333333), wk =   0.0185185
        k(   67) = (   1.3333333  -0.3333333  -0.1666667), wk =   0.0370370
        k(   68) = (   1.3333333  -0.3333333  -0.3333333), wk =   0.0370370

     Check: negative core charge=   -0.000002

     Initial potential from superposition of free atoms

     starting charge     107.9776, renormalised to     108.0000
     Starting wfcs are   78 randomized atomic wfcs

     Self-consistent Calculation

     iteration #  1     ecut=    50.00 Ry     beta= 0.30
     Davidson diagonalization with overlap

     ethr =  1.00E-02,  avg # of iterations =  2.0

     total energy              =   -1084.43911649 Ry
     estimated scf accuracy    <       2.07500532 Ry

[...]

     c_bands:  1 eigenvalues not converged
     ethr =  2.64E-07,  avg # of iterations = 13.4

[...]

     total energy              =   -1084.91093933 Ry
     estimated scf accuracy    <       0.00000007 Ry

     iteration # 41     ecut=    50.00 Ry     beta= 0.30
     Davidson diagonalization with overlap

     ethr =  1.08E-11,  avg # of iterations =  7.5

     End of self-consistent calculation

          k = 0.0000 0.0000 0.0000 (  5905 PWs)   bands (ev):

   -10.9998 -10.5484 -10.5484 -10.3197 -10.1589 -10.1589   1.0409   1.0409
     1.3147   1.3150   1.3557   1.3770   1.3770   1.4385   1.5002   1.5004
     1.5187   1.5187   1.7188   1.7188   1.8995   1.8995   2.0303   2.0303
     2.3475   2.3475   2.4273   2.4274   2.4978   2.4978   2.6239   2.6240
     2.6543   2.6543   2.8122   2.8122   2.8910   3.0828   3.0828   3.7929
     3.7929   4.6494   4.6494   5.0960   5.0961   6.0920   6.0920   6.1234
     6.1238   6.3003   6.3003   6.8038   6.8855   6.8859

     occupation numbers
     1.0000   1.0000   1.0000   1.0000   1.0000   1.0000   1.0000   1.0000
     1.0000   1.0000   1.0000   1.0000   1.0000   1.0000   1.0000   1.0000
     1.0000   1.0000   1.0000   1.0000   1.0000   1.0000   1.0000   1.0000
     1.0000   1.0000   1.0000   1.0000   1.0000   1.0000   1.0000   1.0000
     1.0000   1.0000   1.0000   1.0000   1.0000   1.0000   1.0000   1.0000
     1.0000   1.0000   1.0000   1.0000   1.0000   1.0000   1.0000   1.0000
     1.0000   1.0000   1.0000   1.0000   1.0000   1.0000

[...]

          k =-0.5000-0.2887 0.0000 (  5862 PWs)   bands (ev):

[...]

          k =-0.3333 0.3849-0.6194 (  5905 PWs)   bands (ev):

[...]

          k = 1.3333-0.3849-0.6194 (  5916 PWs)   bands (ev):

   -10.5108 -10.3492 -10.2872 -10.2513 -10.2063 -10.1763   1.0136   1.0190
     1.1223   1.1285   1.2028   1.2863   1.5216   1.5423   1.5723   1.6017
     1.6900   1.7281   1.7301   1.7443   1.8316   1.8741   1.9571   1.9672
     2.4607   2.4769   2.4978   2.5188   2.5344   2.5718   2.6051   2.6447
     2.6715   2.7453   2.7464   2.8700   3.1941   3.3671   3.4723   3.7262
     3.8381   4.1848   4.3890   4.8378   4.9696   4.9919   5.0781   5.2974
     5.3982   5.6358   5.7540   5.9114   5.9753   6.0818

     occupation numbers
     1.0000   1.0000   1.0000   1.0000   1.0000   1.0000   1.0000   1.0000
     1.0000   1.0000   1.0000   1.0000   1.0000   1.0000   1.0000   1.0000
     1.0000   1.0000   1.0000   1.0000   1.0000   1.0000   1.0000   1.0000
     1.0000   1.0000   1.0000   1.0000   1.0000   1.0000   1.0000   1.0000
     1.0000   1.0000   1.0000   1.0000   1.0000   1.0000   1.0000   1.0000
     1.0000   1.0000   1.0000   1.0000   1.0000   1.0000   1.0000   1.0000
     1.0000   1.0000   1.0000   1.0000   1.0000   1.0000

     highest occupied level (ev):     6.8859

!    total energy              =   -1084.91093934 Ry
     estimated scf accuracy    <          2.3E-09 Ry

     The total energy is the sum of the following terms:
     one-electron contribution =    -463.57516184 Ry
     hartree contribution      =     354.86157644 Ry
     xc contribution           =    -328.63652436 Ry
     ewald contribution        =    -647.56082958 Ry

     convergence has been achieved in  41 iterations

     Forces acting on atoms (cartesian axes, Ry/au):

     atom    1 type  1   force =    -0.00001028   -0.00000594    0.00004632
     atom    2 type  1   force =    -0.00001068   -0.00000617    0.00005853
     atom    3 type  2   force =    -0.00000267   -0.00000154   -0.00004966
     atom    4 type  2   force =     0.00000283    0.00000163   -0.00004933
     atom    5 type  1   force =     0.00002728    0.00001575    0.00005877
     atom    6 type  1   force =     0.00001264    0.00000730    0.00004158
     atom    7 type  2   force =    -0.00000243   -0.00000141   -0.00004950
     atom    8 type  2   force =     0.00000218    0.00000126   -0.00004914
     atom    9 type  1   force =     0.00000003    0.00000002    0.00003751
     atom   10 type  1   force =    -0.00001904   -0.00001099    0.00005362
     atom   11 type  2   force =    -0.00000178   -0.00000103   -0.00004953
     atom   12 type  2   force =     0.00000193    0.00000112   -0.00004917
     The non-local contrib.  to forces
     atom    1 type  1   force =    -0.00001787   -0.00001032   -0.00478554
     atom    2 type  1   force =     0.00000691    0.00000399   -0.00478294
     atom    3 type  2   force =    -0.00019420   -0.00011212    0.00554803
     atom    4 type  2   force =     0.00019914    0.00011497    0.00554529
     atom    5 type  1   force =     0.00000036    0.00000021   -0.00478251
     atom    6 type  1   force =     0.00001976    0.00001141   -0.00478996
     atom    7 type  2   force =    -0.00019868   -0.00011471    0.00554785
     atom    8 type  2   force =     0.00019044    0.00010995    0.00554638
     atom    9 type  1   force =    -0.00001292   -0.00000746   -0.00479018
     atom   10 type  1   force =     0.00000393    0.00000227   -0.00478609
     atom   11 type  2   force =    -0.00019002   -0.00010971    0.00554855
     atom   12 type  2   force =     0.00019319    0.00011154    0.00554557
     The ionic contribution  to forces
     atom    1 type  1   force =     0.00000001    0.00000001    0.06271682
     atom    2 type  1   force =     0.00000001    0.00000000    0.06271682
     atom    3 type  2   force =     0.00000000    0.00000000   -0.06271682
     atom    4 type  2   force =     0.00000000    0.00000000   -0.06271682
     atom    5 type  1   force =    -0.00000001    0.00000000    0.06271682
     atom    6 type  1   force =     0.00000001   -0.00000000    0.06271682
     atom    7 type  2   force =    -0.00000001    0.00000000   -0.06271682
     atom    8 type  2   force =     0.00000001   -0.00000000   -0.06271682
     atom    9 type  1   force =    -0.00000001   -0.00000000    0.06271682
     atom   10 type  1   force =    -0.00000001   -0.00000001    0.06271682
     atom   11 type  2   force =    -0.00000000   -0.00000000   -0.06271682
     atom   12 type  2   force =    -0.00000000   -0.00000000   -0.06271682
     The local contribution  to forces
     atom    1 type  1   force =     0.00004780    0.00002759   -0.05834665
     atom    2 type  1   force =    -0.00001475   -0.00000856   -0.05836688
     atom    3 type  2   force =     0.00019444    0.00011226    0.05718285
     atom    4 type  2   force =    -0.00018536   -0.00010703    0.05718095
     atom    5 type  1   force =    -0.00001036   -0.00000588   -0.05836549
     atom    6 type  1   force =    -0.00005106   -0.00002958   -0.05833724
     atom    7 type  2   force =     0.00018463    0.00010662    0.05718425
     atom    8 type  2   force =    -0.00019804   -0.00011436    0.05717775
     atom    9 type  1   force =     0.00003133    0.00001814   -0.05833375
     atom   10 type  1   force =    -0.00000275   -0.00000159   -0.05835938
     atom   11 type  2   force =     0.00019406    0.00011205    0.05718364
     atom   12 type  2   force =    -0.00018967   -0.00010951    0.05717853
     The core correction contribution to forces
     atom    1 type  1   force =    -0.00000631   -0.00000364    0.00047106
     atom    2 type  1   force =     0.00000589    0.00000339    0.00047183
     atom    3 type  2   force =     0.00000220    0.00000127   -0.00006266
     atom    4 type  2   force =    -0.00000226   -0.00000130   -0.00006263
     atom    5 type  1   force =    -0.00000547   -0.00000314    0.00047166
     atom    6 type  1   force =     0.00000629    0.00000362    0.00047106
     atom    7 type  2   force =     0.00000226    0.00000130   -0.00006265
     atom    8 type  2   force =    -0.00000216   -0.00000124   -0.00006265
     atom    9 type  1   force =    -0.00000607   -0.00000350    0.00047095
     atom   10 type  1   force =     0.00000566    0.00000327    0.00047183
     atom   11 type  2   force =     0.00000214    0.00000124   -0.00006266
     atom   12 type  2   force =    -0.00000219   -0.00000126   -0.00006264
     The Hubbard contrib.    to forces
     atom    1 type  1   force =     0.00000000    0.00000000    0.00000000
     atom    2 type  1   force =     0.00000000    0.00000000    0.00000000
     atom    3 type  2   force =     0.00000000    0.00000000    0.00000000
     atom    4 type  2   force =     0.00000000    0.00000000    0.00000000
     atom    5 type  1   force =     0.00000000    0.00000000    0.00000000
     atom    6 type  1   force =     0.00000000    0.00000000    0.00000000
     atom    7 type  2   force =     0.00000000    0.00000000    0.00000000
     atom    8 type  2   force =     0.00000000    0.00000000    0.00000000
     atom    9 type  1   force =     0.00000000    0.00000000    0.00000000
     atom   10 type  1   force =     0.00000000    0.00000000    0.00000000
     atom   11 type  2   force =     0.00000000    0.00000000    0.00000000
     atom   12 type  2   force =     0.00000000    0.00000000    0.00000000
     The SCF correction term to forces
     atom    1 type  1   force =    -0.00003394   -0.00001960   -0.00001202
     atom    2 type  1   force =    -0.00000875   -0.00000505    0.00001705
     atom    3 type  2   force =    -0.00000515   -0.00000297   -0.00000370
     atom    4 type  2   force =    -0.00000872   -0.00000503    0.00000124
     atom    5 type  1   force =     0.00004268    0.00002464    0.00001564
     atom    6 type  1   force =     0.00003766    0.00002174   -0.00002174
     atom    7 type  2   force =     0.00000932    0.00000538   -0.00000477
     atom    8 type  2   force =     0.00001191    0.00000688    0.00000355
     atom    9 type  1   force =    -0.00001237   -0.00000714   -0.00002897
     atom   10 type  1   force =    -0.00002590   -0.00001495    0.00000779
     atom   11 type  2   force =    -0.00000800   -0.00000462   -0.00000489
     atom   12 type  2   force =     0.00000058    0.00000033    0.00000354

     Total force =     0.000178     Total SCF correction =     0.000099
     SCF correction compared to forces is large: reduce conv_thr to get better values

     General routines

     Parallel routines

   This run was terminated on:  19:58:16  27Aug2025

   JOB DONE.