     Program PWSCF v.7.0 starts on 27Aug2025 at 13:26: 5

     K-points division:     npool     =      17

     Reading input from /home/jvc/QEspresso7.2/ZnO_database/scripts/cell311.in/ZnO-3.01-1.58-311.in
Warning: card &CELL ignored
Warning: card / ignored
Warning: card &FCP ignored
Warning: card / ignored
Warning: card &RISM ignored
Warning: card / ignored

     Current dimensions of program PWSCF are:
     Max number of different atomic species (ntypx) = 10
     Max number of k-points (npk) =  40000
     Max angular momentum in pseudopotentials (lmaxx) =  4
     file Zn.upf: wavefunction(s)  3D renormalized
     Found identity + (  0.3333  0.0000  0.0000) symmetry
     This is a supercell, fractional translations are disabled
     Message from routine setup:
     using ibrav=0 with symmetry is DISCOURAGED, use correct ibrav instead

     Subspace diagonalization in iterative solution of the eigenvalue problem:
     a serial algorithm will be used

     Using Slab Decomposition

     bravais-lattice index     =            0
     lattice parameter (alat)  =      17.0536  a.u.
     unit-cell volume          =     755.0317 (a.u.)^3
     number of atoms/cell      =           12
     number of atomic types    =            2
     number of electrons       =       108.00
     number of Kohn-Sham states=           54
     kinetic-energy cutoff     =      50.0000  Ry
     charge density cutoff     =     400.0000  Ry
     scf convergence threshold =      1.0E-08
     mixing beta               =       0.3000
     number of iterations used =            8  plain     mixing
     Exchange-correlation= PBE
                           (   1   4   3   4   0   0   0)

     celldm(1)=  17.053637  celldm(2)=   0.000000  celldm(3)=   0.000000
     celldm(4)=   0.000000  celldm(5)=   0.000000  celldm(6)=   0.000000

     crystal axes: (cart. coord. in units of alat)
               a(1) = (   1.000000   0.000000   0.000000 )
               a(2) = (  -0.166667   0.288675   0.000000 )
               a(3) = (   0.000000   0.000000   0.527357 )

     reciprocal axes: (cart. coord. in units 2 pi/alat)
               b(1) = (  1.000000  0.577350 -0.000000 )
               b(2) = (  0.000000  3.464102  0.000000 )
               b(3) = (  0.000000 -0.000000  1.896248 )

     PseudoPot. # 1 for Zn read from file:
     /home/jvc/QEspresso7.2/ZnO_database/pseudos/Zn.upf
     MD5 check sum: 7f56cabf9682ed8c977c2f7d0c5985c5
     Pseudo is Ultrasoft + core correction, Zval = 12.0
     Generated using &quot;atomic&quot; code by A. Dal Corso  v.6.2.2
     Using radial grid of 1201 points,  6 beta functions with:
                l(1) =   0
                l(2) =   0
                l(3) =   1
                l(4) =   1
                l(5) =   2
                l(6) =   2
     Q(r) pseudized with 0 coefficients

     PseudoPot. # 2 for O  read from file:
     /home/jvc/QEspresso7.2/ZnO_database/pseudos/O.upf
     MD5 check sum: 91400c9766925bcf19f520983a725ff0
     Pseudo is Ultrasoft + core correction, Zval =  6.0
     Generated using &quot;atomic&quot; code by A. Dal Corso  v.6.3MaX
     Using radial grid of 1095 points,  4 beta functions with:
                l(1) =   0
                l(2) =   0
                l(3) =   1
                l(4) =   1
     Q(r) pseudized with 0 coefficients

     atomic species   valence    mass     pseudopotential
        Zn            12.00    65.38000     Zn( 1.00)
        O              6.00    15.99900     O ( 1.00)

      2 Sym. Ops. (no inversion) found

                                    s                        frac. trans.

      isym =  1     identity

 cryst.   s( 1) = (     1          0          0      )
                  (     0          1          0      )
                  (     0          0          1      )

 cart.    s( 1) = (  1.0000000  0.0000000  0.0000000 )
                  (  0.0000000  1.0000000  0.0000000 )
                  (  0.0000000  0.0000000  1.0000000 )

      isym =  2     inv. 180 deg rotation - cryst. axis [0,1,0]

 cryst.   s( 2) = (     1          3          0      )
                  (     0         -1          0      )
                  (     0          0          1      )

 cart.    s( 2) = (  0.5000000  0.8660254  0.0000000 )
                  (  0.8660254 -0.5000000  0.0000000 )
                  (  0.0000000  0.0000000  1.0000000 )

   Cartesian axes

     site n.     atom                  positions (alat units)
         1           Zn  tau(   1) = (   0.1666667   0.0962250   0.2640127  )
         2           Zn  tau(   2) = (  -0.0000000   0.1924501   0.0003341  )
         3           O   tau(   3) = (   0.1666667   0.0962250   0.4639036  )
         4           O   tau(   4) = (  -0.0000000   0.1924501   0.2002250  )
         5           Zn  tau(   5) = (   0.5000000   0.0962250   0.2640127  )
         6           Zn  tau(   6) = (   0.3333333   0.1924501   0.0003341  )
         7           O   tau(   7) = (   0.5000000   0.0962250   0.4639036  )
         8           O   tau(   8) = (   0.3333333   0.1924501   0.2002250  )
         9           Zn  tau(   9) = (   0.8333333   0.0962250   0.2640127  )
        10           Zn  tau(  10) = (   0.6666667   0.1924501   0.0003341  )
        11           O   tau(  11) = (   0.8333333   0.0962250   0.4639036  )
        12           O   tau(  12) = (   0.6666667   0.1924501   0.2002250  )

   Crystallographic axes

     site n.     atom                  positions (cryst. coord.)
         1           Zn  tau(   1) = (  0.2222222  0.3333333  0.5006336  )
         2           Zn  tau(   2) = (  0.1111111  0.6666667  0.0006336  )
         3           O   tau(   3) = (  0.2222222  0.3333333  0.8796764  )
         4           O   tau(   4) = (  0.1111111  0.6666667  0.3796764  )
         5           Zn  tau(   5) = (  0.5555556  0.3333333  0.5006336  )
         6           Zn  tau(   6) = (  0.4444444  0.6666667  0.0006336  )
         7           O   tau(   7) = (  0.5555556  0.3333333  0.8796764  )
         8           O   tau(   8) = (  0.4444444  0.6666667  0.3796764  )
         9           Zn  tau(   9) = (  0.8888889  0.3333333  0.5006336  )
        10           Zn  tau(  10) = (  0.7777778  0.6666667  0.0006336  )
        11           O   tau(  11) = (  0.8888889  0.3333333  0.8796764  )
        12           O   tau(  12) = (  0.7777778  0.6666667  0.3796764  )

     number of k points=    68
                       cart. coord. in units 2pi/alat
        k(    1) = (   0.0000000   0.0000000   0.0000000), wk =   0.0092593
        k(    2) = (   0.0000000   0.0000000   0.3160414), wk =   0.0185185
        k(    3) = (   0.0000000   0.0000000   0.6320828), wk =   0.0185185
        k(    4) = (   0.0000000   0.0000000  -0.9481242), wk =   0.0092593
        k(    5) = (   0.0000000   0.5773503   0.0000000), wk =   0.0370370
        k(    6) = (   0.0000000   0.5773503   0.3160414), wk =   0.0370370
        k(    7) = (   0.0000000   0.5773503   0.6320828), wk =   0.0370370
        k(    8) = (   0.0000000   0.5773503  -0.9481242), wk =   0.0370370
        k(    9) = (   0.0000000   1.1547005   0.0000000), wk =   0.0185185
        k(   10) = (   0.0000000   1.1547005   0.3160414), wk =   0.0370370
        k(   11) = (   0.0000000   1.1547005   0.6320828), wk =   0.0370370
        k(   12) = (   0.0000000   1.1547005  -0.9481242), wk =   0.0185185
        k(   13) = (   0.0000000  -1.7320508   0.0000000), wk =   0.0185185
        k(   14) = (   0.0000000  -1.7320508   0.3160414), wk =   0.0370370
        k(   15) = (   0.0000000  -1.7320508   0.6320828), wk =   0.0370370
        k(   16) = (   0.0000000  -1.7320508  -0.9481242), wk =   0.0185185
        k(   17) = (   0.1666667   0.0962250   0.0000000), wk =   0.0185185
        k(   18) = (   0.1666667   0.0962250   0.3160414), wk =   0.0185185
        k(   19) = (   0.1666667   0.0962250   0.6320828), wk =   0.0185185
        k(   20) = (   0.1666667   0.0962250  -0.9481242), wk =   0.0185185
        k(   21) = (   0.1666667   0.6735753   0.0000000), wk =   0.0370370
        k(   22) = (   0.1666667   0.6735753   0.3160414), wk =   0.0370370
        k(   23) = (   0.1666667   0.6735753   0.6320828), wk =   0.0370370
        k(   24) = (   0.1666667   0.6735753  -0.9481242), wk =   0.0370370
        k(   25) = (   0.1666667   1.2509256   0.0000000), wk =   0.0370370
        k(   26) = (   0.1666667   1.2509256   0.3160414), wk =   0.0370370
        k(   27) = (   0.1666667   1.2509256   0.6320828), wk =   0.0370370
        k(   28) = (   0.1666667   1.2509256  -0.9481242), wk =   0.0370370
        k(   29) = (   0.1666667  -1.6358258   0.0000000), wk =   0.0370370
        k(   30) = (   0.1666667  -1.6358258   0.3160414), wk =   0.0370370
        k(   31) = (   0.1666667  -1.6358258   0.6320828), wk =   0.0370370
        k(   32) = (   0.1666667  -1.6358258  -0.9481242), wk =   0.0370370
        k(   33) = (   0.1666667  -0.4811252   0.0000000), wk =   0.0370370
        k(   34) = (   0.1666667  -0.4811252   0.3160414), wk =   0.0370370
        k(   35) = (   0.1666667  -0.4811252   0.6320828), wk =   0.0370370
        k(   36) = (   0.1666667  -0.4811252  -0.9481242), wk =   0.0370370
        k(   37) = (   0.3333333   0.1924501   0.0000000), wk =   0.0185185
        k(   38) = (   0.3333333   0.1924501   0.3160414), wk =   0.0185185
        k(   39) = (   0.3333333   0.1924501   0.6320828), wk =   0.0185185
        k(   40) = (   0.3333333   0.1924501  -0.9481242), wk =   0.0185185
        k(   41) = (   0.3333333   1.3471506   0.0000000), wk =   0.0370370
        k(   42) = (   0.3333333   1.3471506   0.3160414), wk =   0.0370370
        k(   43) = (   0.3333333   1.3471506   0.6320828), wk =   0.0370370
        k(   44) = (   0.3333333   1.3471506  -0.9481242), wk =   0.0370370
        k(   45) = (  -0.5000000  -0.2886751   0.0000000), wk =   0.0092593
        k(   46) = (  -0.5000000  -0.2886751   0.3160414), wk =   0.0185185
        k(   47) = (  -0.5000000  -0.2886751   0.6320828), wk =   0.0185185
        k(   48) = (  -0.5000000  -0.2886751  -0.9481242), wk =   0.0092593
        k(   49) = (  -0.5000000   0.8660254   0.0000000), wk =   0.0185185
        k(   50) = (  -0.5000000   0.8660254   0.3160414), wk =   0.0370370
        k(   51) = (  -0.5000000   0.8660254   0.6320828), wk =   0.0370370
        k(   52) = (  -0.5000000   0.8660254  -0.9481242), wk =   0.0185185
        k(   53) = (   0.5000000  -0.2886751  -0.3160414), wk =   0.0370370
        k(   54) = (   0.5000000  -0.2886751  -0.6320828), wk =   0.0370370
        k(   55) = (   0.1666667   0.0962250  -0.3160414), wk =   0.0185185
        k(   56) = (   0.1666667   0.0962250  -0.6320828), wk =   0.0185185
        k(   57) = (   0.6666667  -0.1924501  -0.3160414), wk =   0.0370370
        k(   58) = (   0.6666667  -0.1924501  -0.6320828), wk =   0.0370370
        k(   59) = (   1.1666667  -0.4811252  -0.3160414), wk =   0.0370370
        k(   60) = (   1.1666667  -0.4811252  -0.6320828), wk =   0.0370370
        k(   61) = (  -1.3333333   0.9622504  -0.3160414), wk =   0.0370370
        k(   62) = (  -1.3333333   0.9622504  -0.6320828), wk =   0.0370370
        k(   63) = (  -0.3333333   0.3849002  -0.3160414), wk =   0.0370370
        k(   64) = (  -0.3333333   0.3849002  -0.6320828), wk =   0.0370370
        k(   65) = (   0.3333333   0.1924501  -0.3160414), wk =   0.0185185
        k(   66) = (   0.3333333   0.1924501  -0.6320828), wk =   0.0185185
        k(   67) = (   1.3333333  -0.3849002  -0.3160414), wk =   0.0370370
        k(   68) = (   1.3333333  -0.3849002  -0.6320828), wk =   0.0370370

                       cryst. coord.
        k(    1) = (   0.0000000   0.0000000   0.0000000), wk =   0.0092593
        k(    2) = (   0.0000000   0.0000000   0.1666667), wk =   0.0185185
        k(    3) = (   0.0000000   0.0000000   0.3333333), wk =   0.0185185
        k(    4) = (   0.0000000   0.0000000  -0.5000000), wk =   0.0092593
        k(    5) = (   0.0000000   0.1666667   0.0000000), wk =   0.0370370
        k(    6) = (   0.0000000   0.1666667   0.1666667), wk =   0.0370370
        k(    7) = (   0.0000000   0.1666667   0.3333333), wk =   0.0370370
        k(    8) = (   0.0000000   0.1666667  -0.5000000), wk =   0.0370370
        k(    9) = (   0.0000000   0.3333333   0.0000000), wk =   0.0185185
        k(   10) = (   0.0000000   0.3333333   0.1666667), wk =   0.0370370
        k(   11) = (   0.0000000   0.3333333   0.3333333), wk =   0.0370370
        k(   12) = (   0.0000000   0.3333333  -0.5000000), wk =   0.0185185
        k(   13) = (   0.0000000  -0.5000000   0.0000000), wk =   0.0185185
        k(   14) = (   0.0000000  -0.5000000   0.1666667), wk =   0.0370370
        k(   15) = (   0.0000000  -0.5000000   0.3333333), wk =   0.0370370
        k(   16) = (   0.0000000  -0.5000000  -0.5000000), wk =   0.0185185
        k(   17) = (   0.1666667   0.0000000   0.0000000), wk =   0.0185185
        k(   18) = (   0.1666667   0.0000000   0.1666667), wk =   0.0185185
        k(   19) = (   0.1666667   0.0000000   0.3333333), wk =   0.0185185
        k(   20) = (   0.1666667   0.0000000  -0.5000000), wk =   0.0185185
        k(   21) = (   0.1666667   0.1666667   0.0000000), wk =   0.0370370
        k(   22) = (   0.1666667   0.1666667   0.1666667), wk =   0.0370370
        k(   23) = (   0.1666667   0.1666667   0.3333333), wk =   0.0370370
        k(   24) = (   0.1666667   0.1666667  -0.5000000), wk =   0.0370370
        k(   25) = (   0.1666667   0.3333333   0.0000000), wk =   0.0370370
        k(   26) = (   0.1666667   0.3333333   0.1666667), wk =   0.0370370
        k(   27) = (   0.1666667   0.3333333   0.3333333), wk =   0.0370370
        k(   28) = (   0.1666667   0.3333333  -0.5000000), wk =   0.0370370
        k(   29) = (   0.1666667  -0.5000000   0.0000000), wk =   0.0370370
        k(   30) = (   0.1666667  -0.5000000   0.1666667), wk =   0.0370370
        k(   31) = (   0.1666667  -0.5000000   0.3333333), wk =   0.0370370
        k(   32) = (   0.1666667  -0.5000000  -0.5000000), wk =   0.0370370
        k(   33) = (   0.1666667  -0.1666667   0.0000000), wk =   0.0370370
        k(   34) = (   0.1666667  -0.1666667   0.1666667), wk =   0.0370370
        k(   35) = (   0.1666667  -0.1666667   0.3333333), wk =   0.0370370
        k(   36) = (   0.1666667  -0.1666667  -0.5000000), wk =   0.0370370
        k(   37) = (   0.3333333   0.0000000   0.0000000), wk =   0.0185185
        k(   38) = (   0.3333333   0.0000000   0.1666667), wk =   0.0185185
        k(   39) = (   0.3333333   0.0000000   0.3333333), wk =   0.0185185
        k(   40) = (   0.3333333   0.0000000  -0.5000000), wk =   0.0185185
        k(   41) = (   0.3333333   0.3333333   0.0000000), wk =   0.0370370
        k(   42) = (   0.3333333   0.3333333   0.1666667), wk =   0.0370370
        k(   43) = (   0.3333333   0.3333333   0.3333333), wk =   0.0370370
        k(   44) = (   0.3333333   0.3333333  -0.5000000), wk =   0.0370370
        k(   45) = (  -0.5000000   0.0000000   0.0000000), wk =   0.0092593
        k(   46) = (  -0.5000000   0.0000000   0.1666667), wk =   0.0185185
        k(   47) = (  -0.5000000   0.0000000   0.3333333), wk =   0.0185185
        k(   48) = (  -0.5000000   0.0000000  -0.5000000), wk =   0.0092593
        k(   49) = (  -0.5000000   0.3333333   0.0000000), wk =   0.0185185
        k(   50) = (  -0.5000000   0.3333333   0.1666667), wk =   0.0370370
        k(   51) = (  -0.5000000   0.3333333   0.3333333), wk =   0.0370370
        k(   52) = (  -0.5000000   0.3333333  -0.5000000), wk =   0.0185185
        k(   53) = (   0.5000000  -0.1666667  -0.1666667), wk =   0.0370370
        k(   54) = (   0.5000000  -0.1666667  -0.3333333), wk =   0.0370370
        k(   55) = (   0.1666667   0.0000000  -0.1666667), wk =   0.0185185
        k(   56) = (   0.1666667   0.0000000  -0.3333333), wk =   0.0185185
        k(   57) = (   0.6666667  -0.1666667  -0.1666667), wk =   0.0370370
        k(   58) = (   0.6666667  -0.1666667  -0.3333333), wk =   0.0370370
        k(   59) = (   1.1666667  -0.3333333  -0.1666667), wk =   0.0370370
        k(   60) = (   1.1666667  -0.3333333  -0.3333333), wk =   0.0370370
        k(   61) = (  -1.3333333   0.5000000  -0.1666667), wk =   0.0370370
        k(   62) = (  -1.3333333   0.5000000  -0.3333333), wk =   0.0370370
        k(   63) = (  -0.3333333   0.1666667  -0.1666667), wk =   0.0370370
        k(   64) = (  -0.3333333   0.1666667  -0.3333333), wk =   0.0370370
        k(   65) = (   0.3333333   0.0000000  -0.1666667), wk =   0.0185185
        k(   66) = (   0.3333333   0.0000000  -0.3333333), wk =   0.0185185
        k(   67) = (   1.3333333  -0.3333333  -0.1666667), wk =   0.0370370
        k(   68) = (   1.3333333  -0.3333333  -0.3333333), wk =   0.0370370

     Check: negative core charge=   -0.000001

     Initial potential from superposition of free atoms

     starting charge     107.9776, renormalised to     108.0000
     Starting wfcs are   78 randomized atomic wfcs

     Self-consistent Calculation

     iteration #  1     ecut=    50.00 Ry     beta= 0.30
     Davidson diagonalization with overlap

     ethr =  1.00E-02,  avg # of iterations =  2.1

     total energy              =   -1084.07750149 Ry
     estimated scf accuracy    <       2.04251614 Ry

[...]

     total energy              =   -1084.47267268 Ry
     estimated scf accuracy    <       0.00000006 Ry

     iteration # 30     ecut=    50.00 Ry     beta= 0.30
     Davidson diagonalization with overlap

     ethr =  5.99E-11,  avg # of iterations =  4.6

     End of self-consistent calculation

          k = 0.0000 0.0000 0.0000 (  4483 PWs)   bands (ev):

    -8.9267  -8.1756  -8.1756  -7.7159  -7.4742  -7.4742   3.5802   3.5802
     3.6946   4.0739   4.0739   4.2404   4.2406   4.3157   4.5344   4.5346
     4.5367   4.5367   4.6126   4.6126   5.0297   5.0297   5.1178   5.1179
     6.0416   6.0417   6.2606   6.2606   6.3877   6.3877   6.5889   6.5889
     6.6437   6.6438   6.7058   6.7058   7.0402   7.2773   7.2773   7.6909
     7.6909   8.8761   8.8762   8.9623   8.9623  10.3309  10.3311  10.3947
    10.3947  10.6708  10.6708  11.3715  11.5043  11.5046

     occupation numbers
     1.0000   1.0000   1.0000   1.0000   1.0000   1.0000   1.0000   1.0000
     1.0000   1.0000   1.0000   1.0000   1.0000   1.0000   1.0000   1.0000
     1.0000   1.0000   1.0000   1.0000   1.0000   1.0000   1.0000   1.0000
     1.0000   1.0000   1.0000   1.0000   1.0000   1.0000   1.0000   1.0000
     1.0000   1.0000   1.0000   1.0000   1.0000   1.0000   1.0000   1.0000
     1.0000   1.0000   1.0000   1.0000   1.0000   1.0000   1.0000   1.0000
     1.0000   1.0000   1.0000   1.0000   1.0000   1.0000

[...]

          k =-0.5000-0.2887 0.0000 (  4528 PWs)   bands (ev):

[...]

          k =-0.3333 0.3849-0.6321 (  4524 PWs)   bands (ev):

[...]

          k = 1.3333-0.3849-0.6321 (  4501 PWs)   bands (ev):

    -8.0993  -7.8222  -7.6956  -7.6532  -7.5639  -7.5178   3.4452   3.5140
     3.5548   3.5963   3.7100   3.7585   4.4008   4.4887   4.5439   4.5681
     4.5863   4.6717   4.7312   4.8663   4.9489   5.0654   5.1519   5.1954
     6.3128   6.3134   6.3657   6.4354   6.4489   6.5333   6.6089   6.6657
     6.6904   6.7963   6.7985   7.0125   7.1470   7.3816   7.5249   7.8623
     7.9553   8.0814   8.6379   8.7256   8.9024   9.0040   9.0271   9.3654
     9.3887   9.7803   9.9380  10.1716  10.2487  10.4137

     occupation numbers
     1.0000   1.0000   1.0000   1.0000   1.0000   1.0000   1.0000   1.0000
     1.0000   1.0000   1.0000   1.0000   1.0000   1.0000   1.0000   1.0000
     1.0000   1.0000   1.0000   1.0000   1.0000   1.0000   1.0000   1.0000
     1.0000   1.0000   1.0000   1.0000   1.0000   1.0000   1.0000   1.0000
     1.0000   1.0000   1.0000   1.0000   1.0000   1.0000   1.0000   1.0000
     1.0000   1.0000   1.0000   1.0000   1.0000   1.0000   1.0000   1.0000
     1.0000   1.0000   1.0000   1.0000   1.0000   1.0000

     highest occupied level (ev):    11.5046

!    total energy              =   -1084.47267269 Ry
     estimated scf accuracy    <          7.2E-09 Ry

     The total energy is the sum of the following terms:
     one-electron contribution =    -367.31494064 Ry
     hartree contribution      =     321.88791340 Ry
     xc contribution           =    -330.59368800 Ry
     ewald contribution        =    -708.45195745 Ry

     convergence has been achieved in  30 iterations

     Forces acting on atoms (cartesian axes, Ry/au):

     atom    1 type  1   force =     0.00002354    0.00001359   -0.02092520
     atom    2 type  1   force =    -0.00000270   -0.00000156   -0.02090478
     atom    3 type  2   force =    -0.00000196   -0.00000113    0.02091513
     atom    4 type  2   force =     0.00000245    0.00000142    0.02091347
     atom    5 type  1   force =     0.00000449    0.00000259   -0.02093254
     atom    6 type  1   force =    -0.00002597   -0.00001499   -0.02090058
     atom    7 type  2   force =    -0.00000156   -0.00000090    0.02091524
     atom    8 type  2   force =     0.00000236    0.00000136    0.02091361
     atom    9 type  1   force =     0.00001295    0.00000748   -0.02092286
     atom   10 type  1   force =    -0.00001490   -0.00000860   -0.02090004
     atom   11 type  2   force =    -0.00000170   -0.00000098    0.02091501
     atom   12 type  2   force =     0.00000300    0.00000173    0.02091354
     The non-local contrib.  to forces
     atom    1 type  1   force =    -0.00001966   -0.00001135   -0.07287892
     atom    2 type  1   force =     0.00003203    0.00001849   -0.07286718
     atom    3 type  2   force =    -0.00016230   -0.00009370   -0.04130592
     atom    4 type  2   force =     0.00015552    0.00008979   -0.04130363
     atom    5 type  1   force =    -0.00003073   -0.00001774   -0.07288151
     atom    6 type  1   force =     0.00001833    0.00001058   -0.07286535
     atom    7 type  2   force =    -0.00015539   -0.00008971   -0.04130555
     atom    8 type  2   force =     0.00016114    0.00009303   -0.04130391
     atom    9 type  1   force =    -0.00002632   -0.00001520   -0.07287755
     atom   10 type  1   force =     0.00002560    0.00001478   -0.07286435
     atom   11 type  2   force =    -0.00016296   -0.00009409   -0.04130426
     atom   12 type  2   force =     0.00016249    0.00009382   -0.04130480
     The ionic contribution  to forces
     atom    1 type  1   force =     0.00000001    0.00000001   -0.42324053
     atom    2 type  1   force =     0.00000001    0.00000000   -0.42324053
     atom    3 type  2   force =     0.00000000    0.00000000    0.42324053
     atom    4 type  2   force =     0.00000001    0.00000000    0.42324053
     atom    5 type  1   force =    -0.00000001    0.00000000   -0.42324054
     atom    6 type  1   force =     0.00000001   -0.00000000   -0.42324054
     atom    7 type  2   force =    -0.00000001    0.00000001    0.42324054
     atom    8 type  2   force =     0.00000001   -0.00000001    0.42324054
     atom    9 type  1   force =    -0.00000001   -0.00000000   -0.42324053
     atom   10 type  1   force =    -0.00000001   -0.00000001   -0.42324053
     atom   11 type  2   force =    -0.00000001   -0.00000000    0.42324053
     atom   12 type  2   force =    -0.00000000   -0.00000000    0.42324053
     The local contribution  to forces
     atom    1 type  1   force =     0.00002849    0.00001645    0.46801284
     atom    2 type  1   force =    -0.00006370   -0.00003682    0.46798295
     atom    3 type  2   force =     0.00015205    0.00008779   -0.36125972
     atom    4 type  2   force =    -0.00016267   -0.00009393   -0.36124060
     atom    5 type  1   force =     0.00005889    0.00003409    0.46802606
     atom    6 type  1   force =    -0.00002297   -0.00001335    0.46797374
     atom    7 type  2   force =     0.00016352    0.00009443   -0.36125599
     atom    8 type  2   force =    -0.00015264   -0.00008815   -0.36124135
     atom    9 type  1   force =     0.00004538    0.00002624    0.46801483
     atom   10 type  1   force =    -0.00004396   -0.00002538    0.46797337
     atom   11 type  2   force =     0.00015385    0.00008884   -0.36125848
     atom   12 type  2   force =    -0.00015368   -0.00008873   -0.36124232
     The core correction contribution to forces
     atom    1 type  1   force =    -0.00000363   -0.00000210    0.00720303
     atom    2 type  1   force =     0.00000405    0.00000233    0.00720309
     atom    3 type  2   force =     0.00000184    0.00000106    0.00022513
     atom    4 type  2   force =    -0.00000176   -0.00000102    0.00022515
     atom    5 type  1   force =    -0.00000389   -0.00000223    0.00720267
     atom    6 type  1   force =     0.00000354    0.00000203    0.00720341
     atom    7 type  2   force =     0.00000177    0.00000102    0.00022514
     atom    8 type  2   force =    -0.00000183   -0.00000106    0.00022514
     atom    9 type  1   force =    -0.00000372   -0.00000214    0.00720266
     atom   10 type  1   force =     0.00000376    0.00000217    0.00720329
     atom   11 type  2   force =     0.00000184    0.00000106    0.00022511
     atom   12 type  2   force =    -0.00000184   -0.00000106    0.00022515
     The Hubbard contrib.    to forces
     atom    1 type  1   force =     0.00000000    0.00000000    0.00000000
     atom    2 type  1   force =     0.00000000    0.00000000    0.00000000
     atom    3 type  2   force =     0.00000000    0.00000000    0.00000000
     atom    4 type  2   force =     0.00000000    0.00000000    0.00000000
     atom    5 type  1   force =     0.00000000    0.00000000    0.00000000
     atom    6 type  1   force =     0.00000000    0.00000000    0.00000000
     atom    7 type  2   force =     0.00000000    0.00000000    0.00000000
     atom    8 type  2   force =     0.00000000    0.00000000    0.00000000
     atom    9 type  1   force =     0.00000000    0.00000000    0.00000000
     atom   10 type  1   force =     0.00000000    0.00000000    0.00000000
     atom   11 type  2   force =     0.00000000    0.00000000    0.00000000
     atom   12 type  2   force =     0.00000000    0.00000000    0.00000000
     The SCF correction term to forces
     atom    1 type  1   force =     0.00001787    0.00001031   -0.00002372
     atom    2 type  1   force =     0.00002447    0.00001413    0.00001479
     atom    3 type  2   force =     0.00000597    0.00000344    0.00001300
     atom    4 type  2   force =     0.00001090    0.00000629   -0.00001008
     atom    5 type  1   force =    -0.00002029   -0.00001171   -0.00004133
     atom    6 type  1   force =    -0.00002530   -0.00001461    0.00002606
     atom    7 type  2   force =    -0.00001193   -0.00000689    0.00000900
     atom    8 type  2   force =    -0.00000478   -0.00000276   -0.00000890
     atom    9 type  1   force =    -0.00000287   -0.00000166   -0.00002437
     atom   10 type  1   force =    -0.00000076   -0.00000044    0.00002609
     atom   11 type  2   force =     0.00000510    0.00000294    0.00001001
     atom   12 type  2   force =    -0.00000444   -0.00000256   -0.00000714

     Total force =     0.072449     Total SCF correction =     0.000090

     General routines

     Parallel routines

   This run was terminated on:  13:32:12  27Aug2025

   JOB DONE.