     Program PWSCF v.7.0 starts on 27Aug2025 at 16: 4: 2

     K-points division:     npool     =      17

     Reading input from /home/jvc/QEspresso7.2/ZnO_database/scripts/cell311.in/ZnO-3.14-1.61-311.in
Warning: card &CELL ignored
Warning: card / ignored
Warning: card &FCP ignored
Warning: card / ignored
Warning: card &RISM ignored
Warning: card / ignored

     Current dimensions of program PWSCF are:
     Max number of different atomic species (ntypx) = 10
     Max number of k-points (npk) =  40000
     Max angular momentum in pseudopotentials (lmaxx) =  4
     file Zn.upf: wavefunction(s)  3D renormalized
     Found identity + (  0.3333  0.0000  0.0000) symmetry
     This is a supercell, fractional translations are disabled
     Message from routine setup:
     using ibrav=0 with symmetry is DISCOURAGED, use correct ibrav instead

     Subspace diagonalization in iterative solution of the eigenvalue problem:
     a serial algorithm will be used

     Using Slab Decomposition

     bravais-lattice index     =            0
     lattice parameter (alat)  =      17.7951  a.u.
     unit-cell volume          =     875.3653 (a.u.)^3
     number of atoms/cell      =           12
     number of atomic types    =            2
     number of electrons       =       108.00
     number of Kohn-Sham states=           54
     kinetic-energy cutoff     =      50.0000  Ry
     charge density cutoff     =     400.0000  Ry
     scf convergence threshold =      1.0E-08
     mixing beta               =       0.3000
     number of iterations used =            8  plain     mixing
     Exchange-correlation= PBE
                           (   1   4   3   4   0   0   0)

     celldm(1)=  17.795099  celldm(2)=   0.000000  celldm(3)=   0.000000
     celldm(4)=   0.000000  celldm(5)=   0.000000  celldm(6)=   0.000000

     crystal axes: (cart. coord. in units of alat)
               a(1) = (   1.000000   0.000000   0.000000 )
               a(2) = (  -0.166667   0.288675   0.000000 )
               a(3) = (   0.000000   0.000000   0.538119 )

     reciprocal axes: (cart. coord. in units 2 pi/alat)
               b(1) = (  1.000000  0.577350 -0.000000 )
               b(2) = (  0.000000  3.464102  0.000000 )
               b(3) = (  0.000000 -0.000000  1.858323 )

     PseudoPot. # 1 for Zn read from file:
     /home/jvc/QEspresso7.2/ZnO_database/pseudos/Zn.upf
     MD5 check sum: 7f56cabf9682ed8c977c2f7d0c5985c5
     Pseudo is Ultrasoft + core correction, Zval = 12.0
     Generated using &quot;atomic&quot; code by A. Dal Corso  v.6.2.2
     Using radial grid of 1201 points,  6 beta functions with:
                l(1) =   0
                l(2) =   0
                l(3) =   1
                l(4) =   1
                l(5) =   2
                l(6) =   2
     Q(r) pseudized with 0 coefficients

     PseudoPot. # 2 for O  read from file:
     /home/jvc/QEspresso7.2/ZnO_database/pseudos/O.upf
     MD5 check sum: 91400c9766925bcf19f520983a725ff0
     Pseudo is Ultrasoft + core correction, Zval =  6.0
     Generated using &quot;atomic&quot; code by A. Dal Corso  v.6.3MaX
     Using radial grid of 1095 points,  4 beta functions with:
                l(1) =   0
                l(2) =   0
                l(3) =   1
                l(4) =   1
     Q(r) pseudized with 0 coefficients

     atomic species   valence    mass     pseudopotential
        Zn            12.00    65.38000     Zn( 1.00)
        O              6.00    15.99900     O ( 1.00)

      2 Sym. Ops. (no inversion) found

                                    s                        frac. trans.

      isym =  1     identity

 cryst.   s( 1) = (     1          0          0      )
                  (     0          1          0      )
                  (     0          0          1      )

 cart.    s( 1) = (  1.0000000  0.0000000  0.0000000 )
                  (  0.0000000  1.0000000  0.0000000 )
                  (  0.0000000  0.0000000  1.0000000 )

      isym =  2     inv. 180 deg rotation - cryst. axis [0,1,0]

 cryst.   s( 2) = (     1          3          0      )
                  (     0         -1          0      )
                  (     0          0          1      )

 cart.    s( 2) = (  0.5000000  0.8660254  0.0000000 )
                  (  0.8660254 -0.5000000  0.0000000 )
                  (  0.0000000  0.0000000  1.0000000 )

   Cartesian axes

     site n.     atom                  positions (alat units)
         1           Zn  tau(   1) = (   0.1666667   0.0962250   0.2694007  )
         2           Zn  tau(   2) = (  -0.0000000   0.1924501   0.0003409  )
         3           O   tau(   3) = (   0.1666667   0.0962250   0.4733710  )
         4           O   tau(   4) = (  -0.0000000   0.1924501   0.2043113  )
         5           Zn  tau(   5) = (   0.5000000   0.0962250   0.2694007  )
         6           Zn  tau(   6) = (   0.3333333   0.1924501   0.0003409  )
         7           O   tau(   7) = (   0.5000000   0.0962250   0.4733710  )
         8           O   tau(   8) = (   0.3333333   0.1924501   0.2043113  )
         9           Zn  tau(   9) = (   0.8333333   0.0962250   0.2694007  )
        10           Zn  tau(  10) = (   0.6666667   0.1924501   0.0003409  )
        11           O   tau(  11) = (   0.8333333   0.0962250   0.4733710  )
        12           O   tau(  12) = (   0.6666667   0.1924501   0.2043113  )

   Crystallographic axes

     site n.     atom                  positions (cryst. coord.)
         1           Zn  tau(   1) = (  0.2222222  0.3333333  0.5006336  )
         2           Zn  tau(   2) = (  0.1111111  0.6666667  0.0006336  )
         3           O   tau(   3) = (  0.2222222  0.3333333  0.8796764  )
         4           O   tau(   4) = (  0.1111111  0.6666667  0.3796764  )
         5           Zn  tau(   5) = (  0.5555556  0.3333333  0.5006336  )
         6           Zn  tau(   6) = (  0.4444444  0.6666667  0.0006336  )
         7           O   tau(   7) = (  0.5555556  0.3333333  0.8796764  )
         8           O   tau(   8) = (  0.4444444  0.6666667  0.3796764  )
         9           Zn  tau(   9) = (  0.8888889  0.3333333  0.5006336  )
        10           Zn  tau(  10) = (  0.7777778  0.6666667  0.0006336  )
        11           O   tau(  11) = (  0.8888889  0.3333333  0.8796764  )
        12           O   tau(  12) = (  0.7777778  0.6666667  0.3796764  )

     number of k points=    68
                       cart. coord. in units 2pi/alat
        k(    1) = (   0.0000000   0.0000000   0.0000000), wk =   0.0092593
        k(    2) = (   0.0000000   0.0000000   0.3097206), wk =   0.0185185
        k(    3) = (   0.0000000   0.0000000   0.6194412), wk =   0.0185185
        k(    4) = (   0.0000000   0.0000000  -0.9291617), wk =   0.0092593
        k(    5) = (   0.0000000   0.5773503   0.0000000), wk =   0.0370370
        k(    6) = (   0.0000000   0.5773503   0.3097206), wk =   0.0370370
        k(    7) = (   0.0000000   0.5773503   0.6194412), wk =   0.0370370
        k(    8) = (   0.0000000   0.5773503  -0.9291617), wk =   0.0370370
        k(    9) = (   0.0000000   1.1547005   0.0000000), wk =   0.0185185
        k(   10) = (   0.0000000   1.1547005   0.3097206), wk =   0.0370370
        k(   11) = (   0.0000000   1.1547005   0.6194412), wk =   0.0370370
        k(   12) = (   0.0000000   1.1547005  -0.9291617), wk =   0.0185185
        k(   13) = (   0.0000000  -1.7320508   0.0000000), wk =   0.0185185
        k(   14) = (   0.0000000  -1.7320508   0.3097206), wk =   0.0370370
        k(   15) = (   0.0000000  -1.7320508   0.6194412), wk =   0.0370370
        k(   16) = (   0.0000000  -1.7320508  -0.9291617), wk =   0.0185185
        k(   17) = (   0.1666667   0.0962250   0.0000000), wk =   0.0185185
        k(   18) = (   0.1666667   0.0962250   0.3097206), wk =   0.0185185
        k(   19) = (   0.1666667   0.0962250   0.6194412), wk =   0.0185185
        k(   20) = (   0.1666667   0.0962250  -0.9291617), wk =   0.0185185
        k(   21) = (   0.1666667   0.6735753   0.0000000), wk =   0.0370370
        k(   22) = (   0.1666667   0.6735753   0.3097206), wk =   0.0370370
        k(   23) = (   0.1666667   0.6735753   0.6194412), wk =   0.0370370
        k(   24) = (   0.1666667   0.6735753  -0.9291617), wk =   0.0370370
        k(   25) = (   0.1666667   1.2509256   0.0000000), wk =   0.0370370
        k(   26) = (   0.1666667   1.2509256   0.3097206), wk =   0.0370370
        k(   27) = (   0.1666667   1.2509256   0.6194412), wk =   0.0370370
        k(   28) = (   0.1666667   1.2509256  -0.9291617), wk =   0.0370370
        k(   29) = (   0.1666667  -1.6358258   0.0000000), wk =   0.0370370
        k(   30) = (   0.1666667  -1.6358258   0.3097206), wk =   0.0370370
        k(   31) = (   0.1666667  -1.6358258   0.6194412), wk =   0.0370370
        k(   32) = (   0.1666667  -1.6358258  -0.9291617), wk =   0.0370370
        k(   33) = (   0.1666667  -0.4811252   0.0000000), wk =   0.0370370
        k(   34) = (   0.1666667  -0.4811252   0.3097206), wk =   0.0370370
        k(   35) = (   0.1666667  -0.4811252   0.6194412), wk =   0.0370370
        k(   36) = (   0.1666667  -0.4811252  -0.9291617), wk =   0.0370370
        k(   37) = (   0.3333333   0.1924501   0.0000000), wk =   0.0185185
        k(   38) = (   0.3333333   0.1924501   0.3097206), wk =   0.0185185
        k(   39) = (   0.3333333   0.1924501   0.6194412), wk =   0.0185185
        k(   40) = (   0.3333333   0.1924501  -0.9291617), wk =   0.0185185
        k(   41) = (   0.3333333   1.3471506   0.0000000), wk =   0.0370370
        k(   42) = (   0.3333333   1.3471506   0.3097206), wk =   0.0370370
        k(   43) = (   0.3333333   1.3471506   0.6194412), wk =   0.0370370
        k(   44) = (   0.3333333   1.3471506  -0.9291617), wk =   0.0370370
        k(   45) = (  -0.5000000  -0.2886751   0.0000000), wk =   0.0092593
        k(   46) = (  -0.5000000  -0.2886751   0.3097206), wk =   0.0185185
        k(   47) = (  -0.5000000  -0.2886751   0.6194412), wk =   0.0185185
        k(   48) = (  -0.5000000  -0.2886751  -0.9291617), wk =   0.0092593
        k(   49) = (  -0.5000000   0.8660254   0.0000000), wk =   0.0185185
        k(   50) = (  -0.5000000   0.8660254   0.3097206), wk =   0.0370370
        k(   51) = (  -0.5000000   0.8660254   0.6194412), wk =   0.0370370
        k(   52) = (  -0.5000000   0.8660254  -0.9291617), wk =   0.0185185
        k(   53) = (   0.5000000  -0.2886751  -0.3097206), wk =   0.0370370
        k(   54) = (   0.5000000  -0.2886751  -0.6194412), wk =   0.0370370
        k(   55) = (   0.1666667   0.0962250  -0.3097206), wk =   0.0185185
        k(   56) = (   0.1666667   0.0962250  -0.6194412), wk =   0.0185185
        k(   57) = (   0.6666667  -0.1924501  -0.3097206), wk =   0.0370370
        k(   58) = (   0.6666667  -0.1924501  -0.6194412), wk =   0.0370370
        k(   59) = (   1.1666667  -0.4811252  -0.3097206), wk =   0.0370370
        k(   60) = (   1.1666667  -0.4811252  -0.6194412), wk =   0.0370370
        k(   61) = (  -1.3333333   0.9622504  -0.3097206), wk =   0.0370370
        k(   62) = (  -1.3333333   0.9622504  -0.6194412), wk =   0.0370370
        k(   63) = (  -0.3333333   0.3849002  -0.3097206), wk =   0.0370370
        k(   64) = (  -0.3333333   0.3849002  -0.6194412), wk =   0.0370370
        k(   65) = (   0.3333333   0.1924501  -0.3097206), wk =   0.0185185
        k(   66) = (   0.3333333   0.1924501  -0.6194412), wk =   0.0185185
        k(   67) = (   1.3333333  -0.3849002  -0.3097206), wk =   0.0370370
        k(   68) = (   1.3333333  -0.3849002  -0.6194412), wk =   0.0370370

                       cryst. coord.
        k(    1) = (   0.0000000   0.0000000   0.0000000), wk =   0.0092593
        k(    2) = (   0.0000000   0.0000000   0.1666667), wk =   0.0185185
        k(    3) = (   0.0000000   0.0000000   0.3333333), wk =   0.0185185
        k(    4) = (   0.0000000   0.0000000  -0.5000000), wk =   0.0092593
        k(    5) = (   0.0000000   0.1666667   0.0000000), wk =   0.0370370
        k(    6) = (   0.0000000   0.1666667   0.1666667), wk =   0.0370370
        k(    7) = (   0.0000000   0.1666667   0.3333333), wk =   0.0370370
        k(    8) = (   0.0000000   0.1666667  -0.5000000), wk =   0.0370370
        k(    9) = (   0.0000000   0.3333333   0.0000000), wk =   0.0185185
        k(   10) = (   0.0000000   0.3333333   0.1666667), wk =   0.0370370
        k(   11) = (   0.0000000   0.3333333   0.3333333), wk =   0.0370370
        k(   12) = (   0.0000000   0.3333333  -0.5000000), wk =   0.0185185
        k(   13) = (   0.0000000  -0.5000000   0.0000000), wk =   0.0185185
        k(   14) = (   0.0000000  -0.5000000   0.1666667), wk =   0.0370370
        k(   15) = (   0.0000000  -0.5000000   0.3333333), wk =   0.0370370
        k(   16) = (   0.0000000  -0.5000000  -0.5000000), wk =   0.0185185
        k(   17) = (   0.1666667   0.0000000   0.0000000), wk =   0.0185185
        k(   18) = (   0.1666667   0.0000000   0.1666667), wk =   0.0185185
        k(   19) = (   0.1666667   0.0000000   0.3333333), wk =   0.0185185
        k(   20) = (   0.1666667   0.0000000  -0.5000000), wk =   0.0185185
        k(   21) = (   0.1666667   0.1666667   0.0000000), wk =   0.0370370
        k(   22) = (   0.1666667   0.1666667   0.1666667), wk =   0.0370370
        k(   23) = (   0.1666667   0.1666667   0.3333333), wk =   0.0370370
        k(   24) = (   0.1666667   0.1666667  -0.5000000), wk =   0.0370370
        k(   25) = (   0.1666667   0.3333333   0.0000000), wk =   0.0370370
        k(   26) = (   0.1666667   0.3333333   0.1666667), wk =   0.0370370
        k(   27) = (   0.1666667   0.3333333   0.3333333), wk =   0.0370370
        k(   28) = (   0.1666667   0.3333333  -0.5000000), wk =   0.0370370
        k(   29) = (   0.1666667  -0.5000000   0.0000000), wk =   0.0370370
        k(   30) = (   0.1666667  -0.5000000   0.1666667), wk =   0.0370370
        k(   31) = (   0.1666667  -0.5000000   0.3333333), wk =   0.0370370
        k(   32) = (   0.1666667  -0.5000000  -0.5000000), wk =   0.0370370
        k(   33) = (   0.1666667  -0.1666667   0.0000000), wk =   0.0370370
        k(   34) = (   0.1666667  -0.1666667   0.1666667), wk =   0.0370370
        k(   35) = (   0.1666667  -0.1666667   0.3333333), wk =   0.0370370
        k(   36) = (   0.1666667  -0.1666667  -0.5000000), wk =   0.0370370
        k(   37) = (   0.3333333   0.0000000   0.0000000), wk =   0.0185185
        k(   38) = (   0.3333333   0.0000000   0.1666667), wk =   0.0185185
        k(   39) = (   0.3333333   0.0000000   0.3333333), wk =   0.0185185
        k(   40) = (   0.3333333   0.0000000  -0.5000000), wk =   0.0185185
        k(   41) = (   0.3333333   0.3333333   0.0000000), wk =   0.0370370
        k(   42) = (   0.3333333   0.3333333   0.1666667), wk =   0.0370370
        k(   43) = (   0.3333333   0.3333333   0.3333333), wk =   0.0370370
        k(   44) = (   0.3333333   0.3333333  -0.5000000), wk =   0.0370370
        k(   45) = (  -0.5000000   0.0000000   0.0000000), wk =   0.0092593
        k(   46) = (  -0.5000000   0.0000000   0.1666667), wk =   0.0185185
        k(   47) = (  -0.5000000   0.0000000   0.3333333), wk =   0.0185185
        k(   48) = (  -0.5000000   0.0000000  -0.5000000), wk =   0.0092593
        k(   49) = (  -0.5000000   0.3333333   0.0000000), wk =   0.0185185
        k(   50) = (  -0.5000000   0.3333333   0.1666667), wk =   0.0370370
        k(   51) = (  -0.5000000   0.3333333   0.3333333), wk =   0.0370370
        k(   52) = (  -0.5000000   0.3333333  -0.5000000), wk =   0.0185185
        k(   53) = (   0.5000000  -0.1666667  -0.1666667), wk =   0.0370370
        k(   54) = (   0.5000000  -0.1666667  -0.3333333), wk =   0.0370370
        k(   55) = (   0.1666667   0.0000000  -0.1666667), wk =   0.0185185
        k(   56) = (   0.1666667   0.0000000  -0.3333333), wk =   0.0185185
        k(   57) = (   0.6666667  -0.1666667  -0.1666667), wk =   0.0370370
        k(   58) = (   0.6666667  -0.1666667  -0.3333333), wk =   0.0370370
        k(   59) = (   1.1666667  -0.3333333  -0.1666667), wk =   0.0370370
        k(   60) = (   1.1666667  -0.3333333  -0.3333333), wk =   0.0370370
        k(   61) = (  -1.3333333   0.5000000  -0.1666667), wk =   0.0370370
        k(   62) = (  -1.3333333   0.5000000  -0.3333333), wk =   0.0370370
        k(   63) = (  -0.3333333   0.1666667  -0.1666667), wk =   0.0370370
        k(   64) = (  -0.3333333   0.1666667  -0.3333333), wk =   0.0370370
        k(   65) = (   0.3333333   0.0000000  -0.1666667), wk =   0.0185185
        k(   66) = (   0.3333333   0.0000000  -0.3333333), wk =   0.0185185
        k(   67) = (   1.3333333  -0.3333333  -0.1666667), wk =   0.0370370
        k(   68) = (   1.3333333  -0.3333333  -0.3333333), wk =   0.0370370

     Check: negative core charge=   -0.000002

     Initial potential from superposition of free atoms

     starting charge     107.9776, renormalised to     108.0000
     Starting wfcs are   78 randomized atomic wfcs

     Self-consistent Calculation

     iteration #  1     ecut=    50.00 Ry     beta= 0.30
     Davidson diagonalization with overlap

     ethr =  1.00E-02,  avg # of iterations =  2.0

     total energy              =   -1084.39343437 Ry
     estimated scf accuracy    <       2.01397008 Ry

[...]

     total energy              =   -1084.82573941 Ry
     estimated scf accuracy    <       0.00000002 Ry

     iteration # 41     ecut=    50.00 Ry     beta= 0.30
     Davidson diagonalization with overlap

     ethr =  1.27E-11,  avg # of iterations =  6.4

     End of self-consistent calculation

          k = 0.0000 0.0000 0.0000 (  5241 PWs)   bands (ev):

   -10.1181  -9.5388  -9.5386  -9.2410  -9.0342  -9.0341   2.1357   2.1358
     2.3631   2.5549   2.5549   2.5853   2.5856   2.6424   2.8110   2.8111
     2.8357   2.8357   3.0067   3.0067   3.2965   3.2966   3.3193   3.3194
     3.9457   3.9457   4.0871   4.0871   4.1791   4.1791   4.3500   4.3501
     4.3905   4.3905   4.4326   4.4326   4.6639   4.8236   4.8236   5.4107
     5.4107   6.4479   6.4480   6.6976   6.6976   7.8677   7.8678   7.9086
     7.9089   8.1166   8.1166   8.6916   8.8167   8.8171

     occupation numbers
     1.0000   1.0000   1.0000   1.0000   1.0000   1.0000   1.0000   1.0000
     1.0000   1.0000   1.0000   1.0000   1.0000   1.0000   1.0000   1.0000
     1.0000   1.0000   1.0000   1.0000   1.0000   1.0000   1.0000   1.0000
     1.0000   1.0000   1.0000   1.0000   1.0000   1.0000   1.0000   1.0000
     1.0000   1.0000   1.0000   1.0000   1.0000   1.0000   1.0000   1.0000
     1.0000   1.0000   1.0000   1.0000   1.0000   1.0000   1.0000   1.0000
     1.0000   1.0000   1.0000   1.0000   1.0000   1.0000

[...]

          k =-0.5000-0.2887 0.0000 (  5244 PWs)   bands (ev):

[...]

          k =-0.3333 0.3849-0.6194 (  5228 PWs)   bands (ev):

[...]

          k = 1.3333-0.3849-0.6194 (  5226 PWs)   bands (ev):

    -9.4901  -9.2797  -9.2002  -9.1523  -9.0945  -9.0553   2.0764   2.1016
     2.1861   2.2003   2.3072   2.3735   2.7979   2.8194   2.8702   2.9109
     2.9784   3.0178   3.0241   3.1041   3.1955   3.2651   3.3562   3.3766
     4.1221   4.1361   4.1660   4.2074   4.2230   4.2782   4.3239   4.3723
     4.3965   4.4855   4.4862   4.6581   4.8380   5.0575   5.1760   5.4553
     5.6149   5.7304   6.1877   6.4539   6.5936   6.6111   6.6880   6.9607
     7.0708   7.3560   7.4613   7.6515   7.7544   7.8539

     occupation numbers
     1.0000   1.0000   1.0000   1.0000   1.0000   1.0000   1.0000   1.0000
     1.0000   1.0000   1.0000   1.0000   1.0000   1.0000   1.0000   1.0000
     1.0000   1.0000   1.0000   1.0000   1.0000   1.0000   1.0000   1.0000
     1.0000   1.0000   1.0000   1.0000   1.0000   1.0000   1.0000   1.0000
     1.0000   1.0000   1.0000   1.0000   1.0000   1.0000   1.0000   1.0000
     1.0000   1.0000   1.0000   1.0000   1.0000   1.0000   1.0000   1.0000
     1.0000   1.0000   1.0000   1.0000   1.0000   1.0000

     highest occupied level (ev):     8.8171

!    total energy              =   -1084.82573941 Ry
     estimated scf accuracy    <          9.2E-09 Ry

     The total energy is the sum of the following terms:
     one-electron contribution =    -420.69371272 Ry
     hartree contribution      =     339.85397377 Ry
     xc contribution           =    -329.44346965 Ry
     ewald contribution        =    -674.54253081 Ry

     convergence has been achieved in  41 iterations

     Forces acting on atoms (cartesian axes, Ry/au):

     atom    1 type  1   force =     0.00000665    0.00000384    0.00045800
     atom    2 type  1   force =     0.00000885    0.00000511    0.00042372
     atom    3 type  2   force =    -0.00000153   -0.00000088   -0.00043696
     atom    4 type  2   force =     0.00000271    0.00000156   -0.00043571
     atom    5 type  1   force =     0.00001920    0.00001109    0.00044270
     atom    6 type  1   force =    -0.00002241   -0.00001294    0.00041903
     atom    7 type  2   force =    -0.00000243   -0.00000140   -0.00043738
     atom    8 type  2   force =     0.00000281    0.00000162   -0.00043485
     atom    9 type  1   force =     0.00000015    0.00000009    0.00042785
     atom   10 type  1   force =    -0.00001474   -0.00000851    0.00044603
     atom   11 type  2   force =    -0.00000240   -0.00000138   -0.00043611
     atom   12 type  2   force =     0.00000315    0.00000182   -0.00043631
     The non-local contrib.  to forces
     atom    1 type  1   force =    -0.00001964   -0.00001134   -0.00536292
     atom    2 type  1   force =     0.00002597    0.00001500   -0.00537625
     atom    3 type  2   force =    -0.00017999   -0.00010392    0.00400194
     atom    4 type  2   force =     0.00018047    0.00010419    0.00400266
     atom    5 type  1   force =    -0.00001757   -0.00001014   -0.00536768
     atom    6 type  1   force =     0.00001459    0.00000842   -0.00537808
     atom    7 type  2   force =    -0.00017911   -0.00010341    0.00400210
     atom    8 type  2   force =     0.00017809    0.00010282    0.00400158
     atom    9 type  1   force =    -0.00002312   -0.00001335   -0.00537220
     atom   10 type  1   force =     0.00001960    0.00001132   -0.00536737
     atom   11 type  2   force =    -0.00018191   -0.00010503    0.00400268
     atom   12 type  2   force =     0.00018063    0.00010428    0.00400071
     The ionic contribution  to forces
     atom    1 type  1   force =     0.00000001    0.00000001    0.06805211
     atom    2 type  1   force =     0.00000001    0.00000000    0.06805211
     atom    3 type  2   force =     0.00000000    0.00000000   -0.06805211
     atom    4 type  2   force =     0.00000001    0.00000000   -0.06805211
     atom    5 type  1   force =    -0.00000001    0.00000000    0.06805210
     atom    6 type  1   force =     0.00000001   -0.00000000    0.06805210
     atom    7 type  2   force =    -0.00000001    0.00000000   -0.06805210
     atom    8 type  2   force =     0.00000001   -0.00000000   -0.06805210
     atom    9 type  1   force =    -0.00000001   -0.00000000    0.06805211
     atom   10 type  1   force =    -0.00000001   -0.00000001    0.06805211
     atom   11 type  2   force =    -0.00000001   -0.00000000   -0.06805211
     atom   12 type  2   force =    -0.00000000   -0.00000000   -0.06805211
     The local contribution  to forces
     atom    1 type  1   force =     0.00003887    0.00002244   -0.06292974
     atom    2 type  1   force =    -0.00006447   -0.00003727   -0.06287434
     atom    3 type  2   force =     0.00017418    0.00010056    0.06366271
     atom    4 type  2   force =    -0.00017883   -0.00010326    0.06365758
     atom    5 type  1   force =     0.00001956    0.00001139   -0.06290618
     atom    6 type  1   force =    -0.00001398   -0.00000817   -0.06286763
     atom    7 type  2   force =     0.00018497    0.00010682    0.06366316
     atom    8 type  2   force =    -0.00017362   -0.00010027    0.06365303
     atom    9 type  1   force =     0.00005006    0.00002895   -0.06288317
     atom   10 type  1   force =    -0.00002838   -0.00001639   -0.06291138
     atom   11 type  2   force =     0.00017439    0.00010070    0.06366085
     atom   12 type  2   force =    -0.00017799   -0.00010276    0.06365532
     The core correction contribution to forces
     atom    1 type  1   force =    -0.00000527   -0.00000304    0.00065165
     atom    2 type  1   force =     0.00000581    0.00000335    0.00065048
     atom    3 type  2   force =     0.00000204    0.00000118   -0.00004547
     atom    4 type  2   force =    -0.00000205   -0.00000118   -0.00004548
     atom    5 type  1   force =    -0.00000462   -0.00000265    0.00065109
     atom    6 type  1   force =     0.00000471    0.00000271    0.00065040
     atom    7 type  2   force =     0.00000205    0.00000119   -0.00004547
     atom    8 type  2   force =    -0.00000201   -0.00000116   -0.00004548
     atom    9 type  1   force =    -0.00000545   -0.00000314    0.00065055
     atom   10 type  1   force =     0.00000489    0.00000282    0.00065129
     atom   11 type  2   force =     0.00000206    0.00000119   -0.00004548
     atom   12 type  2   force =    -0.00000206   -0.00000119   -0.00004547
     The Hubbard contrib.    to forces
     atom    1 type  1   force =     0.00000000    0.00000000    0.00000000
     atom    2 type  1   force =     0.00000000    0.00000000    0.00000000
     atom    3 type  2   force =     0.00000000    0.00000000    0.00000000
     atom    4 type  2   force =     0.00000000    0.00000000    0.00000000
     atom    5 type  1   force =     0.00000000    0.00000000    0.00000000
     atom    6 type  1   force =     0.00000000    0.00000000    0.00000000
     atom    7 type  2   force =     0.00000000    0.00000000    0.00000000
     atom    8 type  2   force =     0.00000000    0.00000000    0.00000000
     atom    9 type  1   force =     0.00000000    0.00000000    0.00000000
     atom   10 type  1   force =     0.00000000    0.00000000    0.00000000
     atom   11 type  2   force =     0.00000000    0.00000000    0.00000000
     atom   12 type  2   force =     0.00000000    0.00000000    0.00000000
     The SCF correction term to forces
     atom    1 type  1   force =    -0.00000773   -0.00000446    0.00004727
     atom    2 type  1   force =     0.00004115    0.00002376   -0.00002792
     atom    3 type  2   force =     0.00000182    0.00000105   -0.00000368
     atom    4 type  2   force =     0.00000271    0.00000157    0.00000199
     atom    5 type  1   force =     0.00002138    0.00001235    0.00001373
     atom    6 type  1   force =    -0.00002810   -0.00001622   -0.00003740
     atom    7 type  2   force =    -0.00001076   -0.00000621   -0.00000470
     atom    8 type  2   force =    -0.00000006   -0.00000003    0.00000848
     atom    9 type  1   force =    -0.00002177   -0.00001257   -0.00001907
     atom   10 type  1   force =    -0.00001125   -0.00000650    0.00002174
     atom   11 type  2   force =     0.00000265    0.00000153   -0.00000169
     atom   12 type  2   force =     0.00000216    0.00000125    0.00000560

     Total force =     0.001512     Total SCF correction =     0.000103

     General routines

     Parallel routines

   This run was terminated on:  16:13:54  27Aug2025

   JOB DONE.