     Program PWSCF v.7.0 starts on 26Aug2025 at 15: 4: 1

     K-points division:     npool     =       4
     band groups division:  nbgrp     =       4

     Reading input from /home/jvc/QEspresso7.2/ZnO_database/scripts/cell121.in/ZnO-3.07-1.58-121.in
Warning: card &CELL ignored
Warning: card / ignored
Warning: card &FCP ignored
Warning: card / ignored
Warning: card &RISM ignored
Warning: card / ignored

     Current dimensions of program PWSCF are:
     Max number of different atomic species (ntypx) = 10
     Max number of k-points (npk) =  40000
     Max angular momentum in pseudopotentials (lmaxx) =  4
     file Zn.upf: wavefunction(s)  3D renormalized
     Found identity + (  0.0000 -0.5000  0.0000) symmetry
     This is a supercell, fractional translations are disabled
     Message from routine setup:
     using ibrav=0 with symmetry is DISCOURAGED, use correct ibrav instead

     Subspace diagonalization in iterative solution of the eigenvalue problem:
     a serial algorithm will be used

     Using Slab Decomposition

     bravais-lattice index     =            0
     lattice parameter (alat)  =       5.8081  a.u.
     unit-cell volume          =     536.9007 (a.u.)^3
     number of atoms/cell      =            8
     number of atomic types    =            2
     number of electrons       =        72.00
     number of Kohn-Sham states=           36
     kinetic-energy cutoff     =      50.0000  Ry
     charge density cutoff     =     400.0000  Ry
     scf convergence threshold =      1.0E-08
     mixing beta               =       0.3000
     number of iterations used =            8  plain     mixing
     Exchange-correlation= PBE
                           (   1   4   3   4   0   0   0)

     celldm(1)=   5.808123  celldm(2)=   0.000000  celldm(3)=   0.000000
     celldm(4)=   0.000000  celldm(5)=   0.000000  celldm(6)=   0.000000

     crystal axes: (cart. coord. in units of alat)
               a(1) = (   1.000000   0.000000   0.000000 )
               a(2) = (  -1.000000   1.732051   0.000000 )
               a(3) = (   0.000000   0.000000   1.582071 )

     reciprocal axes: (cart. coord. in units 2 pi/alat)
               b(1) = (  1.000000  0.577350 -0.000000 )
               b(2) = (  0.000000  0.577350  0.000000 )
               b(3) = (  0.000000 -0.000000  0.632083 )

     PseudoPot. # 1 for Zn read from file:
     /home/jvc/QEspresso7.2/ZnO_database/pseudos/Zn.upf
     MD5 check sum: 7f56cabf9682ed8c977c2f7d0c5985c5
     Pseudo is Ultrasoft + core correction, Zval = 12.0
     Generated using &quot;atomic&quot; code by A. Dal Corso  v.6.2.2
     Using radial grid of 1201 points,  6 beta functions with:
                l(1) =   0
                l(2) =   0
                l(3) =   1
                l(4) =   1
                l(5) =   2
                l(6) =   2
     Q(r) pseudized with 0 coefficients

     PseudoPot. # 2 for O  read from file:
     /home/jvc/QEspresso7.2/ZnO_database/pseudos/O.upf
     MD5 check sum: 91400c9766925bcf19f520983a725ff0
     Pseudo is Ultrasoft + core correction, Zval =  6.0
     Generated using &quot;atomic&quot; code by A. Dal Corso  v.6.3MaX
     Using radial grid of 1095 points,  4 beta functions with:
                l(1) =   0
                l(2) =   0
                l(3) =   1
                l(4) =   1
     Q(r) pseudized with 0 coefficients

     atomic species   valence    mass     pseudopotential
        Zn            12.00    65.38000     Zn( 1.00)
        O              6.00    15.99900     O ( 1.00)

      2 Sym. Ops. (no inversion) found

                                    s                        frac. trans.

      isym =  1     identity

 cryst.   s( 1) = (     1          0          0      )
                  (     0          1          0      )
                  (     0          0          1      )

 cart.    s( 1) = (  1.0000000  0.0000000  0.0000000 )
                  (  0.0000000  1.0000000  0.0000000 )
                  (  0.0000000  0.0000000  1.0000000 )

      isym =  2     inv. 180 deg rotation - cart. axis [1,0,0]

 cryst.   s( 2) = (    -1          0          0      )
                  (     2          1          0      )
                  (     0          0          1      )

 cart.    s( 2) = ( -1.0000000  0.0000000  0.0000000 )
                  (  0.0000000  1.0000000  0.0000000 )
                  (  0.0000000  0.0000000  1.0000000 )

   Cartesian axes

     site n.     atom                  positions (alat units)
         1           Zn  tau(   1) = (   0.5000000   0.2886751   0.7920380  )
         2           Zn  tau(   2) = (   0.0000000   0.5773503   0.0010024  )
         3           O   tau(   3) = (   0.5000000   0.2886751   1.3917107  )
         4           O   tau(   4) = (   0.0000000   0.5773503   0.6006751  )
         5           Zn  tau(   5) = (   0.0000000   1.1547005   0.7920380  )
         6           Zn  tau(   6) = (  -0.5000000   1.4433757   0.0010024  )
         7           O   tau(   7) = (   0.0000000   1.1547005   1.3917107  )
         8           O   tau(   8) = (  -0.5000000   1.4433757   0.6006751  )

   Crystallographic axes

     site n.     atom                  positions (cryst. coord.)
         1           Zn  tau(   1) = (  0.6666667  0.1666667  0.5006336  )
         2           Zn  tau(   2) = (  0.3333333  0.3333333  0.0006336  )
         3           O   tau(   3) = (  0.6666667  0.1666667  0.8796764  )
         4           O   tau(   4) = (  0.3333333  0.3333333  0.3796764  )
         5           Zn  tau(   5) = (  0.6666667  0.6666667  0.5006336  )
         6           Zn  tau(   6) = (  0.3333333  0.8333333  0.0006336  )
         7           O   tau(   7) = (  0.6666667  0.6666667  0.8796764  )
         8           O   tau(   8) = (  0.3333333  0.8333333  0.3796764  )

     number of k points=    80
                       cart. coord. in units 2pi/alat
        k(    1) = (   0.0000000   0.0000000   0.0000000), wk =   0.0092593
        k(    2) = (   0.0000000   0.0000000   0.1053471), wk =   0.0185185
        k(    3) = (   0.0000000   0.0000000   0.2106943), wk =   0.0185185
        k(    4) = (   0.0000000   0.0000000  -0.3160414), wk =   0.0092593
        k(    5) = (   0.0000000   0.0962250   0.0000000), wk =   0.0185185
        k(    6) = (   0.0000000   0.0962250   0.1053471), wk =   0.0185185
        k(    7) = (   0.0000000   0.0962250   0.2106943), wk =   0.0185185
        k(    8) = (   0.0000000   0.0962250  -0.3160414), wk =   0.0185185
        k(    9) = (   0.0000000   0.1924501   0.0000000), wk =   0.0185185
        k(   10) = (   0.0000000   0.1924501   0.1053471), wk =   0.0185185
        k(   11) = (   0.0000000   0.1924501   0.2106943), wk =   0.0185185
        k(   12) = (   0.0000000   0.1924501  -0.3160414), wk =   0.0185185
        k(   13) = (   0.0000000  -0.2886751   0.0000000), wk =   0.0092593
        k(   14) = (   0.0000000  -0.2886751   0.1053471), wk =   0.0185185
        k(   15) = (   0.0000000  -0.2886751   0.2106943), wk =   0.0185185
        k(   16) = (   0.0000000  -0.2886751  -0.3160414), wk =   0.0092593
        k(   17) = (   0.1666667   0.0962250   0.0000000), wk =   0.0370370
        k(   18) = (   0.1666667   0.0962250   0.1053471), wk =   0.0370370
        k(   19) = (   0.1666667   0.0962250   0.2106943), wk =   0.0370370
        k(   20) = (   0.1666667   0.0962250  -0.3160414), wk =   0.0370370
        k(   21) = (   0.1666667   0.1924501   0.0000000), wk =   0.0370370
        k(   22) = (   0.1666667   0.1924501   0.1053471), wk =   0.0370370
        k(   23) = (   0.1666667   0.1924501   0.2106943), wk =   0.0370370
        k(   24) = (   0.1666667   0.1924501  -0.3160414), wk =   0.0370370
        k(   25) = (   0.1666667   0.2886751   0.0000000), wk =   0.0185185
        k(   26) = (   0.1666667   0.2886751   0.1053471), wk =   0.0370370
        k(   27) = (   0.1666667   0.2886751   0.2106943), wk =   0.0370370
        k(   28) = (   0.1666667   0.2886751  -0.3160414), wk =   0.0185185
        k(   29) = (   0.1666667   0.0000000   0.0000000), wk =   0.0185185
        k(   30) = (   0.1666667   0.0000000   0.1053471), wk =   0.0370370
        k(   31) = (   0.1666667   0.0000000   0.2106943), wk =   0.0370370
        k(   32) = (   0.1666667   0.0000000  -0.3160414), wk =   0.0185185
        k(   33) = (   0.3333333   0.1924501   0.0000000), wk =   0.0370370
        k(   34) = (   0.3333333   0.1924501   0.1053471), wk =   0.0370370
        k(   35) = (   0.3333333   0.1924501   0.2106943), wk =   0.0370370
        k(   36) = (   0.3333333   0.1924501  -0.3160414), wk =   0.0370370
        k(   37) = (   0.3333333   0.2886751   0.0000000), wk =   0.0185185
        k(   38) = (   0.3333333   0.2886751   0.1053471), wk =   0.0370370
        k(   39) = (   0.3333333   0.2886751   0.2106943), wk =   0.0370370
        k(   40) = (   0.3333333   0.2886751  -0.3160414), wk =   0.0185185
        k(   41) = (   0.3333333  -0.0962250   0.0000000), wk =   0.0370370
        k(   42) = (   0.3333333  -0.0962250   0.1053471), wk =   0.0370370
        k(   43) = (   0.3333333  -0.0962250   0.2106943), wk =   0.0370370
        k(   44) = (   0.3333333  -0.0962250  -0.3160414), wk =   0.0370370
        k(   45) = (   0.3333333  -0.0000000   0.0000000), wk =   0.0185185
        k(   46) = (   0.3333333  -0.0000000   0.1053471), wk =   0.0370370
        k(   47) = (   0.3333333  -0.0000000   0.2106943), wk =   0.0370370
        k(   48) = (   0.3333333  -0.0000000  -0.3160414), wk =   0.0185185
        k(   49) = (  -0.5000000  -0.2886751   0.0000000), wk =   0.0092593
        k(   50) = (  -0.5000000  -0.2886751   0.1053471), wk =   0.0185185
        k(   51) = (  -0.5000000  -0.2886751   0.2106943), wk =   0.0185185
        k(   52) = (  -0.5000000  -0.2886751  -0.3160414), wk =   0.0092593
        k(   53) = (  -0.5000000  -0.1924501   0.0000000), wk =   0.0185185
        k(   54) = (  -0.5000000  -0.1924501   0.1053471), wk =   0.0185185
        k(   55) = (  -0.5000000  -0.1924501   0.2106943), wk =   0.0185185
        k(   56) = (  -0.5000000  -0.1924501  -0.3160414), wk =   0.0185185
        k(   57) = (  -0.5000000  -0.0962250   0.0000000), wk =   0.0185185
        k(   58) = (  -0.5000000  -0.0962250   0.1053471), wk =   0.0185185
        k(   59) = (  -0.5000000  -0.0962250   0.2106943), wk =   0.0185185
        k(   60) = (  -0.5000000  -0.0962250  -0.3160414), wk =   0.0185185
[...]
        k(   66) = (   0.0000000   0.0962250  -0.2106943), wk =   0.0185185
        k(   67) = (   0.0000000   0.1924501  -0.1053471), wk =   0.0185185
        k(   68) = (   0.0000000   0.1924501  -0.2106943), wk =   0.0185185
        k(   69) = (  -0.1666667   0.0962250  -0.1053471), wk =   0.0370370
        k(   70) = (  -0.1666667   0.0962250  -0.2106943), wk =   0.0370370
        k(   71) = (  -0.1666667   0.1924501  -0.1053471), wk =   0.0370370
        k(   72) = (  -0.1666667   0.1924501  -0.2106943), wk =   0.0370370
        k(   73) = (  -0.3333333   0.1924501  -0.1053471), wk =   0.0370370
        k(   74) = (  -0.3333333   0.1924501  -0.2106943), wk =   0.0370370
        k(   75) = (  -0.3333333  -0.0962250  -0.1053471), wk =   0.0370370
        k(   76) = (  -0.3333333  -0.0962250  -0.2106943), wk =   0.0370370
        k(   77) = (   0.5000000  -0.1924501  -0.1053471), wk =   0.0185185
        k(   78) = (   0.5000000  -0.1924501  -0.2106943), wk =   0.0185185
        k(   79) = (   0.5000000  -0.0962250  -0.1053471), wk =   0.0185185
        k(   80) = (   0.5000000  -0.0962250  -0.2106943), wk =   0.0185185

                       cryst. coord.
        k(    1) = (   0.0000000   0.0000000   0.0000000), wk =   0.0092593
        k(    2) = (   0.0000000   0.0000000   0.1666667), wk =   0.0185185
        k(    3) = (   0.0000000   0.0000000   0.3333333), wk =   0.0185185
        k(    4) = (   0.0000000   0.0000000  -0.5000000), wk =   0.0092593
        k(    5) = (   0.0000000   0.1666667   0.0000000), wk =   0.0185185
        k(    6) = (   0.0000000   0.1666667   0.1666667), wk =   0.0185185
        k(    7) = (   0.0000000   0.1666667   0.3333333), wk =   0.0185185
        k(    8) = (   0.0000000   0.1666667  -0.5000000), wk =   0.0185185
        k(    9) = (   0.0000000   0.3333333   0.0000000), wk =   0.0185185
        k(   10) = (   0.0000000   0.3333333   0.1666667), wk =   0.0185185
        k(   11) = (   0.0000000   0.3333333   0.3333333), wk =   0.0185185
        k(   12) = (   0.0000000   0.3333333  -0.5000000), wk =   0.0185185
        k(   13) = (   0.0000000  -0.5000000   0.0000000), wk =   0.0092593
        k(   14) = (   0.0000000  -0.5000000   0.1666667), wk =   0.0185185
        k(   15) = (   0.0000000  -0.5000000   0.3333333), wk =   0.0185185
        k(   16) = (   0.0000000  -0.5000000  -0.5000000), wk =   0.0092593
        k(   17) = (   0.1666667  -0.0000000   0.0000000), wk =   0.0370370
        k(   18) = (   0.1666667  -0.0000000   0.1666667), wk =   0.0370370
        k(   19) = (   0.1666667  -0.0000000   0.3333333), wk =   0.0370370
        k(   20) = (   0.1666667  -0.0000000  -0.5000000), wk =   0.0370370
        k(   21) = (   0.1666667   0.1666667   0.0000000), wk =   0.0370370
        k(   22) = (   0.1666667   0.1666667   0.1666667), wk =   0.0370370
        k(   23) = (   0.1666667   0.1666667   0.3333333), wk =   0.0370370
        k(   24) = (   0.1666667   0.1666667  -0.5000000), wk =   0.0370370
        k(   25) = (   0.1666667   0.3333333   0.0000000), wk =   0.0185185
        k(   26) = (   0.1666667   0.3333333   0.1666667), wk =   0.0370370
        k(   27) = (   0.1666667   0.3333333   0.3333333), wk =   0.0370370
        k(   28) = (   0.1666667   0.3333333  -0.5000000), wk =   0.0185185
        k(   29) = (   0.1666667  -0.1666667   0.0000000), wk =   0.0185185
        k(   30) = (   0.1666667  -0.1666667   0.1666667), wk =   0.0370370
        k(   31) = (   0.1666667  -0.1666667   0.3333333), wk =   0.0370370
        k(   32) = (   0.1666667  -0.1666667  -0.5000000), wk =   0.0185185
        k(   33) = (   0.3333333  -0.0000000   0.0000000), wk =   0.0370370
        k(   34) = (   0.3333333  -0.0000000   0.1666667), wk =   0.0370370
        k(   35) = (   0.3333333  -0.0000000   0.3333333), wk =   0.0370370
        k(   36) = (   0.3333333  -0.0000000  -0.5000000), wk =   0.0370370
        k(   37) = (   0.3333333   0.1666667   0.0000000), wk =   0.0185185
        k(   38) = (   0.3333333   0.1666667   0.1666667), wk =   0.0370370
        k(   39) = (   0.3333333   0.1666667   0.3333333), wk =   0.0370370
        k(   40) = (   0.3333333   0.1666667  -0.5000000), wk =   0.0185185
        k(   41) = (   0.3333333  -0.5000000   0.0000000), wk =   0.0370370
        k(   42) = (   0.3333333  -0.5000000   0.1666667), wk =   0.0370370
        k(   43) = (   0.3333333  -0.5000000   0.3333333), wk =   0.0370370
        k(   44) = (   0.3333333  -0.5000000  -0.5000000), wk =   0.0370370
        k(   45) = (   0.3333333  -0.3333333   0.0000000), wk =   0.0185185
        k(   46) = (   0.3333333  -0.3333333   0.1666667), wk =   0.0370370
        k(   47) = (   0.3333333  -0.3333333   0.3333333), wk =   0.0370370
        k(   48) = (   0.3333333  -0.3333333  -0.5000000), wk =   0.0185185
        k(   49) = (  -0.5000000   0.0000000   0.0000000), wk =   0.0092593
        k(   50) = (  -0.5000000   0.0000000   0.1666667), wk =   0.0185185
        k(   51) = (  -0.5000000   0.0000000   0.3333333), wk =   0.0185185
        k(   52) = (  -0.5000000   0.0000000  -0.5000000), wk =   0.0092593
        k(   53) = (  -0.5000000   0.1666667   0.0000000), wk =   0.0185185
        k(   54) = (  -0.5000000   0.1666667   0.1666667), wk =   0.0185185
        k(   55) = (  -0.5000000   0.1666667   0.3333333), wk =   0.0185185
        k(   56) = (  -0.5000000   0.1666667  -0.5000000), wk =   0.0185185
        k(   57) = (  -0.5000000   0.3333333   0.0000000), wk =   0.0185185
        k(   58) = (  -0.5000000   0.3333333   0.1666667), wk =   0.0185185
        k(   59) = (  -0.5000000   0.3333333   0.3333333), wk =   0.0185185
        k(   60) = (  -0.5000000   0.3333333  -0.5000000), wk =   0.0185185
[...]
        k(   66) = (   0.0000000   0.1666667  -0.3333333), wk =   0.0185185
        k(   67) = (   0.0000000   0.3333333  -0.1666667), wk =   0.0185185
        k(   68) = (   0.0000000   0.3333333  -0.3333333), wk =   0.0185185
        k(   69) = (  -0.1666667   0.3333333  -0.1666667), wk =   0.0370370
        k(   70) = (  -0.1666667   0.3333333  -0.3333333), wk =   0.0370370
        k(   71) = (  -0.1666667   0.5000000  -0.1666667), wk =   0.0370370
        k(   72) = (  -0.1666667   0.5000000  -0.3333333), wk =   0.0370370
        k(   73) = (  -0.3333333   0.6666667  -0.1666667), wk =   0.0370370
        k(   74) = (  -0.3333333   0.6666667  -0.3333333), wk =   0.0370370
        k(   75) = (  -0.3333333   0.1666667  -0.1666667), wk =   0.0370370
        k(   76) = (  -0.3333333   0.1666667  -0.3333333), wk =   0.0370370
        k(   77) = (   0.5000000  -0.8333333  -0.1666667), wk =   0.0185185
        k(   78) = (   0.5000000  -0.8333333  -0.3333333), wk =   0.0185185
        k(   79) = (   0.5000000  -0.6666667  -0.1666667), wk =   0.0185185
        k(   80) = (   0.5000000  -0.6666667  -0.3333333), wk =   0.0185185

     Check: negative core charge=   -0.000002

     Initial potential from superposition of free atoms

     starting charge      71.9851, renormalised to      72.0000
     Starting wfcs are   52 randomized atomic wfcs

     Self-consistent Calculation

     iteration #  1     ecut=    50.00 Ry     beta= 0.30
     Davidson diagonalization with overlap

     ethr =  1.00E-02,  avg # of iterations =  2.0

     total energy              =    -722.83469059 Ry
     estimated scf accuracy    <       1.35101726 Ry

[...]

     total energy              =    -723.10943584 Ry
     estimated scf accuracy    <       0.00000037 Ry

     iteration # 25     ecut=    50.00 Ry     beta= 0.30
     Davidson diagonalization with overlap

     ethr =  5.13E-10,  avg # of iterations =  4.0

     End of self-consistent calculation

          k = 0.0000 0.0000 0.0000 (  3215 PWs)   bands (ev):

    -9.4658  -8.4953  -8.3910  -8.1658   3.0408   3.1088   3.1195   3.5074
     3.5076   3.5697   3.7757   3.7758   3.8326   4.0749   4.3586   4.5737
     5.2818   5.2819   5.3152   5.5470   5.6176   5.6176   5.6906   5.7774
     5.9647   6.1034   6.3336   6.9253   7.3105   8.7249   9.1905   9.1907
     9.2082  10.1639  10.2681  10.2683

     occupation numbers
     1.0000   1.0000   1.0000   1.0000   1.0000   1.0000   1.0000   1.0000
     1.0000   1.0000   1.0000   1.0000   1.0000   1.0000   1.0000   1.0000
     1.0000   1.0000   1.0000   1.0000   1.0000   1.0000   1.0000   1.0000
     1.0000   1.0000   1.0000   1.0000   1.0000   1.0000   1.0000   1.0000
     1.0000   1.0000   1.0000   1.0000

[...]

          k =-0.5000-0.2887 0.0000 (  3196 PWs)   bands (ev):

[...]

          k =-0.3333-0.0962-0.2107 (  3209 PWs)   bands (ev):

[...]

          k = 0.5000-0.0962-0.2107 (  3190 PWs)   bands (ev):

    -8.4080  -8.4080  -8.2316  -8.2316   2.9325   2.9325   3.0096   3.0096
     3.7781   3.7782   3.9028   3.9028   4.2489   4.2489   4.3220   4.3220
     5.3744   5.3744   5.5090   5.5090   5.6959   5.6959   5.8673   5.8673
     6.1793   6.1793   6.6130   6.6130   7.2979   7.2979   7.9805   7.9806
     8.3811   8.3811   8.9521   8.9522

     occupation numbers
     1.0000   1.0000   1.0000   1.0000   1.0000   1.0000   1.0000   1.0000
     1.0000   1.0000   1.0000   1.0000   1.0000   1.0000   1.0000   1.0000
     1.0000   1.0000   1.0000   1.0000   1.0000   1.0000   1.0000   1.0000
     1.0000   1.0000   1.0000   1.0000   1.0000   1.0000   1.0000   1.0000
     1.0000   1.0000   1.0000   1.0000

     highest occupied level (ev):    10.2683

!    total energy              =    -723.10943592 Ry
     estimated scf accuracy    <          7.4E-09 Ry

     The total energy is the sum of the following terms:
     one-electron contribution =    -260.68050240 Ry
     hartree contribution      =     219.86922886 Ry
     xc contribution           =    -220.04582135 Ry
     ewald contribution        =    -462.25234103 Ry

     convergence has been achieved in  25 iterations

     Forces acting on atoms (cartesian axes, Ry/au):

     atom    1 type  1   force =     0.00000000   -0.00001481   -0.01673894
     atom    2 type  1   force =     0.00000000    0.00000509   -0.01674116
     atom    3 type  2   force =     0.00000000    0.00000373    0.01673749
     atom    4 type  2   force =     0.00000000   -0.00000345    0.01674340
     atom    5 type  1   force =     0.00000000   -0.00000761   -0.01675594
     atom    6 type  1   force =     0.00000000    0.00001774   -0.01672846
     atom    7 type  2   force =     0.00000000    0.00000121    0.01674081
     atom    8 type  2   force =     0.00000000   -0.00000189    0.01674280
     The non-local contrib.  to forces
     atom    1 type  1   force =     0.00000000    0.00002996   -0.07017630
     atom    2 type  1   force =     0.00000000   -0.00002889   -0.07017609
     atom    3 type  2   force =     0.00000000    0.00018343   -0.04136076
     atom    4 type  2   force =     0.00000000   -0.00017855   -0.04136070
     atom    5 type  1   force =     0.00000000    0.00003056   -0.07017626
     atom    6 type  1   force =     0.00000000   -0.00002949   -0.07017373
     atom    7 type  2   force =     0.00000000    0.00018243   -0.04136366
     atom    8 type  2   force =     0.00000000   -0.00017875   -0.04136120
     The ionic contribution  to forces
     atom    1 type  1   force =    -0.00000000    0.00000001   -0.40542190
     atom    2 type  1   force =     0.00000001    0.00000001   -0.40542190
     atom    3 type  2   force =    -0.00000000    0.00000001    0.40542190
     atom    4 type  2   force =     0.00000000    0.00000001    0.40542190
     atom    5 type  1   force =     0.00000000   -0.00000002   -0.40542190
     atom    6 type  1   force =    -0.00000000   -0.00000001   -0.40542190
     atom    7 type  2   force =     0.00000000   -0.00000001    0.40542190
     atom    8 type  2   force =    -0.00000000   -0.00000000    0.40542190
     The local contribution  to forces
     atom    1 type  1   force =    -0.00000008   -0.00004292    0.45235937
     atom    2 type  1   force =     0.00000000    0.00005428    0.45235607
     atom    3 type  2   force =    -0.00000002   -0.00017457   -0.34757439
     atom    4 type  2   force =     0.00000000    0.00016824   -0.34755794
     atom    5 type  1   force =    -0.00000000   -0.00005540    0.45237035
     atom    6 type  1   force =     0.00000000    0.00004223    0.45234494
     atom    7 type  2   force =    -0.00000000   -0.00018110   -0.34756396
     atom    8 type  2   force =    -0.00000000    0.00017686   -0.34755748
     The core correction contribution to forces
     atom    1 type  1   force =    -0.00000007    0.00000381    0.00650657
     atom    2 type  1   force =    -0.00000003   -0.00000422    0.00650675
     atom    3 type  2   force =    -0.00000000   -0.00000205    0.00024411
     atom    4 type  2   force =     0.00000000    0.00000202    0.00024414
     atom    5 type  1   force =     0.00000003    0.00000431    0.00650639
     atom    6 type  1   force =     0.00000006   -0.00000395    0.00650697
     atom    7 type  2   force =    -0.00000000   -0.00000209    0.00024418
     atom    8 type  2   force =     0.00000000    0.00000199    0.00024417
     The Hubbard contrib.    to forces
     atom    1 type  1   force =     0.00000000    0.00000000    0.00000000
     atom    2 type  1   force =     0.00000000    0.00000000    0.00000000
     atom    3 type  2   force =     0.00000000    0.00000000    0.00000000
     atom    4 type  2   force =     0.00000000    0.00000000    0.00000000
     atom    5 type  1   force =     0.00000000    0.00000000    0.00000000
     atom    6 type  1   force =     0.00000000    0.00000000    0.00000000
     atom    7 type  2   force =     0.00000000    0.00000000    0.00000000
     atom    8 type  2   force =     0.00000000    0.00000000    0.00000000
     The SCF correction term to forces
     atom    1 type  1   force =    -0.00000000   -0.00000497   -0.00001272
     atom    2 type  1   force =     0.00000000   -0.00001537   -0.00001203
     atom    3 type  2   force =    -0.00000000   -0.00000238    0.00000059
     atom    4 type  2   force =     0.00000000    0.00000555   -0.00001005
     atom    5 type  1   force =    -0.00000000    0.00001365   -0.00004056
     atom    6 type  1   force =     0.00000000    0.00000967    0.00000922
     atom    7 type  2   force =    -0.00000000    0.00000269   -0.00000368
     atom    8 type  2   force =    -0.00000000   -0.00000127   -0.00001062

     Total force =     0.047351     Total SCF correction =     0.000053

     General routines

     Parallel routines

   This run was terminated on:  15: 9:31  26Aug2025

   JOB DONE.