     Program PWSCF v.7.0 starts on 27Aug2025 at  0:21:58

     K-points division:     npool     =       4
     band groups division:  nbgrp     =       4

     Reading input from /home/jvc/QEspresso7.2/ZnO_database/scripts/cell121.in/ZnO-3.53-1.61-121.in
Warning: card &CELL ignored
Warning: card / ignored
Warning: card &FCP ignored
Warning: card / ignored
Warning: card &RISM ignored
Warning: card / ignored

     Current dimensions of program PWSCF are:
     Max number of different atomic species (ntypx) = 10
     Max number of k-points (npk) =  40000
     Max angular momentum in pseudopotentials (lmaxx) =  4
     file Zn.upf: wavefunction(s)  3D renormalized
     Found identity + ( -0.0000 -0.5000  0.0000) symmetry
     This is a supercell, fractional translations are disabled
     Message from routine setup:
     using ibrav=0 with symmetry is DISCOURAGED, use correct ibrav instead

     Subspace diagonalization in iterative solution of the eigenvalue problem:
     a serial algorithm will be used

     Using Slab Decomposition

     bravais-lattice index     =            0
     lattice parameter (alat)  =       6.6732  a.u.
     unit-cell volume          =     830.9132 (a.u.)^3
     number of atoms/cell      =            8
     number of atomic types    =            2
     number of electrons       =        72.00
     number of Kohn-Sham states=           36
     kinetic-energy cutoff     =      50.0000  Ry
     charge density cutoff     =     400.0000  Ry
     scf convergence threshold =      1.0E-08
     mixing beta               =       0.3000
     number of iterations used =            8  plain     mixing
     Exchange-correlation= PBE
                           (   1   4   3   4   0   0   0)

     celldm(1)=   6.673162  celldm(2)=   0.000000  celldm(3)=   0.000000
     celldm(4)=   0.000000  celldm(5)=   0.000000  celldm(6)=   0.000000

     crystal axes: (cart. coord. in units of alat)
               a(1) = (   1.000000   0.000000   0.000000 )
               a(2) = (  -1.000000   1.732051   0.000000 )
               a(3) = (   0.000000   0.000000   1.614358 )

     reciprocal axes: (cart. coord. in units 2 pi/alat)
               b(1) = (  1.000000  0.577350 -0.000000 )
               b(2) = (  0.000000  0.577350  0.000000 )
               b(3) = (  0.000000 -0.000000  0.619441 )

     PseudoPot. # 1 for Zn read from file:
     /home/jvc/QEspresso7.2/ZnO_database/pseudos/Zn.upf
     MD5 check sum: 7f56cabf9682ed8c977c2f7d0c5985c5
     Pseudo is Ultrasoft + core correction, Zval = 12.0
     Generated using &quot;atomic&quot; code by A. Dal Corso  v.6.2.2
     Using radial grid of 1201 points,  6 beta functions with:
                l(1) =   0
                l(2) =   0
                l(3) =   1
                l(4) =   1
                l(5) =   2
                l(6) =   2
     Q(r) pseudized with 0 coefficients

     PseudoPot. # 2 for O  read from file:
     /home/jvc/QEspresso7.2/ZnO_database/pseudos/O.upf
     MD5 check sum: 91400c9766925bcf19f520983a725ff0
     Pseudo is Ultrasoft + core correction, Zval =  6.0
     Generated using &quot;atomic&quot; code by A. Dal Corso  v.6.3MaX
     Using radial grid of 1095 points,  4 beta functions with:
                l(1) =   0
                l(2) =   0
                l(3) =   1
                l(4) =   1
     Q(r) pseudized with 0 coefficients

     atomic species   valence    mass     pseudopotential
        Zn            12.00    65.38000     Zn( 1.00)
        O              6.00    15.99900     O ( 1.00)

      2 Sym. Ops. (no inversion) found

                                    s                        frac. trans.

      isym =  1     identity

 cryst.   s( 1) = (     1          0          0      )
                  (     0          1          0      )
                  (     0          0          1      )

 cart.    s( 1) = (  1.0000000  0.0000000  0.0000000 )
                  (  0.0000000  1.0000000  0.0000000 )
                  (  0.0000000  0.0000000  1.0000000 )

      isym =  2     inv. 180 deg rotation - cart. axis [1,0,0]

 cryst.   s( 2) = (    -1          0          0      )
                  (     2          1          0      )
                  (     0          0          1      )

 cart.    s( 2) = ( -1.0000000  0.0000000  0.0000000 )
                  (  0.0000000  1.0000000  0.0000000 )
                  (  0.0000000  0.0000000  1.0000000 )

   Cartesian axes

     site n.     atom                  positions (alat units)
         1           Zn  tau(   1) = (   0.5000000   0.2886751   0.8082020  )
         2           Zn  tau(   2) = (   0.0000000   0.5773503   0.0010228  )
         3           O   tau(   3) = (   0.5000000   0.2886751   1.4201130  )
         4           O   tau(   4) = (   0.0000000   0.5773503   0.6129338  )
         5           Zn  tau(   5) = (   0.0000000   1.1547005   0.8082020  )
         6           Zn  tau(   6) = (  -0.5000000   1.4433757   0.0010228  )
         7           O   tau(   7) = (   0.0000000   1.1547005   1.4201130  )
         8           O   tau(   8) = (  -0.5000000   1.4433757   0.6129338  )

   Crystallographic axes

     site n.     atom                  positions (cryst. coord.)
         1           Zn  tau(   1) = (  0.6666667  0.1666667  0.5006336  )
         2           Zn  tau(   2) = (  0.3333333  0.3333333  0.0006336  )
         3           O   tau(   3) = (  0.6666667  0.1666667  0.8796764  )
         4           O   tau(   4) = (  0.3333333  0.3333333  0.3796764  )
         5           Zn  tau(   5) = (  0.6666667  0.6666667  0.5006336  )
         6           Zn  tau(   6) = (  0.3333333  0.8333333  0.0006336  )
         7           O   tau(   7) = (  0.6666667  0.6666667  0.8796764  )
         8           O   tau(   8) = (  0.3333333  0.8333333  0.3796764  )

     number of k points=    80
                       cart. coord. in units 2pi/alat
        k(    1) = (   0.0000000   0.0000000   0.0000000), wk =   0.0092593
        k(    2) = (   0.0000000   0.0000000   0.1032402), wk =   0.0185185
        k(    3) = (   0.0000000   0.0000000   0.2064804), wk =   0.0185185
        k(    4) = (   0.0000000   0.0000000  -0.3097206), wk =   0.0092593
        k(    5) = (   0.0000000   0.0962250   0.0000000), wk =   0.0185185
        k(    6) = (   0.0000000   0.0962250   0.1032402), wk =   0.0185185
        k(    7) = (   0.0000000   0.0962250   0.2064804), wk =   0.0185185
        k(    8) = (   0.0000000   0.0962250  -0.3097206), wk =   0.0185185
        k(    9) = (   0.0000000   0.1924501   0.0000000), wk =   0.0185185
        k(   10) = (   0.0000000   0.1924501   0.1032402), wk =   0.0185185
        k(   11) = (   0.0000000   0.1924501   0.2064804), wk =   0.0185185
        k(   12) = (   0.0000000   0.1924501  -0.3097206), wk =   0.0185185
        k(   13) = (   0.0000000  -0.2886751   0.0000000), wk =   0.0092593
        k(   14) = (   0.0000000  -0.2886751   0.1032402), wk =   0.0185185
        k(   15) = (   0.0000000  -0.2886751   0.2064804), wk =   0.0185185
        k(   16) = (   0.0000000  -0.2886751  -0.3097206), wk =   0.0092593
        k(   17) = (   0.1666667   0.0962250   0.0000000), wk =   0.0370370
        k(   18) = (   0.1666667   0.0962250   0.1032402), wk =   0.0370370
        k(   19) = (   0.1666667   0.0962250   0.2064804), wk =   0.0370370
        k(   20) = (   0.1666667   0.0962250  -0.3097206), wk =   0.0370370
        k(   21) = (   0.1666667   0.1924501   0.0000000), wk =   0.0370370
        k(   22) = (   0.1666667   0.1924501   0.1032402), wk =   0.0370370
        k(   23) = (   0.1666667   0.1924501   0.2064804), wk =   0.0370370
        k(   24) = (   0.1666667   0.1924501  -0.3097206), wk =   0.0370370
        k(   25) = (   0.1666667   0.2886751   0.0000000), wk =   0.0185185
        k(   26) = (   0.1666667   0.2886751   0.1032402), wk =   0.0370370
        k(   27) = (   0.1666667   0.2886751   0.2064804), wk =   0.0370370
        k(   28) = (   0.1666667   0.2886751  -0.3097206), wk =   0.0185185
        k(   29) = (   0.1666667   0.0000000   0.0000000), wk =   0.0185185
        k(   30) = (   0.1666667   0.0000000   0.1032402), wk =   0.0370370
        k(   31) = (   0.1666667   0.0000000   0.2064804), wk =   0.0370370
        k(   32) = (   0.1666667   0.0000000  -0.3097206), wk =   0.0185185
        k(   33) = (   0.3333333   0.1924501   0.0000000), wk =   0.0370370
        k(   34) = (   0.3333333   0.1924501   0.1032402), wk =   0.0370370
        k(   35) = (   0.3333333   0.1924501   0.2064804), wk =   0.0370370
        k(   36) = (   0.3333333   0.1924501  -0.3097206), wk =   0.0370370
        k(   37) = (   0.3333333   0.2886751   0.0000000), wk =   0.0185185
        k(   38) = (   0.3333333   0.2886751   0.1032402), wk =   0.0370370
        k(   39) = (   0.3333333   0.2886751   0.2064804), wk =   0.0370370
        k(   40) = (   0.3333333   0.2886751  -0.3097206), wk =   0.0185185
        k(   41) = (   0.3333333  -0.0962250   0.0000000), wk =   0.0370370
        k(   42) = (   0.3333333  -0.0962250   0.1032402), wk =   0.0370370
        k(   43) = (   0.3333333  -0.0962250   0.2064804), wk =   0.0370370
        k(   44) = (   0.3333333  -0.0962250  -0.3097206), wk =   0.0370370
        k(   45) = (   0.3333333  -0.0000000   0.0000000), wk =   0.0185185
        k(   46) = (   0.3333333  -0.0000000   0.1032402), wk =   0.0370370
        k(   47) = (   0.3333333  -0.0000000   0.2064804), wk =   0.0370370
        k(   48) = (   0.3333333  -0.0000000  -0.3097206), wk =   0.0185185
        k(   49) = (  -0.5000000  -0.2886751   0.0000000), wk =   0.0092593
        k(   50) = (  -0.5000000  -0.2886751   0.1032402), wk =   0.0185185
        k(   51) = (  -0.5000000  -0.2886751   0.2064804), wk =   0.0185185
        k(   52) = (  -0.5000000  -0.2886751  -0.3097206), wk =   0.0092593
        k(   53) = (  -0.5000000  -0.1924501   0.0000000), wk =   0.0185185
        k(   54) = (  -0.5000000  -0.1924501   0.1032402), wk =   0.0185185
        k(   55) = (  -0.5000000  -0.1924501   0.2064804), wk =   0.0185185
        k(   56) = (  -0.5000000  -0.1924501  -0.3097206), wk =   0.0185185
        k(   57) = (  -0.5000000  -0.0962250   0.0000000), wk =   0.0185185
        k(   58) = (  -0.5000000  -0.0962250   0.1032402), wk =   0.0185185
        k(   59) = (  -0.5000000  -0.0962250   0.2064804), wk =   0.0185185
        k(   60) = (  -0.5000000  -0.0962250  -0.3097206), wk =   0.0185185
[...]
        k(   66) = (   0.0000000   0.0962250  -0.2064804), wk =   0.0185185
        k(   67) = (   0.0000000   0.1924501  -0.1032402), wk =   0.0185185
        k(   68) = (   0.0000000   0.1924501  -0.2064804), wk =   0.0185185
        k(   69) = (  -0.1666667   0.0962250  -0.1032402), wk =   0.0370370
        k(   70) = (  -0.1666667   0.0962250  -0.2064804), wk =   0.0370370
        k(   71) = (  -0.1666667   0.1924501  -0.1032402), wk =   0.0370370
        k(   72) = (  -0.1666667   0.1924501  -0.2064804), wk =   0.0370370
        k(   73) = (  -0.3333333   0.1924501  -0.1032402), wk =   0.0370370
        k(   74) = (  -0.3333333   0.1924501  -0.2064804), wk =   0.0370370
        k(   75) = (  -0.3333333  -0.0962250  -0.1032402), wk =   0.0370370
        k(   76) = (  -0.3333333  -0.0962250  -0.2064804), wk =   0.0370370
        k(   77) = (   0.5000000  -0.1924501  -0.1032402), wk =   0.0185185
        k(   78) = (   0.5000000  -0.1924501  -0.2064804), wk =   0.0185185
        k(   79) = (   0.5000000  -0.0962250  -0.1032402), wk =   0.0185185
        k(   80) = (   0.5000000  -0.0962250  -0.2064804), wk =   0.0185185

                       cryst. coord.
        k(    1) = (   0.0000000   0.0000000   0.0000000), wk =   0.0092593
        k(    2) = (   0.0000000   0.0000000   0.1666667), wk =   0.0185185
        k(    3) = (   0.0000000   0.0000000   0.3333333), wk =   0.0185185
        k(    4) = (   0.0000000   0.0000000  -0.5000000), wk =   0.0092593
        k(    5) = (   0.0000000   0.1666667   0.0000000), wk =   0.0185185
        k(    6) = (   0.0000000   0.1666667   0.1666667), wk =   0.0185185
        k(    7) = (   0.0000000   0.1666667   0.3333333), wk =   0.0185185
        k(    8) = (   0.0000000   0.1666667  -0.5000000), wk =   0.0185185
        k(    9) = (   0.0000000   0.3333333   0.0000000), wk =   0.0185185
        k(   10) = (   0.0000000   0.3333333   0.1666667), wk =   0.0185185
        k(   11) = (   0.0000000   0.3333333   0.3333333), wk =   0.0185185
        k(   12) = (   0.0000000   0.3333333  -0.5000000), wk =   0.0185185
        k(   13) = (   0.0000000  -0.5000000   0.0000000), wk =   0.0092593
        k(   14) = (   0.0000000  -0.5000000   0.1666667), wk =   0.0185185
        k(   15) = (   0.0000000  -0.5000000   0.3333333), wk =   0.0185185
        k(   16) = (   0.0000000  -0.5000000  -0.5000000), wk =   0.0092593
        k(   17) = (   0.1666667   0.0000000   0.0000000), wk =   0.0370370
        k(   18) = (   0.1666667   0.0000000   0.1666667), wk =   0.0370370
        k(   19) = (   0.1666667   0.0000000   0.3333333), wk =   0.0370370
        k(   20) = (   0.1666667   0.0000000  -0.5000000), wk =   0.0370370
        k(   21) = (   0.1666667   0.1666667   0.0000000), wk =   0.0370370
        k(   22) = (   0.1666667   0.1666667   0.1666667), wk =   0.0370370
        k(   23) = (   0.1666667   0.1666667   0.3333333), wk =   0.0370370
        k(   24) = (   0.1666667   0.1666667  -0.5000000), wk =   0.0370370
        k(   25) = (   0.1666667   0.3333333   0.0000000), wk =   0.0185185
        k(   26) = (   0.1666667   0.3333333   0.1666667), wk =   0.0370370
        k(   27) = (   0.1666667   0.3333333   0.3333333), wk =   0.0370370
        k(   28) = (   0.1666667   0.3333333  -0.5000000), wk =   0.0185185
        k(   29) = (   0.1666667  -0.1666667   0.0000000), wk =   0.0185185
        k(   30) = (   0.1666667  -0.1666667   0.1666667), wk =   0.0370370
        k(   31) = (   0.1666667  -0.1666667   0.3333333), wk =   0.0370370
        k(   32) = (   0.1666667  -0.1666667  -0.5000000), wk =   0.0185185
        k(   33) = (   0.3333333   0.0000000   0.0000000), wk =   0.0370370
        k(   34) = (   0.3333333   0.0000000   0.1666667), wk =   0.0370370
        k(   35) = (   0.3333333   0.0000000   0.3333333), wk =   0.0370370
        k(   36) = (   0.3333333   0.0000000  -0.5000000), wk =   0.0370370
        k(   37) = (   0.3333333   0.1666667   0.0000000), wk =   0.0185185
        k(   38) = (   0.3333333   0.1666667   0.1666667), wk =   0.0370370
        k(   39) = (   0.3333333   0.1666667   0.3333333), wk =   0.0370370
        k(   40) = (   0.3333333   0.1666667  -0.5000000), wk =   0.0185185
        k(   41) = (   0.3333333  -0.5000000   0.0000000), wk =   0.0370370
        k(   42) = (   0.3333333  -0.5000000   0.1666667), wk =   0.0370370
        k(   43) = (   0.3333333  -0.5000000   0.3333333), wk =   0.0370370
        k(   44) = (   0.3333333  -0.5000000  -0.5000000), wk =   0.0370370
        k(   45) = (   0.3333333  -0.3333333   0.0000000), wk =   0.0185185
        k(   46) = (   0.3333333  -0.3333333   0.1666667), wk =   0.0370370
        k(   47) = (   0.3333333  -0.3333333   0.3333333), wk =   0.0370370
        k(   48) = (   0.3333333  -0.3333333  -0.5000000), wk =   0.0185185
        k(   49) = (  -0.5000000   0.0000000   0.0000000), wk =   0.0092593
        k(   50) = (  -0.5000000   0.0000000   0.1666667), wk =   0.0185185
        k(   51) = (  -0.5000000   0.0000000   0.3333333), wk =   0.0185185
        k(   52) = (  -0.5000000   0.0000000  -0.5000000), wk =   0.0092593
        k(   53) = (  -0.5000000   0.1666667   0.0000000), wk =   0.0185185
        k(   54) = (  -0.5000000   0.1666667   0.1666667), wk =   0.0185185
        k(   55) = (  -0.5000000   0.1666667   0.3333333), wk =   0.0185185
        k(   56) = (  -0.5000000   0.1666667  -0.5000000), wk =   0.0185185
        k(   57) = (  -0.5000000   0.3333333   0.0000000), wk =   0.0185185
        k(   58) = (  -0.5000000   0.3333333   0.1666667), wk =   0.0185185
        k(   59) = (  -0.5000000   0.3333333   0.3333333), wk =   0.0185185
        k(   60) = (  -0.5000000   0.3333333  -0.5000000), wk =   0.0185185
[...]
        k(   66) = (   0.0000000   0.1666667  -0.3333333), wk =   0.0185185
        k(   67) = (   0.0000000   0.3333333  -0.1666667), wk =   0.0185185
        k(   68) = (   0.0000000   0.3333333  -0.3333333), wk =   0.0185185
        k(   69) = (  -0.1666667   0.3333333  -0.1666667), wk =   0.0370370
        k(   70) = (  -0.1666667   0.3333333  -0.3333333), wk =   0.0370370
        k(   71) = (  -0.1666667   0.5000000  -0.1666667), wk =   0.0370370
        k(   72) = (  -0.1666667   0.5000000  -0.3333333), wk =   0.0370370
        k(   73) = (  -0.3333333   0.6666667  -0.1666667), wk =   0.0370370
        k(   74) = (  -0.3333333   0.6666667  -0.3333333), wk =   0.0370370
        k(   75) = (  -0.3333333   0.1666667  -0.1666667), wk =   0.0370370
        k(   76) = (  -0.3333333   0.1666667  -0.3333333), wk =   0.0370370
        k(   77) = (   0.5000000  -0.8333333  -0.1666667), wk =   0.0185185
        k(   78) = (   0.5000000  -0.8333333  -0.3333333), wk =   0.0185185
        k(   79) = (   0.5000000  -0.6666667  -0.1666667), wk =   0.0185185
        k(   80) = (   0.5000000  -0.6666667  -0.3333333), wk =   0.0185185

     Check: negative core charge=   -0.000002

     Initial potential from superposition of free atoms

     starting charge      71.9851, renormalised to      72.0000
     Starting wfcs are   52 randomized atomic wfcs

     Self-consistent Calculation

     iteration #  1     ecut=    50.00 Ry     beta= 0.30
     Davidson diagonalization with overlap

     ethr =  1.00E-02,  avg # of iterations =  1.4

     total energy              =    -722.76680595 Ry
     estimated scf accuracy    <       1.61566432 Ry

[...]

     c_bands:  2 eigenvalues not converged
     ethr =  3.92E-07,  avg # of iterations =  9.1

[...]

     total energy              =    -723.15437858 Ry
     estimated scf accuracy    <       0.00000001 Ry

     iteration # 56     ecut=    50.00 Ry     beta= 0.30
     Davidson diagonalization with overlap

     ethr =  1.66E-11,  avg # of iterations =  4.7

     End of self-consistent calculation

          k = 0.0000 0.0000 0.0000 (  4977 PWs)   bands (ev):

   -12.4605 -12.0795 -12.0616 -11.9563  -0.9466  -0.9356  -0.9354  -0.9188
    -0.8210  -0.8209  -0.7888  -0.6875  -0.5662  -0.4873  -0.4244  -0.3748
    -0.3747  -0.3227  -0.2804  -0.2795  -0.2615  -0.2615  -0.2364  -0.1922
     0.2572   0.6341   1.1576   1.8897   2.4608   3.0539   3.4001   3.4139
     3.4145   3.9185   3.9447   3.9453

     occupation numbers
     1.0000   1.0000   1.0000   1.0000   1.0000   1.0000   1.0000   1.0000
     1.0000   1.0000   1.0000   1.0000   1.0000   1.0000   1.0000   1.0000
     1.0000   1.0000   1.0000   1.0000   1.0000   1.0000   1.0000   1.0000
     1.0000   1.0000   1.0000   1.0000   1.0000   1.0000   1.0000   1.0000
     1.0000   1.0000   1.0000   1.0000

[...]

          k =-0.5000-0.2887 0.0000 (  4948 PWs)   bands (ev):

[...]

          k =-0.3333-0.0962-0.2065 (  4951 PWs)   bands (ev):

[...]

          k = 0.5000-0.0962-0.2065 (  4946 PWs)   bands (ev):

   -12.0484 -12.0483 -11.9841 -11.9840  -0.9112  -0.9112  -0.8267  -0.8267
    -0.7316  -0.7316  -0.5950  -0.5950  -0.5655  -0.5655  -0.5461  -0.5461
    -0.3213  -0.3213  -0.2900  -0.2900  -0.2107  -0.2107  -0.1447  -0.1447
     0.8101   0.8101   1.0461   1.0461   2.2333   2.2333   2.6892   2.6893
     2.8456   2.8456   3.2390   3.2390

     occupation numbers
     1.0000   1.0000   1.0000   1.0000   1.0000   1.0000   1.0000   1.0000
     1.0000   1.0000   1.0000   1.0000   1.0000   1.0000   1.0000   1.0000
     1.0000   1.0000   1.0000   1.0000   1.0000   1.0000   1.0000   1.0000
     1.0000   1.0000   1.0000   1.0000   1.0000   1.0000   1.0000   1.0000
     1.0000   1.0000   1.0000   1.0000

     highest occupied level (ev):     3.9453

!    total energy              =    -723.15437858 Ry
     estimated scf accuracy    <          3.2E-09 Ry

     The total energy is the sum of the following terms:
     one-electron contribution =    -360.43200696 Ry
     hartree contribution      =     255.26718389 Ry
     xc contribution           =    -218.26064836 Ry
     ewald contribution        =    -399.72890715 Ry

     convergence has been achieved in  56 iterations

     Forces acting on atoms (cartesian axes, Ry/au):

     atom    1 type  1   force =     0.00000000    0.00000824   -0.00011808
     atom    2 type  1   force =     0.00000000    0.00001000   -0.00011008
     atom    3 type  2   force =     0.00000000    0.00000641    0.00011310
     atom    4 type  2   force =     0.00000000   -0.00000675    0.00011344
     atom    5 type  1   force =     0.00000000    0.00000127   -0.00011147
     atom    6 type  1   force =     0.00000000   -0.00001945   -0.00011394
     atom    7 type  2   force =     0.00000000    0.00000529    0.00011354
     atom    8 type  2   force =     0.00000000   -0.00000501    0.00011349
     The non-local contrib.  to forces
     atom    1 type  1   force =     0.00000000   -0.00000803   -0.00455036
     atom    2 type  1   force =     0.00000000    0.00001981   -0.00454642
     atom    3 type  2   force =     0.00000000    0.00023190    0.00652338
     atom    4 type  2   force =     0.00000000   -0.00023616    0.00652451
     atom    5 type  1   force =     0.00000000   -0.00001337   -0.00454797
     atom    6 type  1   force =     0.00000000    0.00000179   -0.00454936
     atom    7 type  2   force =     0.00000000    0.00022660    0.00652570
     atom    8 type  2   force =     0.00000000   -0.00022282    0.00652668
     The ionic contribution  to forces
     atom    1 type  1   force =    -0.00000000    0.00000001    0.05376956
     atom    2 type  1   force =     0.00000000    0.00000001    0.05376956
     atom    3 type  2   force =    -0.00000000    0.00000000   -0.05376956
     atom    4 type  2   force =     0.00000000    0.00000000   -0.05376956
     atom    5 type  1   force =     0.00000000   -0.00000001    0.05376956
     atom    6 type  1   force =    -0.00000000   -0.00000000    0.05376957
     atom    7 type  2   force =     0.00000000   -0.00000001   -0.05376956
     atom    8 type  2   force =    -0.00000000   -0.00000000   -0.05376957
     The local contribution  to forces
     atom    1 type  1   force =    -0.00000009    0.00000251   -0.04960627
     atom    2 type  1   force =    -0.00000000   -0.00003537   -0.04962134
     atom    3 type  2   force =    -0.00000002   -0.00022535    0.04743309
     atom    4 type  2   force =     0.00000000    0.00022078    0.04743283
     atom    5 type  1   force =    -0.00000000    0.00001229   -0.04962073
     atom    6 type  1   force =     0.00000000    0.00002042   -0.04961357
     atom    7 type  2   force =    -0.00000000   -0.00021773    0.04743033
     atom    8 type  2   force =     0.00000000    0.00022157    0.04743179
     The core correction contribution to forces
     atom    1 type  1   force =    -0.00000001    0.00000664    0.00028022
     atom    2 type  1   force =    -0.00000000   -0.00000615    0.00028063
     atom    3 type  2   force =     0.00000000   -0.00000263   -0.00007411
     atom    4 type  2   force =    -0.00000000    0.00000268   -0.00007413
     atom    5 type  1   force =     0.00000000    0.00000678    0.00028082
     atom    6 type  1   force =     0.00000000   -0.00000724    0.00028053
     atom    7 type  2   force =     0.00000000   -0.00000255   -0.00007415
     atom    8 type  2   force =    -0.00000000    0.00000250   -0.00007416
     The Hubbard contrib.    to forces
     atom    1 type  1   force =     0.00000000    0.00000000    0.00000000
     atom    2 type  1   force =     0.00000000    0.00000000    0.00000000
     atom    3 type  2   force =     0.00000000    0.00000000    0.00000000
     atom    4 type  2   force =     0.00000000    0.00000000    0.00000000
     atom    5 type  1   force =     0.00000000    0.00000000    0.00000000
     atom    6 type  1   force =     0.00000000    0.00000000    0.00000000
     atom    7 type  2   force =     0.00000000    0.00000000    0.00000000
     atom    8 type  2   force =     0.00000000    0.00000000    0.00000000
     The SCF correction term to forces
     atom    1 type  1   force =     0.00000000    0.00000711   -0.00001148
     atom    2 type  1   force =    -0.00000000    0.00003169    0.00000724
     atom    3 type  2   force =     0.00000000    0.00000247    0.00000005
     atom    4 type  2   force =    -0.00000000    0.00000592   -0.00000044
     atom    5 type  1   force =    -0.00000000   -0.00000442    0.00000659
     atom    6 type  1   force =     0.00000000   -0.00003442   -0.00000134
     atom    7 type  2   force =    -0.00000000   -0.00000104    0.00000097
     atom    8 type  2   force =     0.00000000   -0.00000627   -0.00000149

     Total force =     0.000322     Total SCF correction =     0.000051
     SCF correction compared to forces is large: reduce conv_thr to get better values

     General routines

     Parallel routines

   This run was terminated on:   0:32:47  27Aug2025

   JOB DONE.