     Program PWSCF v.7.0 starts on 26Aug2025 at 18: 9:30

     K-points division:     npool     =       4
     band groups division:  nbgrp     =       4

     Reading input from /home/jvc/QEspresso7.2/ZnO_database/scripts/cell121.in/ZnO-3.20-1.78-121.in
Warning: card &CELL ignored
Warning: card / ignored
Warning: card &FCP ignored
Warning: card / ignored
Warning: card &RISM ignored
Warning: card / ignored

     Current dimensions of program PWSCF are:
     Max number of different atomic species (ntypx) = 10
     Max number of k-points (npk) =  40000
     Max angular momentum in pseudopotentials (lmaxx) =  4
     file Zn.upf: wavefunction(s)  3D renormalized
     Found identity + (  0.0000  0.5000  0.0000) symmetry
     This is a supercell, fractional translations are disabled
     Message from routine setup:
     using ibrav=0 with symmetry is DISCOURAGED, use correct ibrav instead

     Subspace diagonalization in iterative solution of the eigenvalue problem:
     a serial algorithm will be used

     Using Slab Decomposition

     bravais-lattice index     =            0
     lattice parameter (alat)  =       6.0553  a.u.
     unit-cell volume          =     682.8971 (a.u.)^3
     number of atoms/cell      =            8
     number of atomic types    =            2
     number of electrons       =        72.00
     number of Kohn-Sham states=           36
     kinetic-energy cutoff     =      50.0000  Ry
     charge density cutoff     =     400.0000  Ry
     scf convergence threshold =      1.0E-08
     mixing beta               =       0.3000
     number of iterations used =            8  plain     mixing
     Exchange-correlation= PBE
                           (   1   4   3   4   0   0   0)

     celldm(1)=   6.055277  celldm(2)=   0.000000  celldm(3)=   0.000000
     celldm(4)=   0.000000  celldm(5)=   0.000000  celldm(6)=   0.000000

     crystal axes: (cart. coord. in units of alat)
               a(1) = (   1.000000   0.000000   0.000000 )
               a(2) = (  -1.000000   1.732051   0.000000 )
               a(3) = (   0.000000   0.000000   1.775794 )

     reciprocal axes: (cart. coord. in units 2 pi/alat)
               b(1) = (  1.000000  0.577350 -0.000000 )
               b(2) = (  0.000000  0.577350  0.000000 )
               b(3) = (  0.000000 -0.000000  0.563128 )

     PseudoPot. # 1 for Zn read from file:
     /home/jvc/QEspresso7.2/ZnO_database/pseudos/Zn.upf
     MD5 check sum: 7f56cabf9682ed8c977c2f7d0c5985c5
     Pseudo is Ultrasoft + core correction, Zval = 12.0
     Generated using &quot;atomic&quot; code by A. Dal Corso  v.6.2.2
     Using radial grid of 1201 points,  6 beta functions with:
                l(1) =   0
                l(2) =   0
                l(3) =   1
                l(4) =   1
                l(5) =   2
                l(6) =   2
     Q(r) pseudized with 0 coefficients

     PseudoPot. # 2 for O  read from file:
     /home/jvc/QEspresso7.2/ZnO_database/pseudos/O.upf
     MD5 check sum: 91400c9766925bcf19f520983a725ff0
     Pseudo is Ultrasoft + core correction, Zval =  6.0
     Generated using &quot;atomic&quot; code by A. Dal Corso  v.6.3MaX
     Using radial grid of 1095 points,  4 beta functions with:
                l(1) =   0
                l(2) =   0
                l(3) =   1
                l(4) =   1
     Q(r) pseudized with 0 coefficients

     atomic species   valence    mass     pseudopotential
        Zn            12.00    65.38000     Zn( 1.00)
        O              6.00    15.99900     O ( 1.00)

      2 Sym. Ops. (no inversion) found

                                    s                        frac. trans.

      isym =  1     identity

 cryst.   s( 1) = (     1          0          0      )
                  (     0          1          0      )
                  (     0          0          1      )

 cart.    s( 1) = (  1.0000000  0.0000000  0.0000000 )
                  (  0.0000000  1.0000000  0.0000000 )
                  (  0.0000000  0.0000000  1.0000000 )

      isym =  2     inv. 180 deg rotation - cart. axis [1,0,0]

 cryst.   s( 2) = (    -1          0          0      )
                  (     2          1          0      )
                  (     0          0          1      )

 cart.    s( 2) = ( -1.0000000  0.0000000  0.0000000 )
                  (  0.0000000  1.0000000  0.0000000 )
                  (  0.0000000  0.0000000  1.0000000 )

   Cartesian axes

     site n.     atom                  positions (alat units)
         1           Zn  tau(   1) = (   0.5000000   0.2886751   0.8890222  )
         2           Zn  tau(   2) = (  -0.0000000   0.5773503   0.0011251  )
         3           O   tau(   3) = (   0.5000000   0.2886751   1.5621243  )
         4           O   tau(   4) = (  -0.0000000   0.5773503   0.6742272  )
         5           Zn  tau(   5) = (   0.0000000   1.1547005   0.8890222  )
         6           Zn  tau(   6) = (  -0.5000000   1.4433757   0.0011251  )
         7           O   tau(   7) = (   0.0000000   1.1547005   1.5621243  )
         8           O   tau(   8) = (  -0.5000000   1.4433757   0.6742272  )

   Crystallographic axes

     site n.     atom                  positions (cryst. coord.)
         1           Zn  tau(   1) = (  0.6666667  0.1666667  0.5006336  )
         2           Zn  tau(   2) = (  0.3333333  0.3333333  0.0006336  )
         3           O   tau(   3) = (  0.6666667  0.1666667  0.8796764  )
         4           O   tau(   4) = (  0.3333333  0.3333333  0.3796764  )
         5           Zn  tau(   5) = (  0.6666667  0.6666667  0.5006336  )
         6           Zn  tau(   6) = (  0.3333333  0.8333333  0.0006336  )
         7           O   tau(   7) = (  0.6666667  0.6666667  0.8796764  )
         8           O   tau(   8) = (  0.3333333  0.8333333  0.3796764  )

     number of k points=    80
                       cart. coord. in units 2pi/alat
        k(    1) = (   0.0000000   0.0000000   0.0000000), wk =   0.0092593
        k(    2) = (   0.0000000   0.0000000   0.0938547), wk =   0.0185185
        k(    3) = (   0.0000000   0.0000000   0.1877094), wk =   0.0185185
        k(    4) = (   0.0000000   0.0000000  -0.2815642), wk =   0.0092593
        k(    5) = (   0.0000000   0.0962250   0.0000000), wk =   0.0185185
        k(    6) = (   0.0000000   0.0962250   0.0938547), wk =   0.0185185
        k(    7) = (   0.0000000   0.0962250   0.1877094), wk =   0.0185185
        k(    8) = (   0.0000000   0.0962250  -0.2815642), wk =   0.0185185
        k(    9) = (   0.0000000   0.1924501   0.0000000), wk =   0.0185185
        k(   10) = (   0.0000000   0.1924501   0.0938547), wk =   0.0185185
        k(   11) = (   0.0000000   0.1924501   0.1877094), wk =   0.0185185
        k(   12) = (   0.0000000   0.1924501  -0.2815642), wk =   0.0185185
        k(   13) = (   0.0000000  -0.2886751   0.0000000), wk =   0.0092593
        k(   14) = (   0.0000000  -0.2886751   0.0938547), wk =   0.0185185
        k(   15) = (   0.0000000  -0.2886751   0.1877094), wk =   0.0185185
        k(   16) = (   0.0000000  -0.2886751  -0.2815642), wk =   0.0092593
        k(   17) = (   0.1666667   0.0962250   0.0000000), wk =   0.0370370
        k(   18) = (   0.1666667   0.0962250   0.0938547), wk =   0.0370370
        k(   19) = (   0.1666667   0.0962250   0.1877094), wk =   0.0370370
        k(   20) = (   0.1666667   0.0962250  -0.2815642), wk =   0.0370370
        k(   21) = (   0.1666667   0.1924501   0.0000000), wk =   0.0370370
        k(   22) = (   0.1666667   0.1924501   0.0938547), wk =   0.0370370
        k(   23) = (   0.1666667   0.1924501   0.1877094), wk =   0.0370370
        k(   24) = (   0.1666667   0.1924501  -0.2815642), wk =   0.0370370
        k(   25) = (   0.1666667   0.2886751   0.0000000), wk =   0.0185185
        k(   26) = (   0.1666667   0.2886751   0.0938547), wk =   0.0370370
        k(   27) = (   0.1666667   0.2886751   0.1877094), wk =   0.0370370
        k(   28) = (   0.1666667   0.2886751  -0.2815642), wk =   0.0185185
        k(   29) = (   0.1666667   0.0000000   0.0000000), wk =   0.0185185
        k(   30) = (   0.1666667   0.0000000   0.0938547), wk =   0.0370370
        k(   31) = (   0.1666667   0.0000000   0.1877094), wk =   0.0370370
        k(   32) = (   0.1666667   0.0000000  -0.2815642), wk =   0.0185185
        k(   33) = (   0.3333333   0.1924501   0.0000000), wk =   0.0370370
        k(   34) = (   0.3333333   0.1924501   0.0938547), wk =   0.0370370
        k(   35) = (   0.3333333   0.1924501   0.1877094), wk =   0.0370370
        k(   36) = (   0.3333333   0.1924501  -0.2815642), wk =   0.0370370
        k(   37) = (   0.3333333   0.2886751   0.0000000), wk =   0.0185185
        k(   38) = (   0.3333333   0.2886751   0.0938547), wk =   0.0370370
        k(   39) = (   0.3333333   0.2886751   0.1877094), wk =   0.0370370
        k(   40) = (   0.3333333   0.2886751  -0.2815642), wk =   0.0185185
        k(   41) = (   0.3333333  -0.0962250   0.0000000), wk =   0.0370370
        k(   42) = (   0.3333333  -0.0962250   0.0938547), wk =   0.0370370
        k(   43) = (   0.3333333  -0.0962250   0.1877094), wk =   0.0370370
        k(   44) = (   0.3333333  -0.0962250  -0.2815642), wk =   0.0370370
        k(   45) = (   0.3333333  -0.0000000   0.0000000), wk =   0.0185185
        k(   46) = (   0.3333333  -0.0000000   0.0938547), wk =   0.0370370
        k(   47) = (   0.3333333  -0.0000000   0.1877094), wk =   0.0370370
        k(   48) = (   0.3333333  -0.0000000  -0.2815642), wk =   0.0185185
        k(   49) = (  -0.5000000  -0.2886751   0.0000000), wk =   0.0092593
        k(   50) = (  -0.5000000  -0.2886751   0.0938547), wk =   0.0185185
        k(   51) = (  -0.5000000  -0.2886751   0.1877094), wk =   0.0185185
        k(   52) = (  -0.5000000  -0.2886751  -0.2815642), wk =   0.0092593
        k(   53) = (  -0.5000000  -0.1924501   0.0000000), wk =   0.0185185
        k(   54) = (  -0.5000000  -0.1924501   0.0938547), wk =   0.0185185
        k(   55) = (  -0.5000000  -0.1924501   0.1877094), wk =   0.0185185
        k(   56) = (  -0.5000000  -0.1924501  -0.2815642), wk =   0.0185185
        k(   57) = (  -0.5000000  -0.0962250   0.0000000), wk =   0.0185185
        k(   58) = (  -0.5000000  -0.0962250   0.0938547), wk =   0.0185185
        k(   59) = (  -0.5000000  -0.0962250   0.1877094), wk =   0.0185185
        k(   60) = (  -0.5000000  -0.0962250  -0.2815642), wk =   0.0185185
[...]
        k(   66) = (   0.0000000   0.0962250  -0.1877094), wk =   0.0185185
        k(   67) = (   0.0000000   0.1924501  -0.0938547), wk =   0.0185185
        k(   68) = (   0.0000000   0.1924501  -0.1877094), wk =   0.0185185
        k(   69) = (  -0.1666667   0.0962250  -0.0938547), wk =   0.0370370
        k(   70) = (  -0.1666667   0.0962250  -0.1877094), wk =   0.0370370
        k(   71) = (  -0.1666667   0.1924501  -0.0938547), wk =   0.0370370
        k(   72) = (  -0.1666667   0.1924501  -0.1877094), wk =   0.0370370
        k(   73) = (  -0.3333333   0.1924501  -0.0938547), wk =   0.0370370
        k(   74) = (  -0.3333333   0.1924501  -0.1877094), wk =   0.0370370
        k(   75) = (  -0.3333333  -0.0962250  -0.0938547), wk =   0.0370370
        k(   76) = (  -0.3333333  -0.0962250  -0.1877094), wk =   0.0370370
        k(   77) = (   0.5000000  -0.1924501  -0.0938547), wk =   0.0185185
        k(   78) = (   0.5000000  -0.1924501  -0.1877094), wk =   0.0185185
        k(   79) = (   0.5000000  -0.0962250  -0.0938547), wk =   0.0185185
        k(   80) = (   0.5000000  -0.0962250  -0.1877094), wk =   0.0185185

                       cryst. coord.
        k(    1) = (   0.0000000   0.0000000   0.0000000), wk =   0.0092593
        k(    2) = (   0.0000000   0.0000000   0.1666667), wk =   0.0185185
        k(    3) = (   0.0000000   0.0000000   0.3333333), wk =   0.0185185
        k(    4) = (   0.0000000   0.0000000  -0.5000000), wk =   0.0092593
        k(    5) = (   0.0000000   0.1666667   0.0000000), wk =   0.0185185
        k(    6) = (   0.0000000   0.1666667   0.1666667), wk =   0.0185185
        k(    7) = (   0.0000000   0.1666667   0.3333333), wk =   0.0185185
        k(    8) = (   0.0000000   0.1666667  -0.5000000), wk =   0.0185185
        k(    9) = (   0.0000000   0.3333333   0.0000000), wk =   0.0185185
        k(   10) = (   0.0000000   0.3333333   0.1666667), wk =   0.0185185
        k(   11) = (   0.0000000   0.3333333   0.3333333), wk =   0.0185185
        k(   12) = (   0.0000000   0.3333333  -0.5000000), wk =   0.0185185
        k(   13) = (   0.0000000  -0.5000000   0.0000000), wk =   0.0092593
        k(   14) = (   0.0000000  -0.5000000   0.1666667), wk =   0.0185185
        k(   15) = (   0.0000000  -0.5000000   0.3333333), wk =   0.0185185
        k(   16) = (   0.0000000  -0.5000000  -0.5000000), wk =   0.0092593
        k(   17) = (   0.1666667   0.0000000   0.0000000), wk =   0.0370370
        k(   18) = (   0.1666667   0.0000000   0.1666667), wk =   0.0370370
        k(   19) = (   0.1666667   0.0000000   0.3333333), wk =   0.0370370
        k(   20) = (   0.1666667   0.0000000  -0.5000000), wk =   0.0370370
        k(   21) = (   0.1666667   0.1666667   0.0000000), wk =   0.0370370
        k(   22) = (   0.1666667   0.1666667   0.1666667), wk =   0.0370370
        k(   23) = (   0.1666667   0.1666667   0.3333333), wk =   0.0370370
        k(   24) = (   0.1666667   0.1666667  -0.5000000), wk =   0.0370370
        k(   25) = (   0.1666667   0.3333333   0.0000000), wk =   0.0185185
        k(   26) = (   0.1666667   0.3333333   0.1666667), wk =   0.0370370
        k(   27) = (   0.1666667   0.3333333   0.3333333), wk =   0.0370370
        k(   28) = (   0.1666667   0.3333333  -0.5000000), wk =   0.0185185
        k(   29) = (   0.1666667  -0.1666667   0.0000000), wk =   0.0185185
        k(   30) = (   0.1666667  -0.1666667   0.1666667), wk =   0.0370370
        k(   31) = (   0.1666667  -0.1666667   0.3333333), wk =   0.0370370
        k(   32) = (   0.1666667  -0.1666667  -0.5000000), wk =   0.0185185
        k(   33) = (   0.3333333   0.0000000   0.0000000), wk =   0.0370370
        k(   34) = (   0.3333333   0.0000000   0.1666667), wk =   0.0370370
        k(   35) = (   0.3333333   0.0000000   0.3333333), wk =   0.0370370
        k(   36) = (   0.3333333   0.0000000  -0.5000000), wk =   0.0370370
        k(   37) = (   0.3333333   0.1666667   0.0000000), wk =   0.0185185
        k(   38) = (   0.3333333   0.1666667   0.1666667), wk =   0.0370370
        k(   39) = (   0.3333333   0.1666667   0.3333333), wk =   0.0370370
        k(   40) = (   0.3333333   0.1666667  -0.5000000), wk =   0.0185185
        k(   41) = (   0.3333333  -0.5000000   0.0000000), wk =   0.0370370
        k(   42) = (   0.3333333  -0.5000000   0.1666667), wk =   0.0370370
        k(   43) = (   0.3333333  -0.5000000   0.3333333), wk =   0.0370370
        k(   44) = (   0.3333333  -0.5000000  -0.5000000), wk =   0.0370370
        k(   45) = (   0.3333333  -0.3333333   0.0000000), wk =   0.0185185
        k(   46) = (   0.3333333  -0.3333333   0.1666667), wk =   0.0370370
        k(   47) = (   0.3333333  -0.3333333   0.3333333), wk =   0.0370370
        k(   48) = (   0.3333333  -0.3333333  -0.5000000), wk =   0.0185185
        k(   49) = (  -0.5000000   0.0000000   0.0000000), wk =   0.0092593
        k(   50) = (  -0.5000000   0.0000000   0.1666667), wk =   0.0185185
        k(   51) = (  -0.5000000   0.0000000   0.3333333), wk =   0.0185185
        k(   52) = (  -0.5000000   0.0000000  -0.5000000), wk =   0.0092593
        k(   53) = (  -0.5000000   0.1666667   0.0000000), wk =   0.0185185
        k(   54) = (  -0.5000000   0.1666667   0.1666667), wk =   0.0185185
        k(   55) = (  -0.5000000   0.1666667   0.3333333), wk =   0.0185185
        k(   56) = (  -0.5000000   0.1666667  -0.5000000), wk =   0.0185185
        k(   57) = (  -0.5000000   0.3333333   0.0000000), wk =   0.0185185
        k(   58) = (  -0.5000000   0.3333333   0.1666667), wk =   0.0185185
        k(   59) = (  -0.5000000   0.3333333   0.3333333), wk =   0.0185185
        k(   60) = (  -0.5000000   0.3333333  -0.5000000), wk =   0.0185185
[...]
        k(   66) = (   0.0000000   0.1666667  -0.3333333), wk =   0.0185185
        k(   67) = (   0.0000000   0.3333333  -0.1666667), wk =   0.0185185
        k(   68) = (   0.0000000   0.3333333  -0.3333333), wk =   0.0185185
        k(   69) = (  -0.1666667   0.3333333  -0.1666667), wk =   0.0370370
        k(   70) = (  -0.1666667   0.3333333  -0.3333333), wk =   0.0370370
        k(   71) = (  -0.1666667   0.5000000  -0.1666667), wk =   0.0370370
        k(   72) = (  -0.1666667   0.5000000  -0.3333333), wk =   0.0370370
        k(   73) = (  -0.3333333   0.6666667  -0.1666667), wk =   0.0370370
        k(   74) = (  -0.3333333   0.6666667  -0.3333333), wk =   0.0370370
        k(   75) = (  -0.3333333   0.1666667  -0.1666667), wk =   0.0370370
        k(   76) = (  -0.3333333   0.1666667  -0.3333333), wk =   0.0370370
        k(   77) = (   0.5000000  -0.8333333  -0.1666667), wk =   0.0185185
        k(   78) = (   0.5000000  -0.8333333  -0.3333333), wk =   0.0185185
        k(   79) = (   0.5000000  -0.6666667  -0.1666667), wk =   0.0185185
        k(   80) = (   0.5000000  -0.6666667  -0.3333333), wk =   0.0185185

     Check: negative core charge=   -0.000002

     Initial potential from superposition of free atoms

     starting charge      71.9851, renormalised to      72.0000
     Starting wfcs are   52 randomized atomic wfcs

     Self-consistent Calculation

     iteration #  1     ecut=    50.00 Ry     beta= 0.30
     Davidson diagonalization with overlap

     ethr =  1.00E-02,  avg # of iterations =  1.9

     total energy              =    -722.92050823 Ry
     estimated scf accuracy    <       1.42853299 Ry

[...]

     c_bands:  1 eigenvalues not converged
     ethr =  4.91E-05,  avg # of iterations =  8.0

[...]

     c_bands:  1 eigenvalues not converged
     c_bands:  1 eigenvalues not converged
     c_bands:  1 eigenvalues not converged
     c_bands:  3 eigenvalues not converged
     c_bands:  2 eigenvalues not converged
     c_bands:  1 eigenvalues not converged
     c_bands:  2 eigenvalues not converged
     c_bands:  2 eigenvalues not converged
     c_bands:  2 eigenvalues not converged
     c_bands:  2 eigenvalues not converged
     ethr =  5.08E-08,  avg # of iterations = 16.8

[...]

     total energy              =    -723.24842470 Ry
     estimated scf accuracy    <       0.00000023 Ry

     iteration # 33     ecut=    50.00 Ry     beta= 0.30
     Davidson diagonalization with overlap

     ethr =  3.21E-10,  avg # of iterations =  4.0

     End of self-consistent calculation

          k = 0.0000 0.0000 0.0000 (  4071 PWs)   bands (ev):

   -11.2679 -10.7703 -10.6183 -10.4697   0.7312   0.8640   0.8912   0.8915
     0.9635   0.9740   1.0205   1.0207   1.1708   1.5443   1.5593   1.7457
     1.9881   1.9882   2.0261   2.1150   2.1151   2.1386   2.1776   2.2571
     2.5005   2.5921   2.8876   3.8281   4.6383   5.1405   5.6057   5.9642
     5.9647   6.1333   6.4896   6.4901

     occupation numbers
     1.0000   1.0000   1.0000   1.0000   1.0000   1.0000   1.0000   1.0000
     1.0000   1.0000   1.0000   1.0000   1.0000   1.0000   1.0000   1.0000
     1.0000   1.0000   1.0000   1.0000   1.0000   1.0000   1.0000   1.0000
     1.0000   1.0000   1.0000   1.0000   1.0000   1.0000   1.0000   1.0000
     1.0000   1.0000   1.0000   1.0000

[...]

          k =-0.5000-0.2887 0.0000 (  4084 PWs)   bands (ev):

[...]

          k =-0.3333-0.0962-0.1877 (  4085 PWs)   bands (ev):

[...]

          k = 0.5000-0.0962-0.1877 (  4076 PWs)   bands (ev):

   -10.5839 -10.5838 -10.5049 -10.5048   0.7934   0.7934   0.8850   0.8850
     1.2113   1.2113   1.3815   1.3815   1.4869   1.4869   1.5296   1.5296
     2.0148   2.0148   2.1005   2.1005   2.2098   2.2098   2.3074   2.3074
     2.8077   2.8077   3.0994   3.0994   4.2260   4.2260   4.5456   4.5456
     4.9367   4.9367   5.2510   5.2511

     occupation numbers
     1.0000   1.0000   1.0000   1.0000   1.0000   1.0000   1.0000   1.0000
     1.0000   1.0000   1.0000   1.0000   1.0000   1.0000   1.0000   1.0000
     1.0000   1.0000   1.0000   1.0000   1.0000   1.0000   1.0000   1.0000
     1.0000   1.0000   1.0000   1.0000   1.0000   1.0000   1.0000   1.0000
     1.0000   1.0000   1.0000   1.0000

     highest occupied level (ev):     6.4901

!    total energy              =    -723.24842447 Ry
     estimated scf accuracy    <          8.3E-09 Ry

     The total energy is the sum of the following terms:
     one-electron contribution =    -318.30730769 Ry
     hartree contribution      =     240.02238362 Ry
     xc contribution           =    -218.96719544 Ry
     ewald contribution        =    -425.99630496 Ry

     convergence has been achieved in  33 iterations

     Forces acting on atoms (cartesian axes, Ry/au):

     atom    1 type  1   force =     0.00000000   -0.00000157    0.01425501
     atom    2 type  1   force =     0.00000000    0.00001153    0.01426944
     atom    3 type  2   force =     0.00000000    0.00000557   -0.01426297
     atom    4 type  2   force =     0.00000000   -0.00000741   -0.01426308
     atom    5 type  1   force =     0.00000000   -0.00000647    0.01427588
     atom    6 type  1   force =     0.00000000   -0.00000060    0.01424873
     atom    7 type  2   force =     0.00000000    0.00000578   -0.01425851
     atom    8 type  2   force =     0.00000000   -0.00000682   -0.01426450
     The non-local contrib.  to forces
     atom    1 type  1   force =     0.00000000    0.00001744    0.25209076
     atom    2 type  1   force =     0.00000000   -0.00001363    0.25209334
     atom    3 type  2   force =     0.00000000    0.00021957    0.24555379
     atom    4 type  2   force =     0.00000000   -0.00022211    0.24555860
     atom    5 type  1   force =     0.00000000    0.00001601    0.25209958
     atom    6 type  1   force =     0.00000000   -0.00001788    0.25208766
     atom    7 type  2   force =     0.00000000    0.00022469    0.24556256
     atom    8 type  2   force =     0.00000000   -0.00021965    0.24555325
     The ionic contribution  to forces
     atom    1 type  1   force =    -0.00000000   -0.00000002    1.99206071
     atom    2 type  1   force =     0.00000000   -0.00000002    1.99206072
     atom    3 type  2   force =    -0.00000000   -0.00000001   -1.99206071
     atom    4 type  2   force =     0.00000000   -0.00000001   -1.99206072
     atom    5 type  1   force =    -0.00000000    0.00000002    1.99206072
     atom    6 type  1   force =     0.00000000    0.00000002    1.99206071
     atom    7 type  2   force =    -0.00000000    0.00000001   -1.99206072
     atom    8 type  2   force =     0.00000000    0.00000001   -1.99206071
     The local contribution  to forces
     atom    1 type  1   force =     0.00000000   -0.00003648   -2.21241150
     atom    2 type  1   force =     0.00000008    0.00001718   -2.21242036
     atom    3 type  2   force =     0.00000000   -0.00020960    1.73426282
     atom    4 type  2   force =     0.00000002    0.00020931    1.73427326
     atom    5 type  1   force =    -0.00000008   -0.00002057   -2.21243477
     atom    6 type  1   force =     0.00000000    0.00003516   -2.21239746
     atom    7 type  2   force =    -0.00000002   -0.00021082    1.73426276
     atom    8 type  2   force =     0.00000000    0.00021076    1.73426112
     The core correction contribution to forces
     atom    1 type  1   force =     0.00000000    0.00001005   -0.01746176
     atom    2 type  1   force =     0.00000001   -0.00000944   -0.01746189
     atom    3 type  2   force =     0.00000000   -0.00000247   -0.00204123
     atom    4 type  2   force =    -0.00000000    0.00000250   -0.00204126
     atom    5 type  1   force =    -0.00000001    0.00000921   -0.01746163
     atom    6 type  1   force =     0.00000000   -0.00000995   -0.01746221
     atom    7 type  2   force =     0.00000000   -0.00000254   -0.00204135
     atom    8 type  2   force =    -0.00000000    0.00000247   -0.00204123
     The Hubbard contrib.    to forces
     atom    1 type  1   force =     0.00000000    0.00000000    0.00000000
     atom    2 type  1   force =     0.00000000    0.00000000    0.00000000
     atom    3 type  2   force =     0.00000000    0.00000000    0.00000000
     atom    4 type  2   force =     0.00000000    0.00000000    0.00000000
     atom    5 type  1   force =     0.00000000    0.00000000    0.00000000
     atom    6 type  1   force =     0.00000000    0.00000000    0.00000000
     atom    7 type  2   force =     0.00000000    0.00000000    0.00000000
     atom    8 type  2   force =     0.00000000    0.00000000    0.00000000
     The SCF correction term to forces
     atom    1 type  1   force =    -0.00000000    0.00000859   -0.00003419
     atom    2 type  1   force =     0.00000000    0.00001860   -0.00001335
     atom    3 type  2   force =    -0.00000000   -0.00000077    0.00001138
     atom    4 type  2   force =     0.00000000    0.00000405   -0.00000395
     atom    5 type  1   force =    -0.00000000   -0.00000998    0.00000101
     atom    6 type  1   force =     0.00000000   -0.00000679   -0.00005095
     atom    7 type  2   force =    -0.00000000   -0.00000440    0.00000726
     atom    8 type  2   force =     0.00000000    0.00000074    0.00001207

     Total force =     0.040340     Total SCF correction =     0.000070

     General routines

     Parallel routines

   This run was terminated on:  18:20: 4  26Aug2025

   JOB DONE.