     Program PWSCF v.7.0 starts on 26Aug2025 at 16: 2:38

     K-points division:     npool     =       4
     band groups division:  nbgrp     =       4

     Reading input from /home/jvc/QEspresso7.2/ZnO_database/scripts/cell121.in/ZnO-3.14-1.52-121.in
Warning: card &CELL ignored
Warning: card / ignored
Warning: card &FCP ignored
Warning: card / ignored
Warning: card &RISM ignored
Warning: card / ignored

     Current dimensions of program PWSCF are:
     Max number of different atomic species (ntypx) = 10
     Max number of k-points (npk) =  40000
     Max angular momentum in pseudopotentials (lmaxx) =  4
     file Zn.upf: wavefunction(s)  3D renormalized
     Found identity + (  0.0000 -0.5000  0.0000) symmetry
     This is a supercell, fractional translations are disabled
     Message from routine setup:
     using ibrav=0 with symmetry is DISCOURAGED, use correct ibrav instead

     Subspace diagonalization in iterative solution of the eigenvalue problem:
     a serial algorithm will be used

     Using Slab Decomposition

     bravais-lattice index     =            0
     lattice parameter (alat)  =       5.9317  a.u.
     unit-cell volume          =     548.5623 (a.u.)^3
     number of atoms/cell      =            8
     number of atomic types    =            2
     number of electrons       =        72.00
     number of Kohn-Sham states=           36
     kinetic-energy cutoff     =      50.0000  Ry
     charge density cutoff     =     400.0000  Ry
     scf convergence threshold =      1.0E-08
     mixing beta               =       0.3000
     number of iterations used =            8  plain     mixing
     Exchange-correlation= PBE
                           (   1   4   3   4   0   0   0)

     celldm(1)=   5.931700  celldm(2)=   0.000000  celldm(3)=   0.000000
     celldm(4)=   0.000000  celldm(5)=   0.000000  celldm(6)=   0.000000

     crystal axes: (cart. coord. in units of alat)
               a(1) = (   1.000000   0.000000   0.000000 )
               a(2) = (  -1.000000   1.732051   0.000000 )
               a(3) = (   0.000000   0.000000   1.517497 )

     reciprocal axes: (cart. coord. in units 2 pi/alat)
               b(1) = (  1.000000  0.577350 -0.000000 )
               b(2) = (  0.000000  0.577350  0.000000 )
               b(3) = (  0.000000 -0.000000  0.658980 )

     PseudoPot. # 1 for Zn read from file:
     /home/jvc/QEspresso7.2/ZnO_database/pseudos/Zn.upf
     MD5 check sum: 7f56cabf9682ed8c977c2f7d0c5985c5
     Pseudo is Ultrasoft + core correction, Zval = 12.0
     Generated using &quot;atomic&quot; code by A. Dal Corso  v.6.2.2
     Using radial grid of 1201 points,  6 beta functions with:
                l(1) =   0
                l(2) =   0
                l(3) =   1
                l(4) =   1
                l(5) =   2
                l(6) =   2
     Q(r) pseudized with 0 coefficients

     PseudoPot. # 2 for O  read from file:
     /home/jvc/QEspresso7.2/ZnO_database/pseudos/O.upf
     MD5 check sum: 91400c9766925bcf19f520983a725ff0
     Pseudo is Ultrasoft + core correction, Zval =  6.0
     Generated using &quot;atomic&quot; code by A. Dal Corso  v.6.3MaX
     Using radial grid of 1095 points,  4 beta functions with:
                l(1) =   0
                l(2) =   0
                l(3) =   1
                l(4) =   1
     Q(r) pseudized with 0 coefficients

     atomic species   valence    mass     pseudopotential
        Zn            12.00    65.38000     Zn( 1.00)
        O              6.00    15.99900     O ( 1.00)

      2 Sym. Ops. (no inversion) found

                                    s                        frac. trans.

      isym =  1     identity

 cryst.   s( 1) = (     1          0          0      )
                  (     0          1          0      )
                  (     0          0          1      )

 cart.    s( 1) = (  1.0000000  0.0000000  0.0000000 )
                  (  0.0000000  1.0000000  0.0000000 )
                  (  0.0000000  0.0000000  1.0000000 )

      isym =  2     inv. 180 deg rotation - cart. axis [1,0,0]

 cryst.   s( 2) = (    -1          0          0      )
                  (     2          1          0      )
                  (     0          0          1      )

 cart.    s( 2) = ( -1.0000000  0.0000000  0.0000000 )
                  (  0.0000000  1.0000000  0.0000000 )
                  (  0.0000000  0.0000000  1.0000000 )

   Cartesian axes

     site n.     atom                  positions (alat units)
         1           Zn  tau(   1) = (   0.5000000   0.2886751   0.7597099  )
         2           Zn  tau(   2) = (   0.0000000   0.5773503   0.0009615  )
         3           O   tau(   3) = (   0.5000000   0.2886751   1.3349062  )
         4           O   tau(   4) = (   0.0000000   0.5773503   0.5761578  )
         5           Zn  tau(   5) = (   0.0000000   1.1547005   0.7597099  )
         6           Zn  tau(   6) = (  -0.5000000   1.4433757   0.0009615  )
         7           O   tau(   7) = (   0.0000000   1.1547005   1.3349062  )
         8           O   tau(   8) = (  -0.5000000   1.4433757   0.5761578  )

   Crystallographic axes

     site n.     atom                  positions (cryst. coord.)
         1           Zn  tau(   1) = (  0.6666667  0.1666667  0.5006336  )
         2           Zn  tau(   2) = (  0.3333333  0.3333333  0.0006336  )
         3           O   tau(   3) = (  0.6666667  0.1666667  0.8796764  )
         4           O   tau(   4) = (  0.3333333  0.3333333  0.3796764  )
         5           Zn  tau(   5) = (  0.6666667  0.6666667  0.5006336  )
         6           Zn  tau(   6) = (  0.3333333  0.8333333  0.0006336  )
         7           O   tau(   7) = (  0.6666667  0.6666667  0.8796764  )
         8           O   tau(   8) = (  0.3333333  0.8333333  0.3796764  )

     number of k points=    80
                       cart. coord. in units 2pi/alat
        k(    1) = (   0.0000000   0.0000000   0.0000000), wk =   0.0092593
        k(    2) = (   0.0000000   0.0000000   0.1098300), wk =   0.0185185
        k(    3) = (   0.0000000   0.0000000   0.2196600), wk =   0.0185185
        k(    4) = (   0.0000000   0.0000000  -0.3294900), wk =   0.0092593
        k(    5) = (   0.0000000   0.0962250   0.0000000), wk =   0.0185185
        k(    6) = (   0.0000000   0.0962250   0.1098300), wk =   0.0185185
        k(    7) = (   0.0000000   0.0962250   0.2196600), wk =   0.0185185
        k(    8) = (   0.0000000   0.0962250  -0.3294900), wk =   0.0185185
        k(    9) = (   0.0000000   0.1924501   0.0000000), wk =   0.0185185
        k(   10) = (   0.0000000   0.1924501   0.1098300), wk =   0.0185185
        k(   11) = (   0.0000000   0.1924501   0.2196600), wk =   0.0185185
        k(   12) = (   0.0000000   0.1924501  -0.3294900), wk =   0.0185185
        k(   13) = (   0.0000000  -0.2886751   0.0000000), wk =   0.0092593
        k(   14) = (   0.0000000  -0.2886751   0.1098300), wk =   0.0185185
        k(   15) = (   0.0000000  -0.2886751   0.2196600), wk =   0.0185185
        k(   16) = (   0.0000000  -0.2886751  -0.3294900), wk =   0.0092593
        k(   17) = (   0.1666667   0.0962250   0.0000000), wk =   0.0370370
        k(   18) = (   0.1666667   0.0962250   0.1098300), wk =   0.0370370
        k(   19) = (   0.1666667   0.0962250   0.2196600), wk =   0.0370370
        k(   20) = (   0.1666667   0.0962250  -0.3294900), wk =   0.0370370
        k(   21) = (   0.1666667   0.1924501   0.0000000), wk =   0.0370370
        k(   22) = (   0.1666667   0.1924501   0.1098300), wk =   0.0370370
        k(   23) = (   0.1666667   0.1924501   0.2196600), wk =   0.0370370
        k(   24) = (   0.1666667   0.1924501  -0.3294900), wk =   0.0370370
        k(   25) = (   0.1666667   0.2886751   0.0000000), wk =   0.0185185
        k(   26) = (   0.1666667   0.2886751   0.1098300), wk =   0.0370370
        k(   27) = (   0.1666667   0.2886751   0.2196600), wk =   0.0370370
        k(   28) = (   0.1666667   0.2886751  -0.3294900), wk =   0.0185185
        k(   29) = (   0.1666667   0.0000000   0.0000000), wk =   0.0185185
        k(   30) = (   0.1666667   0.0000000   0.1098300), wk =   0.0370370
        k(   31) = (   0.1666667   0.0000000   0.2196600), wk =   0.0370370
        k(   32) = (   0.1666667   0.0000000  -0.3294900), wk =   0.0185185
        k(   33) = (   0.3333333   0.1924501   0.0000000), wk =   0.0370370
        k(   34) = (   0.3333333   0.1924501   0.1098300), wk =   0.0370370
        k(   35) = (   0.3333333   0.1924501   0.2196600), wk =   0.0370370
        k(   36) = (   0.3333333   0.1924501  -0.3294900), wk =   0.0370370
        k(   37) = (   0.3333333   0.2886751   0.0000000), wk =   0.0185185
        k(   38) = (   0.3333333   0.2886751   0.1098300), wk =   0.0370370
        k(   39) = (   0.3333333   0.2886751   0.2196600), wk =   0.0370370
        k(   40) = (   0.3333333   0.2886751  -0.3294900), wk =   0.0185185
        k(   41) = (   0.3333333  -0.0962250   0.0000000), wk =   0.0370370
        k(   42) = (   0.3333333  -0.0962250   0.1098300), wk =   0.0370370
        k(   43) = (   0.3333333  -0.0962250   0.2196600), wk =   0.0370370
        k(   44) = (   0.3333333  -0.0962250  -0.3294900), wk =   0.0370370
        k(   45) = (   0.3333333  -0.0000000   0.0000000), wk =   0.0185185
        k(   46) = (   0.3333333  -0.0000000   0.1098300), wk =   0.0370370
        k(   47) = (   0.3333333  -0.0000000   0.2196600), wk =   0.0370370
        k(   48) = (   0.3333333  -0.0000000  -0.3294900), wk =   0.0185185
        k(   49) = (  -0.5000000  -0.2886751   0.0000000), wk =   0.0092593
        k(   50) = (  -0.5000000  -0.2886751   0.1098300), wk =   0.0185185
        k(   51) = (  -0.5000000  -0.2886751   0.2196600), wk =   0.0185185
        k(   52) = (  -0.5000000  -0.2886751  -0.3294900), wk =   0.0092593
        k(   53) = (  -0.5000000  -0.1924501   0.0000000), wk =   0.0185185
        k(   54) = (  -0.5000000  -0.1924501   0.1098300), wk =   0.0185185
        k(   55) = (  -0.5000000  -0.1924501   0.2196600), wk =   0.0185185
        k(   56) = (  -0.5000000  -0.1924501  -0.3294900), wk =   0.0185185
        k(   57) = (  -0.5000000  -0.0962250   0.0000000), wk =   0.0185185
        k(   58) = (  -0.5000000  -0.0962250   0.1098300), wk =   0.0185185
        k(   59) = (  -0.5000000  -0.0962250   0.2196600), wk =   0.0185185
        k(   60) = (  -0.5000000  -0.0962250  -0.3294900), wk =   0.0185185
[...]
        k(   66) = (   0.0000000   0.0962250  -0.2196600), wk =   0.0185185
        k(   67) = (   0.0000000   0.1924501  -0.1098300), wk =   0.0185185
        k(   68) = (   0.0000000   0.1924501  -0.2196600), wk =   0.0185185
        k(   69) = (  -0.1666667   0.0962250  -0.1098300), wk =   0.0370370
        k(   70) = (  -0.1666667   0.0962250  -0.2196600), wk =   0.0370370
        k(   71) = (  -0.1666667   0.1924501  -0.1098300), wk =   0.0370370
        k(   72) = (  -0.1666667   0.1924501  -0.2196600), wk =   0.0370370
        k(   73) = (  -0.3333333   0.1924501  -0.1098300), wk =   0.0370370
        k(   74) = (  -0.3333333   0.1924501  -0.2196600), wk =   0.0370370
        k(   75) = (  -0.3333333  -0.0962250  -0.1098300), wk =   0.0370370
        k(   76) = (  -0.3333333  -0.0962250  -0.2196600), wk =   0.0370370
        k(   77) = (   0.5000000  -0.1924501  -0.1098300), wk =   0.0185185
        k(   78) = (   0.5000000  -0.1924501  -0.2196600), wk =   0.0185185
        k(   79) = (   0.5000000  -0.0962250  -0.1098300), wk =   0.0185185
        k(   80) = (   0.5000000  -0.0962250  -0.2196600), wk =   0.0185185

                       cryst. coord.
        k(    1) = (   0.0000000   0.0000000   0.0000000), wk =   0.0092593
        k(    2) = (   0.0000000   0.0000000   0.1666667), wk =   0.0185185
        k(    3) = (   0.0000000   0.0000000   0.3333333), wk =   0.0185185
        k(    4) = (   0.0000000   0.0000000  -0.5000000), wk =   0.0092593
        k(    5) = (   0.0000000   0.1666667   0.0000000), wk =   0.0185185
        k(    6) = (   0.0000000   0.1666667   0.1666667), wk =   0.0185185
        k(    7) = (   0.0000000   0.1666667   0.3333333), wk =   0.0185185
        k(    8) = (   0.0000000   0.1666667  -0.5000000), wk =   0.0185185
        k(    9) = (   0.0000000   0.3333333   0.0000000), wk =   0.0185185
        k(   10) = (   0.0000000   0.3333333   0.1666667), wk =   0.0185185
        k(   11) = (   0.0000000   0.3333333   0.3333333), wk =   0.0185185
        k(   12) = (   0.0000000   0.3333333  -0.5000000), wk =   0.0185185
        k(   13) = (   0.0000000  -0.5000000   0.0000000), wk =   0.0092593
        k(   14) = (   0.0000000  -0.5000000   0.1666667), wk =   0.0185185
        k(   15) = (   0.0000000  -0.5000000   0.3333333), wk =   0.0185185
        k(   16) = (   0.0000000  -0.5000000  -0.5000000), wk =   0.0092593
        k(   17) = (   0.1666667  -0.0000000   0.0000000), wk =   0.0370370
        k(   18) = (   0.1666667  -0.0000000   0.1666667), wk =   0.0370370
        k(   19) = (   0.1666667  -0.0000000   0.3333333), wk =   0.0370370
        k(   20) = (   0.1666667  -0.0000000  -0.5000000), wk =   0.0370370
        k(   21) = (   0.1666667   0.1666667   0.0000000), wk =   0.0370370
        k(   22) = (   0.1666667   0.1666667   0.1666667), wk =   0.0370370
        k(   23) = (   0.1666667   0.1666667   0.3333333), wk =   0.0370370
        k(   24) = (   0.1666667   0.1666667  -0.5000000), wk =   0.0370370
        k(   25) = (   0.1666667   0.3333333   0.0000000), wk =   0.0185185
        k(   26) = (   0.1666667   0.3333333   0.1666667), wk =   0.0370370
        k(   27) = (   0.1666667   0.3333333   0.3333333), wk =   0.0370370
        k(   28) = (   0.1666667   0.3333333  -0.5000000), wk =   0.0185185
        k(   29) = (   0.1666667  -0.1666667   0.0000000), wk =   0.0185185
        k(   30) = (   0.1666667  -0.1666667   0.1666667), wk =   0.0370370
        k(   31) = (   0.1666667  -0.1666667   0.3333333), wk =   0.0370370
        k(   32) = (   0.1666667  -0.1666667  -0.5000000), wk =   0.0185185
        k(   33) = (   0.3333333  -0.0000000   0.0000000), wk =   0.0370370
        k(   34) = (   0.3333333  -0.0000000   0.1666667), wk =   0.0370370
        k(   35) = (   0.3333333  -0.0000000   0.3333333), wk =   0.0370370
        k(   36) = (   0.3333333  -0.0000000  -0.5000000), wk =   0.0370370
        k(   37) = (   0.3333333   0.1666667   0.0000000), wk =   0.0185185
        k(   38) = (   0.3333333   0.1666667   0.1666667), wk =   0.0370370
        k(   39) = (   0.3333333   0.1666667   0.3333333), wk =   0.0370370
        k(   40) = (   0.3333333   0.1666667  -0.5000000), wk =   0.0185185
        k(   41) = (   0.3333333  -0.5000000   0.0000000), wk =   0.0370370
        k(   42) = (   0.3333333  -0.5000000   0.1666667), wk =   0.0370370
        k(   43) = (   0.3333333  -0.5000000   0.3333333), wk =   0.0370370
        k(   44) = (   0.3333333  -0.5000000  -0.5000000), wk =   0.0370370
        k(   45) = (   0.3333333  -0.3333333   0.0000000), wk =   0.0185185
        k(   46) = (   0.3333333  -0.3333333   0.1666667), wk =   0.0370370
        k(   47) = (   0.3333333  -0.3333333   0.3333333), wk =   0.0370370
        k(   48) = (   0.3333333  -0.3333333  -0.5000000), wk =   0.0185185
        k(   49) = (  -0.5000000   0.0000000   0.0000000), wk =   0.0092593
        k(   50) = (  -0.5000000   0.0000000   0.1666667), wk =   0.0185185
        k(   51) = (  -0.5000000   0.0000000   0.3333333), wk =   0.0185185
        k(   52) = (  -0.5000000   0.0000000  -0.5000000), wk =   0.0092593
        k(   53) = (  -0.5000000   0.1666667   0.0000000), wk =   0.0185185
        k(   54) = (  -0.5000000   0.1666667   0.1666667), wk =   0.0185185
        k(   55) = (  -0.5000000   0.1666667   0.3333333), wk =   0.0185185
        k(   56) = (  -0.5000000   0.1666667  -0.5000000), wk =   0.0185185
        k(   57) = (  -0.5000000   0.3333333   0.0000000), wk =   0.0185185
        k(   58) = (  -0.5000000   0.3333333   0.1666667), wk =   0.0185185
        k(   59) = (  -0.5000000   0.3333333   0.3333333), wk =   0.0185185
        k(   60) = (  -0.5000000   0.3333333  -0.5000000), wk =   0.0185185
[...]
        k(   66) = (   0.0000000   0.1666667  -0.3333333), wk =   0.0185185
        k(   67) = (   0.0000000   0.3333333  -0.1666667), wk =   0.0185185
        k(   68) = (   0.0000000   0.3333333  -0.3333333), wk =   0.0185185
        k(   69) = (  -0.1666667   0.3333333  -0.1666667), wk =   0.0370370
        k(   70) = (  -0.1666667   0.3333333  -0.3333333), wk =   0.0370370
        k(   71) = (  -0.1666667   0.5000000  -0.1666667), wk =   0.0370370
        k(   72) = (  -0.1666667   0.5000000  -0.3333333), wk =   0.0370370
        k(   73) = (  -0.3333333   0.6666667  -0.1666667), wk =   0.0370370
        k(   74) = (  -0.3333333   0.6666667  -0.3333333), wk =   0.0370370
        k(   75) = (  -0.3333333   0.1666667  -0.1666667), wk =   0.0370370
        k(   76) = (  -0.3333333   0.1666667  -0.3333333), wk =   0.0370370
        k(   77) = (   0.5000000  -0.8333333  -0.1666667), wk =   0.0185185
        k(   78) = (   0.5000000  -0.8333333  -0.3333333), wk =   0.0185185
        k(   79) = (   0.5000000  -0.6666667  -0.1666667), wk =   0.0185185
        k(   80) = (   0.5000000  -0.6666667  -0.3333333), wk =   0.0185185

     Check: negative core charge=   -0.000002

     Initial potential from superposition of free atoms

     starting charge      71.9851, renormalised to      72.0000
     Starting wfcs are   52 randomized atomic wfcs

     Self-consistent Calculation

     iteration #  1     ecut=    50.00 Ry     beta= 0.30
     Davidson diagonalization with overlap

     ethr =  1.00E-02,  avg # of iterations =  2.0

     total energy              =    -722.84454225 Ry
     estimated scf accuracy    <       1.35529870 Ry

[...]

     total energy              =    -723.12492031 Ry
     estimated scf accuracy    <       0.00000008 Ry

     iteration # 21     ecut=    50.00 Ry     beta= 0.30
     Davidson diagonalization with overlap

     ethr =  1.06E-10,  avg # of iterations =  4.7

     End of self-consistent calculation

          k = 0.0000 0.0000 0.0000 (  3303 PWs)   bands (ev):

    -9.6516  -8.7475  -8.5362  -8.4023   2.8427   2.9742   3.0242   3.2884
     3.2886   3.3268   3.5686   3.5776   3.5777   3.7756   4.0846   4.3444
     4.9333   4.9333   4.9894   5.1991   5.2906   5.2906   5.3657   5.4335
     5.5972   5.8813   6.0065   6.6212   6.8180   8.4177   8.6581   8.6583
     8.8737   9.8272   9.8274   9.8324

     occupation numbers
     1.0000   1.0000   1.0000   1.0000   1.0000   1.0000   1.0000   1.0000
     1.0000   1.0000   1.0000   1.0000   1.0000   1.0000   1.0000   1.0000
     1.0000   1.0000   1.0000   1.0000   1.0000   1.0000   1.0000   1.0000
     1.0000   1.0000   1.0000   1.0000   1.0000   1.0000   1.0000   1.0000
     1.0000   1.0000   1.0000   1.0000

[...]

          k =-0.5000-0.2887 0.0000 (  3276 PWs)   bands (ev):

[...]

          k =-0.3333-0.0962-0.2197 (  3272 PWs)   bands (ev):

[...]

          k = 0.5000-0.0962-0.2197 (  3274 PWs)   bands (ev):

    -8.6509  -8.6509  -8.4668  -8.4667   2.6893   2.6893   2.7595   2.7595
     3.5194   3.5194   3.6336   3.6336   3.9564   3.9564   4.0515   4.0515
     5.0520   5.0520   5.1708   5.1708   5.3639   5.3639   5.5215   5.5215
     5.8755   5.8755   6.2940   6.2940   6.9255   6.9255   7.7745   7.7745
     8.0641   8.0641   8.7304   8.7304

     occupation numbers
     1.0000   1.0000   1.0000   1.0000   1.0000   1.0000   1.0000   1.0000
     1.0000   1.0000   1.0000   1.0000   1.0000   1.0000   1.0000   1.0000
     1.0000   1.0000   1.0000   1.0000   1.0000   1.0000   1.0000   1.0000
     1.0000   1.0000   1.0000   1.0000   1.0000   1.0000   1.0000   1.0000
     1.0000   1.0000   1.0000   1.0000

     highest occupied level (ev):     9.8324

!    total energy              =    -723.12492033 Ry
     estimated scf accuracy    <          4.7E-09 Ry

     The total energy is the sum of the following terms:
     one-electron contribution =    -266.91756284 Ry
     hartree contribution      =     222.15305528 Ry
     xc contribution           =    -219.94975965 Ry
     ewald contribution        =    -458.41065311 Ry

     convergence has been achieved in  21 iterations

     Forces acting on atoms (cartesian axes, Ry/au):

     atom    1 type  1   force =     0.00000000   -0.00001476   -0.05413315
     atom    2 type  1   force =     0.00000000    0.00001202   -0.05412538
     atom    3 type  2   force =     0.00000000    0.00000165    0.05412981
     atom    4 type  2   force =     0.00000000   -0.00000125    0.05412973
     atom    5 type  1   force =     0.00000000   -0.00001495   -0.05413995
     atom    6 type  1   force =     0.00000000    0.00001725   -0.05412105
     atom    7 type  2   force =     0.00000000    0.00000128    0.05413022
     atom    8 type  2   force =     0.00000000   -0.00000126    0.05412977
     The non-local contrib.  to forces
     atom    1 type  1   force =     0.00000000    0.00002392   -0.20209797
     atom    2 type  1   force =     0.00000000   -0.00002509   -0.20209373
     atom    3 type  2   force =     0.00000000    0.00017819   -0.12867278
     atom    4 type  2   force =     0.00000000   -0.00017825   -0.12867188
     atom    5 type  1   force =     0.00000000    0.00002412   -0.20210037
     atom    6 type  1   force =     0.00000000   -0.00002263   -0.20209241
     atom    7 type  2   force =     0.00000000    0.00017663   -0.12867333
     atom    8 type  2   force =     0.00000000   -0.00018079   -0.12867218
     The ionic contribution  to forces
     atom    1 type  1   force =    -0.00000000    0.00000000   -1.36942183
     atom    2 type  1   force =     0.00000000   -0.00000000   -1.36942183
     atom    3 type  2   force =    -0.00000000    0.00000000    1.36942183
     atom    4 type  2   force =     0.00000000   -0.00000000    1.36942183
     atom    5 type  1   force =    -0.00000000    0.00000000   -1.36942183
     atom    6 type  1   force =     0.00000000   -0.00000000   -1.36942183
     atom    7 type  2   force =    -0.00000000    0.00000000    1.36942183
     atom    8 type  2   force =     0.00000000   -0.00000000    1.36942183
     The local contribution  to forces
     atom    1 type  1   force =    -0.00000008   -0.00003984    1.49929994
     atom    2 type  1   force =     0.00000000    0.00004638    1.49929051
     atom    3 type  2   force =    -0.00000002   -0.00017434   -1.18739775
     atom    4 type  2   force =    -0.00000000    0.00017217   -1.18738875
     atom    5 type  1   force =    -0.00000008   -0.00004224    1.49931022
     atom    6 type  1   force =    -0.00000000    0.00003521    1.49928315
     atom    7 type  2   force =    -0.00000002   -0.00017177   -1.18739747
     atom    8 type  2   force =    -0.00000000    0.00018058   -1.18738626
     The core correction contribution to forces
     atom    1 type  1   force =    -0.00000003    0.00000313    0.01808644
     atom    2 type  1   force =    -0.00000005   -0.00000369    0.01808638
     atom    3 type  2   force =    -0.00000000   -0.00000208    0.00077980
     atom    4 type  2   force =     0.00000002    0.00000201    0.00077980
     atom    5 type  1   force =     0.00000004    0.00000360    0.01808620
     atom    6 type  1   force =     0.00000002   -0.00000304    0.01808656
     atom    7 type  2   force =    -0.00000002   -0.00000198    0.00077980
     atom    8 type  2   force =     0.00000000    0.00000213    0.00077982
     The Hubbard contrib.    to forces
     atom    1 type  1   force =     0.00000000    0.00000000    0.00000000
     atom    2 type  1   force =     0.00000000    0.00000000    0.00000000
     atom    3 type  2   force =     0.00000000    0.00000000    0.00000000
     atom    4 type  2   force =     0.00000000    0.00000000    0.00000000
     atom    5 type  1   force =     0.00000000    0.00000000    0.00000000
     atom    6 type  1   force =     0.00000000    0.00000000    0.00000000
     atom    7 type  2   force =     0.00000000    0.00000000    0.00000000
     atom    8 type  2   force =     0.00000000    0.00000000    0.00000000
     The SCF correction term to forces
     atom    1 type  1   force =    -0.00000000   -0.00000235   -0.00000033
     atom    2 type  1   force =     0.00000000   -0.00000595    0.00001268
     atom    3 type  2   force =     0.00000000   -0.00000051   -0.00000191
     atom    4 type  2   force =    -0.00000000    0.00000244   -0.00001188
     atom    5 type  1   force =    -0.00000000   -0.00000080   -0.00001476
     atom    6 type  1   force =     0.00000000    0.00000734    0.00002288
     atom    7 type  2   force =     0.00000000   -0.00000197   -0.00000121
     atom    8 type  2   force =    -0.00000000   -0.00000355   -0.00001406

     Total force =     0.153102     Total SCF correction =     0.000037

     General routines

     Parallel routines

   This run was terminated on:  16: 8: 3  26Aug2025

   JOB DONE.