     Program PWSCF v.7.0 starts on 27Aug2025 at  2: 4:31

     K-points division:     npool     =       4
     band groups division:  nbgrp     =       4

     Reading input from /home/jvc/QEspresso7.2/ZnO_database/scripts/cell121.in/ZnO-3.60-1.68-121.in
Warning: card &CELL ignored
Warning: card / ignored
Warning: card &FCP ignored
Warning: card / ignored
Warning: card &RISM ignored
Warning: card / ignored

     Current dimensions of program PWSCF are:
     Max number of different atomic species (ntypx) = 10
     Max number of k-points (npk) =  40000
     Max angular momentum in pseudopotentials (lmaxx) =  4
     file Zn.upf: wavefunction(s)  3D renormalized
     Found identity + ( -0.0000 -0.5000  0.0000) symmetry
     This is a supercell, fractional translations are disabled
     Message from routine setup:
     using ibrav=0 with symmetry is DISCOURAGED, use correct ibrav instead

     Subspace diagonalization in iterative solution of the eigenvalue problem:
     a serial algorithm will be used

     Using Slab Decomposition

     bravais-lattice index     =            0
     lattice parameter (alat)  =       6.7967  a.u.
     unit-cell volume          =     913.0525 (a.u.)^3
     number of atoms/cell      =            8
     number of atomic types    =            2
     number of electrons       =        72.00
     number of Kohn-Sham states=           36
     kinetic-energy cutoff     =      50.0000  Ry
     charge density cutoff     =     400.0000  Ry
     scf convergence threshold =      1.0E-08
     mixing beta               =       0.3000
     number of iterations used =            8  plain     mixing
     Exchange-correlation= PBE
                           (   1   4   3   4   0   0   0)

     celldm(1)=   6.796739  celldm(2)=   0.000000  celldm(3)=   0.000000
     celldm(4)=   0.000000  celldm(5)=   0.000000  celldm(6)=   0.000000

     crystal axes: (cart. coord. in units of alat)
               a(1) = (   1.000000   0.000000   0.000000 )
               a(2) = (  -1.000000   1.732051   0.000000 )
               a(3) = (   0.000000   0.000000   1.678933 )

     reciprocal axes: (cart. coord. in units 2 pi/alat)
               b(1) = (  1.000000  0.577350 -0.000000 )
               b(2) = (  0.000000  0.577350  0.000000 )
               b(3) = (  0.000000 -0.000000  0.595616 )

     PseudoPot. # 1 for Zn read from file:
     /home/jvc/QEspresso7.2/ZnO_database/pseudos/Zn.upf
     MD5 check sum: 7f56cabf9682ed8c977c2f7d0c5985c5
     Pseudo is Ultrasoft + core correction, Zval = 12.0
     Generated using &quot;atomic&quot; code by A. Dal Corso  v.6.2.2
     Using radial grid of 1201 points,  6 beta functions with:
                l(1) =   0
                l(2) =   0
                l(3) =   1
                l(4) =   1
                l(5) =   2
                l(6) =   2
     Q(r) pseudized with 0 coefficients

     PseudoPot. # 2 for O  read from file:
     /home/jvc/QEspresso7.2/ZnO_database/pseudos/O.upf
     MD5 check sum: 91400c9766925bcf19f520983a725ff0
     Pseudo is Ultrasoft + core correction, Zval =  6.0
     Generated using &quot;atomic&quot; code by A. Dal Corso  v.6.3MaX
     Using radial grid of 1095 points,  4 beta functions with:
                l(1) =   0
                l(2) =   0
                l(3) =   1
                l(4) =   1
     Q(r) pseudized with 0 coefficients

     atomic species   valence    mass     pseudopotential
        Zn            12.00    65.38000     Zn( 1.00)
        O              6.00    15.99900     O ( 1.00)

      2 Sym. Ops. (no inversion) found

                                    s                        frac. trans.

      isym =  1     identity

 cryst.   s( 1) = (     1          0          0      )
                  (     0          1          0      )
                  (     0          0          1      )

 cart.    s( 1) = (  1.0000000  0.0000000  0.0000000 )
                  (  0.0000000  1.0000000  0.0000000 )
                  (  0.0000000  0.0000000  1.0000000 )

      isym =  2     inv. 180 deg rotation - cart. axis [1,0,0]

 cryst.   s( 2) = (    -1          0          0      )
                  (     2          1          0      )
                  (     0          0          1      )

 cart.    s( 2) = ( -1.0000000  0.0000000  0.0000000 )
                  (  0.0000000  1.0000000  0.0000000 )
                  (  0.0000000  0.0000000  1.0000000 )

   Cartesian axes

     site n.     atom                  positions (alat units)
         1           Zn  tau(   1) = (   0.5000000   0.2886751   0.8405301  )
         2           Zn  tau(   2) = (   0.0000000   0.5773503   0.0010637  )
         3           O   tau(   3) = (   0.5000000   0.2886751   1.4769175  )
         4           O   tau(   4) = (   0.0000000   0.5773503   0.6374511  )
         5           Zn  tau(   5) = (   0.0000000   1.1547005   0.8405301  )
         6           Zn  tau(   6) = (  -0.5000000   1.4433757   0.0010637  )
         7           O   tau(   7) = (   0.0000000   1.1547005   1.4769175  )
         8           O   tau(   8) = (  -0.5000000   1.4433757   0.6374511  )

   Crystallographic axes

     site n.     atom                  positions (cryst. coord.)
         1           Zn  tau(   1) = (  0.6666667  0.1666667  0.5006336  )
         2           Zn  tau(   2) = (  0.3333333  0.3333333  0.0006336  )
         3           O   tau(   3) = (  0.6666667  0.1666667  0.8796764  )
         4           O   tau(   4) = (  0.3333333  0.3333333  0.3796764  )
         5           Zn  tau(   5) = (  0.6666667  0.6666667  0.5006336  )
         6           Zn  tau(   6) = (  0.3333333  0.8333333  0.0006336  )
         7           O   tau(   7) = (  0.6666667  0.6666667  0.8796764  )
         8           O   tau(   8) = (  0.3333333  0.8333333  0.3796764  )

     number of k points=    80
                       cart. coord. in units 2pi/alat
        k(    1) = (   0.0000000   0.0000000   0.0000000), wk =   0.0092593
        k(    2) = (   0.0000000   0.0000000   0.0992694), wk =   0.0185185
        k(    3) = (   0.0000000   0.0000000   0.1985388), wk =   0.0185185
        k(    4) = (   0.0000000   0.0000000  -0.2978082), wk =   0.0092593
        k(    5) = (   0.0000000   0.0962250   0.0000000), wk =   0.0185185
        k(    6) = (   0.0000000   0.0962250   0.0992694), wk =   0.0185185
        k(    7) = (   0.0000000   0.0962250   0.1985388), wk =   0.0185185
        k(    8) = (   0.0000000   0.0962250  -0.2978082), wk =   0.0185185
        k(    9) = (   0.0000000   0.1924501   0.0000000), wk =   0.0185185
        k(   10) = (   0.0000000   0.1924501   0.0992694), wk =   0.0185185
        k(   11) = (   0.0000000   0.1924501   0.1985388), wk =   0.0185185
        k(   12) = (   0.0000000   0.1924501  -0.2978082), wk =   0.0185185
        k(   13) = (   0.0000000  -0.2886751   0.0000000), wk =   0.0092593
        k(   14) = (   0.0000000  -0.2886751   0.0992694), wk =   0.0185185
        k(   15) = (   0.0000000  -0.2886751   0.1985388), wk =   0.0185185
        k(   16) = (   0.0000000  -0.2886751  -0.2978082), wk =   0.0092593
        k(   17) = (   0.1666667   0.0962250   0.0000000), wk =   0.0370370
        k(   18) = (   0.1666667   0.0962250   0.0992694), wk =   0.0370370
        k(   19) = (   0.1666667   0.0962250   0.1985388), wk =   0.0370370
        k(   20) = (   0.1666667   0.0962250  -0.2978082), wk =   0.0370370
        k(   21) = (   0.1666667   0.1924501   0.0000000), wk =   0.0370370
        k(   22) = (   0.1666667   0.1924501   0.0992694), wk =   0.0370370
        k(   23) = (   0.1666667   0.1924501   0.1985388), wk =   0.0370370
        k(   24) = (   0.1666667   0.1924501  -0.2978082), wk =   0.0370370
        k(   25) = (   0.1666667   0.2886751   0.0000000), wk =   0.0185185
        k(   26) = (   0.1666667   0.2886751   0.0992694), wk =   0.0370370
        k(   27) = (   0.1666667   0.2886751   0.1985388), wk =   0.0370370
        k(   28) = (   0.1666667   0.2886751  -0.2978082), wk =   0.0185185
        k(   29) = (   0.1666667   0.0000000   0.0000000), wk =   0.0185185
        k(   30) = (   0.1666667   0.0000000   0.0992694), wk =   0.0370370
        k(   31) = (   0.1666667   0.0000000   0.1985388), wk =   0.0370370
        k(   32) = (   0.1666667   0.0000000  -0.2978082), wk =   0.0185185
        k(   33) = (   0.3333333   0.1924501   0.0000000), wk =   0.0370370
        k(   34) = (   0.3333333   0.1924501   0.0992694), wk =   0.0370370
        k(   35) = (   0.3333333   0.1924501   0.1985388), wk =   0.0370370
        k(   36) = (   0.3333333   0.1924501  -0.2978082), wk =   0.0370370
        k(   37) = (   0.3333333   0.2886751   0.0000000), wk =   0.0185185
        k(   38) = (   0.3333333   0.2886751   0.0992694), wk =   0.0370370
        k(   39) = (   0.3333333   0.2886751   0.1985388), wk =   0.0370370
        k(   40) = (   0.3333333   0.2886751  -0.2978082), wk =   0.0185185
        k(   41) = (   0.3333333  -0.0962250   0.0000000), wk =   0.0370370
        k(   42) = (   0.3333333  -0.0962250   0.0992694), wk =   0.0370370
        k(   43) = (   0.3333333  -0.0962250   0.1985388), wk =   0.0370370
        k(   44) = (   0.3333333  -0.0962250  -0.2978082), wk =   0.0370370
        k(   45) = (   0.3333333  -0.0000000   0.0000000), wk =   0.0185185
        k(   46) = (   0.3333333  -0.0000000   0.0992694), wk =   0.0370370
        k(   47) = (   0.3333333  -0.0000000   0.1985388), wk =   0.0370370
        k(   48) = (   0.3333333  -0.0000000  -0.2978082), wk =   0.0185185
        k(   49) = (  -0.5000000  -0.2886751   0.0000000), wk =   0.0092593
        k(   50) = (  -0.5000000  -0.2886751   0.0992694), wk =   0.0185185
        k(   51) = (  -0.5000000  -0.2886751   0.1985388), wk =   0.0185185
        k(   52) = (  -0.5000000  -0.2886751  -0.2978082), wk =   0.0092593
        k(   53) = (  -0.5000000  -0.1924501   0.0000000), wk =   0.0185185
        k(   54) = (  -0.5000000  -0.1924501   0.0992694), wk =   0.0185185
        k(   55) = (  -0.5000000  -0.1924501   0.1985388), wk =   0.0185185
        k(   56) = (  -0.5000000  -0.1924501  -0.2978082), wk =   0.0185185
        k(   57) = (  -0.5000000  -0.0962250   0.0000000), wk =   0.0185185
        k(   58) = (  -0.5000000  -0.0962250   0.0992694), wk =   0.0185185
        k(   59) = (  -0.5000000  -0.0962250   0.1985388), wk =   0.0185185
        k(   60) = (  -0.5000000  -0.0962250  -0.2978082), wk =   0.0185185
[...]
        k(   66) = (   0.0000000   0.0962250  -0.1985388), wk =   0.0185185
        k(   67) = (   0.0000000   0.1924501  -0.0992694), wk =   0.0185185
        k(   68) = (   0.0000000   0.1924501  -0.1985388), wk =   0.0185185
        k(   69) = (  -0.1666667   0.0962250  -0.0992694), wk =   0.0370370
        k(   70) = (  -0.1666667   0.0962250  -0.1985388), wk =   0.0370370
        k(   71) = (  -0.1666667   0.1924501  -0.0992694), wk =   0.0370370
        k(   72) = (  -0.1666667   0.1924501  -0.1985388), wk =   0.0370370
        k(   73) = (  -0.3333333   0.1924501  -0.0992694), wk =   0.0370370
        k(   74) = (  -0.3333333   0.1924501  -0.1985388), wk =   0.0370370
        k(   75) = (  -0.3333333  -0.0962250  -0.0992694), wk =   0.0370370
        k(   76) = (  -0.3333333  -0.0962250  -0.1985388), wk =   0.0370370
        k(   77) = (   0.5000000  -0.1924501  -0.0992694), wk =   0.0185185
        k(   78) = (   0.5000000  -0.1924501  -0.1985388), wk =   0.0185185
        k(   79) = (   0.5000000  -0.0962250  -0.0992694), wk =   0.0185185
        k(   80) = (   0.5000000  -0.0962250  -0.1985388), wk =   0.0185185

                       cryst. coord.
        k(    1) = (   0.0000000   0.0000000   0.0000000), wk =   0.0092593
        k(    2) = (   0.0000000   0.0000000   0.1666667), wk =   0.0185185
        k(    3) = (   0.0000000   0.0000000   0.3333333), wk =   0.0185185
        k(    4) = (   0.0000000   0.0000000  -0.5000000), wk =   0.0092593
        k(    5) = (   0.0000000   0.1666667   0.0000000), wk =   0.0185185
        k(    6) = (   0.0000000   0.1666667   0.1666667), wk =   0.0185185
        k(    7) = (   0.0000000   0.1666667   0.3333333), wk =   0.0185185
        k(    8) = (   0.0000000   0.1666667  -0.5000000), wk =   0.0185185
        k(    9) = (   0.0000000   0.3333333   0.0000000), wk =   0.0185185
        k(   10) = (   0.0000000   0.3333333   0.1666667), wk =   0.0185185
        k(   11) = (   0.0000000   0.3333333   0.3333333), wk =   0.0185185
        k(   12) = (   0.0000000   0.3333333  -0.5000000), wk =   0.0185185
        k(   13) = (   0.0000000  -0.5000000   0.0000000), wk =   0.0092593
        k(   14) = (   0.0000000  -0.5000000   0.1666667), wk =   0.0185185
        k(   15) = (   0.0000000  -0.5000000   0.3333333), wk =   0.0185185
        k(   16) = (   0.0000000  -0.5000000  -0.5000000), wk =   0.0092593
        k(   17) = (   0.1666667   0.0000000   0.0000000), wk =   0.0370370
        k(   18) = (   0.1666667   0.0000000   0.1666667), wk =   0.0370370
        k(   19) = (   0.1666667   0.0000000   0.3333333), wk =   0.0370370
        k(   20) = (   0.1666667   0.0000000  -0.5000000), wk =   0.0370370
        k(   21) = (   0.1666667   0.1666667   0.0000000), wk =   0.0370370
        k(   22) = (   0.1666667   0.1666667   0.1666667), wk =   0.0370370
        k(   23) = (   0.1666667   0.1666667   0.3333333), wk =   0.0370370
        k(   24) = (   0.1666667   0.1666667  -0.5000000), wk =   0.0370370
        k(   25) = (   0.1666667   0.3333333   0.0000000), wk =   0.0185185
        k(   26) = (   0.1666667   0.3333333   0.1666667), wk =   0.0370370
        k(   27) = (   0.1666667   0.3333333   0.3333333), wk =   0.0370370
        k(   28) = (   0.1666667   0.3333333  -0.5000000), wk =   0.0185185
        k(   29) = (   0.1666667  -0.1666667   0.0000000), wk =   0.0185185
        k(   30) = (   0.1666667  -0.1666667   0.1666667), wk =   0.0370370
        k(   31) = (   0.1666667  -0.1666667   0.3333333), wk =   0.0370370
        k(   32) = (   0.1666667  -0.1666667  -0.5000000), wk =   0.0185185
        k(   33) = (   0.3333333   0.0000000   0.0000000), wk =   0.0370370
        k(   34) = (   0.3333333   0.0000000   0.1666667), wk =   0.0370370
        k(   35) = (   0.3333333   0.0000000   0.3333333), wk =   0.0370370
        k(   36) = (   0.3333333   0.0000000  -0.5000000), wk =   0.0370370
        k(   37) = (   0.3333333   0.1666667   0.0000000), wk =   0.0185185
        k(   38) = (   0.3333333   0.1666667   0.1666667), wk =   0.0370370
        k(   39) = (   0.3333333   0.1666667   0.3333333), wk =   0.0370370
        k(   40) = (   0.3333333   0.1666667  -0.5000000), wk =   0.0185185
        k(   41) = (   0.3333333  -0.5000000   0.0000000), wk =   0.0370370
        k(   42) = (   0.3333333  -0.5000000   0.1666667), wk =   0.0370370
        k(   43) = (   0.3333333  -0.5000000   0.3333333), wk =   0.0370370
        k(   44) = (   0.3333333  -0.5000000  -0.5000000), wk =   0.0370370
        k(   45) = (   0.3333333  -0.3333333   0.0000000), wk =   0.0185185
        k(   46) = (   0.3333333  -0.3333333   0.1666667), wk =   0.0370370
        k(   47) = (   0.3333333  -0.3333333   0.3333333), wk =   0.0370370
        k(   48) = (   0.3333333  -0.3333333  -0.5000000), wk =   0.0185185
        k(   49) = (  -0.5000000   0.0000000   0.0000000), wk =   0.0092593
        k(   50) = (  -0.5000000   0.0000000   0.1666667), wk =   0.0185185
        k(   51) = (  -0.5000000   0.0000000   0.3333333), wk =   0.0185185
        k(   52) = (  -0.5000000   0.0000000  -0.5000000), wk =   0.0092593
        k(   53) = (  -0.5000000   0.1666667   0.0000000), wk =   0.0185185
        k(   54) = (  -0.5000000   0.1666667   0.1666667), wk =   0.0185185
        k(   55) = (  -0.5000000   0.1666667   0.3333333), wk =   0.0185185
        k(   56) = (  -0.5000000   0.1666667  -0.5000000), wk =   0.0185185
        k(   57) = (  -0.5000000   0.3333333   0.0000000), wk =   0.0185185
        k(   58) = (  -0.5000000   0.3333333   0.1666667), wk =   0.0185185
        k(   59) = (  -0.5000000   0.3333333   0.3333333), wk =   0.0185185
        k(   60) = (  -0.5000000   0.3333333  -0.5000000), wk =   0.0185185
[...]
        k(   66) = (   0.0000000   0.1666667  -0.3333333), wk =   0.0185185
        k(   67) = (   0.0000000   0.3333333  -0.1666667), wk =   0.0185185
        k(   68) = (   0.0000000   0.3333333  -0.3333333), wk =   0.0185185
        k(   69) = (  -0.1666667   0.3333333  -0.1666667), wk =   0.0370370
        k(   70) = (  -0.1666667   0.3333333  -0.3333333), wk =   0.0370370
        k(   71) = (  -0.1666667   0.5000000  -0.1666667), wk =   0.0370370
        k(   72) = (  -0.1666667   0.5000000  -0.3333333), wk =   0.0370370
        k(   73) = (  -0.3333333   0.6666667  -0.1666667), wk =   0.0370370
        k(   74) = (  -0.3333333   0.6666667  -0.3333333), wk =   0.0370370
        k(   75) = (  -0.3333333   0.1666667  -0.1666667), wk =   0.0370370
        k(   76) = (  -0.3333333   0.1666667  -0.3333333), wk =   0.0370370
        k(   77) = (   0.5000000  -0.8333333  -0.1666667), wk =   0.0185185
        k(   78) = (   0.5000000  -0.8333333  -0.3333333), wk =   0.0185185
        k(   79) = (   0.5000000  -0.6666667  -0.1666667), wk =   0.0185185
        k(   80) = (   0.5000000  -0.6666667  -0.3333333), wk =   0.0185185

     Check: negative core charge=   -0.000002

     Initial potential from superposition of free atoms

     starting charge      71.9851, renormalised to      72.0000
     Starting wfcs are   52 randomized atomic wfcs

     Self-consistent Calculation

     iteration #  1     ecut=    50.00 Ry     beta= 0.30
     Davidson diagonalization with overlap

     ethr =  1.00E-02,  avg # of iterations =  1.1

     total energy              =    -722.61439274 Ry
     estimated scf accuracy    <       1.76974498 Ry

[...]

     c_bands:  1 eigenvalues not converged
     ethr =  3.41E-06,  avg # of iterations =  9.8

[...]

     c_bands:  1 eigenvalues not converged
     ethr =  6.85E-10,  avg # of iterations =  5.8

[...]

     total energy              =    -723.04743374 Ry
     estimated scf accuracy    <       0.00000024 Ry

     iteration # 38     ecut=    50.00 Ry     beta= 0.30
     Davidson diagonalization with overlap

     ethr =  1.47E-10,  avg # of iterations =  6.3

     End of self-consistent calculation

          k = 0.0000 0.0000 0.0000 (  5441 PWs)   bands (ev):

   -13.0036 -12.7205 -12.6938 -12.6069  -1.8223  -1.8221  -1.8007  -1.7949
    -1.7435  -1.7433  -1.6969  -1.6067  -1.5230  -1.4860  -1.4126  -1.3966
    -1.3965  -1.3442  -1.3210  -1.3210  -1.3196  -1.2966  -1.2842  -1.2568
    -0.3213  -0.0839   0.3692   1.2231   1.7961   2.2202   2.4960   2.6019
     2.6026   2.9009   2.9954   2.9962

     occupation numbers
     1.0000   1.0000   1.0000   1.0000   1.0000   1.0000   1.0000   1.0000
     1.0000   1.0000   1.0000   1.0000   1.0000   1.0000   1.0000   1.0000
     1.0000   1.0000   1.0000   1.0000   1.0000   1.0000   1.0000   1.0000
     1.0000   1.0000   1.0000   1.0000   1.0000   1.0000   1.0000   1.0000
     1.0000   1.0000   1.0000   1.0000

[...]

          k =-0.5000-0.2887 0.0000 (  5444 PWs)   bands (ev):

[...]

          k =-0.3333-0.0962-0.1985 (  5436 PWs)   bands (ev):

[...]

          k = 0.5000-0.0962-0.1985 (  5450 PWs)   bands (ev):

   -12.6725 -12.6724 -12.6272 -12.6271  -1.7552  -1.7552  -1.6916  -1.6915
    -1.6393  -1.6393  -1.5524  -1.5523  -1.5014  -1.5014  -1.4904  -1.4904
    -1.3572  -1.3572  -1.3317  -1.3317  -1.2684  -1.2684  -1.2207  -1.2207
     0.0922   0.0922   0.2684   0.2684   1.5234   1.5235   1.8758   1.8758
     2.0090   2.0090   2.3443   2.3444

     occupation numbers
     1.0000   1.0000   1.0000   1.0000   1.0000   1.0000   1.0000   1.0000
     1.0000   1.0000   1.0000   1.0000   1.0000   1.0000   1.0000   1.0000
     1.0000   1.0000   1.0000   1.0000   1.0000   1.0000   1.0000   1.0000
     1.0000   1.0000   1.0000   1.0000   1.0000   1.0000   1.0000   1.0000
     1.0000   1.0000   1.0000   1.0000

     highest occupied level (ev):     2.9962

!    total energy              =    -723.04743378 Ry
     estimated scf accuracy    <          2.1E-09 Ry

     The total energy is the sum of the following terms:
     one-electron contribution =    -380.60033597 Ry
     hartree contribution      =     262.84381007 Ry
     xc contribution           =    -217.97957150 Ry
     ewald contribution        =    -387.31133637 Ry

     convergence has been achieved in  38 iterations

     Forces acting on atoms (cartesian axes, Ry/au):

     atom    1 type  1   force =     0.00000000   -0.00000115   -0.00571940
     atom    2 type  1   force =     0.00000000   -0.00000831   -0.00572053
     atom    3 type  2   force =     0.00000000    0.00001104    0.00571825
     atom    4 type  2   force =     0.00000000   -0.00001057    0.00571863
     atom    5 type  1   force =     0.00000000    0.00002449   -0.00572422
     atom    6 type  1   force =     0.00000000   -0.00001555   -0.00571153
     atom    7 type  2   force =     0.00000000    0.00001071    0.00571900
     atom    8 type  2   force =     0.00000000   -0.00001065    0.00571979
     The non-local contrib.  to forces
     atom    1 type  1   force =     0.00000000   -0.00003428    0.08730148
     atom    2 type  1   force =     0.00000000    0.00003000    0.08729815
     atom    3 type  2   force =     0.00000000    0.00024111    0.11022771
     atom    4 type  2   force =     0.00000000   -0.00023938    0.11022712
     atom    5 type  1   force =     0.00000000   -0.00002480    0.08729694
     atom    6 type  1   force =     0.00000000    0.00002990    0.08730064
     atom    7 type  2   force =     0.00000000    0.00023570    0.11022827
     atom    8 type  2   force =     0.00000000   -0.00023679    0.11023060
     The ionic contribution  to forces
     atom    1 type  1   force =    -0.00000000    0.00000002    0.70254666
     atom    2 type  1   force =     0.00000000    0.00000001    0.70254666
     atom    3 type  2   force =    -0.00000000    0.00000001   -0.70254666
     atom    4 type  2   force =     0.00000000    0.00000001   -0.70254666
     atom    5 type  1   force =    -0.00000000   -0.00000001    0.70254666
     atom    6 type  1   force =     0.00000000   -0.00000002    0.70254666
     atom    7 type  2   force =    -0.00000000   -0.00000001   -0.70254666
     atom    8 type  2   force =     0.00000000   -0.00000001   -0.70254666
     The local contribution  to forces
     atom    1 type  1   force =    -0.00000010    0.00005327   -0.79074822
     atom    2 type  1   force =    -0.00000000   -0.00003695   -0.79074408
     atom    3 type  2   force =    -0.00000003   -0.00022247    0.59908525
     atom    4 type  2   force =    -0.00000000    0.00022510    0.59908348
     atom    5 type  1   force =    -0.00000000    0.00001332   -0.79073957
     atom    6 type  1   force =     0.00000010   -0.00003015   -0.79075690
     atom    7 type  2   force =    -0.00000000   -0.00022633    0.59908095
     atom    8 type  2   force =     0.00000003    0.00022214    0.59908399
     The core correction contribution to forces
     atom    1 type  1   force =    -0.00000001    0.00000767   -0.00481405
     atom    2 type  1   force =     0.00000000   -0.00000811   -0.00481250
     atom    3 type  2   force =     0.00000000   -0.00000272   -0.00104405
     atom    4 type  2   force =     0.00000000    0.00000270   -0.00104390
     atom    5 type  1   force =    -0.00000000    0.00000879   -0.00481404
     atom    6 type  1   force =     0.00000001   -0.00000838   -0.00481206
     atom    7 type  2   force =    -0.00000000   -0.00000265   -0.00104407
     atom    8 type  2   force =    -0.00000000    0.00000266   -0.00104393
     The Hubbard contrib.    to forces
     atom    1 type  1   force =     0.00000000    0.00000000    0.00000000
     atom    2 type  1   force =     0.00000000    0.00000000    0.00000000
     atom    3 type  2   force =     0.00000000    0.00000000    0.00000000
     atom    4 type  2   force =     0.00000000    0.00000000    0.00000000
     atom    5 type  1   force =     0.00000000    0.00000000    0.00000000
     atom    6 type  1   force =     0.00000000    0.00000000    0.00000000
     atom    7 type  2   force =     0.00000000    0.00000000    0.00000000
     atom    8 type  2   force =     0.00000000    0.00000000    0.00000000
     The SCF correction term to forces
     atom    1 type  1   force =    -0.00000000   -0.00002789   -0.00000630
     atom    2 type  1   force =     0.00000000    0.00000667   -0.00000978
     atom    3 type  2   force =    -0.00000000   -0.00000496   -0.00000503
     atom    4 type  2   force =     0.00000000    0.00000095   -0.00000245
     atom    5 type  1   force =    -0.00000000    0.00002711   -0.00001525
     atom    6 type  1   force =     0.00000000   -0.00000698    0.00000910
     atom    7 type  2   force =    -0.00000000    0.00000392   -0.00000053
     atom    8 type  2   force =     0.00000000    0.00000128   -0.00000524

     Total force =     0.016176     Total SCF correction =     0.000046

     General routines

     Parallel routines

   This run was terminated on:   2:12:45  27Aug2025

   JOB DONE.