     Program PWSCF v.7.0 starts on 26Aug2025 at 19:54:55

     K-points division:     npool     =       4
     band groups division:  nbgrp     =       4

     Reading input from /home/jvc/QEspresso7.2/ZnO_database/scripts/cell121.in/ZnO-3.34-1.45-121.in
Warning: card &CELL ignored
Warning: card / ignored
Warning: card &FCP ignored
Warning: card / ignored
Warning: card &RISM ignored
Warning: card / ignored

     Current dimensions of program PWSCF are:
     Max number of different atomic species (ntypx) = 10
     Max number of k-points (npk) =  40000
     Max angular momentum in pseudopotentials (lmaxx) =  4
     file Zn.upf: wavefunction(s)  3D renormalized
     Found identity + (  0.0000 -0.5000  0.0000) symmetry
     This is a supercell, fractional translations are disabled
     Message from routine setup:
     using ibrav=0 with symmetry is DISCOURAGED, use correct ibrav instead

     Subspace diagonalization in iterative solution of the eigenvalue problem:
     a serial algorithm will be used

     Using Slab Decomposition

     bravais-lattice index     =            0
     lattice parameter (alat)  =       6.3024  a.u.
     unit-cell volume          =     629.9809 (a.u.)^3
     number of atoms/cell      =            8
     number of atomic types    =            2
     number of electrons       =        72.00
     number of Kohn-Sham states=           36
     kinetic-energy cutoff     =      50.0000  Ry
     charge density cutoff     =     400.0000  Ry
     scf convergence threshold =      1.0E-08
     mixing beta               =       0.3000
     number of iterations used =            8  plain     mixing
     Exchange-correlation= PBE
                           (   1   4   3   4   0   0   0)

     celldm(1)=   6.302431  celldm(2)=   0.000000  celldm(3)=   0.000000
     celldm(4)=   0.000000  celldm(5)=   0.000000  celldm(6)=   0.000000

     crystal axes: (cart. coord. in units of alat)
               a(1) = (   1.000000   0.000000   0.000000 )
               a(2) = (  -1.000000   1.732051   0.000000 )
               a(3) = (   0.000000   0.000000   1.452923 )

     reciprocal axes: (cart. coord. in units 2 pi/alat)
               b(1) = (  1.000000  0.577350 -0.000000 )
               b(2) = (  0.000000  0.577350  0.000000 )
               b(3) = (  0.000000 -0.000000  0.688268 )

     PseudoPot. # 1 for Zn read from file:
     /home/jvc/QEspresso7.2/ZnO_database/pseudos/Zn.upf
     MD5 check sum: 7f56cabf9682ed8c977c2f7d0c5985c5
     Pseudo is Ultrasoft + core correction, Zval = 12.0
     Generated using &quot;atomic&quot; code by A. Dal Corso  v.6.2.2
     Using radial grid of 1201 points,  6 beta functions with:
                l(1) =   0
                l(2) =   0
                l(3) =   1
                l(4) =   1
                l(5) =   2
                l(6) =   2
     Q(r) pseudized with 0 coefficients

     PseudoPot. # 2 for O  read from file:
     /home/jvc/QEspresso7.2/ZnO_database/pseudos/O.upf
     MD5 check sum: 91400c9766925bcf19f520983a725ff0
     Pseudo is Ultrasoft + core correction, Zval =  6.0
     Generated using &quot;atomic&quot; code by A. Dal Corso  v.6.3MaX
     Using radial grid of 1095 points,  4 beta functions with:
                l(1) =   0
                l(2) =   0
                l(3) =   1
                l(4) =   1
     Q(r) pseudized with 0 coefficients

     atomic species   valence    mass     pseudopotential
        Zn            12.00    65.38000     Zn( 1.00)
        O              6.00    15.99900     O ( 1.00)

      2 Sym. Ops. (no inversion) found

                                    s                        frac. trans.

      isym =  1     identity

 cryst.   s( 1) = (     1          0          0      )
                  (     0          1          0      )
                  (     0          0          1      )

 cart.    s( 1) = (  1.0000000  0.0000000  0.0000000 )
                  (  0.0000000  1.0000000  0.0000000 )
                  (  0.0000000  0.0000000  1.0000000 )

      isym =  2     inv. 180 deg rotation - cart. axis [1,0,0]

 cryst.   s( 2) = (    -1          0          0      )
                  (     2          1          0      )
                  (     0          0          1      )

 cart.    s( 2) = ( -1.0000000  0.0000000  0.0000000 )
                  (  0.0000000  1.0000000  0.0000000 )
                  (  0.0000000  0.0000000  1.0000000 )

   Cartesian axes

     site n.     atom                  positions (alat units)
         1           Zn  tau(   1) = (   0.5000000   0.2886751   0.7273818  )
         2           Zn  tau(   2) = (   0.0000000   0.5773503   0.0009206  )
         3           O   tau(   3) = (   0.5000000   0.2886751   1.2781017  )
         4           O   tau(   4) = (   0.0000000   0.5773503   0.5516404  )
         5           Zn  tau(   5) = (   0.0000000   1.1547005   0.7273818  )
         6           Zn  tau(   6) = (  -0.5000000   1.4433757   0.0009206  )
         7           O   tau(   7) = (   0.0000000   1.1547005   1.2781017  )
         8           O   tau(   8) = (  -0.5000000   1.4433757   0.5516404  )

   Crystallographic axes

     site n.     atom                  positions (cryst. coord.)
         1           Zn  tau(   1) = (  0.6666667  0.1666667  0.5006336  )
         2           Zn  tau(   2) = (  0.3333333  0.3333333  0.0006336  )
         3           O   tau(   3) = (  0.6666667  0.1666667  0.8796764  )
         4           O   tau(   4) = (  0.3333333  0.3333333  0.3796764  )
         5           Zn  tau(   5) = (  0.6666667  0.6666667  0.5006336  )
         6           Zn  tau(   6) = (  0.3333333  0.8333333  0.0006336  )
         7           O   tau(   7) = (  0.6666667  0.6666667  0.8796764  )
         8           O   tau(   8) = (  0.3333333  0.8333333  0.3796764  )

     number of k points=    80
                       cart. coord. in units 2pi/alat
        k(    1) = (   0.0000000   0.0000000   0.0000000), wk =   0.0092593
        k(    2) = (   0.0000000   0.0000000   0.1147113), wk =   0.0185185
        k(    3) = (   0.0000000   0.0000000   0.2294226), wk =   0.0185185
        k(    4) = (   0.0000000   0.0000000  -0.3441340), wk =   0.0092593
        k(    5) = (   0.0000000   0.0962250   0.0000000), wk =   0.0185185
        k(    6) = (   0.0000000   0.0962250   0.1147113), wk =   0.0185185
        k(    7) = (   0.0000000   0.0962250   0.2294226), wk =   0.0185185
        k(    8) = (   0.0000000   0.0962250  -0.3441340), wk =   0.0185185
        k(    9) = (   0.0000000   0.1924501   0.0000000), wk =   0.0185185
        k(   10) = (   0.0000000   0.1924501   0.1147113), wk =   0.0185185
        k(   11) = (   0.0000000   0.1924501   0.2294226), wk =   0.0185185
        k(   12) = (   0.0000000   0.1924501  -0.3441340), wk =   0.0185185
        k(   13) = (   0.0000000  -0.2886751   0.0000000), wk =   0.0092593
        k(   14) = (   0.0000000  -0.2886751   0.1147113), wk =   0.0185185
        k(   15) = (   0.0000000  -0.2886751   0.2294226), wk =   0.0185185
        k(   16) = (   0.0000000  -0.2886751  -0.3441340), wk =   0.0092593
        k(   17) = (   0.1666667   0.0962250   0.0000000), wk =   0.0370370
        k(   18) = (   0.1666667   0.0962250   0.1147113), wk =   0.0370370
        k(   19) = (   0.1666667   0.0962250   0.2294226), wk =   0.0370370
        k(   20) = (   0.1666667   0.0962250  -0.3441340), wk =   0.0370370
        k(   21) = (   0.1666667   0.1924501   0.0000000), wk =   0.0370370
        k(   22) = (   0.1666667   0.1924501   0.1147113), wk =   0.0370370
        k(   23) = (   0.1666667   0.1924501   0.2294226), wk =   0.0370370
        k(   24) = (   0.1666667   0.1924501  -0.3441340), wk =   0.0370370
        k(   25) = (   0.1666667   0.2886751   0.0000000), wk =   0.0185185
        k(   26) = (   0.1666667   0.2886751   0.1147113), wk =   0.0370370
        k(   27) = (   0.1666667   0.2886751   0.2294226), wk =   0.0370370
        k(   28) = (   0.1666667   0.2886751  -0.3441340), wk =   0.0185185
        k(   29) = (   0.1666667   0.0000000   0.0000000), wk =   0.0185185
        k(   30) = (   0.1666667   0.0000000   0.1147113), wk =   0.0370370
        k(   31) = (   0.1666667   0.0000000   0.2294226), wk =   0.0370370
        k(   32) = (   0.1666667   0.0000000  -0.3441340), wk =   0.0185185
        k(   33) = (   0.3333333   0.1924501   0.0000000), wk =   0.0370370
        k(   34) = (   0.3333333   0.1924501   0.1147113), wk =   0.0370370
        k(   35) = (   0.3333333   0.1924501   0.2294226), wk =   0.0370370
        k(   36) = (   0.3333333   0.1924501  -0.3441340), wk =   0.0370370
        k(   37) = (   0.3333333   0.2886751   0.0000000), wk =   0.0185185
        k(   38) = (   0.3333333   0.2886751   0.1147113), wk =   0.0370370
        k(   39) = (   0.3333333   0.2886751   0.2294226), wk =   0.0370370
        k(   40) = (   0.3333333   0.2886751  -0.3441340), wk =   0.0185185
        k(   41) = (   0.3333333  -0.0962250   0.0000000), wk =   0.0370370
        k(   42) = (   0.3333333  -0.0962250   0.1147113), wk =   0.0370370
        k(   43) = (   0.3333333  -0.0962250   0.2294226), wk =   0.0370370
        k(   44) = (   0.3333333  -0.0962250  -0.3441340), wk =   0.0370370
        k(   45) = (   0.3333333  -0.0000000   0.0000000), wk =   0.0185185
        k(   46) = (   0.3333333  -0.0000000   0.1147113), wk =   0.0370370
        k(   47) = (   0.3333333  -0.0000000   0.2294226), wk =   0.0370370
        k(   48) = (   0.3333333  -0.0000000  -0.3441340), wk =   0.0185185
        k(   49) = (  -0.5000000  -0.2886751   0.0000000), wk =   0.0092593
        k(   50) = (  -0.5000000  -0.2886751   0.1147113), wk =   0.0185185
        k(   51) = (  -0.5000000  -0.2886751   0.2294226), wk =   0.0185185
        k(   52) = (  -0.5000000  -0.2886751  -0.3441340), wk =   0.0092593
        k(   53) = (  -0.5000000  -0.1924501   0.0000000), wk =   0.0185185
        k(   54) = (  -0.5000000  -0.1924501   0.1147113), wk =   0.0185185
        k(   55) = (  -0.5000000  -0.1924501   0.2294226), wk =   0.0185185
        k(   56) = (  -0.5000000  -0.1924501  -0.3441340), wk =   0.0185185
        k(   57) = (  -0.5000000  -0.0962250   0.0000000), wk =   0.0185185
        k(   58) = (  -0.5000000  -0.0962250   0.1147113), wk =   0.0185185
        k(   59) = (  -0.5000000  -0.0962250   0.2294226), wk =   0.0185185
        k(   60) = (  -0.5000000  -0.0962250  -0.3441340), wk =   0.0185185
[...]
        k(   66) = (   0.0000000   0.0962250  -0.2294226), wk =   0.0185185
        k(   67) = (   0.0000000   0.1924501  -0.1147113), wk =   0.0185185
        k(   68) = (   0.0000000   0.1924501  -0.2294226), wk =   0.0185185
        k(   69) = (  -0.1666667   0.0962250  -0.1147113), wk =   0.0370370
        k(   70) = (  -0.1666667   0.0962250  -0.2294226), wk =   0.0370370
        k(   71) = (  -0.1666667   0.1924501  -0.1147113), wk =   0.0370370
        k(   72) = (  -0.1666667   0.1924501  -0.2294226), wk =   0.0370370
        k(   73) = (  -0.3333333   0.1924501  -0.1147113), wk =   0.0370370
        k(   74) = (  -0.3333333   0.1924501  -0.2294226), wk =   0.0370370
        k(   75) = (  -0.3333333  -0.0962250  -0.1147113), wk =   0.0370370
        k(   76) = (  -0.3333333  -0.0962250  -0.2294226), wk =   0.0370370
        k(   77) = (   0.5000000  -0.1924501  -0.1147113), wk =   0.0185185
        k(   78) = (   0.5000000  -0.1924501  -0.2294226), wk =   0.0185185
        k(   79) = (   0.5000000  -0.0962250  -0.1147113), wk =   0.0185185
        k(   80) = (   0.5000000  -0.0962250  -0.2294226), wk =   0.0185185

                       cryst. coord.
        k(    1) = (   0.0000000   0.0000000   0.0000000), wk =   0.0092593
        k(    2) = (   0.0000000   0.0000000   0.1666667), wk =   0.0185185
        k(    3) = (   0.0000000   0.0000000   0.3333333), wk =   0.0185185
        k(    4) = (   0.0000000   0.0000000  -0.5000000), wk =   0.0092593
        k(    5) = (   0.0000000   0.1666667   0.0000000), wk =   0.0185185
        k(    6) = (   0.0000000   0.1666667   0.1666667), wk =   0.0185185
        k(    7) = (   0.0000000   0.1666667   0.3333333), wk =   0.0185185
        k(    8) = (   0.0000000   0.1666667  -0.5000000), wk =   0.0185185
        k(    9) = (   0.0000000   0.3333333   0.0000000), wk =   0.0185185
        k(   10) = (   0.0000000   0.3333333   0.1666667), wk =   0.0185185
        k(   11) = (   0.0000000   0.3333333   0.3333333), wk =   0.0185185
        k(   12) = (   0.0000000   0.3333333  -0.5000000), wk =   0.0185185
        k(   13) = (   0.0000000  -0.5000000   0.0000000), wk =   0.0092593
        k(   14) = (   0.0000000  -0.5000000   0.1666667), wk =   0.0185185
        k(   15) = (   0.0000000  -0.5000000   0.3333333), wk =   0.0185185
        k(   16) = (   0.0000000  -0.5000000  -0.5000000), wk =   0.0092593
        k(   17) = (   0.1666667   0.0000000   0.0000000), wk =   0.0370370
        k(   18) = (   0.1666667   0.0000000   0.1666667), wk =   0.0370370
        k(   19) = (   0.1666667   0.0000000   0.3333333), wk =   0.0370370
        k(   20) = (   0.1666667   0.0000000  -0.5000000), wk =   0.0370370
        k(   21) = (   0.1666667   0.1666667   0.0000000), wk =   0.0370370
        k(   22) = (   0.1666667   0.1666667   0.1666667), wk =   0.0370370
        k(   23) = (   0.1666667   0.1666667   0.3333333), wk =   0.0370370
        k(   24) = (   0.1666667   0.1666667  -0.5000000), wk =   0.0370370
        k(   25) = (   0.1666667   0.3333333   0.0000000), wk =   0.0185185
        k(   26) = (   0.1666667   0.3333333   0.1666667), wk =   0.0370370
        k(   27) = (   0.1666667   0.3333333   0.3333333), wk =   0.0370370
        k(   28) = (   0.1666667   0.3333333  -0.5000000), wk =   0.0185185
        k(   29) = (   0.1666667  -0.1666667   0.0000000), wk =   0.0185185
        k(   30) = (   0.1666667  -0.1666667   0.1666667), wk =   0.0370370
        k(   31) = (   0.1666667  -0.1666667   0.3333333), wk =   0.0370370
        k(   32) = (   0.1666667  -0.1666667  -0.5000000), wk =   0.0185185
        k(   33) = (   0.3333333   0.0000000   0.0000000), wk =   0.0370370
        k(   34) = (   0.3333333   0.0000000   0.1666667), wk =   0.0370370
        k(   35) = (   0.3333333   0.0000000   0.3333333), wk =   0.0370370
        k(   36) = (   0.3333333   0.0000000  -0.5000000), wk =   0.0370370
        k(   37) = (   0.3333333   0.1666667   0.0000000), wk =   0.0185185
        k(   38) = (   0.3333333   0.1666667   0.1666667), wk =   0.0370370
        k(   39) = (   0.3333333   0.1666667   0.3333333), wk =   0.0370370
        k(   40) = (   0.3333333   0.1666667  -0.5000000), wk =   0.0185185
        k(   41) = (   0.3333333  -0.5000000   0.0000000), wk =   0.0370370
        k(   42) = (   0.3333333  -0.5000000   0.1666667), wk =   0.0370370
        k(   43) = (   0.3333333  -0.5000000   0.3333333), wk =   0.0370370
        k(   44) = (   0.3333333  -0.5000000  -0.5000000), wk =   0.0370370
        k(   45) = (   0.3333333  -0.3333333   0.0000000), wk =   0.0185185
        k(   46) = (   0.3333333  -0.3333333   0.1666667), wk =   0.0370370
        k(   47) = (   0.3333333  -0.3333333   0.3333333), wk =   0.0370370
        k(   48) = (   0.3333333  -0.3333333  -0.5000000), wk =   0.0185185
        k(   49) = (  -0.5000000   0.0000000   0.0000000), wk =   0.0092593
        k(   50) = (  -0.5000000   0.0000000   0.1666667), wk =   0.0185185
        k(   51) = (  -0.5000000   0.0000000   0.3333333), wk =   0.0185185
        k(   52) = (  -0.5000000   0.0000000  -0.5000000), wk =   0.0092593
        k(   53) = (  -0.5000000   0.1666667   0.0000000), wk =   0.0185185
        k(   54) = (  -0.5000000   0.1666667   0.1666667), wk =   0.0185185
        k(   55) = (  -0.5000000   0.1666667   0.3333333), wk =   0.0185185
        k(   56) = (  -0.5000000   0.1666667  -0.5000000), wk =   0.0185185
        k(   57) = (  -0.5000000   0.3333333   0.0000000), wk =   0.0185185
        k(   58) = (  -0.5000000   0.3333333   0.1666667), wk =   0.0185185
        k(   59) = (  -0.5000000   0.3333333   0.3333333), wk =   0.0185185
        k(   60) = (  -0.5000000   0.3333333  -0.5000000), wk =   0.0185185
[...]
        k(   66) = (   0.0000000   0.1666667  -0.3333333), wk =   0.0185185
        k(   67) = (   0.0000000   0.3333333  -0.1666667), wk =   0.0185185
        k(   68) = (   0.0000000   0.3333333  -0.3333333), wk =   0.0185185
        k(   69) = (  -0.1666667   0.3333333  -0.1666667), wk =   0.0370370
        k(   70) = (  -0.1666667   0.3333333  -0.3333333), wk =   0.0370370
        k(   71) = (  -0.1666667   0.5000000  -0.1666667), wk =   0.0370370
        k(   72) = (  -0.1666667   0.5000000  -0.3333333), wk =   0.0370370
        k(   73) = (  -0.3333333   0.6666667  -0.1666667), wk =   0.0370370
        k(   74) = (  -0.3333333   0.6666667  -0.3333333), wk =   0.0370370
        k(   75) = (  -0.3333333   0.1666667  -0.1666667), wk =   0.0370370
        k(   76) = (  -0.3333333   0.1666667  -0.3333333), wk =   0.0370370
        k(   77) = (   0.5000000  -0.8333333  -0.1666667), wk =   0.0185185
        k(   78) = (   0.5000000  -0.8333333  -0.3333333), wk =   0.0185185
        k(   79) = (   0.5000000  -0.6666667  -0.1666667), wk =   0.0185185
        k(   80) = (   0.5000000  -0.6666667  -0.3333333), wk =   0.0185185

     Check: negative core charge=   -0.000002

     Initial potential from superposition of free atoms

     starting charge      71.9851, renormalised to      72.0000
     Starting wfcs are   52 randomized atomic wfcs

     Self-consistent Calculation

     iteration #  1     ecut=    50.00 Ry     beta= 0.30
     Davidson diagonalization with overlap

     ethr =  1.00E-02,  avg # of iterations =  2.0

     total energy              =    -722.90933127 Ry
     estimated scf accuracy    <       1.40546349 Ry

[...]

     total energy              =    -723.22224619 Ry
     estimated scf accuracy    <       0.00000001 Ry

     iteration # 27     ecut=    50.00 Ry     beta= 0.30
     Davidson diagonalization with overlap

     ethr =  1.77E-11,  avg # of iterations =  5.5

     End of self-consistent calculation

          k = 0.0000 0.0000 0.0000 (  3747 PWs)   bands (ev):

   -10.7182 -10.0539  -9.7998  -9.7663   1.5276   1.8002   1.8199   1.8201
     1.8314   1.9876   2.0080   2.0827   2.0828   2.2382   2.4118   2.6852
     2.9684   2.9684   3.0359   3.1732   3.2597   3.2598   3.3211   3.3602
     3.4709   3.9120   4.1795   4.7240   4.8739   6.3373   6.3945   6.3948
     6.7983   7.4871   7.4873   7.5794

     occupation numbers
     1.0000   1.0000   1.0000   1.0000   1.0000   1.0000   1.0000   1.0000
     1.0000   1.0000   1.0000   1.0000   1.0000   1.0000   1.0000   1.0000
     1.0000   1.0000   1.0000   1.0000   1.0000   1.0000   1.0000   1.0000
     1.0000   1.0000   1.0000   1.0000   1.0000   1.0000   1.0000   1.0000
     1.0000   1.0000   1.0000   1.0000

[...]

          k =-0.5000-0.2887 0.0000 (  3744 PWs)   bands (ev):

[...]

          k =-0.3333-0.0962-0.2294 (  3775 PWs)   bands (ev):

[...]

          k = 0.5000-0.0962-0.2294 (  3768 PWs)   bands (ev):

    -9.9703  -9.9703  -9.8188  -9.8187   1.3863   1.3863   1.4653   1.4653
     2.0070   2.0070   2.1241   2.1241   2.3158   2.3158   2.4210   2.4210
     3.0860   3.0860   3.1589   3.1589   3.3221   3.3221   3.4305   3.4305
     3.9158   3.9158   4.2695   4.2695   4.9858   4.9858   5.9199   5.9199
     6.0797   6.0797   6.7468   6.7468

     occupation numbers
     1.0000   1.0000   1.0000   1.0000   1.0000   1.0000   1.0000   1.0000
     1.0000   1.0000   1.0000   1.0000   1.0000   1.0000   1.0000   1.0000
     1.0000   1.0000   1.0000   1.0000   1.0000   1.0000   1.0000   1.0000
     1.0000   1.0000   1.0000   1.0000   1.0000   1.0000   1.0000   1.0000
     1.0000   1.0000   1.0000   1.0000

     highest occupied level (ev):     7.5794

!    total energy              =    -723.22224619 Ry
     estimated scf accuracy    <          2.6E-09 Ry

     The total energy is the sum of the following terms:
     one-electron contribution =    -301.46764053 Ry
     hartree contribution      =     234.34973925 Ry
     xc contribution           =    -219.32265781 Ry
     ewald contribution        =    -436.78168710 Ry

     convergence has been achieved in  27 iterations

     Forces acting on atoms (cartesian axes, Ry/au):

     atom    1 type  1   force =     0.00000000   -0.00001333   -0.05996945
     atom    2 type  1   force =     0.00000000    0.00000800   -0.05997493
     atom    3 type  2   force =     0.00000000    0.00000092    0.05997238
     atom    4 type  2   force =     0.00000000   -0.00000034    0.05997273
     atom    5 type  1   force =     0.00000000   -0.00000543   -0.05997576
     atom    6 type  1   force =     0.00000000    0.00001067   -0.05997011
     atom    7 type  2   force =     0.00000000    0.00000016    0.05997303
     atom    8 type  2   force =     0.00000000   -0.00000066    0.05997213
     The non-local contrib.  to forces
     atom    1 type  1   force =     0.00000000    0.00000617   -0.32026447
     atom    2 type  1   force =     0.00000000   -0.00000886   -0.32026513
     atom    3 type  2   force =     0.00000000    0.00018138   -0.22923596
     atom    4 type  2   force =     0.00000000   -0.00018017   -0.22923605
     atom    5 type  1   force =     0.00000000    0.00000967   -0.32026592
     atom    6 type  1   force =     0.00000000   -0.00000701   -0.32026392
     atom    7 type  2   force =     0.00000000    0.00017903   -0.22923627
     atom    8 type  2   force =     0.00000000   -0.00017979   -0.22923514
     The ionic contribution  to forces
     atom    1 type  1   force =    -0.00000000    0.00000000   -2.17242404
     atom    2 type  1   force =     0.00000000   -0.00000000   -2.17242404
     atom    3 type  2   force =    -0.00000000    0.00000000    2.17242404
     atom    4 type  2   force =     0.00000000   -0.00000000    2.17242404
     atom    5 type  1   force =    -0.00000000    0.00000000   -2.17242404
     atom    6 type  1   force =     0.00000000   -0.00000000   -2.17242404
     atom    7 type  2   force =    -0.00000000    0.00000000    2.17242404
     atom    8 type  2   force =     0.00000000   -0.00000000    2.17242404
     The local contribution  to forces
     atom    1 type  1   force =    -0.00000009   -0.00001442    2.40729403
     atom    2 type  1   force =    -0.00000000    0.00002508    2.40730397
     atom    3 type  2   force =    -0.00000002   -0.00017865   -1.88481327
     atom    4 type  2   force =    -0.00000000    0.00017868   -1.88480978
     atom    5 type  1   force =    -0.00000009   -0.00002821    2.40730190
     atom    6 type  1   force =    -0.00000000    0.00001743    2.40729591
     atom    7 type  2   force =    -0.00000002   -0.00017950   -1.88481357
     atom    8 type  2   force =    -0.00000000    0.00017912   -1.88481194
     The core correction contribution to forces
     atom    1 type  1   force =    -0.00000001    0.00000302    0.02542253
     atom    2 type  1   force =     0.00000007   -0.00000296    0.02542217
     atom    3 type  2   force =     0.00000001   -0.00000205    0.00159882
     atom    4 type  2   force =     0.00000001    0.00000207    0.00159884
     atom    5 type  1   force =    -0.00000008    0.00000301    0.02542240
     atom    6 type  1   force =    -0.00000000   -0.00000308    0.02542237
     atom    7 type  2   force =    -0.00000001   -0.00000205    0.00159883
     atom    8 type  2   force =    -0.00000001    0.00000204    0.00159881
     The Hubbard contrib.    to forces
     atom    1 type  1   force =     0.00000000    0.00000000    0.00000000
     atom    2 type  1   force =     0.00000000    0.00000000    0.00000000
     atom    3 type  2   force =     0.00000000    0.00000000    0.00000000
     atom    4 type  2   force =     0.00000000    0.00000000    0.00000000
     atom    5 type  1   force =     0.00000000    0.00000000    0.00000000
     atom    6 type  1   force =     0.00000000    0.00000000    0.00000000
     atom    7 type  2   force =     0.00000000    0.00000000    0.00000000
     atom    8 type  2   force =     0.00000000    0.00000000    0.00000000
     The SCF correction term to forces
     atom    1 type  1   force =    -0.00000000   -0.00000801   -0.00000036
     atom    2 type  1   force =    -0.00000000   -0.00000517   -0.00001476
     atom    3 type  2   force =    -0.00000000    0.00000033   -0.00000410
     atom    4 type  2   force =     0.00000000   -0.00000083   -0.00000716
     atom    5 type  1   force =     0.00000000    0.00001018   -0.00001296
     atom    6 type  1   force =     0.00000000    0.00000341   -0.00000328
     atom    7 type  2   force =    -0.00000000    0.00000278   -0.00000284
     atom    8 type  2   force =     0.00000000   -0.00000194   -0.00000649

     Total force =     0.169628     Total SCF correction =     0.000027

     General routines

     Parallel routines

   This run was terminated on:  20: 3: 0  26Aug2025

   JOB DONE.