     Program PWSCF v.7.0 starts on 26Aug2025 at 22:55:38

     K-points division:     npool     =       4
     band groups division:  nbgrp     =       4

     Reading input from /home/jvc/QEspresso7.2/ZnO_database/scripts/cell121.in/ZnO-3.47-1.55-121.in
Warning: card &CELL ignored
Warning: card / ignored
Warning: card &FCP ignored
Warning: card / ignored
Warning: card &RISM ignored
Warning: card / ignored

     Current dimensions of program PWSCF are:
     Max number of different atomic species (ntypx) = 10
     Max number of k-points (npk) =  40000
     Max angular momentum in pseudopotentials (lmaxx) =  4
     file Zn.upf: wavefunction(s)  3D renormalized
     Found identity + ( -0.0000  0.5000  0.0000) symmetry
     This is a supercell, fractional translations are disabled
     Message from routine setup:
     using ibrav=0 with symmetry is DISCOURAGED, use correct ibrav instead

     Subspace diagonalization in iterative solution of the eigenvalue problem:
     a serial algorithm will be used

     Using Slab Decomposition

     bravais-lattice index     =            0
     lattice parameter (alat)  =       6.5496  a.u.
     unit-cell volume          =     754.1768 (a.u.)^3
     number of atoms/cell      =            8
     number of atomic types    =            2
     number of electrons       =        72.00
     number of Kohn-Sham states=           36
     kinetic-energy cutoff     =      50.0000  Ry
     charge density cutoff     =     400.0000  Ry
     scf convergence threshold =      1.0E-08
     mixing beta               =       0.3000
     number of iterations used =            8  plain     mixing
     Exchange-correlation= PBE
                           (   1   4   3   4   0   0   0)

     celldm(1)=   6.549585  celldm(2)=   0.000000  celldm(3)=   0.000000
     celldm(4)=   0.000000  celldm(5)=   0.000000  celldm(6)=   0.000000

     crystal axes: (cart. coord. in units of alat)
               a(1) = (   1.000000   0.000000   0.000000 )
               a(2) = (  -1.000000   1.732051   0.000000 )
               a(3) = (   0.000000   0.000000   1.549784 )

     reciprocal axes: (cart. coord. in units 2 pi/alat)
               b(1) = (  1.000000  0.577350 -0.000000 )
               b(2) = (  0.000000  0.577350  0.000000 )
               b(3) = (  0.000000 -0.000000  0.645251 )

     PseudoPot. # 1 for Zn read from file:
     /home/jvc/QEspresso7.2/ZnO_database/pseudos/Zn.upf
     MD5 check sum: 7f56cabf9682ed8c977c2f7d0c5985c5
     Pseudo is Ultrasoft + core correction, Zval = 12.0
     Generated using &quot;atomic&quot; code by A. Dal Corso  v.6.2.2
     Using radial grid of 1201 points,  6 beta functions with:
                l(1) =   0
                l(2) =   0
                l(3) =   1
                l(4) =   1
                l(5) =   2
                l(6) =   2
     Q(r) pseudized with 0 coefficients

     PseudoPot. # 2 for O  read from file:
     /home/jvc/QEspresso7.2/ZnO_database/pseudos/O.upf
     MD5 check sum: 91400c9766925bcf19f520983a725ff0
     Pseudo is Ultrasoft + core correction, Zval =  6.0
     Generated using &quot;atomic&quot; code by A. Dal Corso  v.6.3MaX
     Using radial grid of 1095 points,  4 beta functions with:
                l(1) =   0
                l(2) =   0
                l(3) =   1
                l(4) =   1
     Q(r) pseudized with 0 coefficients

     atomic species   valence    mass     pseudopotential
        Zn            12.00    65.38000     Zn( 1.00)
        O              6.00    15.99900     O ( 1.00)

      2 Sym. Ops. (no inversion) found

                                    s                        frac. trans.

      isym =  1     identity

 cryst.   s( 1) = (     1          0          0      )
                  (     0          1          0      )
                  (     0          0          1      )

 cart.    s( 1) = (  1.0000000  0.0000000  0.0000000 )
                  (  0.0000000  1.0000000  0.0000000 )
                  (  0.0000000  0.0000000  1.0000000 )

      isym =  2     inv. 180 deg rotation - cart. axis [1,0,0]

 cryst.   s( 2) = (    -1          0          0      )
                  (     2          1          0      )
                  (     0          0          1      )

 cart.    s( 2) = ( -1.0000000  0.0000000  0.0000000 )
                  (  0.0000000  1.0000000  0.0000000 )
                  (  0.0000000  0.0000000  1.0000000 )

   Cartesian axes

     site n.     atom                  positions (alat units)
         1           Zn  tau(   1) = (   0.5000000   0.2886751   0.7758739  )
         2           Zn  tau(   2) = (   0.0000000   0.5773503   0.0009819  )
         3           O   tau(   3) = (   0.5000000   0.2886751   1.3633085  )
         4           O   tau(   4) = (   0.0000000   0.5773503   0.5884164  )
         5           Zn  tau(   5) = (   0.0000000   1.1547005   0.7758739  )
         6           Zn  tau(   6) = (  -0.5000000   1.4433757   0.0009819  )
         7           O   tau(   7) = (   0.0000000   1.1547005   1.3633085  )
         8           O   tau(   8) = (  -0.5000000   1.4433757   0.5884164  )

   Crystallographic axes

     site n.     atom                  positions (cryst. coord.)
         1           Zn  tau(   1) = (  0.6666667  0.1666667  0.5006336  )
         2           Zn  tau(   2) = (  0.3333333  0.3333333  0.0006336  )
         3           O   tau(   3) = (  0.6666667  0.1666667  0.8796764  )
         4           O   tau(   4) = (  0.3333333  0.3333333  0.3796764  )
         5           Zn  tau(   5) = (  0.6666667  0.6666667  0.5006336  )
         6           Zn  tau(   6) = (  0.3333333  0.8333333  0.0006336  )
         7           O   tau(   7) = (  0.6666667  0.6666667  0.8796764  )
         8           O   tau(   8) = (  0.3333333  0.8333333  0.3796764  )

     number of k points=    80
                       cart. coord. in units 2pi/alat
        k(    1) = (   0.0000000   0.0000000   0.0000000), wk =   0.0092593
        k(    2) = (   0.0000000   0.0000000   0.1075419), wk =   0.0185185
        k(    3) = (   0.0000000   0.0000000   0.2150837), wk =   0.0185185
        k(    4) = (   0.0000000   0.0000000  -0.3226256), wk =   0.0092593
        k(    5) = (   0.0000000   0.0962250   0.0000000), wk =   0.0185185
        k(    6) = (   0.0000000   0.0962250   0.1075419), wk =   0.0185185
        k(    7) = (   0.0000000   0.0962250   0.2150837), wk =   0.0185185
        k(    8) = (   0.0000000   0.0962250  -0.3226256), wk =   0.0185185
        k(    9) = (   0.0000000   0.1924501   0.0000000), wk =   0.0185185
        k(   10) = (   0.0000000   0.1924501   0.1075419), wk =   0.0185185
        k(   11) = (   0.0000000   0.1924501   0.2150837), wk =   0.0185185
        k(   12) = (   0.0000000   0.1924501  -0.3226256), wk =   0.0185185
        k(   13) = (   0.0000000  -0.2886751   0.0000000), wk =   0.0092593
        k(   14) = (   0.0000000  -0.2886751   0.1075419), wk =   0.0185185
        k(   15) = (   0.0000000  -0.2886751   0.2150837), wk =   0.0185185
        k(   16) = (   0.0000000  -0.2886751  -0.3226256), wk =   0.0092593
        k(   17) = (   0.1666667   0.0962250   0.0000000), wk =   0.0370370
        k(   18) = (   0.1666667   0.0962250   0.1075419), wk =   0.0370370
        k(   19) = (   0.1666667   0.0962250   0.2150837), wk =   0.0370370
        k(   20) = (   0.1666667   0.0962250  -0.3226256), wk =   0.0370370
        k(   21) = (   0.1666667   0.1924501   0.0000000), wk =   0.0370370
        k(   22) = (   0.1666667   0.1924501   0.1075419), wk =   0.0370370
        k(   23) = (   0.1666667   0.1924501   0.2150837), wk =   0.0370370
        k(   24) = (   0.1666667   0.1924501  -0.3226256), wk =   0.0370370
        k(   25) = (   0.1666667   0.2886751   0.0000000), wk =   0.0185185
        k(   26) = (   0.1666667   0.2886751   0.1075419), wk =   0.0370370
        k(   27) = (   0.1666667   0.2886751   0.2150837), wk =   0.0370370
        k(   28) = (   0.1666667   0.2886751  -0.3226256), wk =   0.0185185
        k(   29) = (   0.1666667   0.0000000   0.0000000), wk =   0.0185185
        k(   30) = (   0.1666667   0.0000000   0.1075419), wk =   0.0370370
        k(   31) = (   0.1666667   0.0000000   0.2150837), wk =   0.0370370
        k(   32) = (   0.1666667   0.0000000  -0.3226256), wk =   0.0185185
        k(   33) = (   0.3333333   0.1924501   0.0000000), wk =   0.0370370
        k(   34) = (   0.3333333   0.1924501   0.1075419), wk =   0.0370370
        k(   35) = (   0.3333333   0.1924501   0.2150837), wk =   0.0370370
        k(   36) = (   0.3333333   0.1924501  -0.3226256), wk =   0.0370370
        k(   37) = (   0.3333333   0.2886751   0.0000000), wk =   0.0185185
        k(   38) = (   0.3333333   0.2886751   0.1075419), wk =   0.0370370
        k(   39) = (   0.3333333   0.2886751   0.2150837), wk =   0.0370370
        k(   40) = (   0.3333333   0.2886751  -0.3226256), wk =   0.0185185
        k(   41) = (   0.3333333  -0.0962250   0.0000000), wk =   0.0370370
        k(   42) = (   0.3333333  -0.0962250   0.1075419), wk =   0.0370370
        k(   43) = (   0.3333333  -0.0962250   0.2150837), wk =   0.0370370
        k(   44) = (   0.3333333  -0.0962250  -0.3226256), wk =   0.0370370
        k(   45) = (   0.3333333  -0.0000000   0.0000000), wk =   0.0185185
        k(   46) = (   0.3333333  -0.0000000   0.1075419), wk =   0.0370370
        k(   47) = (   0.3333333  -0.0000000   0.2150837), wk =   0.0370370
        k(   48) = (   0.3333333  -0.0000000  -0.3226256), wk =   0.0185185
        k(   49) = (  -0.5000000  -0.2886751   0.0000000), wk =   0.0092593
        k(   50) = (  -0.5000000  -0.2886751   0.1075419), wk =   0.0185185
        k(   51) = (  -0.5000000  -0.2886751   0.2150837), wk =   0.0185185
        k(   52) = (  -0.5000000  -0.2886751  -0.3226256), wk =   0.0092593
        k(   53) = (  -0.5000000  -0.1924501   0.0000000), wk =   0.0185185
        k(   54) = (  -0.5000000  -0.1924501   0.1075419), wk =   0.0185185
        k(   55) = (  -0.5000000  -0.1924501   0.2150837), wk =   0.0185185
        k(   56) = (  -0.5000000  -0.1924501  -0.3226256), wk =   0.0185185
        k(   57) = (  -0.5000000  -0.0962250   0.0000000), wk =   0.0185185
        k(   58) = (  -0.5000000  -0.0962250   0.1075419), wk =   0.0185185
        k(   59) = (  -0.5000000  -0.0962250   0.2150837), wk =   0.0185185
        k(   60) = (  -0.5000000  -0.0962250  -0.3226256), wk =   0.0185185
[...]
        k(   66) = (   0.0000000   0.0962250  -0.2150837), wk =   0.0185185
        k(   67) = (   0.0000000   0.1924501  -0.1075419), wk =   0.0185185
        k(   68) = (   0.0000000   0.1924501  -0.2150837), wk =   0.0185185
        k(   69) = (  -0.1666667   0.0962250  -0.1075419), wk =   0.0370370
        k(   70) = (  -0.1666667   0.0962250  -0.2150837), wk =   0.0370370
        k(   71) = (  -0.1666667   0.1924501  -0.1075419), wk =   0.0370370
        k(   72) = (  -0.1666667   0.1924501  -0.2150837), wk =   0.0370370
        k(   73) = (  -0.3333333   0.1924501  -0.1075419), wk =   0.0370370
        k(   74) = (  -0.3333333   0.1924501  -0.2150837), wk =   0.0370370
        k(   75) = (  -0.3333333  -0.0962250  -0.1075419), wk =   0.0370370
        k(   76) = (  -0.3333333  -0.0962250  -0.2150837), wk =   0.0370370
        k(   77) = (   0.5000000  -0.1924501  -0.1075419), wk =   0.0185185
        k(   78) = (   0.5000000  -0.1924501  -0.2150837), wk =   0.0185185
        k(   79) = (   0.5000000  -0.0962250  -0.1075419), wk =   0.0185185
        k(   80) = (   0.5000000  -0.0962250  -0.2150837), wk =   0.0185185

                       cryst. coord.
        k(    1) = (   0.0000000   0.0000000   0.0000000), wk =   0.0092593
        k(    2) = (   0.0000000   0.0000000   0.1666667), wk =   0.0185185
        k(    3) = (   0.0000000   0.0000000   0.3333333), wk =   0.0185185
        k(    4) = (   0.0000000   0.0000000  -0.5000000), wk =   0.0092593
        k(    5) = (   0.0000000   0.1666667   0.0000000), wk =   0.0185185
        k(    6) = (   0.0000000   0.1666667   0.1666667), wk =   0.0185185
        k(    7) = (   0.0000000   0.1666667   0.3333333), wk =   0.0185185
        k(    8) = (   0.0000000   0.1666667  -0.5000000), wk =   0.0185185
        k(    9) = (   0.0000000   0.3333333   0.0000000), wk =   0.0185185
        k(   10) = (   0.0000000   0.3333333   0.1666667), wk =   0.0185185
        k(   11) = (   0.0000000   0.3333333   0.3333333), wk =   0.0185185
        k(   12) = (   0.0000000   0.3333333  -0.5000000), wk =   0.0185185
        k(   13) = (   0.0000000  -0.5000000   0.0000000), wk =   0.0092593
        k(   14) = (   0.0000000  -0.5000000   0.1666667), wk =   0.0185185
        k(   15) = (   0.0000000  -0.5000000   0.3333333), wk =   0.0185185
        k(   16) = (   0.0000000  -0.5000000  -0.5000000), wk =   0.0092593
        k(   17) = (   0.1666667   0.0000000   0.0000000), wk =   0.0370370
        k(   18) = (   0.1666667   0.0000000   0.1666667), wk =   0.0370370
        k(   19) = (   0.1666667   0.0000000   0.3333333), wk =   0.0370370
        k(   20) = (   0.1666667   0.0000000  -0.5000000), wk =   0.0370370
        k(   21) = (   0.1666667   0.1666667   0.0000000), wk =   0.0370370
        k(   22) = (   0.1666667   0.1666667   0.1666667), wk =   0.0370370
        k(   23) = (   0.1666667   0.1666667   0.3333333), wk =   0.0370370
        k(   24) = (   0.1666667   0.1666667  -0.5000000), wk =   0.0370370
        k(   25) = (   0.1666667   0.3333333   0.0000000), wk =   0.0185185
        k(   26) = (   0.1666667   0.3333333   0.1666667), wk =   0.0370370
        k(   27) = (   0.1666667   0.3333333   0.3333333), wk =   0.0370370
        k(   28) = (   0.1666667   0.3333333  -0.5000000), wk =   0.0185185
        k(   29) = (   0.1666667  -0.1666667   0.0000000), wk =   0.0185185
        k(   30) = (   0.1666667  -0.1666667   0.1666667), wk =   0.0370370
        k(   31) = (   0.1666667  -0.1666667   0.3333333), wk =   0.0370370
        k(   32) = (   0.1666667  -0.1666667  -0.5000000), wk =   0.0185185
        k(   33) = (   0.3333333   0.0000000   0.0000000), wk =   0.0370370
        k(   34) = (   0.3333333   0.0000000   0.1666667), wk =   0.0370370
        k(   35) = (   0.3333333   0.0000000   0.3333333), wk =   0.0370370
        k(   36) = (   0.3333333   0.0000000  -0.5000000), wk =   0.0370370
        k(   37) = (   0.3333333   0.1666667   0.0000000), wk =   0.0185185
        k(   38) = (   0.3333333   0.1666667   0.1666667), wk =   0.0370370
        k(   39) = (   0.3333333   0.1666667   0.3333333), wk =   0.0370370
        k(   40) = (   0.3333333   0.1666667  -0.5000000), wk =   0.0185185
        k(   41) = (   0.3333333  -0.5000000   0.0000000), wk =   0.0370370
        k(   42) = (   0.3333333  -0.5000000   0.1666667), wk =   0.0370370
        k(   43) = (   0.3333333  -0.5000000   0.3333333), wk =   0.0370370
        k(   44) = (   0.3333333  -0.5000000  -0.5000000), wk =   0.0370370
        k(   45) = (   0.3333333  -0.3333333   0.0000000), wk =   0.0185185
        k(   46) = (   0.3333333  -0.3333333   0.1666667), wk =   0.0370370
        k(   47) = (   0.3333333  -0.3333333   0.3333333), wk =   0.0370370
        k(   48) = (   0.3333333  -0.3333333  -0.5000000), wk =   0.0185185
        k(   49) = (  -0.5000000   0.0000000   0.0000000), wk =   0.0092593
        k(   50) = (  -0.5000000   0.0000000   0.1666667), wk =   0.0185185
        k(   51) = (  -0.5000000   0.0000000   0.3333333), wk =   0.0185185
        k(   52) = (  -0.5000000   0.0000000  -0.5000000), wk =   0.0092593
        k(   53) = (  -0.5000000   0.1666667   0.0000000), wk =   0.0185185
        k(   54) = (  -0.5000000   0.1666667   0.1666667), wk =   0.0185185
        k(   55) = (  -0.5000000   0.1666667   0.3333333), wk =   0.0185185
        k(   56) = (  -0.5000000   0.1666667  -0.5000000), wk =   0.0185185
        k(   57) = (  -0.5000000   0.3333333   0.0000000), wk =   0.0185185
        k(   58) = (  -0.5000000   0.3333333   0.1666667), wk =   0.0185185
        k(   59) = (  -0.5000000   0.3333333   0.3333333), wk =   0.0185185
        k(   60) = (  -0.5000000   0.3333333  -0.5000000), wk =   0.0185185
[...]
        k(   66) = (   0.0000000   0.1666667  -0.3333333), wk =   0.0185185
        k(   67) = (   0.0000000   0.3333333  -0.1666667), wk =   0.0185185
        k(   68) = (   0.0000000   0.3333333  -0.3333333), wk =   0.0185185
        k(   69) = (  -0.1666667   0.3333333  -0.1666667), wk =   0.0370370
        k(   70) = (  -0.1666667   0.3333333  -0.3333333), wk =   0.0370370
        k(   71) = (  -0.1666667   0.5000000  -0.1666667), wk =   0.0370370
        k(   72) = (  -0.1666667   0.5000000  -0.3333333), wk =   0.0370370
        k(   73) = (  -0.3333333   0.6666667  -0.1666667), wk =   0.0370370
        k(   74) = (  -0.3333333   0.6666667  -0.3333333), wk =   0.0370370
        k(   75) = (  -0.3333333   0.1666667  -0.1666667), wk =   0.0370370
        k(   76) = (  -0.3333333   0.1666667  -0.3333333), wk =   0.0370370
        k(   77) = (   0.5000000  -0.8333333  -0.1666667), wk =   0.0185185
        k(   78) = (   0.5000000  -0.8333333  -0.3333333), wk =   0.0185185
        k(   79) = (   0.5000000  -0.6666667  -0.1666667), wk =   0.0185185
        k(   80) = (   0.5000000  -0.6666667  -0.3333333), wk =   0.0185185

     Check: negative core charge=   -0.000002

     Initial potential from superposition of free atoms

     starting charge      71.9851, renormalised to      72.0000
     Starting wfcs are   52 randomized atomic wfcs

     Self-consistent Calculation

     iteration #  1     ecut=    50.00 Ry     beta= 0.30
     Davidson diagonalization with overlap

     ethr =  1.00E-02,  avg # of iterations =  1.6

     total energy              =    -722.87383195 Ry
     estimated scf accuracy    <       1.50291416 Ry

[...]

     c_bands:  1 eigenvalues not converged
     c_bands:  1 eigenvalues not converged
     ethr =  6.36E-09,  avg # of iterations = 13.0

[...]

     c_bands:  1 eigenvalues not converged
     ethr =  6.36E-09,  avg # of iterations = 14.1

[...]

     total energy              =    -723.22951890 Ry
     estimated scf accuracy    <       0.00000003 Ry

     iteration # 31     ecut=    50.00 Ry     beta= 0.30
     Davidson diagonalization with overlap

     ethr =  3.26E-11,  avg # of iterations =  2.0

     End of self-consistent calculation

          k = 0.0000 0.0000 0.0000 (  4509 PWs)   bands (ev):

   -11.8788 -11.4121 -11.3270 -11.2406  -0.0781   0.0063   0.0065   0.0105
     0.1667   0.1668   0.1703   0.2485   0.4475   0.5399   0.5902   0.5936
     0.7381   0.7382   0.7964   0.8603   0.9017   0.9018   0.9328   0.9770
     1.1246   1.5943   2.0961   2.7106   3.2094   4.0491   4.3400   4.3405
     4.4572   5.0468   5.0473   5.0659

     occupation numbers
     1.0000   1.0000   1.0000   1.0000   1.0000   1.0000   1.0000   1.0000
     1.0000   1.0000   1.0000   1.0000   1.0000   1.0000   1.0000   1.0000
     1.0000   1.0000   1.0000   1.0000   1.0000   1.0000   1.0000   1.0000
     1.0000   1.0000   1.0000   1.0000   1.0000   1.0000   1.0000   1.0000
     1.0000   1.0000   1.0000   1.0000

[...]

          k =-0.5000-0.2887 0.0000 (  4496 PWs)   bands (ev):

[...]

          k =-0.3333-0.0962-0.2151 (  4495 PWs)   bands (ev):

[...]

          k = 0.5000-0.0962-0.2151 (  4500 PWs)   bands (ev):

   -11.3669 -11.3669 -11.2773 -11.2772  -0.0785  -0.0785   0.0197   0.0197
     0.2174   0.2174   0.3570   0.3570   0.4390   0.4390   0.4601   0.4601
     0.8092   0.8092   0.8496   0.8496   0.9516   0.9516   1.0354   1.0354
     1.7253   1.7253   2.0157   2.0157   3.0659   3.0659   3.6700   3.6700
     3.8340   3.8340   4.3094   4.3094

     occupation numbers
     1.0000   1.0000   1.0000   1.0000   1.0000   1.0000   1.0000   1.0000
     1.0000   1.0000   1.0000   1.0000   1.0000   1.0000   1.0000   1.0000
     1.0000   1.0000   1.0000   1.0000   1.0000   1.0000   1.0000   1.0000
     1.0000   1.0000   1.0000   1.0000   1.0000   1.0000   1.0000   1.0000
     1.0000   1.0000   1.0000   1.0000

     highest occupied level (ev):     5.0659

!    total energy              =    -723.22951889 Ry
     estimated scf accuracy    <          6.0E-09 Ry

     The total energy is the sum of the following terms:
     one-electron contribution =    -339.84354339 Ry
     hartree contribution      =     247.75680788 Ry
     xc contribution           =    -218.58847672 Ry
     ewald contribution        =    -412.55430667 Ry

     convergence has been achieved in  31 iterations

     Forces acting on atoms (cartesian axes, Ry/au):

     atom    1 type  1   force =     0.00000000   -0.00000991   -0.00503262
     atom    2 type  1   force =     0.00000000    0.00000525   -0.00503068
     atom    3 type  2   force =     0.00000000    0.00000081    0.00503257
     atom    4 type  2   force =     0.00000000   -0.00000544    0.00502989
     atom    5 type  1   force =     0.00000000    0.00000338   -0.00503133
     atom    6 type  1   force =     0.00000000    0.00000098   -0.00502976
     atom    7 type  2   force =     0.00000000    0.00000329    0.00503111
     atom    8 type  2   force =     0.00000000    0.00000164    0.00503081
     The non-local contrib.  to forces
     atom    1 type  1   force =     0.00000000   -0.00000116   -0.11430739
     atom    2 type  1   force =     0.00000000    0.00000246   -0.11430960
     atom    3 type  2   force =     0.00000000    0.00021669   -0.09509674
     atom    4 type  2   force =     0.00000000   -0.00021292   -0.09509744
     atom    5 type  1   force =     0.00000000   -0.00000050   -0.11430959
     atom    6 type  1   force =     0.00000000   -0.00000174   -0.11430875
     atom    7 type  2   force =     0.00000000    0.00020784   -0.09509869
     atom    8 type  2   force =     0.00000000   -0.00021165   -0.09509574
     The ionic contribution  to forces
     atom    1 type  1   force =    -0.00000000    0.00000000   -0.71135625
     atom    2 type  1   force =     0.00000000   -0.00000000   -0.71135625
     atom    3 type  2   force =    -0.00000000    0.00000000    0.71135625
     atom    4 type  2   force =     0.00000000   -0.00000000    0.71135625
     atom    5 type  1   force =    -0.00000000    0.00000000   -0.71135625
     atom    6 type  1   force =     0.00000000   -0.00000000   -0.71135625
     atom    7 type  2   force =    -0.00000000    0.00000000    0.71135625
     atom    8 type  2   force =     0.00000000   -0.00000000    0.71135625
     The local contribution  to forces
     atom    1 type  1   force =    -0.00000009   -0.00000080    0.81308620
     atom    2 type  1   force =     0.00000000    0.00000186    0.81308897
     atom    3 type  2   force =    -0.00000002   -0.00020779   -0.61200591
     atom    4 type  2   force =    -0.00000000    0.00020588   -0.61200915
     atom    5 type  1   force =    -0.00000009   -0.00001393    0.81308682
     atom    6 type  1   force =     0.00000000    0.00001388    0.81308546
     atom    7 type  2   force =    -0.00000002   -0.00020702   -0.61200938
     atom    8 type  2   force =    -0.00000000    0.00020953   -0.61200759
     The core correction contribution to forces
     atom    1 type  1   force =    -0.00000001    0.00000512    0.00754423
     atom    2 type  1   force =    -0.00000000   -0.00000515    0.00754423
     atom    3 type  2   force =     0.00000000   -0.00000246    0.00078206
     atom    4 type  2   force =    -0.00000000    0.00000241    0.00078206
     atom    5 type  1   force =    -0.00000001    0.00000555    0.00754440
     atom    6 type  1   force =    -0.00000000   -0.00000549    0.00754435
     atom    7 type  2   force =     0.00000000   -0.00000234    0.00078208
     atom    8 type  2   force =    -0.00000000    0.00000240    0.00078205
     The Hubbard contrib.    to forces
     atom    1 type  1   force =     0.00000000    0.00000000    0.00000000
     atom    2 type  1   force =     0.00000000    0.00000000    0.00000000
     atom    3 type  2   force =     0.00000000    0.00000000    0.00000000
     atom    4 type  2   force =     0.00000000    0.00000000    0.00000000
     atom    5 type  1   force =     0.00000000    0.00000000    0.00000000
     atom    6 type  1   force =     0.00000000    0.00000000    0.00000000
     atom    7 type  2   force =     0.00000000    0.00000000    0.00000000
     atom    8 type  2   force =     0.00000000    0.00000000    0.00000000
     The SCF correction term to forces
     atom    1 type  1   force =    -0.00000000   -0.00001299    0.00000335
     atom    2 type  1   force =    -0.00000000    0.00000617    0.00000474
     atom    3 type  2   force =    -0.00000000   -0.00000554   -0.00000033
     atom    4 type  2   force =     0.00000000   -0.00000072    0.00000093
     atom    5 type  1   force =    -0.00000000    0.00001235    0.00000606
     atom    6 type  1   force =    -0.00000000   -0.00000557    0.00000820
     atom    7 type  2   force =    -0.00000000    0.00000491    0.00000362
     atom    8 type  2   force =     0.00000000    0.00000146   -0.00000139

     Total force =     0.014230     Total SCF correction =     0.000025

     General routines

     Parallel routines

   This run was terminated on:  23: 2: 3  26Aug2025

   JOB DONE.