     Program PWSCF v.7.0 starts on 26Aug2025 at 21: 5: 0

     K-points division:     npool     =       4
     band groups division:  nbgrp     =       4

     Reading input from /home/jvc/QEspresso7.2/ZnO_database/scripts/cell121.in/ZnO-3.34-1.71-121.in
Warning: card &CELL ignored
Warning: card / ignored
Warning: card &FCP ignored
Warning: card / ignored
Warning: card &RISM ignored
Warning: card / ignored

     Current dimensions of program PWSCF are:
     Max number of different atomic species (ntypx) = 10
     Max number of k-points (npk) =  40000
     Max angular momentum in pseudopotentials (lmaxx) =  4
     file Zn.upf: wavefunction(s)  3D renormalized
     Found identity + (  0.0000 -0.5000  0.0000) symmetry
     This is a supercell, fractional translations are disabled
     Message from routine setup:
     using ibrav=0 with symmetry is DISCOURAGED, use correct ibrav instead

     Subspace diagonalization in iterative solution of the eigenvalue problem:
     a serial algorithm will be used

     Using Slab Decomposition

     bravais-lattice index     =            0
     lattice parameter (alat)  =       6.3024  a.u.
     unit-cell volume          =     741.9775 (a.u.)^3
     number of atoms/cell      =            8
     number of atomic types    =            2
     number of electrons       =        72.00
     number of Kohn-Sham states=           36
     kinetic-energy cutoff     =      50.0000  Ry
     charge density cutoff     =     400.0000  Ry
     scf convergence threshold =      1.0E-08
     mixing beta               =       0.3000
     number of iterations used =            8  plain     mixing
     Exchange-correlation= PBE
                           (   1   4   3   4   0   0   0)

     celldm(1)=   6.302431  celldm(2)=   0.000000  celldm(3)=   0.000000
     celldm(4)=   0.000000  celldm(5)=   0.000000  celldm(6)=   0.000000

     crystal axes: (cart. coord. in units of alat)
               a(1) = (   1.000000   0.000000   0.000000 )
               a(2) = (  -1.000000   1.732051   0.000000 )
               a(3) = (   0.000000   0.000000   1.711220 )

     reciprocal axes: (cart. coord. in units 2 pi/alat)
               b(1) = (  1.000000  0.577350 -0.000000 )
               b(2) = (  0.000000  0.577350  0.000000 )
               b(3) = (  0.000000 -0.000000  0.584378 )

     PseudoPot. # 1 for Zn read from file:
     /home/jvc/QEspresso7.2/ZnO_database/pseudos/Zn.upf
     MD5 check sum: 7f56cabf9682ed8c977c2f7d0c5985c5
     Pseudo is Ultrasoft + core correction, Zval = 12.0
     Generated using &quot;atomic&quot; code by A. Dal Corso  v.6.2.2
     Using radial grid of 1201 points,  6 beta functions with:
                l(1) =   0
                l(2) =   0
                l(3) =   1
                l(4) =   1
                l(5) =   2
                l(6) =   2
     Q(r) pseudized with 0 coefficients

     PseudoPot. # 2 for O  read from file:
     /home/jvc/QEspresso7.2/ZnO_database/pseudos/O.upf
     MD5 check sum: 91400c9766925bcf19f520983a725ff0
     Pseudo is Ultrasoft + core correction, Zval =  6.0
     Generated using &quot;atomic&quot; code by A. Dal Corso  v.6.3MaX
     Using radial grid of 1095 points,  4 beta functions with:
                l(1) =   0
                l(2) =   0
                l(3) =   1
                l(4) =   1
     Q(r) pseudized with 0 coefficients

     atomic species   valence    mass     pseudopotential
        Zn            12.00    65.38000     Zn( 1.00)
        O              6.00    15.99900     O ( 1.00)

      2 Sym. Ops. (no inversion) found

                                    s                        frac. trans.

      isym =  1     identity

 cryst.   s( 1) = (     1          0          0      )
                  (     0          1          0      )
                  (     0          0          1      )

 cart.    s( 1) = (  1.0000000  0.0000000  0.0000000 )
                  (  0.0000000  1.0000000  0.0000000 )
                  (  0.0000000  0.0000000  1.0000000 )

      isym =  2     inv. 180 deg rotation - cart. axis [1,0,0]

 cryst.   s( 2) = (    -1          0          0      )
                  (     2          1          0      )
                  (     0          0          1      )

 cart.    s( 2) = ( -1.0000000  0.0000000  0.0000000 )
                  (  0.0000000  1.0000000  0.0000000 )
                  (  0.0000000  0.0000000  1.0000000 )

   Cartesian axes

     site n.     atom                  positions (alat units)
         1           Zn  tau(   1) = (   0.5000000   0.2886751   0.8566941  )
         2           Zn  tau(   2) = (   0.0000000   0.5773503   0.0010842  )
         3           O   tau(   3) = (   0.5000000   0.2886751   1.5053197  )
         4           O   tau(   4) = (   0.0000000   0.5773503   0.6497098  )
         5           Zn  tau(   5) = (   0.0000000   1.1547005   0.8566941  )
         6           Zn  tau(   6) = (  -0.5000000   1.4433757   0.0010842  )
         7           O   tau(   7) = (   0.0000000   1.1547005   1.5053197  )
         8           O   tau(   8) = (  -0.5000000   1.4433757   0.6497098  )

   Crystallographic axes

     site n.     atom                  positions (cryst. coord.)
         1           Zn  tau(   1) = (  0.6666667  0.1666667  0.5006336  )
         2           Zn  tau(   2) = (  0.3333333  0.3333333  0.0006336  )
         3           O   tau(   3) = (  0.6666667  0.1666667  0.8796764  )
         4           O   tau(   4) = (  0.3333333  0.3333333  0.3796764  )
         5           Zn  tau(   5) = (  0.6666667  0.6666667  0.5006336  )
         6           Zn  tau(   6) = (  0.3333333  0.8333333  0.0006336  )
         7           O   tau(   7) = (  0.6666667  0.6666667  0.8796764  )
         8           O   tau(   8) = (  0.3333333  0.8333333  0.3796764  )

     number of k points=    80
                       cart. coord. in units 2pi/alat
        k(    1) = (   0.0000000   0.0000000   0.0000000), wk =   0.0092593
        k(    2) = (   0.0000000   0.0000000   0.0973964), wk =   0.0185185
        k(    3) = (   0.0000000   0.0000000   0.1947928), wk =   0.0185185
        k(    4) = (   0.0000000   0.0000000  -0.2921892), wk =   0.0092593
        k(    5) = (   0.0000000   0.0962250   0.0000000), wk =   0.0185185
        k(    6) = (   0.0000000   0.0962250   0.0973964), wk =   0.0185185
        k(    7) = (   0.0000000   0.0962250   0.1947928), wk =   0.0185185
        k(    8) = (   0.0000000   0.0962250  -0.2921892), wk =   0.0185185
        k(    9) = (   0.0000000   0.1924501   0.0000000), wk =   0.0185185
        k(   10) = (   0.0000000   0.1924501   0.0973964), wk =   0.0185185
        k(   11) = (   0.0000000   0.1924501   0.1947928), wk =   0.0185185
        k(   12) = (   0.0000000   0.1924501  -0.2921892), wk =   0.0185185
        k(   13) = (   0.0000000  -0.2886751   0.0000000), wk =   0.0092593
        k(   14) = (   0.0000000  -0.2886751   0.0973964), wk =   0.0185185
        k(   15) = (   0.0000000  -0.2886751   0.1947928), wk =   0.0185185
        k(   16) = (   0.0000000  -0.2886751  -0.2921892), wk =   0.0092593
        k(   17) = (   0.1666667   0.0962250   0.0000000), wk =   0.0370370
        k(   18) = (   0.1666667   0.0962250   0.0973964), wk =   0.0370370
        k(   19) = (   0.1666667   0.0962250   0.1947928), wk =   0.0370370
        k(   20) = (   0.1666667   0.0962250  -0.2921892), wk =   0.0370370
        k(   21) = (   0.1666667   0.1924501   0.0000000), wk =   0.0370370
        k(   22) = (   0.1666667   0.1924501   0.0973964), wk =   0.0370370
        k(   23) = (   0.1666667   0.1924501   0.1947928), wk =   0.0370370
        k(   24) = (   0.1666667   0.1924501  -0.2921892), wk =   0.0370370
        k(   25) = (   0.1666667   0.2886751   0.0000000), wk =   0.0185185
        k(   26) = (   0.1666667   0.2886751   0.0973964), wk =   0.0370370
        k(   27) = (   0.1666667   0.2886751   0.1947928), wk =   0.0370370
        k(   28) = (   0.1666667   0.2886751  -0.2921892), wk =   0.0185185
        k(   29) = (   0.1666667   0.0000000   0.0000000), wk =   0.0185185
        k(   30) = (   0.1666667   0.0000000   0.0973964), wk =   0.0370370
        k(   31) = (   0.1666667   0.0000000   0.1947928), wk =   0.0370370
        k(   32) = (   0.1666667   0.0000000  -0.2921892), wk =   0.0185185
        k(   33) = (   0.3333333   0.1924501   0.0000000), wk =   0.0370370
        k(   34) = (   0.3333333   0.1924501   0.0973964), wk =   0.0370370
        k(   35) = (   0.3333333   0.1924501   0.1947928), wk =   0.0370370
        k(   36) = (   0.3333333   0.1924501  -0.2921892), wk =   0.0370370
        k(   37) = (   0.3333333   0.2886751   0.0000000), wk =   0.0185185
        k(   38) = (   0.3333333   0.2886751   0.0973964), wk =   0.0370370
        k(   39) = (   0.3333333   0.2886751   0.1947928), wk =   0.0370370
        k(   40) = (   0.3333333   0.2886751  -0.2921892), wk =   0.0185185
        k(   41) = (   0.3333333  -0.0962250   0.0000000), wk =   0.0370370
        k(   42) = (   0.3333333  -0.0962250   0.0973964), wk =   0.0370370
        k(   43) = (   0.3333333  -0.0962250   0.1947928), wk =   0.0370370
        k(   44) = (   0.3333333  -0.0962250  -0.2921892), wk =   0.0370370
        k(   45) = (   0.3333333  -0.0000000   0.0000000), wk =   0.0185185
        k(   46) = (   0.3333333  -0.0000000   0.0973964), wk =   0.0370370
        k(   47) = (   0.3333333  -0.0000000   0.1947928), wk =   0.0370370
        k(   48) = (   0.3333333  -0.0000000  -0.2921892), wk =   0.0185185
        k(   49) = (  -0.5000000  -0.2886751   0.0000000), wk =   0.0092593
        k(   50) = (  -0.5000000  -0.2886751   0.0973964), wk =   0.0185185
        k(   51) = (  -0.5000000  -0.2886751   0.1947928), wk =   0.0185185
        k(   52) = (  -0.5000000  -0.2886751  -0.2921892), wk =   0.0092593
        k(   53) = (  -0.5000000  -0.1924501   0.0000000), wk =   0.0185185
        k(   54) = (  -0.5000000  -0.1924501   0.0973964), wk =   0.0185185
        k(   55) = (  -0.5000000  -0.1924501   0.1947928), wk =   0.0185185
        k(   56) = (  -0.5000000  -0.1924501  -0.2921892), wk =   0.0185185
        k(   57) = (  -0.5000000  -0.0962250   0.0000000), wk =   0.0185185
        k(   58) = (  -0.5000000  -0.0962250   0.0973964), wk =   0.0185185
        k(   59) = (  -0.5000000  -0.0962250   0.1947928), wk =   0.0185185
        k(   60) = (  -0.5000000  -0.0962250  -0.2921892), wk =   0.0185185
[...]
        k(   66) = (   0.0000000   0.0962250  -0.1947928), wk =   0.0185185
        k(   67) = (   0.0000000   0.1924501  -0.0973964), wk =   0.0185185
        k(   68) = (   0.0000000   0.1924501  -0.1947928), wk =   0.0185185
        k(   69) = (  -0.1666667   0.0962250  -0.0973964), wk =   0.0370370
        k(   70) = (  -0.1666667   0.0962250  -0.1947928), wk =   0.0370370
        k(   71) = (  -0.1666667   0.1924501  -0.0973964), wk =   0.0370370
        k(   72) = (  -0.1666667   0.1924501  -0.1947928), wk =   0.0370370
        k(   73) = (  -0.3333333   0.1924501  -0.0973964), wk =   0.0370370
        k(   74) = (  -0.3333333   0.1924501  -0.1947928), wk =   0.0370370
        k(   75) = (  -0.3333333  -0.0962250  -0.0973964), wk =   0.0370370
        k(   76) = (  -0.3333333  -0.0962250  -0.1947928), wk =   0.0370370
        k(   77) = (   0.5000000  -0.1924501  -0.0973964), wk =   0.0185185
        k(   78) = (   0.5000000  -0.1924501  -0.1947928), wk =   0.0185185
        k(   79) = (   0.5000000  -0.0962250  -0.0973964), wk =   0.0185185
        k(   80) = (   0.5000000  -0.0962250  -0.1947928), wk =   0.0185185

                       cryst. coord.
        k(    1) = (   0.0000000   0.0000000   0.0000000), wk =   0.0092593
        k(    2) = (   0.0000000   0.0000000   0.1666667), wk =   0.0185185
        k(    3) = (   0.0000000   0.0000000   0.3333333), wk =   0.0185185
        k(    4) = (   0.0000000   0.0000000  -0.5000000), wk =   0.0092593
        k(    5) = (   0.0000000   0.1666667   0.0000000), wk =   0.0185185
        k(    6) = (   0.0000000   0.1666667   0.1666667), wk =   0.0185185
        k(    7) = (   0.0000000   0.1666667   0.3333333), wk =   0.0185185
        k(    8) = (   0.0000000   0.1666667  -0.5000000), wk =   0.0185185
        k(    9) = (   0.0000000   0.3333333   0.0000000), wk =   0.0185185
        k(   10) = (   0.0000000   0.3333333   0.1666667), wk =   0.0185185
        k(   11) = (   0.0000000   0.3333333   0.3333333), wk =   0.0185185
        k(   12) = (   0.0000000   0.3333333  -0.5000000), wk =   0.0185185
        k(   13) = (   0.0000000  -0.5000000   0.0000000), wk =   0.0092593
        k(   14) = (   0.0000000  -0.5000000   0.1666667), wk =   0.0185185
        k(   15) = (   0.0000000  -0.5000000   0.3333333), wk =   0.0185185
        k(   16) = (   0.0000000  -0.5000000  -0.5000000), wk =   0.0092593
        k(   17) = (   0.1666667   0.0000000   0.0000000), wk =   0.0370370
        k(   18) = (   0.1666667   0.0000000   0.1666667), wk =   0.0370370
        k(   19) = (   0.1666667   0.0000000   0.3333333), wk =   0.0370370
        k(   20) = (   0.1666667   0.0000000  -0.5000000), wk =   0.0370370
        k(   21) = (   0.1666667   0.1666667   0.0000000), wk =   0.0370370
        k(   22) = (   0.1666667   0.1666667   0.1666667), wk =   0.0370370
        k(   23) = (   0.1666667   0.1666667   0.3333333), wk =   0.0370370
        k(   24) = (   0.1666667   0.1666667  -0.5000000), wk =   0.0370370
        k(   25) = (   0.1666667   0.3333333   0.0000000), wk =   0.0185185
        k(   26) = (   0.1666667   0.3333333   0.1666667), wk =   0.0370370
        k(   27) = (   0.1666667   0.3333333   0.3333333), wk =   0.0370370
        k(   28) = (   0.1666667   0.3333333  -0.5000000), wk =   0.0185185
        k(   29) = (   0.1666667  -0.1666667   0.0000000), wk =   0.0185185
        k(   30) = (   0.1666667  -0.1666667   0.1666667), wk =   0.0370370
        k(   31) = (   0.1666667  -0.1666667   0.3333333), wk =   0.0370370
        k(   32) = (   0.1666667  -0.1666667  -0.5000000), wk =   0.0185185
        k(   33) = (   0.3333333   0.0000000   0.0000000), wk =   0.0370370
        k(   34) = (   0.3333333   0.0000000   0.1666667), wk =   0.0370370
        k(   35) = (   0.3333333   0.0000000   0.3333333), wk =   0.0370370
        k(   36) = (   0.3333333   0.0000000  -0.5000000), wk =   0.0370370
        k(   37) = (   0.3333333   0.1666667   0.0000000), wk =   0.0185185
        k(   38) = (   0.3333333   0.1666667   0.1666667), wk =   0.0370370
        k(   39) = (   0.3333333   0.1666667   0.3333333), wk =   0.0370370
        k(   40) = (   0.3333333   0.1666667  -0.5000000), wk =   0.0185185
        k(   41) = (   0.3333333  -0.5000000   0.0000000), wk =   0.0370370
        k(   42) = (   0.3333333  -0.5000000   0.1666667), wk =   0.0370370
        k(   43) = (   0.3333333  -0.5000000   0.3333333), wk =   0.0370370
        k(   44) = (   0.3333333  -0.5000000  -0.5000000), wk =   0.0370370
        k(   45) = (   0.3333333  -0.3333333   0.0000000), wk =   0.0185185
        k(   46) = (   0.3333333  -0.3333333   0.1666667), wk =   0.0370370
        k(   47) = (   0.3333333  -0.3333333   0.3333333), wk =   0.0370370
        k(   48) = (   0.3333333  -0.3333333  -0.5000000), wk =   0.0185185
        k(   49) = (  -0.5000000   0.0000000   0.0000000), wk =   0.0092593
        k(   50) = (  -0.5000000   0.0000000   0.1666667), wk =   0.0185185
        k(   51) = (  -0.5000000   0.0000000   0.3333333), wk =   0.0185185
        k(   52) = (  -0.5000000   0.0000000  -0.5000000), wk =   0.0092593
        k(   53) = (  -0.5000000   0.1666667   0.0000000), wk =   0.0185185
        k(   54) = (  -0.5000000   0.1666667   0.1666667), wk =   0.0185185
        k(   55) = (  -0.5000000   0.1666667   0.3333333), wk =   0.0185185
        k(   56) = (  -0.5000000   0.1666667  -0.5000000), wk =   0.0185185
        k(   57) = (  -0.5000000   0.3333333   0.0000000), wk =   0.0185185
        k(   58) = (  -0.5000000   0.3333333   0.1666667), wk =   0.0185185
        k(   59) = (  -0.5000000   0.3333333   0.3333333), wk =   0.0185185
        k(   60) = (  -0.5000000   0.3333333  -0.5000000), wk =   0.0185185
[...]
        k(   66) = (   0.0000000   0.1666667  -0.3333333), wk =   0.0185185
        k(   67) = (   0.0000000   0.3333333  -0.1666667), wk =   0.0185185
        k(   68) = (   0.0000000   0.3333333  -0.3333333), wk =   0.0185185
        k(   69) = (  -0.1666667   0.3333333  -0.1666667), wk =   0.0370370
        k(   70) = (  -0.1666667   0.3333333  -0.3333333), wk =   0.0370370
        k(   71) = (  -0.1666667   0.5000000  -0.1666667), wk =   0.0370370
        k(   72) = (  -0.1666667   0.5000000  -0.3333333), wk =   0.0370370
        k(   73) = (  -0.3333333   0.6666667  -0.1666667), wk =   0.0370370
        k(   74) = (  -0.3333333   0.6666667  -0.3333333), wk =   0.0370370
        k(   75) = (  -0.3333333   0.1666667  -0.1666667), wk =   0.0370370
        k(   76) = (  -0.3333333   0.1666667  -0.3333333), wk =   0.0370370
        k(   77) = (   0.5000000  -0.8333333  -0.1666667), wk =   0.0185185
        k(   78) = (   0.5000000  -0.8333333  -0.3333333), wk =   0.0185185
        k(   79) = (   0.5000000  -0.6666667  -0.1666667), wk =   0.0185185
        k(   80) = (   0.5000000  -0.6666667  -0.3333333), wk =   0.0185185

     Check: negative core charge=   -0.000002

     Initial potential from superposition of free atoms

     starting charge      71.9851, renormalised to      72.0000
     Starting wfcs are   52 randomized atomic wfcs

     Self-consistent Calculation

     iteration #  1     ecut=    50.00 Ry     beta= 0.30
     Davidson diagonalization with overlap

     ethr =  1.00E-02,  avg # of iterations =  1.7

     total energy              =    -722.88642271 Ry
     estimated scf accuracy    <       1.48759432 Ry

[...]

     c_bands:  1 eigenvalues not converged
     c_bands:  1 eigenvalues not converged
     ethr =  6.27E-11,  avg # of iterations = 12.6

[...]

     c_bands:  1 eigenvalues not converged
     ethr =  6.27E-11,  avg # of iterations = 13.3

[...]

     total energy              =    -723.23596911 Ry
     estimated scf accuracy    <       0.00000003 Ry

     iteration # 38     ecut=    50.00 Ry     beta= 0.30
     Davidson diagonalization with overlap

     ethr =  4.07E-11,  avg # of iterations =  1.9

     End of self-consistent calculation

          k = 0.0000 0.0000 0.0000 (  4427 PWs)   bands (ev):

   -11.7866 -11.3337 -11.2635 -11.1264   0.0368   0.1110   0.1113   0.1634
     0.2346   0.2348   0.2420   0.3328   0.4703   0.6497   0.6812   0.8264
     0.9556   0.9556   1.0225   1.0768   1.0768   1.0798   1.1197   1.1845
     1.4468   1.6672   2.0797   2.9308   3.6395   4.1991   4.5924   4.8062
     4.8068   5.1349   5.3301   5.3306

     occupation numbers
     1.0000   1.0000   1.0000   1.0000   1.0000   1.0000   1.0000   1.0000
     1.0000   1.0000   1.0000   1.0000   1.0000   1.0000   1.0000   1.0000
     1.0000   1.0000   1.0000   1.0000   1.0000   1.0000   1.0000   1.0000
     1.0000   1.0000   1.0000   1.0000   1.0000   1.0000   1.0000   1.0000
     1.0000   1.0000   1.0000   1.0000

[...]

          k =-0.5000-0.2887 0.0000 (  4424 PWs)   bands (ev):

[...]

          k =-0.3333-0.0962-0.1948 (  4441 PWs)   bands (ev):

[...]

          k = 0.5000-0.0962-0.1948 (  4444 PWs)   bands (ev):

   -11.2305 -11.2305 -11.1581 -11.1581   0.0897   0.0897   0.1866   0.1866
     0.3844   0.3844   0.5524   0.5524   0.5971   0.5971   0.6395   0.6395
     0.9985   0.9985   1.0560   1.0560   1.1496   1.1496   1.2372   1.2372
     1.8775   1.8775   2.1453   2.1453   3.3153   3.3153   3.6904   3.6905
     3.9723   3.9723   4.3288   4.3288

     occupation numbers
     1.0000   1.0000   1.0000   1.0000   1.0000   1.0000   1.0000   1.0000
     1.0000   1.0000   1.0000   1.0000   1.0000   1.0000   1.0000   1.0000
     1.0000   1.0000   1.0000   1.0000   1.0000   1.0000   1.0000   1.0000
     1.0000   1.0000   1.0000   1.0000   1.0000   1.0000   1.0000   1.0000
     1.0000   1.0000   1.0000   1.0000

     highest occupied level (ev):     5.3306

!    total energy              =    -723.23596911 Ry
     estimated scf accuracy    <          9.2E-09 Ry

     The total energy is the sum of the following terms:
     one-electron contribution =    -335.98777265 Ry
     hartree contribution      =     246.29338799 Ry
     xc contribution           =    -218.64574178 Ry
     ewald contribution        =    -414.89584267 Ry

     convergence has been achieved in  38 iterations

     Forces acting on atoms (cartesian axes, Ry/au):

     atom    1 type  1   force =     0.00000000    0.00000167    0.00309766
     atom    2 type  1   force =     0.00000000   -0.00000343    0.00311472
     atom    3 type  2   force =     0.00000000    0.00000435   -0.00310488
     atom    4 type  2   force =     0.00000000   -0.00000394   -0.00310418
     atom    5 type  1   force =     0.00000000   -0.00000456    0.00308875
     atom    6 type  1   force =     0.00000000    0.00000489    0.00311534
     atom    7 type  2   force =     0.00000000    0.00000167   -0.00310717
     atom    8 type  2   force =     0.00000000   -0.00000063   -0.00310026
     The non-local contrib.  to forces
     atom    1 type  1   force =     0.00000000    0.00001240    0.14786811
     atom    2 type  1   force =     0.00000000   -0.00001184    0.14787561
     atom    3 type  2   force =     0.00000000    0.00022552    0.15490462
     atom    4 type  2   force =     0.00000000   -0.00022904    0.15491702
     atom    5 type  1   force =     0.00000000    0.00000907    0.14786454
     atom    6 type  1   force =     0.00000000   -0.00000902    0.14787587
     atom    7 type  2   force =     0.00000000    0.00022518    0.15490147
     atom    8 type  2   force =     0.00000000   -0.00022440    0.15492168
     The ionic contribution  to forces
     atom    1 type  1   force =    -0.00000000    0.00000000    1.17172274
     atom    2 type  1   force =     0.00000000   -0.00000000    1.17172274
     atom    3 type  2   force =    -0.00000000    0.00000000   -1.17172274
     atom    4 type  2   force =     0.00000000   -0.00000000   -1.17172274
     atom    5 type  1   force =    -0.00000000    0.00000000    1.17172274
     atom    6 type  1   force =     0.00000000   -0.00000000    1.17172274
     atom    7 type  2   force =    -0.00000000    0.00000000   -1.17172274
     atom    8 type  2   force =     0.00000000   -0.00000000   -1.17172274
     The local contribution  to forces
     atom    1 type  1   force =    -0.00000009   -0.00002232   -1.30687873
     atom    2 type  1   force =     0.00000000    0.00002438   -1.30689931
     atom    3 type  2   force =    -0.00000002   -0.00021646    1.01504240
     atom    4 type  2   force =     0.00000000    0.00021894    1.01505127
     atom    5 type  1   force =    -0.00000009   -0.00001445   -1.30686789
     atom    6 type  1   force =    -0.00000000    0.00001146   -1.30690106
     atom    7 type  2   force =    -0.00000002   -0.00021935    1.01504640
     atom    8 type  2   force =    -0.00000000    0.00022359    1.01505505
     The core correction contribution to forces
     atom    1 type  1   force =     0.00000002    0.00000820   -0.00958543
     atom    2 type  1   force =     0.00000005   -0.00000834   -0.00958566
     atom    3 type  2   force =    -0.00000000   -0.00000253   -0.00134435
     atom    4 type  2   force =    -0.00000000    0.00000261   -0.00134447
     atom    5 type  1   force =    -0.00000006    0.00000818   -0.00958555
     atom    6 type  1   force =    -0.00000003   -0.00000808   -0.00958549
     atom    7 type  2   force =     0.00000000   -0.00000257   -0.00134430
     atom    8 type  2   force =     0.00000000    0.00000254   -0.00134452
     The Hubbard contrib.    to forces
     atom    1 type  1   force =     0.00000000    0.00000000    0.00000000
     atom    2 type  1   force =     0.00000000    0.00000000    0.00000000
     atom    3 type  2   force =     0.00000000    0.00000000    0.00000000
     atom    4 type  2   force =     0.00000000    0.00000000    0.00000000
     atom    5 type  1   force =     0.00000000    0.00000000    0.00000000
     atom    6 type  1   force =     0.00000000    0.00000000    0.00000000
     atom    7 type  2   force =     0.00000000    0.00000000    0.00000000
     atom    8 type  2   force =     0.00000000    0.00000000    0.00000000
     The SCF correction term to forces
     atom    1 type  1   force =     0.00000000    0.00000336   -0.00003552
     atom    2 type  1   force =     0.00000000   -0.00000766   -0.00000514
     atom    3 type  2   force =    -0.00000000   -0.00000221    0.00000870
     atom    4 type  2   force =    -0.00000000    0.00000351   -0.00001174
     atom    5 type  1   force =     0.00000000   -0.00000741   -0.00005158
     atom    6 type  1   force =    -0.00000000    0.00001050   -0.00000321
     atom    7 type  2   force =     0.00000000   -0.00000163    0.00000551
     atom    8 type  2   force =     0.00000000   -0.00000239   -0.00001623

     Total force =     0.008780     Total SCF correction =     0.000069

     General routines

     Parallel routines

   This run was terminated on:  21:12:13  26Aug2025

   JOB DONE.