     Program PWSCF v.7.0 starts on 26Aug2025 at 22:30:34

     K-points division:     npool     =       4
     band groups division:  nbgrp     =       4

     Reading input from /home/jvc/QEspresso7.2/ZnO_database/scripts/cell121.in/ZnO-3.40-1.78-121.in
Warning: card &CELL ignored
Warning: card / ignored
Warning: card &FCP ignored
Warning: card / ignored
Warning: card &RISM ignored
Warning: card / ignored

     Current dimensions of program PWSCF are:
     Max number of different atomic species (ntypx) = 10
     Max number of k-points (npk) =  40000
     Max angular momentum in pseudopotentials (lmaxx) =  4
     file Zn.upf: wavefunction(s)  3D renormalized
     Found identity + (  0.0000 -0.5000  0.0000) symmetry
     This is a supercell, fractional translations are disabled
     Message from routine setup:
     using ibrav=0 with symmetry is DISCOURAGED, use correct ibrav instead

     Subspace diagonalization in iterative solution of the eigenvalue problem:
     a serial algorithm will be used

     Using Slab Decomposition

     bravais-lattice index     =            0
     lattice parameter (alat)  =       6.4260  a.u.
     unit-cell volume          =     816.1633 (a.u.)^3
     number of atoms/cell      =            8
     number of atomic types    =            2
     number of electrons       =        72.00
     number of Kohn-Sham states=           36
     kinetic-energy cutoff     =      50.0000  Ry
     charge density cutoff     =     400.0000  Ry
     scf convergence threshold =      1.0E-08
     mixing beta               =       0.3000
     number of iterations used =            8  plain     mixing
     Exchange-correlation= PBE
                           (   1   4   3   4   0   0   0)

     celldm(1)=   6.426008  celldm(2)=   0.000000  celldm(3)=   0.000000
     celldm(4)=   0.000000  celldm(5)=   0.000000  celldm(6)=   0.000000

     crystal axes: (cart. coord. in units of alat)
               a(1) = (   1.000000   0.000000   0.000000 )
               a(2) = (  -1.000000   1.732051   0.000000 )
               a(3) = (   0.000000   0.000000   1.775794 )

     reciprocal axes: (cart. coord. in units 2 pi/alat)
               b(1) = (  1.000000  0.577350 -0.000000 )
               b(2) = (  0.000000  0.577350  0.000000 )
               b(3) = (  0.000000 -0.000000  0.563128 )

     PseudoPot. # 1 for Zn read from file:
     /home/jvc/QEspresso7.2/ZnO_database/pseudos/Zn.upf
     MD5 check sum: 7f56cabf9682ed8c977c2f7d0c5985c5
     Pseudo is Ultrasoft + core correction, Zval = 12.0
     Generated using &quot;atomic&quot; code by A. Dal Corso  v.6.2.2
     Using radial grid of 1201 points,  6 beta functions with:
                l(1) =   0
                l(2) =   0
                l(3) =   1
                l(4) =   1
                l(5) =   2
                l(6) =   2
     Q(r) pseudized with 0 coefficients

     PseudoPot. # 2 for O  read from file:
     /home/jvc/QEspresso7.2/ZnO_database/pseudos/O.upf
     MD5 check sum: 91400c9766925bcf19f520983a725ff0
     Pseudo is Ultrasoft + core correction, Zval =  6.0
     Generated using &quot;atomic&quot; code by A. Dal Corso  v.6.3MaX
     Using radial grid of 1095 points,  4 beta functions with:
                l(1) =   0
                l(2) =   0
                l(3) =   1
                l(4) =   1
     Q(r) pseudized with 0 coefficients

     atomic species   valence    mass     pseudopotential
        Zn            12.00    65.38000     Zn( 1.00)
        O              6.00    15.99900     O ( 1.00)

      2 Sym. Ops. (no inversion) found

                                    s                        frac. trans.

      isym =  1     identity

 cryst.   s( 1) = (     1          0          0      )
                  (     0          1          0      )
                  (     0          0          1      )

 cart.    s( 1) = (  1.0000000  0.0000000  0.0000000 )
                  (  0.0000000  1.0000000  0.0000000 )
                  (  0.0000000  0.0000000  1.0000000 )

      isym =  2     inv. 180 deg rotation - cart. axis [1,0,0]

 cryst.   s( 2) = (    -1          0          0      )
                  (     2          1          0      )
                  (     0          0          1      )

 cart.    s( 2) = ( -1.0000000  0.0000000  0.0000000 )
                  (  0.0000000  1.0000000  0.0000000 )
                  (  0.0000000  0.0000000  1.0000000 )

   Cartesian axes

     site n.     atom                  positions (alat units)
         1           Zn  tau(   1) = (   0.5000000   0.2886751   0.8890222  )
         2           Zn  tau(   2) = (   0.0000000   0.5773503   0.0011251  )
         3           O   tau(   3) = (   0.5000000   0.2886751   1.5621243  )
         4           O   tau(   4) = (   0.0000000   0.5773503   0.6742272  )
         5           Zn  tau(   5) = (   0.0000000   1.1547005   0.8890222  )
         6           Zn  tau(   6) = (  -0.5000000   1.4433757   0.0011251  )
         7           O   tau(   7) = (   0.0000000   1.1547005   1.5621243  )
         8           O   tau(   8) = (  -0.5000000   1.4433757   0.6742272  )

   Crystallographic axes

     site n.     atom                  positions (cryst. coord.)
         1           Zn  tau(   1) = (  0.6666667  0.1666667  0.5006336  )
         2           Zn  tau(   2) = (  0.3333333  0.3333333  0.0006336  )
         3           O   tau(   3) = (  0.6666667  0.1666667  0.8796764  )
         4           O   tau(   4) = (  0.3333333  0.3333333  0.3796764  )
         5           Zn  tau(   5) = (  0.6666667  0.6666667  0.5006336  )
         6           Zn  tau(   6) = (  0.3333333  0.8333333  0.0006336  )
         7           O   tau(   7) = (  0.6666667  0.6666667  0.8796764  )
         8           O   tau(   8) = (  0.3333333  0.8333333  0.3796764  )

     number of k points=    80
                       cart. coord. in units 2pi/alat
        k(    1) = (   0.0000000   0.0000000   0.0000000), wk =   0.0092593
        k(    2) = (   0.0000000   0.0000000   0.0938547), wk =   0.0185185
        k(    3) = (   0.0000000   0.0000000   0.1877094), wk =   0.0185185
        k(    4) = (   0.0000000   0.0000000  -0.2815642), wk =   0.0092593
        k(    5) = (   0.0000000   0.0962250   0.0000000), wk =   0.0185185
        k(    6) = (   0.0000000   0.0962250   0.0938547), wk =   0.0185185
        k(    7) = (   0.0000000   0.0962250   0.1877094), wk =   0.0185185
        k(    8) = (   0.0000000   0.0962250  -0.2815642), wk =   0.0185185
        k(    9) = (   0.0000000   0.1924501   0.0000000), wk =   0.0185185
        k(   10) = (   0.0000000   0.1924501   0.0938547), wk =   0.0185185
        k(   11) = (   0.0000000   0.1924501   0.1877094), wk =   0.0185185
        k(   12) = (   0.0000000   0.1924501  -0.2815642), wk =   0.0185185
        k(   13) = (   0.0000000  -0.2886751   0.0000000), wk =   0.0092593
        k(   14) = (   0.0000000  -0.2886751   0.0938547), wk =   0.0185185
        k(   15) = (   0.0000000  -0.2886751   0.1877094), wk =   0.0185185
        k(   16) = (   0.0000000  -0.2886751  -0.2815642), wk =   0.0092593
        k(   17) = (   0.1666667   0.0962250   0.0000000), wk =   0.0370370
        k(   18) = (   0.1666667   0.0962250   0.0938547), wk =   0.0370370
        k(   19) = (   0.1666667   0.0962250   0.1877094), wk =   0.0370370
        k(   20) = (   0.1666667   0.0962250  -0.2815642), wk =   0.0370370
        k(   21) = (   0.1666667   0.1924501   0.0000000), wk =   0.0370370
        k(   22) = (   0.1666667   0.1924501   0.0938547), wk =   0.0370370
        k(   23) = (   0.1666667   0.1924501   0.1877094), wk =   0.0370370
        k(   24) = (   0.1666667   0.1924501  -0.2815642), wk =   0.0370370
        k(   25) = (   0.1666667   0.2886751   0.0000000), wk =   0.0185185
        k(   26) = (   0.1666667   0.2886751   0.0938547), wk =   0.0370370
        k(   27) = (   0.1666667   0.2886751   0.1877094), wk =   0.0370370
        k(   28) = (   0.1666667   0.2886751  -0.2815642), wk =   0.0185185
        k(   29) = (   0.1666667   0.0000000   0.0000000), wk =   0.0185185
        k(   30) = (   0.1666667   0.0000000   0.0938547), wk =   0.0370370
        k(   31) = (   0.1666667   0.0000000   0.1877094), wk =   0.0370370
        k(   32) = (   0.1666667   0.0000000  -0.2815642), wk =   0.0185185
        k(   33) = (   0.3333333   0.1924501   0.0000000), wk =   0.0370370
        k(   34) = (   0.3333333   0.1924501   0.0938547), wk =   0.0370370
        k(   35) = (   0.3333333   0.1924501   0.1877094), wk =   0.0370370
        k(   36) = (   0.3333333   0.1924501  -0.2815642), wk =   0.0370370
        k(   37) = (   0.3333333   0.2886751   0.0000000), wk =   0.0185185
        k(   38) = (   0.3333333   0.2886751   0.0938547), wk =   0.0370370
        k(   39) = (   0.3333333   0.2886751   0.1877094), wk =   0.0370370
        k(   40) = (   0.3333333   0.2886751  -0.2815642), wk =   0.0185185
        k(   41) = (   0.3333333  -0.0962250   0.0000000), wk =   0.0370370
        k(   42) = (   0.3333333  -0.0962250   0.0938547), wk =   0.0370370
        k(   43) = (   0.3333333  -0.0962250   0.1877094), wk =   0.0370370
        k(   44) = (   0.3333333  -0.0962250  -0.2815642), wk =   0.0370370
        k(   45) = (   0.3333333  -0.0000000   0.0000000), wk =   0.0185185
        k(   46) = (   0.3333333  -0.0000000   0.0938547), wk =   0.0370370
        k(   47) = (   0.3333333  -0.0000000   0.1877094), wk =   0.0370370
        k(   48) = (   0.3333333  -0.0000000  -0.2815642), wk =   0.0185185
        k(   49) = (  -0.5000000  -0.2886751   0.0000000), wk =   0.0092593
        k(   50) = (  -0.5000000  -0.2886751   0.0938547), wk =   0.0185185
        k(   51) = (  -0.5000000  -0.2886751   0.1877094), wk =   0.0185185
        k(   52) = (  -0.5000000  -0.2886751  -0.2815642), wk =   0.0092593
        k(   53) = (  -0.5000000  -0.1924501   0.0000000), wk =   0.0185185
        k(   54) = (  -0.5000000  -0.1924501   0.0938547), wk =   0.0185185
        k(   55) = (  -0.5000000  -0.1924501   0.1877094), wk =   0.0185185
        k(   56) = (  -0.5000000  -0.1924501  -0.2815642), wk =   0.0185185
        k(   57) = (  -0.5000000  -0.0962250   0.0000000), wk =   0.0185185
        k(   58) = (  -0.5000000  -0.0962250   0.0938547), wk =   0.0185185
        k(   59) = (  -0.5000000  -0.0962250   0.1877094), wk =   0.0185185
        k(   60) = (  -0.5000000  -0.0962250  -0.2815642), wk =   0.0185185
[...]
        k(   66) = (   0.0000000   0.0962250  -0.1877094), wk =   0.0185185
        k(   67) = (   0.0000000   0.1924501  -0.0938547), wk =   0.0185185
        k(   68) = (   0.0000000   0.1924501  -0.1877094), wk =   0.0185185
        k(   69) = (  -0.1666667   0.0962250  -0.0938547), wk =   0.0370370
        k(   70) = (  -0.1666667   0.0962250  -0.1877094), wk =   0.0370370
        k(   71) = (  -0.1666667   0.1924501  -0.0938547), wk =   0.0370370
        k(   72) = (  -0.1666667   0.1924501  -0.1877094), wk =   0.0370370
        k(   73) = (  -0.3333333   0.1924501  -0.0938547), wk =   0.0370370
        k(   74) = (  -0.3333333   0.1924501  -0.1877094), wk =   0.0370370
        k(   75) = (  -0.3333333  -0.0962250  -0.0938547), wk =   0.0370370
        k(   76) = (  -0.3333333  -0.0962250  -0.1877094), wk =   0.0370370
        k(   77) = (   0.5000000  -0.1924501  -0.0938547), wk =   0.0185185
        k(   78) = (   0.5000000  -0.1924501  -0.1877094), wk =   0.0185185
        k(   79) = (   0.5000000  -0.0962250  -0.0938547), wk =   0.0185185
        k(   80) = (   0.5000000  -0.0962250  -0.1877094), wk =   0.0185185

                       cryst. coord.
        k(    1) = (   0.0000000   0.0000000   0.0000000), wk =   0.0092593
        k(    2) = (   0.0000000   0.0000000   0.1666667), wk =   0.0185185
        k(    3) = (   0.0000000   0.0000000   0.3333333), wk =   0.0185185
        k(    4) = (   0.0000000   0.0000000  -0.5000000), wk =   0.0092593
        k(    5) = (   0.0000000   0.1666667   0.0000000), wk =   0.0185185
        k(    6) = (   0.0000000   0.1666667   0.1666667), wk =   0.0185185
        k(    7) = (   0.0000000   0.1666667   0.3333333), wk =   0.0185185
        k(    8) = (   0.0000000   0.1666667  -0.5000000), wk =   0.0185185
        k(    9) = (   0.0000000   0.3333333   0.0000000), wk =   0.0185185
        k(   10) = (   0.0000000   0.3333333   0.1666667), wk =   0.0185185
        k(   11) = (   0.0000000   0.3333333   0.3333333), wk =   0.0185185
        k(   12) = (   0.0000000   0.3333333  -0.5000000), wk =   0.0185185
        k(   13) = (   0.0000000  -0.5000000   0.0000000), wk =   0.0092593
        k(   14) = (   0.0000000  -0.5000000   0.1666667), wk =   0.0185185
        k(   15) = (   0.0000000  -0.5000000   0.3333333), wk =   0.0185185
        k(   16) = (   0.0000000  -0.5000000  -0.5000000), wk =   0.0092593
        k(   17) = (   0.1666667   0.0000000   0.0000000), wk =   0.0370370
        k(   18) = (   0.1666667   0.0000000   0.1666667), wk =   0.0370370
        k(   19) = (   0.1666667   0.0000000   0.3333333), wk =   0.0370370
        k(   20) = (   0.1666667   0.0000000  -0.5000000), wk =   0.0370370
        k(   21) = (   0.1666667   0.1666667   0.0000000), wk =   0.0370370
        k(   22) = (   0.1666667   0.1666667   0.1666667), wk =   0.0370370
        k(   23) = (   0.1666667   0.1666667   0.3333333), wk =   0.0370370
        k(   24) = (   0.1666667   0.1666667  -0.5000000), wk =   0.0370370
        k(   25) = (   0.1666667   0.3333333   0.0000000), wk =   0.0185185
        k(   26) = (   0.1666667   0.3333333   0.1666667), wk =   0.0370370
        k(   27) = (   0.1666667   0.3333333   0.3333333), wk =   0.0370370
        k(   28) = (   0.1666667   0.3333333  -0.5000000), wk =   0.0185185
        k(   29) = (   0.1666667  -0.1666667   0.0000000), wk =   0.0185185
        k(   30) = (   0.1666667  -0.1666667   0.1666667), wk =   0.0370370
        k(   31) = (   0.1666667  -0.1666667   0.3333333), wk =   0.0370370
        k(   32) = (   0.1666667  -0.1666667  -0.5000000), wk =   0.0185185
        k(   33) = (   0.3333333   0.0000000   0.0000000), wk =   0.0370370
        k(   34) = (   0.3333333   0.0000000   0.1666667), wk =   0.0370370
        k(   35) = (   0.3333333   0.0000000   0.3333333), wk =   0.0370370
        k(   36) = (   0.3333333   0.0000000  -0.5000000), wk =   0.0370370
        k(   37) = (   0.3333333   0.1666667   0.0000000), wk =   0.0185185
        k(   38) = (   0.3333333   0.1666667   0.1666667), wk =   0.0370370
        k(   39) = (   0.3333333   0.1666667   0.3333333), wk =   0.0370370
        k(   40) = (   0.3333333   0.1666667  -0.5000000), wk =   0.0185185
        k(   41) = (   0.3333333  -0.5000000   0.0000000), wk =   0.0370370
        k(   42) = (   0.3333333  -0.5000000   0.1666667), wk =   0.0370370
        k(   43) = (   0.3333333  -0.5000000   0.3333333), wk =   0.0370370
        k(   44) = (   0.3333333  -0.5000000  -0.5000000), wk =   0.0370370
        k(   45) = (   0.3333333  -0.3333333   0.0000000), wk =   0.0185185
        k(   46) = (   0.3333333  -0.3333333   0.1666667), wk =   0.0370370
        k(   47) = (   0.3333333  -0.3333333   0.3333333), wk =   0.0370370
        k(   48) = (   0.3333333  -0.3333333  -0.5000000), wk =   0.0185185
        k(   49) = (  -0.5000000   0.0000000   0.0000000), wk =   0.0092593
        k(   50) = (  -0.5000000   0.0000000   0.1666667), wk =   0.0185185
        k(   51) = (  -0.5000000   0.0000000   0.3333333), wk =   0.0185185
        k(   52) = (  -0.5000000   0.0000000  -0.5000000), wk =   0.0092593
        k(   53) = (  -0.5000000   0.1666667   0.0000000), wk =   0.0185185
        k(   54) = (  -0.5000000   0.1666667   0.1666667), wk =   0.0185185
        k(   55) = (  -0.5000000   0.1666667   0.3333333), wk =   0.0185185
        k(   56) = (  -0.5000000   0.1666667  -0.5000000), wk =   0.0185185
        k(   57) = (  -0.5000000   0.3333333   0.0000000), wk =   0.0185185
        k(   58) = (  -0.5000000   0.3333333   0.1666667), wk =   0.0185185
        k(   59) = (  -0.5000000   0.3333333   0.3333333), wk =   0.0185185
        k(   60) = (  -0.5000000   0.3333333  -0.5000000), wk =   0.0185185
[...]
        k(   66) = (   0.0000000   0.1666667  -0.3333333), wk =   0.0185185
        k(   67) = (   0.0000000   0.3333333  -0.1666667), wk =   0.0185185
        k(   68) = (   0.0000000   0.3333333  -0.3333333), wk =   0.0185185
        k(   69) = (  -0.1666667   0.3333333  -0.1666667), wk =   0.0370370
        k(   70) = (  -0.1666667   0.3333333  -0.3333333), wk =   0.0370370
        k(   71) = (  -0.1666667   0.5000000  -0.1666667), wk =   0.0370370
        k(   72) = (  -0.1666667   0.5000000  -0.3333333), wk =   0.0370370
        k(   73) = (  -0.3333333   0.6666667  -0.1666667), wk =   0.0370370
        k(   74) = (  -0.3333333   0.6666667  -0.3333333), wk =   0.0370370
        k(   75) = (  -0.3333333   0.1666667  -0.1666667), wk =   0.0370370
        k(   76) = (  -0.3333333   0.1666667  -0.3333333), wk =   0.0370370
        k(   77) = (   0.5000000  -0.8333333  -0.1666667), wk =   0.0185185
        k(   78) = (   0.5000000  -0.8333333  -0.3333333), wk =   0.0185185
        k(   79) = (   0.5000000  -0.6666667  -0.1666667), wk =   0.0185185
        k(   80) = (   0.5000000  -0.6666667  -0.3333333), wk =   0.0185185

     Check: negative core charge=   -0.000002

     Initial potential from superposition of free atoms

     starting charge      71.9851, renormalised to      72.0000
     Starting wfcs are   52 randomized atomic wfcs

     Self-consistent Calculation

     iteration #  1     ecut=    50.00 Ry     beta= 0.30
     Davidson diagonalization with overlap

     ethr =  1.00E-02,  avg # of iterations =  1.4

     total energy              =    -722.76952105 Ry
     estimated scf accuracy    <       1.61844598 Ry

[...]

     total energy              =    -723.15887687 Ry
     estimated scf accuracy    <       0.00000001 Ry

     iteration # 35     ecut=    50.00 Ry     beta= 0.30
     Davidson diagonalization with overlap

     ethr =  1.73E-11,  avg # of iterations =  2.0

     End of self-consistent calculation

          k = 0.0000 0.0000 0.0000 (  4871 PWs)   bands (ev):

   -12.3851 -12.0610 -11.9528 -11.8554  -0.8250  -0.8194  -0.8192  -0.7688
    -0.7314  -0.7312  -0.6443  -0.6282  -0.3804  -0.3756  -0.3684  -0.1985
    -0.1645  -0.1644  -0.0834  -0.0834  -0.0609  -0.0485  -0.0396   0.0145
     0.5195   0.7059   1.1560   2.1212   2.8330   3.2120   3.5470   3.8277
     3.8284   3.9293   4.2173   4.2180

     occupation numbers
     1.0000   1.0000   1.0000   1.0000   1.0000   1.0000   1.0000   1.0000
     1.0000   1.0000   1.0000   1.0000   1.0000   1.0000   1.0000   1.0000
     1.0000   1.0000   1.0000   1.0000   1.0000   1.0000   1.0000   1.0000
     1.0000   1.0000   1.0000   1.0000   1.0000   1.0000   1.0000   1.0000
     1.0000   1.0000   1.0000   1.0000

[...]

          k =-0.5000-0.2887 0.0000 (  4904 PWs)   bands (ev):

[...]

          k =-0.3333-0.0962-0.1877 (  4883 PWs)   bands (ev):

[...]

          k = 0.5000-0.0962-0.1877 (  4882 PWs)   bands (ev):

   -11.9300 -11.9299 -11.8787 -11.8787  -0.7653  -0.7653  -0.6757  -0.6757
    -0.5691  -0.5691  -0.4534  -0.4534  -0.3752  -0.3752  -0.3539  -0.3539
    -0.1336  -0.1336  -0.0856  -0.0856  -0.0075  -0.0075   0.0532   0.0532
     0.9671   0.9671   1.1729   1.1729   2.4568   2.4568   2.7605   2.7605
     2.9926   2.9926   3.3024   3.3024

     occupation numbers
     1.0000   1.0000   1.0000   1.0000   1.0000   1.0000   1.0000   1.0000
     1.0000   1.0000   1.0000   1.0000   1.0000   1.0000   1.0000   1.0000
     1.0000   1.0000   1.0000   1.0000   1.0000   1.0000   1.0000   1.0000
     1.0000   1.0000   1.0000   1.0000   1.0000   1.0000   1.0000   1.0000
     1.0000   1.0000   1.0000   1.0000

     highest occupied level (ev):     4.2180

!    total energy              =    -723.15887686 Ry
     estimated scf accuracy    <          7.1E-09 Ry

     The total energy is the sum of the following terms:
     one-electron contribution =    -357.85795671 Ry
     hartree contribution      =     254.45039873 Ry
     xc contribution           =    -218.33172383 Ry
     ewald contribution        =    -401.41959505 Ry

     convergence has been achieved in  35 iterations

     Forces acting on atoms (cartesian axes, Ry/au):

     atom    1 type  1   force =     0.00000000    0.00001256   -0.00741990
     atom    2 type  1   force =     0.00000000   -0.00001482   -0.00742078
     atom    3 type  2   force =     0.00000000    0.00000945    0.00742174
     atom    4 type  2   force =     0.00000000   -0.00000884    0.00742063
     atom    5 type  1   force =     0.00000000    0.00000140   -0.00742210
     atom    6 type  1   force =     0.00000000    0.00000065   -0.00742092
     atom    7 type  2   force =     0.00000000    0.00000929    0.00742078
     atom    8 type  2   force =     0.00000000   -0.00000968    0.00742055
     The non-local contrib.  to forces
     atom    1 type  1   force =     0.00000000   -0.00000222    0.22786326
     atom    2 type  1   force =     0.00000000    0.00000067    0.22785984
     atom    3 type  2   force =     0.00000000    0.00023084    0.25484312
     atom    4 type  2   force =     0.00000000   -0.00023017    0.25484228
     atom    5 type  1   force =     0.00000000   -0.00000866    0.22786293
     atom    6 type  1   force =     0.00000000    0.00001013    0.22786116
     atom    7 type  2   force =     0.00000000    0.00023510    0.25483877
     atom    8 type  2   force =     0.00000000   -0.00023625    0.25483942
     The ionic contribution  to forces
     atom    1 type  1   force =    -0.00000000    0.00000000    1.76883793
     atom    2 type  1   force =     0.00000000   -0.00000000    1.76883793
     atom    3 type  2   force =    -0.00000000    0.00000000   -1.76883793
     atom    4 type  2   force =     0.00000000   -0.00000000   -1.76883793
     atom    5 type  1   force =    -0.00000000    0.00000000    1.76883793
     atom    6 type  1   force =     0.00000000   -0.00000000    1.76883793
     atom    7 type  2   force =    -0.00000000    0.00000000   -1.76883793
     atom    8 type  2   force =     0.00000000   -0.00000000   -1.76883793
     The local contribution  to forces
     atom    1 type  1   force =    -0.00000009   -0.00000764   -1.99051789
     atom    2 type  1   force =    -0.00000000    0.00001210   -1.99051317
     atom    3 type  2   force =    -0.00000002   -0.00021928    1.52372801
     atom    4 type  2   force =    -0.00000000    0.00021971    1.52372742
     atom    5 type  1   force =    -0.00000009    0.00001365   -1.99051394
     atom    6 type  1   force =    -0.00000000   -0.00001784   -1.99051366
     atom    7 type  2   force =    -0.00000002   -0.00022294    1.52373224
     atom    8 type  2   force =    -0.00000000    0.00022290    1.52373136
     The core correction contribution to forces
     atom    1 type  1   force =    -0.00000004    0.00000996   -0.01362235
     atom    2 type  1   force =     0.00000003   -0.00001003   -0.01362085
     atom    3 type  2   force =     0.00000000   -0.00000259   -0.00230990
     atom    4 type  2   force =     0.00000001    0.00000259   -0.00230973
     atom    5 type  1   force =    -0.00000004    0.00000938   -0.01362259
     atom    6 type  1   force =     0.00000002   -0.00000931   -0.01362102
     atom    7 type  2   force =    -0.00000001   -0.00000266   -0.00230985
     atom    8 type  2   force =    -0.00000000    0.00000267   -0.00230969
     The Hubbard contrib.    to forces
     atom    1 type  1   force =     0.00000000    0.00000000    0.00000000
     atom    2 type  1   force =     0.00000000    0.00000000    0.00000000
     atom    3 type  2   force =     0.00000000    0.00000000    0.00000000
     atom    4 type  2   force =     0.00000000    0.00000000    0.00000000
     atom    5 type  1   force =     0.00000000    0.00000000    0.00000000
     atom    6 type  1   force =     0.00000000    0.00000000    0.00000000
     atom    7 type  2   force =     0.00000000    0.00000000    0.00000000
     atom    8 type  2   force =     0.00000000    0.00000000    0.00000000
     The SCF correction term to forces
     atom    1 type  1   force =    -0.00000000    0.00001240    0.00002328
     atom    2 type  1   force =    -0.00000000   -0.00001763    0.00001961
     atom    3 type  2   force =     0.00000000    0.00000041    0.00000257
     atom    4 type  2   force =     0.00000000   -0.00000103    0.00000273
     atom    5 type  1   force =     0.00000000   -0.00001303    0.00001770
     atom    6 type  1   force =     0.00000000    0.00001761    0.00001881
     atom    7 type  2   force =    -0.00000000   -0.00000028    0.00000169
     atom    8 type  2   force =    -0.00000000    0.00000094    0.00000154

     Total force =     0.020990     Total SCF correction =     0.000051

     General routines

     Parallel routines

   This run was terminated on:  22:37: 3  26Aug2025

   JOB DONE.