     Program PWSCF v.7.0 starts on 26Aug2025 at 15: 9:32

     K-points division:     npool     =       4
     band groups division:  nbgrp     =       4

     Reading input from /home/jvc/QEspresso7.2/ZnO_database/scripts/cell121.in/ZnO-3.07-1.61-121.in
Warning: card &CELL ignored
Warning: card / ignored
Warning: card &FCP ignored
Warning: card / ignored
Warning: card &RISM ignored
Warning: card / ignored

     Current dimensions of program PWSCF are:
     Max number of different atomic species (ntypx) = 10
     Max number of k-points (npk) =  40000
     Max angular momentum in pseudopotentials (lmaxx) =  4
     file Zn.upf: wavefunction(s)  3D renormalized
     Found identity + (  0.0000 -0.5000  0.0000) symmetry
     This is a supercell, fractional translations are disabled
     Message from routine setup:
     using ibrav=0 with symmetry is DISCOURAGED, use correct ibrav instead

     Subspace diagonalization in iterative solution of the eigenvalue problem:
     a serial algorithm will be used

     Using Slab Decomposition

     bravais-lattice index     =            0
     lattice parameter (alat)  =       5.8081  a.u.
     unit-cell volume          =     547.8579 (a.u.)^3
     number of atoms/cell      =            8
     number of atomic types    =            2
     number of electrons       =        72.00
     number of Kohn-Sham states=           36
     kinetic-energy cutoff     =      50.0000  Ry
     charge density cutoff     =     400.0000  Ry
     scf convergence threshold =      1.0E-08
     mixing beta               =       0.3000
     number of iterations used =            8  plain     mixing
     Exchange-correlation= PBE
                           (   1   4   3   4   0   0   0)

     celldm(1)=   5.808123  celldm(2)=   0.000000  celldm(3)=   0.000000
     celldm(4)=   0.000000  celldm(5)=   0.000000  celldm(6)=   0.000000

     crystal axes: (cart. coord. in units of alat)
               a(1) = (   1.000000   0.000000   0.000000 )
               a(2) = (  -1.000000   1.732051   0.000000 )
               a(3) = (   0.000000   0.000000   1.614358 )

     reciprocal axes: (cart. coord. in units 2 pi/alat)
               b(1) = (  1.000000  0.577350 -0.000000 )
               b(2) = (  0.000000  0.577350  0.000000 )
               b(3) = (  0.000000 -0.000000  0.619441 )

     PseudoPot. # 1 for Zn read from file:
     /home/jvc/QEspresso7.2/ZnO_database/pseudos/Zn.upf
     MD5 check sum: 7f56cabf9682ed8c977c2f7d0c5985c5
     Pseudo is Ultrasoft + core correction, Zval = 12.0
     Generated using &quot;atomic&quot; code by A. Dal Corso  v.6.2.2
     Using radial grid of 1201 points,  6 beta functions with:
                l(1) =   0
                l(2) =   0
                l(3) =   1
                l(4) =   1
                l(5) =   2
                l(6) =   2
     Q(r) pseudized with 0 coefficients

     PseudoPot. # 2 for O  read from file:
     /home/jvc/QEspresso7.2/ZnO_database/pseudos/O.upf
     MD5 check sum: 91400c9766925bcf19f520983a725ff0
     Pseudo is Ultrasoft + core correction, Zval =  6.0
     Generated using &quot;atomic&quot; code by A. Dal Corso  v.6.3MaX
     Using radial grid of 1095 points,  4 beta functions with:
                l(1) =   0
                l(2) =   0
                l(3) =   1
                l(4) =   1
     Q(r) pseudized with 0 coefficients

     atomic species   valence    mass     pseudopotential
        Zn            12.00    65.38000     Zn( 1.00)
        O              6.00    15.99900     O ( 1.00)

      2 Sym. Ops. (no inversion) found

                                    s                        frac. trans.

      isym =  1     identity

 cryst.   s( 1) = (     1          0          0      )
                  (     0          1          0      )
                  (     0          0          1      )

 cart.    s( 1) = (  1.0000000  0.0000000  0.0000000 )
                  (  0.0000000  1.0000000  0.0000000 )
                  (  0.0000000  0.0000000  1.0000000 )

      isym =  2     inv. 180 deg rotation - cart. axis [1,0,0]

 cryst.   s( 2) = (    -1          0          0      )
                  (     2          1          0      )
                  (     0          0          1      )

 cart.    s( 2) = ( -1.0000000  0.0000000  0.0000000 )
                  (  0.0000000  1.0000000  0.0000000 )
                  (  0.0000000  0.0000000  1.0000000 )

   Cartesian axes

     site n.     atom                  positions (alat units)
         1           Zn  tau(   1) = (   0.5000000   0.2886751   0.8082020  )
         2           Zn  tau(   2) = (   0.0000000   0.5773503   0.0010228  )
         3           O   tau(   3) = (   0.5000000   0.2886751   1.4201130  )
         4           O   tau(   4) = (   0.0000000   0.5773503   0.6129338  )
         5           Zn  tau(   5) = (   0.0000000   1.1547005   0.8082020  )
         6           Zn  tau(   6) = (  -0.5000000   1.4433757   0.0010228  )
         7           O   tau(   7) = (   0.0000000   1.1547005   1.4201130  )
         8           O   tau(   8) = (  -0.5000000   1.4433757   0.6129338  )

   Crystallographic axes

     site n.     atom                  positions (cryst. coord.)
         1           Zn  tau(   1) = (  0.6666667  0.1666667  0.5006336  )
         2           Zn  tau(   2) = (  0.3333333  0.3333333  0.0006336  )
         3           O   tau(   3) = (  0.6666667  0.1666667  0.8796764  )
         4           O   tau(   4) = (  0.3333333  0.3333333  0.3796764  )
         5           Zn  tau(   5) = (  0.6666667  0.6666667  0.5006336  )
         6           Zn  tau(   6) = (  0.3333333  0.8333333  0.0006336  )
         7           O   tau(   7) = (  0.6666667  0.6666667  0.8796764  )
         8           O   tau(   8) = (  0.3333333  0.8333333  0.3796764  )

     number of k points=    80
                       cart. coord. in units 2pi/alat
        k(    1) = (   0.0000000   0.0000000   0.0000000), wk =   0.0092593
        k(    2) = (   0.0000000   0.0000000   0.1032402), wk =   0.0185185
        k(    3) = (   0.0000000   0.0000000   0.2064804), wk =   0.0185185
        k(    4) = (   0.0000000   0.0000000  -0.3097206), wk =   0.0092593
        k(    5) = (   0.0000000   0.0962250   0.0000000), wk =   0.0185185
        k(    6) = (   0.0000000   0.0962250   0.1032402), wk =   0.0185185
        k(    7) = (   0.0000000   0.0962250   0.2064804), wk =   0.0185185
        k(    8) = (   0.0000000   0.0962250  -0.3097206), wk =   0.0185185
        k(    9) = (   0.0000000   0.1924501   0.0000000), wk =   0.0185185
        k(   10) = (   0.0000000   0.1924501   0.1032402), wk =   0.0185185
        k(   11) = (   0.0000000   0.1924501   0.2064804), wk =   0.0185185
        k(   12) = (   0.0000000   0.1924501  -0.3097206), wk =   0.0185185
        k(   13) = (   0.0000000  -0.2886751   0.0000000), wk =   0.0092593
        k(   14) = (   0.0000000  -0.2886751   0.1032402), wk =   0.0185185
        k(   15) = (   0.0000000  -0.2886751   0.2064804), wk =   0.0185185
        k(   16) = (   0.0000000  -0.2886751  -0.3097206), wk =   0.0092593
        k(   17) = (   0.1666667   0.0962250   0.0000000), wk =   0.0370370
        k(   18) = (   0.1666667   0.0962250   0.1032402), wk =   0.0370370
        k(   19) = (   0.1666667   0.0962250   0.2064804), wk =   0.0370370
        k(   20) = (   0.1666667   0.0962250  -0.3097206), wk =   0.0370370
        k(   21) = (   0.1666667   0.1924501   0.0000000), wk =   0.0370370
        k(   22) = (   0.1666667   0.1924501   0.1032402), wk =   0.0370370
        k(   23) = (   0.1666667   0.1924501   0.2064804), wk =   0.0370370
        k(   24) = (   0.1666667   0.1924501  -0.3097206), wk =   0.0370370
        k(   25) = (   0.1666667   0.2886751   0.0000000), wk =   0.0185185
        k(   26) = (   0.1666667   0.2886751   0.1032402), wk =   0.0370370
        k(   27) = (   0.1666667   0.2886751   0.2064804), wk =   0.0370370
        k(   28) = (   0.1666667   0.2886751  -0.3097206), wk =   0.0185185
        k(   29) = (   0.1666667   0.0000000   0.0000000), wk =   0.0185185
        k(   30) = (   0.1666667   0.0000000   0.1032402), wk =   0.0370370
        k(   31) = (   0.1666667   0.0000000   0.2064804), wk =   0.0370370
        k(   32) = (   0.1666667   0.0000000  -0.3097206), wk =   0.0185185
        k(   33) = (   0.3333333   0.1924501   0.0000000), wk =   0.0370370
        k(   34) = (   0.3333333   0.1924501   0.1032402), wk =   0.0370370
        k(   35) = (   0.3333333   0.1924501   0.2064804), wk =   0.0370370
        k(   36) = (   0.3333333   0.1924501  -0.3097206), wk =   0.0370370
        k(   37) = (   0.3333333   0.2886751   0.0000000), wk =   0.0185185
        k(   38) = (   0.3333333   0.2886751   0.1032402), wk =   0.0370370
        k(   39) = (   0.3333333   0.2886751   0.2064804), wk =   0.0370370
        k(   40) = (   0.3333333   0.2886751  -0.3097206), wk =   0.0185185
        k(   41) = (   0.3333333  -0.0962250   0.0000000), wk =   0.0370370
        k(   42) = (   0.3333333  -0.0962250   0.1032402), wk =   0.0370370
        k(   43) = (   0.3333333  -0.0962250   0.2064804), wk =   0.0370370
        k(   44) = (   0.3333333  -0.0962250  -0.3097206), wk =   0.0370370
        k(   45) = (   0.3333333  -0.0000000   0.0000000), wk =   0.0185185
        k(   46) = (   0.3333333  -0.0000000   0.1032402), wk =   0.0370370
        k(   47) = (   0.3333333  -0.0000000   0.2064804), wk =   0.0370370
        k(   48) = (   0.3333333  -0.0000000  -0.3097206), wk =   0.0185185
        k(   49) = (  -0.5000000  -0.2886751   0.0000000), wk =   0.0092593
        k(   50) = (  -0.5000000  -0.2886751   0.1032402), wk =   0.0185185
        k(   51) = (  -0.5000000  -0.2886751   0.2064804), wk =   0.0185185
        k(   52) = (  -0.5000000  -0.2886751  -0.3097206), wk =   0.0092593
        k(   53) = (  -0.5000000  -0.1924501   0.0000000), wk =   0.0185185
        k(   54) = (  -0.5000000  -0.1924501   0.1032402), wk =   0.0185185
        k(   55) = (  -0.5000000  -0.1924501   0.2064804), wk =   0.0185185
        k(   56) = (  -0.5000000  -0.1924501  -0.3097206), wk =   0.0185185
        k(   57) = (  -0.5000000  -0.0962250   0.0000000), wk =   0.0185185
        k(   58) = (  -0.5000000  -0.0962250   0.1032402), wk =   0.0185185
        k(   59) = (  -0.5000000  -0.0962250   0.2064804), wk =   0.0185185
        k(   60) = (  -0.5000000  -0.0962250  -0.3097206), wk =   0.0185185
[...]
        k(   66) = (   0.0000000   0.0962250  -0.2064804), wk =   0.0185185
        k(   67) = (   0.0000000   0.1924501  -0.1032402), wk =   0.0185185
        k(   68) = (   0.0000000   0.1924501  -0.2064804), wk =   0.0185185
        k(   69) = (  -0.1666667   0.0962250  -0.1032402), wk =   0.0370370
        k(   70) = (  -0.1666667   0.0962250  -0.2064804), wk =   0.0370370
        k(   71) = (  -0.1666667   0.1924501  -0.1032402), wk =   0.0370370
        k(   72) = (  -0.1666667   0.1924501  -0.2064804), wk =   0.0370370
        k(   73) = (  -0.3333333   0.1924501  -0.1032402), wk =   0.0370370
        k(   74) = (  -0.3333333   0.1924501  -0.2064804), wk =   0.0370370
        k(   75) = (  -0.3333333  -0.0962250  -0.1032402), wk =   0.0370370
        k(   76) = (  -0.3333333  -0.0962250  -0.2064804), wk =   0.0370370
        k(   77) = (   0.5000000  -0.1924501  -0.1032402), wk =   0.0185185
        k(   78) = (   0.5000000  -0.1924501  -0.2064804), wk =   0.0185185
        k(   79) = (   0.5000000  -0.0962250  -0.1032402), wk =   0.0185185
        k(   80) = (   0.5000000  -0.0962250  -0.2064804), wk =   0.0185185

                       cryst. coord.
        k(    1) = (   0.0000000   0.0000000   0.0000000), wk =   0.0092593
        k(    2) = (   0.0000000   0.0000000   0.1666667), wk =   0.0185185
        k(    3) = (   0.0000000   0.0000000   0.3333333), wk =   0.0185185
        k(    4) = (   0.0000000   0.0000000  -0.5000000), wk =   0.0092593
        k(    5) = (   0.0000000   0.1666667   0.0000000), wk =   0.0185185
        k(    6) = (   0.0000000   0.1666667   0.1666667), wk =   0.0185185
        k(    7) = (   0.0000000   0.1666667   0.3333333), wk =   0.0185185
        k(    8) = (   0.0000000   0.1666667  -0.5000000), wk =   0.0185185
        k(    9) = (   0.0000000   0.3333333   0.0000000), wk =   0.0185185
        k(   10) = (   0.0000000   0.3333333   0.1666667), wk =   0.0185185
        k(   11) = (   0.0000000   0.3333333   0.3333333), wk =   0.0185185
        k(   12) = (   0.0000000   0.3333333  -0.5000000), wk =   0.0185185
        k(   13) = (   0.0000000  -0.5000000   0.0000000), wk =   0.0092593
        k(   14) = (   0.0000000  -0.5000000   0.1666667), wk =   0.0185185
        k(   15) = (   0.0000000  -0.5000000   0.3333333), wk =   0.0185185
        k(   16) = (   0.0000000  -0.5000000  -0.5000000), wk =   0.0092593
        k(   17) = (   0.1666667  -0.0000000   0.0000000), wk =   0.0370370
        k(   18) = (   0.1666667  -0.0000000   0.1666667), wk =   0.0370370
        k(   19) = (   0.1666667  -0.0000000   0.3333333), wk =   0.0370370
        k(   20) = (   0.1666667  -0.0000000  -0.5000000), wk =   0.0370370
        k(   21) = (   0.1666667   0.1666667   0.0000000), wk =   0.0370370
        k(   22) = (   0.1666667   0.1666667   0.1666667), wk =   0.0370370
        k(   23) = (   0.1666667   0.1666667   0.3333333), wk =   0.0370370
        k(   24) = (   0.1666667   0.1666667  -0.5000000), wk =   0.0370370
        k(   25) = (   0.1666667   0.3333333   0.0000000), wk =   0.0185185
        k(   26) = (   0.1666667   0.3333333   0.1666667), wk =   0.0370370
        k(   27) = (   0.1666667   0.3333333   0.3333333), wk =   0.0370370
        k(   28) = (   0.1666667   0.3333333  -0.5000000), wk =   0.0185185
        k(   29) = (   0.1666667  -0.1666667   0.0000000), wk =   0.0185185
        k(   30) = (   0.1666667  -0.1666667   0.1666667), wk =   0.0370370
        k(   31) = (   0.1666667  -0.1666667   0.3333333), wk =   0.0370370
        k(   32) = (   0.1666667  -0.1666667  -0.5000000), wk =   0.0185185
        k(   33) = (   0.3333333  -0.0000000   0.0000000), wk =   0.0370370
        k(   34) = (   0.3333333  -0.0000000   0.1666667), wk =   0.0370370
        k(   35) = (   0.3333333  -0.0000000   0.3333333), wk =   0.0370370
        k(   36) = (   0.3333333  -0.0000000  -0.5000000), wk =   0.0370370
        k(   37) = (   0.3333333   0.1666667   0.0000000), wk =   0.0185185
        k(   38) = (   0.3333333   0.1666667   0.1666667), wk =   0.0370370
        k(   39) = (   0.3333333   0.1666667   0.3333333), wk =   0.0370370
        k(   40) = (   0.3333333   0.1666667  -0.5000000), wk =   0.0185185
        k(   41) = (   0.3333333  -0.5000000   0.0000000), wk =   0.0370370
        k(   42) = (   0.3333333  -0.5000000   0.1666667), wk =   0.0370370
        k(   43) = (   0.3333333  -0.5000000   0.3333333), wk =   0.0370370
        k(   44) = (   0.3333333  -0.5000000  -0.5000000), wk =   0.0370370
        k(   45) = (   0.3333333  -0.3333333   0.0000000), wk =   0.0185185
        k(   46) = (   0.3333333  -0.3333333   0.1666667), wk =   0.0370370
        k(   47) = (   0.3333333  -0.3333333   0.3333333), wk =   0.0370370
        k(   48) = (   0.3333333  -0.3333333  -0.5000000), wk =   0.0185185
        k(   49) = (  -0.5000000   0.0000000   0.0000000), wk =   0.0092593
        k(   50) = (  -0.5000000   0.0000000   0.1666667), wk =   0.0185185
        k(   51) = (  -0.5000000   0.0000000   0.3333333), wk =   0.0185185
        k(   52) = (  -0.5000000   0.0000000  -0.5000000), wk =   0.0092593
        k(   53) = (  -0.5000000   0.1666667   0.0000000), wk =   0.0185185
        k(   54) = (  -0.5000000   0.1666667   0.1666667), wk =   0.0185185
        k(   55) = (  -0.5000000   0.1666667   0.3333333), wk =   0.0185185
        k(   56) = (  -0.5000000   0.1666667  -0.5000000), wk =   0.0185185
        k(   57) = (  -0.5000000   0.3333333   0.0000000), wk =   0.0185185
        k(   58) = (  -0.5000000   0.3333333   0.1666667), wk =   0.0185185
        k(   59) = (  -0.5000000   0.3333333   0.3333333), wk =   0.0185185
        k(   60) = (  -0.5000000   0.3333333  -0.5000000), wk =   0.0185185
[...]
        k(   66) = (   0.0000000   0.1666667  -0.3333333), wk =   0.0185185
        k(   67) = (   0.0000000   0.3333333  -0.1666667), wk =   0.0185185
        k(   68) = (   0.0000000   0.3333333  -0.3333333), wk =   0.0185185
        k(   69) = (  -0.1666667   0.3333333  -0.1666667), wk =   0.0370370
        k(   70) = (  -0.1666667   0.3333333  -0.3333333), wk =   0.0370370
        k(   71) = (  -0.1666667   0.5000000  -0.1666667), wk =   0.0370370
        k(   72) = (  -0.1666667   0.5000000  -0.3333333), wk =   0.0370370
        k(   73) = (  -0.3333333   0.6666667  -0.1666667), wk =   0.0370370
        k(   74) = (  -0.3333333   0.6666667  -0.3333333), wk =   0.0370370
        k(   75) = (  -0.3333333   0.1666667  -0.1666667), wk =   0.0370370
        k(   76) = (  -0.3333333   0.1666667  -0.3333333), wk =   0.0370370
        k(   77) = (   0.5000000  -0.8333333  -0.1666667), wk =   0.0185185
        k(   78) = (   0.5000000  -0.8333333  -0.3333333), wk =   0.0185185
        k(   79) = (   0.5000000  -0.6666667  -0.1666667), wk =   0.0185185
        k(   80) = (   0.5000000  -0.6666667  -0.3333333), wk =   0.0185185

     Check: negative core charge=   -0.000002

     Initial potential from superposition of free atoms

     starting charge      71.9851, renormalised to      72.0000
     Starting wfcs are   52 randomized atomic wfcs

     Self-consistent Calculation

     iteration #  1     ecut=    50.00 Ry     beta= 0.30
     Davidson diagonalization with overlap

     ethr =  1.00E-02,  avg # of iterations =  2.0

     total energy              =    -722.86575667 Ry
     estimated scf accuracy    <       1.34597930 Ry

[...]

     total energy              =    -723.14281307 Ry
     estimated scf accuracy    <       0.00000049 Ry

     iteration # 30     ecut=    50.00 Ry     beta= 0.30
     Davidson diagonalization with overlap

     ethr =  8.82E-11,  avg # of iterations =  8.0

     End of self-consistent calculation

          k = 0.0000 0.0000 0.0000 (  3279 PWs)   bands (ev):

    -9.6273  -8.6801  -8.6342  -8.3769   2.8318   2.8844   2.9062   3.2700
     3.2702   3.3353   3.5172   3.5174   3.6017   3.8873   4.1112   4.2940
     4.9955   4.9955   5.0195   5.2441   5.2980   5.2980   5.3685   5.4606
     5.6492   5.7836   5.9784   6.6183   7.1064   8.3645   8.8612   8.9323
     8.9325   9.7709   9.9234   9.9237

     occupation numbers
     1.0000   1.0000   1.0000   1.0000   1.0000   1.0000   1.0000   1.0000
     1.0000   1.0000   1.0000   1.0000   1.0000   1.0000   1.0000   1.0000
     1.0000   1.0000   1.0000   1.0000   1.0000   1.0000   1.0000   1.0000
     1.0000   1.0000   1.0000   1.0000   1.0000   1.0000   1.0000   1.0000
     1.0000   1.0000   1.0000   1.0000

[...]

          k =-0.5000-0.2887 0.0000 (  3252 PWs)   bands (ev):

[...]

          k =-0.3333-0.0962-0.2065 (  3270 PWs)   bands (ev):

[...]

          k = 0.5000-0.0962-0.2065 (  3256 PWs)   bands (ev):

    -8.6020  -8.6020  -8.4398  -8.4398   2.7555   2.7555   2.8364   2.8364
     3.5582   3.5583   3.6919   3.6919   4.0155   4.0155   4.0728   4.0728
     5.0728   5.0728   5.2043   5.2043   5.3790   5.3790   5.5466   5.5466
     5.8554   5.8554   6.2781   6.2781   7.0137   7.0138   7.6122   7.6122
     8.0471   8.0471   8.5609   8.5609

     occupation numbers
     1.0000   1.0000   1.0000   1.0000   1.0000   1.0000   1.0000   1.0000
     1.0000   1.0000   1.0000   1.0000   1.0000   1.0000   1.0000   1.0000
     1.0000   1.0000   1.0000   1.0000   1.0000   1.0000   1.0000   1.0000
     1.0000   1.0000   1.0000   1.0000   1.0000   1.0000   1.0000   1.0000
     1.0000   1.0000   1.0000   1.0000

     highest occupied level (ev):     9.9237

!    total energy              =    -723.14281317 Ry
     estimated scf accuracy    <          5.0E-10 Ry

     The total energy is the sum of the following terms:
     one-electron contribution =    -265.34025324 Ry
     hartree contribution      =     221.39879922 Ry
     xc contribution           =    -219.93835945 Ry
     ewald contribution        =    -459.26299970 Ry

     convergence has been achieved in  30 iterations

     Forces acting on atoms (cartesian axes, Ry/au):

     atom    1 type  1   force =     0.00000000   -0.00001805    0.00077176
     atom    2 type  1   force =     0.00000000    0.00001823    0.00077062
     atom    3 type  2   force =     0.00000000    0.00000412   -0.00077533
     atom    4 type  2   force =     0.00000000   -0.00000190   -0.00077536
     atom    5 type  1   force =     0.00000000   -0.00001006    0.00078173
     atom    6 type  1   force =     0.00000000    0.00000693    0.00077535
     atom    7 type  2   force =     0.00000000    0.00000289   -0.00077419
     atom    8 type  2   force =     0.00000000   -0.00000216   -0.00077457
     The non-local contrib.  to forces
     atom    1 type  1   force =     0.00000000    0.00002967   -0.00584149
     atom    2 type  1   force =     0.00000000   -0.00003463   -0.00584536
     atom    3 type  2   force =     0.00000000    0.00018785    0.00278207
     atom    4 type  2   force =     0.00000000   -0.00018462    0.00277901
     atom    5 type  1   force =     0.00000000    0.00003612   -0.00584104
     atom    6 type  1   force =     0.00000000   -0.00003179   -0.00584379
     atom    7 type  2   force =     0.00000000    0.00018769    0.00277856
     atom    8 type  2   force =     0.00000000   -0.00019150    0.00278188
     The ionic contribution  to forces
     atom    1 type  1   force =    -0.00000000    0.00000001    0.07097875
     atom    2 type  1   force =     0.00000001    0.00000001    0.07097874
     atom    3 type  2   force =    -0.00000000    0.00000001   -0.07097875
     atom    4 type  2   force =     0.00000000    0.00000001   -0.07097874
     atom    5 type  1   force =     0.00000000   -0.00000002    0.07097875
     atom    6 type  1   force =    -0.00000000   -0.00000001    0.07097875
     atom    7 type  2   force =     0.00000000   -0.00000001   -0.07097875
     atom    8 type  2   force =    -0.00000000   -0.00000000   -0.07097875
     The local contribution  to forces
     atom    1 type  1   force =    -0.00000008   -0.00004002   -0.06514581
     atom    2 type  1   force =     0.00000000    0.00005053   -0.06513094
     atom    3 type  2   force =    -0.00000002   -0.00018199    0.06746322
     atom    4 type  2   force =     0.00000000    0.00018911    0.06746448
     atom    5 type  1   force =     0.00000000   -0.00005942   -0.06514816
     atom    6 type  1   force =     0.00000000    0.00005148   -0.06513843
     atom    7 type  2   force =    -0.00000000   -0.00019083    0.06746404
     atom    8 type  2   force =    -0.00000000    0.00018820    0.06746287
     The core correction contribution to forces
     atom    1 type  1   force =    -0.00000006    0.00000467    0.00077648
     atom    2 type  1   force =    -0.00000001   -0.00000470    0.00077589
     atom    3 type  2   force =    -0.00000001   -0.00000212   -0.00003447
     atom    4 type  2   force =    -0.00000000    0.00000212   -0.00003442
     atom    5 type  1   force =     0.00000001    0.00000484    0.00077622
     atom    6 type  1   force =     0.00000005   -0.00000475    0.00077606
     atom    7 type  2   force =     0.00000000   -0.00000218   -0.00003442
     atom    8 type  2   force =     0.00000001    0.00000220   -0.00003447
     The Hubbard contrib.    to forces
     atom    1 type  1   force =     0.00000000    0.00000000    0.00000000
     atom    2 type  1   force =     0.00000000    0.00000000    0.00000000
     atom    3 type  2   force =     0.00000000    0.00000000    0.00000000
     atom    4 type  2   force =     0.00000000    0.00000000    0.00000000
     atom    5 type  1   force =     0.00000000    0.00000000    0.00000000
     atom    6 type  1   force =     0.00000000    0.00000000    0.00000000
     atom    7 type  2   force =     0.00000000    0.00000000    0.00000000
     atom    8 type  2   force =     0.00000000    0.00000000    0.00000000
     The SCF correction term to forces
     atom    1 type  1   force =    -0.00000000   -0.00001311    0.00000934
     atom    2 type  1   force =     0.00000000    0.00000629   -0.00000221
     atom    3 type  2   force =    -0.00000000   -0.00000036   -0.00000190
     atom    4 type  2   force =     0.00000000   -0.00000924   -0.00000018
     atom    5 type  1   force =    -0.00000000    0.00000769    0.00002147
     atom    6 type  1   force =     0.00000000   -0.00000873    0.00000826
     atom    7 type  2   force =     0.00000000    0.00000749    0.00000189
     atom    8 type  2   force =     0.00000000   -0.00000179   -0.00000060

     Total force =     0.002192     Total SCF correction =     0.000033

     General routines

     Parallel routines

   This run was terminated on:  15:16:59  26Aug2025

   JOB DONE.