     Program PWSCF v.7.0 starts on 26Aug2025 at 13:11:56

     K-points division:     npool     =       4
     band groups division:  nbgrp     =       4

     Reading input from /home/jvc/QEspresso7.2/ZnO_database/scripts/cell121.in/ZnO-2.94-1.52-121.in
Warning: card &CELL ignored
Warning: card / ignored
Warning: card &FCP ignored
Warning: card / ignored
Warning: card &RISM ignored
Warning: card / ignored

     Current dimensions of program PWSCF are:
     Max number of different atomic species (ntypx) = 10
     Max number of k-points (npk) =  40000
     Max angular momentum in pseudopotentials (lmaxx) =  4
     file Zn.upf: wavefunction(s)  3D renormalized
     Found identity + (  0.0000 -0.5000  0.0000) symmetry
     This is a supercell, fractional translations are disabled
     Message from routine setup:
     using ibrav=0 with symmetry is DISCOURAGED, use correct ibrav instead

     Subspace diagonalization in iterative solution of the eigenvalue problem:
     a serial algorithm will be used

     Using Slab Decomposition

     bravais-lattice index     =            0
     lattice parameter (alat)  =       5.5610  a.u.
     unit-cell volume          =     452.0014 (a.u.)^3
     number of atoms/cell      =            8
     number of atomic types    =            2
     number of electrons       =        72.00
     number of Kohn-Sham states=           36
     kinetic-energy cutoff     =      50.0000  Ry
     charge density cutoff     =     400.0000  Ry
     scf convergence threshold =      1.0E-08
     mixing beta               =       0.3000
     number of iterations used =            8  plain     mixing
     Exchange-correlation= PBE
                           (   1   4   3   4   0   0   0)

     celldm(1)=   5.560969  celldm(2)=   0.000000  celldm(3)=   0.000000
     celldm(4)=   0.000000  celldm(5)=   0.000000  celldm(6)=   0.000000

     crystal axes: (cart. coord. in units of alat)
               a(1) = (   1.000000   0.000000   0.000000 )
               a(2) = (  -1.000000   1.732051   0.000000 )
               a(3) = (   0.000000   0.000000   1.517497 )

     reciprocal axes: (cart. coord. in units 2 pi/alat)
               b(1) = (  1.000000  0.577350 -0.000000 )
               b(2) = (  0.000000  0.577350  0.000000 )
               b(3) = (  0.000000 -0.000000  0.658980 )

     PseudoPot. # 1 for Zn read from file:
     /home/jvc/QEspresso7.2/ZnO_database/pseudos/Zn.upf
     MD5 check sum: 7f56cabf9682ed8c977c2f7d0c5985c5
     Pseudo is Ultrasoft + core correction, Zval = 12.0
     Generated using &quot;atomic&quot; code by A. Dal Corso  v.6.2.2
     Using radial grid of 1201 points,  6 beta functions with:
                l(1) =   0
                l(2) =   0
                l(3) =   1
                l(4) =   1
                l(5) =   2
                l(6) =   2
     Q(r) pseudized with 0 coefficients

     PseudoPot. # 2 for O  read from file:
     /home/jvc/QEspresso7.2/ZnO_database/pseudos/O.upf
     MD5 check sum: 91400c9766925bcf19f520983a725ff0
     Pseudo is Ultrasoft + core correction, Zval =  6.0
     Generated using &quot;atomic&quot; code by A. Dal Corso  v.6.3MaX
     Using radial grid of 1095 points,  4 beta functions with:
                l(1) =   0
                l(2) =   0
                l(3) =   1
                l(4) =   1
     Q(r) pseudized with 0 coefficients

     atomic species   valence    mass     pseudopotential
        Zn            12.00    65.38000     Zn( 1.00)
        O              6.00    15.99900     O ( 1.00)

      2 Sym. Ops. (no inversion) found

                                    s                        frac. trans.

      isym =  1     identity

 cryst.   s( 1) = (     1          0          0      )
                  (     0          1          0      )
                  (     0          0          1      )

 cart.    s( 1) = (  1.0000000  0.0000000  0.0000000 )
                  (  0.0000000  1.0000000  0.0000000 )
                  (  0.0000000  0.0000000  1.0000000 )

      isym =  2     inv. 180 deg rotation - cart. axis [1,0,0]

 cryst.   s( 2) = (    -1          0          0      )
                  (     2          1          0      )
                  (     0          0          1      )

 cart.    s( 2) = ( -1.0000000  0.0000000  0.0000000 )
                  (  0.0000000  1.0000000  0.0000000 )
                  (  0.0000000  0.0000000  1.0000000 )

   Cartesian axes

     site n.     atom                  positions (alat units)
         1           Zn  tau(   1) = (   0.5000000   0.2886751   0.7597099  )
         2           Zn  tau(   2) = (   0.0000000   0.5773503   0.0009615  )
         3           O   tau(   3) = (   0.5000000   0.2886751   1.3349062  )
         4           O   tau(   4) = (   0.0000000   0.5773503   0.5761578  )
         5           Zn  tau(   5) = (   0.0000000   1.1547005   0.7597099  )
         6           Zn  tau(   6) = (  -0.5000000   1.4433757   0.0009615  )
         7           O   tau(   7) = (   0.0000000   1.1547005   1.3349062  )
         8           O   tau(   8) = (  -0.5000000   1.4433757   0.5761578  )

   Crystallographic axes

     site n.     atom                  positions (cryst. coord.)
         1           Zn  tau(   1) = (  0.6666667  0.1666667  0.5006336  )
         2           Zn  tau(   2) = (  0.3333333  0.3333333  0.0006336  )
         3           O   tau(   3) = (  0.6666667  0.1666667  0.8796764  )
         4           O   tau(   4) = (  0.3333333  0.3333333  0.3796764  )
         5           Zn  tau(   5) = (  0.6666667  0.6666667  0.5006336  )
         6           Zn  tau(   6) = (  0.3333333  0.8333333  0.0006336  )
         7           O   tau(   7) = (  0.6666667  0.6666667  0.8796764  )
         8           O   tau(   8) = (  0.3333333  0.8333333  0.3796764  )

     number of k points=    80
                       cart. coord. in units 2pi/alat
        k(    1) = (   0.0000000   0.0000000   0.0000000), wk =   0.0092593
        k(    2) = (   0.0000000   0.0000000   0.1098300), wk =   0.0185185
        k(    3) = (   0.0000000   0.0000000   0.2196600), wk =   0.0185185
        k(    4) = (   0.0000000   0.0000000  -0.3294900), wk =   0.0092593
        k(    5) = (   0.0000000   0.0962250   0.0000000), wk =   0.0185185
        k(    6) = (   0.0000000   0.0962250   0.1098300), wk =   0.0185185
        k(    7) = (   0.0000000   0.0962250   0.2196600), wk =   0.0185185
        k(    8) = (   0.0000000   0.0962250  -0.3294900), wk =   0.0185185
        k(    9) = (   0.0000000   0.1924501   0.0000000), wk =   0.0185185
        k(   10) = (   0.0000000   0.1924501   0.1098300), wk =   0.0185185
        k(   11) = (   0.0000000   0.1924501   0.2196600), wk =   0.0185185
        k(   12) = (   0.0000000   0.1924501  -0.3294900), wk =   0.0185185
        k(   13) = (   0.0000000  -0.2886751   0.0000000), wk =   0.0092593
        k(   14) = (   0.0000000  -0.2886751   0.1098300), wk =   0.0185185
        k(   15) = (   0.0000000  -0.2886751   0.2196600), wk =   0.0185185
        k(   16) = (   0.0000000  -0.2886751  -0.3294900), wk =   0.0092593
        k(   17) = (   0.1666667   0.0962250   0.0000000), wk =   0.0370370
        k(   18) = (   0.1666667   0.0962250   0.1098300), wk =   0.0370370
        k(   19) = (   0.1666667   0.0962250   0.2196600), wk =   0.0370370
        k(   20) = (   0.1666667   0.0962250  -0.3294900), wk =   0.0370370
        k(   21) = (   0.1666667   0.1924501   0.0000000), wk =   0.0370370
        k(   22) = (   0.1666667   0.1924501   0.1098300), wk =   0.0370370
        k(   23) = (   0.1666667   0.1924501   0.2196600), wk =   0.0370370
        k(   24) = (   0.1666667   0.1924501  -0.3294900), wk =   0.0370370
        k(   25) = (   0.1666667   0.2886751   0.0000000), wk =   0.0185185
        k(   26) = (   0.1666667   0.2886751   0.1098300), wk =   0.0370370
        k(   27) = (   0.1666667   0.2886751   0.2196600), wk =   0.0370370
        k(   28) = (   0.1666667   0.2886751  -0.3294900), wk =   0.0185185
        k(   29) = (   0.1666667   0.0000000   0.0000000), wk =   0.0185185
        k(   30) = (   0.1666667   0.0000000   0.1098300), wk =   0.0370370
        k(   31) = (   0.1666667   0.0000000   0.2196600), wk =   0.0370370
        k(   32) = (   0.1666667   0.0000000  -0.3294900), wk =   0.0185185
        k(   33) = (   0.3333333   0.1924501   0.0000000), wk =   0.0370370
        k(   34) = (   0.3333333   0.1924501   0.1098300), wk =   0.0370370
        k(   35) = (   0.3333333   0.1924501   0.2196600), wk =   0.0370370
        k(   36) = (   0.3333333   0.1924501  -0.3294900), wk =   0.0370370
        k(   37) = (   0.3333333   0.2886751   0.0000000), wk =   0.0185185
        k(   38) = (   0.3333333   0.2886751   0.1098300), wk =   0.0370370
        k(   39) = (   0.3333333   0.2886751   0.2196600), wk =   0.0370370
        k(   40) = (   0.3333333   0.2886751  -0.3294900), wk =   0.0185185
        k(   41) = (   0.3333333  -0.0962250   0.0000000), wk =   0.0370370
        k(   42) = (   0.3333333  -0.0962250   0.1098300), wk =   0.0370370
        k(   43) = (   0.3333333  -0.0962250   0.2196600), wk =   0.0370370
        k(   44) = (   0.3333333  -0.0962250  -0.3294900), wk =   0.0370370
        k(   45) = (   0.3333333  -0.0000000   0.0000000), wk =   0.0185185
        k(   46) = (   0.3333333  -0.0000000   0.1098300), wk =   0.0370370
        k(   47) = (   0.3333333  -0.0000000   0.2196600), wk =   0.0370370
        k(   48) = (   0.3333333  -0.0000000  -0.3294900), wk =   0.0185185
        k(   49) = (  -0.5000000  -0.2886751   0.0000000), wk =   0.0092593
        k(   50) = (  -0.5000000  -0.2886751   0.1098300), wk =   0.0185185
        k(   51) = (  -0.5000000  -0.2886751   0.2196600), wk =   0.0185185
        k(   52) = (  -0.5000000  -0.2886751  -0.3294900), wk =   0.0092593
        k(   53) = (  -0.5000000  -0.1924501   0.0000000), wk =   0.0185185
        k(   54) = (  -0.5000000  -0.1924501   0.1098300), wk =   0.0185185
        k(   55) = (  -0.5000000  -0.1924501   0.2196600), wk =   0.0185185
        k(   56) = (  -0.5000000  -0.1924501  -0.3294900), wk =   0.0185185
        k(   57) = (  -0.5000000  -0.0962250   0.0000000), wk =   0.0185185
        k(   58) = (  -0.5000000  -0.0962250   0.1098300), wk =   0.0185185
        k(   59) = (  -0.5000000  -0.0962250   0.2196600), wk =   0.0185185
        k(   60) = (  -0.5000000  -0.0962250  -0.3294900), wk =   0.0185185
[...]
        k(   66) = (   0.0000000   0.0962250  -0.2196600), wk =   0.0185185
        k(   67) = (   0.0000000   0.1924501  -0.1098300), wk =   0.0185185
        k(   68) = (   0.0000000   0.1924501  -0.2196600), wk =   0.0185185
        k(   69) = (  -0.1666667   0.0962250  -0.1098300), wk =   0.0370370
        k(   70) = (  -0.1666667   0.0962250  -0.2196600), wk =   0.0370370
        k(   71) = (  -0.1666667   0.1924501  -0.1098300), wk =   0.0370370
        k(   72) = (  -0.1666667   0.1924501  -0.2196600), wk =   0.0370370
        k(   73) = (  -0.3333333   0.1924501  -0.1098300), wk =   0.0370370
        k(   74) = (  -0.3333333   0.1924501  -0.2196600), wk =   0.0370370
        k(   75) = (  -0.3333333  -0.0962250  -0.1098300), wk =   0.0370370
        k(   76) = (  -0.3333333  -0.0962250  -0.2196600), wk =   0.0370370
        k(   77) = (   0.5000000  -0.1924501  -0.1098300), wk =   0.0185185
        k(   78) = (   0.5000000  -0.1924501  -0.2196600), wk =   0.0185185
        k(   79) = (   0.5000000  -0.0962250  -0.1098300), wk =   0.0185185
        k(   80) = (   0.5000000  -0.0962250  -0.2196600), wk =   0.0185185

                       cryst. coord.
        k(    1) = (   0.0000000   0.0000000   0.0000000), wk =   0.0092593
        k(    2) = (   0.0000000   0.0000000   0.1666667), wk =   0.0185185
        k(    3) = (   0.0000000   0.0000000   0.3333333), wk =   0.0185185
        k(    4) = (   0.0000000   0.0000000  -0.5000000), wk =   0.0092593
        k(    5) = (   0.0000000   0.1666667   0.0000000), wk =   0.0185185
        k(    6) = (   0.0000000   0.1666667   0.1666667), wk =   0.0185185
        k(    7) = (   0.0000000   0.1666667   0.3333333), wk =   0.0185185
        k(    8) = (   0.0000000   0.1666667  -0.5000000), wk =   0.0185185
        k(    9) = (   0.0000000   0.3333333   0.0000000), wk =   0.0185185
        k(   10) = (   0.0000000   0.3333333   0.1666667), wk =   0.0185185
        k(   11) = (   0.0000000   0.3333333   0.3333333), wk =   0.0185185
        k(   12) = (   0.0000000   0.3333333  -0.5000000), wk =   0.0185185
        k(   13) = (   0.0000000  -0.5000000   0.0000000), wk =   0.0092593
        k(   14) = (   0.0000000  -0.5000000   0.1666667), wk =   0.0185185
        k(   15) = (   0.0000000  -0.5000000   0.3333333), wk =   0.0185185
        k(   16) = (   0.0000000  -0.5000000  -0.5000000), wk =   0.0092593
        k(   17) = (   0.1666667   0.0000000   0.0000000), wk =   0.0370370
        k(   18) = (   0.1666667   0.0000000   0.1666667), wk =   0.0370370
        k(   19) = (   0.1666667   0.0000000   0.3333333), wk =   0.0370370
        k(   20) = (   0.1666667   0.0000000  -0.5000000), wk =   0.0370370
        k(   21) = (   0.1666667   0.1666667   0.0000000), wk =   0.0370370
        k(   22) = (   0.1666667   0.1666667   0.1666667), wk =   0.0370370
        k(   23) = (   0.1666667   0.1666667   0.3333333), wk =   0.0370370
        k(   24) = (   0.1666667   0.1666667  -0.5000000), wk =   0.0370370
        k(   25) = (   0.1666667   0.3333333   0.0000000), wk =   0.0185185
        k(   26) = (   0.1666667   0.3333333   0.1666667), wk =   0.0370370
        k(   27) = (   0.1666667   0.3333333   0.3333333), wk =   0.0370370
        k(   28) = (   0.1666667   0.3333333  -0.5000000), wk =   0.0185185
        k(   29) = (   0.1666667  -0.1666667   0.0000000), wk =   0.0185185
        k(   30) = (   0.1666667  -0.1666667   0.1666667), wk =   0.0370370
        k(   31) = (   0.1666667  -0.1666667   0.3333333), wk =   0.0370370
        k(   32) = (   0.1666667  -0.1666667  -0.5000000), wk =   0.0185185
        k(   33) = (   0.3333333   0.0000000   0.0000000), wk =   0.0370370
        k(   34) = (   0.3333333   0.0000000   0.1666667), wk =   0.0370370
        k(   35) = (   0.3333333   0.0000000   0.3333333), wk =   0.0370370
        k(   36) = (   0.3333333   0.0000000  -0.5000000), wk =   0.0370370
        k(   37) = (   0.3333333   0.1666667   0.0000000), wk =   0.0185185
        k(   38) = (   0.3333333   0.1666667   0.1666667), wk =   0.0370370
        k(   39) = (   0.3333333   0.1666667   0.3333333), wk =   0.0370370
        k(   40) = (   0.3333333   0.1666667  -0.5000000), wk =   0.0185185
        k(   41) = (   0.3333333  -0.5000000   0.0000000), wk =   0.0370370
        k(   42) = (   0.3333333  -0.5000000   0.1666667), wk =   0.0370370
        k(   43) = (   0.3333333  -0.5000000   0.3333333), wk =   0.0370370
        k(   44) = (   0.3333333  -0.5000000  -0.5000000), wk =   0.0370370
        k(   45) = (   0.3333333  -0.3333333   0.0000000), wk =   0.0185185
        k(   46) = (   0.3333333  -0.3333333   0.1666667), wk =   0.0370370
        k(   47) = (   0.3333333  -0.3333333   0.3333333), wk =   0.0370370
        k(   48) = (   0.3333333  -0.3333333  -0.5000000), wk =   0.0185185
        k(   49) = (  -0.5000000   0.0000000   0.0000000), wk =   0.0092593
        k(   50) = (  -0.5000000   0.0000000   0.1666667), wk =   0.0185185
        k(   51) = (  -0.5000000   0.0000000   0.3333333), wk =   0.0185185
        k(   52) = (  -0.5000000   0.0000000  -0.5000000), wk =   0.0092593
        k(   53) = (  -0.5000000   0.1666667   0.0000000), wk =   0.0185185
        k(   54) = (  -0.5000000   0.1666667   0.1666667), wk =   0.0185185
        k(   55) = (  -0.5000000   0.1666667   0.3333333), wk =   0.0185185
        k(   56) = (  -0.5000000   0.1666667  -0.5000000), wk =   0.0185185
        k(   57) = (  -0.5000000   0.3333333   0.0000000), wk =   0.0185185
        k(   58) = (  -0.5000000   0.3333333   0.1666667), wk =   0.0185185
        k(   59) = (  -0.5000000   0.3333333   0.3333333), wk =   0.0185185
        k(   60) = (  -0.5000000   0.3333333  -0.5000000), wk =   0.0185185
[...]
        k(   66) = (   0.0000000   0.1666667  -0.3333333), wk =   0.0185185
        k(   67) = (   0.0000000   0.3333333  -0.1666667), wk =   0.0185185
        k(   68) = (   0.0000000   0.3333333  -0.3333333), wk =   0.0185185
        k(   69) = (  -0.1666667   0.3333333  -0.1666667), wk =   0.0370370
        k(   70) = (  -0.1666667   0.3333333  -0.3333333), wk =   0.0370370
        k(   71) = (  -0.1666667   0.5000000  -0.1666667), wk =   0.0370370
        k(   72) = (  -0.1666667   0.5000000  -0.3333333), wk =   0.0370370
        k(   73) = (  -0.3333333   0.6666667  -0.1666667), wk =   0.0370370
        k(   74) = (  -0.3333333   0.6666667  -0.3333333), wk =   0.0370370
        k(   75) = (  -0.3333333   0.1666667  -0.1666667), wk =   0.0370370
        k(   76) = (  -0.3333333   0.1666667  -0.3333333), wk =   0.0370370
        k(   77) = (   0.5000000  -0.8333333  -0.1666667), wk =   0.0185185
        k(   78) = (   0.5000000  -0.8333333  -0.3333333), wk =   0.0185185
        k(   79) = (   0.5000000  -0.6666667  -0.1666667), wk =   0.0185185
        k(   80) = (   0.5000000  -0.6666667  -0.3333333), wk =   0.0185185

     Initial potential from superposition of free atoms

     starting charge      71.9851, renormalised to      72.0000
     Starting wfcs are   52 randomized atomic wfcs

     Self-consistent Calculation

     iteration #  1     ecut=    50.00 Ry     beta= 0.30
     Davidson diagonalization with overlap

     ethr =  1.00E-02,  avg # of iterations =  2.3

     total energy              =    -722.38516805 Ry
     estimated scf accuracy    <       1.41569766 Ry

[...]

     c_bands:  1 eigenvalues not converged
     ethr =  2.09E-07,  avg # of iterations = 12.8

[...]

     total energy              =    -722.63488112 Ry
     estimated scf accuracy    <       0.00000007 Ry

     iteration # 18     ecut=    50.00 Ry     beta= 0.30
     Davidson diagonalization with overlap

     ethr =  9.39E-11,  avg # of iterations =  3.8

     End of self-consistent calculation

          k = 0.0000 0.0000 0.0000 (  2723 PWs)   bands (ev):

    -7.9677  -6.6828  -6.3980  -6.1990   4.8453   4.8637   4.9064   5.5478
     5.5480   5.6397   5.9161   5.9215   5.9216   6.0367   6.6317   6.8938
     7.9392   7.9393   8.0118   8.3429   8.4712   8.4713   8.5901   8.6432
     8.8491   8.9380   9.3896   9.8751   9.8984  11.9851  12.2089  12.2090
    12.4254  13.6345  13.7008  13.7009

     occupation numbers
     1.0000   1.0000   1.0000   1.0000   1.0000   1.0000   1.0000   1.0000
     1.0000   1.0000   1.0000   1.0000   1.0000   1.0000   1.0000   1.0000
     1.0000   1.0000   1.0000   1.0000   1.0000   1.0000   1.0000   1.0000
     1.0000   1.0000   1.0000   1.0000   1.0000   1.0000   1.0000   1.0000
     1.0000   1.0000   1.0000   1.0000

[...]

          k =-0.5000-0.2887 0.0000 (  2696 PWs)   bands (ev):

[...]

          k =-0.3333-0.0962-0.2197 (  2688 PWs)   bands (ev):

[...]

          k = 0.5000-0.0962-0.2197 (  2698 PWs)   bands (ev):

    -6.5423  -6.5423  -6.2805  -6.2805   4.6244   4.6244   4.6951   4.6951
     5.7804   5.7804   5.8756   5.8756   6.4231   6.4231   6.5359   6.5359
     8.0853   8.0853   8.2934   8.2934   8.5692   8.5692   8.7746   8.7746
     9.1030   9.1030   9.6245   9.6245  10.1687  10.1687  11.1103  11.1103
    11.5023  11.5023  12.2790  12.2790

     occupation numbers
     1.0000   1.0000   1.0000   1.0000   1.0000   1.0000   1.0000   1.0000
     1.0000   1.0000   1.0000   1.0000   1.0000   1.0000   1.0000   1.0000
     1.0000   1.0000   1.0000   1.0000   1.0000   1.0000   1.0000   1.0000
     1.0000   1.0000   1.0000   1.0000   1.0000   1.0000   1.0000   1.0000
     1.0000   1.0000   1.0000   1.0000

     highest occupied level (ev):    13.7009

!    total energy              =    -722.63488114 Ry
     estimated scf accuracy    <          2.1E-09 Ry

     The total energy is the sum of the following terms:
     one-electron contribution =    -218.97232091 Ry
     hartree contribution      =     206.37305171 Ry
     xc contribution           =    -221.06424862 Ry
     ewald contribution        =    -488.97136332 Ry

     convergence has been achieved in  18 iterations

     Forces acting on atoms (cartesian axes, Ry/au):

     atom    1 type  1   force =     0.00000000   -0.00001855   -0.10228128
     atom    2 type  1   force =     0.00000000    0.00002959   -0.10226907
     atom    3 type  2   force =     0.00000000    0.00000105    0.10227413
     atom    4 type  2   force =     0.00000000    0.00000047    0.10227397
     atom    5 type  1   force =     0.00000000   -0.00002715   -0.10227625
     atom    6 type  1   force =     0.00000000    0.00001620   -0.10227031
     atom    7 type  2   force =     0.00000000    0.00000022    0.10227505
     atom    8 type  2   force =     0.00000000   -0.00000182    0.10227376
     The non-local contrib.  to forces
     atom    1 type  1   force =     0.00000000    0.00003034   -0.22286291
     atom    2 type  1   force =     0.00000000   -0.00002630   -0.22285846
     atom    3 type  2   force =     0.00000000    0.00015600   -0.11664957
     atom    4 type  2   force =     0.00000000   -0.00015527   -0.11664825
     atom    5 type  1   force =     0.00000000    0.00002612   -0.22286133
     atom    6 type  1   force =     0.00000000   -0.00003016   -0.22285888
     atom    7 type  2   force =     0.00000000    0.00015454   -0.11664705
     atom    8 type  2   force =     0.00000000   -0.00015412   -0.11664871
     The ionic contribution  to forces
     atom    1 type  1   force =    -0.00000000    0.00000001   -1.55809773
     atom    2 type  1   force =     0.00000000    0.00000001   -1.55809773
     atom    3 type  2   force =    -0.00000000    0.00000001    1.55809773
     atom    4 type  2   force =     0.00000000    0.00000000    1.55809773
     atom    5 type  1   force =    -0.00000001   -0.00000000   -1.55809773
     atom    6 type  1   force =     0.00000001   -0.00000002   -1.55809773
     atom    7 type  2   force =    -0.00000001    0.00000000    1.55809773
     atom    8 type  2   force =     0.00000001   -0.00000001    1.55809773
     The local contribution  to forces
     atom    1 type  1   force =    -0.00000007   -0.00005170    1.65470726
     atom    2 type  1   force =     0.00000000    0.00003908    1.65468920
     atom    3 type  2   force =    -0.00000002   -0.00014936   -1.33966105
     atom    4 type  2   force =     0.00000000    0.00014322   -1.33965558
     atom    5 type  1   force =    -0.00000007   -0.00004286    1.65469915
     atom    6 type  1   force =     0.00000007    0.00005591    1.65469141
     atom    7 type  2   force =    -0.00000002   -0.00014388   -1.33965572
     atom    8 type  2   force =     0.00000002    0.00014669   -1.33965535
     The core correction contribution to forces
     atom    1 type  1   force =    -0.00000001    0.00000235    0.02398680
     atom    2 type  1   force =    -0.00000000   -0.00000232    0.02398702
     atom    3 type  2   force =     0.00000000   -0.00000171    0.00047842
     atom    4 type  2   force =    -0.00000000    0.00000170    0.00047841
     atom    5 type  1   force =    -0.00000001    0.00000249    0.02398689
     atom    6 type  1   force =     0.00000001   -0.00000252    0.02398703
     atom    7 type  2   force =     0.00000000   -0.00000169    0.00047841
     atom    8 type  2   force =    -0.00000000    0.00000168    0.00047843
     The Hubbard contrib.    to forces
     atom    1 type  1   force =     0.00000000    0.00000000    0.00000000
     atom    2 type  1   force =     0.00000000    0.00000000    0.00000000
     atom    3 type  2   force =     0.00000000    0.00000000    0.00000000
     atom    4 type  2   force =     0.00000000    0.00000000    0.00000000
     atom    5 type  1   force =     0.00000000    0.00000000    0.00000000
     atom    6 type  1   force =     0.00000000    0.00000000    0.00000000
     atom    7 type  2   force =     0.00000000    0.00000000    0.00000000
     atom    8 type  2   force =     0.00000000    0.00000000    0.00000000
     The SCF correction term to forces
     atom    1 type  1   force =     0.00000000    0.00000063   -0.00001435
     atom    2 type  1   force =    -0.00000000    0.00001930    0.00001125
     atom    3 type  2   force =     0.00000000   -0.00000371    0.00000895
     atom    4 type  2   force =    -0.00000000    0.00001100    0.00000199
     atom    5 type  1   force =     0.00000000   -0.00001272   -0.00000289
     atom    6 type  1   force =    -0.00000000   -0.00000682    0.00000821
     atom    7 type  2   force =     0.00000000   -0.00000857    0.00000201
     atom    8 type  2   force =    -0.00000000    0.00000413    0.00000201

     Total force =     0.289275     Total SCF correction =     0.000036

     General routines

     Parallel routines

   This run was terminated on:  13:15:27  26Aug2025

   JOB DONE.