     Program PWSCF v.7.0 starts on 26Aug2025 at 13:59:38

     K-points division:     npool     =       4
     band groups division:  nbgrp     =       4

     Reading input from /home/jvc/QEspresso7.2/ZnO_database/scripts/cell121.in/ZnO-3.01-1.52-121.in
Warning: card &CELL ignored
Warning: card / ignored
Warning: card &FCP ignored
Warning: card / ignored
Warning: card &RISM ignored
Warning: card / ignored

     Current dimensions of program PWSCF are:
     Max number of different atomic species (ntypx) = 10
     Max number of k-points (npk) =  40000
     Max angular momentum in pseudopotentials (lmaxx) =  4
     file Zn.upf: wavefunction(s)  3D renormalized
     Found identity + ( -0.0000  0.5000  0.0000) symmetry
     This is a supercell, fractional translations are disabled
     Message from routine setup:
     using ibrav=0 with symmetry is DISCOURAGED, use correct ibrav instead

     Subspace diagonalization in iterative solution of the eigenvalue problem:
     a serial algorithm will be used

     Using Slab Decomposition

     bravais-lattice index     =            0
     lattice parameter (alat)  =       5.6845  a.u.
     unit-cell volume          =     482.8094 (a.u.)^3
     number of atoms/cell      =            8
     number of atomic types    =            2
     number of electrons       =        72.00
     number of Kohn-Sham states=           36
     kinetic-energy cutoff     =      50.0000  Ry
     charge density cutoff     =     400.0000  Ry
     scf convergence threshold =      1.0E-08
     mixing beta               =       0.3000
     number of iterations used =            8  plain     mixing
     Exchange-correlation= PBE
                           (   1   4   3   4   0   0   0)

     celldm(1)=   5.684546  celldm(2)=   0.000000  celldm(3)=   0.000000
     celldm(4)=   0.000000  celldm(5)=   0.000000  celldm(6)=   0.000000

     crystal axes: (cart. coord. in units of alat)
               a(1) = (   1.000000   0.000000   0.000000 )
               a(2) = (  -1.000000   1.732051   0.000000 )
               a(3) = (   0.000000   0.000000   1.517497 )

     reciprocal axes: (cart. coord. in units 2 pi/alat)
               b(1) = (  1.000000  0.577350 -0.000000 )
               b(2) = (  0.000000  0.577350  0.000000 )
               b(3) = (  0.000000 -0.000000  0.658980 )

     PseudoPot. # 1 for Zn read from file:
     /home/jvc/QEspresso7.2/ZnO_database/pseudos/Zn.upf
     MD5 check sum: 7f56cabf9682ed8c977c2f7d0c5985c5
     Pseudo is Ultrasoft + core correction, Zval = 12.0
     Generated using &quot;atomic&quot; code by A. Dal Corso  v.6.2.2
     Using radial grid of 1201 points,  6 beta functions with:
                l(1) =   0
                l(2) =   0
                l(3) =   1
                l(4) =   1
                l(5) =   2
                l(6) =   2
     Q(r) pseudized with 0 coefficients

     PseudoPot. # 2 for O  read from file:
     /home/jvc/QEspresso7.2/ZnO_database/pseudos/O.upf
     MD5 check sum: 91400c9766925bcf19f520983a725ff0
     Pseudo is Ultrasoft + core correction, Zval =  6.0
     Generated using &quot;atomic&quot; code by A. Dal Corso  v.6.3MaX
     Using radial grid of 1095 points,  4 beta functions with:
                l(1) =   0
                l(2) =   0
                l(3) =   1
                l(4) =   1
     Q(r) pseudized with 0 coefficients

     atomic species   valence    mass     pseudopotential
        Zn            12.00    65.38000     Zn( 1.00)
        O              6.00    15.99900     O ( 1.00)

      2 Sym. Ops. (no inversion) found

                                    s                        frac. trans.

      isym =  1     identity

 cryst.   s( 1) = (     1          0          0      )
                  (     0          1          0      )
                  (     0          0          1      )

 cart.    s( 1) = (  1.0000000  0.0000000  0.0000000 )
                  (  0.0000000  1.0000000  0.0000000 )
                  (  0.0000000  0.0000000  1.0000000 )

      isym =  2     inv. 180 deg rotation - cart. axis [1,0,0]

 cryst.   s( 2) = (    -1          0          0      )
                  (     2          1          0      )
                  (     0          0          1      )

 cart.    s( 2) = ( -1.0000000  0.0000000  0.0000000 )
                  (  0.0000000  1.0000000  0.0000000 )
                  (  0.0000000  0.0000000  1.0000000 )

   Cartesian axes

     site n.     atom                  positions (alat units)
         1           Zn  tau(   1) = (   0.5000000   0.2886751   0.7597099  )
         2           Zn  tau(   2) = (   0.0000000   0.5773503   0.0009615  )
         3           O   tau(   3) = (   0.5000000   0.2886751   1.3349062  )
         4           O   tau(   4) = (   0.0000000   0.5773503   0.5761578  )
         5           Zn  tau(   5) = (   0.0000000   1.1547005   0.7597099  )
         6           Zn  tau(   6) = (  -0.5000000   1.4433757   0.0009615  )
         7           O   tau(   7) = (   0.0000000   1.1547005   1.3349062  )
         8           O   tau(   8) = (  -0.5000000   1.4433757   0.5761578  )

   Crystallographic axes

     site n.     atom                  positions (cryst. coord.)
         1           Zn  tau(   1) = (  0.6666667  0.1666667  0.5006336  )
         2           Zn  tau(   2) = (  0.3333333  0.3333333  0.0006336  )
         3           O   tau(   3) = (  0.6666667  0.1666667  0.8796764  )
         4           O   tau(   4) = (  0.3333333  0.3333333  0.3796764  )
         5           Zn  tau(   5) = (  0.6666667  0.6666667  0.5006336  )
         6           Zn  tau(   6) = (  0.3333333  0.8333333  0.0006336  )
         7           O   tau(   7) = (  0.6666667  0.6666667  0.8796764  )
         8           O   tau(   8) = (  0.3333333  0.8333333  0.3796764  )

     number of k points=    80
                       cart. coord. in units 2pi/alat
        k(    1) = (   0.0000000   0.0000000   0.0000000), wk =   0.0092593
        k(    2) = (   0.0000000   0.0000000   0.1098300), wk =   0.0185185
        k(    3) = (   0.0000000   0.0000000   0.2196600), wk =   0.0185185
        k(    4) = (   0.0000000   0.0000000  -0.3294900), wk =   0.0092593
        k(    5) = (   0.0000000   0.0962250   0.0000000), wk =   0.0185185
        k(    6) = (   0.0000000   0.0962250   0.1098300), wk =   0.0185185
        k(    7) = (   0.0000000   0.0962250   0.2196600), wk =   0.0185185
        k(    8) = (   0.0000000   0.0962250  -0.3294900), wk =   0.0185185
        k(    9) = (   0.0000000   0.1924501   0.0000000), wk =   0.0185185
        k(   10) = (   0.0000000   0.1924501   0.1098300), wk =   0.0185185
        k(   11) = (   0.0000000   0.1924501   0.2196600), wk =   0.0185185
        k(   12) = (   0.0000000   0.1924501  -0.3294900), wk =   0.0185185
        k(   13) = (   0.0000000  -0.2886751   0.0000000), wk =   0.0092593
        k(   14) = (   0.0000000  -0.2886751   0.1098300), wk =   0.0185185
        k(   15) = (   0.0000000  -0.2886751   0.2196600), wk =   0.0185185
        k(   16) = (   0.0000000  -0.2886751  -0.3294900), wk =   0.0092593
        k(   17) = (   0.1666667   0.0962250   0.0000000), wk =   0.0370370
        k(   18) = (   0.1666667   0.0962250   0.1098300), wk =   0.0370370
        k(   19) = (   0.1666667   0.0962250   0.2196600), wk =   0.0370370
        k(   20) = (   0.1666667   0.0962250  -0.3294900), wk =   0.0370370
        k(   21) = (   0.1666667   0.1924501   0.0000000), wk =   0.0370370
        k(   22) = (   0.1666667   0.1924501   0.1098300), wk =   0.0370370
        k(   23) = (   0.1666667   0.1924501   0.2196600), wk =   0.0370370
        k(   24) = (   0.1666667   0.1924501  -0.3294900), wk =   0.0370370
        k(   25) = (   0.1666667   0.2886751   0.0000000), wk =   0.0185185
        k(   26) = (   0.1666667   0.2886751   0.1098300), wk =   0.0370370
        k(   27) = (   0.1666667   0.2886751   0.2196600), wk =   0.0370370
        k(   28) = (   0.1666667   0.2886751  -0.3294900), wk =   0.0185185
        k(   29) = (   0.1666667   0.0000000   0.0000000), wk =   0.0185185
        k(   30) = (   0.1666667   0.0000000   0.1098300), wk =   0.0370370
        k(   31) = (   0.1666667   0.0000000   0.2196600), wk =   0.0370370
        k(   32) = (   0.1666667   0.0000000  -0.3294900), wk =   0.0185185
        k(   33) = (   0.3333333   0.1924501   0.0000000), wk =   0.0370370
        k(   34) = (   0.3333333   0.1924501   0.1098300), wk =   0.0370370
        k(   35) = (   0.3333333   0.1924501   0.2196600), wk =   0.0370370
        k(   36) = (   0.3333333   0.1924501  -0.3294900), wk =   0.0370370
        k(   37) = (   0.3333333   0.2886751   0.0000000), wk =   0.0185185
        k(   38) = (   0.3333333   0.2886751   0.1098300), wk =   0.0370370
        k(   39) = (   0.3333333   0.2886751   0.2196600), wk =   0.0370370
        k(   40) = (   0.3333333   0.2886751  -0.3294900), wk =   0.0185185
        k(   41) = (   0.3333333  -0.0962250   0.0000000), wk =   0.0370370
        k(   42) = (   0.3333333  -0.0962250   0.1098300), wk =   0.0370370
        k(   43) = (   0.3333333  -0.0962250   0.2196600), wk =   0.0370370
        k(   44) = (   0.3333333  -0.0962250  -0.3294900), wk =   0.0370370
        k(   45) = (   0.3333333  -0.0000000   0.0000000), wk =   0.0185185
        k(   46) = (   0.3333333  -0.0000000   0.1098300), wk =   0.0370370
        k(   47) = (   0.3333333  -0.0000000   0.2196600), wk =   0.0370370
        k(   48) = (   0.3333333  -0.0000000  -0.3294900), wk =   0.0185185
        k(   49) = (  -0.5000000  -0.2886751   0.0000000), wk =   0.0092593
        k(   50) = (  -0.5000000  -0.2886751   0.1098300), wk =   0.0185185
        k(   51) = (  -0.5000000  -0.2886751   0.2196600), wk =   0.0185185
        k(   52) = (  -0.5000000  -0.2886751  -0.3294900), wk =   0.0092593
        k(   53) = (  -0.5000000  -0.1924501   0.0000000), wk =   0.0185185
        k(   54) = (  -0.5000000  -0.1924501   0.1098300), wk =   0.0185185
        k(   55) = (  -0.5000000  -0.1924501   0.2196600), wk =   0.0185185
        k(   56) = (  -0.5000000  -0.1924501  -0.3294900), wk =   0.0185185
        k(   57) = (  -0.5000000  -0.0962250   0.0000000), wk =   0.0185185
        k(   58) = (  -0.5000000  -0.0962250   0.1098300), wk =   0.0185185
        k(   59) = (  -0.5000000  -0.0962250   0.2196600), wk =   0.0185185
        k(   60) = (  -0.5000000  -0.0962250  -0.3294900), wk =   0.0185185
[...]
        k(   66) = (   0.0000000   0.0962250  -0.2196600), wk =   0.0185185
        k(   67) = (   0.0000000   0.1924501  -0.1098300), wk =   0.0185185
        k(   68) = (   0.0000000   0.1924501  -0.2196600), wk =   0.0185185
        k(   69) = (  -0.1666667   0.0962250  -0.1098300), wk =   0.0370370
        k(   70) = (  -0.1666667   0.0962250  -0.2196600), wk =   0.0370370
        k(   71) = (  -0.1666667   0.1924501  -0.1098300), wk =   0.0370370
        k(   72) = (  -0.1666667   0.1924501  -0.2196600), wk =   0.0370370
        k(   73) = (  -0.3333333   0.1924501  -0.1098300), wk =   0.0370370
        k(   74) = (  -0.3333333   0.1924501  -0.2196600), wk =   0.0370370
        k(   75) = (  -0.3333333  -0.0962250  -0.1098300), wk =   0.0370370
        k(   76) = (  -0.3333333  -0.0962250  -0.2196600), wk =   0.0370370
        k(   77) = (   0.5000000  -0.1924501  -0.1098300), wk =   0.0185185
        k(   78) = (   0.5000000  -0.1924501  -0.2196600), wk =   0.0185185
        k(   79) = (   0.5000000  -0.0962250  -0.1098300), wk =   0.0185185
        k(   80) = (   0.5000000  -0.0962250  -0.2196600), wk =   0.0185185

                       cryst. coord.
        k(    1) = (   0.0000000   0.0000000   0.0000000), wk =   0.0092593
        k(    2) = (   0.0000000   0.0000000   0.1666667), wk =   0.0185185
        k(    3) = (   0.0000000   0.0000000   0.3333333), wk =   0.0185185
        k(    4) = (   0.0000000   0.0000000  -0.5000000), wk =   0.0092593
        k(    5) = (   0.0000000   0.1666667   0.0000000), wk =   0.0185185
        k(    6) = (   0.0000000   0.1666667   0.1666667), wk =   0.0185185
        k(    7) = (   0.0000000   0.1666667   0.3333333), wk =   0.0185185
        k(    8) = (   0.0000000   0.1666667  -0.5000000), wk =   0.0185185
        k(    9) = (   0.0000000   0.3333333   0.0000000), wk =   0.0185185
        k(   10) = (   0.0000000   0.3333333   0.1666667), wk =   0.0185185
        k(   11) = (   0.0000000   0.3333333   0.3333333), wk =   0.0185185
        k(   12) = (   0.0000000   0.3333333  -0.5000000), wk =   0.0185185
        k(   13) = (   0.0000000  -0.5000000   0.0000000), wk =   0.0092593
        k(   14) = (   0.0000000  -0.5000000   0.1666667), wk =   0.0185185
        k(   15) = (   0.0000000  -0.5000000   0.3333333), wk =   0.0185185
        k(   16) = (   0.0000000  -0.5000000  -0.5000000), wk =   0.0092593
        k(   17) = (   0.1666667   0.0000000   0.0000000), wk =   0.0370370
        k(   18) = (   0.1666667   0.0000000   0.1666667), wk =   0.0370370
        k(   19) = (   0.1666667   0.0000000   0.3333333), wk =   0.0370370
        k(   20) = (   0.1666667   0.0000000  -0.5000000), wk =   0.0370370
        k(   21) = (   0.1666667   0.1666667   0.0000000), wk =   0.0370370
        k(   22) = (   0.1666667   0.1666667   0.1666667), wk =   0.0370370
        k(   23) = (   0.1666667   0.1666667   0.3333333), wk =   0.0370370
        k(   24) = (   0.1666667   0.1666667  -0.5000000), wk =   0.0370370
        k(   25) = (   0.1666667   0.3333333   0.0000000), wk =   0.0185185
        k(   26) = (   0.1666667   0.3333333   0.1666667), wk =   0.0370370
        k(   27) = (   0.1666667   0.3333333   0.3333333), wk =   0.0370370
        k(   28) = (   0.1666667   0.3333333  -0.5000000), wk =   0.0185185
        k(   29) = (   0.1666667  -0.1666667   0.0000000), wk =   0.0185185
        k(   30) = (   0.1666667  -0.1666667   0.1666667), wk =   0.0370370
        k(   31) = (   0.1666667  -0.1666667   0.3333333), wk =   0.0370370
        k(   32) = (   0.1666667  -0.1666667  -0.5000000), wk =   0.0185185
        k(   33) = (   0.3333333   0.0000000   0.0000000), wk =   0.0370370
        k(   34) = (   0.3333333   0.0000000   0.1666667), wk =   0.0370370
        k(   35) = (   0.3333333   0.0000000   0.3333333), wk =   0.0370370
        k(   36) = (   0.3333333   0.0000000  -0.5000000), wk =   0.0370370
        k(   37) = (   0.3333333   0.1666667   0.0000000), wk =   0.0185185
        k(   38) = (   0.3333333   0.1666667   0.1666667), wk =   0.0370370
        k(   39) = (   0.3333333   0.1666667   0.3333333), wk =   0.0370370
        k(   40) = (   0.3333333   0.1666667  -0.5000000), wk =   0.0185185
        k(   41) = (   0.3333333  -0.5000000   0.0000000), wk =   0.0370370
        k(   42) = (   0.3333333  -0.5000000   0.1666667), wk =   0.0370370
        k(   43) = (   0.3333333  -0.5000000   0.3333333), wk =   0.0370370
        k(   44) = (   0.3333333  -0.5000000  -0.5000000), wk =   0.0370370
        k(   45) = (   0.3333333  -0.3333333   0.0000000), wk =   0.0185185
        k(   46) = (   0.3333333  -0.3333333   0.1666667), wk =   0.0370370
        k(   47) = (   0.3333333  -0.3333333   0.3333333), wk =   0.0370370
        k(   48) = (   0.3333333  -0.3333333  -0.5000000), wk =   0.0185185
        k(   49) = (  -0.5000000   0.0000000   0.0000000), wk =   0.0092593
        k(   50) = (  -0.5000000   0.0000000   0.1666667), wk =   0.0185185
        k(   51) = (  -0.5000000   0.0000000   0.3333333), wk =   0.0185185
        k(   52) = (  -0.5000000   0.0000000  -0.5000000), wk =   0.0092593
        k(   53) = (  -0.5000000   0.1666667   0.0000000), wk =   0.0185185
        k(   54) = (  -0.5000000   0.1666667   0.1666667), wk =   0.0185185
        k(   55) = (  -0.5000000   0.1666667   0.3333333), wk =   0.0185185
        k(   56) = (  -0.5000000   0.1666667  -0.5000000), wk =   0.0185185
        k(   57) = (  -0.5000000   0.3333333   0.0000000), wk =   0.0185185
        k(   58) = (  -0.5000000   0.3333333   0.1666667), wk =   0.0185185
        k(   59) = (  -0.5000000   0.3333333   0.3333333), wk =   0.0185185
        k(   60) = (  -0.5000000   0.3333333  -0.5000000), wk =   0.0185185
[...]
        k(   66) = (   0.0000000   0.1666667  -0.3333333), wk =   0.0185185
        k(   67) = (   0.0000000   0.3333333  -0.1666667), wk =   0.0185185
        k(   68) = (   0.0000000   0.3333333  -0.3333333), wk =   0.0185185
        k(   69) = (  -0.1666667   0.3333333  -0.1666667), wk =   0.0370370
        k(   70) = (  -0.1666667   0.3333333  -0.3333333), wk =   0.0370370
        k(   71) = (  -0.1666667   0.5000000  -0.1666667), wk =   0.0370370
        k(   72) = (  -0.1666667   0.5000000  -0.3333333), wk =   0.0370370
        k(   73) = (  -0.3333333   0.6666667  -0.1666667), wk =   0.0370370
        k(   74) = (  -0.3333333   0.6666667  -0.3333333), wk =   0.0370370
        k(   75) = (  -0.3333333   0.1666667  -0.1666667), wk =   0.0370370
        k(   76) = (  -0.3333333   0.1666667  -0.3333333), wk =   0.0370370
        k(   77) = (   0.5000000  -0.8333333  -0.1666667), wk =   0.0185185
        k(   78) = (   0.5000000  -0.8333333  -0.3333333), wk =   0.0185185
        k(   79) = (   0.5000000  -0.6666667  -0.1666667), wk =   0.0185185
        k(   80) = (   0.5000000  -0.6666667  -0.3333333), wk =   0.0185185

     Check: negative core charge=   -0.000001

     Initial potential from superposition of free atoms

     starting charge      71.9851, renormalised to      72.0000
     Starting wfcs are   52 randomized atomic wfcs

     Self-consistent Calculation

     iteration #  1     ecut=    50.00 Ry     beta= 0.30
     Davidson diagonalization with overlap

     ethr =  1.00E-02,  avg # of iterations =  2.2

     total energy              =    -722.59125903 Ry
     estimated scf accuracy    <       1.38520302 Ry

[...]

     total energy              =    -722.85131301 Ry
     estimated scf accuracy    <       0.00000058 Ry

     iteration # 21     ecut=    50.00 Ry     beta= 0.30
     Davidson diagonalization with overlap

     ethr =  1.05E-10,  avg # of iterations =  7.3

     End of self-consistent calculation

          k = 0.0000 0.0000 0.0000 (  2873 PWs)   bands (ev):

    -8.5754  -7.4302  -7.1717  -6.9970   4.1333   4.1819   4.2194   4.7486
     4.7487   4.8197   5.0851   5.0915   5.0916   5.2303   5.7248   5.9898
     6.8736   6.8736   6.9381   7.2243   7.3385   7.3386   7.4402   7.5104
     7.7423   7.7724   8.1793   8.7037   8.7614  10.6863  10.9180  10.9182
    11.1348  12.2551  12.2920  12.2922

     occupation numbers
     1.0000   1.0000   1.0000   1.0000   1.0000   1.0000   1.0000   1.0000
     1.0000   1.0000   1.0000   1.0000   1.0000   1.0000   1.0000   1.0000
     1.0000   1.0000   1.0000   1.0000   1.0000   1.0000   1.0000   1.0000
     1.0000   1.0000   1.0000   1.0000   1.0000   1.0000   1.0000   1.0000
     1.0000   1.0000   1.0000   1.0000

[...]

          k =-0.5000-0.2887 0.0000 (  2876 PWs)   bands (ev):

[...]

          k =-0.3333-0.0962-0.2197 (  2877 PWs)   bands (ev):

[...]

          k = 0.5000-0.0962-0.2197 (  2880 PWs)   bands (ev):

    -7.3062  -7.3061  -7.0728  -7.0728   3.9319   3.9319   4.0003   4.0003
     4.9792   4.9792   5.0800   5.0800   5.5461   5.5461   5.6528   5.6528
     7.0088   7.0088   7.1828   7.1828   7.4271   7.4271   7.6167   7.6167
     7.9444   7.9444   8.4301   8.4301   8.9856   8.9856   9.8948   9.8948
    10.2517  10.2517  10.9887  10.9887

     occupation numbers
     1.0000   1.0000   1.0000   1.0000   1.0000   1.0000   1.0000   1.0000
     1.0000   1.0000   1.0000   1.0000   1.0000   1.0000   1.0000   1.0000
     1.0000   1.0000   1.0000   1.0000   1.0000   1.0000   1.0000   1.0000
     1.0000   1.0000   1.0000   1.0000   1.0000   1.0000   1.0000   1.0000
     1.0000   1.0000   1.0000   1.0000

     highest occupied level (ev):    12.2922

!    total energy              =    -722.85131312 Ry
     estimated scf accuracy    <          5.9E-10 Ry

     The total energy is the sum of the following terms:
     one-electron contribution =    -235.59046561 Ry
     hartree contribution      =     211.73552199 Ry
     xc contribution           =    -220.65481842 Ry
     ewald contribution        =    -478.34155107 Ry

     convergence has been achieved in  21 iterations

     Forces acting on atoms (cartesian axes, Ry/au):

     atom    1 type  1   force =     0.00000000   -0.00002398   -0.08359430
     atom    2 type  1   force =     0.00000000    0.00000996   -0.08356888
     atom    3 type  2   force =     0.00000000    0.00000264    0.08358322
     atom    4 type  2   force =     0.00000000   -0.00000071    0.08358137
     atom    5 type  1   force =     0.00000000   -0.00000553   -0.08359576
     atom    6 type  1   force =     0.00000000    0.00001728   -0.08356970
     atom    7 type  2   force =     0.00000000    0.00000098    0.08358315
     atom    8 type  2   force =     0.00000000   -0.00000063    0.08358090
     The non-local contrib.  to forces
     atom    1 type  1   force =     0.00000000    0.00002588   -0.21556587
     atom    2 type  1   force =     0.00000000   -0.00003145   -0.21555476
     atom    3 type  2   force =     0.00000000    0.00016592   -0.12077909
     atom    4 type  2   force =     0.00000000   -0.00016202   -0.12077593
     atom    5 type  1   force =     0.00000000    0.00003387   -0.21556513
     atom    6 type  1   force =     0.00000000   -0.00002723   -0.21555490
     atom    7 type  2   force =     0.00000000    0.00016047   -0.12077919
     atom    8 type  2   force =     0.00000000   -0.00016555   -0.12077636
     The ionic contribution  to forces
     atom    1 type  1   force =    -0.00000000    0.00000001   -1.49109069
     atom    2 type  1   force =     0.00000000    0.00000001   -1.49109069
     atom    3 type  2   force =    -0.00000000    0.00000001    1.49109069
     atom    4 type  2   force =     0.00000000    0.00000000    1.49109069
     atom    5 type  1   force =    -0.00000001   -0.00000000   -1.49109069
     atom    6 type  1   force =     0.00000001   -0.00000002   -1.49109069
     atom    7 type  2   force =    -0.00000001    0.00000000    1.49109069
     atom    8 type  2   force =     0.00000001   -0.00000001    1.49109069
     The local contribution  to forces
     atom    1 type  1   force =    -0.00000008   -0.00003912    1.60130169
     atom    2 type  1   force =     0.00000000    0.00005620    1.60126988
     atom    3 type  2   force =    -0.00000002   -0.00016266   -1.28733158
     atom    4 type  2   force =     0.00000000    0.00016766   -1.28731262
     atom    5 type  1   force =    -0.00000008   -0.00006241    1.60130122
     atom    6 type  1   force =     0.00000008    0.00004596    1.60126807
     atom    7 type  2   force =    -0.00000002   -0.00016125   -1.28732954
     atom    8 type  2   force =     0.00000002    0.00015939   -1.28731645
     The core correction contribution to forces
     atom    1 type  1   force =    -0.00000003    0.00000263    0.02179277
     atom    2 type  1   force =     0.00000000   -0.00000256    0.02179285
     atom    3 type  2   force =    -0.00000000   -0.00000193    0.00058336
     atom    4 type  2   force =     0.00000000    0.00000189    0.00058336
     atom    5 type  1   force =    -0.00000001    0.00000262    0.02179283
     atom    6 type  1   force =     0.00000003   -0.00000268    0.02179295
     atom    7 type  2   force =    -0.00000000   -0.00000185    0.00058337
     atom    8 type  2   force =     0.00000000    0.00000191    0.00058335
     The Hubbard contrib.    to forces
     atom    1 type  1   force =     0.00000000    0.00000000    0.00000000
     atom    2 type  1   force =     0.00000000    0.00000000    0.00000000
     atom    3 type  2   force =     0.00000000    0.00000000    0.00000000
     atom    4 type  2   force =     0.00000000    0.00000000    0.00000000
     atom    5 type  1   force =     0.00000000    0.00000000    0.00000000
     atom    6 type  1   force =     0.00000000    0.00000000    0.00000000
     atom    7 type  2   force =     0.00000000    0.00000000    0.00000000
     atom    8 type  2   force =     0.00000000    0.00000000    0.00000000
     The SCF correction term to forces
     atom    1 type  1   force =     0.00000000   -0.00001400   -0.00003930
     atom    2 type  1   force =    -0.00000000   -0.00001286    0.00000673
     atom    3 type  2   force =    -0.00000000    0.00000068    0.00001274
     atom    4 type  2   force =    -0.00000000   -0.00000886   -0.00001124
     atom    5 type  1   force =     0.00000000    0.00001977   -0.00004110
     atom    6 type  1   force =    -0.00000000    0.00000064    0.00000775
     atom    7 type  2   force =     0.00000000    0.00000300    0.00001071
     atom    8 type  2   force =     0.00000000    0.00000302   -0.00000744

     Total force =     0.236406     Total SCF correction =     0.000068

     General routines

     Parallel routines

   This run was terminated on:  14: 3:39  26Aug2025

   JOB DONE.