     Program PWSCF v.7.0 starts on 26Aug2025 at 22: 3:44

     K-points division:     npool     =       4
     band groups division:  nbgrp     =       4

     Reading input from /home/jvc/QEspresso7.2/ZnO_database/scripts/cell121.in/ZnO-3.40-1.65-121.in
Warning: card &CELL ignored
Warning: card / ignored
Warning: card &FCP ignored
Warning: card / ignored
Warning: card &RISM ignored
Warning: card / ignored

     Current dimensions of program PWSCF are:
     Max number of different atomic species (ntypx) = 10
     Max number of k-points (npk) =  40000
     Max angular momentum in pseudopotentials (lmaxx) =  4
     file Zn.upf: wavefunction(s)  3D renormalized
     Found identity + (  0.0000 -0.5000  0.0000) symmetry
     This is a supercell, fractional translations are disabled
     Message from routine setup:
     using ibrav=0 with symmetry is DISCOURAGED, use correct ibrav instead

     Subspace diagonalization in iterative solution of the eigenvalue problem:
     a serial algorithm will be used

     Using Slab Decomposition

     bravais-lattice index     =            0
     lattice parameter (alat)  =       6.4260  a.u.
     unit-cell volume          =     756.8060 (a.u.)^3
     number of atoms/cell      =            8
     number of atomic types    =            2
     number of electrons       =        72.00
     number of Kohn-Sham states=           36
     kinetic-energy cutoff     =      50.0000  Ry
     charge density cutoff     =     400.0000  Ry
     scf convergence threshold =      1.0E-08
     mixing beta               =       0.3000
     number of iterations used =            8  plain     mixing
     Exchange-correlation= PBE
                           (   1   4   3   4   0   0   0)

     celldm(1)=   6.426008  celldm(2)=   0.000000  celldm(3)=   0.000000
     celldm(4)=   0.000000  celldm(5)=   0.000000  celldm(6)=   0.000000

     crystal axes: (cart. coord. in units of alat)
               a(1) = (   1.000000   0.000000   0.000000 )
               a(2) = (  -1.000000   1.732051   0.000000 )
               a(3) = (   0.000000   0.000000   1.646646 )

     reciprocal axes: (cart. coord. in units 2 pi/alat)
               b(1) = (  1.000000  0.577350 -0.000000 )
               b(2) = (  0.000000  0.577350  0.000000 )
               b(3) = (  0.000000 -0.000000  0.607295 )

     PseudoPot. # 1 for Zn read from file:
     /home/jvc/QEspresso7.2/ZnO_database/pseudos/Zn.upf
     MD5 check sum: 7f56cabf9682ed8c977c2f7d0c5985c5
     Pseudo is Ultrasoft + core correction, Zval = 12.0
     Generated using &quot;atomic&quot; code by A. Dal Corso  v.6.2.2
     Using radial grid of 1201 points,  6 beta functions with:
                l(1) =   0
                l(2) =   0
                l(3) =   1
                l(4) =   1
                l(5) =   2
                l(6) =   2
     Q(r) pseudized with 0 coefficients

     PseudoPot. # 2 for O  read from file:
     /home/jvc/QEspresso7.2/ZnO_database/pseudos/O.upf
     MD5 check sum: 91400c9766925bcf19f520983a725ff0
     Pseudo is Ultrasoft + core correction, Zval =  6.0
     Generated using &quot;atomic&quot; code by A. Dal Corso  v.6.3MaX
     Using radial grid of 1095 points,  4 beta functions with:
                l(1) =   0
                l(2) =   0
                l(3) =   1
                l(4) =   1
     Q(r) pseudized with 0 coefficients

     atomic species   valence    mass     pseudopotential
        Zn            12.00    65.38000     Zn( 1.00)
        O              6.00    15.99900     O ( 1.00)

      2 Sym. Ops. (no inversion) found

                                    s                        frac. trans.

      isym =  1     identity

 cryst.   s( 1) = (     1          0          0      )
                  (     0          1          0      )
                  (     0          0          1      )

 cart.    s( 1) = (  1.0000000  0.0000000  0.0000000 )
                  (  0.0000000  1.0000000  0.0000000 )
                  (  0.0000000  0.0000000  1.0000000 )

      isym =  2     inv. 180 deg rotation - cart. axis [1,0,0]

 cryst.   s( 2) = (    -1          0          0      )
                  (     2          1          0      )
                  (     0          0          1      )

 cart.    s( 2) = ( -1.0000000  0.0000000  0.0000000 )
                  (  0.0000000  1.0000000  0.0000000 )
                  (  0.0000000  0.0000000  1.0000000 )

   Cartesian axes

     site n.     atom                  positions (alat units)
         1           Zn  tau(   1) = (   0.5000000   0.2886751   0.8243661  )
         2           Zn  tau(   2) = (   0.0000000   0.5773503   0.0010433  )
         3           O   tau(   3) = (   0.5000000   0.2886751   1.4485152  )
         4           O   tau(   4) = (   0.0000000   0.5773503   0.6251925  )
         5           Zn  tau(   5) = (   0.0000000   1.1547005   0.8243661  )
         6           Zn  tau(   6) = (  -0.5000000   1.4433757   0.0010433  )
         7           O   tau(   7) = (   0.0000000   1.1547005   1.4485152  )
         8           O   tau(   8) = (  -0.5000000   1.4433757   0.6251925  )

   Crystallographic axes

     site n.     atom                  positions (cryst. coord.)
         1           Zn  tau(   1) = (  0.6666667  0.1666667  0.5006336  )
         2           Zn  tau(   2) = (  0.3333333  0.3333333  0.0006336  )
         3           O   tau(   3) = (  0.6666667  0.1666667  0.8796764  )
         4           O   tau(   4) = (  0.3333333  0.3333333  0.3796764  )
         5           Zn  tau(   5) = (  0.6666667  0.6666667  0.5006336  )
         6           Zn  tau(   6) = (  0.3333333  0.8333333  0.0006336  )
         7           O   tau(   7) = (  0.6666667  0.6666667  0.8796764  )
         8           O   tau(   8) = (  0.3333333  0.8333333  0.3796764  )

     number of k points=    80
                       cart. coord. in units 2pi/alat
        k(    1) = (   0.0000000   0.0000000   0.0000000), wk =   0.0092593
        k(    2) = (   0.0000000   0.0000000   0.1012159), wk =   0.0185185
        k(    3) = (   0.0000000   0.0000000   0.2024317), wk =   0.0185185
        k(    4) = (   0.0000000   0.0000000  -0.3036476), wk =   0.0092593
        k(    5) = (   0.0000000   0.0962250   0.0000000), wk =   0.0185185
        k(    6) = (   0.0000000   0.0962250   0.1012159), wk =   0.0185185
        k(    7) = (   0.0000000   0.0962250   0.2024317), wk =   0.0185185
        k(    8) = (   0.0000000   0.0962250  -0.3036476), wk =   0.0185185
        k(    9) = (   0.0000000   0.1924501   0.0000000), wk =   0.0185185
        k(   10) = (   0.0000000   0.1924501   0.1012159), wk =   0.0185185
        k(   11) = (   0.0000000   0.1924501   0.2024317), wk =   0.0185185
        k(   12) = (   0.0000000   0.1924501  -0.3036476), wk =   0.0185185
        k(   13) = (   0.0000000  -0.2886751   0.0000000), wk =   0.0092593
        k(   14) = (   0.0000000  -0.2886751   0.1012159), wk =   0.0185185
        k(   15) = (   0.0000000  -0.2886751   0.2024317), wk =   0.0185185
        k(   16) = (   0.0000000  -0.2886751  -0.3036476), wk =   0.0092593
        k(   17) = (   0.1666667   0.0962250   0.0000000), wk =   0.0370370
        k(   18) = (   0.1666667   0.0962250   0.1012159), wk =   0.0370370
        k(   19) = (   0.1666667   0.0962250   0.2024317), wk =   0.0370370
        k(   20) = (   0.1666667   0.0962250  -0.3036476), wk =   0.0370370
        k(   21) = (   0.1666667   0.1924501   0.0000000), wk =   0.0370370
        k(   22) = (   0.1666667   0.1924501   0.1012159), wk =   0.0370370
        k(   23) = (   0.1666667   0.1924501   0.2024317), wk =   0.0370370
        k(   24) = (   0.1666667   0.1924501  -0.3036476), wk =   0.0370370
        k(   25) = (   0.1666667   0.2886751   0.0000000), wk =   0.0185185
        k(   26) = (   0.1666667   0.2886751   0.1012159), wk =   0.0370370
        k(   27) = (   0.1666667   0.2886751   0.2024317), wk =   0.0370370
        k(   28) = (   0.1666667   0.2886751  -0.3036476), wk =   0.0185185
        k(   29) = (   0.1666667   0.0000000   0.0000000), wk =   0.0185185
        k(   30) = (   0.1666667   0.0000000   0.1012159), wk =   0.0370370
        k(   31) = (   0.1666667   0.0000000   0.2024317), wk =   0.0370370
        k(   32) = (   0.1666667   0.0000000  -0.3036476), wk =   0.0185185
        k(   33) = (   0.3333333   0.1924501   0.0000000), wk =   0.0370370
        k(   34) = (   0.3333333   0.1924501   0.1012159), wk =   0.0370370
        k(   35) = (   0.3333333   0.1924501   0.2024317), wk =   0.0370370
        k(   36) = (   0.3333333   0.1924501  -0.3036476), wk =   0.0370370
        k(   37) = (   0.3333333   0.2886751   0.0000000), wk =   0.0185185
        k(   38) = (   0.3333333   0.2886751   0.1012159), wk =   0.0370370
        k(   39) = (   0.3333333   0.2886751   0.2024317), wk =   0.0370370
        k(   40) = (   0.3333333   0.2886751  -0.3036476), wk =   0.0185185
        k(   41) = (   0.3333333  -0.0962250   0.0000000), wk =   0.0370370
        k(   42) = (   0.3333333  -0.0962250   0.1012159), wk =   0.0370370
        k(   43) = (   0.3333333  -0.0962250   0.2024317), wk =   0.0370370
        k(   44) = (   0.3333333  -0.0962250  -0.3036476), wk =   0.0370370
        k(   45) = (   0.3333333  -0.0000000   0.0000000), wk =   0.0185185
        k(   46) = (   0.3333333  -0.0000000   0.1012159), wk =   0.0370370
        k(   47) = (   0.3333333  -0.0000000   0.2024317), wk =   0.0370370
        k(   48) = (   0.3333333  -0.0000000  -0.3036476), wk =   0.0185185
        k(   49) = (  -0.5000000  -0.2886751   0.0000000), wk =   0.0092593
        k(   50) = (  -0.5000000  -0.2886751   0.1012159), wk =   0.0185185
        k(   51) = (  -0.5000000  -0.2886751   0.2024317), wk =   0.0185185
        k(   52) = (  -0.5000000  -0.2886751  -0.3036476), wk =   0.0092593
        k(   53) = (  -0.5000000  -0.1924501   0.0000000), wk =   0.0185185
        k(   54) = (  -0.5000000  -0.1924501   0.1012159), wk =   0.0185185
        k(   55) = (  -0.5000000  -0.1924501   0.2024317), wk =   0.0185185
        k(   56) = (  -0.5000000  -0.1924501  -0.3036476), wk =   0.0185185
        k(   57) = (  -0.5000000  -0.0962250   0.0000000), wk =   0.0185185
        k(   58) = (  -0.5000000  -0.0962250   0.1012159), wk =   0.0185185
        k(   59) = (  -0.5000000  -0.0962250   0.2024317), wk =   0.0185185
        k(   60) = (  -0.5000000  -0.0962250  -0.3036476), wk =   0.0185185
[...]
        k(   66) = (   0.0000000   0.0962250  -0.2024317), wk =   0.0185185
        k(   67) = (   0.0000000   0.1924501  -0.1012159), wk =   0.0185185
        k(   68) = (   0.0000000   0.1924501  -0.2024317), wk =   0.0185185
        k(   69) = (  -0.1666667   0.0962250  -0.1012159), wk =   0.0370370
        k(   70) = (  -0.1666667   0.0962250  -0.2024317), wk =   0.0370370
        k(   71) = (  -0.1666667   0.1924501  -0.1012159), wk =   0.0370370
        k(   72) = (  -0.1666667   0.1924501  -0.2024317), wk =   0.0370370
        k(   73) = (  -0.3333333   0.1924501  -0.1012159), wk =   0.0370370
        k(   74) = (  -0.3333333   0.1924501  -0.2024317), wk =   0.0370370
        k(   75) = (  -0.3333333  -0.0962250  -0.1012159), wk =   0.0370370
        k(   76) = (  -0.3333333  -0.0962250  -0.2024317), wk =   0.0370370
        k(   77) = (   0.5000000  -0.1924501  -0.1012159), wk =   0.0185185
        k(   78) = (   0.5000000  -0.1924501  -0.2024317), wk =   0.0185185
        k(   79) = (   0.5000000  -0.0962250  -0.1012159), wk =   0.0185185
        k(   80) = (   0.5000000  -0.0962250  -0.2024317), wk =   0.0185185

                       cryst. coord.
        k(    1) = (   0.0000000   0.0000000   0.0000000), wk =   0.0092593
        k(    2) = (   0.0000000   0.0000000   0.1666667), wk =   0.0185185
        k(    3) = (   0.0000000   0.0000000   0.3333333), wk =   0.0185185
        k(    4) = (   0.0000000   0.0000000  -0.5000000), wk =   0.0092593
        k(    5) = (   0.0000000   0.1666667   0.0000000), wk =   0.0185185
        k(    6) = (   0.0000000   0.1666667   0.1666667), wk =   0.0185185
        k(    7) = (   0.0000000   0.1666667   0.3333333), wk =   0.0185185
        k(    8) = (   0.0000000   0.1666667  -0.5000000), wk =   0.0185185
        k(    9) = (   0.0000000   0.3333333   0.0000000), wk =   0.0185185
        k(   10) = (   0.0000000   0.3333333   0.1666667), wk =   0.0185185
        k(   11) = (   0.0000000   0.3333333   0.3333333), wk =   0.0185185
        k(   12) = (   0.0000000   0.3333333  -0.5000000), wk =   0.0185185
        k(   13) = (   0.0000000  -0.5000000   0.0000000), wk =   0.0092593
        k(   14) = (   0.0000000  -0.5000000   0.1666667), wk =   0.0185185
        k(   15) = (   0.0000000  -0.5000000   0.3333333), wk =   0.0185185
        k(   16) = (   0.0000000  -0.5000000  -0.5000000), wk =   0.0092593
        k(   17) = (   0.1666667   0.0000000   0.0000000), wk =   0.0370370
        k(   18) = (   0.1666667   0.0000000   0.1666667), wk =   0.0370370
        k(   19) = (   0.1666667   0.0000000   0.3333333), wk =   0.0370370
        k(   20) = (   0.1666667   0.0000000  -0.5000000), wk =   0.0370370
        k(   21) = (   0.1666667   0.1666667   0.0000000), wk =   0.0370370
        k(   22) = (   0.1666667   0.1666667   0.1666667), wk =   0.0370370
        k(   23) = (   0.1666667   0.1666667   0.3333333), wk =   0.0370370
        k(   24) = (   0.1666667   0.1666667  -0.5000000), wk =   0.0370370
        k(   25) = (   0.1666667   0.3333333   0.0000000), wk =   0.0185185
        k(   26) = (   0.1666667   0.3333333   0.1666667), wk =   0.0370370
        k(   27) = (   0.1666667   0.3333333   0.3333333), wk =   0.0370370
        k(   28) = (   0.1666667   0.3333333  -0.5000000), wk =   0.0185185
        k(   29) = (   0.1666667  -0.1666667   0.0000000), wk =   0.0185185
        k(   30) = (   0.1666667  -0.1666667   0.1666667), wk =   0.0370370
        k(   31) = (   0.1666667  -0.1666667   0.3333333), wk =   0.0370370
        k(   32) = (   0.1666667  -0.1666667  -0.5000000), wk =   0.0185185
        k(   33) = (   0.3333333   0.0000000   0.0000000), wk =   0.0370370
        k(   34) = (   0.3333333   0.0000000   0.1666667), wk =   0.0370370
        k(   35) = (   0.3333333   0.0000000   0.3333333), wk =   0.0370370
        k(   36) = (   0.3333333   0.0000000  -0.5000000), wk =   0.0370370
        k(   37) = (   0.3333333   0.1666667   0.0000000), wk =   0.0185185
        k(   38) = (   0.3333333   0.1666667   0.1666667), wk =   0.0370370
        k(   39) = (   0.3333333   0.1666667   0.3333333), wk =   0.0370370
        k(   40) = (   0.3333333   0.1666667  -0.5000000), wk =   0.0185185
        k(   41) = (   0.3333333  -0.5000000   0.0000000), wk =   0.0370370
        k(   42) = (   0.3333333  -0.5000000   0.1666667), wk =   0.0370370
        k(   43) = (   0.3333333  -0.5000000   0.3333333), wk =   0.0370370
        k(   44) = (   0.3333333  -0.5000000  -0.5000000), wk =   0.0370370
        k(   45) = (   0.3333333  -0.3333333   0.0000000), wk =   0.0185185
        k(   46) = (   0.3333333  -0.3333333   0.1666667), wk =   0.0370370
        k(   47) = (   0.3333333  -0.3333333   0.3333333), wk =   0.0370370
        k(   48) = (   0.3333333  -0.3333333  -0.5000000), wk =   0.0185185
        k(   49) = (  -0.5000000   0.0000000   0.0000000), wk =   0.0092593
        k(   50) = (  -0.5000000   0.0000000   0.1666667), wk =   0.0185185
        k(   51) = (  -0.5000000   0.0000000   0.3333333), wk =   0.0185185
        k(   52) = (  -0.5000000   0.0000000  -0.5000000), wk =   0.0092593
        k(   53) = (  -0.5000000   0.1666667   0.0000000), wk =   0.0185185
        k(   54) = (  -0.5000000   0.1666667   0.1666667), wk =   0.0185185
        k(   55) = (  -0.5000000   0.1666667   0.3333333), wk =   0.0185185
        k(   56) = (  -0.5000000   0.1666667  -0.5000000), wk =   0.0185185
        k(   57) = (  -0.5000000   0.3333333   0.0000000), wk =   0.0185185
        k(   58) = (  -0.5000000   0.3333333   0.1666667), wk =   0.0185185
        k(   59) = (  -0.5000000   0.3333333   0.3333333), wk =   0.0185185
        k(   60) = (  -0.5000000   0.3333333  -0.5000000), wk =   0.0185185
[...]
        k(   66) = (   0.0000000   0.1666667  -0.3333333), wk =   0.0185185
        k(   67) = (   0.0000000   0.3333333  -0.1666667), wk =   0.0185185
        k(   68) = (   0.0000000   0.3333333  -0.3333333), wk =   0.0185185
        k(   69) = (  -0.1666667   0.3333333  -0.1666667), wk =   0.0370370
        k(   70) = (  -0.1666667   0.3333333  -0.3333333), wk =   0.0370370
        k(   71) = (  -0.1666667   0.5000000  -0.1666667), wk =   0.0370370
        k(   72) = (  -0.1666667   0.5000000  -0.3333333), wk =   0.0370370
        k(   73) = (  -0.3333333   0.6666667  -0.1666667), wk =   0.0370370
        k(   74) = (  -0.3333333   0.6666667  -0.3333333), wk =   0.0370370
        k(   75) = (  -0.3333333   0.1666667  -0.1666667), wk =   0.0370370
        k(   76) = (  -0.3333333   0.1666667  -0.3333333), wk =   0.0370370
        k(   77) = (   0.5000000  -0.8333333  -0.1666667), wk =   0.0185185
        k(   78) = (   0.5000000  -0.8333333  -0.3333333), wk =   0.0185185
        k(   79) = (   0.5000000  -0.6666667  -0.1666667), wk =   0.0185185
        k(   80) = (   0.5000000  -0.6666667  -0.3333333), wk =   0.0185185

     Check: negative core charge=   -0.000002

     Initial potential from superposition of free atoms

     starting charge      71.9851, renormalised to      72.0000
     Starting wfcs are   52 randomized atomic wfcs

     Self-consistent Calculation

     iteration #  1     ecut=    50.00 Ry     beta= 0.30
     Davidson diagonalization with overlap

     ethr =  1.00E-02,  avg # of iterations =  1.6

     total energy              =    -722.87453932 Ry
     estimated scf accuracy    <       1.50447220 Ry

[...]

     c_bands:  1 eigenvalues not converged
     c_bands:  1 eigenvalues not converged
     c_bands:  1 eigenvalues not converged
     ethr =  1.12E-07,  avg # of iterations = 14.8

[...]

     c_bands:  1 eigenvalues not converged
     c_bands:  1 eigenvalues not converged
     ethr =  8.29E-10,  avg # of iterations = 11.6

[...]

     total energy              =    -723.23038660 Ry
     estimated scf accuracy    <       0.00000002 Ry

     iteration # 25     ecut=    50.00 Ry     beta= 0.30
     Davidson diagonalization with overlap

     ethr =  2.40E-11,  avg # of iterations =  6.5

     End of self-consistent calculation

          k = 0.0000 0.0000 0.0000 (  4513 PWs)   bands (ev):

   -11.8994 -11.4231 -11.4152 -11.2693  -0.1187  -0.0551  -0.0549  -0.0203
     0.0788   0.0790   0.1333   0.1395   0.4204   0.4300   0.5062   0.5783
     0.7134   0.7135   0.7796   0.8315   0.8465   0.8465   0.8803   0.9383
     1.1719   1.4989   1.9516   2.7101   3.3398   3.9963   4.3794   4.4680
     4.4685   4.9602   5.0467   5.0472

     occupation numbers
     1.0000   1.0000   1.0000   1.0000   1.0000   1.0000   1.0000   1.0000
     1.0000   1.0000   1.0000   1.0000   1.0000   1.0000   1.0000   1.0000
     1.0000   1.0000   1.0000   1.0000   1.0000   1.0000   1.0000   1.0000
     1.0000   1.0000   1.0000   1.0000   1.0000   1.0000   1.0000   1.0000
     1.0000   1.0000   1.0000   1.0000

[...]

          k =-0.5000-0.2887 0.0000 (  4528 PWs)   bands (ev):

[...]

          k =-0.3333-0.0962-0.2024 (  4523 PWs)   bands (ev):

[...]

          k = 0.5000-0.0962-0.2024 (  4516 PWs)   bands (ev):

   -11.3789 -11.3788 -11.3022 -11.3022  -0.0811  -0.0811   0.0164   0.0164
     0.1915   0.1915   0.3526   0.3526   0.3977   0.3977   0.4254   0.4254
     0.7674   0.7674   0.8145   0.8145   0.9073   0.9073   0.9937   0.9937
     1.6763   1.6763   1.9485   1.9485   3.0864   3.0864   3.5380   3.5380
     3.7665   3.7666   4.1667   4.1667

     occupation numbers
     1.0000   1.0000   1.0000   1.0000   1.0000   1.0000   1.0000   1.0000
     1.0000   1.0000   1.0000   1.0000   1.0000   1.0000   1.0000   1.0000
     1.0000   1.0000   1.0000   1.0000   1.0000   1.0000   1.0000   1.0000
     1.0000   1.0000   1.0000   1.0000   1.0000   1.0000   1.0000   1.0000
     1.0000   1.0000   1.0000   1.0000

     highest occupied level (ev):     5.0472

!    total energy              =    -723.23038661 Ry
     estimated scf accuracy    <          2.1E-09 Ry

     The total energy is the sum of the following terms:
     one-electron contribution =    -339.98770436 Ry
     hartree contribution      =     247.71444963 Ry
     xc contribution           =    -218.57132412 Ry
     ewald contribution        =    -412.38580775 Ry

     convergence has been achieved in  25 iterations

     Forces acting on atoms (cartesian axes, Ry/au):

     atom    1 type  1   force =     0.00000000   -0.00001457    0.00106329
     atom    2 type  1   force =     0.00000000   -0.00001552    0.00105566
     atom    3 type  2   force =     0.00000000    0.00000442   -0.00105871
     atom    4 type  2   force =     0.00000000   -0.00000427   -0.00105862
     atom    5 type  1   force =     0.00000000    0.00001348    0.00105609
     atom    6 type  1   force =     0.00000000    0.00001636    0.00105969
     atom    7 type  2   force =     0.00000000    0.00000417   -0.00105895
     atom    8 type  2   force =     0.00000000   -0.00000408   -0.00105844
     The non-local contrib.  to forces
     atom    1 type  1   force =     0.00000000   -0.00000102    0.04751348
     atom    2 type  1   force =     0.00000000   -0.00001301    0.04751136
     atom    3 type  2   force =     0.00000000    0.00022726    0.05666562
     atom    4 type  2   force =     0.00000000   -0.00022018    0.05666632
     atom    5 type  1   force =     0.00000000    0.00001247    0.04751314
     atom    6 type  1   force =     0.00000000    0.00000252    0.04751125
     atom    7 type  2   force =     0.00000000    0.00022018    0.05666433
     atom    8 type  2   force =     0.00000000   -0.00022691    0.05666573
     The ionic contribution  to forces
     atom    1 type  1   force =    -0.00000000    0.00000000    0.42995591
     atom    2 type  1   force =     0.00000000   -0.00000000    0.42995591
     atom    3 type  2   force =    -0.00000000    0.00000000   -0.42995591
     atom    4 type  2   force =     0.00000000   -0.00000000   -0.42995591
     atom    5 type  1   force =    -0.00000000    0.00000000    0.42995591
     atom    6 type  1   force =     0.00000000   -0.00000000    0.42995591
     atom    7 type  2   force =    -0.00000000    0.00000000   -0.42995591
     atom    8 type  2   force =     0.00000000   -0.00000000   -0.42995591
     The local contribution  to forces
     atom    1 type  1   force =    -0.00000009    0.00000563   -0.47339476
     atom    2 type  1   force =    -0.00000000    0.00003579   -0.47338344
     atom    3 type  2   force =    -0.00000002   -0.00020937    0.37273331
     atom    4 type  2   force =     0.00000000    0.00022248    0.37272819
     atom    5 type  1   force =    -0.00000009   -0.00003320   -0.47338645
     atom    6 type  1   force =    -0.00000000   -0.00000853   -0.47338838
     atom    7 type  2   force =    -0.00000002   -0.00022228    0.37273388
     atom    8 type  2   force =    -0.00000000    0.00021033    0.37273133
     The core correction contribution to forces
     atom    1 type  1   force =    -0.00000006    0.00000693   -0.00302046
     atom    2 type  1   force =     0.00000001   -0.00000699   -0.00302081
     atom    3 type  2   force =     0.00000000   -0.00000255   -0.00050281
     atom    4 type  2   force =    -0.00000000    0.00000250   -0.00050283
     atom    5 type  1   force =    -0.00000002    0.00000691   -0.00302069
     atom    6 type  1   force =     0.00000005   -0.00000684   -0.00302063
     atom    7 type  2   force =     0.00000000   -0.00000250   -0.00050278
     atom    8 type  2   force =    -0.00000000    0.00000254   -0.00050282
     The Hubbard contrib.    to forces
     atom    1 type  1   force =     0.00000000    0.00000000    0.00000000
     atom    2 type  1   force =     0.00000000    0.00000000    0.00000000
     atom    3 type  2   force =     0.00000000    0.00000000    0.00000000
     atom    4 type  2   force =     0.00000000    0.00000000    0.00000000
     atom    5 type  1   force =     0.00000000    0.00000000    0.00000000
     atom    6 type  1   force =     0.00000000    0.00000000    0.00000000
     atom    7 type  2   force =     0.00000000    0.00000000    0.00000000
     atom    8 type  2   force =     0.00000000    0.00000000    0.00000000
     The SCF correction term to forces
     atom    1 type  1   force =     0.00000000   -0.00002618    0.00000917
     atom    2 type  1   force =    -0.00000000   -0.00003138   -0.00000731
     atom    3 type  2   force =    -0.00000000   -0.00001101    0.00000113
     atom    4 type  2   force =    -0.00000000   -0.00000915    0.00000566
     atom    5 type  1   force =     0.00000000    0.00002723   -0.00000578
     atom    6 type  1   force =    -0.00000000    0.00002914    0.00000158
     atom    7 type  2   force =     0.00000000    0.00000869    0.00000157
     atom    8 type  2   force =     0.00000000    0.00000987    0.00000327

     Total force =     0.002995     Total SCF correction =     0.000062

     General routines

     Parallel routines

   This run was terminated on:  22: 9:16  26Aug2025

   JOB DONE.