     Program PWSCF v.7.0 starts on 26Aug2025 at 17:25: 7

     K-points division:     npool     =       4
     band groups division:  nbgrp     =       4

     Reading input from /home/jvc/QEspresso7.2/ZnO_database/scripts/cell121.in/ZnO-3.20-1.58-121.in
Warning: card &CELL ignored
Warning: card / ignored
Warning: card &FCP ignored
Warning: card / ignored
Warning: card &RISM ignored
Warning: card / ignored

     Current dimensions of program PWSCF are:
     Max number of different atomic species (ntypx) = 10
     Max number of k-points (npk) =  40000
     Max angular momentum in pseudopotentials (lmaxx) =  4
     file Zn.upf: wavefunction(s)  3D renormalized
     Found identity + (  0.0000  0.5000  0.0000) symmetry
     This is a supercell, fractional translations are disabled
     Message from routine setup:
     using ibrav=0 with symmetry is DISCOURAGED, use correct ibrav instead

     Subspace diagonalization in iterative solution of the eigenvalue problem:
     a serial algorithm will be used

     Using Slab Decomposition

     bravais-lattice index     =            0
     lattice parameter (alat)  =       6.0553  a.u.
     unit-cell volume          =     608.3993 (a.u.)^3
     number of atoms/cell      =            8
     number of atomic types    =            2
     number of electrons       =        72.00
     number of Kohn-Sham states=           36
     kinetic-energy cutoff     =      50.0000  Ry
     charge density cutoff     =     400.0000  Ry
     scf convergence threshold =      1.0E-08
     mixing beta               =       0.3000
     number of iterations used =            8  plain     mixing
     Exchange-correlation= PBE
                           (   1   4   3   4   0   0   0)

     celldm(1)=   6.055277  celldm(2)=   0.000000  celldm(3)=   0.000000
     celldm(4)=   0.000000  celldm(5)=   0.000000  celldm(6)=   0.000000

     crystal axes: (cart. coord. in units of alat)
               a(1) = (   1.000000   0.000000   0.000000 )
               a(2) = (  -1.000000   1.732051   0.000000 )
               a(3) = (   0.000000   0.000000   1.582071 )

     reciprocal axes: (cart. coord. in units 2 pi/alat)
               b(1) = (  1.000000  0.577350 -0.000000 )
               b(2) = (  0.000000  0.577350  0.000000 )
               b(3) = (  0.000000 -0.000000  0.632083 )

     PseudoPot. # 1 for Zn read from file:
     /home/jvc/QEspresso7.2/ZnO_database/pseudos/Zn.upf
     MD5 check sum: 7f56cabf9682ed8c977c2f7d0c5985c5
     Pseudo is Ultrasoft + core correction, Zval = 12.0
     Generated using &quot;atomic&quot; code by A. Dal Corso  v.6.2.2
     Using radial grid of 1201 points,  6 beta functions with:
                l(1) =   0
                l(2) =   0
                l(3) =   1
                l(4) =   1
                l(5) =   2
                l(6) =   2
     Q(r) pseudized with 0 coefficients

     PseudoPot. # 2 for O  read from file:
     /home/jvc/QEspresso7.2/ZnO_database/pseudos/O.upf
     MD5 check sum: 91400c9766925bcf19f520983a725ff0
     Pseudo is Ultrasoft + core correction, Zval =  6.0
     Generated using &quot;atomic&quot; code by A. Dal Corso  v.6.3MaX
     Using radial grid of 1095 points,  4 beta functions with:
                l(1) =   0
                l(2) =   0
                l(3) =   1
                l(4) =   1
     Q(r) pseudized with 0 coefficients

     atomic species   valence    mass     pseudopotential
        Zn            12.00    65.38000     Zn( 1.00)
        O              6.00    15.99900     O ( 1.00)

      2 Sym. Ops. (no inversion) found

                                    s                        frac. trans.

      isym =  1     identity

 cryst.   s( 1) = (     1          0          0      )
                  (     0          1          0      )
                  (     0          0          1      )

 cart.    s( 1) = (  1.0000000  0.0000000  0.0000000 )
                  (  0.0000000  1.0000000  0.0000000 )
                  (  0.0000000  0.0000000  1.0000000 )

      isym =  2     inv. 180 deg rotation - cart. axis [1,0,0]

 cryst.   s( 2) = (    -1          0          0      )
                  (     2          1          0      )
                  (     0          0          1      )

 cart.    s( 2) = ( -1.0000000  0.0000000  0.0000000 )
                  (  0.0000000  1.0000000  0.0000000 )
                  (  0.0000000  0.0000000  1.0000000 )

   Cartesian axes

     site n.     atom                  positions (alat units)
         1           Zn  tau(   1) = (   0.5000000   0.2886751   0.7920380  )
         2           Zn  tau(   2) = (  -0.0000000   0.5773503   0.0010024  )
         3           O   tau(   3) = (   0.5000000   0.2886751   1.3917107  )
         4           O   tau(   4) = (  -0.0000000   0.5773503   0.6006751  )
         5           Zn  tau(   5) = (   0.0000000   1.1547005   0.7920380  )
         6           Zn  tau(   6) = (  -0.5000000   1.4433757   0.0010024  )
         7           O   tau(   7) = (   0.0000000   1.1547005   1.3917107  )
         8           O   tau(   8) = (  -0.5000000   1.4433757   0.6006751  )

   Crystallographic axes

     site n.     atom                  positions (cryst. coord.)
         1           Zn  tau(   1) = (  0.6666667  0.1666667  0.5006336  )
         2           Zn  tau(   2) = (  0.3333333  0.3333333  0.0006336  )
         3           O   tau(   3) = (  0.6666667  0.1666667  0.8796764  )
         4           O   tau(   4) = (  0.3333333  0.3333333  0.3796764  )
         5           Zn  tau(   5) = (  0.6666667  0.6666667  0.5006336  )
         6           Zn  tau(   6) = (  0.3333333  0.8333333  0.0006336  )
         7           O   tau(   7) = (  0.6666667  0.6666667  0.8796764  )
         8           O   tau(   8) = (  0.3333333  0.8333333  0.3796764  )

     number of k points=    80
                       cart. coord. in units 2pi/alat
        k(    1) = (   0.0000000   0.0000000   0.0000000), wk =   0.0092593
        k(    2) = (   0.0000000   0.0000000   0.1053471), wk =   0.0185185
        k(    3) = (   0.0000000   0.0000000   0.2106943), wk =   0.0185185
        k(    4) = (   0.0000000   0.0000000  -0.3160414), wk =   0.0092593
        k(    5) = (   0.0000000   0.0962250   0.0000000), wk =   0.0185185
        k(    6) = (   0.0000000   0.0962250   0.1053471), wk =   0.0185185
        k(    7) = (   0.0000000   0.0962250   0.2106943), wk =   0.0185185
        k(    8) = (   0.0000000   0.0962250  -0.3160414), wk =   0.0185185
        k(    9) = (   0.0000000   0.1924501   0.0000000), wk =   0.0185185
        k(   10) = (   0.0000000   0.1924501   0.1053471), wk =   0.0185185
        k(   11) = (   0.0000000   0.1924501   0.2106943), wk =   0.0185185
        k(   12) = (   0.0000000   0.1924501  -0.3160414), wk =   0.0185185
        k(   13) = (   0.0000000  -0.2886751   0.0000000), wk =   0.0092593
        k(   14) = (   0.0000000  -0.2886751   0.1053471), wk =   0.0185185
        k(   15) = (   0.0000000  -0.2886751   0.2106943), wk =   0.0185185
        k(   16) = (   0.0000000  -0.2886751  -0.3160414), wk =   0.0092593
        k(   17) = (   0.1666667   0.0962250   0.0000000), wk =   0.0370370
        k(   18) = (   0.1666667   0.0962250   0.1053471), wk =   0.0370370
        k(   19) = (   0.1666667   0.0962250   0.2106943), wk =   0.0370370
        k(   20) = (   0.1666667   0.0962250  -0.3160414), wk =   0.0370370
        k(   21) = (   0.1666667   0.1924501   0.0000000), wk =   0.0370370
        k(   22) = (   0.1666667   0.1924501   0.1053471), wk =   0.0370370
        k(   23) = (   0.1666667   0.1924501   0.2106943), wk =   0.0370370
        k(   24) = (   0.1666667   0.1924501  -0.3160414), wk =   0.0370370
        k(   25) = (   0.1666667   0.2886751   0.0000000), wk =   0.0185185
        k(   26) = (   0.1666667   0.2886751   0.1053471), wk =   0.0370370
        k(   27) = (   0.1666667   0.2886751   0.2106943), wk =   0.0370370
        k(   28) = (   0.1666667   0.2886751  -0.3160414), wk =   0.0185185
        k(   29) = (   0.1666667   0.0000000   0.0000000), wk =   0.0185185
        k(   30) = (   0.1666667   0.0000000   0.1053471), wk =   0.0370370
        k(   31) = (   0.1666667   0.0000000   0.2106943), wk =   0.0370370
        k(   32) = (   0.1666667   0.0000000  -0.3160414), wk =   0.0185185
        k(   33) = (   0.3333333   0.1924501   0.0000000), wk =   0.0370370
        k(   34) = (   0.3333333   0.1924501   0.1053471), wk =   0.0370370
        k(   35) = (   0.3333333   0.1924501   0.2106943), wk =   0.0370370
        k(   36) = (   0.3333333   0.1924501  -0.3160414), wk =   0.0370370
        k(   37) = (   0.3333333   0.2886751   0.0000000), wk =   0.0185185
        k(   38) = (   0.3333333   0.2886751   0.1053471), wk =   0.0370370
        k(   39) = (   0.3333333   0.2886751   0.2106943), wk =   0.0370370
        k(   40) = (   0.3333333   0.2886751  -0.3160414), wk =   0.0185185
        k(   41) = (   0.3333333  -0.0962250   0.0000000), wk =   0.0370370
        k(   42) = (   0.3333333  -0.0962250   0.1053471), wk =   0.0370370
        k(   43) = (   0.3333333  -0.0962250   0.2106943), wk =   0.0370370
        k(   44) = (   0.3333333  -0.0962250  -0.3160414), wk =   0.0370370
        k(   45) = (   0.3333333  -0.0000000   0.0000000), wk =   0.0185185
        k(   46) = (   0.3333333  -0.0000000   0.1053471), wk =   0.0370370
        k(   47) = (   0.3333333  -0.0000000   0.2106943), wk =   0.0370370
        k(   48) = (   0.3333333  -0.0000000  -0.3160414), wk =   0.0185185
        k(   49) = (  -0.5000000  -0.2886751   0.0000000), wk =   0.0092593
        k(   50) = (  -0.5000000  -0.2886751   0.1053471), wk =   0.0185185
        k(   51) = (  -0.5000000  -0.2886751   0.2106943), wk =   0.0185185
        k(   52) = (  -0.5000000  -0.2886751  -0.3160414), wk =   0.0092593
        k(   53) = (  -0.5000000  -0.1924501   0.0000000), wk =   0.0185185
        k(   54) = (  -0.5000000  -0.1924501   0.1053471), wk =   0.0185185
        k(   55) = (  -0.5000000  -0.1924501   0.2106943), wk =   0.0185185
        k(   56) = (  -0.5000000  -0.1924501  -0.3160414), wk =   0.0185185
        k(   57) = (  -0.5000000  -0.0962250   0.0000000), wk =   0.0185185
        k(   58) = (  -0.5000000  -0.0962250   0.1053471), wk =   0.0185185
        k(   59) = (  -0.5000000  -0.0962250   0.2106943), wk =   0.0185185
        k(   60) = (  -0.5000000  -0.0962250  -0.3160414), wk =   0.0185185
[...]
        k(   66) = (   0.0000000   0.0962250  -0.2106943), wk =   0.0185185
        k(   67) = (   0.0000000   0.1924501  -0.1053471), wk =   0.0185185
        k(   68) = (   0.0000000   0.1924501  -0.2106943), wk =   0.0185185
        k(   69) = (  -0.1666667   0.0962250  -0.1053471), wk =   0.0370370
        k(   70) = (  -0.1666667   0.0962250  -0.2106943), wk =   0.0370370
        k(   71) = (  -0.1666667   0.1924501  -0.1053471), wk =   0.0370370
        k(   72) = (  -0.1666667   0.1924501  -0.2106943), wk =   0.0370370
        k(   73) = (  -0.3333333   0.1924501  -0.1053471), wk =   0.0370370
        k(   74) = (  -0.3333333   0.1924501  -0.2106943), wk =   0.0370370
        k(   75) = (  -0.3333333  -0.0962250  -0.1053471), wk =   0.0370370
        k(   76) = (  -0.3333333  -0.0962250  -0.2106943), wk =   0.0370370
        k(   77) = (   0.5000000  -0.1924501  -0.1053471), wk =   0.0185185
        k(   78) = (   0.5000000  -0.1924501  -0.2106943), wk =   0.0185185
        k(   79) = (   0.5000000  -0.0962250  -0.1053471), wk =   0.0185185
        k(   80) = (   0.5000000  -0.0962250  -0.2106943), wk =   0.0185185

                       cryst. coord.
        k(    1) = (   0.0000000   0.0000000   0.0000000), wk =   0.0092593
        k(    2) = (   0.0000000   0.0000000   0.1666667), wk =   0.0185185
        k(    3) = (   0.0000000   0.0000000   0.3333333), wk =   0.0185185
        k(    4) = (   0.0000000   0.0000000  -0.5000000), wk =   0.0092593
        k(    5) = (   0.0000000   0.1666667   0.0000000), wk =   0.0185185
        k(    6) = (   0.0000000   0.1666667   0.1666667), wk =   0.0185185
        k(    7) = (   0.0000000   0.1666667   0.3333333), wk =   0.0185185
        k(    8) = (   0.0000000   0.1666667  -0.5000000), wk =   0.0185185
        k(    9) = (   0.0000000   0.3333333   0.0000000), wk =   0.0185185
        k(   10) = (   0.0000000   0.3333333   0.1666667), wk =   0.0185185
        k(   11) = (   0.0000000   0.3333333   0.3333333), wk =   0.0185185
        k(   12) = (   0.0000000   0.3333333  -0.5000000), wk =   0.0185185
        k(   13) = (   0.0000000  -0.5000000   0.0000000), wk =   0.0092593
        k(   14) = (   0.0000000  -0.5000000   0.1666667), wk =   0.0185185
        k(   15) = (   0.0000000  -0.5000000   0.3333333), wk =   0.0185185
        k(   16) = (   0.0000000  -0.5000000  -0.5000000), wk =   0.0092593
        k(   17) = (   0.1666667   0.0000000   0.0000000), wk =   0.0370370
        k(   18) = (   0.1666667   0.0000000   0.1666667), wk =   0.0370370
        k(   19) = (   0.1666667   0.0000000   0.3333333), wk =   0.0370370
        k(   20) = (   0.1666667   0.0000000  -0.5000000), wk =   0.0370370
        k(   21) = (   0.1666667   0.1666667   0.0000000), wk =   0.0370370
        k(   22) = (   0.1666667   0.1666667   0.1666667), wk =   0.0370370
        k(   23) = (   0.1666667   0.1666667   0.3333333), wk =   0.0370370
        k(   24) = (   0.1666667   0.1666667  -0.5000000), wk =   0.0370370
        k(   25) = (   0.1666667   0.3333333   0.0000000), wk =   0.0185185
        k(   26) = (   0.1666667   0.3333333   0.1666667), wk =   0.0370370
        k(   27) = (   0.1666667   0.3333333   0.3333333), wk =   0.0370370
        k(   28) = (   0.1666667   0.3333333  -0.5000000), wk =   0.0185185
        k(   29) = (   0.1666667  -0.1666667   0.0000000), wk =   0.0185185
        k(   30) = (   0.1666667  -0.1666667   0.1666667), wk =   0.0370370
        k(   31) = (   0.1666667  -0.1666667   0.3333333), wk =   0.0370370
        k(   32) = (   0.1666667  -0.1666667  -0.5000000), wk =   0.0185185
        k(   33) = (   0.3333333   0.0000000   0.0000000), wk =   0.0370370
        k(   34) = (   0.3333333   0.0000000   0.1666667), wk =   0.0370370
        k(   35) = (   0.3333333   0.0000000   0.3333333), wk =   0.0370370
        k(   36) = (   0.3333333   0.0000000  -0.5000000), wk =   0.0370370
        k(   37) = (   0.3333333   0.1666667   0.0000000), wk =   0.0185185
        k(   38) = (   0.3333333   0.1666667   0.1666667), wk =   0.0370370
        k(   39) = (   0.3333333   0.1666667   0.3333333), wk =   0.0370370
        k(   40) = (   0.3333333   0.1666667  -0.5000000), wk =   0.0185185
        k(   41) = (   0.3333333  -0.5000000   0.0000000), wk =   0.0370370
        k(   42) = (   0.3333333  -0.5000000   0.1666667), wk =   0.0370370
        k(   43) = (   0.3333333  -0.5000000   0.3333333), wk =   0.0370370
        k(   44) = (   0.3333333  -0.5000000  -0.5000000), wk =   0.0370370
        k(   45) = (   0.3333333  -0.3333333   0.0000000), wk =   0.0185185
        k(   46) = (   0.3333333  -0.3333333   0.1666667), wk =   0.0370370
        k(   47) = (   0.3333333  -0.3333333   0.3333333), wk =   0.0370370
        k(   48) = (   0.3333333  -0.3333333  -0.5000000), wk =   0.0185185
        k(   49) = (  -0.5000000   0.0000000   0.0000000), wk =   0.0092593
        k(   50) = (  -0.5000000   0.0000000   0.1666667), wk =   0.0185185
        k(   51) = (  -0.5000000   0.0000000   0.3333333), wk =   0.0185185
        k(   52) = (  -0.5000000   0.0000000  -0.5000000), wk =   0.0092593
        k(   53) = (  -0.5000000   0.1666667   0.0000000), wk =   0.0185185
        k(   54) = (  -0.5000000   0.1666667   0.1666667), wk =   0.0185185
        k(   55) = (  -0.5000000   0.1666667   0.3333333), wk =   0.0185185
        k(   56) = (  -0.5000000   0.1666667  -0.5000000), wk =   0.0185185
        k(   57) = (  -0.5000000   0.3333333   0.0000000), wk =   0.0185185
        k(   58) = (  -0.5000000   0.3333333   0.1666667), wk =   0.0185185
        k(   59) = (  -0.5000000   0.3333333   0.3333333), wk =   0.0185185
        k(   60) = (  -0.5000000   0.3333333  -0.5000000), wk =   0.0185185
[...]
        k(   66) = (   0.0000000   0.1666667  -0.3333333), wk =   0.0185185
        k(   67) = (   0.0000000   0.3333333  -0.1666667), wk =   0.0185185
        k(   68) = (   0.0000000   0.3333333  -0.3333333), wk =   0.0185185
        k(   69) = (  -0.1666667   0.3333333  -0.1666667), wk =   0.0370370
        k(   70) = (  -0.1666667   0.3333333  -0.3333333), wk =   0.0370370
        k(   71) = (  -0.1666667   0.5000000  -0.1666667), wk =   0.0370370
        k(   72) = (  -0.1666667   0.5000000  -0.3333333), wk =   0.0370370
        k(   73) = (  -0.3333333   0.6666667  -0.1666667), wk =   0.0370370
        k(   74) = (  -0.3333333   0.6666667  -0.3333333), wk =   0.0370370
        k(   75) = (  -0.3333333   0.1666667  -0.1666667), wk =   0.0370370
        k(   76) = (  -0.3333333   0.1666667  -0.3333333), wk =   0.0370370
        k(   77) = (   0.5000000  -0.8333333  -0.1666667), wk =   0.0185185
        k(   78) = (   0.5000000  -0.8333333  -0.3333333), wk =   0.0185185
        k(   79) = (   0.5000000  -0.6666667  -0.1666667), wk =   0.0185185
        k(   80) = (   0.5000000  -0.6666667  -0.3333333), wk =   0.0185185

     Check: negative core charge=   -0.000002

     Initial potential from superposition of free atoms

     starting charge      71.9851, renormalised to      72.0000
     Starting wfcs are   52 randomized atomic wfcs

     Self-consistent Calculation

     iteration #  1     ecut=    50.00 Ry     beta= 0.30
     Davidson diagonalization with overlap

     ethr =  1.00E-02,  avg # of iterations =  2.0

     total energy              =    -722.95003240 Ry
     estimated scf accuracy    <       1.35415671 Ry

[...]

     c_bands:  1 eigenvalues not converged
     c_bands:  1 eigenvalues not converged
     c_bands:  1 eigenvalues not converged
     c_bands:  1 eigenvalues not converged
     ethr =  2.04E-07,  avg # of iterations = 14.0

[...]

     c_bands:  1 eigenvalues not converged
     ethr =  5.95E-11,  avg # of iterations = 11.9

[...]

     total energy              =    -723.24684417 Ry
     estimated scf accuracy    <       0.00000011 Ry

     iteration # 32     ecut=    50.00 Ry     beta= 0.30
     Davidson diagonalization with overlap

     ethr =  5.95E-11,  avg # of iterations =  5.0

     End of self-consistent calculation

          k = 0.0000 0.0000 0.0000 (  3623 PWs)   bands (ev):

   -10.4284  -9.6703  -9.5870  -9.4116   1.8553   2.0251   2.0813   2.1585
     2.1587   2.1997   2.3822   2.3824   2.4260   2.7444   2.8589   3.0450
     3.4991   3.4991   3.5352   3.6982   3.7534   3.7535   3.8070   3.8814
     4.0292   4.3740   4.4312   5.1397   5.6070   6.7678   7.1986   7.1988
     7.2287   8.0483   8.1075   8.1078

     occupation numbers
     1.0000   1.0000   1.0000   1.0000   1.0000   1.0000   1.0000   1.0000
     1.0000   1.0000   1.0000   1.0000   1.0000   1.0000   1.0000   1.0000
     1.0000   1.0000   1.0000   1.0000   1.0000   1.0000   1.0000   1.0000
     1.0000   1.0000   1.0000   1.0000   1.0000   1.0000   1.0000   1.0000
     1.0000   1.0000   1.0000   1.0000

[...]

          k =-0.5000-0.2887 0.0000 (  3652 PWs)   bands (ev):

[...]

          k =-0.3333-0.0962-0.2107 (  3644 PWs)   bands (ev):

[...]

          k = 0.5000-0.0962-0.2107 (  3640 PWs)   bands (ev):

    -9.6026  -9.6026  -9.4653  -9.4653   1.7950   1.7950   1.8792   1.8792
     2.4214   2.4214   2.5580   2.5580   2.7829   2.7829   2.8355   2.8355
     3.5823   3.5823   3.6727   3.6727   3.8207   3.8207   3.9604   3.9604
     4.3372   4.3372   4.7089   4.7089   5.5175   5.5175   6.1582   6.1582
     6.4765   6.4765   7.0033   7.0033

     occupation numbers
     1.0000   1.0000   1.0000   1.0000   1.0000   1.0000   1.0000   1.0000
     1.0000   1.0000   1.0000   1.0000   1.0000   1.0000   1.0000   1.0000
     1.0000   1.0000   1.0000   1.0000   1.0000   1.0000   1.0000   1.0000
     1.0000   1.0000   1.0000   1.0000   1.0000   1.0000   1.0000   1.0000
     1.0000   1.0000   1.0000   1.0000

     highest occupied level (ev):     8.1078

!    total energy              =    -723.24684418 Ry
     estimated scf accuracy    <          4.5E-09 Ry

     The total energy is the sum of the following terms:
     one-electron contribution =    -290.51595286 Ry
     hartree contribution      =     230.09376726 Ry
     xc contribution           =    -219.43976004 Ry
     ewald contribution        =    -443.38489854 Ry

     convergence has been achieved in  32 iterations

     Forces acting on atoms (cartesian axes, Ry/au):

     atom    1 type  1   force =     0.00000000   -0.00001061   -0.01006806
     atom    2 type  1   force =     0.00000000    0.00001087   -0.01006956
     atom    3 type  2   force =     0.00000000    0.00000112    0.01006941
     atom    4 type  2   force =     0.00000000   -0.00000225    0.01006800
     atom    5 type  1   force =     0.00000000   -0.00000937   -0.01007073
     atom    6 type  1   force =     0.00000000    0.00001004   -0.01006580
     atom    7 type  2   force =     0.00000000    0.00000229    0.01006823
     atom    8 type  2   force =     0.00000000   -0.00000209    0.01006850
     The non-local contrib.  to forces
     atom    1 type  1   force =     0.00000000    0.00002476   -0.06541399
     atom    2 type  1   force =     0.00000000   -0.00002322   -0.06541424
     atom    3 type  2   force =     0.00000000    0.00019622   -0.04204547
     atom    4 type  2   force =     0.00000000   -0.00019723   -0.04204765
     atom    5 type  1   force =     0.00000000    0.00002354   -0.06541387
     atom    6 type  1   force =     0.00000000   -0.00002547   -0.06541426
     atom    7 type  2   force =     0.00000000    0.00019731   -0.04204613
     atom    8 type  2   force =     0.00000000   -0.00019605   -0.04204832
     The ionic contribution  to forces
     atom    1 type  1   force =    -0.00000000   -0.00000002   -0.37300166
     atom    2 type  1   force =     0.00000000   -0.00000002   -0.37300165
     atom    3 type  2   force =    -0.00000000   -0.00000001    0.37300166
     atom    4 type  2   force =     0.00000000   -0.00000001    0.37300165
     atom    5 type  1   force =    -0.00000000    0.00000002   -0.37300165
     atom    6 type  1   force =     0.00000000    0.00000002   -0.37300166
     atom    7 type  2   force =    -0.00000000    0.00000001    0.37300165
     atom    8 type  2   force =     0.00000000    0.00000001    0.37300166
     The local contribution  to forces
     atom    1 type  1   force =     0.00000000   -0.00003974    0.42299398
     atom    2 type  1   force =     0.00000008    0.00003722    0.42299421
     atom    3 type  2   force =     0.00000000   -0.00019288   -0.32116574
     atom    4 type  2   force =     0.00000002    0.00019212   -0.32116480
     atom    5 type  1   force =    -0.00000008   -0.00003826    0.42299468
     atom    6 type  1   force =     0.00000000    0.00004133    0.42299342
     atom    7 type  2   force =    -0.00000002   -0.00019225   -0.32116653
     atom    8 type  2   force =    -0.00000000    0.00019310   -0.32116459
     The core correction contribution to forces
     atom    1 type  1   force =     0.00000000    0.00000480    0.00534956
     atom    2 type  1   force =     0.00000001   -0.00000473    0.00534976
     atom    3 type  2   force =     0.00000000   -0.00000224    0.00028387
     atom    4 type  2   force =    -0.00000000    0.00000226    0.00028390
     atom    5 type  1   force =    -0.00000001    0.00000476    0.00534966
     atom    6 type  1   force =    -0.00000000   -0.00000484    0.00534962
     atom    7 type  2   force =     0.00000000   -0.00000226    0.00028387
     atom    8 type  2   force =    -0.00000000    0.00000224    0.00028391
     The Hubbard contrib.    to forces
     atom    1 type  1   force =     0.00000000    0.00000000    0.00000000
     atom    2 type  1   force =     0.00000000    0.00000000    0.00000000
     atom    3 type  2   force =     0.00000000    0.00000000    0.00000000
     atom    4 type  2   force =     0.00000000    0.00000000    0.00000000
     atom    5 type  1   force =     0.00000000    0.00000000    0.00000000
     atom    6 type  1   force =     0.00000000    0.00000000    0.00000000
     atom    7 type  2   force =     0.00000000    0.00000000    0.00000000
     atom    8 type  2   force =     0.00000000    0.00000000    0.00000000
     The SCF correction term to forces
     atom    1 type  1   force =     0.00000000   -0.00000032    0.00000687
     atom    2 type  1   force =    -0.00000000    0.00000171    0.00000520
     atom    3 type  2   force =     0.00000000    0.00000012   -0.00000209
     atom    4 type  2   force =    -0.00000000    0.00000072   -0.00000227
     atom    5 type  1   force =     0.00000000    0.00000067    0.00000329
     atom    6 type  1   force =    -0.00000000   -0.00000090    0.00000990
     atom    7 type  2   force =     0.00000000   -0.00000043   -0.00000181
     atom    8 type  2   force =    -0.00000000   -0.00000130   -0.00000134

     Total force =     0.028478     Total SCF correction =     0.000014

     General routines

     Parallel routines

   This run was terminated on:  17:33:48  26Aug2025

   JOB DONE.