     Program PWSCF v.7.0 starts on 26Aug2025 at 17:57: 4

     K-points division:     npool     =       4
     band groups division:  nbgrp     =       4

     Reading input from /home/jvc/QEspresso7.2/ZnO_database/scripts/cell121.in/ZnO-3.20-1.71-121.in
Warning: card &CELL ignored
Warning: card / ignored
Warning: card &FCP ignored
Warning: card / ignored
Warning: card &RISM ignored
Warning: card / ignored

     Current dimensions of program PWSCF are:
     Max number of different atomic species (ntypx) = 10
     Max number of k-points (npk) =  40000
     Max angular momentum in pseudopotentials (lmaxx) =  4
     file Zn.upf: wavefunction(s)  3D renormalized
     Found identity + (  0.0000  0.5000  0.0000) symmetry
     This is a supercell, fractional translations are disabled
     Message from routine setup:
     using ibrav=0 with symmetry is DISCOURAGED, use correct ibrav instead

     Subspace diagonalization in iterative solution of the eigenvalue problem:
     a serial algorithm will be used

     Using Slab Decomposition

     bravais-lattice index     =            0
     lattice parameter (alat)  =       6.0553  a.u.
     unit-cell volume          =     658.0645 (a.u.)^3
     number of atoms/cell      =            8
     number of atomic types    =            2
     number of electrons       =        72.00
     number of Kohn-Sham states=           36
     kinetic-energy cutoff     =      50.0000  Ry
     charge density cutoff     =     400.0000  Ry
     scf convergence threshold =      1.0E-08
     mixing beta               =       0.3000
     number of iterations used =            8  plain     mixing
     Exchange-correlation= PBE
                           (   1   4   3   4   0   0   0)

     celldm(1)=   6.055277  celldm(2)=   0.000000  celldm(3)=   0.000000
     celldm(4)=   0.000000  celldm(5)=   0.000000  celldm(6)=   0.000000

     crystal axes: (cart. coord. in units of alat)
               a(1) = (   1.000000   0.000000   0.000000 )
               a(2) = (  -1.000000   1.732051   0.000000 )
               a(3) = (   0.000000   0.000000   1.711220 )

     reciprocal axes: (cart. coord. in units 2 pi/alat)
               b(1) = (  1.000000  0.577350 -0.000000 )
               b(2) = (  0.000000  0.577350  0.000000 )
               b(3) = (  0.000000 -0.000000  0.584378 )

     PseudoPot. # 1 for Zn read from file:
     /home/jvc/QEspresso7.2/ZnO_database/pseudos/Zn.upf
     MD5 check sum: 7f56cabf9682ed8c977c2f7d0c5985c5
     Pseudo is Ultrasoft + core correction, Zval = 12.0
     Generated using &quot;atomic&quot; code by A. Dal Corso  v.6.2.2
     Using radial grid of 1201 points,  6 beta functions with:
                l(1) =   0
                l(2) =   0
                l(3) =   1
                l(4) =   1
                l(5) =   2
                l(6) =   2
     Q(r) pseudized with 0 coefficients

     PseudoPot. # 2 for O  read from file:
     /home/jvc/QEspresso7.2/ZnO_database/pseudos/O.upf
     MD5 check sum: 91400c9766925bcf19f520983a725ff0
     Pseudo is Ultrasoft + core correction, Zval =  6.0
     Generated using &quot;atomic&quot; code by A. Dal Corso  v.6.3MaX
     Using radial grid of 1095 points,  4 beta functions with:
                l(1) =   0
                l(2) =   0
                l(3) =   1
                l(4) =   1
     Q(r) pseudized with 0 coefficients

     atomic species   valence    mass     pseudopotential
        Zn            12.00    65.38000     Zn( 1.00)
        O              6.00    15.99900     O ( 1.00)

      2 Sym. Ops. (no inversion) found

                                    s                        frac. trans.

      isym =  1     identity

 cryst.   s( 1) = (     1          0          0      )
                  (     0          1          0      )
                  (     0          0          1      )

 cart.    s( 1) = (  1.0000000  0.0000000  0.0000000 )
                  (  0.0000000  1.0000000  0.0000000 )
                  (  0.0000000  0.0000000  1.0000000 )

      isym =  2     inv. 180 deg rotation - cart. axis [1,0,0]

 cryst.   s( 2) = (    -1          0          0      )
                  (     2          1          0      )
                  (     0          0          1      )

 cart.    s( 2) = ( -1.0000000  0.0000000  0.0000000 )
                  (  0.0000000  1.0000000  0.0000000 )
                  (  0.0000000  0.0000000  1.0000000 )

   Cartesian axes

     site n.     atom                  positions (alat units)
         1           Zn  tau(   1) = (   0.5000000   0.2886751   0.8566941  )
         2           Zn  tau(   2) = (  -0.0000000   0.5773503   0.0010842  )
         3           O   tau(   3) = (   0.5000000   0.2886751   1.5053197  )
         4           O   tau(   4) = (  -0.0000000   0.5773503   0.6497098  )
         5           Zn  tau(   5) = (   0.0000000   1.1547005   0.8566941  )
         6           Zn  tau(   6) = (  -0.5000000   1.4433757   0.0010842  )
         7           O   tau(   7) = (   0.0000000   1.1547005   1.5053197  )
         8           O   tau(   8) = (  -0.5000000   1.4433757   0.6497098  )

   Crystallographic axes

     site n.     atom                  positions (cryst. coord.)
         1           Zn  tau(   1) = (  0.6666667  0.1666667  0.5006336  )
         2           Zn  tau(   2) = (  0.3333333  0.3333333  0.0006336  )
         3           O   tau(   3) = (  0.6666667  0.1666667  0.8796764  )
         4           O   tau(   4) = (  0.3333333  0.3333333  0.3796764  )
         5           Zn  tau(   5) = (  0.6666667  0.6666667  0.5006336  )
         6           Zn  tau(   6) = (  0.3333333  0.8333333  0.0006336  )
         7           O   tau(   7) = (  0.6666667  0.6666667  0.8796764  )
         8           O   tau(   8) = (  0.3333333  0.8333333  0.3796764  )

     number of k points=    80
                       cart. coord. in units 2pi/alat
        k(    1) = (   0.0000000   0.0000000   0.0000000), wk =   0.0092593
        k(    2) = (   0.0000000   0.0000000   0.0973964), wk =   0.0185185
        k(    3) = (   0.0000000   0.0000000   0.1947928), wk =   0.0185185
        k(    4) = (   0.0000000   0.0000000  -0.2921892), wk =   0.0092593
        k(    5) = (   0.0000000   0.0962250   0.0000000), wk =   0.0185185
        k(    6) = (   0.0000000   0.0962250   0.0973964), wk =   0.0185185
        k(    7) = (   0.0000000   0.0962250   0.1947928), wk =   0.0185185
        k(    8) = (   0.0000000   0.0962250  -0.2921892), wk =   0.0185185
        k(    9) = (   0.0000000   0.1924501   0.0000000), wk =   0.0185185
        k(   10) = (   0.0000000   0.1924501   0.0973964), wk =   0.0185185
        k(   11) = (   0.0000000   0.1924501   0.1947928), wk =   0.0185185
        k(   12) = (   0.0000000   0.1924501  -0.2921892), wk =   0.0185185
        k(   13) = (   0.0000000  -0.2886751   0.0000000), wk =   0.0092593
        k(   14) = (   0.0000000  -0.2886751   0.0973964), wk =   0.0185185
        k(   15) = (   0.0000000  -0.2886751   0.1947928), wk =   0.0185185
        k(   16) = (   0.0000000  -0.2886751  -0.2921892), wk =   0.0092593
        k(   17) = (   0.1666667   0.0962250   0.0000000), wk =   0.0370370
        k(   18) = (   0.1666667   0.0962250   0.0973964), wk =   0.0370370
        k(   19) = (   0.1666667   0.0962250   0.1947928), wk =   0.0370370
        k(   20) = (   0.1666667   0.0962250  -0.2921892), wk =   0.0370370
        k(   21) = (   0.1666667   0.1924501   0.0000000), wk =   0.0370370
        k(   22) = (   0.1666667   0.1924501   0.0973964), wk =   0.0370370
        k(   23) = (   0.1666667   0.1924501   0.1947928), wk =   0.0370370
        k(   24) = (   0.1666667   0.1924501  -0.2921892), wk =   0.0370370
        k(   25) = (   0.1666667   0.2886751   0.0000000), wk =   0.0185185
        k(   26) = (   0.1666667   0.2886751   0.0973964), wk =   0.0370370
        k(   27) = (   0.1666667   0.2886751   0.1947928), wk =   0.0370370
        k(   28) = (   0.1666667   0.2886751  -0.2921892), wk =   0.0185185
        k(   29) = (   0.1666667   0.0000000   0.0000000), wk =   0.0185185
        k(   30) = (   0.1666667   0.0000000   0.0973964), wk =   0.0370370
        k(   31) = (   0.1666667   0.0000000   0.1947928), wk =   0.0370370
        k(   32) = (   0.1666667   0.0000000  -0.2921892), wk =   0.0185185
        k(   33) = (   0.3333333   0.1924501   0.0000000), wk =   0.0370370
        k(   34) = (   0.3333333   0.1924501   0.0973964), wk =   0.0370370
        k(   35) = (   0.3333333   0.1924501   0.1947928), wk =   0.0370370
        k(   36) = (   0.3333333   0.1924501  -0.2921892), wk =   0.0370370
        k(   37) = (   0.3333333   0.2886751   0.0000000), wk =   0.0185185
        k(   38) = (   0.3333333   0.2886751   0.0973964), wk =   0.0370370
        k(   39) = (   0.3333333   0.2886751   0.1947928), wk =   0.0370370
        k(   40) = (   0.3333333   0.2886751  -0.2921892), wk =   0.0185185
        k(   41) = (   0.3333333  -0.0962250   0.0000000), wk =   0.0370370
        k(   42) = (   0.3333333  -0.0962250   0.0973964), wk =   0.0370370
        k(   43) = (   0.3333333  -0.0962250   0.1947928), wk =   0.0370370
        k(   44) = (   0.3333333  -0.0962250  -0.2921892), wk =   0.0370370
        k(   45) = (   0.3333333  -0.0000000   0.0000000), wk =   0.0185185
        k(   46) = (   0.3333333  -0.0000000   0.0973964), wk =   0.0370370
        k(   47) = (   0.3333333  -0.0000000   0.1947928), wk =   0.0370370
        k(   48) = (   0.3333333  -0.0000000  -0.2921892), wk =   0.0185185
        k(   49) = (  -0.5000000  -0.2886751   0.0000000), wk =   0.0092593
        k(   50) = (  -0.5000000  -0.2886751   0.0973964), wk =   0.0185185
        k(   51) = (  -0.5000000  -0.2886751   0.1947928), wk =   0.0185185
        k(   52) = (  -0.5000000  -0.2886751  -0.2921892), wk =   0.0092593
        k(   53) = (  -0.5000000  -0.1924501   0.0000000), wk =   0.0185185
        k(   54) = (  -0.5000000  -0.1924501   0.0973964), wk =   0.0185185
        k(   55) = (  -0.5000000  -0.1924501   0.1947928), wk =   0.0185185
        k(   56) = (  -0.5000000  -0.1924501  -0.2921892), wk =   0.0185185
        k(   57) = (  -0.5000000  -0.0962250   0.0000000), wk =   0.0185185
        k(   58) = (  -0.5000000  -0.0962250   0.0973964), wk =   0.0185185
        k(   59) = (  -0.5000000  -0.0962250   0.1947928), wk =   0.0185185
        k(   60) = (  -0.5000000  -0.0962250  -0.2921892), wk =   0.0185185
[...]
        k(   66) = (   0.0000000   0.0962250  -0.1947928), wk =   0.0185185
        k(   67) = (   0.0000000   0.1924501  -0.0973964), wk =   0.0185185
        k(   68) = (   0.0000000   0.1924501  -0.1947928), wk =   0.0185185
        k(   69) = (  -0.1666667   0.0962250  -0.0973964), wk =   0.0370370
        k(   70) = (  -0.1666667   0.0962250  -0.1947928), wk =   0.0370370
        k(   71) = (  -0.1666667   0.1924501  -0.0973964), wk =   0.0370370
        k(   72) = (  -0.1666667   0.1924501  -0.1947928), wk =   0.0370370
        k(   73) = (  -0.3333333   0.1924501  -0.0973964), wk =   0.0370370
        k(   74) = (  -0.3333333   0.1924501  -0.1947928), wk =   0.0370370
        k(   75) = (  -0.3333333  -0.0962250  -0.0973964), wk =   0.0370370
        k(   76) = (  -0.3333333  -0.0962250  -0.1947928), wk =   0.0370370
        k(   77) = (   0.5000000  -0.1924501  -0.0973964), wk =   0.0185185
        k(   78) = (   0.5000000  -0.1924501  -0.1947928), wk =   0.0185185
        k(   79) = (   0.5000000  -0.0962250  -0.0973964), wk =   0.0185185
        k(   80) = (   0.5000000  -0.0962250  -0.1947928), wk =   0.0185185

                       cryst. coord.
        k(    1) = (   0.0000000   0.0000000   0.0000000), wk =   0.0092593
        k(    2) = (   0.0000000   0.0000000   0.1666667), wk =   0.0185185
        k(    3) = (   0.0000000   0.0000000   0.3333333), wk =   0.0185185
        k(    4) = (   0.0000000   0.0000000  -0.5000000), wk =   0.0092593
        k(    5) = (   0.0000000   0.1666667   0.0000000), wk =   0.0185185
        k(    6) = (   0.0000000   0.1666667   0.1666667), wk =   0.0185185
        k(    7) = (   0.0000000   0.1666667   0.3333333), wk =   0.0185185
        k(    8) = (   0.0000000   0.1666667  -0.5000000), wk =   0.0185185
        k(    9) = (   0.0000000   0.3333333   0.0000000), wk =   0.0185185
        k(   10) = (   0.0000000   0.3333333   0.1666667), wk =   0.0185185
        k(   11) = (   0.0000000   0.3333333   0.3333333), wk =   0.0185185
        k(   12) = (   0.0000000   0.3333333  -0.5000000), wk =   0.0185185
        k(   13) = (   0.0000000  -0.5000000   0.0000000), wk =   0.0092593
        k(   14) = (   0.0000000  -0.5000000   0.1666667), wk =   0.0185185
        k(   15) = (   0.0000000  -0.5000000   0.3333333), wk =   0.0185185
        k(   16) = (   0.0000000  -0.5000000  -0.5000000), wk =   0.0092593
        k(   17) = (   0.1666667   0.0000000   0.0000000), wk =   0.0370370
        k(   18) = (   0.1666667   0.0000000   0.1666667), wk =   0.0370370
        k(   19) = (   0.1666667   0.0000000   0.3333333), wk =   0.0370370
        k(   20) = (   0.1666667   0.0000000  -0.5000000), wk =   0.0370370
        k(   21) = (   0.1666667   0.1666667   0.0000000), wk =   0.0370370
        k(   22) = (   0.1666667   0.1666667   0.1666667), wk =   0.0370370
        k(   23) = (   0.1666667   0.1666667   0.3333333), wk =   0.0370370
        k(   24) = (   0.1666667   0.1666667  -0.5000000), wk =   0.0370370
        k(   25) = (   0.1666667   0.3333333   0.0000000), wk =   0.0185185
        k(   26) = (   0.1666667   0.3333333   0.1666667), wk =   0.0370370
        k(   27) = (   0.1666667   0.3333333   0.3333333), wk =   0.0370370
        k(   28) = (   0.1666667   0.3333333  -0.5000000), wk =   0.0185185
        k(   29) = (   0.1666667  -0.1666667   0.0000000), wk =   0.0185185
        k(   30) = (   0.1666667  -0.1666667   0.1666667), wk =   0.0370370
        k(   31) = (   0.1666667  -0.1666667   0.3333333), wk =   0.0370370
        k(   32) = (   0.1666667  -0.1666667  -0.5000000), wk =   0.0185185
        k(   33) = (   0.3333333   0.0000000   0.0000000), wk =   0.0370370
        k(   34) = (   0.3333333   0.0000000   0.1666667), wk =   0.0370370
        k(   35) = (   0.3333333   0.0000000   0.3333333), wk =   0.0370370
        k(   36) = (   0.3333333   0.0000000  -0.5000000), wk =   0.0370370
        k(   37) = (   0.3333333   0.1666667   0.0000000), wk =   0.0185185
        k(   38) = (   0.3333333   0.1666667   0.1666667), wk =   0.0370370
        k(   39) = (   0.3333333   0.1666667   0.3333333), wk =   0.0370370
        k(   40) = (   0.3333333   0.1666667  -0.5000000), wk =   0.0185185
        k(   41) = (   0.3333333  -0.5000000   0.0000000), wk =   0.0370370
        k(   42) = (   0.3333333  -0.5000000   0.1666667), wk =   0.0370370
        k(   43) = (   0.3333333  -0.5000000   0.3333333), wk =   0.0370370
        k(   44) = (   0.3333333  -0.5000000  -0.5000000), wk =   0.0370370
        k(   45) = (   0.3333333  -0.3333333   0.0000000), wk =   0.0185185
        k(   46) = (   0.3333333  -0.3333333   0.1666667), wk =   0.0370370
        k(   47) = (   0.3333333  -0.3333333   0.3333333), wk =   0.0370370
        k(   48) = (   0.3333333  -0.3333333  -0.5000000), wk =   0.0185185
        k(   49) = (  -0.5000000   0.0000000   0.0000000), wk =   0.0092593
        k(   50) = (  -0.5000000   0.0000000   0.1666667), wk =   0.0185185
        k(   51) = (  -0.5000000   0.0000000   0.3333333), wk =   0.0185185
        k(   52) = (  -0.5000000   0.0000000  -0.5000000), wk =   0.0092593
        k(   53) = (  -0.5000000   0.1666667   0.0000000), wk =   0.0185185
        k(   54) = (  -0.5000000   0.1666667   0.1666667), wk =   0.0185185
        k(   55) = (  -0.5000000   0.1666667   0.3333333), wk =   0.0185185
        k(   56) = (  -0.5000000   0.1666667  -0.5000000), wk =   0.0185185
        k(   57) = (  -0.5000000   0.3333333   0.0000000), wk =   0.0185185
        k(   58) = (  -0.5000000   0.3333333   0.1666667), wk =   0.0185185
        k(   59) = (  -0.5000000   0.3333333   0.3333333), wk =   0.0185185
        k(   60) = (  -0.5000000   0.3333333  -0.5000000), wk =   0.0185185
[...]
        k(   66) = (   0.0000000   0.1666667  -0.3333333), wk =   0.0185185
        k(   67) = (   0.0000000   0.3333333  -0.1666667), wk =   0.0185185
        k(   68) = (   0.0000000   0.3333333  -0.3333333), wk =   0.0185185
        k(   69) = (  -0.1666667   0.3333333  -0.1666667), wk =   0.0370370
        k(   70) = (  -0.1666667   0.3333333  -0.3333333), wk =   0.0370370
        k(   71) = (  -0.1666667   0.5000000  -0.1666667), wk =   0.0370370
        k(   72) = (  -0.1666667   0.5000000  -0.3333333), wk =   0.0370370
        k(   73) = (  -0.3333333   0.6666667  -0.1666667), wk =   0.0370370
        k(   74) = (  -0.3333333   0.6666667  -0.3333333), wk =   0.0370370
        k(   75) = (  -0.3333333   0.1666667  -0.1666667), wk =   0.0370370
        k(   76) = (  -0.3333333   0.1666667  -0.3333333), wk =   0.0370370
        k(   77) = (   0.5000000  -0.8333333  -0.1666667), wk =   0.0185185
        k(   78) = (   0.5000000  -0.8333333  -0.3333333), wk =   0.0185185
        k(   79) = (   0.5000000  -0.6666667  -0.1666667), wk =   0.0185185
        k(   80) = (   0.5000000  -0.6666667  -0.3333333), wk =   0.0185185

     Check: negative core charge=   -0.000002

     Initial potential from superposition of free atoms

     starting charge      71.9851, renormalised to      72.0000
     Starting wfcs are   52 randomized atomic wfcs

     Self-consistent Calculation

     iteration #  1     ecut=    50.00 Ry     beta= 0.30
     Davidson diagonalization with overlap

     ethr =  1.00E-02,  avg # of iterations =  1.9

     total energy              =    -722.94831144 Ry
     estimated scf accuracy    <       1.38953146 Ry

[...]

     total energy              =    -723.26350224 Ry
     estimated scf accuracy    <       0.00000011 Ry

     iteration # 22     ecut=    50.00 Ry     beta= 0.30
     Davidson diagonalization with overlap

     ethr =  1.56E-10,  avg # of iterations =  3.8

     End of self-consistent calculation

          k = 0.0000 0.0000 0.0000 (  3921 PWs)   bands (ev):

   -10.9977 -10.4022 -10.3156 -10.1359   1.0947   1.2388   1.2946   1.2949
     1.3260   1.3600   1.4507   1.4509   1.5750   1.9752   2.0215   2.0732
     2.4687   2.4688   2.4972   2.6301   2.6301   2.6302   2.6859   2.7681
     2.9658   3.1477   3.3576   4.2087   4.9419   5.6303   6.0953   6.3488
     6.3492   6.7370   6.9824   6.9828

     occupation numbers
     1.0000   1.0000   1.0000   1.0000   1.0000   1.0000   1.0000   1.0000
     1.0000   1.0000   1.0000   1.0000   1.0000   1.0000   1.0000   1.0000
     1.0000   1.0000   1.0000   1.0000   1.0000   1.0000   1.0000   1.0000
     1.0000   1.0000   1.0000   1.0000   1.0000   1.0000   1.0000   1.0000
     1.0000   1.0000   1.0000   1.0000

[...]

          k =-0.5000-0.2887 0.0000 (  3908 PWs)   bands (ev):

[...]

          k =-0.3333-0.0962-0.1948 (  3928 PWs)   bands (ev):

[...]

          k = 0.5000-0.0962-0.1948 (  3936 PWs)   bands (ev):

   -10.2725 -10.2724 -10.1771 -10.1769   1.1293   1.1293   1.2214   1.2214
     1.6030   1.6030   1.7725   1.7725   1.9063   1.9064   1.9346   1.9346
     2.5109   2.5109   2.5965   2.5965   2.7142   2.7142   2.8300   2.8300
     3.2681   3.2681   3.5905   3.5905   4.6220   4.6221   5.0124   5.0124
     5.3997   5.3997   5.7670   5.7671

     occupation numbers
     1.0000   1.0000   1.0000   1.0000   1.0000   1.0000   1.0000   1.0000
     1.0000   1.0000   1.0000   1.0000   1.0000   1.0000   1.0000   1.0000
     1.0000   1.0000   1.0000   1.0000   1.0000   1.0000   1.0000   1.0000
     1.0000   1.0000   1.0000   1.0000   1.0000   1.0000   1.0000   1.0000
     1.0000   1.0000   1.0000   1.0000

     highest occupied level (ev):     6.9828

!    total energy              =    -723.26350227 Ry
     estimated scf accuracy    <          4.9E-09 Ry

     The total energy is the sum of the following terms:
     one-electron contribution =    -308.86239130 Ry
     hartree contribution      =     236.53477764 Ry
     xc contribution           =    -219.10552175 Ry
     ewald contribution        =    -431.83036686 Ry

     convergence has been achieved in  22 iterations

     Forces acting on atoms (cartesian axes, Ry/au):

     atom    1 type  1   force =     0.00000000   -0.00001188    0.01434943
     atom    2 type  1   force =     0.00000000    0.00002624    0.01435075
     atom    3 type  2   force =     0.00000000    0.00000695   -0.01435045
     atom    4 type  2   force =     0.00000000   -0.00000124   -0.01435202
     atom    5 type  1   force =     0.00000000   -0.00000294    0.01436744
     atom    6 type  1   force =     0.00000000   -0.00001278    0.01433636
     atom    7 type  2   force =     0.00000000    0.00000172   -0.01435055
     atom    8 type  2   force =     0.00000000   -0.00000607   -0.01435096
     The non-local contrib.  to forces
     atom    1 type  1   force =     0.00000000    0.00001921    0.15779166
     atom    2 type  1   force =     0.00000000   -0.00001902    0.15778692
     atom    3 type  2   force =     0.00000000    0.00021161    0.14923990
     atom    4 type  2   force =     0.00000000   -0.00020787    0.14924114
     atom    5 type  1   force =     0.00000000    0.00002421    0.15779404
     atom    6 type  1   force =     0.00000000   -0.00002692    0.15779094
     atom    7 type  2   force =     0.00000000    0.00021422    0.14923449
     atom    8 type  2   force =     0.00000000   -0.00022013    0.14923356
     The ionic contribution  to forces
     atom    1 type  1   force =    -0.00000000   -0.00000002    1.26932563
     atom    2 type  1   force =     0.00000000   -0.00000002    1.26932563
     atom    3 type  2   force =    -0.00000000   -0.00000001   -1.26932563
     atom    4 type  2   force =     0.00000000   -0.00000001   -1.26932563
     atom    5 type  1   force =    -0.00000000    0.00000002    1.26932563
     atom    6 type  1   force =     0.00000000    0.00000002    1.26932563
     atom    7 type  2   force =    -0.00000000    0.00000001   -1.26932563
     atom    8 type  2   force =     0.00000000    0.00000001   -1.26932563
     The local contribution  to forces
     atom    1 type  1   force =     0.00000000   -0.00003136   -1.40144358
     atom    2 type  1   force =     0.00000008    0.00001847   -1.40143512
     atom    3 type  2   force =     0.00000000   -0.00022161    1.10689752
     atom    4 type  2   force =     0.00000002    0.00019580    1.10691221
     atom    5 type  1   force =    -0.00000008   -0.00003500   -1.40145763
     atom    6 type  1   force =     0.00000000    0.00004940   -1.40142965
     atom    7 type  2   force =    -0.00000002   -0.00020086    1.10692062
     atom    8 type  2   force =     0.00000000    0.00020391    1.10691388
     The core correction contribution to forces
     atom    1 type  1   force =     0.00000000    0.00000819   -0.01129775
     atom    2 type  1   force =     0.00000001   -0.00000788   -0.01129786
     atom    3 type  2   force =     0.00000000   -0.00000242   -0.00120890
     atom    4 type  2   force =    -0.00000000    0.00000229   -0.00120885
     atom    5 type  1   force =    -0.00000001    0.00000754   -0.01129767
     atom    6 type  1   force =    -0.00000000   -0.00000798   -0.01129799
     atom    7 type  2   force =     0.00000000   -0.00000242   -0.00120872
     atom    8 type  2   force =    -0.00000000    0.00000248   -0.00120874
     The Hubbard contrib.    to forces
     atom    1 type  1   force =     0.00000000    0.00000000    0.00000000
     atom    2 type  1   force =     0.00000000    0.00000000    0.00000000
     atom    3 type  2   force =     0.00000000    0.00000000    0.00000000
     atom    4 type  2   force =     0.00000000    0.00000000    0.00000000
     atom    5 type  1   force =     0.00000000    0.00000000    0.00000000
     atom    6 type  1   force =     0.00000000    0.00000000    0.00000000
     atom    7 type  2   force =     0.00000000    0.00000000    0.00000000
     atom    8 type  2   force =     0.00000000    0.00000000    0.00000000
     The SCF correction term to forces
     atom    1 type  1   force =     0.00000000   -0.00000785   -0.00004232
     atom    2 type  1   force =    -0.00000000    0.00003474   -0.00004463
     atom    3 type  2   force =     0.00000000    0.00001943    0.00003087
     atom    4 type  2   force =    -0.00000000    0.00000861    0.00001331
     atom    5 type  1   force =     0.00000000    0.00000035   -0.00001272
     atom    6 type  1   force =    -0.00000000   -0.00002724   -0.00006837
     atom    7 type  2   force =     0.00000000   -0.00000917    0.00001290
     atom    8 type  2   force =    -0.00000000    0.00000772    0.00002017

     Total force =     0.040591     Total SCF correction =     0.000114

     General routines

     Parallel routines

   This run was terminated on:  18: 3:31  26Aug2025

   JOB DONE.