     Program PWSCF v.7.0 starts on 26Aug2025 at 14: 3:40

     K-points division:     npool     =       4
     band groups division:  nbgrp     =       4

     Reading input from /home/jvc/QEspresso7.2/ZnO_database/scripts/cell121.in/ZnO-3.01-1.55-121.in
Warning: card &CELL ignored
Warning: card / ignored
Warning: card &FCP ignored
Warning: card / ignored
Warning: card &RISM ignored
Warning: card / ignored

     Current dimensions of program PWSCF are:
     Max number of different atomic species (ntypx) = 10
     Max number of k-points (npk) =  40000
     Max angular momentum in pseudopotentials (lmaxx) =  4
     file Zn.upf: wavefunction(s)  3D renormalized
     Found identity + ( -0.0000  0.5000  0.0000) symmetry
     This is a supercell, fractional translations are disabled
     Message from routine setup:
     using ibrav=0 with symmetry is DISCOURAGED, use correct ibrav instead

     Subspace diagonalization in iterative solution of the eigenvalue problem:
     a serial algorithm will be used

     Using Slab Decomposition

     bravais-lattice index     =            0
     lattice parameter (alat)  =       5.6845  a.u.
     unit-cell volume          =     493.0819 (a.u.)^3
     number of atoms/cell      =            8
     number of atomic types    =            2
     number of electrons       =        72.00
     number of Kohn-Sham states=           36
     kinetic-energy cutoff     =      50.0000  Ry
     charge density cutoff     =     400.0000  Ry
     scf convergence threshold =      1.0E-08
     mixing beta               =       0.3000
     number of iterations used =            8  plain     mixing
     Exchange-correlation= PBE
                           (   1   4   3   4   0   0   0)

     celldm(1)=   5.684546  celldm(2)=   0.000000  celldm(3)=   0.000000
     celldm(4)=   0.000000  celldm(5)=   0.000000  celldm(6)=   0.000000

     crystal axes: (cart. coord. in units of alat)
               a(1) = (   1.000000   0.000000   0.000000 )
               a(2) = (  -1.000000   1.732051   0.000000 )
               a(3) = (   0.000000   0.000000   1.549784 )

     reciprocal axes: (cart. coord. in units 2 pi/alat)
               b(1) = (  1.000000  0.577350 -0.000000 )
               b(2) = (  0.000000  0.577350  0.000000 )
               b(3) = (  0.000000 -0.000000  0.645251 )

     PseudoPot. # 1 for Zn read from file:
     /home/jvc/QEspresso7.2/ZnO_database/pseudos/Zn.upf
     MD5 check sum: 7f56cabf9682ed8c977c2f7d0c5985c5
     Pseudo is Ultrasoft + core correction, Zval = 12.0
     Generated using &quot;atomic&quot; code by A. Dal Corso  v.6.2.2
     Using radial grid of 1201 points,  6 beta functions with:
                l(1) =   0
                l(2) =   0
                l(3) =   1
                l(4) =   1
                l(5) =   2
                l(6) =   2
     Q(r) pseudized with 0 coefficients

     PseudoPot. # 2 for O  read from file:
     /home/jvc/QEspresso7.2/ZnO_database/pseudos/O.upf
     MD5 check sum: 91400c9766925bcf19f520983a725ff0
     Pseudo is Ultrasoft + core correction, Zval =  6.0
     Generated using &quot;atomic&quot; code by A. Dal Corso  v.6.3MaX
     Using radial grid of 1095 points,  4 beta functions with:
                l(1) =   0
                l(2) =   0
                l(3) =   1
                l(4) =   1
     Q(r) pseudized with 0 coefficients

     atomic species   valence    mass     pseudopotential
        Zn            12.00    65.38000     Zn( 1.00)
        O              6.00    15.99900     O ( 1.00)

      2 Sym. Ops. (no inversion) found

                                    s                        frac. trans.

      isym =  1     identity

 cryst.   s( 1) = (     1          0          0      )
                  (     0          1          0      )
                  (     0          0          1      )

 cart.    s( 1) = (  1.0000000  0.0000000  0.0000000 )
                  (  0.0000000  1.0000000  0.0000000 )
                  (  0.0000000  0.0000000  1.0000000 )

      isym =  2     inv. 180 deg rotation - cart. axis [1,0,0]

 cryst.   s( 2) = (    -1          0          0      )
                  (     2          1          0      )
                  (     0          0          1      )

 cart.    s( 2) = ( -1.0000000  0.0000000  0.0000000 )
                  (  0.0000000  1.0000000  0.0000000 )
                  (  0.0000000  0.0000000  1.0000000 )

   Cartesian axes

     site n.     atom                  positions (alat units)
         1           Zn  tau(   1) = (   0.5000000   0.2886751   0.7758739  )
         2           Zn  tau(   2) = (   0.0000000   0.5773503   0.0009819  )
         3           O   tau(   3) = (   0.5000000   0.2886751   1.3633085  )
         4           O   tau(   4) = (   0.0000000   0.5773503   0.5884164  )
         5           Zn  tau(   5) = (   0.0000000   1.1547005   0.7758739  )
         6           Zn  tau(   6) = (  -0.5000000   1.4433757   0.0009819  )
         7           O   tau(   7) = (   0.0000000   1.1547005   1.3633085  )
         8           O   tau(   8) = (  -0.5000000   1.4433757   0.5884164  )

   Crystallographic axes

     site n.     atom                  positions (cryst. coord.)
         1           Zn  tau(   1) = (  0.6666667  0.1666667  0.5006336  )
         2           Zn  tau(   2) = (  0.3333333  0.3333333  0.0006336  )
         3           O   tau(   3) = (  0.6666667  0.1666667  0.8796764  )
         4           O   tau(   4) = (  0.3333333  0.3333333  0.3796764  )
         5           Zn  tau(   5) = (  0.6666667  0.6666667  0.5006336  )
         6           Zn  tau(   6) = (  0.3333333  0.8333333  0.0006336  )
         7           O   tau(   7) = (  0.6666667  0.6666667  0.8796764  )
         8           O   tau(   8) = (  0.3333333  0.8333333  0.3796764  )

     number of k points=    80
                       cart. coord. in units 2pi/alat
        k(    1) = (   0.0000000   0.0000000   0.0000000), wk =   0.0092593
        k(    2) = (   0.0000000   0.0000000   0.1075419), wk =   0.0185185
        k(    3) = (   0.0000000   0.0000000   0.2150837), wk =   0.0185185
        k(    4) = (   0.0000000   0.0000000  -0.3226256), wk =   0.0092593
        k(    5) = (   0.0000000   0.0962250   0.0000000), wk =   0.0185185
        k(    6) = (   0.0000000   0.0962250   0.1075419), wk =   0.0185185
        k(    7) = (   0.0000000   0.0962250   0.2150837), wk =   0.0185185
        k(    8) = (   0.0000000   0.0962250  -0.3226256), wk =   0.0185185
        k(    9) = (   0.0000000   0.1924501   0.0000000), wk =   0.0185185
        k(   10) = (   0.0000000   0.1924501   0.1075419), wk =   0.0185185
        k(   11) = (   0.0000000   0.1924501   0.2150837), wk =   0.0185185
        k(   12) = (   0.0000000   0.1924501  -0.3226256), wk =   0.0185185
        k(   13) = (   0.0000000  -0.2886751   0.0000000), wk =   0.0092593
        k(   14) = (   0.0000000  -0.2886751   0.1075419), wk =   0.0185185
        k(   15) = (   0.0000000  -0.2886751   0.2150837), wk =   0.0185185
        k(   16) = (   0.0000000  -0.2886751  -0.3226256), wk =   0.0092593
        k(   17) = (   0.1666667   0.0962250   0.0000000), wk =   0.0370370
        k(   18) = (   0.1666667   0.0962250   0.1075419), wk =   0.0370370
        k(   19) = (   0.1666667   0.0962250   0.2150837), wk =   0.0370370
        k(   20) = (   0.1666667   0.0962250  -0.3226256), wk =   0.0370370
        k(   21) = (   0.1666667   0.1924501   0.0000000), wk =   0.0370370
        k(   22) = (   0.1666667   0.1924501   0.1075419), wk =   0.0370370
        k(   23) = (   0.1666667   0.1924501   0.2150837), wk =   0.0370370
        k(   24) = (   0.1666667   0.1924501  -0.3226256), wk =   0.0370370
        k(   25) = (   0.1666667   0.2886751   0.0000000), wk =   0.0185185
        k(   26) = (   0.1666667   0.2886751   0.1075419), wk =   0.0370370
        k(   27) = (   0.1666667   0.2886751   0.2150837), wk =   0.0370370
        k(   28) = (   0.1666667   0.2886751  -0.3226256), wk =   0.0185185
        k(   29) = (   0.1666667   0.0000000   0.0000000), wk =   0.0185185
        k(   30) = (   0.1666667   0.0000000   0.1075419), wk =   0.0370370
        k(   31) = (   0.1666667   0.0000000   0.2150837), wk =   0.0370370
        k(   32) = (   0.1666667   0.0000000  -0.3226256), wk =   0.0185185
        k(   33) = (   0.3333333   0.1924501   0.0000000), wk =   0.0370370
        k(   34) = (   0.3333333   0.1924501   0.1075419), wk =   0.0370370
        k(   35) = (   0.3333333   0.1924501   0.2150837), wk =   0.0370370
        k(   36) = (   0.3333333   0.1924501  -0.3226256), wk =   0.0370370
        k(   37) = (   0.3333333   0.2886751   0.0000000), wk =   0.0185185
        k(   38) = (   0.3333333   0.2886751   0.1075419), wk =   0.0370370
        k(   39) = (   0.3333333   0.2886751   0.2150837), wk =   0.0370370
        k(   40) = (   0.3333333   0.2886751  -0.3226256), wk =   0.0185185
        k(   41) = (   0.3333333  -0.0962250   0.0000000), wk =   0.0370370
        k(   42) = (   0.3333333  -0.0962250   0.1075419), wk =   0.0370370
        k(   43) = (   0.3333333  -0.0962250   0.2150837), wk =   0.0370370
        k(   44) = (   0.3333333  -0.0962250  -0.3226256), wk =   0.0370370
        k(   45) = (   0.3333333  -0.0000000   0.0000000), wk =   0.0185185
        k(   46) = (   0.3333333  -0.0000000   0.1075419), wk =   0.0370370
        k(   47) = (   0.3333333  -0.0000000   0.2150837), wk =   0.0370370
        k(   48) = (   0.3333333  -0.0000000  -0.3226256), wk =   0.0185185
        k(   49) = (  -0.5000000  -0.2886751   0.0000000), wk =   0.0092593
        k(   50) = (  -0.5000000  -0.2886751   0.1075419), wk =   0.0185185
        k(   51) = (  -0.5000000  -0.2886751   0.2150837), wk =   0.0185185
        k(   52) = (  -0.5000000  -0.2886751  -0.3226256), wk =   0.0092593
        k(   53) = (  -0.5000000  -0.1924501   0.0000000), wk =   0.0185185
        k(   54) = (  -0.5000000  -0.1924501   0.1075419), wk =   0.0185185
        k(   55) = (  -0.5000000  -0.1924501   0.2150837), wk =   0.0185185
        k(   56) = (  -0.5000000  -0.1924501  -0.3226256), wk =   0.0185185
        k(   57) = (  -0.5000000  -0.0962250   0.0000000), wk =   0.0185185
        k(   58) = (  -0.5000000  -0.0962250   0.1075419), wk =   0.0185185
        k(   59) = (  -0.5000000  -0.0962250   0.2150837), wk =   0.0185185
        k(   60) = (  -0.5000000  -0.0962250  -0.3226256), wk =   0.0185185
[...]
        k(   66) = (   0.0000000   0.0962250  -0.2150837), wk =   0.0185185
        k(   67) = (   0.0000000   0.1924501  -0.1075419), wk =   0.0185185
        k(   68) = (   0.0000000   0.1924501  -0.2150837), wk =   0.0185185
        k(   69) = (  -0.1666667   0.0962250  -0.1075419), wk =   0.0370370
        k(   70) = (  -0.1666667   0.0962250  -0.2150837), wk =   0.0370370
        k(   71) = (  -0.1666667   0.1924501  -0.1075419), wk =   0.0370370
        k(   72) = (  -0.1666667   0.1924501  -0.2150837), wk =   0.0370370
        k(   73) = (  -0.3333333   0.1924501  -0.1075419), wk =   0.0370370
        k(   74) = (  -0.3333333   0.1924501  -0.2150837), wk =   0.0370370
        k(   75) = (  -0.3333333  -0.0962250  -0.1075419), wk =   0.0370370
        k(   76) = (  -0.3333333  -0.0962250  -0.2150837), wk =   0.0370370
        k(   77) = (   0.5000000  -0.1924501  -0.1075419), wk =   0.0185185
        k(   78) = (   0.5000000  -0.1924501  -0.2150837), wk =   0.0185185
        k(   79) = (   0.5000000  -0.0962250  -0.1075419), wk =   0.0185185
        k(   80) = (   0.5000000  -0.0962250  -0.2150837), wk =   0.0185185

                       cryst. coord.
        k(    1) = (   0.0000000   0.0000000   0.0000000), wk =   0.0092593
        k(    2) = (   0.0000000   0.0000000   0.1666667), wk =   0.0185185
        k(    3) = (   0.0000000   0.0000000   0.3333333), wk =   0.0185185
        k(    4) = (   0.0000000   0.0000000  -0.5000000), wk =   0.0092593
        k(    5) = (   0.0000000   0.1666667   0.0000000), wk =   0.0185185
        k(    6) = (   0.0000000   0.1666667   0.1666667), wk =   0.0185185
        k(    7) = (   0.0000000   0.1666667   0.3333333), wk =   0.0185185
        k(    8) = (   0.0000000   0.1666667  -0.5000000), wk =   0.0185185
        k(    9) = (   0.0000000   0.3333333   0.0000000), wk =   0.0185185
        k(   10) = (   0.0000000   0.3333333   0.1666667), wk =   0.0185185
        k(   11) = (   0.0000000   0.3333333   0.3333333), wk =   0.0185185
        k(   12) = (   0.0000000   0.3333333  -0.5000000), wk =   0.0185185
        k(   13) = (   0.0000000  -0.5000000   0.0000000), wk =   0.0092593
        k(   14) = (   0.0000000  -0.5000000   0.1666667), wk =   0.0185185
        k(   15) = (   0.0000000  -0.5000000   0.3333333), wk =   0.0185185
        k(   16) = (   0.0000000  -0.5000000  -0.5000000), wk =   0.0092593
        k(   17) = (   0.1666667   0.0000000   0.0000000), wk =   0.0370370
        k(   18) = (   0.1666667   0.0000000   0.1666667), wk =   0.0370370
        k(   19) = (   0.1666667   0.0000000   0.3333333), wk =   0.0370370
        k(   20) = (   0.1666667   0.0000000  -0.5000000), wk =   0.0370370
        k(   21) = (   0.1666667   0.1666667   0.0000000), wk =   0.0370370
        k(   22) = (   0.1666667   0.1666667   0.1666667), wk =   0.0370370
        k(   23) = (   0.1666667   0.1666667   0.3333333), wk =   0.0370370
        k(   24) = (   0.1666667   0.1666667  -0.5000000), wk =   0.0370370
        k(   25) = (   0.1666667   0.3333333   0.0000000), wk =   0.0185185
        k(   26) = (   0.1666667   0.3333333   0.1666667), wk =   0.0370370
        k(   27) = (   0.1666667   0.3333333   0.3333333), wk =   0.0370370
        k(   28) = (   0.1666667   0.3333333  -0.5000000), wk =   0.0185185
        k(   29) = (   0.1666667  -0.1666667   0.0000000), wk =   0.0185185
        k(   30) = (   0.1666667  -0.1666667   0.1666667), wk =   0.0370370
        k(   31) = (   0.1666667  -0.1666667   0.3333333), wk =   0.0370370
        k(   32) = (   0.1666667  -0.1666667  -0.5000000), wk =   0.0185185
        k(   33) = (   0.3333333   0.0000000   0.0000000), wk =   0.0370370
        k(   34) = (   0.3333333   0.0000000   0.1666667), wk =   0.0370370
        k(   35) = (   0.3333333   0.0000000   0.3333333), wk =   0.0370370
        k(   36) = (   0.3333333   0.0000000  -0.5000000), wk =   0.0370370
        k(   37) = (   0.3333333   0.1666667   0.0000000), wk =   0.0185185
        k(   38) = (   0.3333333   0.1666667   0.1666667), wk =   0.0370370
        k(   39) = (   0.3333333   0.1666667   0.3333333), wk =   0.0370370
        k(   40) = (   0.3333333   0.1666667  -0.5000000), wk =   0.0185185
        k(   41) = (   0.3333333  -0.5000000   0.0000000), wk =   0.0370370
        k(   42) = (   0.3333333  -0.5000000   0.1666667), wk =   0.0370370
        k(   43) = (   0.3333333  -0.5000000   0.3333333), wk =   0.0370370
        k(   44) = (   0.3333333  -0.5000000  -0.5000000), wk =   0.0370370
        k(   45) = (   0.3333333  -0.3333333   0.0000000), wk =   0.0185185
        k(   46) = (   0.3333333  -0.3333333   0.1666667), wk =   0.0370370
        k(   47) = (   0.3333333  -0.3333333   0.3333333), wk =   0.0370370
        k(   48) = (   0.3333333  -0.3333333  -0.5000000), wk =   0.0185185
        k(   49) = (  -0.5000000   0.0000000   0.0000000), wk =   0.0092593
        k(   50) = (  -0.5000000   0.0000000   0.1666667), wk =   0.0185185
        k(   51) = (  -0.5000000   0.0000000   0.3333333), wk =   0.0185185
        k(   52) = (  -0.5000000   0.0000000  -0.5000000), wk =   0.0092593
        k(   53) = (  -0.5000000   0.1666667   0.0000000), wk =   0.0185185
        k(   54) = (  -0.5000000   0.1666667   0.1666667), wk =   0.0185185
        k(   55) = (  -0.5000000   0.1666667   0.3333333), wk =   0.0185185
        k(   56) = (  -0.5000000   0.1666667  -0.5000000), wk =   0.0185185
        k(   57) = (  -0.5000000   0.3333333   0.0000000), wk =   0.0185185
        k(   58) = (  -0.5000000   0.3333333   0.1666667), wk =   0.0185185
        k(   59) = (  -0.5000000   0.3333333   0.3333333), wk =   0.0185185
        k(   60) = (  -0.5000000   0.3333333  -0.5000000), wk =   0.0185185
[...]
        k(   66) = (   0.0000000   0.1666667  -0.3333333), wk =   0.0185185
        k(   67) = (   0.0000000   0.3333333  -0.1666667), wk =   0.0185185
        k(   68) = (   0.0000000   0.3333333  -0.3333333), wk =   0.0185185
        k(   69) = (  -0.1666667   0.3333333  -0.1666667), wk =   0.0370370
        k(   70) = (  -0.1666667   0.3333333  -0.3333333), wk =   0.0370370
        k(   71) = (  -0.1666667   0.5000000  -0.1666667), wk =   0.0370370
        k(   72) = (  -0.1666667   0.5000000  -0.3333333), wk =   0.0370370
        k(   73) = (  -0.3333333   0.6666667  -0.1666667), wk =   0.0370370
        k(   74) = (  -0.3333333   0.6666667  -0.3333333), wk =   0.0370370
        k(   75) = (  -0.3333333   0.1666667  -0.1666667), wk =   0.0370370
        k(   76) = (  -0.3333333   0.1666667  -0.3333333), wk =   0.0370370
        k(   77) = (   0.5000000  -0.8333333  -0.1666667), wk =   0.0185185
        k(   78) = (   0.5000000  -0.8333333  -0.3333333), wk =   0.0185185
        k(   79) = (   0.5000000  -0.6666667  -0.1666667), wk =   0.0185185
        k(   80) = (   0.5000000  -0.6666667  -0.3333333), wk =   0.0185185

     Check: negative core charge=   -0.000001

     Initial potential from superposition of free atoms

     starting charge      71.9851, renormalised to      72.0000
     Starting wfcs are   52 randomized atomic wfcs

     Self-consistent Calculation

     iteration #  1     ecut=    50.00 Ry     beta= 0.30
     Davidson diagonalization with overlap

     ethr =  1.00E-02,  avg # of iterations =  2.1

     total energy              =    -722.66208819 Ry
     estimated scf accuracy    <       1.37133128 Ry

[...]

     total energy              =    -722.92336632 Ry
     estimated scf accuracy    <       0.00000169 Ry

     iteration # 14     ecut=    50.00 Ry     beta= 0.30
     Davidson diagonalization with overlap

     ethr =  2.34E-09,  avg # of iterations =  4.9

     End of self-consistent calculation

          k = 0.0000 0.0000 0.0000 (  2937 PWs)   bands (ev):

    -8.7530  -7.6334  -7.4481  -7.2322   3.9076   3.9492   3.9528   4.4917
     4.4919   4.5653   4.8096   4.8097   4.8389   5.0074   5.4450   5.6935
     6.5639   6.5639   6.6109   6.8891   6.9863   6.9864   7.0785   7.1592
     7.3849   7.4028   7.8042   8.3130   8.5219  10.2576  10.6184  10.6186
    10.7281  11.8054  11.8893  11.8895

     occupation numbers
     1.0000   1.0000   1.0000   1.0000   1.0000   1.0000   1.0000   1.0000
     1.0000   1.0000   1.0000   1.0000   1.0000   1.0000   1.0000   1.0000
     1.0000   1.0000   1.0000   1.0000   1.0000   1.0000   1.0000   1.0000
     1.0000   1.0000   1.0000   1.0000   1.0000   1.0000   1.0000   1.0000
     1.0000   1.0000   1.0000   1.0000

[...]

          k =-0.5000-0.2887 0.0000 (  2956 PWs)   bands (ev):

[...]

          k =-0.3333-0.0962-0.2151 (  2939 PWs)   bands (ev):

[...]

          k = 0.5000-0.0962-0.2151 (  2934 PWs)   bands (ev):

    -7.5226  -7.5226  -7.3068  -7.3067   3.7431   3.7431   3.8158   3.8158
     4.7444   4.7444   4.8533   4.8533   5.2950   5.2950   5.3904   5.3904
     6.6784   6.6784   6.8459   6.8460   7.0724   7.0724   7.2622   7.2622
     7.5707   7.5707   8.0489   8.0489   8.6478   8.6478   9.4509   9.4509
     9.8506   9.8506  10.5148  10.5148

     occupation numbers
     1.0000   1.0000   1.0000   1.0000   1.0000   1.0000   1.0000   1.0000
     1.0000   1.0000   1.0000   1.0000   1.0000   1.0000   1.0000   1.0000
     1.0000   1.0000   1.0000   1.0000   1.0000   1.0000   1.0000   1.0000
     1.0000   1.0000   1.0000   1.0000   1.0000   1.0000   1.0000   1.0000
     1.0000   1.0000   1.0000   1.0000

     highest occupied level (ev):    11.8895

!    total energy              =    -722.92336708 Ry
     estimated scf accuracy    <          5.6E-09 Ry

     The total energy is the sum of the following terms:
     one-electron contribution =    -240.19850955 Ry
     hartree contribution      =     213.12993705 Ry
     xc contribution           =    -220.52048473 Ry
     ewald contribution        =    -475.33430986 Ry

     convergence has been achieved in  14 iterations

     Forces acting on atoms (cartesian axes, Ry/au):

     atom    1 type  1   force =     0.00000000   -0.00001905   -0.04882734
     atom    2 type  1   force =     0.00000000    0.00002630   -0.04883143
     atom    3 type  2   force =     0.00000000    0.00000239    0.04883182
     atom    4 type  2   force =     0.00000000    0.00000048    0.04882502
     atom    5 type  1   force =     0.00000000   -0.00001419   -0.04882467
     atom    6 type  1   force =     0.00000000    0.00000761   -0.04883827
     atom    7 type  2   force =     0.00000000   -0.00000006    0.04883747
     atom    8 type  2   force =     0.00000000   -0.00000348    0.04882739
     The non-local contrib.  to forces
     atom    1 type  1   force =     0.00000000    0.00003284   -0.14256031
     atom    2 type  1   force =     0.00000000   -0.00003319   -0.14256486
     atom    3 type  2   force =     0.00000000    0.00016309   -0.08207105
     atom    4 type  2   force =     0.00000000   -0.00015625   -0.08208395
     atom    5 type  1   force =     0.00000000    0.00003145   -0.14255985
     atom    6 type  1   force =     0.00000000   -0.00002806   -0.14255596
     atom    7 type  2   force =     0.00000000    0.00016078   -0.08208265
     atom    8 type  2   force =     0.00000000   -0.00016390   -0.08208287
     The ionic contribution  to forces
     atom    1 type  1   force =    -0.00000000    0.00000001   -0.94432878
     atom    2 type  1   force =     0.00000000    0.00000001   -0.94432879
     atom    3 type  2   force =    -0.00000000    0.00000001    0.94432878
     atom    4 type  2   force =     0.00000000    0.00000000    0.94432879
     atom    5 type  1   force =    -0.00000001   -0.00000000   -0.94432879
     atom    6 type  1   force =     0.00000001   -0.00000002   -0.94432879
     atom    7 type  2   force =    -0.00000001    0.00000000    0.94432879
     atom    8 type  2   force =     0.00000001   -0.00000001    0.94432879
     The local contribution  to forces
     atom    1 type  1   force =    -0.00000008   -0.00004996    1.02394994
     atom    2 type  1   force =     0.00000000    0.00005057    1.02395687
     atom    3 type  2   force =    -0.00000002   -0.00015948   -0.81389000
     atom    4 type  2   force =     0.00000000    0.00016391   -0.81389643
     atom    5 type  1   force =    -0.00000008   -0.00005203    1.02395162
     atom    6 type  1   force =     0.00000008    0.00004879    1.02394312
     atom    7 type  2   force =    -0.00000002   -0.00014732   -0.81387489
     atom    8 type  2   force =     0.00000002    0.00015940   -0.81388298
     The core correction contribution to forces
     atom    1 type  1   force =    -0.00000003    0.00000317    0.01413269
     atom    2 type  1   force =     0.00000002   -0.00000307    0.01413350
     atom    3 type  2   force =     0.00000000   -0.00000177    0.00042743
     atom    4 type  2   force =    -0.00000000    0.00000179    0.00042758
     atom    5 type  1   force =    -0.00000003    0.00000337    0.01413271
     atom    6 type  1   force =     0.00000003   -0.00000357    0.01413352
     atom    7 type  2   force =     0.00000000   -0.00000180    0.00042759
     atom    8 type  2   force =    -0.00000000    0.00000183    0.00042764
     The Hubbard contrib.    to forces
     atom    1 type  1   force =     0.00000000    0.00000000    0.00000000
     atom    2 type  1   force =     0.00000000    0.00000000    0.00000000
     atom    3 type  2   force =     0.00000000    0.00000000    0.00000000
     atom    4 type  2   force =     0.00000000    0.00000000    0.00000000
     atom    5 type  1   force =     0.00000000    0.00000000    0.00000000
     atom    6 type  1   force =     0.00000000    0.00000000    0.00000000
     atom    7 type  2   force =     0.00000000    0.00000000    0.00000000
     atom    8 type  2   force =     0.00000000    0.00000000    0.00000000
     The SCF correction term to forces
     atom    1 type  1   force =     0.00000000   -0.00000475   -0.00004394
     atom    2 type  1   force =    -0.00000000    0.00001235   -0.00005122
     atom    3 type  2   force =    -0.00000000    0.00000091    0.00001359
     atom    4 type  2   force =    -0.00000000   -0.00000860    0.00002598
     atom    5 type  1   force =     0.00000000    0.00000338   -0.00004343
     atom    6 type  1   force =    -0.00000000   -0.00000917   -0.00005322
     atom    7 type  2   force =    -0.00000000   -0.00001135    0.00001558
     atom    8 type  2   force =     0.00000000   -0.00000043    0.00001374

     Total force =     0.138113     Total SCF correction =     0.000105

     General routines

     Parallel routines

   This run was terminated on:  14: 6:44  26Aug2025

   JOB DONE.