     Program PWSCF v.7.0 starts on 26Aug2025 at 13:53:15

     K-points division:     npool     =       4
     band groups division:  nbgrp     =       4

     Reading input from /home/jvc/QEspresso7.2/ZnO_database/scripts/cell121.in/ZnO-3.01-1.45-121.in
Warning: card &CELL ignored
Warning: card / ignored
Warning: card &FCP ignored
Warning: card / ignored
Warning: card &RISM ignored
Warning: card / ignored

     Current dimensions of program PWSCF are:
     Max number of different atomic species (ntypx) = 10
     Max number of k-points (npk) =  40000
     Max angular momentum in pseudopotentials (lmaxx) =  4
     file Zn.upf: wavefunction(s)  3D renormalized
     Found identity + ( -0.0000  0.5000  0.0000) symmetry
     This is a supercell, fractional translations are disabled
     Message from routine setup:
     using ibrav=0 with symmetry is DISCOURAGED, use correct ibrav instead

     Subspace diagonalization in iterative solution of the eigenvalue problem:
     a serial algorithm will be used

     Using Slab Decomposition

     bravais-lattice index     =            0
     lattice parameter (alat)  =       5.6845  a.u.
     unit-cell volume          =     462.2643 (a.u.)^3
     number of atoms/cell      =            8
     number of atomic types    =            2
     number of electrons       =        72.00
     number of Kohn-Sham states=           36
     kinetic-energy cutoff     =      50.0000  Ry
     charge density cutoff     =     400.0000  Ry
     scf convergence threshold =      1.0E-08
     mixing beta               =       0.3000
     number of iterations used =            8  plain     mixing
     Exchange-correlation= PBE
                           (   1   4   3   4   0   0   0)

     celldm(1)=   5.684546  celldm(2)=   0.000000  celldm(3)=   0.000000
     celldm(4)=   0.000000  celldm(5)=   0.000000  celldm(6)=   0.000000

     crystal axes: (cart. coord. in units of alat)
               a(1) = (   1.000000   0.000000   0.000000 )
               a(2) = (  -1.000000   1.732051   0.000000 )
               a(3) = (   0.000000   0.000000   1.452923 )

     reciprocal axes: (cart. coord. in units 2 pi/alat)
               b(1) = (  1.000000  0.577350 -0.000000 )
               b(2) = (  0.000000  0.577350  0.000000 )
               b(3) = (  0.000000 -0.000000  0.688268 )

     PseudoPot. # 1 for Zn read from file:
     /home/jvc/QEspresso7.2/ZnO_database/pseudos/Zn.upf
     MD5 check sum: 7f56cabf9682ed8c977c2f7d0c5985c5
     Pseudo is Ultrasoft + core correction, Zval = 12.0
     Generated using &quot;atomic&quot; code by A. Dal Corso  v.6.2.2
     Using radial grid of 1201 points,  6 beta functions with:
                l(1) =   0
                l(2) =   0
                l(3) =   1
                l(4) =   1
                l(5) =   2
                l(6) =   2
     Q(r) pseudized with 0 coefficients

     PseudoPot. # 2 for O  read from file:
     /home/jvc/QEspresso7.2/ZnO_database/pseudos/O.upf
     MD5 check sum: 91400c9766925bcf19f520983a725ff0
     Pseudo is Ultrasoft + core correction, Zval =  6.0
     Generated using &quot;atomic&quot; code by A. Dal Corso  v.6.3MaX
     Using radial grid of 1095 points,  4 beta functions with:
                l(1) =   0
                l(2) =   0
                l(3) =   1
                l(4) =   1
     Q(r) pseudized with 0 coefficients

     atomic species   valence    mass     pseudopotential
        Zn            12.00    65.38000     Zn( 1.00)
        O              6.00    15.99900     O ( 1.00)

      2 Sym. Ops. (no inversion) found

                                    s                        frac. trans.

      isym =  1     identity

 cryst.   s( 1) = (     1          0          0      )
                  (     0          1          0      )
                  (     0          0          1      )

 cart.    s( 1) = (  1.0000000  0.0000000  0.0000000 )
                  (  0.0000000  1.0000000  0.0000000 )
                  (  0.0000000  0.0000000  1.0000000 )

      isym =  2     inv. 180 deg rotation - cart. axis [1,0,0]

 cryst.   s( 2) = (    -1          0          0      )
                  (     2          1          0      )
                  (     0          0          1      )

 cart.    s( 2) = ( -1.0000000  0.0000000  0.0000000 )
                  (  0.0000000  1.0000000  0.0000000 )
                  (  0.0000000  0.0000000  1.0000000 )

   Cartesian axes

     site n.     atom                  positions (alat units)
         1           Zn  tau(   1) = (   0.5000000   0.2886751   0.7273818  )
         2           Zn  tau(   2) = (   0.0000000   0.5773503   0.0009206  )
         3           O   tau(   3) = (   0.5000000   0.2886751   1.2781017  )
         4           O   tau(   4) = (   0.0000000   0.5773503   0.5516404  )
         5           Zn  tau(   5) = (   0.0000000   1.1547005   0.7273818  )
         6           Zn  tau(   6) = (  -0.5000000   1.4433757   0.0009206  )
         7           O   tau(   7) = (   0.0000000   1.1547005   1.2781017  )
         8           O   tau(   8) = (  -0.5000000   1.4433757   0.5516404  )

   Crystallographic axes

     site n.     atom                  positions (cryst. coord.)
         1           Zn  tau(   1) = (  0.6666667  0.1666667  0.5006336  )
         2           Zn  tau(   2) = (  0.3333333  0.3333333  0.0006336  )
         3           O   tau(   3) = (  0.6666667  0.1666667  0.8796764  )
         4           O   tau(   4) = (  0.3333333  0.3333333  0.3796764  )
         5           Zn  tau(   5) = (  0.6666667  0.6666667  0.5006336  )
         6           Zn  tau(   6) = (  0.3333333  0.8333333  0.0006336  )
         7           O   tau(   7) = (  0.6666667  0.6666667  0.8796764  )
         8           O   tau(   8) = (  0.3333333  0.8333333  0.3796764  )

     number of k points=    80
                       cart. coord. in units 2pi/alat
        k(    1) = (   0.0000000   0.0000000   0.0000000), wk =   0.0092593
        k(    2) = (   0.0000000   0.0000000   0.1147113), wk =   0.0185185
        k(    3) = (   0.0000000   0.0000000   0.2294226), wk =   0.0185185
        k(    4) = (   0.0000000   0.0000000  -0.3441340), wk =   0.0092593
        k(    5) = (   0.0000000   0.0962250   0.0000000), wk =   0.0185185
        k(    6) = (   0.0000000   0.0962250   0.1147113), wk =   0.0185185
        k(    7) = (   0.0000000   0.0962250   0.2294226), wk =   0.0185185
        k(    8) = (   0.0000000   0.0962250  -0.3441340), wk =   0.0185185
        k(    9) = (   0.0000000   0.1924501   0.0000000), wk =   0.0185185
        k(   10) = (   0.0000000   0.1924501   0.1147113), wk =   0.0185185
        k(   11) = (   0.0000000   0.1924501   0.2294226), wk =   0.0185185
        k(   12) = (   0.0000000   0.1924501  -0.3441340), wk =   0.0185185
        k(   13) = (   0.0000000  -0.2886751   0.0000000), wk =   0.0092593
        k(   14) = (   0.0000000  -0.2886751   0.1147113), wk =   0.0185185
        k(   15) = (   0.0000000  -0.2886751   0.2294226), wk =   0.0185185
        k(   16) = (   0.0000000  -0.2886751  -0.3441340), wk =   0.0092593
        k(   17) = (   0.1666667   0.0962250   0.0000000), wk =   0.0370370
        k(   18) = (   0.1666667   0.0962250   0.1147113), wk =   0.0370370
        k(   19) = (   0.1666667   0.0962250   0.2294226), wk =   0.0370370
        k(   20) = (   0.1666667   0.0962250  -0.3441340), wk =   0.0370370
        k(   21) = (   0.1666667   0.1924501   0.0000000), wk =   0.0370370
        k(   22) = (   0.1666667   0.1924501   0.1147113), wk =   0.0370370
        k(   23) = (   0.1666667   0.1924501   0.2294226), wk =   0.0370370
        k(   24) = (   0.1666667   0.1924501  -0.3441340), wk =   0.0370370
        k(   25) = (   0.1666667   0.2886751   0.0000000), wk =   0.0185185
        k(   26) = (   0.1666667   0.2886751   0.1147113), wk =   0.0370370
        k(   27) = (   0.1666667   0.2886751   0.2294226), wk =   0.0370370
        k(   28) = (   0.1666667   0.2886751  -0.3441340), wk =   0.0185185
        k(   29) = (   0.1666667   0.0000000   0.0000000), wk =   0.0185185
        k(   30) = (   0.1666667   0.0000000   0.1147113), wk =   0.0370370
        k(   31) = (   0.1666667   0.0000000   0.2294226), wk =   0.0370370
        k(   32) = (   0.1666667   0.0000000  -0.3441340), wk =   0.0185185
        k(   33) = (   0.3333333   0.1924501   0.0000000), wk =   0.0370370
        k(   34) = (   0.3333333   0.1924501   0.1147113), wk =   0.0370370
        k(   35) = (   0.3333333   0.1924501   0.2294226), wk =   0.0370370
        k(   36) = (   0.3333333   0.1924501  -0.3441340), wk =   0.0370370
        k(   37) = (   0.3333333   0.2886751   0.0000000), wk =   0.0185185
        k(   38) = (   0.3333333   0.2886751   0.1147113), wk =   0.0370370
        k(   39) = (   0.3333333   0.2886751   0.2294226), wk =   0.0370370
        k(   40) = (   0.3333333   0.2886751  -0.3441340), wk =   0.0185185
        k(   41) = (   0.3333333  -0.0962250   0.0000000), wk =   0.0370370
        k(   42) = (   0.3333333  -0.0962250   0.1147113), wk =   0.0370370
        k(   43) = (   0.3333333  -0.0962250   0.2294226), wk =   0.0370370
        k(   44) = (   0.3333333  -0.0962250  -0.3441340), wk =   0.0370370
        k(   45) = (   0.3333333  -0.0000000   0.0000000), wk =   0.0185185
        k(   46) = (   0.3333333  -0.0000000   0.1147113), wk =   0.0370370
        k(   47) = (   0.3333333  -0.0000000   0.2294226), wk =   0.0370370
        k(   48) = (   0.3333333  -0.0000000  -0.3441340), wk =   0.0185185
        k(   49) = (  -0.5000000  -0.2886751   0.0000000), wk =   0.0092593
        k(   50) = (  -0.5000000  -0.2886751   0.1147113), wk =   0.0185185
        k(   51) = (  -0.5000000  -0.2886751   0.2294226), wk =   0.0185185
        k(   52) = (  -0.5000000  -0.2886751  -0.3441340), wk =   0.0092593
        k(   53) = (  -0.5000000  -0.1924501   0.0000000), wk =   0.0185185
        k(   54) = (  -0.5000000  -0.1924501   0.1147113), wk =   0.0185185
        k(   55) = (  -0.5000000  -0.1924501   0.2294226), wk =   0.0185185
        k(   56) = (  -0.5000000  -0.1924501  -0.3441340), wk =   0.0185185
        k(   57) = (  -0.5000000  -0.0962250   0.0000000), wk =   0.0185185
        k(   58) = (  -0.5000000  -0.0962250   0.1147113), wk =   0.0185185
        k(   59) = (  -0.5000000  -0.0962250   0.2294226), wk =   0.0185185
        k(   60) = (  -0.5000000  -0.0962250  -0.3441340), wk =   0.0185185
[...]
        k(   66) = (   0.0000000   0.0962250  -0.2294226), wk =   0.0185185
        k(   67) = (   0.0000000   0.1924501  -0.1147113), wk =   0.0185185
        k(   68) = (   0.0000000   0.1924501  -0.2294226), wk =   0.0185185
        k(   69) = (  -0.1666667   0.0962250  -0.1147113), wk =   0.0370370
        k(   70) = (  -0.1666667   0.0962250  -0.2294226), wk =   0.0370370
        k(   71) = (  -0.1666667   0.1924501  -0.1147113), wk =   0.0370370
        k(   72) = (  -0.1666667   0.1924501  -0.2294226), wk =   0.0370370
        k(   73) = (  -0.3333333   0.1924501  -0.1147113), wk =   0.0370370
        k(   74) = (  -0.3333333   0.1924501  -0.2294226), wk =   0.0370370
        k(   75) = (  -0.3333333  -0.0962250  -0.1147113), wk =   0.0370370
        k(   76) = (  -0.3333333  -0.0962250  -0.2294226), wk =   0.0370370
        k(   77) = (   0.5000000  -0.1924501  -0.1147113), wk =   0.0185185
        k(   78) = (   0.5000000  -0.1924501  -0.2294226), wk =   0.0185185
        k(   79) = (   0.5000000  -0.0962250  -0.1147113), wk =   0.0185185
        k(   80) = (   0.5000000  -0.0962250  -0.2294226), wk =   0.0185185

                       cryst. coord.
        k(    1) = (   0.0000000   0.0000000   0.0000000), wk =   0.0092593
        k(    2) = (   0.0000000   0.0000000   0.1666667), wk =   0.0185185
        k(    3) = (   0.0000000   0.0000000   0.3333333), wk =   0.0185185
        k(    4) = (   0.0000000   0.0000000  -0.5000000), wk =   0.0092593
        k(    5) = (   0.0000000   0.1666667   0.0000000), wk =   0.0185185
        k(    6) = (   0.0000000   0.1666667   0.1666667), wk =   0.0185185
        k(    7) = (   0.0000000   0.1666667   0.3333333), wk =   0.0185185
        k(    8) = (   0.0000000   0.1666667  -0.5000000), wk =   0.0185185
        k(    9) = (   0.0000000   0.3333333   0.0000000), wk =   0.0185185
        k(   10) = (   0.0000000   0.3333333   0.1666667), wk =   0.0185185
        k(   11) = (   0.0000000   0.3333333   0.3333333), wk =   0.0185185
        k(   12) = (   0.0000000   0.3333333  -0.5000000), wk =   0.0185185
        k(   13) = (   0.0000000  -0.5000000   0.0000000), wk =   0.0092593
        k(   14) = (   0.0000000  -0.5000000   0.1666667), wk =   0.0185185
        k(   15) = (   0.0000000  -0.5000000   0.3333333), wk =   0.0185185
        k(   16) = (   0.0000000  -0.5000000  -0.5000000), wk =   0.0092593
        k(   17) = (   0.1666667   0.0000000   0.0000000), wk =   0.0370370
        k(   18) = (   0.1666667   0.0000000   0.1666667), wk =   0.0370370
        k(   19) = (   0.1666667   0.0000000   0.3333333), wk =   0.0370370
        k(   20) = (   0.1666667   0.0000000  -0.5000000), wk =   0.0370370
        k(   21) = (   0.1666667   0.1666667   0.0000000), wk =   0.0370370
        k(   22) = (   0.1666667   0.1666667   0.1666667), wk =   0.0370370
        k(   23) = (   0.1666667   0.1666667   0.3333333), wk =   0.0370370
        k(   24) = (   0.1666667   0.1666667  -0.5000000), wk =   0.0370370
        k(   25) = (   0.1666667   0.3333333   0.0000000), wk =   0.0185185
        k(   26) = (   0.1666667   0.3333333   0.1666667), wk =   0.0370370
        k(   27) = (   0.1666667   0.3333333   0.3333333), wk =   0.0370370
        k(   28) = (   0.1666667   0.3333333  -0.5000000), wk =   0.0185185
        k(   29) = (   0.1666667  -0.1666667   0.0000000), wk =   0.0185185
        k(   30) = (   0.1666667  -0.1666667   0.1666667), wk =   0.0370370
        k(   31) = (   0.1666667  -0.1666667   0.3333333), wk =   0.0370370
        k(   32) = (   0.1666667  -0.1666667  -0.5000000), wk =   0.0185185
        k(   33) = (   0.3333333   0.0000000   0.0000000), wk =   0.0370370
        k(   34) = (   0.3333333   0.0000000   0.1666667), wk =   0.0370370
        k(   35) = (   0.3333333   0.0000000   0.3333333), wk =   0.0370370
        k(   36) = (   0.3333333   0.0000000  -0.5000000), wk =   0.0370370
        k(   37) = (   0.3333333   0.1666667   0.0000000), wk =   0.0185185
        k(   38) = (   0.3333333   0.1666667   0.1666667), wk =   0.0370370
        k(   39) = (   0.3333333   0.1666667   0.3333333), wk =   0.0370370
        k(   40) = (   0.3333333   0.1666667  -0.5000000), wk =   0.0185185
        k(   41) = (   0.3333333  -0.5000000   0.0000000), wk =   0.0370370
        k(   42) = (   0.3333333  -0.5000000   0.1666667), wk =   0.0370370
        k(   43) = (   0.3333333  -0.5000000   0.3333333), wk =   0.0370370
        k(   44) = (   0.3333333  -0.5000000  -0.5000000), wk =   0.0370370
        k(   45) = (   0.3333333  -0.3333333   0.0000000), wk =   0.0185185
        k(   46) = (   0.3333333  -0.3333333   0.1666667), wk =   0.0370370
        k(   47) = (   0.3333333  -0.3333333   0.3333333), wk =   0.0370370
        k(   48) = (   0.3333333  -0.3333333  -0.5000000), wk =   0.0185185
        k(   49) = (  -0.5000000   0.0000000   0.0000000), wk =   0.0092593
        k(   50) = (  -0.5000000   0.0000000   0.1666667), wk =   0.0185185
        k(   51) = (  -0.5000000   0.0000000   0.3333333), wk =   0.0185185
        k(   52) = (  -0.5000000   0.0000000  -0.5000000), wk =   0.0092593
        k(   53) = (  -0.5000000   0.1666667   0.0000000), wk =   0.0185185
        k(   54) = (  -0.5000000   0.1666667   0.1666667), wk =   0.0185185
        k(   55) = (  -0.5000000   0.1666667   0.3333333), wk =   0.0185185
        k(   56) = (  -0.5000000   0.1666667  -0.5000000), wk =   0.0185185
        k(   57) = (  -0.5000000   0.3333333   0.0000000), wk =   0.0185185
        k(   58) = (  -0.5000000   0.3333333   0.1666667), wk =   0.0185185
        k(   59) = (  -0.5000000   0.3333333   0.3333333), wk =   0.0185185
        k(   60) = (  -0.5000000   0.3333333  -0.5000000), wk =   0.0185185
[...]
        k(   66) = (   0.0000000   0.1666667  -0.3333333), wk =   0.0185185
        k(   67) = (   0.0000000   0.3333333  -0.1666667), wk =   0.0185185
        k(   68) = (   0.0000000   0.3333333  -0.3333333), wk =   0.0185185
        k(   69) = (  -0.1666667   0.3333333  -0.1666667), wk =   0.0370370
        k(   70) = (  -0.1666667   0.3333333  -0.3333333), wk =   0.0370370
        k(   71) = (  -0.1666667   0.5000000  -0.1666667), wk =   0.0370370
        k(   72) = (  -0.1666667   0.5000000  -0.3333333), wk =   0.0370370
        k(   73) = (  -0.3333333   0.6666667  -0.1666667), wk =   0.0370370
        k(   74) = (  -0.3333333   0.6666667  -0.3333333), wk =   0.0370370
        k(   75) = (  -0.3333333   0.1666667  -0.1666667), wk =   0.0370370
        k(   76) = (  -0.3333333   0.1666667  -0.3333333), wk =   0.0370370
        k(   77) = (   0.5000000  -0.8333333  -0.1666667), wk =   0.0185185
        k(   78) = (   0.5000000  -0.8333333  -0.3333333), wk =   0.0185185
        k(   79) = (   0.5000000  -0.6666667  -0.1666667), wk =   0.0185185
        k(   80) = (   0.5000000  -0.6666667  -0.3333333), wk =   0.0185185

     Check: negative core charge=   -0.000001

     Initial potential from superposition of free atoms

     starting charge      71.9851, renormalised to      72.0000
     Starting wfcs are   52 randomized atomic wfcs

     Self-consistent Calculation

     iteration #  1     ecut=    50.00 Ry     beta= 0.30
     Davidson diagonalization with overlap

     ethr =  1.00E-02,  avg # of iterations =  2.2

     total energy              =    -722.39322992 Ry
     estimated scf accuracy    <       1.43965774 Ry

[...]

     total energy              =    -722.65627114 Ry
     estimated scf accuracy    <       0.00000041 Ry

     iteration # 15     ecut=    50.00 Ry     beta= 0.30
     Davidson diagonalization with overlap

     ethr =  5.71E-10,  avg # of iterations =  6.0

     End of self-consistent calculation

          k = 0.0000 0.0000 0.0000 (  2781 PWs)   bands (ev):

    -8.2103  -7.0140  -6.5967  -6.5131   4.5926   4.6432   4.8128   5.2751
     5.2752   5.3413   5.5855   5.6723   5.6724   5.7253   6.3153   6.5854
     7.5121   7.5122   7.6204   7.9241   8.0665   8.0665   8.1985   8.2469
     8.5007   8.5636   8.9322   9.2776   9.5796  11.5561  11.5562  11.6083
    12.0088  13.1520  13.1521  13.2028

     occupation numbers
     1.0000   1.0000   1.0000   1.0000   1.0000   1.0000   1.0000   1.0000
     1.0000   1.0000   1.0000   1.0000   1.0000   1.0000   1.0000   1.0000
     1.0000   1.0000   1.0000   1.0000   1.0000   1.0000   1.0000   1.0000
     1.0000   1.0000   1.0000   1.0000   1.0000   1.0000   1.0000   1.0000
     1.0000   1.0000   1.0000   1.0000

[...]

          k =-0.5000-0.2887 0.0000 (  2764 PWs)   bands (ev):

[...]

          k =-0.3333-0.0962-0.2294 (  2743 PWs)   bands (ev):

[...]

          k = 0.5000-0.0962-0.2294 (  2750 PWs)   bands (ev):

    -6.8580  -6.8580  -6.5872  -6.5872   4.3143   4.3143   4.3748   4.3748
     5.4571   5.4571   5.5441   5.5441   6.0568   6.0568   6.1788   6.1788
     7.6940   7.6940   7.8862   7.8862   8.1732   8.1732   8.3553   8.3553
     8.7435   8.7435   9.2402   9.2402   9.7110   9.7110  10.8415  10.8415
    11.1486  11.1486  12.0262  12.0262

     occupation numbers
     1.0000   1.0000   1.0000   1.0000   1.0000   1.0000   1.0000   1.0000
     1.0000   1.0000   1.0000   1.0000   1.0000   1.0000   1.0000   1.0000
     1.0000   1.0000   1.0000   1.0000   1.0000   1.0000   1.0000   1.0000
     1.0000   1.0000   1.0000   1.0000   1.0000   1.0000   1.0000   1.0000
     1.0000   1.0000   1.0000   1.0000

     highest occupied level (ev):    13.2028

!    total energy              =    -722.65627151 Ry
     estimated scf accuracy    <          4.6E-09 Ry

     The total energy is the sum of the following terms:
     one-electron contribution =    -226.61504008 Ry
     hartree contribution      =     209.17332959 Ry
     xc contribution           =    -220.95660358 Ry
     ewald contribution        =    -484.25795744 Ry

     convergence has been achieved in  15 iterations

     Forces acting on atoms (cartesian axes, Ry/au):

     atom    1 type  1   force =     0.00000000   -0.00001835   -0.17913824
     atom    2 type  1   force =     0.00000000    0.00001782   -0.17912146
     atom    3 type  2   force =     0.00000000    0.00000195    0.17912267
     atom    4 type  2   force =     0.00000000    0.00000004    0.17912479
     atom    5 type  1   force =     0.00000000   -0.00001927   -0.17911968
     atom    6 type  1   force =     0.00000000    0.00002386   -0.17912027
     atom    7 type  2   force =     0.00000000   -0.00000269    0.17912326
     atom    8 type  2   force =     0.00000000   -0.00000335    0.17912892
     The non-local contrib.  to forces
     atom    1 type  1   force =     0.00000000    0.00002136   -0.37109537
     atom    2 type  1   force =     0.00000000   -0.00002287   -0.37108365
     atom    3 type  2   force =     0.00000000    0.00015497   -0.19046678
     atom    4 type  2   force =     0.00000000   -0.00014708   -0.19045776
     atom    5 type  1   force =     0.00000000    0.00002867   -0.37109738
     atom    6 type  1   force =     0.00000000   -0.00002066   -0.37108514
     atom    7 type  2   force =     0.00000000    0.00014242   -0.19046042
     atom    8 type  2   force =     0.00000000   -0.00014849   -0.19045969
     The ionic contribution  to forces
     atom    1 type  1   force =    -0.00000000    0.00000001   -2.67035677
     atom    2 type  1   force =     0.00000000    0.00000001   -2.67035677
     atom    3 type  2   force =    -0.00000000    0.00000001    2.67035677
     atom    4 type  2   force =     0.00000000    0.00000000    2.67035677
     atom    5 type  1   force =    -0.00000001   -0.00000000   -2.67035677
     atom    6 type  1   force =     0.00000001   -0.00000002   -2.67035677
     atom    7 type  2   force =    -0.00000001    0.00000000    2.67035677
     atom    8 type  2   force =     0.00000001   -0.00000001    2.67035677
     The local contribution  to forces
     atom    1 type  1   force =    -0.00000008   -0.00003741    2.82277390
     atom    2 type  1   force =     0.00000000    0.00004255    2.82273790
     atom    3 type  2   force =    -0.00000002   -0.00014275   -2.30160330
     atom    4 type  2   force =     0.00000000    0.00014663   -2.30157382
     atom    5 type  1   force =    -0.00000008   -0.00005096    2.82276776
     atom    6 type  1   force =     0.00000008    0.00003697    2.82273954
     atom    7 type  2   force =    -0.00000002   -0.00014468   -2.30160492
     atom    8 type  2   force =     0.00000002    0.00014122   -2.30157494
     The core correction contribution to forces
     atom    1 type  1   force =    -0.00000003    0.00000138    0.03961950
     atom    2 type  1   force =    -0.00000001   -0.00000168    0.03961970
     atom    3 type  2   force =    -0.00000001   -0.00000173    0.00073526
     atom    4 type  2   force =     0.00000000    0.00000169    0.00073525
     atom    5 type  1   force =    -0.00000000    0.00000162    0.03961932
     atom    6 type  1   force =     0.00000003   -0.00000170    0.03961984
     atom    7 type  2   force =    -0.00000000   -0.00000162    0.00073516
     atom    8 type  2   force =     0.00000001    0.00000164    0.00073523
     The Hubbard contrib.    to forces
     atom    1 type  1   force =     0.00000000    0.00000000    0.00000000
     atom    2 type  1   force =     0.00000000    0.00000000    0.00000000
     atom    3 type  2   force =     0.00000000    0.00000000    0.00000000
     atom    4 type  2   force =     0.00000000    0.00000000    0.00000000
     atom    5 type  1   force =     0.00000000    0.00000000    0.00000000
     atom    6 type  1   force =     0.00000000    0.00000000    0.00000000
     atom    7 type  2   force =     0.00000000    0.00000000    0.00000000
     atom    8 type  2   force =     0.00000000    0.00000000    0.00000000
     The SCF correction term to forces
     atom    1 type  1   force =     0.00000000   -0.00000239   -0.00010739
     atom    2 type  1   force =     0.00000000    0.00000113   -0.00006653
     atom    3 type  2   force =    -0.00000000   -0.00000724    0.00007283
     atom    4 type  2   force =    -0.00000000    0.00000010    0.00003646
     atom    5 type  1   force =    -0.00000000    0.00000271   -0.00008050
     atom    6 type  1   force =    -0.00000000    0.00001058   -0.00006563
     atom    7 type  2   force =     0.00000000    0.00000250    0.00006877
     atom    8 type  2   force =     0.00000000    0.00000360    0.00004366

     Total force =     0.506642     Total SCF correction =     0.000201

     General routines

     Parallel routines

   This run was terminated on:  13:56: 8  26Aug2025

   JOB DONE.
Note: The following floating-point exceptions are signalling: IEEE_DENORMAL