     Program PWSCF v.7.0 starts on 26Aug2025 at 23: 2: 4

     K-points division:     npool     =       4
     band groups division:  nbgrp     =       4

     Reading input from /home/jvc/QEspresso7.2/ZnO_database/scripts/cell121.in/ZnO-3.47-1.58-121.in
Warning: card &CELL ignored
Warning: card / ignored
Warning: card &FCP ignored
Warning: card / ignored
Warning: card &RISM ignored
Warning: card / ignored

     Current dimensions of program PWSCF are:
     Max number of different atomic species (ntypx) = 10
     Max number of k-points (npk) =  40000
     Max angular momentum in pseudopotentials (lmaxx) =  4
     file Zn.upf: wavefunction(s)  3D renormalized
     Found identity + ( -0.0000  0.5000  0.0000) symmetry
     This is a supercell, fractional translations are disabled
     Message from routine setup:
     using ibrav=0 with symmetry is DISCOURAGED, use correct ibrav instead

     Subspace diagonalization in iterative solution of the eigenvalue problem:
     a serial algorithm will be used

     Using Slab Decomposition

     bravais-lattice index     =            0
     lattice parameter (alat)  =       6.5496  a.u.
     unit-cell volume          =     769.8889 (a.u.)^3
     number of atoms/cell      =            8
     number of atomic types    =            2
     number of electrons       =        72.00
     number of Kohn-Sham states=           36
     kinetic-energy cutoff     =      50.0000  Ry
     charge density cutoff     =     400.0000  Ry
     scf convergence threshold =      1.0E-08
     mixing beta               =       0.3000
     number of iterations used =            8  plain     mixing
     Exchange-correlation= PBE
                           (   1   4   3   4   0   0   0)

     celldm(1)=   6.549585  celldm(2)=   0.000000  celldm(3)=   0.000000
     celldm(4)=   0.000000  celldm(5)=   0.000000  celldm(6)=   0.000000

     crystal axes: (cart. coord. in units of alat)
               a(1) = (   1.000000   0.000000   0.000000 )
               a(2) = (  -1.000000   1.732051   0.000000 )
               a(3) = (   0.000000   0.000000   1.582071 )

     reciprocal axes: (cart. coord. in units 2 pi/alat)
               b(1) = (  1.000000  0.577350 -0.000000 )
               b(2) = (  0.000000  0.577350  0.000000 )
               b(3) = (  0.000000 -0.000000  0.632083 )

     PseudoPot. # 1 for Zn read from file:
     /home/jvc/QEspresso7.2/ZnO_database/pseudos/Zn.upf
     MD5 check sum: 7f56cabf9682ed8c977c2f7d0c5985c5
     Pseudo is Ultrasoft + core correction, Zval = 12.0
     Generated using &quot;atomic&quot; code by A. Dal Corso  v.6.2.2
     Using radial grid of 1201 points,  6 beta functions with:
                l(1) =   0
                l(2) =   0
                l(3) =   1
                l(4) =   1
                l(5) =   2
                l(6) =   2
     Q(r) pseudized with 0 coefficients

     PseudoPot. # 2 for O  read from file:
     /home/jvc/QEspresso7.2/ZnO_database/pseudos/O.upf
     MD5 check sum: 91400c9766925bcf19f520983a725ff0
     Pseudo is Ultrasoft + core correction, Zval =  6.0
     Generated using &quot;atomic&quot; code by A. Dal Corso  v.6.3MaX
     Using radial grid of 1095 points,  4 beta functions with:
                l(1) =   0
                l(2) =   0
                l(3) =   1
                l(4) =   1
     Q(r) pseudized with 0 coefficients

     atomic species   valence    mass     pseudopotential
        Zn            12.00    65.38000     Zn( 1.00)
        O              6.00    15.99900     O ( 1.00)

      2 Sym. Ops. (no inversion) found

                                    s                        frac. trans.

      isym =  1     identity

 cryst.   s( 1) = (     1          0          0      )
                  (     0          1          0      )
                  (     0          0          1      )

 cart.    s( 1) = (  1.0000000  0.0000000  0.0000000 )
                  (  0.0000000  1.0000000  0.0000000 )
                  (  0.0000000  0.0000000  1.0000000 )

      isym =  2     inv. 180 deg rotation - cart. axis [1,0,0]

 cryst.   s( 2) = (    -1          0          0      )
                  (     2          1          0      )
                  (     0          0          1      )

 cart.    s( 2) = ( -1.0000000  0.0000000  0.0000000 )
                  (  0.0000000  1.0000000  0.0000000 )
                  (  0.0000000  0.0000000  1.0000000 )

   Cartesian axes

     site n.     atom                  positions (alat units)
         1           Zn  tau(   1) = (   0.5000000   0.2886751   0.7920380  )
         2           Zn  tau(   2) = (   0.0000000   0.5773503   0.0010024  )
         3           O   tau(   3) = (   0.5000000   0.2886751   1.3917107  )
         4           O   tau(   4) = (   0.0000000   0.5773503   0.6006751  )
         5           Zn  tau(   5) = (   0.0000000   1.1547005   0.7920380  )
         6           Zn  tau(   6) = (  -0.5000000   1.4433757   0.0010024  )
         7           O   tau(   7) = (   0.0000000   1.1547005   1.3917107  )
         8           O   tau(   8) = (  -0.5000000   1.4433757   0.6006751  )

   Crystallographic axes

     site n.     atom                  positions (cryst. coord.)
         1           Zn  tau(   1) = (  0.6666667  0.1666667  0.5006336  )
         2           Zn  tau(   2) = (  0.3333333  0.3333333  0.0006336  )
         3           O   tau(   3) = (  0.6666667  0.1666667  0.8796764  )
         4           O   tau(   4) = (  0.3333333  0.3333333  0.3796764  )
         5           Zn  tau(   5) = (  0.6666667  0.6666667  0.5006336  )
         6           Zn  tau(   6) = (  0.3333333  0.8333333  0.0006336  )
         7           O   tau(   7) = (  0.6666667  0.6666667  0.8796764  )
         8           O   tau(   8) = (  0.3333333  0.8333333  0.3796764  )

     number of k points=    80
                       cart. coord. in units 2pi/alat
        k(    1) = (   0.0000000   0.0000000   0.0000000), wk =   0.0092593
        k(    2) = (   0.0000000   0.0000000   0.1053471), wk =   0.0185185
        k(    3) = (   0.0000000   0.0000000   0.2106943), wk =   0.0185185
        k(    4) = (   0.0000000   0.0000000  -0.3160414), wk =   0.0092593
        k(    5) = (   0.0000000   0.0962250   0.0000000), wk =   0.0185185
        k(    6) = (   0.0000000   0.0962250   0.1053471), wk =   0.0185185
        k(    7) = (   0.0000000   0.0962250   0.2106943), wk =   0.0185185
        k(    8) = (   0.0000000   0.0962250  -0.3160414), wk =   0.0185185
        k(    9) = (   0.0000000   0.1924501   0.0000000), wk =   0.0185185
        k(   10) = (   0.0000000   0.1924501   0.1053471), wk =   0.0185185
        k(   11) = (   0.0000000   0.1924501   0.2106943), wk =   0.0185185
        k(   12) = (   0.0000000   0.1924501  -0.3160414), wk =   0.0185185
        k(   13) = (   0.0000000  -0.2886751   0.0000000), wk =   0.0092593
        k(   14) = (   0.0000000  -0.2886751   0.1053471), wk =   0.0185185
        k(   15) = (   0.0000000  -0.2886751   0.2106943), wk =   0.0185185
        k(   16) = (   0.0000000  -0.2886751  -0.3160414), wk =   0.0092593
        k(   17) = (   0.1666667   0.0962250   0.0000000), wk =   0.0370370
        k(   18) = (   0.1666667   0.0962250   0.1053471), wk =   0.0370370
        k(   19) = (   0.1666667   0.0962250   0.2106943), wk =   0.0370370
        k(   20) = (   0.1666667   0.0962250  -0.3160414), wk =   0.0370370
        k(   21) = (   0.1666667   0.1924501   0.0000000), wk =   0.0370370
        k(   22) = (   0.1666667   0.1924501   0.1053471), wk =   0.0370370
        k(   23) = (   0.1666667   0.1924501   0.2106943), wk =   0.0370370
        k(   24) = (   0.1666667   0.1924501  -0.3160414), wk =   0.0370370
        k(   25) = (   0.1666667   0.2886751   0.0000000), wk =   0.0185185
        k(   26) = (   0.1666667   0.2886751   0.1053471), wk =   0.0370370
        k(   27) = (   0.1666667   0.2886751   0.2106943), wk =   0.0370370
        k(   28) = (   0.1666667   0.2886751  -0.3160414), wk =   0.0185185
        k(   29) = (   0.1666667   0.0000000   0.0000000), wk =   0.0185185
        k(   30) = (   0.1666667   0.0000000   0.1053471), wk =   0.0370370
        k(   31) = (   0.1666667   0.0000000   0.2106943), wk =   0.0370370
        k(   32) = (   0.1666667   0.0000000  -0.3160414), wk =   0.0185185
        k(   33) = (   0.3333333   0.1924501   0.0000000), wk =   0.0370370
        k(   34) = (   0.3333333   0.1924501   0.1053471), wk =   0.0370370
        k(   35) = (   0.3333333   0.1924501   0.2106943), wk =   0.0370370
        k(   36) = (   0.3333333   0.1924501  -0.3160414), wk =   0.0370370
        k(   37) = (   0.3333333   0.2886751   0.0000000), wk =   0.0185185
        k(   38) = (   0.3333333   0.2886751   0.1053471), wk =   0.0370370
        k(   39) = (   0.3333333   0.2886751   0.2106943), wk =   0.0370370
        k(   40) = (   0.3333333   0.2886751  -0.3160414), wk =   0.0185185
        k(   41) = (   0.3333333  -0.0962250   0.0000000), wk =   0.0370370
        k(   42) = (   0.3333333  -0.0962250   0.1053471), wk =   0.0370370
        k(   43) = (   0.3333333  -0.0962250   0.2106943), wk =   0.0370370
        k(   44) = (   0.3333333  -0.0962250  -0.3160414), wk =   0.0370370
        k(   45) = (   0.3333333  -0.0000000   0.0000000), wk =   0.0185185
        k(   46) = (   0.3333333  -0.0000000   0.1053471), wk =   0.0370370
        k(   47) = (   0.3333333  -0.0000000   0.2106943), wk =   0.0370370
        k(   48) = (   0.3333333  -0.0000000  -0.3160414), wk =   0.0185185
        k(   49) = (  -0.5000000  -0.2886751   0.0000000), wk =   0.0092593
        k(   50) = (  -0.5000000  -0.2886751   0.1053471), wk =   0.0185185
        k(   51) = (  -0.5000000  -0.2886751   0.2106943), wk =   0.0185185
        k(   52) = (  -0.5000000  -0.2886751  -0.3160414), wk =   0.0092593
        k(   53) = (  -0.5000000  -0.1924501   0.0000000), wk =   0.0185185
        k(   54) = (  -0.5000000  -0.1924501   0.1053471), wk =   0.0185185
        k(   55) = (  -0.5000000  -0.1924501   0.2106943), wk =   0.0185185
        k(   56) = (  -0.5000000  -0.1924501  -0.3160414), wk =   0.0185185
        k(   57) = (  -0.5000000  -0.0962250   0.0000000), wk =   0.0185185
        k(   58) = (  -0.5000000  -0.0962250   0.1053471), wk =   0.0185185
        k(   59) = (  -0.5000000  -0.0962250   0.2106943), wk =   0.0185185
        k(   60) = (  -0.5000000  -0.0962250  -0.3160414), wk =   0.0185185
[...]
        k(   66) = (   0.0000000   0.0962250  -0.2106943), wk =   0.0185185
        k(   67) = (   0.0000000   0.1924501  -0.1053471), wk =   0.0185185
        k(   68) = (   0.0000000   0.1924501  -0.2106943), wk =   0.0185185
        k(   69) = (  -0.1666667   0.0962250  -0.1053471), wk =   0.0370370
        k(   70) = (  -0.1666667   0.0962250  -0.2106943), wk =   0.0370370
        k(   71) = (  -0.1666667   0.1924501  -0.1053471), wk =   0.0370370
        k(   72) = (  -0.1666667   0.1924501  -0.2106943), wk =   0.0370370
        k(   73) = (  -0.3333333   0.1924501  -0.1053471), wk =   0.0370370
        k(   74) = (  -0.3333333   0.1924501  -0.2106943), wk =   0.0370370
        k(   75) = (  -0.3333333  -0.0962250  -0.1053471), wk =   0.0370370
        k(   76) = (  -0.3333333  -0.0962250  -0.2106943), wk =   0.0370370
        k(   77) = (   0.5000000  -0.1924501  -0.1053471), wk =   0.0185185
        k(   78) = (   0.5000000  -0.1924501  -0.2106943), wk =   0.0185185
        k(   79) = (   0.5000000  -0.0962250  -0.1053471), wk =   0.0185185
        k(   80) = (   0.5000000  -0.0962250  -0.2106943), wk =   0.0185185

                       cryst. coord.
        k(    1) = (   0.0000000   0.0000000   0.0000000), wk =   0.0092593
        k(    2) = (   0.0000000   0.0000000   0.1666667), wk =   0.0185185
        k(    3) = (   0.0000000   0.0000000   0.3333333), wk =   0.0185185
        k(    4) = (   0.0000000   0.0000000  -0.5000000), wk =   0.0092593
        k(    5) = (   0.0000000   0.1666667   0.0000000), wk =   0.0185185
        k(    6) = (   0.0000000   0.1666667   0.1666667), wk =   0.0185185
        k(    7) = (   0.0000000   0.1666667   0.3333333), wk =   0.0185185
        k(    8) = (   0.0000000   0.1666667  -0.5000000), wk =   0.0185185
        k(    9) = (   0.0000000   0.3333333   0.0000000), wk =   0.0185185
        k(   10) = (   0.0000000   0.3333333   0.1666667), wk =   0.0185185
        k(   11) = (   0.0000000   0.3333333   0.3333333), wk =   0.0185185
        k(   12) = (   0.0000000   0.3333333  -0.5000000), wk =   0.0185185
        k(   13) = (   0.0000000  -0.5000000   0.0000000), wk =   0.0092593
        k(   14) = (   0.0000000  -0.5000000   0.1666667), wk =   0.0185185
        k(   15) = (   0.0000000  -0.5000000   0.3333333), wk =   0.0185185
        k(   16) = (   0.0000000  -0.5000000  -0.5000000), wk =   0.0092593
        k(   17) = (   0.1666667   0.0000000   0.0000000), wk =   0.0370370
        k(   18) = (   0.1666667   0.0000000   0.1666667), wk =   0.0370370
        k(   19) = (   0.1666667   0.0000000   0.3333333), wk =   0.0370370
        k(   20) = (   0.1666667   0.0000000  -0.5000000), wk =   0.0370370
        k(   21) = (   0.1666667   0.1666667   0.0000000), wk =   0.0370370
        k(   22) = (   0.1666667   0.1666667   0.1666667), wk =   0.0370370
        k(   23) = (   0.1666667   0.1666667   0.3333333), wk =   0.0370370
        k(   24) = (   0.1666667   0.1666667  -0.5000000), wk =   0.0370370
        k(   25) = (   0.1666667   0.3333333   0.0000000), wk =   0.0185185
        k(   26) = (   0.1666667   0.3333333   0.1666667), wk =   0.0370370
        k(   27) = (   0.1666667   0.3333333   0.3333333), wk =   0.0370370
        k(   28) = (   0.1666667   0.3333333  -0.5000000), wk =   0.0185185
        k(   29) = (   0.1666667  -0.1666667   0.0000000), wk =   0.0185185
        k(   30) = (   0.1666667  -0.1666667   0.1666667), wk =   0.0370370
        k(   31) = (   0.1666667  -0.1666667   0.3333333), wk =   0.0370370
        k(   32) = (   0.1666667  -0.1666667  -0.5000000), wk =   0.0185185
        k(   33) = (   0.3333333   0.0000000   0.0000000), wk =   0.0370370
        k(   34) = (   0.3333333   0.0000000   0.1666667), wk =   0.0370370
        k(   35) = (   0.3333333   0.0000000   0.3333333), wk =   0.0370370
        k(   36) = (   0.3333333   0.0000000  -0.5000000), wk =   0.0370370
        k(   37) = (   0.3333333   0.1666667   0.0000000), wk =   0.0185185
        k(   38) = (   0.3333333   0.1666667   0.1666667), wk =   0.0370370
        k(   39) = (   0.3333333   0.1666667   0.3333333), wk =   0.0370370
        k(   40) = (   0.3333333   0.1666667  -0.5000000), wk =   0.0185185
        k(   41) = (   0.3333333  -0.5000000   0.0000000), wk =   0.0370370
        k(   42) = (   0.3333333  -0.5000000   0.1666667), wk =   0.0370370
        k(   43) = (   0.3333333  -0.5000000   0.3333333), wk =   0.0370370
        k(   44) = (   0.3333333  -0.5000000  -0.5000000), wk =   0.0370370
        k(   45) = (   0.3333333  -0.3333333   0.0000000), wk =   0.0185185
        k(   46) = (   0.3333333  -0.3333333   0.1666667), wk =   0.0370370
        k(   47) = (   0.3333333  -0.3333333   0.3333333), wk =   0.0370370
        k(   48) = (   0.3333333  -0.3333333  -0.5000000), wk =   0.0185185
        k(   49) = (  -0.5000000   0.0000000   0.0000000), wk =   0.0092593
        k(   50) = (  -0.5000000   0.0000000   0.1666667), wk =   0.0185185
        k(   51) = (  -0.5000000   0.0000000   0.3333333), wk =   0.0185185
        k(   52) = (  -0.5000000   0.0000000  -0.5000000), wk =   0.0092593
        k(   53) = (  -0.5000000   0.1666667   0.0000000), wk =   0.0185185
        k(   54) = (  -0.5000000   0.1666667   0.1666667), wk =   0.0185185
        k(   55) = (  -0.5000000   0.1666667   0.3333333), wk =   0.0185185
        k(   56) = (  -0.5000000   0.1666667  -0.5000000), wk =   0.0185185
        k(   57) = (  -0.5000000   0.3333333   0.0000000), wk =   0.0185185
        k(   58) = (  -0.5000000   0.3333333   0.1666667), wk =   0.0185185
        k(   59) = (  -0.5000000   0.3333333   0.3333333), wk =   0.0185185
        k(   60) = (  -0.5000000   0.3333333  -0.5000000), wk =   0.0185185
[...]
        k(   66) = (   0.0000000   0.1666667  -0.3333333), wk =   0.0185185
        k(   67) = (   0.0000000   0.3333333  -0.1666667), wk =   0.0185185
        k(   68) = (   0.0000000   0.3333333  -0.3333333), wk =   0.0185185
        k(   69) = (  -0.1666667   0.3333333  -0.1666667), wk =   0.0370370
        k(   70) = (  -0.1666667   0.3333333  -0.3333333), wk =   0.0370370
        k(   71) = (  -0.1666667   0.5000000  -0.1666667), wk =   0.0370370
        k(   72) = (  -0.1666667   0.5000000  -0.3333333), wk =   0.0370370
        k(   73) = (  -0.3333333   0.6666667  -0.1666667), wk =   0.0370370
        k(   74) = (  -0.3333333   0.6666667  -0.3333333), wk =   0.0370370
        k(   75) = (  -0.3333333   0.1666667  -0.1666667), wk =   0.0370370
        k(   76) = (  -0.3333333   0.1666667  -0.3333333), wk =   0.0370370
        k(   77) = (   0.5000000  -0.8333333  -0.1666667), wk =   0.0185185
        k(   78) = (   0.5000000  -0.8333333  -0.3333333), wk =   0.0185185
        k(   79) = (   0.5000000  -0.6666667  -0.1666667), wk =   0.0185185
        k(   80) = (   0.5000000  -0.6666667  -0.3333333), wk =   0.0185185

     Check: negative core charge=   -0.000002

     Initial potential from superposition of free atoms

     starting charge      71.9851, renormalised to      72.0000
     Starting wfcs are   52 randomized atomic wfcs

     Self-consistent Calculation

     iteration #  1     ecut=    50.00 Ry     beta= 0.30
     Davidson diagonalization with overlap

     ethr =  1.00E-02,  avg # of iterations =  1.6

     total energy              =    -722.85745873 Ry
     estimated scf accuracy    <       1.52165871 Ry

[...]

     c_bands:  1 eigenvalues not converged
     ethr =  6.19E-07,  avg # of iterations = 14.3

[...]

     c_bands:  1 eigenvalues not converged
     ethr =  6.19E-07,  avg # of iterations = 13.6

[...]

     total energy              =    -723.21859149 Ry
     estimated scf accuracy    <       0.00000096 Ry

     iteration # 18     ecut=    50.00 Ry     beta= 0.30
     Davidson diagonalization with overlap

     ethr =  7.93E-10,  avg # of iterations =  5.6

     End of self-consistent calculation

          k = 0.0000 0.0000 0.0000 (  4625 PWs)   bands (ev):

   -12.0032 -11.5520 -11.5006 -11.3964  -0.2627  -0.2009  -0.2007  -0.1874
    -0.0562  -0.0560  -0.0337   0.0374   0.2341   0.3499   0.3578   0.3918
     0.4998   0.4999   0.5648   0.6148   0.6464   0.6465   0.6755   0.7231
     0.9228   1.3584   1.8623   2.5276   3.0746   3.8222   4.1665   4.1670
     4.2119   4.8014   4.8083   4.8088

     occupation numbers
     1.0000   1.0000   1.0000   1.0000   1.0000   1.0000   1.0000   1.0000
     1.0000   1.0000   1.0000   1.0000   1.0000   1.0000   1.0000   1.0000
     1.0000   1.0000   1.0000   1.0000   1.0000   1.0000   1.0000   1.0000
     1.0000   1.0000   1.0000   1.0000   1.0000   1.0000   1.0000   1.0000
     1.0000   1.0000   1.0000   1.0000

[...]

          k =-0.5000-0.2887 0.0000 (  4608 PWs)   bands (ev):

[...]

          k =-0.3333-0.0962-0.2107 (  4591 PWs)   bands (ev):

[...]

          k = 0.5000-0.0962-0.2107 (  4586 PWs)   bands (ev):

   -11.5118 -11.5118 -11.4304 -11.4304  -0.2445  -0.2445  -0.1478  -0.1478
     0.0174   0.0174   0.1630   0.1630   0.2301   0.2301   0.2376   0.2376
     0.5639   0.5639   0.6031   0.6031   0.6980   0.6980   0.7793   0.7793
     1.5110   1.5110   1.7881   1.7881   2.8888   2.8888   3.4280   3.4280
     3.6045   3.6045   4.0467   4.0467

     occupation numbers
     1.0000   1.0000   1.0000   1.0000   1.0000   1.0000   1.0000   1.0000
     1.0000   1.0000   1.0000   1.0000   1.0000   1.0000   1.0000   1.0000
     1.0000   1.0000   1.0000   1.0000   1.0000   1.0000   1.0000   1.0000
     1.0000   1.0000   1.0000   1.0000   1.0000   1.0000   1.0000   1.0000
     1.0000   1.0000   1.0000   1.0000

     highest occupied level (ev):     4.8088

!    total energy              =    -723.21859166 Ry
     estimated scf accuracy    <          9.3E-09 Ry

     The total energy is the sum of the following terms:
     one-electron contribution =    -344.01352391 Ry
     hartree contribution      =     249.23047876 Ry
     xc contribution           =    -218.51365919 Ry
     ewald contribution        =    -409.92188733 Ry

     convergence has been achieved in  18 iterations

     Forces acting on atoms (cartesian axes, Ry/au):

     atom    1 type  1   force =     0.00000000    0.00000146   -0.00152933
     atom    2 type  1   force =     0.00000000   -0.00000056   -0.00154580
     atom    3 type  2   force =     0.00000000    0.00000150    0.00154204
     atom    4 type  2   force =     0.00000000   -0.00000170    0.00154056
     atom    5 type  1   force =     0.00000000    0.00000061   -0.00153041
     atom    6 type  1   force =     0.00000000   -0.00000211   -0.00155750
     atom    7 type  2   force =     0.00000000    0.00000273    0.00154105
     atom    8 type  2   force =     0.00000000   -0.00000193    0.00153940
     The non-local contrib.  to forces
     atom    1 type  1   force =     0.00000000   -0.00000004   -0.05789075
     atom    2 type  1   force =     0.00000000    0.00000307   -0.05790477
     atom    3 type  2   force =     0.00000000    0.00021310   -0.04451241
     atom    4 type  2   force =     0.00000000   -0.00021489   -0.04452360
     atom    5 type  1   force =     0.00000000    0.00000069   -0.05789441
     atom    6 type  1   force =     0.00000000   -0.00000050   -0.05790526
     atom    7 type  2   force =     0.00000000    0.00021695   -0.04451617
     atom    8 type  2   force =     0.00000000   -0.00021886   -0.04452895
     The ionic contribution  to forces
     atom    1 type  1   force =    -0.00000000    0.00000000   -0.31882413
     atom    2 type  1   force =     0.00000000   -0.00000000   -0.31882413
     atom    3 type  2   force =    -0.00000000    0.00000000    0.31882413
     atom    4 type  2   force =     0.00000000   -0.00000000    0.31882413
     atom    5 type  1   force =    -0.00000000    0.00000000   -0.31882413
     atom    6 type  1   force =     0.00000000   -0.00000000   -0.31882413
     atom    7 type  2   force =    -0.00000000    0.00000000    0.31882413
     atom    8 type  2   force =     0.00000000   -0.00000000    0.31882413
     The local contribution  to forces
     atom    1 type  1   force =    -0.00000009   -0.00000805    0.37141237
     atom    2 type  1   force =     0.00000000    0.00000352    0.37144309
     atom    3 type  2   force =    -0.00000002   -0.00020343   -0.27311286
     atom    4 type  2   force =     0.00000000    0.00020097   -0.27313077
     atom    5 type  1   force =    -0.00000009   -0.00000938    0.37141730
     atom    6 type  1   force =     0.00000000    0.00001116    0.37144882
     atom    7 type  2   force =    -0.00000002   -0.00021215   -0.27312439
     atom    8 type  2   force =     0.00000000    0.00021641   -0.27313061
     The core correction contribution to forces
     atom    1 type  1   force =    -0.00000001    0.00000582    0.00374687
     atom    2 type  1   force =    -0.00000000   -0.00000585    0.00374682
     atom    3 type  2   force =     0.00000000   -0.00000237    0.00036408
     atom    4 type  2   force =    -0.00000000    0.00000239    0.00036417
     atom    5 type  1   force =    -0.00000001    0.00000584    0.00374691
     atom    6 type  1   force =    -0.00000000   -0.00000591    0.00374692
     atom    7 type  2   force =     0.00000000   -0.00000245    0.00036407
     atom    8 type  2   force =    -0.00000000    0.00000249    0.00036425
     The Hubbard contrib.    to forces
     atom    1 type  1   force =     0.00000000    0.00000000    0.00000000
     atom    2 type  1   force =     0.00000000    0.00000000    0.00000000
     atom    3 type  2   force =     0.00000000    0.00000000    0.00000000
     atom    4 type  2   force =     0.00000000    0.00000000    0.00000000
     atom    5 type  1   force =     0.00000000    0.00000000    0.00000000
     atom    6 type  1   force =     0.00000000    0.00000000    0.00000000
     atom    7 type  2   force =     0.00000000    0.00000000    0.00000000
     atom    8 type  2   force =     0.00000000    0.00000000    0.00000000
     The SCF correction term to forces
     atom    1 type  1   force =    -0.00000000    0.00000330    0.00003100
     atom    2 type  1   force =     0.00000000   -0.00000174   -0.00000211
     atom    3 type  2   force =    -0.00000000   -0.00000623   -0.00001619
     atom    4 type  2   force =     0.00000000    0.00000940    0.00001133
     atom    5 type  1   force =    -0.00000000    0.00000302    0.00002861
     atom    6 type  1   force =     0.00000000   -0.00000729   -0.00001915
     atom    7 type  2   force =    -0.00000000   -0.00000005   -0.00000188
     atom    8 type  2   force =     0.00000000   -0.00000239    0.00001530

     Total force =     0.004358     Total SCF correction =     0.000055

     General routines

     Parallel routines

   This run was terminated on:  23: 7:15  26Aug2025

   JOB DONE.