     Program PWSCF v.7.0 starts on 26Aug2025 at 18:27:22

     K-points division:     npool     =       4
     band groups division:  nbgrp     =       4

     Reading input from /home/jvc/QEspresso7.2/ZnO_database/scripts/cell121.in/ZnO-3.27-1.49-121.in
Warning: card &CELL ignored
Warning: card / ignored
Warning: card &FCP ignored
Warning: card / ignored
Warning: card &RISM ignored
Warning: card / ignored

     Current dimensions of program PWSCF are:
     Max number of different atomic species (ntypx) = 10
     Max number of k-points (npk) =  40000
     Max angular momentum in pseudopotentials (lmaxx) =  4
     file Zn.upf: wavefunction(s)  3D renormalized
     Found identity + (  0.0000 -0.5000  0.0000) symmetry
     This is a supercell, fractional translations are disabled
     Message from routine setup:
     using ibrav=0 with symmetry is DISCOURAGED, use correct ibrav instead

     Subspace diagonalization in iterative solution of the eigenvalue problem:
     a serial algorithm will be used

     Using Slab Decomposition

     bravais-lattice index     =            0
     lattice parameter (alat)  =       6.1789  a.u.
     unit-cell volume          =     606.8372 (a.u.)^3
     number of atoms/cell      =            8
     number of atomic types    =            2
     number of electrons       =        72.00
     number of Kohn-Sham states=           36
     kinetic-energy cutoff     =      50.0000  Ry
     charge density cutoff     =     400.0000  Ry
     scf convergence threshold =      1.0E-08
     mixing beta               =       0.3000
     number of iterations used =            8  plain     mixing
     Exchange-correlation= PBE
                           (   1   4   3   4   0   0   0)

     celldm(1)=   6.178854  celldm(2)=   0.000000  celldm(3)=   0.000000
     celldm(4)=   0.000000  celldm(5)=   0.000000  celldm(6)=   0.000000

     crystal axes: (cart. coord. in units of alat)
               a(1) = (   1.000000   0.000000   0.000000 )
               a(2) = (  -1.000000   1.732051   0.000000 )
               a(3) = (   0.000000   0.000000   1.485210 )

     reciprocal axes: (cart. coord. in units 2 pi/alat)
               b(1) = (  1.000000  0.577350 -0.000000 )
               b(2) = (  0.000000  0.577350  0.000000 )
               b(3) = (  0.000000 -0.000000  0.673306 )

     PseudoPot. # 1 for Zn read from file:
     /home/jvc/QEspresso7.2/ZnO_database/pseudos/Zn.upf
     MD5 check sum: 7f56cabf9682ed8c977c2f7d0c5985c5
     Pseudo is Ultrasoft + core correction, Zval = 12.0
     Generated using &quot;atomic&quot; code by A. Dal Corso  v.6.2.2
     Using radial grid of 1201 points,  6 beta functions with:
                l(1) =   0
                l(2) =   0
                l(3) =   1
                l(4) =   1
                l(5) =   2
                l(6) =   2
     Q(r) pseudized with 0 coefficients

     PseudoPot. # 2 for O  read from file:
     /home/jvc/QEspresso7.2/ZnO_database/pseudos/O.upf
     MD5 check sum: 91400c9766925bcf19f520983a725ff0
     Pseudo is Ultrasoft + core correction, Zval =  6.0
     Generated using &quot;atomic&quot; code by A. Dal Corso  v.6.3MaX
     Using radial grid of 1095 points,  4 beta functions with:
                l(1) =   0
                l(2) =   0
                l(3) =   1
                l(4) =   1
     Q(r) pseudized with 0 coefficients

     atomic species   valence    mass     pseudopotential
        Zn            12.00    65.38000     Zn( 1.00)
        O              6.00    15.99900     O ( 1.00)

      2 Sym. Ops. (no inversion) found

                                    s                        frac. trans.

      isym =  1     identity

 cryst.   s( 1) = (     1          0          0      )
                  (     0          1          0      )
                  (     0          0          1      )

 cart.    s( 1) = (  1.0000000  0.0000000  0.0000000 )
                  (  0.0000000  1.0000000  0.0000000 )
                  (  0.0000000  0.0000000  1.0000000 )

      isym =  2     inv. 180 deg rotation - cart. axis [1,0,0]

 cryst.   s( 2) = (    -1          0          0      )
                  (     2          1          0      )
                  (     0          0          1      )

 cart.    s( 2) = ( -1.0000000  0.0000000  0.0000000 )
                  (  0.0000000  1.0000000  0.0000000 )
                  (  0.0000000  0.0000000  1.0000000 )

   Cartesian axes

     site n.     atom                  positions (alat units)
         1           Zn  tau(   1) = (   0.5000000   0.2886751   0.7435459  )
         2           Zn  tau(   2) = (   0.0000000   0.5773503   0.0009410  )
         3           O   tau(   3) = (   0.5000000   0.2886751   1.3065039  )
         4           O   tau(   4) = (   0.0000000   0.5773503   0.5638991  )
         5           Zn  tau(   5) = (   0.0000000   1.1547005   0.7435459  )
         6           Zn  tau(   6) = (  -0.5000000   1.4433757   0.0009410  )
         7           O   tau(   7) = (   0.0000000   1.1547005   1.3065039  )
         8           O   tau(   8) = (  -0.5000000   1.4433757   0.5638991  )

   Crystallographic axes

     site n.     atom                  positions (cryst. coord.)
         1           Zn  tau(   1) = (  0.6666667  0.1666667  0.5006336  )
         2           Zn  tau(   2) = (  0.3333333  0.3333333  0.0006336  )
         3           O   tau(   3) = (  0.6666667  0.1666667  0.8796764  )
         4           O   tau(   4) = (  0.3333333  0.3333333  0.3796764  )
         5           Zn  tau(   5) = (  0.6666667  0.6666667  0.5006336  )
         6           Zn  tau(   6) = (  0.3333333  0.8333333  0.0006336  )
         7           O   tau(   7) = (  0.6666667  0.6666667  0.8796764  )
         8           O   tau(   8) = (  0.3333333  0.8333333  0.3796764  )

     number of k points=    80
                       cart. coord. in units 2pi/alat
        k(    1) = (   0.0000000   0.0000000   0.0000000), wk =   0.0092593
        k(    2) = (   0.0000000   0.0000000   0.1122176), wk =   0.0185185
        k(    3) = (   0.0000000   0.0000000   0.2244352), wk =   0.0185185
        k(    4) = (   0.0000000   0.0000000  -0.3366528), wk =   0.0092593
        k(    5) = (   0.0000000   0.0962250   0.0000000), wk =   0.0185185
        k(    6) = (   0.0000000   0.0962250   0.1122176), wk =   0.0185185
        k(    7) = (   0.0000000   0.0962250   0.2244352), wk =   0.0185185
        k(    8) = (   0.0000000   0.0962250  -0.3366528), wk =   0.0185185
        k(    9) = (   0.0000000   0.1924501   0.0000000), wk =   0.0185185
        k(   10) = (   0.0000000   0.1924501   0.1122176), wk =   0.0185185
        k(   11) = (   0.0000000   0.1924501   0.2244352), wk =   0.0185185
        k(   12) = (   0.0000000   0.1924501  -0.3366528), wk =   0.0185185
        k(   13) = (   0.0000000  -0.2886751   0.0000000), wk =   0.0092593
        k(   14) = (   0.0000000  -0.2886751   0.1122176), wk =   0.0185185
        k(   15) = (   0.0000000  -0.2886751   0.2244352), wk =   0.0185185
        k(   16) = (   0.0000000  -0.2886751  -0.3366528), wk =   0.0092593
        k(   17) = (   0.1666667   0.0962250   0.0000000), wk =   0.0370370
        k(   18) = (   0.1666667   0.0962250   0.1122176), wk =   0.0370370
        k(   19) = (   0.1666667   0.0962250   0.2244352), wk =   0.0370370
        k(   20) = (   0.1666667   0.0962250  -0.3366528), wk =   0.0370370
        k(   21) = (   0.1666667   0.1924501   0.0000000), wk =   0.0370370
        k(   22) = (   0.1666667   0.1924501   0.1122176), wk =   0.0370370
        k(   23) = (   0.1666667   0.1924501   0.2244352), wk =   0.0370370
        k(   24) = (   0.1666667   0.1924501  -0.3366528), wk =   0.0370370
        k(   25) = (   0.1666667   0.2886751   0.0000000), wk =   0.0185185
        k(   26) = (   0.1666667   0.2886751   0.1122176), wk =   0.0370370
        k(   27) = (   0.1666667   0.2886751   0.2244352), wk =   0.0370370
        k(   28) = (   0.1666667   0.2886751  -0.3366528), wk =   0.0185185
        k(   29) = (   0.1666667   0.0000000   0.0000000), wk =   0.0185185
        k(   30) = (   0.1666667   0.0000000   0.1122176), wk =   0.0370370
        k(   31) = (   0.1666667   0.0000000   0.2244352), wk =   0.0370370
        k(   32) = (   0.1666667   0.0000000  -0.3366528), wk =   0.0185185
        k(   33) = (   0.3333333   0.1924501   0.0000000), wk =   0.0370370
        k(   34) = (   0.3333333   0.1924501   0.1122176), wk =   0.0370370
        k(   35) = (   0.3333333   0.1924501   0.2244352), wk =   0.0370370
        k(   36) = (   0.3333333   0.1924501  -0.3366528), wk =   0.0370370
        k(   37) = (   0.3333333   0.2886751   0.0000000), wk =   0.0185185
        k(   38) = (   0.3333333   0.2886751   0.1122176), wk =   0.0370370
        k(   39) = (   0.3333333   0.2886751   0.2244352), wk =   0.0370370
        k(   40) = (   0.3333333   0.2886751  -0.3366528), wk =   0.0185185
        k(   41) = (   0.3333333  -0.0962250   0.0000000), wk =   0.0370370
        k(   42) = (   0.3333333  -0.0962250   0.1122176), wk =   0.0370370
        k(   43) = (   0.3333333  -0.0962250   0.2244352), wk =   0.0370370
        k(   44) = (   0.3333333  -0.0962250  -0.3366528), wk =   0.0370370
        k(   45) = (   0.3333333  -0.0000000   0.0000000), wk =   0.0185185
        k(   46) = (   0.3333333  -0.0000000   0.1122176), wk =   0.0370370
        k(   47) = (   0.3333333  -0.0000000   0.2244352), wk =   0.0370370
        k(   48) = (   0.3333333  -0.0000000  -0.3366528), wk =   0.0185185
        k(   49) = (  -0.5000000  -0.2886751   0.0000000), wk =   0.0092593
        k(   50) = (  -0.5000000  -0.2886751   0.1122176), wk =   0.0185185
        k(   51) = (  -0.5000000  -0.2886751   0.2244352), wk =   0.0185185
        k(   52) = (  -0.5000000  -0.2886751  -0.3366528), wk =   0.0092593
        k(   53) = (  -0.5000000  -0.1924501   0.0000000), wk =   0.0185185
        k(   54) = (  -0.5000000  -0.1924501   0.1122176), wk =   0.0185185
        k(   55) = (  -0.5000000  -0.1924501   0.2244352), wk =   0.0185185
        k(   56) = (  -0.5000000  -0.1924501  -0.3366528), wk =   0.0185185
        k(   57) = (  -0.5000000  -0.0962250   0.0000000), wk =   0.0185185
        k(   58) = (  -0.5000000  -0.0962250   0.1122176), wk =   0.0185185
        k(   59) = (  -0.5000000  -0.0962250   0.2244352), wk =   0.0185185
        k(   60) = (  -0.5000000  -0.0962250  -0.3366528), wk =   0.0185185
[...]
        k(   66) = (   0.0000000   0.0962250  -0.2244352), wk =   0.0185185
        k(   67) = (   0.0000000   0.1924501  -0.1122176), wk =   0.0185185
        k(   68) = (   0.0000000   0.1924501  -0.2244352), wk =   0.0185185
        k(   69) = (  -0.1666667   0.0962250  -0.1122176), wk =   0.0370370
        k(   70) = (  -0.1666667   0.0962250  -0.2244352), wk =   0.0370370
        k(   71) = (  -0.1666667   0.1924501  -0.1122176), wk =   0.0370370
        k(   72) = (  -0.1666667   0.1924501  -0.2244352), wk =   0.0370370
        k(   73) = (  -0.3333333   0.1924501  -0.1122176), wk =   0.0370370
        k(   74) = (  -0.3333333   0.1924501  -0.2244352), wk =   0.0370370
        k(   75) = (  -0.3333333  -0.0962250  -0.1122176), wk =   0.0370370
        k(   76) = (  -0.3333333  -0.0962250  -0.2244352), wk =   0.0370370
        k(   77) = (   0.5000000  -0.1924501  -0.1122176), wk =   0.0185185
        k(   78) = (   0.5000000  -0.1924501  -0.2244352), wk =   0.0185185
        k(   79) = (   0.5000000  -0.0962250  -0.1122176), wk =   0.0185185
        k(   80) = (   0.5000000  -0.0962250  -0.2244352), wk =   0.0185185

                       cryst. coord.
        k(    1) = (   0.0000000   0.0000000   0.0000000), wk =   0.0092593
        k(    2) = (   0.0000000   0.0000000   0.1666667), wk =   0.0185185
        k(    3) = (   0.0000000   0.0000000   0.3333333), wk =   0.0185185
        k(    4) = (   0.0000000   0.0000000  -0.5000000), wk =   0.0092593
        k(    5) = (   0.0000000   0.1666667   0.0000000), wk =   0.0185185
        k(    6) = (   0.0000000   0.1666667   0.1666667), wk =   0.0185185
        k(    7) = (   0.0000000   0.1666667   0.3333333), wk =   0.0185185
        k(    8) = (   0.0000000   0.1666667  -0.5000000), wk =   0.0185185
        k(    9) = (   0.0000000   0.3333333   0.0000000), wk =   0.0185185
        k(   10) = (   0.0000000   0.3333333   0.1666667), wk =   0.0185185
        k(   11) = (   0.0000000   0.3333333   0.3333333), wk =   0.0185185
        k(   12) = (   0.0000000   0.3333333  -0.5000000), wk =   0.0185185
        k(   13) = (   0.0000000  -0.5000000   0.0000000), wk =   0.0092593
        k(   14) = (   0.0000000  -0.5000000   0.1666667), wk =   0.0185185
        k(   15) = (   0.0000000  -0.5000000   0.3333333), wk =   0.0185185
        k(   16) = (   0.0000000  -0.5000000  -0.5000000), wk =   0.0092593
        k(   17) = (   0.1666667  -0.0000000   0.0000000), wk =   0.0370370
        k(   18) = (   0.1666667  -0.0000000   0.1666667), wk =   0.0370370
        k(   19) = (   0.1666667  -0.0000000   0.3333333), wk =   0.0370370
        k(   20) = (   0.1666667  -0.0000000  -0.5000000), wk =   0.0370370
        k(   21) = (   0.1666667   0.1666667   0.0000000), wk =   0.0370370
        k(   22) = (   0.1666667   0.1666667   0.1666667), wk =   0.0370370
        k(   23) = (   0.1666667   0.1666667   0.3333333), wk =   0.0370370
        k(   24) = (   0.1666667   0.1666667  -0.5000000), wk =   0.0370370
        k(   25) = (   0.1666667   0.3333333   0.0000000), wk =   0.0185185
        k(   26) = (   0.1666667   0.3333333   0.1666667), wk =   0.0370370
        k(   27) = (   0.1666667   0.3333333   0.3333333), wk =   0.0370370
        k(   28) = (   0.1666667   0.3333333  -0.5000000), wk =   0.0185185
        k(   29) = (   0.1666667  -0.1666667   0.0000000), wk =   0.0185185
        k(   30) = (   0.1666667  -0.1666667   0.1666667), wk =   0.0370370
        k(   31) = (   0.1666667  -0.1666667   0.3333333), wk =   0.0370370
        k(   32) = (   0.1666667  -0.1666667  -0.5000000), wk =   0.0185185
        k(   33) = (   0.3333333  -0.0000000   0.0000000), wk =   0.0370370
        k(   34) = (   0.3333333  -0.0000000   0.1666667), wk =   0.0370370
        k(   35) = (   0.3333333  -0.0000000   0.3333333), wk =   0.0370370
        k(   36) = (   0.3333333  -0.0000000  -0.5000000), wk =   0.0370370
        k(   37) = (   0.3333333   0.1666667   0.0000000), wk =   0.0185185
        k(   38) = (   0.3333333   0.1666667   0.1666667), wk =   0.0370370
        k(   39) = (   0.3333333   0.1666667   0.3333333), wk =   0.0370370
        k(   40) = (   0.3333333   0.1666667  -0.5000000), wk =   0.0185185
        k(   41) = (   0.3333333  -0.5000000   0.0000000), wk =   0.0370370
        k(   42) = (   0.3333333  -0.5000000   0.1666667), wk =   0.0370370
        k(   43) = (   0.3333333  -0.5000000   0.3333333), wk =   0.0370370
        k(   44) = (   0.3333333  -0.5000000  -0.5000000), wk =   0.0370370
        k(   45) = (   0.3333333  -0.3333333   0.0000000), wk =   0.0185185
        k(   46) = (   0.3333333  -0.3333333   0.1666667), wk =   0.0370370
        k(   47) = (   0.3333333  -0.3333333   0.3333333), wk =   0.0370370
        k(   48) = (   0.3333333  -0.3333333  -0.5000000), wk =   0.0185185
        k(   49) = (  -0.5000000   0.0000000   0.0000000), wk =   0.0092593
        k(   50) = (  -0.5000000   0.0000000   0.1666667), wk =   0.0185185
        k(   51) = (  -0.5000000   0.0000000   0.3333333), wk =   0.0185185
        k(   52) = (  -0.5000000   0.0000000  -0.5000000), wk =   0.0092593
        k(   53) = (  -0.5000000   0.1666667   0.0000000), wk =   0.0185185
        k(   54) = (  -0.5000000   0.1666667   0.1666667), wk =   0.0185185
        k(   55) = (  -0.5000000   0.1666667   0.3333333), wk =   0.0185185
        k(   56) = (  -0.5000000   0.1666667  -0.5000000), wk =   0.0185185
        k(   57) = (  -0.5000000   0.3333333   0.0000000), wk =   0.0185185
        k(   58) = (  -0.5000000   0.3333333   0.1666667), wk =   0.0185185
        k(   59) = (  -0.5000000   0.3333333   0.3333333), wk =   0.0185185
        k(   60) = (  -0.5000000   0.3333333  -0.5000000), wk =   0.0185185
[...]
        k(   66) = (   0.0000000   0.1666667  -0.3333333), wk =   0.0185185
        k(   67) = (   0.0000000   0.3333333  -0.1666667), wk =   0.0185185
        k(   68) = (   0.0000000   0.3333333  -0.3333333), wk =   0.0185185
        k(   69) = (  -0.1666667   0.3333333  -0.1666667), wk =   0.0370370
        k(   70) = (  -0.1666667   0.3333333  -0.3333333), wk =   0.0370370
        k(   71) = (  -0.1666667   0.5000000  -0.1666667), wk =   0.0370370
        k(   72) = (  -0.1666667   0.5000000  -0.3333333), wk =   0.0370370
        k(   73) = (  -0.3333333   0.6666667  -0.1666667), wk =   0.0370370
        k(   74) = (  -0.3333333   0.6666667  -0.3333333), wk =   0.0370370
        k(   75) = (  -0.3333333   0.1666667  -0.1666667), wk =   0.0370370
        k(   76) = (  -0.3333333   0.1666667  -0.3333333), wk =   0.0370370
        k(   77) = (   0.5000000  -0.8333333  -0.1666667), wk =   0.0185185
        k(   78) = (   0.5000000  -0.8333333  -0.3333333), wk =   0.0185185
        k(   79) = (   0.5000000  -0.6666667  -0.1666667), wk =   0.0185185
        k(   80) = (   0.5000000  -0.6666667  -0.3333333), wk =   0.0185185

     Check: negative core charge=   -0.000002

     Initial potential from superposition of free atoms

     starting charge      71.9851, renormalised to      72.0000
     Starting wfcs are   52 randomized atomic wfcs

     Self-consistent Calculation

     iteration #  1     ecut=    50.00 Ry     beta= 0.30
     Davidson diagonalization with overlap

     ethr =  1.00E-02,  avg # of iterations =  2.0

     total energy              =    -722.91658206 Ry
     estimated scf accuracy    <       1.37999115 Ry

[...]

     total energy              =    -723.21810356 Ry
     estimated scf accuracy    <       0.00000035 Ry

     iteration # 28     ecut=    50.00 Ry     beta= 0.30
     Davidson diagonalization with overlap

     ethr =  2.45E-10,  avg # of iterations =  5.8

     End of self-consistent calculation

          k = 0.0000 0.0000 0.0000 (  3581 PWs)   bands (ev):

   -10.4332  -9.7044  -9.4797  -9.4073   1.8822   2.1237   2.2091   2.2092
     2.2118   2.2351   2.4284   2.4730   2.4731   2.6634   2.8618   3.1248
     3.4918   3.4918   3.5523   3.7077   3.7932   3.7933   3.8550   3.9064
     4.0303   4.4498   4.5904   5.1967   5.3985   6.8605   7.0057   7.0059
     7.3149   8.0899   8.0902   8.1524

     occupation numbers
     1.0000   1.0000   1.0000   1.0000   1.0000   1.0000   1.0000   1.0000
     1.0000   1.0000   1.0000   1.0000   1.0000   1.0000   1.0000   1.0000
     1.0000   1.0000   1.0000   1.0000   1.0000   1.0000   1.0000   1.0000
     1.0000   1.0000   1.0000   1.0000   1.0000   1.0000   1.0000   1.0000
     1.0000   1.0000   1.0000   1.0000

[...]

          k =-0.5000-0.2887 0.0000 (  3628 PWs)   bands (ev):

[...]

          k =-0.3333-0.0962-0.2244 (  3628 PWs)   bands (ev):

[...]

          k = 0.5000-0.0962-0.2244 (  3628 PWs)   bands (ev):

    -9.6201  -9.6201  -9.4630  -9.4629   1.7480   1.7480   1.8246   1.8246
     2.4170   2.4170   2.5356   2.5356   2.7606   2.7606   2.8573   2.8573
     3.6061   3.6061   3.6898   3.6898   3.8573   3.8574   3.9826   3.9826
     4.4121   4.4121   4.7821   4.7821   5.4842   5.4842   6.3653   6.3653
     6.5668   6.5668   7.2220   7.2220

     occupation numbers
     1.0000   1.0000   1.0000   1.0000   1.0000   1.0000   1.0000   1.0000
     1.0000   1.0000   1.0000   1.0000   1.0000   1.0000   1.0000   1.0000
     1.0000   1.0000   1.0000   1.0000   1.0000   1.0000   1.0000   1.0000
     1.0000   1.0000   1.0000   1.0000   1.0000   1.0000   1.0000   1.0000
     1.0000   1.0000   1.0000   1.0000

     highest occupied level (ev):     8.1524

!    total energy              =    -723.21810365 Ry
     estimated scf accuracy    <          3.5E-09 Ry

     The total energy is the sum of the following terms:
     one-electron contribution =    -291.72811783 Ry
     hartree contribution      =     230.79778757 Ry
     xc contribution           =    -219.47521215 Ry
     ewald contribution        =    -442.81256124 Ry

     convergence has been achieved in  28 iterations

     Forces acting on atoms (cartesian axes, Ry/au):

     atom    1 type  1   force =     0.00000000   -0.00002812   -0.05202549
     atom    2 type  1   force =     0.00000000    0.00001345   -0.05204187
     atom    3 type  2   force =     0.00000000    0.00000060    0.05202664
     atom    4 type  2   force =     0.00000000   -0.00000031    0.05202802
     atom    5 type  1   force =     0.00000000    0.00000373   -0.05201047
     atom    6 type  1   force =     0.00000000    0.00000969   -0.05203111
     atom    7 type  2   force =     0.00000000    0.00000098    0.05202720
     atom    8 type  2   force =     0.00000000   -0.00000003    0.05202708
     The non-local contrib.  to forces
     atom    1 type  1   force =     0.00000000    0.00000506   -0.25818682
     atom    2 type  1   force =     0.00000000   -0.00001536   -0.25819242
     atom    3 type  2   force =     0.00000000    0.00018349   -0.18023337
     atom    4 type  2   force =     0.00000000   -0.00018132   -0.18023234
     atom    5 type  1   force =     0.00000000    0.00002154   -0.25818339
     atom    6 type  1   force =     0.00000000   -0.00001312   -0.25819176
     atom    7 type  2   force =     0.00000000    0.00017811   -0.18023029
     atom    8 type  2   force =     0.00000000   -0.00018250   -0.18023210
     The ionic contribution  to forces
     atom    1 type  1   force =    -0.00000000    0.00000000   -1.74836659
     atom    2 type  1   force =     0.00000000   -0.00000000   -1.74836659
     atom    3 type  2   force =    -0.00000000    0.00000000    1.74836659
     atom    4 type  2   force =     0.00000000   -0.00000000    1.74836659
     atom    5 type  1   force =    -0.00000000    0.00000000   -1.74836659
     atom    6 type  1   force =     0.00000000   -0.00000000   -1.74836659
     atom    7 type  2   force =    -0.00000000    0.00000000    1.74836659
     atom    8 type  2   force =     0.00000000   -0.00000000    1.74836659
     The local contribution  to forces
     atom    1 type  1   force =    -0.00000009   -0.00000175    1.93344385
     atom    2 type  1   force =     0.00000000    0.00002751    1.93347465
     atom    3 type  2   force =    -0.00000002   -0.00017449   -1.51734661
     atom    4 type  2   force =     0.00000000    0.00018488   -1.51735309
     atom    5 type  1   force =    -0.00000009   -0.00005343    1.93343250
     atom    6 type  1   force =    -0.00000000    0.00002995    1.93346150
     atom    7 type  2   force =    -0.00000002   -0.00018326   -1.51734871
     atom    8 type  2   force =    -0.00000000    0.00017672   -1.51735837
     The core correction contribution to forces
     atom    1 type  1   force =    -0.00000001    0.00000302    0.02108611
     atom    2 type  1   force =     0.00000000   -0.00000322    0.02108528
     atom    3 type  2   force =     0.00000000   -0.00000210    0.00122352
     atom    4 type  2   force =     0.00000000    0.00000209    0.00122349
     atom    5 type  1   force =    -0.00000001    0.00000381    0.02108596
     atom    6 type  1   force =     0.00000000   -0.00000355    0.02108566
     atom    7 type  2   force =     0.00000000   -0.00000205    0.00122347
     atom    8 type  2   force =     0.00000000    0.00000210    0.00122347
     The Hubbard contrib.    to forces
     atom    1 type  1   force =     0.00000000    0.00000000    0.00000000
     atom    2 type  1   force =     0.00000000    0.00000000    0.00000000
     atom    3 type  2   force =     0.00000000    0.00000000    0.00000000
     atom    4 type  2   force =     0.00000000    0.00000000    0.00000000
     atom    5 type  1   force =     0.00000000    0.00000000    0.00000000
     atom    6 type  1   force =     0.00000000    0.00000000    0.00000000
     atom    7 type  2   force =     0.00000000    0.00000000    0.00000000
     atom    8 type  2   force =     0.00000000    0.00000000    0.00000000
     The SCF correction term to forces
     atom    1 type  1   force =     0.00000000   -0.00003458   -0.00001023
     atom    2 type  1   force =    -0.00000000    0.00000439   -0.00005098
     atom    3 type  2   force =     0.00000000   -0.00000643    0.00000831
     atom    4 type  2   force =    -0.00000000   -0.00000608    0.00001517
     atom    5 type  1   force =     0.00000000    0.00003168    0.00001286
     atom    6 type  1   force =    -0.00000000   -0.00000371   -0.00002810
     atom    7 type  2   force =     0.00000000    0.00000806    0.00000795
     atom    8 type  2   force =    -0.00000000    0.00000353    0.00001930

     Total force =     0.147155     Total SCF correction =     0.000082

     General routines

     Parallel routines

   This run was terminated on:  18:33:53  26Aug2025

   JOB DONE.