     Program PWSCF v.7.2 starts on 23Jun2025 at 14:59:56

     Reading input from /home/jvc/QEspresso7.2/ZnO_DataBase/scfs_rnd025.in/scf-6.30-1.45-4.in

     Current dimensions of program PWSCF are:
     Max number of different atomic species (ntypx) = 10
     Max number of k-points (npk) =  40000
     Max angular momentum in pseudopotentials (lmaxx) =  4
     file Zn.upf: wavefunction(s)  3D renormalized

     R & G space division:  proc/nbgrp/npool/nimage =       8
     Subspace diagonalization in iterative solution of the eigenvalue problem:
     a serial algorithm will be used

     Using Slab Decomposition

     bravais-lattice index     =            4
     lattice parameter (alat)  =       6.3024  a.u.
     unit-cell volume          =     314.9855 (a.u.)^3
     number of atoms/cell      =            4
     number of atomic types    =            2
     number of electrons       =        36.00
     number of Kohn-Sham states=           18
     kinetic-energy cutoff     =      50.0000  Ry
     charge density cutoff     =     400.0000  Ry
     scf convergence threshold =      1.0E-08
     mixing beta               =       0.3000
     number of iterations used =            8  plain     mixing
     Exchange-correlation= PBE
                           (   1   4   3   4   0   0   0)

     celldm(1)=   6.302398  celldm(2)=   0.000000  celldm(3)=   1.452923
     celldm(4)=   0.000000  celldm(5)=   0.000000  celldm(6)=   0.000000

     crystal axes: (cart. coord. in units of alat)
               a(1) = (   1.000000   0.000000   0.000000 )
               a(2) = (  -0.500000   0.866025   0.000000 )
               a(3) = (   0.000000   0.000000   1.452923 )

     reciprocal axes: (cart. coord. in units 2 pi/alat)
               b(1) = (  1.000000  0.577350 -0.000000 )
               b(2) = (  0.000000  1.154701  0.000000 )
               b(3) = (  0.000000 -0.000000  0.688268 )

     PseudoPot. # 1 for Zn read from file:
     ./pseudos/Zn.upf
     MD5 check sum: 7f56cabf9682ed8c977c2f7d0c5985c5
     Pseudo is Ultrasoft + core correction, Zval = 12.0
     Generated using &quot;atomic&quot; code by A. Dal Corso  v.6.2.2
     Using radial grid of 1201 points,  6 beta functions with:
                l(1) =   0
                l(2) =   0
                l(3) =   1
                l(4) =   1
                l(5) =   2
                l(6) =   2
     Q(r) pseudized with 0 coefficients

     PseudoPot. # 2 for O  read from file:
     ./pseudos/O.upf
     MD5 check sum: 91400c9766925bcf19f520983a725ff0
     Pseudo is Ultrasoft + core correction, Zval =  6.0
     Generated using &quot;atomic&quot; code by A. Dal Corso  v.6.3MaX
     Using radial grid of 1095 points,  4 beta functions with:
                l(1) =   0
                l(2) =   0
                l(3) =   1
                l(4) =   1
     Q(r) pseudized with 0 coefficients

     atomic species   valence    mass     pseudopotential
        Zn            12.00    63.38000     Zn( 1.00)
        O              6.00    15.99900     O ( 1.00)

     No symmetry found

   Cartesian axes

     site n.     atom                  positions (alat units)
         1           Zn  tau(   1) = (   0.4812139   0.2491990   0.4242573  )
         2           Zn  tau(   2) = (   0.0059717   0.5132736  -0.1829586  )
         3           O   tau(   3) = (   0.4060871   0.3910860   1.1915490  )
         4           O   tau(   4) = (   0.1841034   0.6051965   0.2156015  )

     number of k points=   112

     Number of k-points >= 100: set verbosity='high' to print them.

     Check: negative core charge=   -0.000002

     Initial potential from superposition of free atoms

     starting charge      35.9925, renormalised to      36.0000
     Starting wfcs are   26 randomized atomic wfcs

     Self-consistent Calculation

     iteration #  1     ecut=    50.00 Ry     beta= 0.30
     Davidson diagonalization with overlap
     ethr =  1.00E-02,  avg # of iterations =  2.3

     total energy              =    -360.55098266 Ry
     estimated scf accuracy    <       1.30942116 Ry

[...]

     total energy              =    -360.85469125 Ry
     estimated scf accuracy    <       0.00000001 Ry

     iteration # 23     ecut=    50.00 Ry     beta= 0.30
     Davidson diagonalization with overlap
     ethr =  4.14E-11,  avg # of iterations =  4.7

     End of self-consistent calculation

     Number of k-points >= 100: set verbosity='high' to print the bands.

     highest occupied level (ev):     9.3496

!    total energy              =    -360.85469125 Ry
     estimated scf accuracy    <          6.5E-09 Ry

     The total energy is the sum of the following terms:
     one-electron contribution =    -188.02999440 Ry
     hartree contribution      =     135.01250177 Ry
     xc contribution           =    -110.00989579 Ry
     ewald contribution        =    -197.82730284 Ry

     convergence has been achieved in  23 iterations

     Forces acting on atoms (cartesian axes, Ry/au):

     atom    1 type  1   force =     0.10389909   -0.11604518    0.13714261
     atom    2 type  1   force =    -1.14638507    0.12234841   -0.49389952
     atom    3 type  2   force =     0.97859043   -0.35533141   -0.40238328
     atom    4 type  2   force =     0.06389556    0.34902818    0.75914020
     The non-local contrib.  to forces
     atom    1 type  1   force =     0.26349062   -0.15616552    0.20095577
     atom    2 type  1   force =    -0.98921951    0.12902402   -0.29269782
     atom    3 type  2   force =    -0.16713726    0.06295891   -0.15465238
     atom    4 type  2   force =    -0.40709171   -0.06527089    0.43312406
     The ionic contribution  to forces
     atom    1 type  1   force =     3.31396994   -2.86016067   18.15673840
     atom    2 type  1   force =   -14.97748138    1.41859923  -18.55830644
     atom    3 type  2   force =    10.42799363   -3.97480114  -11.37357767
     atom    4 type  2   force =     1.23551781    5.41636258   11.77514571
     The local contribution  to forces
     atom    1 type  1   force =    -3.44597445    2.88083700  -18.18567867
     atom    2 type  1   force =    14.66592247   -1.40461035   18.28707254
     atom    3 type  2   force =    -9.27872209    3.55535768   11.12220878
     atom    4 type  2   force =    -0.76790960   -5.00057964  -11.44113373
     The core correction contribution to forces
     atom    1 type  1   force =    -0.02762773    0.01946340   -0.03503959
     atom    2 type  1   force =     0.15445727   -0.02062773    0.07023226
     atom    3 type  2   force =    -0.00358728    0.00116639    0.00371104
     atom    4 type  2   force =     0.00336991   -0.00150135   -0.00808359
     The Hubbard contrib.    to forces
     atom    1 type  1   force =     0.00000000    0.00000000    0.00000000
     atom    2 type  1   force =     0.00000000    0.00000000    0.00000000
     atom    3 type  2   force =     0.00000000    0.00000000    0.00000000
     atom    4 type  2   force =     0.00000000    0.00000000    0.00000000
     The SCF correction term to forces
     atom    1 type  1   force =     0.00004036   -0.00002943    0.00015618
     atom    2 type  1   force =    -0.00006427   -0.00004681   -0.00021057
     atom    3 type  2   force =     0.00004309   -0.00002330   -0.00008356
     atom    4 type  2   force =     0.00000880    0.00000743    0.00007723

     Total force =     1.887904     Total SCF correction =     0.000305

     Writing all to output data dir ./ZnO_ANN.save/

     General routines

     Parallel routines

   This run was terminated on:  15: 3: 7  23Jun2025

   JOB DONE.
Note: The following floating-point exceptions are signalling: IEEE_INVALID_FLAG