     Program PWSCF v.7.2 starts on 23Jun2025 at 15:57:41

     Reading input from /home/jvc/QEspresso7.2/ZnO_DataBase/scfs_rnd025.in/scf-6.43-1.58-4.in

     Current dimensions of program PWSCF are:
     Max number of different atomic species (ntypx) = 10
     Max number of k-points (npk) =  40000
     Max angular momentum in pseudopotentials (lmaxx) =  4
     file Zn.upf: wavefunction(s)  3D renormalized

     R & G space division:  proc/nbgrp/npool/nimage =       8
     Subspace diagonalization in iterative solution of the eigenvalue problem:
     a serial algorithm will be used

     Using Slab Decomposition

     bravais-lattice index     =            4
     lattice parameter (alat)  =       6.4260  a.u.
     unit-cell volume          =     363.5579 (a.u.)^3
     number of atoms/cell      =            4
     number of atomic types    =            2
     number of electrons       =        36.00
     number of Kohn-Sham states=           18
     kinetic-energy cutoff     =      50.0000  Ry
     charge density cutoff     =     400.0000  Ry
     scf convergence threshold =      1.0E-08
     mixing beta               =       0.3000
     number of iterations used =            8  plain     mixing
     Exchange-correlation= PBE
                           (   1   4   3   4   0   0   0)

     celldm(1)=   6.425974  celldm(2)=   0.000000  celldm(3)=   1.582071
     celldm(4)=   0.000000  celldm(5)=   0.000000  celldm(6)=   0.000000

     crystal axes: (cart. coord. in units of alat)
               a(1) = (   1.000000   0.000000   0.000000 )
               a(2) = (  -0.500000   0.866025   0.000000 )
               a(3) = (   0.000000   0.000000   1.582071 )

     reciprocal axes: (cart. coord. in units 2 pi/alat)
               b(1) = (  1.000000  0.577350 -0.000000 )
               b(2) = (  0.000000  1.154701  0.000000 )
               b(3) = (  0.000000 -0.000000  0.632083 )

     PseudoPot. # 1 for Zn read from file:
     ./pseudos/Zn.upf
     MD5 check sum: 7f56cabf9682ed8c977c2f7d0c5985c5
     Pseudo is Ultrasoft + core correction, Zval = 12.0
     Generated using &quot;atomic&quot; code by A. Dal Corso  v.6.2.2
     Using radial grid of 1201 points,  6 beta functions with:
                l(1) =   0
                l(2) =   0
                l(3) =   1
                l(4) =   1
                l(5) =   2
                l(6) =   2
     Q(r) pseudized with 0 coefficients

     PseudoPot. # 2 for O  read from file:
     ./pseudos/O.upf
     MD5 check sum: 91400c9766925bcf19f520983a725ff0
     Pseudo is Ultrasoft + core correction, Zval =  6.0
     Generated using &quot;atomic&quot; code by A. Dal Corso  v.6.3MaX
     Using radial grid of 1095 points,  4 beta functions with:
                l(1) =   0
                l(2) =   0
                l(3) =   1
                l(4) =   1
     Q(r) pseudized with 0 coefficients

     atomic species   valence    mass     pseudopotential
        Zn            12.00    63.38000     Zn( 1.00)
        O              6.00    15.99900     O ( 1.00)

     No symmetry found

   Cartesian axes

     site n.     atom                  positions (alat units)
         1           Zn  tau(   1) = (   0.6729100   0.4015505   0.6046704  )
         2           Zn  tau(   2) = (   0.1380498   0.4944752  -0.0890237  )
         3           O   tau(   3) = (   0.6335629   0.3180372   1.6203730  )
         4           O   tau(   4) = (   0.0403430   0.7929767   0.9944400  )

     number of k points=   112

     Number of k-points >= 100: set verbosity='high' to print them.

     Check: negative core charge=   -0.000002

     Initial potential from superposition of free atoms

     starting charge      35.9925, renormalised to      36.0000
     Starting wfcs are   26 randomized atomic wfcs

     Self-consistent Calculation

     iteration #  1     ecut=    50.00 Ry     beta= 0.30
     Davidson diagonalization with overlap
     ethr =  1.00E-02,  avg # of iterations =  2.0

     total energy              =    -361.25591115 Ry
     estimated scf accuracy    <       0.94362974 Ry

[...]

     iteration #  5     ecut=    50.00 Ry     beta= 0.30
     Davidson diagonalization with overlap
     c_bands:  2 eigenvalues not converged
     ethr =  2.54E-05,  avg # of iterations =  9.5

[...]

     iteration # 25     ecut=    50.00 Ry     beta= 0.30
     Davidson diagonalization with overlap
     c_bands:  2 eigenvalues not converged
     ethr =  5.02E-11,  avg # of iterations =  7.5

     total energy              =    -361.49465706 Ry
     estimated scf accuracy    <       0.00000002 Ry

     iteration # 26     ecut=    50.00 Ry     beta= 0.30
     Davidson diagonalization with overlap
     ethr =  4.24E-11,  avg # of iterations =  2.7

     End of self-consistent calculation

     Number of k-points >= 100: set verbosity='high' to print the bands.

     highest occupied level (ev):     5.9511

!    total energy              =    -361.49465706 Ry
     estimated scf accuracy    <          5.2E-09 Ry

     The total energy is the sum of the following terms:
     one-electron contribution =    -167.43414008 Ry
     hartree contribution      =     122.83248543 Ry
     xc contribution           =    -109.27570575 Ry
     ewald contribution        =    -207.61729666 Ry

     convergence has been achieved in  26 iterations

     Forces acting on atoms (cartesian axes, Ry/au):

     atom    1 type  1   force =     0.00921048   -0.00395606    0.10177539
     atom    2 type  1   force =    -0.00474193    0.04709726   -0.07845943
     atom    3 type  2   force =     0.01058946   -0.01852858    0.08669445
     atom    4 type  2   force =    -0.01505801   -0.02461262   -0.11001041
     The non-local contrib.  to forces
     atom    1 type  1   force =    -0.06109626    0.15277765   -0.02990499
     atom    2 type  1   force =     0.01764843    0.01631597    0.21585091
     atom    3 type  2   force =     0.00831746    0.53892434    0.62723525
     atom    4 type  2   force =     0.02892576   -0.28491858   -0.38910389
     The ionic contribution  to forces
     atom    1 type  1   force =    -0.25042443    1.41750662    5.42205157
     atom    2 type  1   force =     0.63245128    0.30136876   -2.28021593
     atom    3 type  2   force =    -0.04167570   -2.66758212   -0.90772519
     atom    4 type  2   force =    -0.34035115    0.94870674   -2.23411045
     The local contribution  to forces
     atom    1 type  1   force =     0.31815509   -1.56329003   -5.27902683
     atom    2 type  1   force =    -0.65425162   -0.26274469    1.98779089
     atom    3 type  2   force =     0.04406279    2.11498657    0.37328726
     atom    4 type  2   force =     0.29660548   -0.69118777    2.50882438
     The core correction contribution to forces
     atom    1 type  1   force =     0.00257296   -0.01095799   -0.01128152
     atom    2 type  1   force =    -0.00059177   -0.00784001   -0.00197583
     atom    3 type  2   force =    -0.00010380   -0.00485409   -0.00616126
     atom    4 type  2   force =    -0.00020704    0.00279377    0.00443648
     The Hubbard contrib.    to forces
     atom    1 type  1   force =     0.00000000    0.00000000    0.00000000
     atom    2 type  1   force =     0.00000000    0.00000000    0.00000000
     atom    3 type  2   force =     0.00000000    0.00000000    0.00000000
     atom    4 type  2   force =     0.00000000    0.00000000    0.00000000
     The SCF correction term to forces
     atom    1 type  1   force =     0.00000481    0.00001024   -0.00005819
     atom    2 type  1   force =     0.00000343   -0.00000022    0.00009517
     atom    3 type  2   force =    -0.00000959   -0.00000073    0.00006304
     atom    4 type  2   force =    -0.00002936   -0.00000423   -0.00005229

     Total force =     0.199403     Total SCF correction =     0.000142

     Writing all to output data dir ./ZnO_ANN.save/

     General routines

     Parallel routines

   This run was terminated on:  16: 1: 7  23Jun2025

   JOB DONE.
Note: The following floating-point exceptions are signalling: IEEE_INVALID_FLAG