     Program PWSCF v.7.2 starts on 23Jun2025 at 15: 2: 4

     Reading input from /home/jvc/QEspresso7.2/ZnO_DataBase/scfs_rnd025.in/scf-6.30-1.49-2.in

     Current dimensions of program PWSCF are:
     Max number of different atomic species (ntypx) = 10
     Max number of k-points (npk) =  40000
     Max angular momentum in pseudopotentials (lmaxx) =  4
     file Zn.upf: wavefunction(s)  3D renormalized

     R & G space division:  proc/nbgrp/npool/nimage =       8
     Subspace diagonalization in iterative solution of the eigenvalue problem:
     a serial algorithm will be used

     Using Slab Decomposition

     bravais-lattice index     =            4
     lattice parameter (alat)  =       6.3024  a.u.
     unit-cell volume          =     321.9852 (a.u.)^3
     number of atoms/cell      =            4
     number of atomic types    =            2
     number of electrons       =        36.00
     number of Kohn-Sham states=           18
     kinetic-energy cutoff     =      50.0000  Ry
     charge density cutoff     =     400.0000  Ry
     scf convergence threshold =      1.0E-08
     mixing beta               =       0.3000
     number of iterations used =            8  plain     mixing
     Exchange-correlation= PBE
                           (   1   4   3   4   0   0   0)

     celldm(1)=   6.302398  celldm(2)=   0.000000  celldm(3)=   1.485210
     celldm(4)=   0.000000  celldm(5)=   0.000000  celldm(6)=   0.000000

     crystal axes: (cart. coord. in units of alat)
               a(1) = (   1.000000   0.000000   0.000000 )
               a(2) = (  -0.500000   0.866025   0.000000 )
               a(3) = (   0.000000   0.000000   1.485210 )

     reciprocal axes: (cart. coord. in units 2 pi/alat)
               b(1) = (  1.000000  0.577350 -0.000000 )
               b(2) = (  0.000000  1.154701  0.000000 )
               b(3) = (  0.000000 -0.000000  0.673306 )

     PseudoPot. # 1 for Zn read from file:
     ./pseudos/Zn.upf
     MD5 check sum: 7f56cabf9682ed8c977c2f7d0c5985c5
     Pseudo is Ultrasoft + core correction, Zval = 12.0
     Generated using &quot;atomic&quot; code by A. Dal Corso  v.6.2.2
     Using radial grid of 1201 points,  6 beta functions with:
                l(1) =   0
                l(2) =   0
                l(3) =   1
                l(4) =   1
                l(5) =   2
                l(6) =   2
     Q(r) pseudized with 0 coefficients

     PseudoPot. # 2 for O  read from file:
     ./pseudos/O.upf
     MD5 check sum: 91400c9766925bcf19f520983a725ff0
     Pseudo is Ultrasoft + core correction, Zval =  6.0
     Generated using &quot;atomic&quot; code by A. Dal Corso  v.6.3MaX
     Using radial grid of 1095 points,  4 beta functions with:
                l(1) =   0
                l(2) =   0
                l(3) =   1
                l(4) =   1
     Q(r) pseudized with 0 coefficients

     atomic species   valence    mass     pseudopotential
        Zn            12.00    63.38000     Zn( 1.00)
        O              6.00    15.99900     O ( 1.00)

     No symmetry found

   Cartesian axes

     site n.     atom                  positions (alat units)
         1           Zn  tau(   1) = (   0.6460312   0.2898495   0.3925171  )
         2           Zn  tau(   2) = (  -0.1734665   0.6914418  -0.1129339  )
         3           O   tau(   3) = (   0.3491858   0.3368891   1.3127152  )
         4           O   tau(   4) = (  -0.0610305   0.6416880   0.3143428  )

     number of k points=   112

     Number of k-points >= 100: set verbosity='high' to print them.

     Check: negative core charge=   -0.000002

     Initial potential from superposition of free atoms

     starting charge      35.9925, renormalised to      36.0000
     Starting wfcs are   26 randomized atomic wfcs

     Self-consistent Calculation

     iteration #  1     ecut=    50.00 Ry     beta= 0.30
     Davidson diagonalization with overlap
     ethr =  1.00E-02,  avg # of iterations =  2.0

     total energy              =    -360.83890749 Ry
     estimated scf accuracy    <       1.10411330 Ry

[...]

     total energy              =    -361.07289949 Ry
     estimated scf accuracy    <       0.00000006 Ry

     iteration # 21     ecut=    50.00 Ry     beta= 0.30
     Davidson diagonalization with overlap
     ethr =  1.78E-10,  avg # of iterations =  4.7

     End of self-consistent calculation

     Number of k-points >= 100: set verbosity='high' to print the bands.

     highest occupied level (ev):     7.9247

!    total energy              =    -361.07289951 Ry
     estimated scf accuracy    <          6.2E-09 Ry

     The total energy is the sum of the following terms:
     one-electron contribution =    -217.60709353 Ry
     hartree contribution      =     149.54018493 Ry
     xc contribution           =    -110.09711377 Ry
     ewald contribution        =    -182.90887714 Ry

     convergence has been achieved in  21 iterations

     Forces acting on atoms (cartesian axes, Ry/au):

     atom    1 type  1   force =    -0.26797001   -0.33293066    0.18166369
     atom    2 type  1   force =    -0.16281369   -0.04052186   -0.80118442
     atom    3 type  2   force =     0.02331037    0.15082381   -0.11379202
     atom    4 type  2   force =     0.40747332    0.22262871    0.73331275
     The non-local contrib.  to forces
     atom    1 type  1   force =    -0.32449776   -0.35695718    0.17941419
     atom    2 type  1   force =    -0.20218534   -0.35920526   -0.59655523
     atom    3 type  2   force =     0.34888282   -0.33530718    0.05540009
     atom    4 type  2   force =    -0.57525921    0.01578830    0.07655258
     The ionic contribution  to forces
     atom    1 type  1   force =    -3.24160084   -5.35334311   25.47725363
     atom    2 type  1   force =    -2.32751200   -0.28341652  -28.86525426
     atom    3 type  2   force =    -1.68423662    3.57545708  -13.09539691
     atom    4 type  2   force =     7.25334945    2.06130255   16.48339754
     The local contribution  to forces
     atom    1 type  1   force =     3.25297252    5.32932212  -25.43414724
     atom    2 type  1   force =     2.34305106    0.57806773   28.54411439
     atom    3 type  2   force =     1.36192519   -3.09137202   12.92514635
     atom    4 type  2   force =    -6.27319128   -1.85316856  -15.82175813
     The core correction contribution to forces
     atom    1 type  1   force =     0.04513323    0.04803154   -0.04095113
     atom    2 type  1   force =     0.02384257    0.02407502    0.11655475
     atom    3 type  2   force =    -0.00326093    0.00205823    0.00108935
     atom    4 type  2   force =     0.00260590   -0.00129471   -0.00492313
     The Hubbard contrib.    to forces
     atom    1 type  1   force =     0.00000000    0.00000000    0.00000000
     atom    2 type  1   force =     0.00000000    0.00000000    0.00000000
     atom    3 type  2   force =     0.00000000    0.00000000    0.00000000
     atom    4 type  2   force =     0.00000000    0.00000000    0.00000000
     The SCF correction term to forces
     atom    1 type  1   force =     0.00002505    0.00001351    0.00009683
     atom    2 type  1   force =    -0.00000778   -0.00004529   -0.00004148
     atom    3 type  2   force =     0.00000211   -0.00001476   -0.00002831
     atom    4 type  2   force =    -0.00002933   -0.00000134    0.00004647

     Total force =     1.294328     Total SCF correction =     0.000134

     Writing all to output data dir ./ZnO_ANN.save/

     General routines

     Parallel routines

   This run was terminated on:  15: 4:55  23Jun2025

   JOB DONE.
Note: The following floating-point exceptions are signalling: IEEE_INVALID_FLAG