     Program PWSCF v.7.2 starts on 23Jun2025 at 16:56: 6

     Reading input from /home/jvc/QEspresso7.2/ZnO_DataBase/scfs_rnd025.in/scf-6.55-1.61-5.in

     Current dimensions of program PWSCF are:
     Max number of different atomic species (ntypx) = 10
     Max number of k-points (npk) =  40000
     Max angular momentum in pseudopotentials (lmaxx) =  4
     file Zn.upf: wavefunction(s)  3D renormalized

     R & G space division:  proc/nbgrp/npool/nimage =       8
     Subspace diagonalization in iterative solution of the eigenvalue problem:
     a serial algorithm will be used

     Using Slab Decomposition

     bravais-lattice index     =            4
     lattice parameter (alat)  =       6.5496  a.u.
     unit-cell volume          =     392.7942 (a.u.)^3
     number of atoms/cell      =            4
     number of atomic types    =            2
     number of electrons       =        36.00
     number of Kohn-Sham states=           18
     kinetic-energy cutoff     =      50.0000  Ry
     charge density cutoff     =     400.0000  Ry
     scf convergence threshold =      1.0E-08
     mixing beta               =       0.3000
     number of iterations used =            8  plain     mixing
     Exchange-correlation= PBE
                           (   1   4   3   4   0   0   0)

     celldm(1)=   6.549551  celldm(2)=   0.000000  celldm(3)=   1.614358
     celldm(4)=   0.000000  celldm(5)=   0.000000  celldm(6)=   0.000000

     crystal axes: (cart. coord. in units of alat)
               a(1) = (   1.000000   0.000000   0.000000 )
               a(2) = (  -0.500000   0.866025   0.000000 )
               a(3) = (   0.000000   0.000000   1.614358 )

     reciprocal axes: (cart. coord. in units 2 pi/alat)
               b(1) = (  1.000000  0.577350 -0.000000 )
               b(2) = (  0.000000  1.154701  0.000000 )
               b(3) = (  0.000000 -0.000000  0.619441 )

     PseudoPot. # 1 for Zn read from file:
     ./pseudos/Zn.upf
     MD5 check sum: 7f56cabf9682ed8c977c2f7d0c5985c5
     Pseudo is Ultrasoft + core correction, Zval = 12.0
     Generated using &quot;atomic&quot; code by A. Dal Corso  v.6.2.2
     Using radial grid of 1201 points,  6 beta functions with:
                l(1) =   0
                l(2) =   0
                l(3) =   1
                l(4) =   1
                l(5) =   2
                l(6) =   2
     Q(r) pseudized with 0 coefficients

     PseudoPot. # 2 for O  read from file:
     ./pseudos/O.upf
     MD5 check sum: 91400c9766925bcf19f520983a725ff0
     Pseudo is Ultrasoft + core correction, Zval =  6.0
     Generated using &quot;atomic&quot; code by A. Dal Corso  v.6.3MaX
     Using radial grid of 1095 points,  4 beta functions with:
                l(1) =   0
                l(2) =   0
                l(3) =   1
                l(4) =   1
     Q(r) pseudized with 0 coefficients

     atomic species   valence    mass     pseudopotential
        Zn            12.00    63.38000     Zn( 1.00)
        O              6.00    15.99900     O ( 1.00)

     No symmetry found

   Cartesian axes

     site n.     atom                  positions (alat units)
         1           Zn  tau(   1) = (   0.6218851   0.3367813   0.7228932  )
         2           Zn  tau(   2) = (  -0.2487923   0.7500383   0.0876152  )
         3           O   tau(   3) = (   0.6982939   0.2698605   1.5029772  )
         4           O   tau(   4) = (   0.0104111   0.6181893   1.0147852  )

     number of k points=   112

     Number of k-points >= 100: set verbosity='high' to print them.

     Check: negative core charge=   -0.000002

     Initial potential from superposition of free atoms

     starting charge      35.9925, renormalised to      36.0000
     Starting wfcs are   26 randomized atomic wfcs

     Self-consistent Calculation

     iteration #  1     ecut=    50.00 Ry     beta= 0.30
     Davidson diagonalization with overlap
     ethr =  1.00E-02,  avg # of iterations =  1.4

     total energy              =    -360.94657286 Ry
     estimated scf accuracy    <       1.24399930 Ry

[...]

     iteration # 10     ecut=    50.00 Ry     beta= 0.30
     Davidson diagonalization with overlap
     c_bands:  1 eigenvalues not converged
     ethr =  1.85E-05,  avg # of iterations =  5.8

[...]

     iteration # 38     ecut=    50.00 Ry     beta= 0.30
     Davidson diagonalization with overlap
     c_bands:  1 eigenvalues not converged
     ethr =  5.29E-10,  avg # of iterations =  9.7

[...]

     total energy              =    -361.33619346 Ry
     estimated scf accuracy    <       0.00000005 Ry

     iteration # 46     ecut=    50.00 Ry     beta= 0.30
     Davidson diagonalization with overlap
     ethr =  1.29E-10,  avg # of iterations =  5.4

     End of self-consistent calculation

     Number of k-points >= 100: set verbosity='high' to print the bands.

     highest occupied level (ev):     4.9866

!    total energy              =    -361.33619347 Ry
     estimated scf accuracy    <          5.0E-09 Ry

     The total energy is the sum of the following terms:
     one-electron contribution =    -168.94531526 Ry
     hartree contribution      =     122.19974499 Ry
     xc contribution           =    -108.94300451 Ry
     ewald contribution        =    -205.64761869 Ry

     convergence has been achieved in  46 iterations

     Forces acting on atoms (cartesian axes, Ry/au):

     atom    1 type  1   force =    -0.01638048   -0.02495418    0.08729384
     atom    2 type  1   force =     0.02010926    0.08439734   -0.06121666
     atom    3 type  2   force =    -0.02248069   -0.08151873    0.10584272
     atom    4 type  2   force =     0.01875191    0.02207556   -0.13191990
     The non-local contrib.  to forces
     atom    1 type  1   force =    -0.32289512   -0.15448493   -0.48403689
     atom    2 type  1   force =    -0.07007211    0.46545584    0.43172532
     atom    3 type  2   force =    -0.11414449    0.32424801    0.98463993
     atom    4 type  2   force =    -0.28782133   -0.07118953   -0.93069794
     The ionic contribution  to forces
     atom    1 type  1   force =    -2.46077789   -1.62841796   -1.12589908
     atom    2 type  1   force =    -0.81170571    4.48260709    2.52059002
     atom    3 type  2   force =     0.25525054   -3.69167772   -3.29202197
     atom    4 type  2   force =     3.01723305    0.83748859    1.89733103
     The local contribution  to forces
     atom    1 type  1   force =     2.74770242    1.74853229    1.67354709
     atom    2 type  1   force =     0.89764093   -4.82976991   -2.98757320
     atom    3 type  2   force =    -0.16479612    3.28808346    2.42270023
     atom    4 type  2   force =    -2.71294972   -0.74463955   -1.10777043
     The core correction contribution to forces
     atom    1 type  1   force =     0.01959980    0.00942778    0.02384524
     atom    2 type  1   force =     0.00425289   -0.03391968   -0.02610293
     atom    3 type  2   force =     0.00121355   -0.00216342   -0.00957852
     atom    4 type  2   force =     0.00228397    0.00042412    0.00930747
     The Hubbard contrib.    to forces
     atom    1 type  1   force =     0.00000000    0.00000000    0.00000000
     atom    2 type  1   force =     0.00000000    0.00000000    0.00000000
     atom    3 type  2   force =     0.00000000    0.00000000    0.00000000
     atom    4 type  2   force =     0.00000000    0.00000000    0.00000000
     The SCF correction term to forces
     atom    1 type  1   force =    -0.00001135   -0.00000832   -0.00016285
     atom    2 type  1   force =    -0.00000841    0.00002705    0.00014380
     atom    3 type  2   force =    -0.00000584   -0.00000600    0.00010271
     atom    4 type  2   force =     0.00000428   -0.00000502   -0.00009036

     Total force =     0.237447     Total SCF correction =     0.000259

     Writing all to output data dir ./ZnO_ANN.save/

     General routines

     Parallel routines

   This run was terminated on:  17: 1:47  23Jun2025

   JOB DONE.
Note: The following floating-point exceptions are signalling: IEEE_INVALID_FLAG