     Program PWSCF v.7.2 starts on 23Jun2025 at 13:58:50

     Reading input from /home/jvc/QEspresso7.2/ZnO_DataBase/scfs_rnd025.in/scf-6.06-1.65-4.in

     Current dimensions of program PWSCF are:
     Max number of different atomic species (ntypx) = 10
     Max number of k-points (npk) =  40000
     Max angular momentum in pseudopotentials (lmaxx) =  4
     file Zn.upf: wavefunction(s)  3D renormalized

     R & G space division:  proc/nbgrp/npool/nimage =       8
     Subspace diagonalization in iterative solution of the eigenvalue problem:
     a serial algorithm will be used

     Using Slab Decomposition

     bravais-lattice index     =            4
     lattice parameter (alat)  =       6.0552  a.u.
     unit-cell volume          =     316.6109 (a.u.)^3
     number of atoms/cell      =            4
     number of atomic types    =            2
     number of electrons       =        36.00
     number of Kohn-Sham states=           18
     kinetic-energy cutoff     =      50.0000  Ry
     charge density cutoff     =     400.0000  Ry
     scf convergence threshold =      1.0E-08
     mixing beta               =       0.3000
     number of iterations used =            8  plain     mixing
     Exchange-correlation= PBE
                           (   1   4   3   4   0   0   0)

     celldm(1)=   6.055245  celldm(2)=   0.000000  celldm(3)=   1.646646
     celldm(4)=   0.000000  celldm(5)=   0.000000  celldm(6)=   0.000000

     crystal axes: (cart. coord. in units of alat)
               a(1) = (   1.000000   0.000000   0.000000 )
               a(2) = (  -0.500000   0.866025   0.000000 )
               a(3) = (   0.000000   0.000000   1.646646 )

     reciprocal axes: (cart. coord. in units 2 pi/alat)
               b(1) = (  1.000000  0.577350 -0.000000 )
               b(2) = (  0.000000  1.154701  0.000000 )
               b(3) = (  0.000000 -0.000000  0.607295 )

     PseudoPot. # 1 for Zn read from file:
     ./pseudos/Zn.upf
     MD5 check sum: 7f56cabf9682ed8c977c2f7d0c5985c5
     Pseudo is Ultrasoft + core correction, Zval = 12.0
     Generated using &quot;atomic&quot; code by A. Dal Corso  v.6.2.2
     Using radial grid of 1201 points,  6 beta functions with:
                l(1) =   0
                l(2) =   0
                l(3) =   1
                l(4) =   1
                l(5) =   2
                l(6) =   2
     Q(r) pseudized with 0 coefficients

     PseudoPot. # 2 for O  read from file:
     ./pseudos/O.upf
     MD5 check sum: 91400c9766925bcf19f520983a725ff0
     Pseudo is Ultrasoft + core correction, Zval =  6.0
     Generated using &quot;atomic&quot; code by A. Dal Corso  v.6.3MaX
     Using radial grid of 1095 points,  4 beta functions with:
                l(1) =   0
                l(2) =   0
                l(3) =   1
                l(4) =   1
     Q(r) pseudized with 0 coefficients

     atomic species   valence    mass     pseudopotential
        Zn            12.00    63.38000     Zn( 1.00)
        O              6.00    15.99900     O ( 1.00)

     No symmetry found

   Cartesian axes

     site n.     atom                  positions (alat units)
         1           Zn  tau(   1) = (   0.5080181   0.2917634   1.2112283  )
         2           Zn  tau(   2) = (   0.0593500   0.5346147   0.2278222  )
         3           O   tau(   3) = (   0.3398786   0.2003489   1.3111460  )
         4           O   tau(   4) = (   0.0292690   0.5890505   0.5480271  )

     number of k points=   112

     Number of k-points >= 100: set verbosity='high' to print them.

     Check: negative core charge=   -0.000002

     Initial potential from superposition of free atoms

     starting charge      35.9925, renormalised to      36.0000
     Starting wfcs are   26 randomized atomic wfcs

     Self-consistent Calculation

     iteration #  1     ecut=    50.00 Ry     beta= 0.30
     Davidson diagonalization with overlap
     ethr =  1.00E-02,  avg # of iterations =  5.6

     total energy              =    -345.87651612 Ry
     estimated scf accuracy    <       1.58345621 Ry

[...]

     total energy              =    -346.02403509 Ry
     estimated scf accuracy    <       0.00000004 Ry

     iteration # 29     ecut=    50.00 Ry     beta= 0.30
     Davidson diagonalization with overlap
     ethr =  1.20E-10,  avg # of iterations =  6.1

     End of self-consistent calculation

     Number of k-points >= 100: set verbosity='high' to print the bands.

     highest occupied level (ev):     8.8021

!    total energy              =    -346.02403510 Ry
     estimated scf accuracy    <          2.9E-10 Ry

     The total energy is the sum of the following terms:
     one-electron contribution =    -240.32303377 Ry
     hartree contribution      =     155.34307311 Ry
     xc contribution           =    -112.62092584 Ry
     ewald contribution        =    -148.42314861 Ry

     convergence has been achieved in  29 iterations

     Forces acting on atoms (cartesian axes, Ry/au):

     atom    1 type  1   force =    26.04392650   14.15867047  -15.52807149
     atom    2 type  1   force =     0.56791866   -1.02173243   -5.83979487
     atom    3 type  2   force =   -26.04005470  -14.14558902   15.45697200
     atom    4 type  2   force =    -0.57179046    1.00865098    5.91089436
     The non-local contrib.  to forces
     atom    1 type  1   force =   -11.10464765   -5.97002151    6.82056242
     atom    2 type  1   force =     0.01565372    0.02835989   -0.09084075
     atom    3 type  2   force =     3.06286220    1.85050050   -1.66495390
     atom    4 type  2   force =     0.06852223   -0.21626290   -1.19257923
     The ionic contribution  to forces
     atom    1 type  1   force =    62.38833666   33.49586008  -45.06438302
     atom    2 type  1   force =     2.04122307   -4.57148852  -19.76577216
     atom    3 type  2   force =   -61.43331407  -34.15800237   32.85563513
     atom    4 type  2   force =    -2.99624566    5.23363081   31.97452006
     The local contribution  to forces
     atom    1 type  1   force =   -24.36839190  -12.89283713   22.19458690
     atom    2 type  1   force =    -1.45579492    3.45735857   13.61901402
     atom    3 type  2   force =    32.27799732   18.13469014  -15.70228220
     atom    4 type  2   force =     2.35455761   -4.00709965  -24.86068872
     The core correction contribution to forces
     atom    1 type  1   force =    -0.87138542   -0.47433897    0.52124011
     atom    2 type  1   force =    -0.03316384    0.06405382    0.39782948
     atom    3 type  2   force =     0.05240993    0.02722821   -0.03138538
     atom    4 type  2   force =     0.00138215   -0.00161288   -0.01035886
     The Hubbard contrib.    to forces
     atom    1 type  1   force =     0.00000000    0.00000000    0.00000000
     atom    2 type  1   force =     0.00000000    0.00000000    0.00000000
     atom    3 type  2   force =     0.00000000    0.00000000    0.00000000
     atom    4 type  2   force =     0.00000000    0.00000000    0.00000000
     The SCF correction term to forces
     atom    1 type  1   force =     0.00002255    0.00001147   -0.00005879
     atom    2 type  1   force =     0.00000838   -0.00001271   -0.00000634
     atom    3 type  2   force =    -0.00000233   -0.00000203   -0.00002254
     atom    4 type  2   force =     0.00000095   -0.00000093    0.00002022

     Total force =    48.049223     Total SCF correction =     0.000073

     Writing all to output data dir ./ZnO_ANN.save/

     General routines

     Parallel routines

   This run was terminated on:  14: 2:18  23Jun2025

   JOB DONE.
Note: The following floating-point exceptions are signalling: IEEE_INVALID_FLAG