     Program PWSCF v.7.2 starts on 23Jun2025 at 12:24: 7

     Reading input from /home/jvc/QEspresso7.2/ZnO_DataBase/scfs_rnd025.in/scf-5.68-1.68-3.in

     Current dimensions of program PWSCF are:
     Max number of different atomic species (ntypx) = 10
     Max number of k-points (npk) =  40000
     Max angular momentum in pseudopotentials (lmaxx) =  4
     file Zn.upf: wavefunction(s)  3D renormalized

     R & G space division:  proc/nbgrp/npool/nimage =       8
     Subspace diagonalization in iterative solution of the eigenvalue problem:
     a serial algorithm will be used

     Using Slab Decomposition

     bravais-lattice index     =            4
     lattice parameter (alat)  =       5.6845  a.u.
     unit-cell volume          =     267.0818 (a.u.)^3
     number of atoms/cell      =            4
     number of atomic types    =            2
     number of electrons       =        36.00
     number of Kohn-Sham states=           18
     kinetic-energy cutoff     =      50.0000  Ry
     charge density cutoff     =     400.0000  Ry
     scf convergence threshold =      1.0E-08
     mixing beta               =       0.3000
     number of iterations used =            8  plain     mixing
     Exchange-correlation= PBE
                           (   1   4   3   4   0   0   0)

     celldm(1)=   5.684516  celldm(2)=   0.000000  celldm(3)=   1.678933
     celldm(4)=   0.000000  celldm(5)=   0.000000  celldm(6)=   0.000000

     crystal axes: (cart. coord. in units of alat)
               a(1) = (   1.000000   0.000000   0.000000 )
               a(2) = (  -0.500000   0.866025   0.000000 )
               a(3) = (   0.000000   0.000000   1.678933 )

     reciprocal axes: (cart. coord. in units 2 pi/alat)
               b(1) = (  1.000000  0.577350 -0.000000 )
               b(2) = (  0.000000  1.154701  0.000000 )
               b(3) = (  0.000000 -0.000000  0.595616 )

     PseudoPot. # 1 for Zn read from file:
     ./pseudos/Zn.upf
     MD5 check sum: 7f56cabf9682ed8c977c2f7d0c5985c5
     Pseudo is Ultrasoft + core correction, Zval = 12.0
     Generated using &quot;atomic&quot; code by A. Dal Corso  v.6.2.2
     Using radial grid of 1201 points,  6 beta functions with:
                l(1) =   0
                l(2) =   0
                l(3) =   1
                l(4) =   1
                l(5) =   2
                l(6) =   2
     Q(r) pseudized with 0 coefficients

     PseudoPot. # 2 for O  read from file:
     ./pseudos/O.upf
     MD5 check sum: 91400c9766925bcf19f520983a725ff0
     Pseudo is Ultrasoft + core correction, Zval =  6.0
     Generated using &quot;atomic&quot; code by A. Dal Corso  v.6.3MaX
     Using radial grid of 1095 points,  4 beta functions with:
                l(1) =   0
                l(2) =   0
                l(3) =   1
                l(4) =   1
     Q(r) pseudized with 0 coefficients

     atomic species   valence    mass     pseudopotential
        Zn            12.00    63.38000     Zn( 1.00)
        O              6.00    15.99900     O ( 1.00)

     No symmetry found

   Cartesian axes

     site n.     atom                  positions (alat units)
         1           Zn  tau(   1) = (   0.3484954   0.2002049   0.5673807  )
         2           Zn  tau(   2) = (   0.1850436   0.4622815   0.2234648  )
         3           O   tau(   3) = (   0.5489328   0.4625908   1.8885997  )
         4           O   tau(   4) = (   0.1120437   0.7897007   0.6358674  )

     number of k points=   112

     Number of k-points >= 100: set verbosity='high' to print them.

     Check: negative core charge=   -0.000002

     Initial potential from superposition of free atoms

     starting charge      35.9925, renormalised to      36.0000
     Starting wfcs are   26 randomized atomic wfcs

     Self-consistent Calculation

     iteration #  1     ecut=    50.00 Ry     beta= 0.30
     Davidson diagonalization with overlap
     ethr =  1.00E-02,  avg # of iterations =  3.0

     total energy              =    -356.28377935 Ry
     estimated scf accuracy    <       1.95299999 Ry

[...]

     total energy              =    -356.57338320 Ry
     estimated scf accuracy    <       0.00000020 Ry

     iteration # 22     ecut=    50.00 Ry     beta= 0.30
     Davidson diagonalization with overlap
     ethr =  1.05E-10,  avg # of iterations =  6.2

     End of self-consistent calculation

     Number of k-points >= 100: set verbosity='high' to print the bands.

     highest occupied level (ev):    12.0184

!    total energy              =    -356.57338325 Ry
     estimated scf accuracy    <          8.2E-09 Ry

     The total energy is the sum of the following terms:
     one-electron contribution =    -366.78674305 Ry
     hartree contribution      =     224.87022313 Ry
     xc contribution           =    -112.60484302 Ry
     ewald contribution        =    -102.05202031 Ry

     convergence has been achieved in  22 iterations

     Forces acting on atoms (cartesian axes, Ry/au):

     atom    1 type  1   force =    -1.68817905    0.41417407    2.28421033
     atom    2 type  1   force =    -5.92372066    1.33673442   -2.38698196
     atom    3 type  2   force =     5.38804733    0.48906079   -1.05560001
     atom    4 type  2   force =     2.22385238   -2.23996928    1.15837164
     The non-local contrib.  to forces
     atom    1 type  1   force =    -1.50551637    1.31126254   -1.26109627
     atom    2 type  1   force =     0.00730865   -1.12922158    1.20621896
     atom    3 type  2   force =    -0.15030005   -0.17601849   -0.18888771
     atom    4 type  2   force =    -0.38963755   -0.23101110   -0.13614616
     The ionic contribution  to forces
     atom    1 type  1   force =    -8.83248491   -6.15071928   49.20767724
     atom    2 type  1   force =   -31.01618238    9.30142360  -52.55617248
     atom    3 type  2   force =    27.68658191    5.56464343  -25.42900998
     atom    4 type  2   force =    12.16208538   -8.71534775   28.77750521
     The local contribution  to forces
     atom    1 type  1   force =     8.43657237    5.34117130  -45.53996102
     atom    2 type  1   force =    24.69483030   -6.80908593   48.83410639
     atom    3 type  2   force =   -22.13232003   -4.89852864   24.55459449
     atom    4 type  2   force =    -9.54486997    6.69798990  -27.47758680
     The core correction contribution to forces
     atom    1 type  1   force =     0.21333140   -0.08756777   -0.12245281
     atom    2 type  1   force =     0.39056875   -0.02634534    0.12896380
     atom    3 type  2   force =    -0.01601576   -0.00104122    0.00775003
     atom    4 type  2   force =    -0.00379346    0.00842369   -0.00543813
     The Hubbard contrib.    to forces
     atom    1 type  1   force =     0.00000000    0.00000000    0.00000000
     atom    2 type  1   force =     0.00000000    0.00000000    0.00000000
     atom    3 type  2   force =     0.00000000    0.00000000    0.00000000
     atom    4 type  2   force =     0.00000000    0.00000000    0.00000000
     The SCF correction term to forces
     atom    1 type  1   force =    -0.00014770    0.00002423    0.00002385
     atom    2 type  1   force =    -0.00031215   -0.00003937   -0.00011795
     atom    3 type  2   force =     0.00003511    0.00000267   -0.00006617
     atom    4 type  2   force =     0.00000182   -0.00002705    0.00001821

     Total force =     9.617871     Total SCF correction =     0.000378

     Writing all to output data dir ./ZnO_ANN.save/

     General routines

     Parallel routines

   This run was terminated on:  12:26:52  23Jun2025

   JOB DONE.
Note: The following floating-point exceptions are signalling: IEEE_INVALID_FLAG