     Program PWSCF v.7.2 starts on 23Jun2025 at 12:19:32

     Reading input from /home/jvc/QEspresso7.2/ZnO_DataBase/scfs_rnd025.in/scf-5.68-1.61-4.in

     Current dimensions of program PWSCF are:
     Max number of different atomic species (ntypx) = 10
     Max number of k-points (npk) =  40000
     Max angular momentum in pseudopotentials (lmaxx) =  4
     file Zn.upf: wavefunction(s)  3D renormalized

     R & G space division:  proc/nbgrp/npool/nimage =       8
     Subspace diagonalization in iterative solution of the eigenvalue problem:
     a serial algorithm will be used

     Using Slab Decomposition

     bravais-lattice index     =            4
     lattice parameter (alat)  =       5.6845  a.u.
     unit-cell volume          =     256.8094 (a.u.)^3
     number of atoms/cell      =            4
     number of atomic types    =            2
     number of electrons       =        36.00
     number of Kohn-Sham states=           18
     kinetic-energy cutoff     =      50.0000  Ry
     charge density cutoff     =     400.0000  Ry
     scf convergence threshold =      1.0E-08
     mixing beta               =       0.3000
     number of iterations used =            8  plain     mixing
     Exchange-correlation= PBE
                           (   1   4   3   4   0   0   0)

     celldm(1)=   5.684516  celldm(2)=   0.000000  celldm(3)=   1.614358
     celldm(4)=   0.000000  celldm(5)=   0.000000  celldm(6)=   0.000000

     crystal axes: (cart. coord. in units of alat)
               a(1) = (   1.000000   0.000000   0.000000 )
               a(2) = (  -0.500000   0.866025   0.000000 )
               a(3) = (   0.000000   0.000000   1.614358 )

     reciprocal axes: (cart. coord. in units 2 pi/alat)
               b(1) = (  1.000000  0.577350 -0.000000 )
               b(2) = (  0.000000  1.154701  0.000000 )
               b(3) = (  0.000000 -0.000000  0.619441 )

     PseudoPot. # 1 for Zn read from file:
     ./pseudos/Zn.upf
     MD5 check sum: 7f56cabf9682ed8c977c2f7d0c5985c5
     Pseudo is Ultrasoft + core correction, Zval = 12.0
     Generated using &quot;atomic&quot; code by A. Dal Corso  v.6.2.2
     Using radial grid of 1201 points,  6 beta functions with:
                l(1) =   0
                l(2) =   0
                l(3) =   1
                l(4) =   1
                l(5) =   2
                l(6) =   2
     Q(r) pseudized with 0 coefficients

     PseudoPot. # 2 for O  read from file:
     ./pseudos/O.upf
     MD5 check sum: 91400c9766925bcf19f520983a725ff0
     Pseudo is Ultrasoft + core correction, Zval =  6.0
     Generated using &quot;atomic&quot; code by A. Dal Corso  v.6.3MaX
     Using radial grid of 1095 points,  4 beta functions with:
                l(1) =   0
                l(2) =   0
                l(3) =   1
                l(4) =   1
     Q(r) pseudized with 0 coefficients

     atomic species   valence    mass     pseudopotential
        Zn            12.00    63.38000     Zn( 1.00)
        O              6.00    15.99900     O ( 1.00)

     No symmetry found

   Cartesian axes

     site n.     atom                  positions (alat units)
         1           Zn  tau(   1) = (   0.5506762   0.4633188   0.7251794  )
         2           Zn  tau(   2) = (   0.1632338   0.7215143  -0.3807791  )
         3           O   tau(   3) = (   0.2947561   0.4131879   1.4810921  )
         4           O   tau(   4) = (  -0.1186838   0.7925172   1.0034422  )

     number of k points=   112

     Number of k-points >= 100: set verbosity='high' to print them.

     Check: negative core charge=   -0.000002

     Initial potential from superposition of free atoms

     starting charge      35.9925, renormalised to      36.0000
     Starting wfcs are   26 randomized atomic wfcs

     Self-consistent Calculation

     iteration #  1     ecut=    50.00 Ry     beta= 0.30
     Davidson diagonalization with overlap
     ethr =  1.00E-02,  avg # of iterations =  3.0

     total energy              =    -358.43892790 Ry
     estimated scf accuracy    <       1.75014792 Ry

[...]

     iteration #  6     ecut=    50.00 Ry     beta= 0.30
     Davidson diagonalization with overlap
     c_bands:  1 eigenvalues not converged
     ethr =  1.53E-04,  avg # of iterations = 10.8

[...]

     iteration # 17     ecut=    50.00 Ry     beta= 0.30
     Davidson diagonalization with overlap
     c_bands:  1 eigenvalues not converged
     c_bands:  1 eigenvalues not converged
     c_bands:  1 eigenvalues not converged
     c_bands:  1 eigenvalues not converged
     ethr =  1.03E-09,  avg # of iterations = 10.4

[...]

     total energy              =    -358.79604672 Ry
     estimated scf accuracy    <       0.00000009 Ry

     iteration # 21     ecut=    50.00 Ry     beta= 0.30
     Davidson diagonalization with overlap
     ethr =  2.43E-10,  avg # of iterations =  4.9

     End of self-consistent calculation

     Number of k-points >= 100: set verbosity='high' to print the bands.

     highest occupied level (ev):    12.7391

!    total energy              =    -358.79604674 Ry
     estimated scf accuracy    <          2.5E-09 Ry

     The total energy is the sum of the following terms:
     one-electron contribution =    -217.56482068 Ry
     hartree contribution      =     151.97745499 Ry
     xc contribution           =    -111.12044306 Ry
     ewald contribution        =    -182.08823799 Ry

     convergence has been achieved in  21 iterations

     Forces acting on atoms (cartesian axes, Ry/au):

     atom    1 type  1   force =    -0.09631242   -0.15352534   -0.42699988
     atom    2 type  1   force =     2.55531434    0.68461278    1.72054885
     atom    3 type  2   force =     0.74502299   -1.50828199    1.51303055
     atom    4 type  2   force =    -3.20402491    0.97719455   -2.80657952
     The non-local contrib.  to forces
     atom    1 type  1   force =    -0.25278952   -0.19618239   -0.04343859
     atom    2 type  1   force =    -0.11333155    0.59201269   -0.80743009
     atom    3 type  2   force =     0.02617775    0.80517840   -0.22606810
     atom    4 type  2   force =     0.39512426   -0.19016567   -0.78044717
     The ionic contribution  to forces
     atom    1 type  1   force =    -0.33981332   -2.42761664  -35.84000526
     atom    2 type  1   force =    11.44344349    8.47446452   24.67649354
     atom    3 type  2   force =     4.50957278  -11.96133139   26.21634179
     atom    4 type  2   force =   -15.61320295    5.91448350  -15.05283008
     The local contribution  to forces
     atom    1 type  1   force =     0.47087930    2.44626571   35.39405033
     atom    2 type  1   force =    -8.58318713   -8.25587850  -22.05778971
     atom    3 type  2   force =    -3.78721703    9.64816278  -24.47126376
     atom    4 type  2   force =    12.00703170   -4.74492705   13.01055484
     The core correction contribution to forces
     atom    1 type  1   force =     0.02540388    0.02400581    0.06228349
     atom    2 type  1   force =    -0.19160794   -0.12593978   -0.09086810
     atom    3 type  2   force =    -0.00350642   -0.00030109   -0.00593216
     atom    4 type  2   force =     0.00699822   -0.00219701    0.01602141
     The Hubbard contrib.    to forces
     atom    1 type  1   force =     0.00000000    0.00000000    0.00000000
     atom    2 type  1   force =     0.00000000    0.00000000    0.00000000
     atom    3 type  2   force =     0.00000000    0.00000000    0.00000000
     atom    4 type  2   force =     0.00000000    0.00000000    0.00000000
     The SCF correction term to forces
     atom    1 type  1   force =     0.00000553   -0.00000161    0.00011949
     atom    2 type  1   force =    -0.00000424   -0.00004992    0.00015256
     atom    3 type  2   force =    -0.00000580    0.00000552   -0.00003787
     atom    4 type  2   force =     0.00002214   -0.00000300    0.00013082

     Total force =     5.864350     Total SCF correction =     0.000243

     Writing all to output data dir ./ZnO_ANN.save/

     General routines

     Parallel routines

   This run was terminated on:  12:22: 6  23Jun2025

   JOB DONE.
Note: The following floating-point exceptions are signalling: IEEE_INVALID_FLAG