     Program PWSCF v.7.2 starts on 23Jun2025 at 12: 7: 4

     Reading input from /home/jvc/QEspresso7.2/ZnO_DataBase/scfs_rnd025.in/scf-5.56-1.78-2.in

     Current dimensions of program PWSCF are:
     Max number of different atomic species (ntypx) = 10
     Max number of k-points (npk) =  40000
     Max angular momentum in pseudopotentials (lmaxx) =  4
     file Zn.upf: wavefunction(s)  3D renormalized

     R & G space division:  proc/nbgrp/npool/nimage =       8
     Subspace diagonalization in iterative solution of the eigenvalue problem:
     a serial algorithm will be used

     Using Slab Decomposition

     bravais-lattice index     =            4
     lattice parameter (alat)  =       5.5609  a.u.
     unit-cell volume          =     264.4647 (a.u.)^3
     number of atoms/cell      =            4
     number of atomic types    =            2
     number of electrons       =        36.00
     number of Kohn-Sham states=           18
     kinetic-energy cutoff     =      50.0000  Ry
     charge density cutoff     =     400.0000  Ry
     scf convergence threshold =      1.0E-08
     mixing beta               =       0.3000
     number of iterations used =            8  plain     mixing
     Exchange-correlation= PBE
                           (   1   4   3   4   0   0   0)

     celldm(1)=   5.560939  celldm(2)=   0.000000  celldm(3)=   1.775794
     celldm(4)=   0.000000  celldm(5)=   0.000000  celldm(6)=   0.000000

     crystal axes: (cart. coord. in units of alat)
               a(1) = (   1.000000   0.000000   0.000000 )
               a(2) = (  -0.500000   0.866025   0.000000 )
               a(3) = (   0.000000   0.000000   1.775794 )

     reciprocal axes: (cart. coord. in units 2 pi/alat)
               b(1) = (  1.000000  0.577350 -0.000000 )
               b(2) = (  0.000000  1.154701  0.000000 )
               b(3) = (  0.000000 -0.000000  0.563128 )

     PseudoPot. # 1 for Zn read from file:
     ./pseudos/Zn.upf
     MD5 check sum: 7f56cabf9682ed8c977c2f7d0c5985c5
     Pseudo is Ultrasoft + core correction, Zval = 12.0
     Generated using &quot;atomic&quot; code by A. Dal Corso  v.6.2.2
     Using radial grid of 1201 points,  6 beta functions with:
                l(1) =   0
                l(2) =   0
                l(3) =   1
                l(4) =   1
                l(5) =   2
                l(6) =   2
     Q(r) pseudized with 0 coefficients

     PseudoPot. # 2 for O  read from file:
     ./pseudos/O.upf
     MD5 check sum: 91400c9766925bcf19f520983a725ff0
     Pseudo is Ultrasoft + core correction, Zval =  6.0
     Generated using &quot;atomic&quot; code by A. Dal Corso  v.6.3MaX
     Using radial grid of 1095 points,  4 beta functions with:
                l(1) =   0
                l(2) =   0
                l(3) =   1
                l(4) =   1
     Q(r) pseudized with 0 coefficients

     atomic species   valence    mass     pseudopotential
        Zn            12.00    63.38000     Zn( 1.00)
        O              6.00    15.99900     O ( 1.00)

     No symmetry found

   Cartesian axes

     site n.     atom                  positions (alat units)
         1           Zn  tau(   1) = (   0.4173739   0.2071333   1.0976937  )
         2           Zn  tau(   2) = (   0.0509903   0.6080143  -0.1964283  )
         3           O   tau(   3) = (   0.5156923   0.3305401   1.3541307  )
         4           O   tau(   4) = (  -0.0393593   0.7317045   0.5581883  )

     number of k points=   112

     Number of k-points >= 100: set verbosity='high' to print them.

     Check: negative core charge=   -0.000002

     Initial potential from superposition of free atoms

     starting charge      35.9925, renormalised to      36.0000
     Starting wfcs are   26 randomized atomic wfcs

     Self-consistent Calculation

     iteration #  1     ecut=    50.00 Ry     beta= 0.30
     Davidson diagonalization with overlap
     ethr =  1.00E-02,  avg # of iterations =  4.3

     total energy              =    -355.63618322 Ry
     estimated scf accuracy    <       1.41283815 Ry

[...]

     iteration #  8     ecut=    50.00 Ry     beta= 0.30
     Davidson diagonalization with overlap
     c_bands:  1 eigenvalues not converged
     ethr =  4.71E-06,  avg # of iterations =  4.4

[...]

     iteration # 31     ecut=    50.00 Ry     beta= 0.30
     Davidson diagonalization with overlap
     c_bands:  2 eigenvalues not converged
     c_bands:  1 eigenvalues not converged
     ethr =  9.60E-11,  avg # of iterations =  7.2

[...]

     total energy              =    -355.87754071 Ry
     estimated scf accuracy    <       0.00000002 Ry

     iteration # 33     ecut=    50.00 Ry     beta= 0.30
     Davidson diagonalization with overlap
     ethr =  3.86E-11,  avg # of iterations =  6.3

     End of self-consistent calculation

     Number of k-points >= 100: set verbosity='high' to print the bands.

     highest occupied level (ev):    12.7802

!    total energy              =    -355.87754071 Ry
     estimated scf accuracy    <          3.9E-10 Ry

     The total energy is the sum of the following terms:
     one-electron contribution =    -224.08511840 Ry
     hartree contribution      =     152.57928350 Ry
     xc contribution           =    -111.25067161 Ry
     ewald contribution        =    -173.12103421 Ry

     convergence has been achieved in  33 iterations

     Forces acting on atoms (cartesian axes, Ry/au):

     atom    1 type  1   force =    -4.60737491   -5.78633889  -12.60008027
     atom    2 type  1   force =    -0.10230300   -0.03448400    0.56941640
     atom    3 type  2   force =     4.71499781    5.84880227   12.07297611
     atom    4 type  2   force =    -0.00531990   -0.02797938   -0.04231225
     The non-local contrib.  to forces
     atom    1 type  1   force =     0.67197263    1.08008146    3.17840705
     atom    2 type  1   force =    -0.00634637    0.01114310   -0.49321693
     atom    3 type  2   force =    -0.36427299   -0.19007057    0.06456529
     atom    4 type  2   force =    -0.13970551    0.31764212    0.25570474
     The ionic contribution  to forces
     atom    1 type  1   force =   -14.42971924  -14.87680415  -60.35977086
     atom    2 type  1   force =    -1.44719832   -1.34999296   33.42067153
     atom    3 type  2   force =    15.93703120   17.92540247   35.96395375
     atom    4 type  2   force =    -0.06011364   -1.69860537   -9.02485442
     The local contribution  to forces
     atom    1 type  1   force =     8.91794438    7.74672142   44.00378692
     atom    2 type  1   force =     1.33723350    1.30171579  -32.31012110
     atom    3 type  2   force =   -10.85005137  -11.87573896  -23.93025405
     atom    4 type  2   force =     0.19294827    1.35568608    8.72787165
     The core correction contribution to forces
     atom    1 type  1   force =     0.23241945    0.26364899    0.57751103
     atom    2 type  1   force =     0.01400694    0.00265166   -0.04792493
     atom    3 type  2   force =    -0.00770739   -0.01078602   -0.02526229
     atom    4 type  2   force =     0.00155419   -0.00269694   -0.00104167
     The Hubbard contrib.    to forces
     atom    1 type  1   force =     0.00000000    0.00000000    0.00000000
     atom    2 type  1   force =     0.00000000    0.00000000    0.00000000
     atom    3 type  2   force =     0.00000000    0.00000000    0.00000000
     atom    4 type  2   force =     0.00000000    0.00000000    0.00000000
     The SCF correction term to forces
     atom    1 type  1   force =     0.00001247    0.00001882   -0.00000685
     atom    2 type  1   force =     0.00000585    0.00000383    0.00001538
     atom    3 type  2   force =     0.00000295    0.00000078   -0.00001903
     atom    4 type  2   force =     0.00000138    0.00000015    0.00001501

     Total force =    20.396239     Total SCF correction =     0.000038

     Writing all to output data dir ./ZnO_ANN.save/

     General routines

     Parallel routines

   This run was terminated on:  12:10: 0  23Jun2025

   JOB DONE.
Note: The following floating-point exceptions are signalling: IEEE_INVALID_FLAG