     Program PWSCF v.7.2 starts on 23Jun2025 at 14: 8:36

     Reading input from /home/jvc/QEspresso7.2/ZnO_DataBase/scfs_rnd025.in/scf-6.06-1.74-2.in

     Current dimensions of program PWSCF are:
     Max number of different atomic species (ntypx) = 10
     Max number of k-points (npk) =  40000
     Max angular momentum in pseudopotentials (lmaxx) =  4
     file Zn.upf: wavefunction(s)  3D renormalized

     R & G space division:  proc/nbgrp/npool/nimage =       8
     Subspace diagonalization in iterative solution of the eigenvalue problem:
     a serial algorithm will be used

     Using Slab Decomposition

     bravais-lattice index     =            4
     lattice parameter (alat)  =       6.0552  a.u.
     unit-cell volume          =     335.2351 (a.u.)^3
     number of atoms/cell      =            4
     number of atomic types    =            2
     number of electrons       =        36.00
     number of Kohn-Sham states=           18
     kinetic-energy cutoff     =      50.0000  Ry
     charge density cutoff     =     400.0000  Ry
     scf convergence threshold =      1.0E-08
     mixing beta               =       0.3000
     number of iterations used =            8  plain     mixing
     Exchange-correlation= PBE
                           (   1   4   3   4   0   0   0)

     celldm(1)=   6.055245  celldm(2)=   0.000000  celldm(3)=   1.743507
     celldm(4)=   0.000000  celldm(5)=   0.000000  celldm(6)=   0.000000

     crystal axes: (cart. coord. in units of alat)
               a(1) = (   1.000000   0.000000   0.000000 )
               a(2) = (  -0.500000   0.866025   0.000000 )
               a(3) = (   0.000000   0.000000   1.743507 )

     reciprocal axes: (cart. coord. in units 2 pi/alat)
               b(1) = (  1.000000  0.577350 -0.000000 )
               b(2) = (  0.000000  1.154701  0.000000 )
               b(3) = (  0.000000 -0.000000  0.573557 )

     PseudoPot. # 1 for Zn read from file:
     ./pseudos/Zn.upf
     MD5 check sum: 7f56cabf9682ed8c977c2f7d0c5985c5
     Pseudo is Ultrasoft + core correction, Zval = 12.0
     Generated using &quot;atomic&quot; code by A. Dal Corso  v.6.2.2
     Using radial grid of 1201 points,  6 beta functions with:
                l(1) =   0
                l(2) =   0
                l(3) =   1
                l(4) =   1
                l(5) =   2
                l(6) =   2
     Q(r) pseudized with 0 coefficients

     PseudoPot. # 2 for O  read from file:
     ./pseudos/O.upf
     MD5 check sum: 91400c9766925bcf19f520983a725ff0
     Pseudo is Ultrasoft + core correction, Zval =  6.0
     Generated using &quot;atomic&quot; code by A. Dal Corso  v.6.3MaX
     Using radial grid of 1095 points,  4 beta functions with:
                l(1) =   0
                l(2) =   0
                l(3) =   1
                l(4) =   1
     Q(r) pseudized with 0 coefficients

     atomic species   valence    mass     pseudopotential
        Zn            12.00    63.38000     Zn( 1.00)
        O              6.00    15.99900     O ( 1.00)

     No symmetry found

   Cartesian axes

     site n.     atom                  positions (alat units)
         1           Zn  tau(   1) = (   0.3113199   0.1925352   0.7780412  )
         2           Zn  tau(   2) = (   0.2278466   0.3952626  -0.2306900  )
         3           O   tau(   3) = (   0.7763477   0.1360420   1.6672167  )
         4           O   tau(   4) = (  -0.1268993   0.5514288   0.3184137  )

     number of k points=   112

     Number of k-points >= 100: set verbosity='high' to print them.

     Check: negative core charge=   -0.000002

     Initial potential from superposition of free atoms

     starting charge      35.9925, renormalised to      36.0000
     Starting wfcs are   26 randomized atomic wfcs

     Self-consistent Calculation

     iteration #  1     ecut=    50.00 Ry     beta= 0.30
     Davidson diagonalization with overlap
     ethr =  1.00E-02,  avg # of iterations =  2.0

     total energy              =    -360.82248434 Ry
     estimated scf accuracy    <       1.16423249 Ry

[...]

     iteration #  4     ecut=    50.00 Ry     beta= 0.30
     Davidson diagonalization with overlap
     c_bands:  1 eigenvalues not converged
     ethr =  4.29E-04,  avg # of iterations = 10.8

[...]

     iteration # 39     ecut=    50.00 Ry     beta= 0.30
     Davidson diagonalization with overlap
     c_bands:  1 eigenvalues not converged
     c_bands:  1 eigenvalues not converged
     c_bands:  1 eigenvalues not converged
     c_bands:  2 eigenvalues not converged
     c_bands:  1 eigenvalues not converged
     c_bands:  1 eigenvalues not converged
     c_bands:  1 eigenvalues not converged
     c_bands:  1 eigenvalues not converged
     c_bands:  1 eigenvalues not converged
     ethr =  1.27E-10,  avg # of iterations = 14.1

[...]

     total energy              =    -361.22772355 Ry
     estimated scf accuracy    <       0.00000012 Ry

     iteration # 41     ecut=    50.00 Ry     beta= 0.30
     Davidson diagonalization with overlap
     ethr =  1.27E-10,  avg # of iterations =  5.8

     End of self-consistent calculation

     Number of k-points >= 100: set verbosity='high' to print the bands.

     highest occupied level (ev):     7.5675

!    total energy              =    -361.22772355 Ry
     estimated scf accuracy    <          6.8E-09 Ry

     The total energy is the sum of the following terms:
     one-electron contribution =    -155.77767505 Ry
     hartree contribution      =     118.05805025 Ry
     xc contribution           =    -109.15968877 Ry
     ewald contribution        =    -214.34840998 Ry

     convergence has been achieved in  41 iterations

     Forces acting on atoms (cartesian axes, Ry/au):

     atom    1 type  1   force =    -0.00363979   -0.00187652   -0.08852065
     atom    2 type  1   force =     0.11180588    0.06198230   -0.00032870
     atom    3 type  2   force =    -0.11239120   -0.06197963   -0.08519017
     atom    4 type  2   force =     0.00422511    0.00187385    0.17403952
     The non-local contrib.  to forces
     atom    1 type  1   force =     0.03509000    0.07541420    0.10166866
     atom    2 type  1   force =     0.28786974    0.18277311   -0.24500843
     atom    3 type  2   force =     0.21286584    0.28334972   -0.68041805
     atom    4 type  2   force =     0.05255286   -0.17451966    0.45008261
     The ionic contribution  to forces
     atom    1 type  1   force =     0.59242963   -0.34067218    1.97305454
     atom    2 type  1   force =     2.94895499    1.73195396   -8.48564247
     atom    3 type  2   force =    -2.25742198   -2.59817737    1.25870351
     atom    4 type  2   force =    -1.28396263    1.20689559    5.25388441
     The local contribution  to forces
     atom    1 type  1   force =    -0.62807199    0.26564153   -2.15611731
     atom    2 type  1   force =    -3.09749632   -1.83475949    8.70463222
     atom    3 type  2   force =     1.93341299    2.25491248   -0.66939828
     atom    4 type  2   force =     1.23576394   -1.03202630   -5.52478059
     The core correction contribution to forces
     atom    1 type  1   force =    -0.00308019   -0.00229068   -0.00744185
     atom    2 type  1   force =    -0.02753879   -0.01796470    0.02597004
     atom    3 type  2   force =    -0.00124755   -0.00203895    0.00610678
     atom    4 type  2   force =    -0.00014001    0.00151175   -0.00515369
     The Hubbard contrib.    to forces
     atom    1 type  1   force =     0.00000000    0.00000000    0.00000000
     atom    2 type  1   force =     0.00000000    0.00000000    0.00000000
     atom    3 type  2   force =     0.00000000    0.00000000    0.00000000
     atom    4 type  2   force =     0.00000000    0.00000000    0.00000000
     The SCF correction term to forces
     atom    1 type  1   force =    -0.00000597    0.00003548    0.00032238
     atom    2 type  1   force =     0.00001754   -0.00001571   -0.00027300
     atom    3 type  2   force =     0.00000077   -0.00002064   -0.00017708
     atom    4 type  2   force =     0.00001222    0.00001734    0.00001384

     Total force =     0.279709     Total SCF correction =     0.000461

     Writing all to output data dir ./ZnO_ANN.save/

     General routines

     Parallel routines

   This run was terminated on:  14:14: 7  23Jun2025

   JOB DONE.
Note: The following floating-point exceptions are signalling: IEEE_INVALID_FLAG