     Program PWSCF v.7.2 starts on 23Jun2025 at 15:22: 7

     Reading input from /home/jvc/QEspresso7.2/ZnO_DataBase/scfs_rnd025.in/scf-6.30-1.65-4.in

     Current dimensions of program PWSCF are:
     Max number of different atomic species (ntypx) = 10
     Max number of k-points (npk) =  40000
     Max angular momentum in pseudopotentials (lmaxx) =  4
     file Zn.upf: wavefunction(s)  3D renormalized

     R & G space division:  proc/nbgrp/npool/nimage =       8
     Subspace diagonalization in iterative solution of the eigenvalue problem:
     a serial algorithm will be used

     Using Slab Decomposition

     bravais-lattice index     =            4
     lattice parameter (alat)  =       6.3024  a.u.
     unit-cell volume          =     356.9835 (a.u.)^3
     number of atoms/cell      =            4
     number of atomic types    =            2
     number of electrons       =        36.00
     number of Kohn-Sham states=           18
     kinetic-energy cutoff     =      50.0000  Ry
     charge density cutoff     =     400.0000  Ry
     scf convergence threshold =      1.0E-08
     mixing beta               =       0.3000
     number of iterations used =            8  plain     mixing
     Exchange-correlation= PBE
                           (   1   4   3   4   0   0   0)

     celldm(1)=   6.302398  celldm(2)=   0.000000  celldm(3)=   1.646646
     celldm(4)=   0.000000  celldm(5)=   0.000000  celldm(6)=   0.000000

     crystal axes: (cart. coord. in units of alat)
               a(1) = (   1.000000   0.000000   0.000000 )
               a(2) = (  -0.500000   0.866025   0.000000 )
               a(3) = (   0.000000   0.000000   1.646646 )

     reciprocal axes: (cart. coord. in units 2 pi/alat)
               b(1) = (  1.000000  0.577350 -0.000000 )
               b(2) = (  0.000000  1.154701  0.000000 )
               b(3) = (  0.000000 -0.000000  0.607295 )

     PseudoPot. # 1 for Zn read from file:
     ./pseudos/Zn.upf
     MD5 check sum: 7f56cabf9682ed8c977c2f7d0c5985c5
     Pseudo is Ultrasoft + core correction, Zval = 12.0
     Generated using &quot;atomic&quot; code by A. Dal Corso  v.6.2.2
     Using radial grid of 1201 points,  6 beta functions with:
                l(1) =   0
                l(2) =   0
                l(3) =   1
                l(4) =   1
                l(5) =   2
                l(6) =   2
     Q(r) pseudized with 0 coefficients

     PseudoPot. # 2 for O  read from file:
     ./pseudos/O.upf
     MD5 check sum: 91400c9766925bcf19f520983a725ff0
     Pseudo is Ultrasoft + core correction, Zval =  6.0
     Generated using &quot;atomic&quot; code by A. Dal Corso  v.6.3MaX
     Using radial grid of 1095 points,  4 beta functions with:
                l(1) =   0
                l(2) =   0
                l(3) =   1
                l(4) =   1
     Q(r) pseudized with 0 coefficients

     atomic species   valence    mass     pseudopotential
        Zn            12.00    63.38000     Zn( 1.00)
        O              6.00    15.99900     O ( 1.00)

     No symmetry found

   Cartesian axes

     site n.     atom                  positions (alat units)
         1           Zn  tau(   1) = (   0.1540836   0.4864070   0.9473298  )
         2           Zn  tau(   2) = (  -0.3040945   0.7672315  -0.1813262  )
         3           O   tau(   3) = (   0.5419284   0.0917075   1.4858457  )
         4           O   tau(   4) = (   0.2457721   0.5659412   0.9369735  )

     number of k points=   112

     Number of k-points >= 100: set verbosity='high' to print them.

     Check: negative core charge=   -0.000002

     Initial potential from superposition of free atoms

     starting charge      35.9925, renormalised to      36.0000
     Starting wfcs are   26 randomized atomic wfcs

     Self-consistent Calculation

     iteration #  1     ecut=    50.00 Ry     beta= 0.30
     Davidson diagonalization with overlap
     ethr =  1.00E-02,  avg # of iterations =  5.1

     total energy              =    -304.84107218 Ry
     estimated scf accuracy    <       3.09561113 Ry

[...]

     iteration # 25     ecut=    50.00 Ry     beta= 0.30
     Davidson diagonalization with overlap
     ethr =  3.36E-09,  avg # of iterations =  7.3
[barbara][[39447,1],7][../../../../../../opal/mca/btl/tcp/btl_tcp.c:559:mca_btl_tcp_recv_blocking] recv(18) failed: Connection reset by peer (104)

[...]

     total energy              =    -304.92782072 Ry
     estimated scf accuracy    <       0.00000010 Ry

     iteration # 28     ecut=    50.00 Ry     beta= 0.30
     Davidson diagonalization with overlap
     ethr =  2.90E-10,  avg # of iterations =  4.3

     End of self-consistent calculation

     Number of k-points >= 100: set verbosity='high' to print the bands.

     highest occupied level (ev):     7.5429

!    total energy              =    -304.92782074 Ry
     estimated scf accuracy    <          2.0E-09 Ry

     The total energy is the sum of the following terms:
     one-electron contribution =    -356.55085875 Ry
     hartree contribution      =     207.68119391 Ry
     xc contribution           =    -115.42910210 Ry
     ewald contribution        =     -40.62905380 Ry

     convergence has been achieved in  28 iterations

     Forces acting on atoms (cartesian axes, Ry/au):

     atom    1 type  1   force =  -128.62134872 -111.60385145   14.34913672
     atom    2 type  1   force =    -1.36174331   -0.73202727    0.05692377
     atom    3 type  2   force =     1.33808532    0.76852919    0.19676369
     atom    4 type  2   force =   128.64500671  111.56734953  -14.60282418
     The non-local contrib.  to forces
     atom    1 type  1   force =    29.41187916   25.47494528   -3.28326839
     atom    2 type  1   force =    -1.14098586   -0.64188473   -0.23925917
     atom    3 type  2   force =    -0.52183685   -0.22739511    0.31602564
     atom    4 type  2   force =    -3.37527636   -3.00634035    0.40481010
     The ionic contribution  to forces
     atom    1 type  1   force =  -181.65835406 -158.50345099   -3.38551282
     atom    2 type  1   force =   -13.07740964   -6.73218627   22.79650694
     atom    3 type  2   force =    12.99633159    7.95918976   13.47406798
     atom    4 type  2   force =   181.73943211  157.27644750  -32.88506210
     The local contribution  to forces
     atom    1 type  1   force =    21.98952668   20.00435278   21.19460050
     atom    2 type  1   force =    12.68878753    6.54991317  -22.50486501
     atom    3 type  2   force =   -11.13447973   -6.96133131  -13.58849067
     atom    4 type  2   force =   -49.35789268  -42.39013674   17.83672329
     The core correction contribution to forces
     atom    1 type  1   force =     1.63551602    1.42023478   -0.17661698
     atom    2 type  1   force =     0.16784746    0.09211308    0.00447382
     atom    3 type  2   force =    -0.00196026   -0.00194787   -0.00490428
     atom    4 type  2   force =    -0.36130897   -0.31266481    0.04072537
     The Hubbard contrib.    to forces
     atom    1 type  1   force =     0.00000000    0.00000000    0.00000000
     atom    2 type  1   force =     0.00000000    0.00000000    0.00000000
     atom    3 type  2   force =     0.00000000    0.00000000    0.00000000
     atom    4 type  2   force =     0.00000000    0.00000000    0.00000000
     The SCF correction term to forces
     atom    1 type  1   force =     0.00008059    0.00006603   -0.00008847
     atom    2 type  1   force =     0.00001430    0.00001680    0.00004432
     atom    3 type  2   force =     0.00002769    0.00001303    0.00004215
     atom    4 type  2   force =     0.00004971    0.00004324   -0.00004371

     Total force =   241.701543     Total SCF correction =     0.000173

     Writing all to output data dir ./ZnO_ANN.save/

     General routines

     Parallel routines

   This run was terminated on:  15:25:56  23Jun2025

   JOB DONE.
Note: The following floating-point exceptions are signalling: IEEE_INVALID_FLAG