     Program PWSCF v.7.2 starts on 23Jun2025 at 17: 6:26

     Reading input from /home/jvc/QEspresso7.2/ZnO_DataBase/scfs_rnd025.in/scf-6.55-1.71-3.in

     Current dimensions of program PWSCF are:
     Max number of different atomic species (ntypx) = 10
     Max number of k-points (npk) =  40000
     Max angular momentum in pseudopotentials (lmaxx) =  4
     file Zn.upf: wavefunction(s)  3D renormalized

     R & G space division:  proc/nbgrp/npool/nimage =       8
     Subspace diagonalization in iterative solution of the eigenvalue problem:
     a serial algorithm will be used

     Using Slab Decomposition

     bravais-lattice index     =            4
     lattice parameter (alat)  =       6.5496  a.u.
     unit-cell volume          =     416.3619 (a.u.)^3
     number of atoms/cell      =            4
     number of atomic types    =            2
     number of electrons       =        36.00
     number of Kohn-Sham states=           18
     kinetic-energy cutoff     =      50.0000  Ry
     charge density cutoff     =     400.0000  Ry
     scf convergence threshold =      1.0E-08
     mixing beta               =       0.3000
     number of iterations used =            8  plain     mixing
     Exchange-correlation= PBE
                           (   1   4   3   4   0   0   0)

     celldm(1)=   6.549551  celldm(2)=   0.000000  celldm(3)=   1.711220
     celldm(4)=   0.000000  celldm(5)=   0.000000  celldm(6)=   0.000000

     crystal axes: (cart. coord. in units of alat)
               a(1) = (   1.000000   0.000000   0.000000 )
               a(2) = (  -0.500000   0.866025   0.000000 )
               a(3) = (   0.000000   0.000000   1.711220 )

     reciprocal axes: (cart. coord. in units 2 pi/alat)
               b(1) = (  1.000000  0.577350 -0.000000 )
               b(2) = (  0.000000  1.154701  0.000000 )
               b(3) = (  0.000000 -0.000000  0.584378 )

     PseudoPot. # 1 for Zn read from file:
     ./pseudos/Zn.upf
     MD5 check sum: 7f56cabf9682ed8c977c2f7d0c5985c5
     Pseudo is Ultrasoft + core correction, Zval = 12.0
     Generated using &quot;atomic&quot; code by A. Dal Corso  v.6.2.2
     Using radial grid of 1201 points,  6 beta functions with:
                l(1) =   0
                l(2) =   0
                l(3) =   1
                l(4) =   1
                l(5) =   2
                l(6) =   2
     Q(r) pseudized with 0 coefficients

     PseudoPot. # 2 for O  read from file:
     ./pseudos/O.upf
     MD5 check sum: 91400c9766925bcf19f520983a725ff0
     Pseudo is Ultrasoft + core correction, Zval =  6.0
     Generated using &quot;atomic&quot; code by A. Dal Corso  v.6.3MaX
     Using radial grid of 1095 points,  4 beta functions with:
                l(1) =   0
                l(2) =   0
                l(3) =   1
                l(4) =   1
     Q(r) pseudized with 0 coefficients

     atomic species   valence    mass     pseudopotential
        Zn            12.00    63.38000     Zn( 1.00)
        O              6.00    15.99900     O ( 1.00)

     No symmetry found

   Cartesian axes

     site n.     atom                  positions (alat units)
         1           Zn  tau(   1) = (   0.4442606   0.2367263   0.4973420  )
         2           Zn  tau(   2) = (   0.2389038   0.4267935  -0.3083714  )
         3           O   tau(   3) = (   0.3992188   0.3436070   1.4353858  )
         4           O   tau(   4) = (  -0.1730630   0.5395226   0.3011800  )

     number of k points=   112

     Number of k-points >= 100: set verbosity='high' to print them.

     Check: negative core charge=   -0.000002

     Initial potential from superposition of free atoms

     starting charge      35.9925, renormalised to      36.0000
     Starting wfcs are   26 randomized atomic wfcs

     Self-consistent Calculation

     iteration #  1     ecut=    50.00 Ry     beta= 0.30
     Davidson diagonalization with overlap
     ethr =  1.00E-02,  avg # of iterations =  4.7

     total energy              =    -344.10648107 Ry
     estimated scf accuracy    <       1.23824308 Ry

[...]

     total energy              =    -344.22547785 Ry
     estimated scf accuracy    <       0.00000002 Ry

     iteration # 24     ecut=    50.00 Ry     beta= 0.30
     Davidson diagonalization with overlap
     ethr =  4.56E-11,  avg # of iterations =  2.7

     End of self-consistent calculation

     Number of k-points >= 100: set verbosity='high' to print the bands.

     highest occupied level (ev):     4.9235

!    total energy              =    -344.22547785 Ry
     estimated scf accuracy    <          5.4E-09 Ry

     The total energy is the sum of the following terms:
     one-electron contribution =    -271.55539367 Ry
     hartree contribution      =     167.74865499 Ry
     xc contribution           =    -112.10618616 Ry
     ewald contribution        =    -128.31255302 Ry

     convergence has been achieved in  24 iterations

     Forces acting on atoms (cartesian axes, Ry/au):

     atom    1 type  1   force =    -0.05025300   -0.04999575   -0.03072142
     atom    2 type  1   force =   -37.74158233   19.58030431   -7.70065445
     atom    3 type  2   force =    37.74019552  -19.58773471    7.63445264
     atom    4 type  2   force =     0.05163981    0.05742615    0.09692323
     The non-local contrib.  to forces
     atom    1 type  1   force =    -0.40454405   -0.17377433    0.48218421
     atom    2 type  1   force =    17.21603951   -8.96725475    3.32552424
     atom    3 type  2   force =    -4.85474621    2.47075863   -1.08775050
     atom    4 type  2   force =    -0.34414373    0.00825138    0.99940355
     The ionic contribution  to forces
     atom    1 type  1   force =    -2.19804486   -1.82569605   14.20056762
     atom    2 type  1   force =   -84.10779904   43.88912831  -27.43856031
     atom    3 type  2   force =    83.74320949  -43.49648310   11.79744692
     atom    4 type  2   force =     2.56263441    1.43305085    1.44054577
     The local contribution  to forces
     atom    1 type  1   force =     2.52477258    1.93809071  -14.68073560
     atom    2 type  1   force =    28.01192787  -14.75144024   16.17922863
     atom    3 type  2   force =   -41.05094648   21.38714150   -3.05551396
     atom    4 type  2   force =    -2.16967567   -1.38322621   -2.33282127
     The core correction contribution to forces
     atom    1 type  1   force =     0.02754579    0.01136335   -0.03254667
     atom    2 type  1   force =     1.13821066   -0.59010427    0.23303059
     atom    3 type  2   force =    -0.09730793    0.05084115   -0.01978025
     atom    4 type  2   force =     0.00284477   -0.00065662   -0.01012972
     The Hubbard contrib.    to forces
     atom    1 type  1   force =     0.00000000    0.00000000    0.00000000
     atom    2 type  1   force =     0.00000000    0.00000000    0.00000000
     atom    3 type  2   force =     0.00000000    0.00000000    0.00000000
     atom    4 type  2   force =     0.00000000    0.00000000    0.00000000
     The SCF correction term to forces
     atom    1 type  1   force =     0.00003934    0.00001442   -0.00018051
     atom    2 type  1   force =     0.00006049   -0.00003089    0.00013287
     atom    3 type  2   force =     0.00000846    0.00000095    0.00006091
     atom    4 type  2   force =     0.00000184    0.00000061   -0.00006462

     Total force =    61.101746     Total SCF correction =     0.000254

     Writing all to output data dir ./ZnO_ANN.save/

     General routines

     Parallel routines

   This run was terminated on:  17:10:30  23Jun2025

   JOB DONE.
Note: The following floating-point exceptions are signalling: IEEE_INVALID_FLAG