     Program PWSCF v.7.2 starts on  2Jul2025 at  9: 1: 3

     Reading input from ZnO-001.in
Warning: card   O   0.6666666667000000  0.1666666666500000  0.8796764146000000 ignored
Warning: card   O   0.6666666667000001  0.6666666666500000  0.8796764146000000 ignored
Warning: card   O   0.3333333333000000  0.3333333333500000  0.3796764146000000 ignored
Warning: card   O   0.3333333332999999  0.8333333333499999  0.3796764146000000 ignored

     Current dimensions of program PWSCF are:
     Max number of different atomic species (ntypx) = 10
     Max number of k-points (npk) =  40000
     Max angular momentum in pseudopotentials (lmaxx) =  4
     file Zn.upf: wavefunction(s)  3D renormalized

     K-points division:     npool     =       2
     R & G space division:  proc/nbgrp/npool/nimage =       8
     Subspace diagonalization in iterative solution of the eigenvalue problem:
     a serial algorithm will be used

     Using Slab Decomposition

     bravais-lattice index     =            0
     lattice parameter (alat)  =       6.1788  a.u.
     unit-cell volume          =     659.5954 (a.u.)^3
     number of atoms/cell      =            4
     number of atomic types    =            2
     number of electrons       =        48.00
     number of Kohn-Sham states=           24
     kinetic-energy cutoff     =      50.0000  Ry
     charge density cutoff     =     400.0000  Ry
     scf convergence threshold =      1.0E-08
     mixing beta               =       0.3000
     number of iterations used =            8  plain     mixing
     Exchange-correlation= PBE
                           (   1   4   3   4   0   0   0)

     celldm(1)=   6.178822  celldm(2)=   0.000000  celldm(3)=   0.000000
     celldm(4)=   0.000000  celldm(5)=   0.000000  celldm(6)=   0.000000

     crystal axes: (cart. coord. in units of alat)
               a(1) = (   1.000000   0.000000   0.000000 )
               a(2) = (  -1.000000   1.732051   0.000000 )
               a(3) = (   0.000000   0.000000   1.614358 )

     reciprocal axes: (cart. coord. in units 2 pi/alat)
               b(1) = (  1.000000  0.577350 -0.000000 )
               b(2) = (  0.000000  0.577350  0.000000 )
               b(3) = (  0.000000 -0.000000  0.619441 )

     PseudoPot. # 1 for Zn read from file:
     ../../../pseudos/Zn.upf
     MD5 check sum: 7f56cabf9682ed8c977c2f7d0c5985c5
     Pseudo is Ultrasoft + core correction, Zval = 12.0
     Generated using &quot;atomic&quot; code by A. Dal Corso  v.6.2.2
     Using radial grid of 1201 points,  6 beta functions with:
                l(1) =   0
                l(2) =   0
                l(3) =   1
                l(4) =   1
                l(5) =   2
                l(6) =   2
     Q(r) pseudized with 0 coefficients

     PseudoPot. # 2 for O  read from file:
     ../../../pseudos/O.upf
     MD5 check sum: 91400c9766925bcf19f520983a725ff0
     Pseudo is Ultrasoft + core correction, Zval =  6.0
     Generated using &quot;atomic&quot; code by A. Dal Corso  v.6.3MaX
     Using radial grid of 1095 points,  4 beta functions with:
                l(1) =   0
                l(2) =   0
                l(3) =   1
                l(4) =   1
     Q(r) pseudized with 0 coefficients

     atomic species   valence    mass     pseudopotential
        Zn            12.00    65.38000     Zn( 1.00)
        O              6.00    15.99940     O ( 1.00)

     No symmetry found

   Cartesian axes

     site n.     atom                  positions (alat units)
         1           Zn  tau(   1) = (   0.4983816   0.2914783   0.8082020  )
         2           Zn  tau(   2) = (   0.0000000   1.1547005   0.8082020  )
         3           Zn  tau(   3) = (   0.0000000   0.5773503   0.0010228  )
         4           Zn  tau(   4) = (  -0.5000000   1.4433757   0.0010228  )

     number of k points=   112

     Number of k-points >= 100: set verbosity='high' to print them.

     Check: negative core charge=   -0.000002

     Initial potential from superposition of free atoms

     starting charge      47.9851, renormalised to      48.0000
     Starting wfcs are   36 randomized atomic wfcs

     Self-consistent Calculation

     iteration #  1     ecut=    50.00 Ry     beta= 0.30
     Davidson diagonalization with overlap
     ethr =  1.00E-02,  avg # of iterations =  1.5

     Threshold (ethr) on eigenvalues was too large:
     Diagonalizing with lowered threshold

     Davidson diagonalization with overlap
     ethr =  1.81E-04,  avg # of iterations =  4.0

     total energy              =    -593.21343217 Ry
     estimated scf accuracy    <       0.07806736 Ry

[...]

     total energy              =    -593.22863464 Ry
     estimated scf accuracy    <       0.00000001 Ry

     iteration # 23     ecut=    50.00 Ry     beta= 0.30
     Davidson diagonalization with overlap
     ethr =  2.24E-11,  avg # of iterations =  4.6

     End of self-consistent calculation

     Number of k-points >= 100: set verbosity='high' to print the bands.

     highest occupied level (ev):     5.9511

!    total energy              =    -593.22863464 Ry
     estimated scf accuracy    <          2.5E-09 Ry

     The total energy is the sum of the following terms:
     one-electron contribution =    -318.53847181 Ry
     hartree contribution      =     216.96818873 Ry
     xc contribution           =    -188.29688878 Ry
     ewald contribution        =    -303.36146278 Ry

     convergence has been achieved in  23 iterations

     Forces acting on atoms (cartesian axes, Ry/au):

     atom    1 type  1   force =    -0.00004635    0.00078938    0.00005841
     atom    2 type  1   force =     0.00004752    0.00075229    0.00006958
     atom    3 type  1   force =     0.00003388   -0.00084677   -0.00007419
     atom    4 type  1   force =    -0.00003505   -0.00069490   -0.00005381
     The non-local contrib.  to forces
     atom    1 type  1   force =     0.00038317   -0.01760068    0.00003761
     atom    2 type  1   force =    -0.00044867   -0.01445545    0.00004264
     atom    3 type  1   force =    -0.00029645    0.01635064   -0.00004482
     atom    4 type  1   force =     0.00036280    0.01571660   -0.00003548
     The ionic contribution  to forces
     atom    1 type  1   force =     0.01409532   -0.13334639    0.00000000
     atom    2 type  1   force =    -0.00871128    0.12424293    0.00000000
     atom    3 type  1   force =    -0.00931754   -0.02578507    0.00000000
     atom    4 type  1   force =     0.00393351    0.03488853    0.00000000
     The local contribution  to forces
     atom    1 type  1   force =    -0.01450584    0.15136893   -0.00008154
     atom    2 type  1   force =     0.00918766   -0.10947716   -0.00009117
     atom    3 type  1   force =     0.00963392    0.00900683    0.00009380
     atom    4 type  1   force =    -0.00431680   -0.05090437    0.00007621
     The core correction contribution to forces
     atom    1 type  1   force =    -0.00002483    0.00052345   -0.00000028
     atom    2 type  1   force =     0.00002090    0.00031778   -0.00000042
     atom    3 type  1   force =     0.00001777   -0.00042803    0.00000079
     atom    4 type  1   force =    -0.00001380   -0.00041335    0.00000053
     The Hubbard contrib.    to forces
     atom    1 type  1   force =     0.00000000    0.00000000    0.00000000
     atom    2 type  1   force =     0.00000000    0.00000000    0.00000000
     atom    3 type  1   force =     0.00000000    0.00000000    0.00000000
     atom    4 type  1   force =     0.00000000    0.00000000    0.00000000
     The SCF correction term to forces
     atom    1 type  1   force =     0.00000617   -0.00015463    0.00010375
     atom    2 type  1   force =    -0.00000075    0.00012549    0.00011967
     atom    3 type  1   force =    -0.00000347    0.00001016   -0.00012283
     atom    4 type  1   force =    -0.00000041    0.00001900   -0.00009393

     Total force =     0.001553     Total SCF correction =     0.000299
     SCF correction compared to forces is large: reduce conv_thr to get better values

     Writing all to output data dir ./ZnO_ANN.save/

     General routines

     Parallel routines

   This run was terminated on:   9: 3: 0   2Jul2025

   JOB DONE.