     Program PWSCF v.7.2 starts on  2Jul2025 at  9: 5:47

     Reading input from ZnO-002.in
Warning: card   O   0.6666666667000000  0.1666666666500000  0.8796764146000000 ignored
Warning: card   O   0.6666666667000001  0.6666666666500000  0.8796764146000000 ignored
Warning: card   O   0.3333333333000000  0.3333333333500000  0.3796764146000000 ignored
Warning: card   O   0.3333333332999999  0.8333333333499999  0.3796764146000000 ignored

     Current dimensions of program PWSCF are:
     Max number of different atomic species (ntypx) = 10
     Max number of k-points (npk) =  40000
     Max angular momentum in pseudopotentials (lmaxx) =  4
     file Zn.upf: wavefunction(s)  3D renormalized

     K-points division:     npool     =       2
     R & G space division:  proc/nbgrp/npool/nimage =       8
     Subspace diagonalization in iterative solution of the eigenvalue problem:
     a serial algorithm will be used

     Using Slab Decomposition

     bravais-lattice index     =            0
     lattice parameter (alat)  =       6.1788  a.u.
     unit-cell volume          =     659.5954 (a.u.)^3
     number of atoms/cell      =            4
     number of atomic types    =            2
     number of electrons       =        48.00
     number of Kohn-Sham states=           24
     kinetic-energy cutoff     =      50.0000  Ry
     charge density cutoff     =     400.0000  Ry
     scf convergence threshold =      1.0E-08
     mixing beta               =       0.3000
     number of iterations used =            8  plain     mixing
     Exchange-correlation= PBE
                           (   1   4   3   4   0   0   0)

     celldm(1)=   6.178822  celldm(2)=   0.000000  celldm(3)=   0.000000
     celldm(4)=   0.000000  celldm(5)=   0.000000  celldm(6)=   0.000000

     crystal axes: (cart. coord. in units of alat)
               a(1) = (   1.000000   0.000000   0.000000 )
               a(2) = (  -1.000000   1.732051   0.000000 )
               a(3) = (   0.000000   0.000000   1.614358 )

     reciprocal axes: (cart. coord. in units 2 pi/alat)
               b(1) = (  1.000000  0.577350 -0.000000 )
               b(2) = (  0.000000  0.577350  0.000000 )
               b(3) = (  0.000000 -0.000000  0.619441 )

     PseudoPot. # 1 for Zn read from file:
     ../../../pseudos/Zn.upf
     MD5 check sum: 7f56cabf9682ed8c977c2f7d0c5985c5
     Pseudo is Ultrasoft + core correction, Zval = 12.0
     Generated using &quot;atomic&quot; code by A. Dal Corso  v.6.2.2
     Using radial grid of 1201 points,  6 beta functions with:
                l(1) =   0
                l(2) =   0
                l(3) =   1
                l(4) =   1
                l(5) =   2
                l(6) =   2
     Q(r) pseudized with 0 coefficients

     PseudoPot. # 2 for O  read from file:
     ../../../pseudos/O.upf
     MD5 check sum: 91400c9766925bcf19f520983a725ff0
     Pseudo is Ultrasoft + core correction, Zval =  6.0
     Generated using &quot;atomic&quot; code by A. Dal Corso  v.6.3MaX
     Using radial grid of 1095 points,  4 beta functions with:
                l(1) =   0
                l(2) =   0
                l(3) =   1
                l(4) =   1
     Q(r) pseudized with 0 coefficients

     atomic species   valence    mass     pseudopotential
        Zn            12.00    65.38000     Zn( 1.00)
        O              6.00    15.99940     O ( 1.00)

     No symmetry found

   Cartesian axes

     site n.     atom                  positions (alat units)
         1           Zn  tau(   1) = (   0.5016184   0.2858719   0.8082020  )
         2           Zn  tau(   2) = (   0.0000000   1.1547005   0.8082020  )
         3           Zn  tau(   3) = (   0.0000000   0.5773503   0.0010228  )
         4           Zn  tau(   4) = (  -0.5000000   1.4433757   0.0010228  )

     number of k points=   112

     Number of k-points >= 100: set verbosity='high' to print them.

     Check: negative core charge=   -0.000002

     Initial potential from superposition of free atoms

     starting charge      47.9851, renormalised to      48.0000
     Starting wfcs are   36 randomized atomic wfcs

     Self-consistent Calculation

     iteration #  1     ecut=    50.00 Ry     beta= 0.30
     Davidson diagonalization with overlap
     ethr =  1.00E-02,  avg # of iterations =  1.5

     Threshold (ethr) on eigenvalues was too large:
     Diagonalizing with lowered threshold

     Davidson diagonalization with overlap
     ethr =  1.81E-04,  avg # of iterations =  4.0

     total energy              =    -593.21337765 Ry
     estimated scf accuracy    <       0.07807887 Ry

[...]

     total energy              =    -593.22860760 Ry
     estimated scf accuracy    <       0.00000008 Ry

     iteration # 12     ecut=    50.00 Ry     beta= 0.30
     Davidson diagonalization with overlap
     ethr =  1.60E-10,  avg # of iterations =  2.5

     End of self-consistent calculation

     Number of k-points >= 100: set verbosity='high' to print the bands.

     highest occupied level (ev):     5.9579

!    total energy              =    -593.22860760 Ry
     estimated scf accuracy    <          6.4E-09 Ry

     The total energy is the sum of the following terms:
     one-electron contribution =    -318.53944744 Ry
     hartree contribution      =     216.96943714 Ry
     xc contribution           =    -188.29713452 Ry
     ewald contribution        =    -303.36146278 Ry

     convergence has been achieved in  12 iterations

     Forces acting on atoms (cartesian axes, Ry/au):

     atom    1 type  1   force =     0.00005138    0.00068882    0.00000030
     atom    2 type  1   force =    -0.00004825    0.00087256   -0.00000768
     atom    3 type  1   force =    -0.00003840   -0.00070798    0.00000541
     atom    4 type  1   force =     0.00003527   -0.00085340    0.00000197
     The non-local contrib.  to forces
     atom    1 type  1   force =    -0.00038415   -0.01450737   -0.00000544
     atom    2 type  1   force =     0.00045158   -0.01748938    0.00002270
     atom    3 type  1   force =     0.00029428    0.01566878   -0.00001168
     atom    4 type  1   force =    -0.00036674    0.01633987    0.00000138
     The ionic contribution  to forces
     atom    1 type  1   force =    -0.01390308    0.13345738    0.00000000
     atom    2 type  1   force =     0.00871128   -0.12424293    0.00000000
     atom    3 type  1   force =     0.00920137    0.02523421    0.00000000
     atom    4 type  1   force =    -0.00400956   -0.03444866    0.00000000
     The local contribution  to forces
     atom    1 type  1   force =     0.01431429   -0.11857114    0.00000594
     atom    2 type  1   force =    -0.00919038    0.14209555   -0.00002504
     atom    3 type  1   force =    -0.00951454   -0.04120582    0.00001184
     atom    4 type  1   force =     0.00439784    0.01767030   -0.00000317
     The core correction contribution to forces
     atom    1 type  1   force =     0.00002461    0.00030974    0.00000029
     atom    2 type  1   force =    -0.00002100    0.00051163   -0.00000047
     atom    3 type  1   force =    -0.00001752   -0.00040272    0.00000045
     atom    4 type  1   force =     0.00001407   -0.00041890    0.00000014
     The Hubbard contrib.    to forces
     atom    1 type  1   force =     0.00000000    0.00000000    0.00000000
     atom    2 type  1   force =     0.00000000    0.00000000    0.00000000
     atom    3 type  1   force =     0.00000000    0.00000000    0.00000000
     atom    4 type  1   force =     0.00000000    0.00000000    0.00000000
     The SCF correction term to forces
     atom    1 type  1   force =    -0.00000090   -0.00000014   -0.00000013
     atom    2 type  1   force =    -0.00000035   -0.00000265   -0.00000451
     atom    3 type  1   force =    -0.00000261   -0.00000278    0.00000516
     atom    4 type  1   force =    -0.00000095    0.00000364    0.00000398

     Total force =     0.001573     Total SCF correction =     0.000010

     Writing all to output data dir ./ZnO_ANN.save/

     General routines

     Parallel routines

   This run was terminated on:   9: 7: 2   2Jul2025

   JOB DONE.