     Program PWSCF v.7.2 starts on 13Jul2025 at 14:56:27

     Reading input from /home/jvc/QEspresso7.2/ZnO_database/scripts/cell112.in/ZnO-3.40-1.45-112.in
Warning: card &CELL ignored
Warning: card / ignored
Warning: card &FCP ignored
Warning: card / ignored
Warning: card &RISM ignored
Warning: card / ignored

     Current dimensions of program PWSCF are:
     Max number of different atomic species (ntypx) = 10
     Max number of k-points (npk) =  40000
     Max angular momentum in pseudopotentials (lmaxx) =  4
     file Zn.upf: wavefunction(s)  3D renormalized
     Found identity + (  0.0000  0.0000 -0.5000) symmetry
     This is a supercell, fractional translations are disabled
     Message from routine setup:
     using ibrav=0 with symmetry is DISCOURAGED, use correct ibrav instead

     K-points division:     npool     =       2
     R & G space division:  proc/nbgrp/npool/nimage =       4
     Subspace diagonalization in iterative solution of the eigenvalue problem:
     a serial algorithm will be used

     Using Slab Decomposition

     bravais-lattice index     =            0
     lattice parameter (alat)  =       6.4260  a.u.
     unit-cell volume          =     667.7700 (a.u.)^3
     number of atoms/cell      =            8
     number of atomic types    =            2
     number of electrons       =        72.00
     number of Kohn-Sham states=           36
     kinetic-energy cutoff     =      50.0000  Ry
     charge density cutoff     =     400.0000  Ry
     scf convergence threshold =      1.0E-08
     mixing beta               =       0.3000
     number of iterations used =            8  plain     mixing
     Exchange-correlation= PBE
                           (   1   4   3   4   0   0   0)

     celldm(1)=   6.426008  celldm(2)=   0.000000  celldm(3)=   0.000000
     celldm(4)=   0.000000  celldm(5)=   0.000000  celldm(6)=   0.000000

     crystal axes: (cart. coord. in units of alat)
               a(1) = (   1.000000   0.000000   0.000000 )
               a(2) = (  -0.500000   0.866025   0.000000 )
               a(3) = (   0.000000   0.000000   2.905845 )

     reciprocal axes: (cart. coord. in units 2 pi/alat)
               b(1) = (  1.000000  0.577350 -0.000000 )
               b(2) = (  0.000000  1.154701  0.000000 )
               b(3) = (  0.000000 -0.000000  0.344134 )

     PseudoPot. # 1 for Zn read from file:
     /home/jvc/QEspresso7.2/ZnO_database/pseudos/Zn.upf
     MD5 check sum: 7f56cabf9682ed8c977c2f7d0c5985c5
     Pseudo is Ultrasoft + core correction, Zval = 12.0
     Generated using &quot;atomic&quot; code by A. Dal Corso  v.6.2.2
     Using radial grid of 1201 points,  6 beta functions with:
                l(1) =   0
                l(2) =   0
                l(3) =   1
                l(4) =   1
                l(5) =   2
                l(6) =   2
     Q(r) pseudized with 0 coefficients

     PseudoPot. # 2 for O  read from file:
     /home/jvc/QEspresso7.2/ZnO_database/pseudos/O.upf
     MD5 check sum: 91400c9766925bcf19f520983a725ff0
     Pseudo is Ultrasoft + core correction, Zval =  6.0
     Generated using &quot;atomic&quot; code by A. Dal Corso  v.6.3MaX
     Using radial grid of 1095 points,  4 beta functions with:
                l(1) =   0
                l(2) =   0
                l(3) =   1
                l(4) =   1
     Q(r) pseudized with 0 coefficients

     atomic species   valence    mass     pseudopotential
        Zn            12.00    65.38000     Zn( 1.00)
        O              6.00    15.99900     O ( 1.00)

      6 Sym. Ops. (no inversion) found

                                    s                        frac. trans.

      isym =  1     identity

 cryst.   s( 1) = (     1          0          0      )
                  (     0          1          0      )
                  (     0          0          1      )

 cart.    s( 1) = (  1.0000000  0.0000000  0.0000000 )
                  (  0.0000000  1.0000000  0.0000000 )
                  (  0.0000000  0.0000000  1.0000000 )

      isym =  2     120 deg rotation - cryst. axis [0,0,1]

[...]

      isym =  3     120 deg rotation - cryst. axis [0,0,-1]

[...]

      isym =  4     inv. 180 deg rotation - cart. axis [1,0,0]

[...]

      isym =  5     inv. 180 deg rotation - cryst. axis [0,1,0]

[...]

      isym =  6     inv. 180 deg rotation - cryst. axis [1,1,0]

 cryst.   s( 6) = (     0         -1          0      )
                  (    -1          0          0      )
                  (     0          0          1      )

 cart.    s( 6) = (  0.5000000 -0.8660254  0.0000000 )
                  ( -0.8660254 -0.5000000  0.0000000 )
                  (  0.0000000  0.0000000  1.0000000 )

   Cartesian axes

     site n.     atom                  positions (alat units)
         1           Zn  tau(   1) = (   0.0000000   0.0000000   0.0000000  )
         2           O   tau(   2) = (  -0.0000000   0.5773503   0.1338080  )
         3           Zn  tau(   3) = (  -0.0000000   0.5773503   0.7264613  )
         4           O   tau(   4) = (   0.0000000   0.0000000   0.8602692  )
         5           Zn  tau(   5) = (   0.0000000   0.0000000   1.4529225  )
         6           O   tau(   6) = (  -0.0000000   0.5773503   1.5867305  )
         7           Zn  tau(   7) = (  -0.0000000   0.5773503   2.1793838  )
         8           O   tau(   8) = (   0.0000000   0.0000000   2.3131918  )

   Crystallographic axes

     site n.     atom                  positions (cryst. coord.)
         1           Zn  tau(   1) = (  0.0000000  0.0000000  0.0000000  )
         2           O   tau(   2) = (  0.3333333  0.6666667  0.0460479  )
         3           Zn  tau(   3) = (  0.3333333  0.6666667  0.2500000  )
         4           O   tau(   4) = (  0.0000000  0.0000000  0.2960479  )
         5           Zn  tau(   5) = (  0.0000000  0.0000000  0.5000000  )
         6           O   tau(   6) = (  0.3333333  0.6666667  0.5460479  )
         7           Zn  tau(   7) = (  0.3333333  0.6666667  0.7500000  )
         8           O   tau(   8) = (  0.0000000  0.0000000  0.7960479  )

     number of k points=    34
                       cart. coord. in units 2pi/alat
        k(    1) = (   0.0000000   0.0000000   0.0000000), wk =   0.0092593
        k(    2) = (   0.0000000   0.0000000   0.0573557), wk =   0.0185185
        k(    3) = (   0.0000000   0.0000000   0.1147113), wk =   0.0185185
        k(    4) = (   0.0000000   0.0000000  -0.1720670), wk =   0.0092593
        k(    5) = (   0.0000000   0.1924501   0.0000000), wk =   0.0555556
        k(    6) = (   0.0000000   0.1924501   0.0573557), wk =   0.0555556
        k(    7) = (   0.0000000   0.1924501   0.1147113), wk =   0.0555556
        k(    8) = (   0.0000000   0.1924501  -0.1720670), wk =   0.0555556
        k(    9) = (   0.0000000   0.3849002   0.0000000), wk =   0.0555556
        k(   10) = (   0.0000000   0.3849002   0.0573557), wk =   0.0555556
        k(   11) = (   0.0000000   0.3849002   0.1147113), wk =   0.0555556
        k(   12) = (   0.0000000   0.3849002  -0.1720670), wk =   0.0555556
        k(   13) = (   0.0000000  -0.5773503   0.0000000), wk =   0.0277778
        k(   14) = (   0.0000000  -0.5773503   0.0573557), wk =   0.0555556
        k(   15) = (   0.0000000  -0.5773503   0.1147113), wk =   0.0555556
        k(   16) = (   0.0000000  -0.5773503  -0.1720670), wk =   0.0277778
        k(   17) = (   0.1666667   0.2886751   0.0000000), wk =   0.0555556
        k(   18) = (   0.1666667   0.2886751   0.0573557), wk =   0.1111111
        k(   19) = (   0.1666667   0.2886751   0.1147113), wk =   0.1111111
        k(   20) = (   0.1666667   0.2886751  -0.1720670), wk =   0.0555556
        k(   21) = (   0.1666667   0.4811252   0.0000000), wk =   0.1111111
        k(   22) = (   0.1666667   0.4811252   0.0573557), wk =   0.1111111
        k(   23) = (   0.1666667   0.4811252   0.1147113), wk =   0.1111111
        k(   24) = (   0.1666667   0.4811252  -0.1720670), wk =   0.1111111
        k(   25) = (   0.3333333   0.5773503   0.0000000), wk =   0.0185185
        k(   26) = (   0.3333333   0.5773503   0.0573557), wk =   0.0370370
        k(   27) = (   0.3333333   0.5773503   0.1147113), wk =   0.0370370
        k(   28) = (   0.3333333   0.5773503  -0.1720670), wk =   0.0185185
        k(   29) = (   0.0000000  -0.1924501   0.0573557), wk =   0.0555556
        k(   30) = (   0.0000000  -0.1924501   0.1147113), wk =   0.0555556
        k(   31) = (   0.0000000  -0.3849002   0.0573557), wk =   0.0555556
        k(   32) = (   0.0000000  -0.3849002   0.1147113), wk =   0.0555556
        k(   33) = (  -0.1666667  -0.4811252   0.0573557), wk =   0.1111111
        k(   34) = (  -0.1666667  -0.4811252   0.1147113), wk =   0.1111111

                       cryst. coord.
        k(    1) = (   0.0000000   0.0000000   0.0000000), wk =   0.0092593
        k(    2) = (   0.0000000   0.0000000   0.1666667), wk =   0.0185185
        k(    3) = (   0.0000000   0.0000000   0.3333333), wk =   0.0185185
        k(    4) = (   0.0000000   0.0000000  -0.5000000), wk =   0.0092593
        k(    5) = (   0.0000000   0.1666667   0.0000000), wk =   0.0555556
        k(    6) = (   0.0000000   0.1666667   0.1666667), wk =   0.0555556
        k(    7) = (   0.0000000   0.1666667   0.3333333), wk =   0.0555556
        k(    8) = (   0.0000000   0.1666667  -0.5000000), wk =   0.0555556
        k(    9) = (   0.0000000   0.3333333   0.0000000), wk =   0.0555556
        k(   10) = (   0.0000000   0.3333333   0.1666667), wk =   0.0555556
        k(   11) = (   0.0000000   0.3333333   0.3333333), wk =   0.0555556
        k(   12) = (   0.0000000   0.3333333  -0.5000000), wk =   0.0555556
        k(   13) = (   0.0000000  -0.5000000   0.0000000), wk =   0.0277778
        k(   14) = (   0.0000000  -0.5000000   0.1666667), wk =   0.0555556
        k(   15) = (   0.0000000  -0.5000000   0.3333333), wk =   0.0555556
        k(   16) = (   0.0000000  -0.5000000  -0.5000000), wk =   0.0277778
        k(   17) = (   0.1666667   0.1666667   0.0000000), wk =   0.0555556
        k(   18) = (   0.1666667   0.1666667   0.1666667), wk =   0.1111111
        k(   19) = (   0.1666667   0.1666667   0.3333333), wk =   0.1111111
        k(   20) = (   0.1666667   0.1666667  -0.5000000), wk =   0.0555556
        k(   21) = (   0.1666667   0.3333333   0.0000000), wk =   0.1111111
        k(   22) = (   0.1666667   0.3333333   0.1666667), wk =   0.1111111
        k(   23) = (   0.1666667   0.3333333   0.3333333), wk =   0.1111111
        k(   24) = (   0.1666667   0.3333333  -0.5000000), wk =   0.1111111
        k(   25) = (   0.3333333   0.3333333   0.0000000), wk =   0.0185185
        k(   26) = (   0.3333333   0.3333333   0.1666667), wk =   0.0370370
        k(   27) = (   0.3333333   0.3333333   0.3333333), wk =   0.0370370
        k(   28) = (   0.3333333   0.3333333  -0.5000000), wk =   0.0185185
        k(   29) = (   0.0000000  -0.1666667   0.1666667), wk =   0.0555556
        k(   30) = (   0.0000000  -0.1666667   0.3333333), wk =   0.0555556
        k(   31) = (   0.0000000  -0.3333333   0.1666667), wk =   0.0555556
        k(   32) = (   0.0000000  -0.3333333   0.3333333), wk =   0.0555556
        k(   33) = (  -0.1666667  -0.3333333   0.1666667), wk =   0.1111111
        k(   34) = (  -0.1666667  -0.3333333   0.3333333), wk =   0.1111111

     Check: negative core charge=   -0.000002

     Initial potential from superposition of free atoms

     starting charge      71.9851, renormalised to      72.0000
     Starting wfcs are   52 randomized atomic wfcs

     Self-consistent Calculation

     iteration #  1     ecut=    50.00 Ry     beta= 0.30
     Davidson diagonalization with overlap

     ethr =  1.00E-02,  avg # of iterations =  1.9

     total energy              =    -722.92888093 Ry
     estimated scf accuracy    <       1.41761871 Ry

[...]

     c_bands:  1 eigenvalues not converged
     c_bands:  1 eigenvalues not converged
     ethr =  5.50E-08,  avg # of iterations = 12.9

[...]

     total energy              =    -723.25869406 Ry
     estimated scf accuracy    <       0.00000003 Ry

     iteration # 26     ecut=    50.00 Ry     beta= 0.30
     Davidson diagonalization with overlap

     ethr =  3.77E-11,  avg # of iterations =  3.5

     End of self-consistent calculation

          k = 0.0000 0.0000 0.0000 (  4045 PWs)   bands (ev):

   -11.0414 -10.6400 -10.6400 -10.2286   1.1811   1.1811   1.1819   1.1819
     1.1886   1.1886   1.1886   1.1886   1.2845   1.2845   1.5476   1.7492
     2.2089   2.2089   2.3762   2.3762   2.3762   2.3762   2.4619   2.4619
     2.7572   4.6181   4.6181   5.8404   5.8404   6.2473   6.2473   6.2473
     6.2473   6.5085   6.6204   6.6204

     occupation numbers
     1.0000   1.0000   1.0000   1.0000   1.0000   1.0000   1.0000   1.0000
     1.0000   1.0000   1.0000   1.0000   1.0000   1.0000   1.0000   1.0000
     1.0000   1.0000   1.0000   1.0000   1.0000   1.0000   1.0000   1.0000
     1.0000   1.0000   1.0000   1.0000   1.0000   1.0000   1.0000   1.0000
     1.0000   1.0000   1.0000   1.0000

[...]

          k = 0.0000-0.3849 0.1147 (  3994 PWs)   bands (ev):

[...]

          k =-0.1667-0.4811 0.0574 (  3988 PWs)   bands (ev):

[...]

          k =-0.1667-0.4811 0.1147 (  3988 PWs)   bands (ev):

   -10.4202 -10.3621 -10.2274 -10.1879   0.9903   1.0557   1.1174   1.2857
     1.5032   1.5272   1.5936   1.6337   1.6960   1.7760   1.8577   1.9225
     2.2644   2.3391   2.3395   2.3591   2.4972   2.5023   2.6005   2.6334
     3.0544   3.1507   3.3731   3.4799   3.9207   4.2286   4.6524   4.9913
     5.2947   5.3646   5.7548   6.0097

     occupation numbers
     1.0000   1.0000   1.0000   1.0000   1.0000   1.0000   1.0000   1.0000
     1.0000   1.0000   1.0000   1.0000   1.0000   1.0000   1.0000   1.0000
     1.0000   1.0000   1.0000   1.0000   1.0000   1.0000   1.0000   1.0000
     1.0000   1.0000   1.0000   1.0000   1.0000   1.0000   1.0000   1.0000
     1.0000   1.0000   1.0000   1.0000

     highest occupied level (ev):     6.6204

!    total energy              =    -723.25869406 Ry
     estimated scf accuracy    <          7.1E-09 Ry

     The total energy is the sum of the following terms:
     one-electron contribution =    -311.83994029 Ry
     hartree contribution      =     237.58197241 Ry
     xc contribution           =    -219.01775068 Ry
     ewald contribution        =    -429.98297550 Ry

     convergence has been achieved in  26 iterations

     Forces acting on atoms (cartesian axes, Ry/au):

     atom    1 type  1   force =     0.00000000   -0.00000000    0.00040523
     atom    2 type  2   force =     0.00000000    0.00000000   -0.00040037
     atom    3 type  1   force =     0.00000000    0.00000000    0.00040691
     atom    4 type  2   force =     0.00000000    0.00000000   -0.00040508
     atom    5 type  1   force =     0.00000000   -0.00000000    0.00040308
     atom    6 type  2   force =     0.00000000    0.00000000   -0.00040268
     atom    7 type  1   force =     0.00000000    0.00000000    0.00039351
     atom    8 type  2   force =     0.00000000   -0.00000000   -0.00040061
     The non-local contrib.  to forces
     atom    1 type  1   force =     0.00000000    0.00000000    0.14865746
     atom    2 type  2   force =    -0.00000000   -0.00000000    0.12193384
     atom    3 type  1   force =     0.00000000   -0.00000000    0.14865626
     atom    4 type  2   force =     0.00000000    0.00000000    0.12193049
     atom    5 type  1   force =     0.00000000    0.00000000    0.14864994
     atom    6 type  2   force =     0.00000000    0.00000000    0.12193424
     atom    7 type  1   force =     0.00000000    0.00000000    0.14865223
     atom    8 type  2   force =     0.00000000    0.00000000    0.12193645
     The ionic contribution  to forces
     atom    1 type  1   force =    -0.00000000    0.00000000    0.97531450
     atom    2 type  2   force =     0.00000000   -0.00000000   -0.97531450
     atom    3 type  1   force =     0.00000000   -0.00000000    0.97531450
     atom    4 type  2   force =    -0.00000000    0.00000000   -0.97531450
     atom    5 type  1   force =    -0.00000000    0.00000000    0.97531450
     atom    6 type  2   force =     0.00000000   -0.00000000   -0.97531450
     atom    7 type  1   force =     0.00000000   -0.00000000    0.97531450
     atom    8 type  2   force =    -0.00000000    0.00000000   -0.97531450
     The local contribution  to forces
     atom    1 type  1   force =     0.00000000   -0.00000000   -1.11377308
     atom    2 type  2   force =     0.00000001   -0.00000001    0.85394303
     atom    3 type  1   force =     0.00000004   -0.00000003   -1.11377383
     atom    4 type  2   force =     0.00000000   -0.00000000    0.85394613
     atom    5 type  1   force =     0.00000000    0.00000000   -1.11376152
     atom    6 type  2   force =     0.00000001   -0.00000001    0.85395181
     atom    7 type  1   force =     0.00000004   -0.00000003   -1.11375905
     atom    8 type  2   force =     0.00000000    0.00000000    0.85395306
     The core correction contribution to forces
     atom    1 type  1   force =    -0.00000000   -0.00000000   -0.00979597
     atom    2 type  2   force =    -0.00000000    0.00000000   -0.00097935
     atom    3 type  1   force =     0.00000001   -0.00000000   -0.00979583
     atom    4 type  2   force =    -0.00000000    0.00000000   -0.00097928
     atom    5 type  1   force =    -0.00000000    0.00000000   -0.00979589
     atom    6 type  2   force =    -0.00000000    0.00000000   -0.00097932
     atom    7 type  1   force =     0.00000001   -0.00000000   -0.00979595
     atom    8 type  2   force =    -0.00000000    0.00000000   -0.00097937
     The Hubbard contrib.    to forces
     atom    1 type  1   force =     0.00000000    0.00000000    0.00000000
     atom    2 type  2   force =     0.00000000    0.00000000    0.00000000
     atom    3 type  1   force =     0.00000000    0.00000000    0.00000000
     atom    4 type  2   force =     0.00000000    0.00000000    0.00000000
     atom    5 type  1   force =     0.00000000    0.00000000    0.00000000
     atom    6 type  2   force =     0.00000000    0.00000000    0.00000000
     atom    7 type  1   force =     0.00000000    0.00000000    0.00000000
     atom    8 type  2   force =     0.00000000    0.00000000    0.00000000
     The SCF correction term to forces
     atom    1 type  1   force =    -0.00000000    0.00000000    0.00000198
     atom    2 type  2   force =     0.00000000   -0.00000000    0.00001627
     atom    3 type  1   force =     0.00000000   -0.00000000    0.00000546
     atom    4 type  2   force =    -0.00000000    0.00000000    0.00001174
     atom    5 type  1   force =    -0.00000000    0.00000000   -0.00000429
     atom    6 type  2   force =     0.00000000   -0.00000000    0.00000475
     atom    7 type  1   force =     0.00000000   -0.00000000   -0.00001856
     atom    8 type  2   force =    -0.00000000    0.00000000    0.00000340

     Total force =     0.001138     Total SCF correction =     0.000029

     General routines

     Parallel routines

   This run was terminated on:  15: 0:23  13Jul2025

   JOB DONE.
Note: The following floating-point exceptions are signalling: IEEE_INVALID_FLAG
Note: The following floating-point exceptions are signalling: IEEE_INVALID_FLAG