     Program PWSCF v.7.2 starts on 13Jul2025 at 11: 9:53

     Reading input from /home/jvc/QEspresso7.2/ZnO_database/scripts/cell112.in/ZnO-2.94-1.74-112.in
Warning: card &CELL ignored
Warning: card / ignored
Warning: card &FCP ignored
Warning: card / ignored
Warning: card &RISM ignored
Warning: card / ignored

     Current dimensions of program PWSCF are:
     Max number of different atomic species (ntypx) = 10
     Max number of k-points (npk) =  40000
     Max angular momentum in pseudopotentials (lmaxx) =  4
     file Zn.upf: wavefunction(s)  3D renormalized
     Found identity + (  0.0000  0.0000 -0.5000) symmetry
     This is a supercell, fractional translations are disabled
     Message from routine setup:
     using ibrav=0 with symmetry is DISCOURAGED, use correct ibrav instead

     K-points division:     npool     =       2
     R & G space division:  proc/nbgrp/npool/nimage =       4
     Subspace diagonalization in iterative solution of the eigenvalue problem:
     a serial algorithm will be used

     Using Slab Decomposition

     bravais-lattice index     =            0
     lattice parameter (alat)  =       5.5610  a.u.
     unit-cell volume          =     519.3207 (a.u.)^3
     number of atoms/cell      =            8
     number of atomic types    =            2
     number of electrons       =        72.00
     number of Kohn-Sham states=           36
     kinetic-energy cutoff     =      50.0000  Ry
     charge density cutoff     =     400.0000  Ry
     scf convergence threshold =      1.0E-08
     mixing beta               =       0.3000
     number of iterations used =            8  plain     mixing
     Exchange-correlation= PBE
                           (   1   4   3   4   0   0   0)

     celldm(1)=   5.560969  celldm(2)=   0.000000  celldm(3)=   0.000000
     celldm(4)=   0.000000  celldm(5)=   0.000000  celldm(6)=   0.000000

     crystal axes: (cart. coord. in units of alat)
               a(1) = (   1.000000   0.000000   0.000000 )
               a(2) = (  -0.500000   0.866025   0.000000 )
               a(3) = (   0.000000   0.000000   3.487014 )

     reciprocal axes: (cart. coord. in units 2 pi/alat)
               b(1) = (  1.000000  0.577350 -0.000000 )
               b(2) = (  0.000000  1.154701  0.000000 )
               b(3) = (  0.000000 -0.000000  0.286778 )

     PseudoPot. # 1 for Zn read from file:
     /home/jvc/QEspresso7.2/ZnO_database/pseudos/Zn.upf
     MD5 check sum: 7f56cabf9682ed8c977c2f7d0c5985c5
     Pseudo is Ultrasoft + core correction, Zval = 12.0
     Generated using &quot;atomic&quot; code by A. Dal Corso  v.6.2.2
     Using radial grid of 1201 points,  6 beta functions with:
                l(1) =   0
                l(2) =   0
                l(3) =   1
                l(4) =   1
                l(5) =   2
                l(6) =   2
     Q(r) pseudized with 0 coefficients

     PseudoPot. # 2 for O  read from file:
     /home/jvc/QEspresso7.2/ZnO_database/pseudos/O.upf
     MD5 check sum: 91400c9766925bcf19f520983a725ff0
     Pseudo is Ultrasoft + core correction, Zval =  6.0
     Generated using &quot;atomic&quot; code by A. Dal Corso  v.6.3MaX
     Using radial grid of 1095 points,  4 beta functions with:
                l(1) =   0
                l(2) =   0
                l(3) =   1
                l(4) =   1
     Q(r) pseudized with 0 coefficients

     atomic species   valence    mass     pseudopotential
        Zn            12.00    65.38000     Zn( 1.00)
        O              6.00    15.99900     O ( 1.00)

      6 Sym. Ops. (no inversion) found

                                    s                        frac. trans.

      isym =  1     identity

 cryst.   s( 1) = (     1          0          0      )
                  (     0          1          0      )
                  (     0          0          1      )

 cart.    s( 1) = (  1.0000000  0.0000000  0.0000000 )
                  (  0.0000000  1.0000000  0.0000000 )
                  (  0.0000000  0.0000000  1.0000000 )

      isym =  2     120 deg rotation - cryst. axis [0,0,1]

[...]

      isym =  3     120 deg rotation - cryst. axis [0,0,-1]

[...]

      isym =  4     inv. 180 deg rotation - cart. axis [1,0,0]

[...]

      isym =  5     inv. 180 deg rotation - cryst. axis [0,1,0]

[...]

      isym =  6     inv. 180 deg rotation - cryst. axis [1,1,0]

 cryst.   s( 6) = (     0         -1          0      )
                  (    -1          0          0      )
                  (     0          0          1      )

 cart.    s( 6) = (  0.5000000 -0.8660254  0.0000000 )
                  ( -0.8660254 -0.5000000  0.0000000 )
                  (  0.0000000  0.0000000  1.0000000 )

   Cartesian axes

     site n.     atom                  positions (alat units)
         1           Zn  tau(   1) = (   0.0000000   0.0000000   0.0000000  )
         2           O   tau(   2) = (  -0.0000000   0.5773503   0.2446912  )
         3           Zn  tau(   3) = (  -0.0000000   0.5773503   0.8717535  )
         4           O   tau(   4) = (   0.0000000   0.0000000   1.1164447  )
         5           Zn  tau(   5) = (   0.0000000   0.0000000   1.7435070  )
         6           O   tau(   6) = (  -0.0000000   0.5773503   1.9881982  )
         7           Zn  tau(   7) = (  -0.0000000   0.5773503   2.6152605  )
         8           O   tau(   8) = (   0.0000000   0.0000000   2.8599518  )

   Crystallographic axes

     site n.     atom                  positions (cryst. coord.)
         1           Zn  tau(   1) = (  0.0000000  0.0000000  0.0000000  )
         2           O   tau(   2) = (  0.3333333  0.6666667  0.0701721  )
         3           Zn  tau(   3) = (  0.3333333  0.6666667  0.2500000  )
         4           O   tau(   4) = (  0.0000000  0.0000000  0.3201721  )
         5           Zn  tau(   5) = (  0.0000000  0.0000000  0.5000000  )
         6           O   tau(   6) = (  0.3333333  0.6666667  0.5701721  )
         7           Zn  tau(   7) = (  0.3333333  0.6666667  0.7500000  )
         8           O   tau(   8) = (  0.0000000  0.0000000  0.8201721  )

     number of k points=    34
                       cart. coord. in units 2pi/alat
        k(    1) = (   0.0000000   0.0000000   0.0000000), wk =   0.0092593
        k(    2) = (   0.0000000   0.0000000   0.0477964), wk =   0.0185185
        k(    3) = (   0.0000000   0.0000000   0.0955928), wk =   0.0185185
        k(    4) = (   0.0000000   0.0000000  -0.1433892), wk =   0.0092593
        k(    5) = (   0.0000000   0.1924501   0.0000000), wk =   0.0555556
        k(    6) = (   0.0000000   0.1924501   0.0477964), wk =   0.0555556
        k(    7) = (   0.0000000   0.1924501   0.0955928), wk =   0.0555556
        k(    8) = (   0.0000000   0.1924501  -0.1433892), wk =   0.0555556
        k(    9) = (   0.0000000   0.3849002   0.0000000), wk =   0.0555556
        k(   10) = (   0.0000000   0.3849002   0.0477964), wk =   0.0555556
        k(   11) = (   0.0000000   0.3849002   0.0955928), wk =   0.0555556
        k(   12) = (   0.0000000   0.3849002  -0.1433892), wk =   0.0555556
        k(   13) = (   0.0000000  -0.5773503   0.0000000), wk =   0.0277778
        k(   14) = (   0.0000000  -0.5773503   0.0477964), wk =   0.0555556
        k(   15) = (   0.0000000  -0.5773503   0.0955928), wk =   0.0555556
        k(   16) = (   0.0000000  -0.5773503  -0.1433892), wk =   0.0277778
        k(   17) = (   0.1666667   0.2886751   0.0000000), wk =   0.0555556
        k(   18) = (   0.1666667   0.2886751   0.0477964), wk =   0.1111111
        k(   19) = (   0.1666667   0.2886751   0.0955928), wk =   0.1111111
        k(   20) = (   0.1666667   0.2886751  -0.1433892), wk =   0.0555556
        k(   21) = (   0.1666667   0.4811252   0.0000000), wk =   0.1111111
        k(   22) = (   0.1666667   0.4811252   0.0477964), wk =   0.1111111
        k(   23) = (   0.1666667   0.4811252   0.0955928), wk =   0.1111111
        k(   24) = (   0.1666667   0.4811252  -0.1433892), wk =   0.1111111
        k(   25) = (   0.3333333   0.5773503   0.0000000), wk =   0.0185185
        k(   26) = (   0.3333333   0.5773503   0.0477964), wk =   0.0370370
        k(   27) = (   0.3333333   0.5773503   0.0955928), wk =   0.0370370
        k(   28) = (   0.3333333   0.5773503  -0.1433892), wk =   0.0185185
        k(   29) = (   0.0000000  -0.1924501   0.0477964), wk =   0.0555556
        k(   30) = (   0.0000000  -0.1924501   0.0955928), wk =   0.0555556
        k(   31) = (   0.0000000  -0.3849002   0.0477964), wk =   0.0555556
        k(   32) = (   0.0000000  -0.3849002   0.0955928), wk =   0.0555556
        k(   33) = (  -0.1666667  -0.4811252   0.0477964), wk =   0.1111111
        k(   34) = (  -0.1666667  -0.4811252   0.0955928), wk =   0.1111111

                       cryst. coord.
        k(    1) = (   0.0000000   0.0000000   0.0000000), wk =   0.0092593
        k(    2) = (   0.0000000   0.0000000   0.1666667), wk =   0.0185185
        k(    3) = (   0.0000000   0.0000000   0.3333333), wk =   0.0185185
        k(    4) = (   0.0000000   0.0000000  -0.5000000), wk =   0.0092593
        k(    5) = (   0.0000000   0.1666667   0.0000000), wk =   0.0555556
        k(    6) = (   0.0000000   0.1666667   0.1666667), wk =   0.0555556
        k(    7) = (   0.0000000   0.1666667   0.3333333), wk =   0.0555556
        k(    8) = (   0.0000000   0.1666667  -0.5000000), wk =   0.0555556
        k(    9) = (   0.0000000   0.3333333   0.0000000), wk =   0.0555556
        k(   10) = (   0.0000000   0.3333333   0.1666667), wk =   0.0555556
        k(   11) = (   0.0000000   0.3333333   0.3333333), wk =   0.0555556
        k(   12) = (   0.0000000   0.3333333  -0.5000000), wk =   0.0555556
        k(   13) = (   0.0000000  -0.5000000   0.0000000), wk =   0.0277778
        k(   14) = (   0.0000000  -0.5000000   0.1666667), wk =   0.0555556
        k(   15) = (   0.0000000  -0.5000000   0.3333333), wk =   0.0555556
        k(   16) = (   0.0000000  -0.5000000  -0.5000000), wk =   0.0277778
        k(   17) = (   0.1666667   0.1666667   0.0000000), wk =   0.0555556
        k(   18) = (   0.1666667   0.1666667   0.1666667), wk =   0.1111111
        k(   19) = (   0.1666667   0.1666667   0.3333333), wk =   0.1111111
        k(   20) = (   0.1666667   0.1666667  -0.5000000), wk =   0.0555556
        k(   21) = (   0.1666667   0.3333333   0.0000000), wk =   0.1111111
        k(   22) = (   0.1666667   0.3333333   0.1666667), wk =   0.1111111
        k(   23) = (   0.1666667   0.3333333   0.3333333), wk =   0.1111111
        k(   24) = (   0.1666667   0.3333333  -0.5000000), wk =   0.1111111
        k(   25) = (   0.3333333   0.3333333   0.0000000), wk =   0.0185185
        k(   26) = (   0.3333333   0.3333333   0.1666667), wk =   0.0370370
        k(   27) = (   0.3333333   0.3333333   0.3333333), wk =   0.0370370
        k(   28) = (   0.3333333   0.3333333  -0.5000000), wk =   0.0185185
        k(   29) = (   0.0000000  -0.1666667   0.1666667), wk =   0.0555556
        k(   30) = (   0.0000000  -0.1666667   0.3333333), wk =   0.0555556
        k(   31) = (   0.0000000  -0.3333333   0.1666667), wk =   0.0555556
        k(   32) = (   0.0000000  -0.3333333   0.3333333), wk =   0.0555556
        k(   33) = (  -0.1666667  -0.3333333   0.1666667), wk =   0.1111111
        k(   34) = (  -0.1666667  -0.3333333   0.3333333), wk =   0.1111111

     Check: negative core charge=   -0.000001

     Initial potential from superposition of free atoms

     starting charge      71.9851, renormalised to      72.0000
     Starting wfcs are   52 randomized atomic wfcs

     Self-consistent Calculation

     iteration #  1     ecut=    50.00 Ry     beta= 0.30
     Davidson diagonalization with overlap

     ethr =  1.00E-02,  avg # of iterations =  2.0

     total energy              =    -722.78475968 Ry
     estimated scf accuracy    <       1.34271407 Ry

[...]

     total energy              =    -723.05046022 Ry
     estimated scf accuracy    <       0.00000004 Ry

     iteration # 26     ecut=    50.00 Ry     beta= 0.30
     Davidson diagonalization with overlap

     ethr =  5.12E-11,  avg # of iterations =  4.6

     End of self-consistent calculation

          k = 0.0000 0.0000 0.0000 (  3115 PWs)   bands (ev):

    -9.1655  -8.7045  -8.7045  -8.1976   3.0399   3.2047   3.2047   3.6329
     3.9931   3.9931   4.1315   4.1315   4.1315   4.1315   4.3205   4.3205
     5.7763   5.7763   5.9378   5.9378   5.9378   5.9378   6.0602   6.0602
     6.3165   8.1669   8.1669   9.8473   9.8473  10.3813  10.3813  10.3813
    10.3813  10.6670  10.9116  10.9116

     occupation numbers
     1.0000   1.0000   1.0000   1.0000   1.0000   1.0000   1.0000   1.0000
     1.0000   1.0000   1.0000   1.0000   1.0000   1.0000   1.0000   1.0000
     1.0000   1.0000   1.0000   1.0000   1.0000   1.0000   1.0000   1.0000
     1.0000   1.0000   1.0000   1.0000   1.0000   1.0000   1.0000   1.0000
     1.0000   1.0000   1.0000   1.0000

[...]

          k = 0.0000-0.3849 0.0956 (  3105 PWs)   bands (ev):

[...]

          k =-0.1667-0.4811 0.0478 (  3099 PWs)   bands (ev):

[...]

          k =-0.1667-0.4811 0.0956 (  3102 PWs)   bands (ev):

    -8.0503  -7.9895  -7.8340  -7.7816   3.2793   3.3757   3.3769   3.5855
     4.1030   4.1161   4.2742   4.3236   4.5963   4.6444   4.7936   4.9167
     5.6725   5.7726   5.8671   5.9546   6.1983   6.2138   6.3444   6.4189
     6.5103   6.6659   7.1753   7.1790   7.5363   7.8934   7.9295   8.2873
     8.9976   9.1053   9.2720   9.5211

     occupation numbers
     1.0000   1.0000   1.0000   1.0000   1.0000   1.0000   1.0000   1.0000
     1.0000   1.0000   1.0000   1.0000   1.0000   1.0000   1.0000   1.0000
     1.0000   1.0000   1.0000   1.0000   1.0000   1.0000   1.0000   1.0000
     1.0000   1.0000   1.0000   1.0000   1.0000   1.0000   1.0000   1.0000
     1.0000   1.0000   1.0000   1.0000

     highest occupied level (ev):    10.9116

!    total energy              =    -723.05046023 Ry
     estimated scf accuracy    <          1.8E-09 Ry

     The total energy is the sum of the following terms:
     one-electron contribution =    -250.88279170 Ry
     hartree contribution      =     216.21333873 Ry
     xc contribution           =    -220.17578367 Ry
     ewald contribution        =    -468.20522358 Ry

     convergence has been achieved in  26 iterations

     Forces acting on atoms (cartesian axes, Ry/au):

     atom    1 type  1   force =     0.00000000    0.00000000   -0.01635915
     atom    2 type  2   force =     0.00000000    0.00000000    0.01635343
     atom    3 type  1   force =     0.00000000    0.00000000   -0.01635603
     atom    4 type  2   force =     0.00000000    0.00000000    0.01635169
     atom    5 type  1   force =     0.00000000    0.00000000   -0.01635189
     atom    6 type  2   force =     0.00000000    0.00000000    0.01635256
     atom    7 type  1   force =     0.00000000    0.00000000   -0.01634519
     atom    8 type  2   force =     0.00000000    0.00000000    0.01635459
     The non-local contrib.  to forces
     atom    1 type  1   force =     0.00000000    0.00000000   -0.11135797
     atom    2 type  2   force =     0.00000000    0.00000000   -0.08016090
     atom    3 type  1   force =     0.00000000    0.00000000   -0.11135120
     atom    4 type  2   force =     0.00000000    0.00000000   -0.08016839
     atom    5 type  1   force =     0.00000000    0.00000000   -0.11134146
     atom    6 type  2   force =     0.00000000    0.00000000   -0.08016579
     atom    7 type  1   force =     0.00000000    0.00000000   -0.11134705
     atom    8 type  2   force =     0.00000000    0.00000000   -0.08016144
     The ionic contribution  to forces
     atom    1 type  1   force =    -0.00000000    0.00000000   -1.08153696
     atom    2 type  2   force =     0.00000000   -0.00000000    1.08153696
     atom    3 type  1   force =     0.00000000   -0.00000000   -1.08153696
     atom    4 type  2   force =    -0.00000000    0.00000000    1.08153696
     atom    5 type  1   force =    -0.00000000    0.00000000   -1.08153696
     atom    6 type  2   force =     0.00000000   -0.00000000    1.08153696
     atom    7 type  1   force =     0.00000000   -0.00000000   -1.08153696
     atom    8 type  2   force =    -0.00000000    0.00000000    1.08153696
     The local contribution  to forces
     atom    1 type  1   force =    -0.00000000    0.00000000    1.16858909
     atom    2 type  2   force =     0.00000001   -0.00000001   -0.98554304
     atom    3 type  1   force =     0.00000004   -0.00000002    1.16858357
     atom    4 type  2   force =    -0.00000000    0.00000000   -0.98553440
     atom    5 type  1   force =    -0.00000000    0.00000000    1.16858093
     atom    6 type  2   force =     0.00000001   -0.00000001   -0.98553839
     atom    7 type  1   force =     0.00000004   -0.00000002    1.16858441
     atom    8 type  2   force =    -0.00000000    0.00000000   -0.98553900
     The core correction contribution to forces
     atom    1 type  1   force =    -0.00000000    0.00000000    0.00794842
     atom    2 type  2   force =    -0.00000000    0.00000000    0.00050530
     atom    3 type  1   force =     0.00000001   -0.00000000    0.00795003
     atom    4 type  2   force =    -0.00000000    0.00000000    0.00050758
     atom    5 type  1   force =    -0.00000000    0.00000000    0.00794525
     atom    6 type  2   force =    -0.00000000    0.00000000    0.00050682
     atom    7 type  1   force =     0.00000001   -0.00000000    0.00794342
     atom    8 type  2   force =    -0.00000000    0.00000000    0.00050462
     The Hubbard contrib.    to forces
     atom    1 type  1   force =     0.00000000    0.00000000    0.00000000
     atom    2 type  2   force =     0.00000000    0.00000000    0.00000000
     atom    3 type  1   force =     0.00000000    0.00000000    0.00000000
     atom    4 type  2   force =     0.00000000    0.00000000    0.00000000
     atom    5 type  1   force =     0.00000000    0.00000000    0.00000000
     atom    6 type  2   force =     0.00000000    0.00000000    0.00000000
     atom    7 type  1   force =     0.00000000    0.00000000    0.00000000
     atom    8 type  2   force =     0.00000000    0.00000000    0.00000000
     The SCF correction term to forces
     atom    1 type  1   force =     0.00000000   -0.00000000   -0.00000297
     atom    2 type  2   force =    -0.00000000    0.00000000    0.00001387
     atom    3 type  1   force =    -0.00000000    0.00000000   -0.00000271
     atom    4 type  2   force =     0.00000000   -0.00000000    0.00000869
     atom    5 type  1   force =     0.00000000   -0.00000000   -0.00000089
     atom    6 type  2   force =    -0.00000000    0.00000000    0.00001172
     atom    7 type  1   force =    -0.00000000    0.00000000    0.00000975
     atom    8 type  2   force =     0.00000000   -0.00000000    0.00001221

     Total force =     0.046253     Total SCF correction =     0.000026

     General routines

     Parallel routines

   This run was terminated on:  11:11:51  13Jul2025

   JOB DONE.
Note: The following floating-point exceptions are signalling: IEEE_INVALID_FLAG
Note: The following floating-point exceptions are signalling: IEEE_INVALID_FLAG