     Program PWSCF v.7.2 starts on 13Jul2025 at 17:13: 9

     Reading input from /home/jvc/QEspresso7.2/ZnO_database/scripts/cell112.in/ZnO-3.53-1.71-112.in
Warning: card &CELL ignored
Warning: card / ignored
Warning: card &FCP ignored
Warning: card / ignored
Warning: card &RISM ignored
Warning: card / ignored

     Current dimensions of program PWSCF are:
     Max number of different atomic species (ntypx) = 10
     Max number of k-points (npk) =  40000
     Max angular momentum in pseudopotentials (lmaxx) =  4
     file Zn.upf: wavefunction(s)  3D renormalized
     Found identity + (  0.0000  0.0000 -0.5000) symmetry
     This is a supercell, fractional translations are disabled
     Message from routine setup:
     using ibrav=0 with symmetry is DISCOURAGED, use correct ibrav instead

     K-points division:     npool     =       2
     R & G space division:  proc/nbgrp/npool/nimage =       4
     Subspace diagonalization in iterative solution of the eigenvalue problem:
     a serial algorithm will be used

     Using Slab Decomposition

     bravais-lattice index     =            0
     lattice parameter (alat)  =       6.6732  a.u.
     unit-cell volume          =     880.7679 (a.u.)^3
     number of atoms/cell      =            8
     number of atomic types    =            2
     number of electrons       =        72.00
     number of Kohn-Sham states=           36
     kinetic-energy cutoff     =      50.0000  Ry
     charge density cutoff     =     400.0000  Ry
     scf convergence threshold =      1.0E-08
     mixing beta               =       0.3000
     number of iterations used =            8  plain     mixing
     Exchange-correlation= PBE
                           (   1   4   3   4   0   0   0)

     celldm(1)=   6.673162  celldm(2)=   0.000000  celldm(3)=   0.000000
     celldm(4)=   0.000000  celldm(5)=   0.000000  celldm(6)=   0.000000

     crystal axes: (cart. coord. in units of alat)
               a(1) = (   1.000000   0.000000   0.000000 )
               a(2) = (  -0.500000   0.866025   0.000000 )
               a(3) = (   0.000000   0.000000   3.422440 )

     reciprocal axes: (cart. coord. in units 2 pi/alat)
               b(1) = (  1.000000  0.577350 -0.000000 )
               b(2) = (  0.000000  1.154701  0.000000 )
               b(3) = (  0.000000 -0.000000  0.292189 )

     PseudoPot. # 1 for Zn read from file:
     /home/jvc/QEspresso7.2/ZnO_database/pseudos/Zn.upf
     MD5 check sum: 7f56cabf9682ed8c977c2f7d0c5985c5
     Pseudo is Ultrasoft + core correction, Zval = 12.0
     Generated using &quot;atomic&quot; code by A. Dal Corso  v.6.2.2
     Using radial grid of 1201 points,  6 beta functions with:
                l(1) =   0
                l(2) =   0
                l(3) =   1
                l(4) =   1
                l(5) =   2
                l(6) =   2
     Q(r) pseudized with 0 coefficients

     PseudoPot. # 2 for O  read from file:
     /home/jvc/QEspresso7.2/ZnO_database/pseudos/O.upf
     MD5 check sum: 91400c9766925bcf19f520983a725ff0
     Pseudo is Ultrasoft + core correction, Zval =  6.0
     Generated using &quot;atomic&quot; code by A. Dal Corso  v.6.3MaX
     Using radial grid of 1095 points,  4 beta functions with:
                l(1) =   0
                l(2) =   0
                l(3) =   1
                l(4) =   1
     Q(r) pseudized with 0 coefficients

     atomic species   valence    mass     pseudopotential
        Zn            12.00    65.38000     Zn( 1.00)
        O              6.00    15.99900     O ( 1.00)

      6 Sym. Ops. (no inversion) found

                                    s                        frac. trans.

      isym =  1     identity

 cryst.   s( 1) = (     1          0          0      )
                  (     0          1          0      )
                  (     0          0          1      )

 cart.    s( 1) = (  1.0000000  0.0000000  0.0000000 )
                  (  0.0000000  1.0000000  0.0000000 )
                  (  0.0000000  0.0000000  1.0000000 )

      isym =  2     120 deg rotation - cryst. axis [0,0,1]

[...]

      isym =  3     120 deg rotation - cryst. axis [0,0,-1]

[...]

      isym =  4     inv. 180 deg rotation - cart. axis [1,0,0]

[...]

      isym =  5     inv. 180 deg rotation - cryst. axis [0,1,0]

[...]

      isym =  6     inv. 180 deg rotation - cryst. axis [1,1,0]

 cryst.   s( 6) = (     0         -1          0      )
                  (    -1          0          0      )
                  (     0          0          1      )

 cart.    s( 6) = (  0.5000000 -0.8660254  0.0000000 )
                  ( -0.8660254 -0.5000000  0.0000000 )
                  (  0.0000000  0.0000000  1.0000000 )

   Cartesian axes

     site n.     atom                  positions (alat units)
         1           Zn  tau(   1) = (   0.0000000   0.0000000   0.0000000  )
         2           O   tau(   2) = (  -0.0000000   0.5773503   0.2330121  )
         3           Zn  tau(   3) = (  -0.0000000   0.5773503   0.8556099  )
         4           O   tau(   4) = (   0.0000000   0.0000000   1.0886221  )
         5           Zn  tau(   5) = (   0.0000000   0.0000000   1.7112199  )
         6           O   tau(   6) = (  -0.0000000   0.5773503   1.9442320  )
         7           Zn  tau(   7) = (  -0.0000000   0.5773503   2.5668298  )
         8           O   tau(   8) = (   0.0000000   0.0000000   2.7998419  )

   Crystallographic axes

     site n.     atom                  positions (cryst. coord.)
         1           Zn  tau(   1) = (  0.0000000  0.0000000  0.0000000  )
         2           O   tau(   2) = (  0.3333333  0.6666667  0.0680836  )
         3           Zn  tau(   3) = (  0.3333333  0.6666667  0.2500000  )
         4           O   tau(   4) = (  0.0000000  0.0000000  0.3180836  )
         5           Zn  tau(   5) = (  0.0000000  0.0000000  0.5000000  )
         6           O   tau(   6) = (  0.3333333  0.6666667  0.5680836  )
         7           Zn  tau(   7) = (  0.3333333  0.6666667  0.7500000  )
         8           O   tau(   8) = (  0.0000000  0.0000000  0.8180836  )

     number of k points=    34
                       cart. coord. in units 2pi/alat
        k(    1) = (   0.0000000   0.0000000   0.0000000), wk =   0.0092593
        k(    2) = (   0.0000000   0.0000000   0.0486982), wk =   0.0185185
        k(    3) = (   0.0000000   0.0000000   0.0973964), wk =   0.0185185
        k(    4) = (   0.0000000   0.0000000  -0.1460946), wk =   0.0092593
        k(    5) = (   0.0000000   0.1924501   0.0000000), wk =   0.0555556
        k(    6) = (   0.0000000   0.1924501   0.0486982), wk =   0.0555556
        k(    7) = (   0.0000000   0.1924501   0.0973964), wk =   0.0555556
        k(    8) = (   0.0000000   0.1924501  -0.1460946), wk =   0.0555556
        k(    9) = (   0.0000000   0.3849002   0.0000000), wk =   0.0555556
        k(   10) = (   0.0000000   0.3849002   0.0486982), wk =   0.0555556
        k(   11) = (   0.0000000   0.3849002   0.0973964), wk =   0.0555556
        k(   12) = (   0.0000000   0.3849002  -0.1460946), wk =   0.0555556
        k(   13) = (   0.0000000  -0.5773503   0.0000000), wk =   0.0277778
        k(   14) = (   0.0000000  -0.5773503   0.0486982), wk =   0.0555556
        k(   15) = (   0.0000000  -0.5773503   0.0973964), wk =   0.0555556
        k(   16) = (   0.0000000  -0.5773503  -0.1460946), wk =   0.0277778
        k(   17) = (   0.1666667   0.2886751   0.0000000), wk =   0.0555556
        k(   18) = (   0.1666667   0.2886751   0.0486982), wk =   0.1111111
        k(   19) = (   0.1666667   0.2886751   0.0973964), wk =   0.1111111
        k(   20) = (   0.1666667   0.2886751  -0.1460946), wk =   0.0555556
        k(   21) = (   0.1666667   0.4811252   0.0000000), wk =   0.1111111
        k(   22) = (   0.1666667   0.4811252   0.0486982), wk =   0.1111111
        k(   23) = (   0.1666667   0.4811252   0.0973964), wk =   0.1111111
        k(   24) = (   0.1666667   0.4811252  -0.1460946), wk =   0.1111111
        k(   25) = (   0.3333333   0.5773503   0.0000000), wk =   0.0185185
        k(   26) = (   0.3333333   0.5773503   0.0486982), wk =   0.0370370
        k(   27) = (   0.3333333   0.5773503   0.0973964), wk =   0.0370370
        k(   28) = (   0.3333333   0.5773503  -0.1460946), wk =   0.0185185
        k(   29) = (   0.0000000  -0.1924501   0.0486982), wk =   0.0555556
        k(   30) = (   0.0000000  -0.1924501   0.0973964), wk =   0.0555556
        k(   31) = (   0.0000000  -0.3849002   0.0486982), wk =   0.0555556
        k(   32) = (   0.0000000  -0.3849002   0.0973964), wk =   0.0555556
        k(   33) = (  -0.1666667  -0.4811252   0.0486982), wk =   0.1111111
        k(   34) = (  -0.1666667  -0.4811252   0.0973964), wk =   0.1111111

                       cryst. coord.
        k(    1) = (   0.0000000   0.0000000   0.0000000), wk =   0.0092593
        k(    2) = (   0.0000000   0.0000000   0.1666667), wk =   0.0185185
        k(    3) = (   0.0000000   0.0000000   0.3333333), wk =   0.0185185
        k(    4) = (   0.0000000   0.0000000  -0.5000000), wk =   0.0092593
        k(    5) = (   0.0000000   0.1666667   0.0000000), wk =   0.0555556
        k(    6) = (   0.0000000   0.1666667   0.1666667), wk =   0.0555556
        k(    7) = (   0.0000000   0.1666667   0.3333333), wk =   0.0555556
        k(    8) = (   0.0000000   0.1666667  -0.5000000), wk =   0.0555556
        k(    9) = (   0.0000000   0.3333333   0.0000000), wk =   0.0555556
        k(   10) = (   0.0000000   0.3333333   0.1666667), wk =   0.0555556
        k(   11) = (   0.0000000   0.3333333   0.3333333), wk =   0.0555556
        k(   12) = (   0.0000000   0.3333333  -0.5000000), wk =   0.0555556
        k(   13) = (   0.0000000  -0.5000000   0.0000000), wk =   0.0277778
        k(   14) = (   0.0000000  -0.5000000   0.1666667), wk =   0.0555556
        k(   15) = (   0.0000000  -0.5000000   0.3333333), wk =   0.0555556
        k(   16) = (   0.0000000  -0.5000000  -0.5000000), wk =   0.0277778
        k(   17) = (   0.1666667   0.1666667   0.0000000), wk =   0.0555556
        k(   18) = (   0.1666667   0.1666667   0.1666667), wk =   0.1111111
        k(   19) = (   0.1666667   0.1666667   0.3333333), wk =   0.1111111
        k(   20) = (   0.1666667   0.1666667  -0.5000000), wk =   0.0555556
        k(   21) = (   0.1666667   0.3333333   0.0000000), wk =   0.1111111
        k(   22) = (   0.1666667   0.3333333   0.1666667), wk =   0.1111111
        k(   23) = (   0.1666667   0.3333333   0.3333333), wk =   0.1111111
        k(   24) = (   0.1666667   0.3333333  -0.5000000), wk =   0.1111111
        k(   25) = (   0.3333333   0.3333333   0.0000000), wk =   0.0185185
        k(   26) = (   0.3333333   0.3333333   0.1666667), wk =   0.0370370
        k(   27) = (   0.3333333   0.3333333   0.3333333), wk =   0.0370370
        k(   28) = (   0.3333333   0.3333333  -0.5000000), wk =   0.0185185
        k(   29) = (   0.0000000  -0.1666667   0.1666667), wk =   0.0555556
        k(   30) = (   0.0000000  -0.1666667   0.3333333), wk =   0.0555556
        k(   31) = (   0.0000000  -0.3333333   0.1666667), wk =   0.0555556
        k(   32) = (   0.0000000  -0.3333333   0.3333333), wk =   0.0555556
        k(   33) = (  -0.1666667  -0.3333333   0.1666667), wk =   0.1111111
        k(   34) = (  -0.1666667  -0.3333333   0.3333333), wk =   0.1111111

     Check: negative core charge=   -0.000003

     Initial potential from superposition of free atoms

     starting charge      71.9851, renormalised to      72.0000
     Starting wfcs are   52 randomized atomic wfcs

     Self-consistent Calculation

     iteration #  1     ecut=    50.00 Ry     beta= 0.30
     Davidson diagonalization with overlap

     ethr =  1.00E-02,  avg # of iterations =  1.3

     total energy              =    -722.66743308 Ry
     estimated scf accuracy    <       1.71392242 Ry

[...]

     total energy              =    -723.08254271 Ry
     estimated scf accuracy    <       0.00000003 Ry

     iteration # 22     ecut=    50.00 Ry     beta= 0.30
     Davidson diagonalization with overlap

     ethr =  3.97E-11,  avg # of iterations =  5.1

     End of self-consistent calculation

          k = 0.0000 0.0000 0.0000 (  5289 PWs)   bands (ev):

   -12.7853 -12.6341 -12.6340 -12.4778  -1.5418  -1.4902  -1.4902  -1.4678
    -1.4678  -1.4249  -1.4249  -1.4249  -1.4249  -1.3662  -1.3662  -1.0278
    -1.0278  -1.0042  -0.9796  -0.9796  -0.9795  -0.9795  -0.9413  -0.9413
    -0.3099   1.1615   1.1615   2.9358   2.9358   3.1618   3.1618   3.1619
     3.1619   3.2057   3.3859   3.3859

     occupation numbers
     1.0000   1.0000   1.0000   1.0000   1.0000   1.0000   1.0000   1.0000
     1.0000   1.0000   1.0000   1.0000   1.0000   1.0000   1.0000   1.0000
     1.0000   1.0000   1.0000   1.0000   1.0000   1.0000   1.0000   1.0000
     1.0000   1.0000   1.0000   1.0000   1.0000   1.0000   1.0000   1.0000
     1.0000   1.0000   1.0000   1.0000

[...]

          k = 0.0000-0.3849 0.0974 (  5275 PWs)   bands (ev):

[...]

          k =-0.1667-0.4811 0.0487 (  5236 PWs)   bands (ev):

[...]

          k =-0.1667-0.4811 0.0974 (  5237 PWs)   bands (ev):

   -12.4387 -12.4201 -12.3711 -12.3539  -1.4627  -1.4478  -1.3898  -1.3661
    -1.3135  -1.2893  -1.1965  -1.1725  -1.1626  -1.1323  -1.1314  -1.1014
    -1.0202  -0.9979  -0.9743  -0.9634  -0.8943  -0.8864  -0.8374  -0.8080
     0.3858   0.3863   0.6094   0.7431   1.5645   1.8326   1.8711   2.1231
     2.3873   2.4972   2.5772   2.6128

     occupation numbers
     1.0000   1.0000   1.0000   1.0000   1.0000   1.0000   1.0000   1.0000
     1.0000   1.0000   1.0000   1.0000   1.0000   1.0000   1.0000   1.0000
     1.0000   1.0000   1.0000   1.0000   1.0000   1.0000   1.0000   1.0000
     1.0000   1.0000   1.0000   1.0000   1.0000   1.0000   1.0000   1.0000
     1.0000   1.0000   1.0000   1.0000

     highest occupied level (ev):     3.3859

!    total energy              =    -723.08254272 Ry
     estimated scf accuracy    <          2.5E-09 Ry

     The total energy is the sum of the following terms:
     one-electron contribution =    -372.09835210 Ry
     hartree contribution      =     259.50415653 Ry
     xc contribution           =    -218.06864575 Ry
     ewald contribution        =    -392.41970139 Ry

     convergence has been achieved in  22 iterations

     Forces acting on atoms (cartesian axes, Ry/au):

     atom    1 type  1   force =     0.00000000    0.00000000    0.00986179
     atom    2 type  2   force =     0.00000000    0.00000000   -0.00987456
     atom    3 type  1   force =     0.00000000    0.00000000    0.00987466
     atom    4 type  2   force =     0.00000000    0.00000000   -0.00987234
     atom    5 type  1   force =     0.00000000    0.00000000    0.00989977
     atom    6 type  2   force =     0.00000000    0.00000000   -0.00987050
     atom    7 type  1   force =     0.00000000   -0.00000000    0.00985796
     atom    8 type  2   force =     0.00000000    0.00000000   -0.00987678
     The non-local contrib.  to forces
     atom    1 type  1   force =     0.00000000   -0.00000000   -0.06859802
     atom    2 type  2   force =     0.00000000    0.00000000   -0.07035293
     atom    3 type  1   force =     0.00000000   -0.00000000   -0.06858649
     atom    4 type  2   force =     0.00000000   -0.00000000   -0.07036170
     atom    5 type  1   force =     0.00000000    0.00000000   -0.06858303
     atom    6 type  2   force =     0.00000000    0.00000000   -0.07035674
     atom    7 type  1   force =     0.00000000   -0.00000000   -0.06859564
     atom    8 type  2   force =     0.00000000    0.00000000   -0.07035539
     The ionic contribution  to forces
     atom    1 type  1   force =    -0.00000000    0.00000000   -0.57631030
     atom    2 type  2   force =     0.00000000   -0.00000000    0.57631030
     atom    3 type  1   force =     0.00000000   -0.00000000   -0.57631030
     atom    4 type  2   force =    -0.00000000    0.00000000    0.57631030
     atom    5 type  1   force =    -0.00000000    0.00000000   -0.57631030
     atom    6 type  2   force =     0.00000000   -0.00000000    0.57631030
     atom    7 type  1   force =     0.00000000   -0.00000000   -0.57631030
     atom    8 type  2   force =    -0.00000000    0.00000000    0.57631030
     The local contribution  to forces
     atom    1 type  1   force =     0.00000000    0.00000000    0.65168650
     atom    2 type  2   force =     0.00000001   -0.00000001   -0.51647052
     atom    3 type  1   force =     0.00000005   -0.00000003    0.65166323
     atom    4 type  2   force =    -0.00000000    0.00000000   -0.51648432
     atom    5 type  1   force =    -0.00000000    0.00000000    0.65164083
     atom    6 type  2   force =     0.00000001   -0.00000001   -0.51648142
     atom    7 type  1   force =     0.00000005   -0.00000003    0.65168319
     atom    8 type  2   force =     0.00000000    0.00000000   -0.51647001
     The core correction contribution to forces
     atom    1 type  1   force =    -0.00000000    0.00000000    0.00310329
     atom    2 type  2   force =    -0.00000000    0.00000000    0.00064921
     atom    3 type  1   force =     0.00000001   -0.00000000    0.00310175
     atom    4 type  2   force =    -0.00000000    0.00000000    0.00064857
     atom    5 type  1   force =     0.00000000    0.00000000    0.00310355
     atom    6 type  2   force =    -0.00000000    0.00000000    0.00064925
     atom    7 type  1   force =     0.00000001   -0.00000000    0.00310177
     atom    8 type  2   force =    -0.00000000    0.00000000    0.00064849
     The Hubbard contrib.    to forces
     atom    1 type  1   force =     0.00000000    0.00000000    0.00000000
     atom    2 type  2   force =     0.00000000    0.00000000    0.00000000
     atom    3 type  1   force =     0.00000000    0.00000000    0.00000000
     atom    4 type  2   force =     0.00000000    0.00000000    0.00000000
     atom    5 type  1   force =     0.00000000    0.00000000    0.00000000
     atom    6 type  2   force =     0.00000000    0.00000000    0.00000000
     atom    7 type  1   force =     0.00000000    0.00000000    0.00000000
     atom    8 type  2   force =     0.00000000    0.00000000    0.00000000
     The SCF correction term to forces
     atom    1 type  1   force =     0.00000000   -0.00000000   -0.00001968
     atom    2 type  2   force =    -0.00000000    0.00000000   -0.00001062
     atom    3 type  1   force =    -0.00000000    0.00000000    0.00000648
     atom    4 type  2   force =     0.00000000   -0.00000000    0.00001482
     atom    5 type  1   force =     0.00000000   -0.00000000    0.00004872
     atom    6 type  2   force =    -0.00000000    0.00000000    0.00000812
     atom    7 type  1   force =    -0.00000000    0.00000000   -0.00002105
     atom    8 type  2   force =     0.00000000   -0.00000000   -0.00001015

     Total force =     0.027927     Total SCF correction =     0.000061

     General routines

     Parallel routines

   This run was terminated on:  17:15:51  13Jul2025

   JOB DONE.
Note: The following floating-point exceptions are signalling: IEEE_INVALID_FLAG
Note: The following floating-point exceptions are signalling: IEEE_INVALID_FLAG