     Program PWSCF v.7.2 starts on 13Jul2025 at 11: 1:57

     Reading input from /home/jvc/QEspresso7.2/ZnO_database/scripts/cell112.in/ZnO-2.94-1.61-112.in
Warning: card &CELL ignored
Warning: card / ignored
Warning: card &FCP ignored
Warning: card / ignored
Warning: card &RISM ignored
Warning: card / ignored

     Current dimensions of program PWSCF are:
     Max number of different atomic species (ntypx) = 10
     Max number of k-points (npk) =  40000
     Max angular momentum in pseudopotentials (lmaxx) =  4
     file Zn.upf: wavefunction(s)  3D renormalized
     Found identity + (  0.0000  0.0000 -0.5000) symmetry
     This is a supercell, fractional translations are disabled
     Message from routine setup:
     using ibrav=0 with symmetry is DISCOURAGED, use correct ibrav instead

     K-points division:     npool     =       2
     R & G space division:  proc/nbgrp/npool/nimage =       4
     Subspace diagonalization in iterative solution of the eigenvalue problem:
     a serial algorithm will be used

     Using Slab Decomposition

     bravais-lattice index     =            0
     lattice parameter (alat)  =       5.5610  a.u.
     unit-cell volume          =     480.8525 (a.u.)^3
     number of atoms/cell      =            8
     number of atomic types    =            2
     number of electrons       =        72.00
     number of Kohn-Sham states=           36
     kinetic-energy cutoff     =      50.0000  Ry
     charge density cutoff     =     400.0000  Ry
     scf convergence threshold =      1.0E-08
     mixing beta               =       0.3000
     number of iterations used =            8  plain     mixing
     Exchange-correlation= PBE
                           (   1   4   3   4   0   0   0)

     celldm(1)=   5.560969  celldm(2)=   0.000000  celldm(3)=   0.000000
     celldm(4)=   0.000000  celldm(5)=   0.000000  celldm(6)=   0.000000

     crystal axes: (cart. coord. in units of alat)
               a(1) = (   1.000000   0.000000   0.000000 )
               a(2) = (  -0.500000   0.866025   0.000000 )
               a(3) = (   0.000000   0.000000   3.228717 )

     reciprocal axes: (cart. coord. in units 2 pi/alat)
               b(1) = (  1.000000  0.577350 -0.000000 )
               b(2) = (  0.000000  1.154701  0.000000 )
               b(3) = (  0.000000 -0.000000  0.309721 )

     PseudoPot. # 1 for Zn read from file:
     /home/jvc/QEspresso7.2/ZnO_database/pseudos/Zn.upf
     MD5 check sum: 7f56cabf9682ed8c977c2f7d0c5985c5
     Pseudo is Ultrasoft + core correction, Zval = 12.0
     Generated using &quot;atomic&quot; code by A. Dal Corso  v.6.2.2
     Using radial grid of 1201 points,  6 beta functions with:
                l(1) =   0
                l(2) =   0
                l(3) =   1
                l(4) =   1
                l(5) =   2
                l(6) =   2
     Q(r) pseudized with 0 coefficients

     PseudoPot. # 2 for O  read from file:
     /home/jvc/QEspresso7.2/ZnO_database/pseudos/O.upf
     MD5 check sum: 91400c9766925bcf19f520983a725ff0
     Pseudo is Ultrasoft + core correction, Zval =  6.0
     Generated using &quot;atomic&quot; code by A. Dal Corso  v.6.3MaX
     Using radial grid of 1095 points,  4 beta functions with:
                l(1) =   0
                l(2) =   0
                l(3) =   1
                l(4) =   1
     Q(r) pseudized with 0 coefficients

     atomic species   valence    mass     pseudopotential
        Zn            12.00    65.38000     Zn( 1.00)
        O              6.00    15.99900     O ( 1.00)

      6 Sym. Ops. (no inversion) found

                                    s                        frac. trans.

      isym =  1     identity

 cryst.   s( 1) = (     1          0          0      )
                  (     0          1          0      )
                  (     0          0          1      )

 cart.    s( 1) = (  1.0000000  0.0000000  0.0000000 )
                  (  0.0000000  1.0000000  0.0000000 )
                  (  0.0000000  0.0000000  1.0000000 )

      isym =  2     120 deg rotation - cryst. axis [0,0,1]

[...]

      isym =  3     120 deg rotation - cryst. axis [0,0,-1]

[...]

      isym =  4     inv. 180 deg rotation - cart. axis [1,0,0]

[...]

      isym =  5     inv. 180 deg rotation - cryst. axis [0,1,0]

[...]

      isym =  6     inv. 180 deg rotation - cryst. axis [1,1,0]

 cryst.   s( 6) = (     0         -1          0      )
                  (    -1          0          0      )
                  (     0          0          1      )

 cart.    s( 6) = (  0.5000000 -0.8660254  0.0000000 )
                  ( -0.8660254 -0.5000000  0.0000000 )
                  (  0.0000000  0.0000000  1.0000000 )

   Cartesian axes

     site n.     atom                  positions (alat units)
         1           Zn  tau(   1) = (   0.0000000   0.0000000   0.0000000  )
         2           O   tau(   2) = (  -0.0000000   0.5773503   0.1971092  )
         3           Zn  tau(   3) = (  -0.0000000   0.5773503   0.8071792  )
         4           O   tau(   4) = (   0.0000000   0.0000000   1.0042884  )
         5           Zn  tau(   5) = (   0.0000000   0.0000000   1.6143584  )
         6           O   tau(   6) = (  -0.0000000   0.5773503   1.8114676  )
         7           Zn  tau(   7) = (  -0.0000000   0.5773503   2.4215375  )
         8           O   tau(   8) = (   0.0000000   0.0000000   2.6186467  )

   Crystallographic axes

     site n.     atom                  positions (cryst. coord.)
         1           Zn  tau(   1) = (  0.0000000  0.0000000  0.0000000  )
         2           O   tau(   2) = (  0.3333333  0.6666667  0.0610488  )
         3           Zn  tau(   3) = (  0.3333333  0.6666667  0.2500000  )
         4           O   tau(   4) = (  0.0000000  0.0000000  0.3110488  )
         5           Zn  tau(   5) = (  0.0000000  0.0000000  0.5000000  )
         6           O   tau(   6) = (  0.3333333  0.6666667  0.5610488  )
         7           Zn  tau(   7) = (  0.3333333  0.6666667  0.7500000  )
         8           O   tau(   8) = (  0.0000000  0.0000000  0.8110488  )

     number of k points=    34
                       cart. coord. in units 2pi/alat
        k(    1) = (   0.0000000   0.0000000   0.0000000), wk =   0.0092593
        k(    2) = (   0.0000000   0.0000000   0.0516201), wk =   0.0185185
        k(    3) = (   0.0000000   0.0000000   0.1032402), wk =   0.0185185
        k(    4) = (   0.0000000   0.0000000  -0.1548603), wk =   0.0092593
        k(    5) = (   0.0000000   0.1924501   0.0000000), wk =   0.0555556
        k(    6) = (   0.0000000   0.1924501   0.0516201), wk =   0.0555556
        k(    7) = (   0.0000000   0.1924501   0.1032402), wk =   0.0555556
        k(    8) = (   0.0000000   0.1924501  -0.1548603), wk =   0.0555556
        k(    9) = (   0.0000000   0.3849002   0.0000000), wk =   0.0555556
        k(   10) = (   0.0000000   0.3849002   0.0516201), wk =   0.0555556
        k(   11) = (   0.0000000   0.3849002   0.1032402), wk =   0.0555556
        k(   12) = (   0.0000000   0.3849002  -0.1548603), wk =   0.0555556
        k(   13) = (   0.0000000  -0.5773503   0.0000000), wk =   0.0277778
        k(   14) = (   0.0000000  -0.5773503   0.0516201), wk =   0.0555556
        k(   15) = (   0.0000000  -0.5773503   0.1032402), wk =   0.0555556
        k(   16) = (   0.0000000  -0.5773503  -0.1548603), wk =   0.0277778
        k(   17) = (   0.1666667   0.2886751   0.0000000), wk =   0.0555556
        k(   18) = (   0.1666667   0.2886751   0.0516201), wk =   0.1111111
        k(   19) = (   0.1666667   0.2886751   0.1032402), wk =   0.1111111
        k(   20) = (   0.1666667   0.2886751  -0.1548603), wk =   0.0555556
        k(   21) = (   0.1666667   0.4811252   0.0000000), wk =   0.1111111
        k(   22) = (   0.1666667   0.4811252   0.0516201), wk =   0.1111111
        k(   23) = (   0.1666667   0.4811252   0.1032402), wk =   0.1111111
        k(   24) = (   0.1666667   0.4811252  -0.1548603), wk =   0.1111111
        k(   25) = (   0.3333333   0.5773503   0.0000000), wk =   0.0185185
        k(   26) = (   0.3333333   0.5773503   0.0516201), wk =   0.0370370
        k(   27) = (   0.3333333   0.5773503   0.1032402), wk =   0.0370370
        k(   28) = (   0.3333333   0.5773503  -0.1548603), wk =   0.0185185
        k(   29) = (   0.0000000  -0.1924501   0.0516201), wk =   0.0555556
        k(   30) = (   0.0000000  -0.1924501   0.1032402), wk =   0.0555556
        k(   31) = (   0.0000000  -0.3849002   0.0516201), wk =   0.0555556
        k(   32) = (   0.0000000  -0.3849002   0.1032402), wk =   0.0555556
        k(   33) = (  -0.1666667  -0.4811252   0.0516201), wk =   0.1111111
        k(   34) = (  -0.1666667  -0.4811252   0.1032402), wk =   0.1111111

                       cryst. coord.
        k(    1) = (   0.0000000   0.0000000   0.0000000), wk =   0.0092593
        k(    2) = (   0.0000000   0.0000000   0.1666667), wk =   0.0185185
        k(    3) = (   0.0000000   0.0000000   0.3333333), wk =   0.0185185
        k(    4) = (   0.0000000   0.0000000  -0.5000000), wk =   0.0092593
        k(    5) = (   0.0000000   0.1666667   0.0000000), wk =   0.0555556
        k(    6) = (   0.0000000   0.1666667   0.1666667), wk =   0.0555556
        k(    7) = (   0.0000000   0.1666667   0.3333333), wk =   0.0555556
        k(    8) = (   0.0000000   0.1666667  -0.5000000), wk =   0.0555556
        k(    9) = (   0.0000000   0.3333333   0.0000000), wk =   0.0555556
        k(   10) = (   0.0000000   0.3333333   0.1666667), wk =   0.0555556
        k(   11) = (   0.0000000   0.3333333   0.3333333), wk =   0.0555556
        k(   12) = (   0.0000000   0.3333333  -0.5000000), wk =   0.0555556
        k(   13) = (   0.0000000  -0.5000000   0.0000000), wk =   0.0277778
        k(   14) = (   0.0000000  -0.5000000   0.1666667), wk =   0.0555556
        k(   15) = (   0.0000000  -0.5000000   0.3333333), wk =   0.0555556
        k(   16) = (   0.0000000  -0.5000000  -0.5000000), wk =   0.0277778
        k(   17) = (   0.1666667   0.1666667   0.0000000), wk =   0.0555556
        k(   18) = (   0.1666667   0.1666667   0.1666667), wk =   0.1111111
        k(   19) = (   0.1666667   0.1666667   0.3333333), wk =   0.1111111
        k(   20) = (   0.1666667   0.1666667  -0.5000000), wk =   0.0555556
        k(   21) = (   0.1666667   0.3333333   0.0000000), wk =   0.1111111
        k(   22) = (   0.1666667   0.3333333   0.1666667), wk =   0.1111111
        k(   23) = (   0.1666667   0.3333333   0.3333333), wk =   0.1111111
        k(   24) = (   0.1666667   0.3333333  -0.5000000), wk =   0.1111111
        k(   25) = (   0.3333333   0.3333333   0.0000000), wk =   0.0185185
        k(   26) = (   0.3333333   0.3333333   0.1666667), wk =   0.0370370
        k(   27) = (   0.3333333   0.3333333   0.3333333), wk =   0.0370370
        k(   28) = (   0.3333333   0.3333333  -0.5000000), wk =   0.0185185
        k(   29) = (   0.0000000  -0.1666667   0.1666667), wk =   0.0555556
        k(   30) = (   0.0000000  -0.1666667   0.3333333), wk =   0.0555556
        k(   31) = (   0.0000000  -0.3333333   0.1666667), wk =   0.0555556
        k(   32) = (   0.0000000  -0.3333333   0.3333333), wk =   0.0555556
        k(   33) = (  -0.1666667  -0.3333333   0.1666667), wk =   0.1111111
        k(   34) = (  -0.1666667  -0.3333333   0.3333333), wk =   0.1111111

     Check: negative core charge=   -0.000001

     Initial potential from superposition of free atoms

     starting charge      71.9851, renormalised to      72.0000
     Starting wfcs are   52 randomized atomic wfcs

     Self-consistent Calculation

     iteration #  1     ecut=    50.00 Ry     beta= 0.30
     Davidson diagonalization with overlap

     ethr =  1.00E-02,  avg # of iterations =  2.2

     total energy              =    -722.61362952 Ry
     estimated scf accuracy    <       1.36605293 Ry

[...]

     total energy              =    -722.86595157 Ry
     estimated scf accuracy    <       0.00000055 Ry

     iteration # 16     ecut=    50.00 Ry     beta= 0.30
     Davidson diagonalization with overlap

     ethr =  7.69E-10,  avg # of iterations =  4.9

     End of self-consistent calculation

          k = 0.0000 0.0000 0.0000 (  2885 PWs)   bands (ev):

    -8.5230  -7.9189  -7.9188  -7.2575   4.0714   4.2016   4.2017   4.7722
     4.7722   4.8300   4.8828   4.8828   4.8828   4.8828   5.0778   5.0778
     6.9926   6.9926   7.2363   7.2363   7.2363   7.2363   7.3918   7.3918
     7.8314   9.9421   9.9421  11.2612  11.2612  11.8587  11.8587  11.8588
    11.8588  12.2586  12.4582  12.4582

     occupation numbers
     1.0000   1.0000   1.0000   1.0000   1.0000   1.0000   1.0000   1.0000
     1.0000   1.0000   1.0000   1.0000   1.0000   1.0000   1.0000   1.0000
     1.0000   1.0000   1.0000   1.0000   1.0000   1.0000   1.0000   1.0000
     1.0000   1.0000   1.0000   1.0000   1.0000   1.0000   1.0000   1.0000
     1.0000   1.0000   1.0000   1.0000

[...]

          k = 0.0000-0.3849 0.1032 (  2873 PWs)   bands (ev):

[...]

          k =-0.1667-0.4811 0.0516 (  2866 PWs)   bands (ev):

[...]

          k =-0.1667-0.4811 0.1032 (  2873 PWs)   bands (ev):

    -7.3039  -7.2175  -7.0096  -6.9457   4.0293   4.1117   4.1878   4.3824
     5.0417   5.0538   5.1763   5.2385   5.6462   5.7214   5.7271   5.8678
     6.9070   7.0701   7.1840   7.2636   7.4845   7.4909   7.6369   7.6890
     7.8392   7.9657   8.4698   8.5053   8.6969   9.1173   9.3045   9.7629
    10.2958  10.5360  10.8410  10.8536

     occupation numbers
     1.0000   1.0000   1.0000   1.0000   1.0000   1.0000   1.0000   1.0000
     1.0000   1.0000   1.0000   1.0000   1.0000   1.0000   1.0000   1.0000
     1.0000   1.0000   1.0000   1.0000   1.0000   1.0000   1.0000   1.0000
     1.0000   1.0000   1.0000   1.0000   1.0000   1.0000   1.0000   1.0000
     1.0000   1.0000   1.0000   1.0000

     highest occupied level (ev):    12.4582

!    total energy              =    -722.86595183 Ry
     estimated scf accuracy    <          4.1E-09 Ry

     The total energy is the sum of the following terms:
     one-electron contribution =    -233.25641748 Ry
     hartree contribution      =     210.72486222 Ry
     xc contribution           =    -220.65759275 Ry
     ewald contribution        =    -479.67680382 Ry

     convergence has been achieved in  16 iterations

     Forces acting on atoms (cartesian axes, Ry/au):

     atom    1 type  1   force =     0.00000000    0.00000000    0.00216312
     atom    2 type  2   force =     0.00000000   -0.00000000   -0.00213401
     atom    3 type  1   force =     0.00000000   -0.00000000    0.00209739
     atom    4 type  2   force =     0.00000000    0.00000000   -0.00212078
     atom    5 type  1   force =     0.00000000    0.00000000    0.00207895
     atom    6 type  2   force =     0.00000000    0.00000000   -0.00214092
     atom    7 type  1   force =     0.00000000   -0.00000000    0.00217654
     atom    8 type  2   force =     0.00000000    0.00000000   -0.00212029
     The non-local contrib.  to forces
     atom    1 type  1   force =     0.00000000    0.00000000    0.01481806
     atom    2 type  2   force =     0.00000000    0.00000000    0.00502799
     atom    3 type  1   force =     0.00000000    0.00000000    0.01478054
     atom    4 type  2   force =     0.00000000    0.00000000    0.00504795
     atom    5 type  1   force =     0.00000000    0.00000000    0.01478843
     atom    6 type  2   force =     0.00000000    0.00000000    0.00503774
     atom    7 type  1   force =     0.00000000    0.00000000    0.01481266
     atom    8 type  2   force =     0.00000000    0.00000000    0.00503773
     The ionic contribution  to forces
     atom    1 type  1   force =    -0.00000000    0.00000000   -0.02565103
     atom    2 type  2   force =     0.00000000   -0.00000000    0.02565103
     atom    3 type  1   force =     0.00000000   -0.00000000   -0.02565103
     atom    4 type  2   force =    -0.00000000    0.00000000    0.02565103
     atom    5 type  1   force =    -0.00000000    0.00000000   -0.02565103
     atom    6 type  2   force =     0.00000000   -0.00000000    0.02565103
     atom    7 type  1   force =     0.00000000   -0.00000000   -0.02565103
     atom    8 type  2   force =    -0.00000000    0.00000000    0.02565103
     The local contribution  to forces
     atom    1 type  1   force =     0.00000000   -0.00000000    0.01483979
     atom    2 type  2   force =     0.00000001   -0.00000001   -0.03281063
     atom    3 type  1   force =     0.00000004   -0.00000002    0.01493580
     atom    4 type  2   force =     0.00000000   -0.00000000   -0.03274889
     atom    5 type  1   force =     0.00000000    0.00000000    0.01494784
     atom    6 type  2   force =     0.00000001   -0.00000001   -0.03276379
     atom    7 type  1   force =     0.00000004   -0.00000002    0.01484444
     atom    8 type  2   force =     0.00000000   -0.00000000   -0.03280948
     The core correction contribution to forces
     atom    1 type  1   force =     0.00000000    0.00000000   -0.00191657
     atom    2 type  2   force =    -0.00000000    0.00000000   -0.00002453
     atom    3 type  1   force =     0.00000001   -0.00000000   -0.00191647
     atom    4 type  2   force =     0.00000000   -0.00000000   -0.00002469
     atom    5 type  1   force =     0.00000000   -0.00000000   -0.00191722
     atom    6 type  2   force =    -0.00000000    0.00000000   -0.00002462
     atom    7 type  1   force =     0.00000001   -0.00000000   -0.00191679
     atom    8 type  2   force =     0.00000000   -0.00000000   -0.00002465
     The Hubbard contrib.    to forces
     atom    1 type  1   force =     0.00000000    0.00000000    0.00000000
     atom    2 type  2   force =     0.00000000    0.00000000    0.00000000
     atom    3 type  1   force =     0.00000000    0.00000000    0.00000000
     atom    4 type  2   force =     0.00000000    0.00000000    0.00000000
     atom    5 type  1   force =     0.00000000    0.00000000    0.00000000
     atom    6 type  2   force =     0.00000000    0.00000000    0.00000000
     atom    7 type  1   force =     0.00000000    0.00000000    0.00000000
     atom    8 type  2   force =     0.00000000    0.00000000    0.00000000
     The SCF correction term to forces
     atom    1 type  1   force =    -0.00000000    0.00000000    0.00007198
     atom    2 type  2   force =     0.00000000   -0.00000000    0.00002125
     atom    3 type  1   force =     0.00000000   -0.00000000   -0.00005234
     atom    4 type  2   force =    -0.00000000    0.00000000   -0.00004706
     atom    5 type  1   force =    -0.00000000    0.00000000   -0.00008997
     atom    6 type  2   force =     0.00000000   -0.00000000   -0.00004216
     atom    7 type  1   force =     0.00000000   -0.00000000    0.00008637
     atom    8 type  2   force =    -0.00000000    0.00000000    0.00002420

     Total force =     0.006022     Total SCF correction =     0.000169

     General routines

     Parallel routines

   This run was terminated on:  11: 3:23  13Jul2025

   JOB DONE.
Note: The following floating-point exceptions are signalling: IEEE_INVALID_FLAG
Note: The following floating-point exceptions are signalling: IEEE_INVALID_FLAG