     Program PWSCF v.7.2 starts on 13Jul2025 at 14: 7:23

     Reading input from /home/jvc/QEspresso7.2/ZnO_database/scripts/cell112.in/ZnO-3.27-1.78-112.in
Warning: card &CELL ignored
Warning: card / ignored
Warning: card &FCP ignored
Warning: card / ignored
Warning: card &RISM ignored
Warning: card / ignored

     Current dimensions of program PWSCF are:
     Max number of different atomic species (ntypx) = 10
     Max number of k-points (npk) =  40000
     Max angular momentum in pseudopotentials (lmaxx) =  4
     file Zn.upf: wavefunction(s)  3D renormalized
     Found identity + (  0.0000  0.0000 -0.5000) symmetry
     This is a supercell, fractional translations are disabled
     Message from routine setup:
     using ibrav=0 with symmetry is DISCOURAGED, use correct ibrav instead

     K-points division:     npool     =       2
     R & G space division:  proc/nbgrp/npool/nimage =       4
     Subspace diagonalization in iterative solution of the eigenvalue problem:
     a serial algorithm will be used

     Using Slab Decomposition

     bravais-lattice index     =            0
     lattice parameter (alat)  =       6.1789  a.u.
     unit-cell volume          =     725.5662 (a.u.)^3
     number of atoms/cell      =            8
     number of atomic types    =            2
     number of electrons       =        72.00
     number of Kohn-Sham states=           36
     kinetic-energy cutoff     =      50.0000  Ry
     charge density cutoff     =     400.0000  Ry
     scf convergence threshold =      1.0E-08
     mixing beta               =       0.3000
     number of iterations used =            8  plain     mixing
     Exchange-correlation= PBE
                           (   1   4   3   4   0   0   0)

     celldm(1)=   6.178854  celldm(2)=   0.000000  celldm(3)=   0.000000
     celldm(4)=   0.000000  celldm(5)=   0.000000  celldm(6)=   0.000000

     crystal axes: (cart. coord. in units of alat)
               a(1) = (   1.000000   0.000000   0.000000 )
               a(2) = (  -0.500000   0.866025   0.000000 )
               a(3) = (   0.000000   0.000000   3.551588 )

     reciprocal axes: (cart. coord. in units 2 pi/alat)
               b(1) = (  1.000000  0.577350 -0.000000 )
               b(2) = (  0.000000  1.154701  0.000000 )
               b(3) = (  0.000000 -0.000000  0.281564 )

     PseudoPot. # 1 for Zn read from file:
     /home/jvc/QEspresso7.2/ZnO_database/pseudos/Zn.upf
     MD5 check sum: 7f56cabf9682ed8c977c2f7d0c5985c5
     Pseudo is Ultrasoft + core correction, Zval = 12.0
     Generated using &quot;atomic&quot; code by A. Dal Corso  v.6.2.2
     Using radial grid of 1201 points,  6 beta functions with:
                l(1) =   0
                l(2) =   0
                l(3) =   1
                l(4) =   1
                l(5) =   2
                l(6) =   2
     Q(r) pseudized with 0 coefficients

     PseudoPot. # 2 for O  read from file:
     /home/jvc/QEspresso7.2/ZnO_database/pseudos/O.upf
     MD5 check sum: 91400c9766925bcf19f520983a725ff0
     Pseudo is Ultrasoft + core correction, Zval =  6.0
     Generated using &quot;atomic&quot; code by A. Dal Corso  v.6.3MaX
     Using radial grid of 1095 points,  4 beta functions with:
                l(1) =   0
                l(2) =   0
                l(3) =   1
                l(4) =   1
     Q(r) pseudized with 0 coefficients

     atomic species   valence    mass     pseudopotential
        Zn            12.00    65.38000     Zn( 1.00)
        O              6.00    15.99900     O ( 1.00)

      6 Sym. Ops. (no inversion) found

                                    s                        frac. trans.

      isym =  1     identity

 cryst.   s( 1) = (     1          0          0      )
                  (     0          1          0      )
                  (     0          0          1      )

 cart.    s( 1) = (  1.0000000  0.0000000  0.0000000 )
                  (  0.0000000  1.0000000  0.0000000 )
                  (  0.0000000  0.0000000  1.0000000 )

      isym =  2     120 deg rotation - cryst. axis [0,0,1]

[...]

      isym =  3     120 deg rotation - cryst. axis [0,0,-1]

[...]

      isym =  4     inv. 180 deg rotation - cart. axis [1,0,0]

[...]

      isym =  5     inv. 180 deg rotation - cryst. axis [0,1,0]

[...]

      isym =  6     inv. 180 deg rotation - cryst. axis [1,1,0]

 cryst.   s( 6) = (     0         -1          0      )
                  (    -1          0          0      )
                  (     0          0          1      )

 cart.    s( 6) = (  0.5000000 -0.8660254  0.0000000 )
                  ( -0.8660254 -0.5000000  0.0000000 )
                  (  0.0000000  0.0000000  1.0000000 )

   Cartesian axes

     site n.     atom                  positions (alat units)
         1           Zn  tau(   1) = (   0.0000000   0.0000000   0.0000000  )
         2           O   tau(   2) = (  -0.0000000   0.5773503   0.2562391  )
         3           Zn  tau(   3) = (  -0.0000000   0.5773503   0.8878971  )
         4           O   tau(   4) = (   0.0000000   0.0000000   1.1441362  )
         5           Zn  tau(   5) = (   0.0000000   0.0000000   1.7757942  )
         6           O   tau(   6) = (  -0.0000000   0.5773503   2.0320333  )
         7           Zn  tau(   7) = (  -0.0000000   0.5773503   2.6636913  )
         8           O   tau(   8) = (   0.0000000   0.0000000   2.9199304  )

   Crystallographic axes

     site n.     atom                  positions (cryst. coord.)
         1           Zn  tau(   1) = (  0.0000000  0.0000000  0.0000000  )
         2           O   tau(   2) = (  0.3333333  0.6666667  0.0721477  )
         3           Zn  tau(   3) = (  0.3333333  0.6666667  0.2500000  )
         4           O   tau(   4) = (  0.0000000  0.0000000  0.3221477  )
         5           Zn  tau(   5) = (  0.0000000  0.0000000  0.5000000  )
         6           O   tau(   6) = (  0.3333333  0.6666667  0.5721477  )
         7           Zn  tau(   7) = (  0.3333333  0.6666667  0.7500000  )
         8           O   tau(   8) = (  0.0000000  0.0000000  0.8221477  )

     number of k points=    34
                       cart. coord. in units 2pi/alat
        k(    1) = (   0.0000000   0.0000000   0.0000000), wk =   0.0092593
        k(    2) = (   0.0000000   0.0000000   0.0469274), wk =   0.0185185
        k(    3) = (   0.0000000   0.0000000   0.0938547), wk =   0.0185185
        k(    4) = (   0.0000000   0.0000000  -0.1407821), wk =   0.0092593
        k(    5) = (   0.0000000   0.1924501   0.0000000), wk =   0.0555556
        k(    6) = (   0.0000000   0.1924501   0.0469274), wk =   0.0555556
        k(    7) = (   0.0000000   0.1924501   0.0938547), wk =   0.0555556
        k(    8) = (   0.0000000   0.1924501  -0.1407821), wk =   0.0555556
        k(    9) = (   0.0000000   0.3849002   0.0000000), wk =   0.0555556
        k(   10) = (   0.0000000   0.3849002   0.0469274), wk =   0.0555556
        k(   11) = (   0.0000000   0.3849002   0.0938547), wk =   0.0555556
        k(   12) = (   0.0000000   0.3849002  -0.1407821), wk =   0.0555556
        k(   13) = (   0.0000000  -0.5773503   0.0000000), wk =   0.0277778
        k(   14) = (   0.0000000  -0.5773503   0.0469274), wk =   0.0555556
        k(   15) = (   0.0000000  -0.5773503   0.0938547), wk =   0.0555556
        k(   16) = (   0.0000000  -0.5773503  -0.1407821), wk =   0.0277778
        k(   17) = (   0.1666667   0.2886751   0.0000000), wk =   0.0555556
        k(   18) = (   0.1666667   0.2886751   0.0469274), wk =   0.1111111
        k(   19) = (   0.1666667   0.2886751   0.0938547), wk =   0.1111111
        k(   20) = (   0.1666667   0.2886751  -0.1407821), wk =   0.0555556
        k(   21) = (   0.1666667   0.4811252   0.0000000), wk =   0.1111111
        k(   22) = (   0.1666667   0.4811252   0.0469274), wk =   0.1111111
        k(   23) = (   0.1666667   0.4811252   0.0938547), wk =   0.1111111
        k(   24) = (   0.1666667   0.4811252  -0.1407821), wk =   0.1111111
        k(   25) = (   0.3333333   0.5773503   0.0000000), wk =   0.0185185
        k(   26) = (   0.3333333   0.5773503   0.0469274), wk =   0.0370370
        k(   27) = (   0.3333333   0.5773503   0.0938547), wk =   0.0370370
        k(   28) = (   0.3333333   0.5773503  -0.1407821), wk =   0.0185185
        k(   29) = (   0.0000000  -0.1924501   0.0469274), wk =   0.0555556
        k(   30) = (   0.0000000  -0.1924501   0.0938547), wk =   0.0555556
        k(   31) = (   0.0000000  -0.3849002   0.0469274), wk =   0.0555556
        k(   32) = (   0.0000000  -0.3849002   0.0938547), wk =   0.0555556
        k(   33) = (  -0.1666667  -0.4811252   0.0469274), wk =   0.1111111
        k(   34) = (  -0.1666667  -0.4811252   0.0938547), wk =   0.1111111

                       cryst. coord.
        k(    1) = (   0.0000000   0.0000000   0.0000000), wk =   0.0092593
        k(    2) = (   0.0000000   0.0000000   0.1666667), wk =   0.0185185
        k(    3) = (   0.0000000   0.0000000   0.3333333), wk =   0.0185185
        k(    4) = (   0.0000000   0.0000000  -0.5000000), wk =   0.0092593
        k(    5) = (   0.0000000   0.1666667   0.0000000), wk =   0.0555556
        k(    6) = (   0.0000000   0.1666667   0.1666667), wk =   0.0555556
        k(    7) = (   0.0000000   0.1666667   0.3333333), wk =   0.0555556
        k(    8) = (   0.0000000   0.1666667  -0.5000000), wk =   0.0555556
        k(    9) = (   0.0000000   0.3333333   0.0000000), wk =   0.0555556
        k(   10) = (   0.0000000   0.3333333   0.1666667), wk =   0.0555556
        k(   11) = (   0.0000000   0.3333333   0.3333333), wk =   0.0555556
        k(   12) = (   0.0000000   0.3333333  -0.5000000), wk =   0.0555556
        k(   13) = (   0.0000000  -0.5000000   0.0000000), wk =   0.0277778
        k(   14) = (   0.0000000  -0.5000000   0.1666667), wk =   0.0555556
        k(   15) = (   0.0000000  -0.5000000   0.3333333), wk =   0.0555556
        k(   16) = (   0.0000000  -0.5000000  -0.5000000), wk =   0.0277778
        k(   17) = (   0.1666667   0.1666667   0.0000000), wk =   0.0555556
        k(   18) = (   0.1666667   0.1666667   0.1666667), wk =   0.1111111
        k(   19) = (   0.1666667   0.1666667   0.3333333), wk =   0.1111111
        k(   20) = (   0.1666667   0.1666667  -0.5000000), wk =   0.0555556
        k(   21) = (   0.1666667   0.3333333   0.0000000), wk =   0.1111111
        k(   22) = (   0.1666667   0.3333333   0.1666667), wk =   0.1111111
        k(   23) = (   0.1666667   0.3333333   0.3333333), wk =   0.1111111
        k(   24) = (   0.1666667   0.3333333  -0.5000000), wk =   0.1111111
        k(   25) = (   0.3333333   0.3333333   0.0000000), wk =   0.0185185
        k(   26) = (   0.3333333   0.3333333   0.1666667), wk =   0.0370370
        k(   27) = (   0.3333333   0.3333333   0.3333333), wk =   0.0370370
        k(   28) = (   0.3333333   0.3333333  -0.5000000), wk =   0.0185185
        k(   29) = (   0.0000000  -0.1666667   0.1666667), wk =   0.0555556
        k(   30) = (   0.0000000  -0.1666667   0.3333333), wk =   0.0555556
        k(   31) = (   0.0000000  -0.3333333   0.1666667), wk =   0.0555556
        k(   32) = (   0.0000000  -0.3333333   0.3333333), wk =   0.0555556
        k(   33) = (  -0.1666667  -0.3333333   0.1666667), wk =   0.1111111
        k(   34) = (  -0.1666667  -0.3333333   0.3333333), wk =   0.1111111

     Check: negative core charge=   -0.000002

     Initial potential from superposition of free atoms

     starting charge      71.9851, renormalised to      72.0000
     Starting wfcs are   52 randomized atomic wfcs

     Self-consistent Calculation

     iteration #  1     ecut=    50.00 Ry     beta= 0.30
     Davidson diagonalization with overlap

     ethr =  1.00E-02,  avg # of iterations =  1.6

     total energy              =    -722.88845652 Ry
     estimated scf accuracy    <       1.47366083 Ry

[...]

     c_bands:  1 eigenvalues not converged
     ethr =  4.11E-06,  avg # of iterations = 12.5

[...]

     c_bands:  1 eigenvalues not converged
     ethr =  1.55E-08,  avg # of iterations = 10.3

[...]

     total energy              =    -723.23352267 Ry
     estimated scf accuracy    <       0.00000003 Ry

     iteration # 22     ecut=    50.00 Ry     beta= 0.30
     Davidson diagonalization with overlap

     ethr =  3.97E-11,  avg # of iterations =  3.9

     End of self-consistent calculation

          k = 0.0000 0.0000 0.0000 (  4303 PWs)   bands (ev):

   -11.5968 -11.3719 -11.3719 -11.1343   0.1243   0.1243   0.1980   0.4105
     0.4180   0.4180   0.4922   0.4922   0.4923   0.4923   0.5874   0.5874
     1.1807   1.1807   1.2519   1.2519   1.2520   1.2520   1.3119   1.3119
     1.5067   3.0882   3.0882   5.0210   5.0210   5.3276   5.3276   5.3277
     5.3277   5.3338   5.6305   5.6305

     occupation numbers
     1.0000   1.0000   1.0000   1.0000   1.0000   1.0000   1.0000   1.0000
     1.0000   1.0000   1.0000   1.0000   1.0000   1.0000   1.0000   1.0000
     1.0000   1.0000   1.0000   1.0000   1.0000   1.0000   1.0000   1.0000
     1.0000   1.0000   1.0000   1.0000   1.0000   1.0000   1.0000   1.0000
     1.0000   1.0000   1.0000   1.0000

[...]

          k = 0.0000-0.3849 0.0939 (  4333 PWs)   bands (ev):

[...]

          k =-0.1667-0.4811 0.0469 (  4341 PWs)   bands (ev):

[...]

          k =-0.1667-0.4811 0.0939 (  4345 PWs)   bands (ev):

   -11.0268 -10.9990 -10.9258 -10.9001   0.2654   0.2768   0.3449   0.4299
     0.5699   0.5714   0.7488   0.7732   0.8152   0.8747   0.8904   0.9448
     1.1556   1.1960   1.2459   1.2682   1.3926   1.4014   1.4702   1.5303
     2.0602   2.1458   2.4752   2.5762   3.2629   3.5938   3.5967   3.8776
     4.3211   4.3799   4.4859   4.6583

     occupation numbers
     1.0000   1.0000   1.0000   1.0000   1.0000   1.0000   1.0000   1.0000
     1.0000   1.0000   1.0000   1.0000   1.0000   1.0000   1.0000   1.0000
     1.0000   1.0000   1.0000   1.0000   1.0000   1.0000   1.0000   1.0000
     1.0000   1.0000   1.0000   1.0000   1.0000   1.0000   1.0000   1.0000
     1.0000   1.0000   1.0000   1.0000

     highest occupied level (ev):     5.6305

!    total energy              =    -723.23352266 Ry
     estimated scf accuracy    <          9.1E-09 Ry

     The total energy is the sum of the following terms:
     one-electron contribution =    -328.85167975 Ry
     hartree contribution      =     243.34518010 Ry
     xc contribution           =    -218.67879135 Ry
     ewald contribution        =    -419.04823165 Ry

     convergence has been achieved in  22 iterations

     Forces acting on atoms (cartesian axes, Ry/au):

     atom    1 type  1   force =     0.00000000    0.00000000    0.00894527
     atom    2 type  2   force =     0.00000000    0.00000000   -0.00892756
     atom    3 type  1   force =     0.00000000   -0.00000000    0.00893973
     atom    4 type  2   force =     0.00000000    0.00000000   -0.00893003
     atom    5 type  1   force =     0.00000000   -0.00000000    0.00891848
     atom    6 type  2   force =     0.00000000    0.00000000   -0.00894541
     atom    7 type  1   force =     0.00000000    0.00000000    0.00892733
     atom    8 type  2   force =     0.00000000    0.00000000   -0.00892781
     The non-local contrib.  to forces
     atom    1 type  1   force =     0.00000000   -0.00000000   -0.12714239
     atom    2 type  2   force =     0.00000000    0.00000000   -0.11102857
     atom    3 type  1   force =     0.00000000    0.00000000   -0.12714466
     atom    4 type  2   force =    -0.00000000   -0.00000000   -0.11101877
     atom    5 type  1   force =    -0.00000000    0.00000000   -0.12714426
     atom    6 type  2   force =    -0.00000000   -0.00000000   -0.11103231
     atom    7 type  1   force =     0.00000000    0.00000000   -0.12714810
     atom    8 type  2   force =     0.00000000    0.00000000   -0.11102421
     The ionic contribution  to forces
     atom    1 type  1   force =    -0.00000000    0.00000000   -1.07129358
     atom    2 type  2   force =     0.00000000   -0.00000000    1.07129358
     atom    3 type  1   force =     0.00000000   -0.00000000   -1.07129358
     atom    4 type  2   force =    -0.00000000    0.00000000    1.07129358
     atom    5 type  1   force =    -0.00000000    0.00000000   -1.07129358
     atom    6 type  2   force =     0.00000000   -0.00000000    1.07129358
     atom    7 type  1   force =     0.00000000   -0.00000000   -1.07129358
     atom    8 type  2   force =    -0.00000000    0.00000000    1.07129358
     The local contribution  to forces
     atom    1 type  1   force =     0.00000000    0.00000000    1.20067016
     atom    2 type  2   force =     0.00000001   -0.00000001   -0.97012139
     atom    3 type  1   force =     0.00000004   -0.00000002    1.20067738
     atom    4 type  2   force =    -0.00000000   -0.00000000   -0.97012618
     atom    5 type  1   force =    -0.00000000    0.00000000    1.20069016
     atom    6 type  2   force =     0.00000001   -0.00000001   -0.97011340
     atom    7 type  1   force =     0.00000004   -0.00000002    1.20069206
     atom    8 type  2   force =    -0.00000000    0.00000000   -0.97011614
     The core correction contribution to forces
     atom    1 type  1   force =     0.00000000   -0.00000000    0.00669359
     atom    2 type  2   force =    -0.00000000    0.00000000    0.00092883
     atom    3 type  1   force =     0.00000001   -0.00000000    0.00669355
     atom    4 type  2   force =     0.00000000   -0.00000000    0.00092866
     atom    5 type  1   force =     0.00000000   -0.00000000    0.00669367
     atom    6 type  2   force =    -0.00000000    0.00000000    0.00092887
     atom    7 type  1   force =     0.00000001   -0.00000000    0.00669341
     atom    8 type  2   force =     0.00000000   -0.00000000    0.00092877
     The Hubbard contrib.    to forces
     atom    1 type  1   force =     0.00000000    0.00000000    0.00000000
     atom    2 type  2   force =     0.00000000    0.00000000    0.00000000
     atom    3 type  1   force =     0.00000000    0.00000000    0.00000000
     atom    4 type  2   force =     0.00000000    0.00000000    0.00000000
     atom    5 type  1   force =     0.00000000    0.00000000    0.00000000
     atom    6 type  2   force =     0.00000000    0.00000000    0.00000000
     atom    7 type  1   force =     0.00000000    0.00000000    0.00000000
     atom    8 type  2   force =     0.00000000    0.00000000    0.00000000
     The SCF correction term to forces
     atom    1 type  1   force =     0.00000000   -0.00000000    0.00001951
     atom    2 type  2   force =    -0.00000000    0.00000000    0.00000202
     atom    3 type  1   force =    -0.00000000    0.00000000    0.00000906
     atom    4 type  2   force =     0.00000000   -0.00000000   -0.00000530
     atom    5 type  1   force =     0.00000000   -0.00000000   -0.00002549
     atom    6 type  2   force =    -0.00000000    0.00000000   -0.00002012
     atom    7 type  1   force =    -0.00000000    0.00000000   -0.00001443
     atom    8 type  2   force =     0.00000000   -0.00000000   -0.00000779

     Total force =     0.025266     Total SCF correction =     0.000043

     General routines

     Parallel routines

   This run was terminated on:  14:10:33  13Jul2025

   JOB DONE.
Note: The following floating-point exceptions are signalling: IEEE_INVALID_FLAG
Note: The following floating-point exceptions are signalling: IEEE_INVALID_FLAG