     Program PWSCF v.7.2 starts on 13Jul2025 at 17: 8:22

     Reading input from /home/jvc/QEspresso7.2/ZnO_database/scripts/cell112.in/ZnO-3.53-1.68-112.in
Warning: card &CELL ignored
Warning: card / ignored
Warning: card &FCP ignored
Warning: card / ignored
Warning: card &RISM ignored
Warning: card / ignored

     Current dimensions of program PWSCF are:
     Max number of different atomic species (ntypx) = 10
     Max number of k-points (npk) =  40000
     Max angular momentum in pseudopotentials (lmaxx) =  4
     file Zn.upf: wavefunction(s)  3D renormalized
     Found identity + (  0.0000  0.0000 -0.5000) symmetry
     This is a supercell, fractional translations are disabled
     Message from routine setup:
     using ibrav=0 with symmetry is DISCOURAGED, use correct ibrav instead

     K-points division:     npool     =       2
     R & G space division:  proc/nbgrp/npool/nimage =       4
     Subspace diagonalization in iterative solution of the eigenvalue problem:
     a serial algorithm will be used

     Using Slab Decomposition

     bravais-lattice index     =            0
     lattice parameter (alat)  =       6.6732  a.u.
     unit-cell volume          =     864.1497 (a.u.)^3
     number of atoms/cell      =            8
     number of atomic types    =            2
     number of electrons       =        72.00
     number of Kohn-Sham states=           36
     kinetic-energy cutoff     =      50.0000  Ry
     charge density cutoff     =     400.0000  Ry
     scf convergence threshold =      1.0E-08
     mixing beta               =       0.3000
     number of iterations used =            8  plain     mixing
     Exchange-correlation= PBE
                           (   1   4   3   4   0   0   0)

     celldm(1)=   6.673162  celldm(2)=   0.000000  celldm(3)=   0.000000
     celldm(4)=   0.000000  celldm(5)=   0.000000  celldm(6)=   0.000000

     crystal axes: (cart. coord. in units of alat)
               a(1) = (   1.000000   0.000000   0.000000 )
               a(2) = (  -0.500000   0.866025   0.000000 )
               a(3) = (   0.000000   0.000000   3.357865 )

     reciprocal axes: (cart. coord. in units 2 pi/alat)
               b(1) = (  1.000000  0.577350 -0.000000 )
               b(2) = (  0.000000  1.154701  0.000000 )
               b(3) = (  0.000000 -0.000000  0.297808 )

     PseudoPot. # 1 for Zn read from file:
     /home/jvc/QEspresso7.2/ZnO_database/pseudos/Zn.upf
     MD5 check sum: 7f56cabf9682ed8c977c2f7d0c5985c5
     Pseudo is Ultrasoft + core correction, Zval = 12.0
     Generated using &quot;atomic&quot; code by A. Dal Corso  v.6.2.2
     Using radial grid of 1201 points,  6 beta functions with:
                l(1) =   0
                l(2) =   0
                l(3) =   1
                l(4) =   1
                l(5) =   2
                l(6) =   2
     Q(r) pseudized with 0 coefficients

     PseudoPot. # 2 for O  read from file:
     /home/jvc/QEspresso7.2/ZnO_database/pseudos/O.upf
     MD5 check sum: 91400c9766925bcf19f520983a725ff0
     Pseudo is Ultrasoft + core correction, Zval =  6.0
     Generated using &quot;atomic&quot; code by A. Dal Corso  v.6.3MaX
     Using radial grid of 1095 points,  4 beta functions with:
                l(1) =   0
                l(2) =   0
                l(3) =   1
                l(4) =   1
     Q(r) pseudized with 0 coefficients

     atomic species   valence    mass     pseudopotential
        Zn            12.00    65.38000     Zn( 1.00)
        O              6.00    15.99900     O ( 1.00)

      6 Sym. Ops. (no inversion) found

                                    s                        frac. trans.

      isym =  1     identity

 cryst.   s( 1) = (     1          0          0      )
                  (     0          1          0      )
                  (     0          0          1      )

 cart.    s( 1) = (  1.0000000  0.0000000  0.0000000 )
                  (  0.0000000  1.0000000  0.0000000 )
                  (  0.0000000  0.0000000  1.0000000 )

      isym =  2     120 deg rotation - cryst. axis [0,0,1]

[...]

      isym =  3     120 deg rotation - cryst. axis [0,0,-1]

[...]

      isym =  4     inv. 180 deg rotation - cart. axis [1,0,0]

[...]

      isym =  5     inv. 180 deg rotation - cryst. axis [0,1,0]

[...]

      isym =  6     inv. 180 deg rotation - cryst. axis [1,1,0]

 cryst.   s( 6) = (     0         -1          0      )
                  (    -1          0          0      )
                  (     0          0          1      )

 cart.    s( 6) = (  0.5000000 -0.8660254  0.0000000 )
                  ( -0.8660254 -0.5000000  0.0000000 )
                  (  0.0000000  0.0000000  1.0000000 )

   Cartesian axes

     site n.     atom                  positions (alat units)
         1           Zn  tau(   1) = (   0.0000000   0.0000000   0.0000000  )
         2           O   tau(   2) = (  -0.0000000   0.5773503   0.2211943  )
         3           Zn  tau(   3) = (  -0.0000000   0.5773503   0.8394663  )
         4           O   tau(   4) = (   0.0000000   0.0000000   1.0606607  )
         5           Zn  tau(   5) = (   0.0000000   0.0000000   1.6789327  )
         6           O   tau(   6) = (  -0.0000000   0.5773503   1.9001270  )
         7           Zn  tau(   7) = (  -0.0000000   0.5773503   2.5183990  )
         8           O   tau(   8) = (   0.0000000   0.0000000   2.7395934  )

   Crystallographic axes

     site n.     atom                  positions (cryst. coord.)
         1           Zn  tau(   1) = (  0.0000000  0.0000000  0.0000000  )
         2           O   tau(   2) = (  0.3333333  0.6666667  0.0658735  )
         3           Zn  tau(   3) = (  0.3333333  0.6666667  0.2500000  )
         4           O   tau(   4) = (  0.0000000  0.0000000  0.3158735  )
         5           Zn  tau(   5) = (  0.0000000  0.0000000  0.5000000  )
         6           O   tau(   6) = (  0.3333333  0.6666667  0.5658735  )
         7           Zn  tau(   7) = (  0.3333333  0.6666667  0.7500000  )
         8           O   tau(   8) = (  0.0000000  0.0000000  0.8158735  )

     number of k points=    34
                       cart. coord. in units 2pi/alat
        k(    1) = (   0.0000000   0.0000000   0.0000000), wk =   0.0092593
        k(    2) = (   0.0000000   0.0000000   0.0496347), wk =   0.0185185
        k(    3) = (   0.0000000   0.0000000   0.0992694), wk =   0.0185185
        k(    4) = (   0.0000000   0.0000000  -0.1489041), wk =   0.0092593
        k(    5) = (   0.0000000   0.1924501   0.0000000), wk =   0.0555556
        k(    6) = (   0.0000000   0.1924501   0.0496347), wk =   0.0555556
        k(    7) = (   0.0000000   0.1924501   0.0992694), wk =   0.0555556
        k(    8) = (   0.0000000   0.1924501  -0.1489041), wk =   0.0555556
        k(    9) = (   0.0000000   0.3849002   0.0000000), wk =   0.0555556
        k(   10) = (   0.0000000   0.3849002   0.0496347), wk =   0.0555556
        k(   11) = (   0.0000000   0.3849002   0.0992694), wk =   0.0555556
        k(   12) = (   0.0000000   0.3849002  -0.1489041), wk =   0.0555556
        k(   13) = (   0.0000000  -0.5773503   0.0000000), wk =   0.0277778
        k(   14) = (   0.0000000  -0.5773503   0.0496347), wk =   0.0555556
        k(   15) = (   0.0000000  -0.5773503   0.0992694), wk =   0.0555556
        k(   16) = (   0.0000000  -0.5773503  -0.1489041), wk =   0.0277778
        k(   17) = (   0.1666667   0.2886751   0.0000000), wk =   0.0555556
        k(   18) = (   0.1666667   0.2886751   0.0496347), wk =   0.1111111
        k(   19) = (   0.1666667   0.2886751   0.0992694), wk =   0.1111111
        k(   20) = (   0.1666667   0.2886751  -0.1489041), wk =   0.0555556
        k(   21) = (   0.1666667   0.4811252   0.0000000), wk =   0.1111111
        k(   22) = (   0.1666667   0.4811252   0.0496347), wk =   0.1111111
        k(   23) = (   0.1666667   0.4811252   0.0992694), wk =   0.1111111
        k(   24) = (   0.1666667   0.4811252  -0.1489041), wk =   0.1111111
        k(   25) = (   0.3333333   0.5773503   0.0000000), wk =   0.0185185
        k(   26) = (   0.3333333   0.5773503   0.0496347), wk =   0.0370370
        k(   27) = (   0.3333333   0.5773503   0.0992694), wk =   0.0370370
        k(   28) = (   0.3333333   0.5773503  -0.1489041), wk =   0.0185185
        k(   29) = (   0.0000000  -0.1924501   0.0496347), wk =   0.0555556
        k(   30) = (   0.0000000  -0.1924501   0.0992694), wk =   0.0555556
        k(   31) = (   0.0000000  -0.3849002   0.0496347), wk =   0.0555556
        k(   32) = (   0.0000000  -0.3849002   0.0992694), wk =   0.0555556
        k(   33) = (  -0.1666667  -0.4811252   0.0496347), wk =   0.1111111
        k(   34) = (  -0.1666667  -0.4811252   0.0992694), wk =   0.1111111

                       cryst. coord.
        k(    1) = (   0.0000000   0.0000000   0.0000000), wk =   0.0092593
        k(    2) = (   0.0000000   0.0000000   0.1666667), wk =   0.0185185
        k(    3) = (   0.0000000   0.0000000   0.3333333), wk =   0.0185185
        k(    4) = (   0.0000000   0.0000000  -0.5000000), wk =   0.0092593
        k(    5) = (   0.0000000   0.1666667   0.0000000), wk =   0.0555556
        k(    6) = (   0.0000000   0.1666667   0.1666667), wk =   0.0555556
        k(    7) = (   0.0000000   0.1666667   0.3333333), wk =   0.0555556
        k(    8) = (   0.0000000   0.1666667  -0.5000000), wk =   0.0555556
        k(    9) = (   0.0000000   0.3333333   0.0000000), wk =   0.0555556
        k(   10) = (   0.0000000   0.3333333   0.1666667), wk =   0.0555556
        k(   11) = (   0.0000000   0.3333333   0.3333333), wk =   0.0555556
        k(   12) = (   0.0000000   0.3333333  -0.5000000), wk =   0.0555556
        k(   13) = (   0.0000000  -0.5000000   0.0000000), wk =   0.0277778
        k(   14) = (   0.0000000  -0.5000000   0.1666667), wk =   0.0555556
        k(   15) = (   0.0000000  -0.5000000   0.3333333), wk =   0.0555556
        k(   16) = (   0.0000000  -0.5000000  -0.5000000), wk =   0.0277778
        k(   17) = (   0.1666667   0.1666667   0.0000000), wk =   0.0555556
        k(   18) = (   0.1666667   0.1666667   0.1666667), wk =   0.1111111
        k(   19) = (   0.1666667   0.1666667   0.3333333), wk =   0.1111111
        k(   20) = (   0.1666667   0.1666667  -0.5000000), wk =   0.0555556
        k(   21) = (   0.1666667   0.3333333   0.0000000), wk =   0.1111111
        k(   22) = (   0.1666667   0.3333333   0.1666667), wk =   0.1111111
        k(   23) = (   0.1666667   0.3333333   0.3333333), wk =   0.1111111
        k(   24) = (   0.1666667   0.3333333  -0.5000000), wk =   0.1111111
        k(   25) = (   0.3333333   0.3333333   0.0000000), wk =   0.0185185
        k(   26) = (   0.3333333   0.3333333   0.1666667), wk =   0.0370370
        k(   27) = (   0.3333333   0.3333333   0.3333333), wk =   0.0370370
        k(   28) = (   0.3333333   0.3333333  -0.5000000), wk =   0.0185185
        k(   29) = (   0.0000000  -0.1666667   0.1666667), wk =   0.0555556
        k(   30) = (   0.0000000  -0.1666667   0.3333333), wk =   0.0555556
        k(   31) = (   0.0000000  -0.3333333   0.1666667), wk =   0.0555556
        k(   32) = (   0.0000000  -0.3333333   0.3333333), wk =   0.0555556
        k(   33) = (  -0.1666667  -0.3333333   0.1666667), wk =   0.1111111
        k(   34) = (  -0.1666667  -0.3333333   0.3333333), wk =   0.1111111

     Check: negative core charge=   -0.000002

     Initial potential from superposition of free atoms

     starting charge      71.9851, renormalised to      72.0000
     Starting wfcs are   52 randomized atomic wfcs

     Self-consistent Calculation

     iteration #  1     ecut=    50.00 Ry     beta= 0.30
     Davidson diagonalization with overlap

     ethr =  1.00E-02,  avg # of iterations =  1.3

     total energy              =    -722.70440233 Ry
     estimated scf accuracy    <       1.67856281 Ry

[...]

     c_bands:  1 eigenvalues not converged
     ethr =  1.47E-07,  avg # of iterations =  6.7

[...]

     c_bands:  1 eigenvalues not converged
     ethr =  5.22E-08,  avg # of iterations = 13.8

[...]

     total energy              =    -723.10914670 Ry
     estimated scf accuracy    <       0.00000004 Ry

     iteration # 29     ecut=    50.00 Ry     beta= 0.30
     Davidson diagonalization with overlap

     ethr =  5.78E-11,  avg # of iterations =  5.4

     End of self-consistent calculation

          k = 0.0000 0.0000 0.0000 (  5157 PWs)   bands (ev):

   -12.6826 -12.5177 -12.5176 -12.3473  -1.3441  -1.3047  -1.3047  -1.2916
    -1.2916  -1.2468  -1.2468  -1.2468  -1.2468  -1.1833  -1.1833  -0.8133
    -0.8133  -0.7811  -0.7591  -0.7591  -0.7591  -0.7591  -0.7185  -0.7185
    -0.1321   1.3966   1.3967   3.0837   3.0837   3.3248   3.3248   3.3248
     3.3248   3.4422   3.5625   3.5625

     occupation numbers
     1.0000   1.0000   1.0000   1.0000   1.0000   1.0000   1.0000   1.0000
     1.0000   1.0000   1.0000   1.0000   1.0000   1.0000   1.0000   1.0000
     1.0000   1.0000   1.0000   1.0000   1.0000   1.0000   1.0000   1.0000
     1.0000   1.0000   1.0000   1.0000   1.0000   1.0000   1.0000   1.0000
     1.0000   1.0000   1.0000   1.0000

[...]

          k = 0.0000-0.3849 0.0993 (  5170 PWs)   bands (ev):

[...]

          k =-0.1667-0.4811 0.0496 (  5141 PWs)   bands (ev):

[...]

          k =-0.1667-0.4811 0.0993 (  5141 PWs)   bands (ev):

   -12.3236 -12.3031 -12.2495 -12.2309  -1.2810  -1.2699  -1.2032  -1.1755
    -1.1223  -1.0926  -0.9963  -0.9720  -0.9653  -0.9371  -0.9266  -0.8990
    -0.8035  -0.7767  -0.7542  -0.7424  -0.6742  -0.6650  -0.6100  -0.5803
     0.5106   0.5147   0.7457   0.8810   1.7083   1.9652   2.0003   2.2945
     2.5349   2.6834   2.7756   2.7811

     occupation numbers
     1.0000   1.0000   1.0000   1.0000   1.0000   1.0000   1.0000   1.0000
     1.0000   1.0000   1.0000   1.0000   1.0000   1.0000   1.0000   1.0000
     1.0000   1.0000   1.0000   1.0000   1.0000   1.0000   1.0000   1.0000
     1.0000   1.0000   1.0000   1.0000   1.0000   1.0000   1.0000   1.0000
     1.0000   1.0000   1.0000   1.0000

     highest occupied level (ev):     3.5625

!    total energy              =    -723.10914672 Ry
     estimated scf accuracy    <          2.2E-10 Ry

     The total energy is the sum of the following terms:
     one-electron contribution =    -368.38014442 Ry
     hartree contribution      =     258.16294349 Ry
     xc contribution           =    -218.13289555 Ry
     ewald contribution        =    -394.75905024 Ry

     convergence has been achieved in  29 iterations

     Forces acting on atoms (cartesian axes, Ry/au):

     atom    1 type  1   force =     0.00000000   -0.00000000    0.00649663
     atom    2 type  2   force =     0.00000000   -0.00000000   -0.00649625
     atom    3 type  1   force =     0.00000000   -0.00000000    0.00648134
     atom    4 type  2   force =     0.00000000    0.00000000   -0.00649657
     atom    5 type  1   force =     0.00000000    0.00000000    0.00650669
     atom    6 type  2   force =     0.00000000    0.00000000   -0.00649641
     atom    7 type  1   force =     0.00000000    0.00000000    0.00650125
     atom    8 type  2   force =     0.00000000    0.00000000   -0.00649669
     The non-local contrib.  to forces
     atom    1 type  1   force =     0.00000000    0.00000000   -0.04328651
     atom    2 type  2   force =     0.00000000    0.00000000   -0.04825501
     atom    3 type  1   force =     0.00000000   -0.00000000   -0.04329257
     atom    4 type  2   force =     0.00000000    0.00000000   -0.04825284
     atom    5 type  1   force =     0.00000000    0.00000000   -0.04327842
     atom    6 type  2   force =     0.00000000   -0.00000000   -0.04826105
     atom    7 type  1   force =     0.00000000    0.00000000   -0.04328012
     atom    8 type  2   force =     0.00000000   -0.00000000   -0.04826110
     The ionic contribution  to forces
     atom    1 type  1   force =    -0.00000000    0.00000000   -0.39503123
     atom    2 type  2   force =     0.00000000   -0.00000000    0.39503123
     atom    3 type  1   force =     0.00000000   -0.00000000   -0.39503123
     atom    4 type  2   force =    -0.00000000    0.00000000    0.39503123
     atom    5 type  1   force =    -0.00000000    0.00000000   -0.39503123
     atom    6 type  2   force =     0.00000000   -0.00000000    0.39503123
     atom    7 type  1   force =     0.00000000   -0.00000000   -0.39503123
     atom    8 type  2   force =    -0.00000000    0.00000000    0.39503123
     The local contribution  to forces
     atom    1 type  1   force =     0.00000000    0.00000000    0.44285379
     atom    2 type  2   force =     0.00000001   -0.00000001   -0.35371469
     atom    3 type  1   force =     0.00000005   -0.00000003    0.44287636
     atom    4 type  2   force =     0.00000000   -0.00000000   -0.35370770
     atom    5 type  1   force =    -0.00000000    0.00000000    0.44283913
     atom    6 type  2   force =     0.00000001   -0.00000001   -0.35372272
     atom    7 type  1   force =     0.00000005   -0.00000003    0.44284562
     atom    8 type  2   force =     0.00000000   -0.00000000   -0.35372056
     The core correction contribution to forces
     atom    1 type  1   force =     0.00000000   -0.00000000    0.00195936
     atom    2 type  2   force =    -0.00000000    0.00000000    0.00044782
     atom    3 type  1   force =     0.00000001   -0.00000000    0.00195895
     atom    4 type  2   force =    -0.00000000    0.00000000    0.00044780
     atom    5 type  1   force =     0.00000000   -0.00000000    0.00195914
     atom    6 type  2   force =    -0.00000000    0.00000000    0.00044790
     atom    7 type  1   force =     0.00000001   -0.00000000    0.00195914
     atom    8 type  2   force =    -0.00000000    0.00000000    0.00044790
     The Hubbard contrib.    to forces
     atom    1 type  1   force =     0.00000000    0.00000000    0.00000000
     atom    2 type  2   force =     0.00000000    0.00000000    0.00000000
     atom    3 type  1   force =     0.00000000    0.00000000    0.00000000
     atom    4 type  2   force =     0.00000000    0.00000000    0.00000000
     atom    5 type  1   force =     0.00000000    0.00000000    0.00000000
     atom    6 type  2   force =     0.00000000    0.00000000    0.00000000
     atom    7 type  1   force =     0.00000000    0.00000000    0.00000000
     atom    8 type  2   force =     0.00000000    0.00000000    0.00000000
     The SCF correction term to forces
     atom    1 type  1   force =    -0.00000000    0.00000000    0.00000004
     atom    2 type  2   force =     0.00000000   -0.00000000   -0.00000678
     atom    3 type  1   force =     0.00000000   -0.00000000   -0.00003134
     atom    4 type  2   force =    -0.00000000    0.00000000   -0.00001624
     atom    5 type  1   force =    -0.00000000    0.00000000    0.00001688
     atom    6 type  2   force =     0.00000000   -0.00000000    0.00000705
     atom    7 type  1   force =     0.00000000   -0.00000000    0.00000666
     atom    8 type  2   force =    -0.00000000    0.00000000    0.00000465

     Total force =     0.018375     Total SCF correction =     0.000041

     General routines

     Parallel routines

   This run was terminated on:  17:13: 8  13Jul2025

   JOB DONE.
Note: The following floating-point exceptions are signalling: IEEE_INVALID_FLAG
Note: The following floating-point exceptions are signalling: IEEE_INVALID_FLAG