     Program PWSCF v.7.2 starts on 13Jul2025 at 11:59:17

     Reading input from /home/jvc/QEspresso7.2/ZnO_database/scripts/cell112.in/ZnO-3.07-1.71-112.in
Warning: card &CELL ignored
Warning: card / ignored
Warning: card &FCP ignored
Warning: card / ignored
Warning: card &RISM ignored
Warning: card / ignored

     Current dimensions of program PWSCF are:
     Max number of different atomic species (ntypx) = 10
     Max number of k-points (npk) =  40000
     Max angular momentum in pseudopotentials (lmaxx) =  4
     file Zn.upf: wavefunction(s)  3D renormalized
     Found identity + (  0.0000  0.0000 -0.5000) symmetry
     This is a supercell, fractional translations are disabled
     Message from routine setup:
     using ibrav=0 with symmetry is DISCOURAGED, use correct ibrav instead

     K-points division:     npool     =       2
     R & G space division:  proc/nbgrp/npool/nimage =       4
     Subspace diagonalization in iterative solution of the eigenvalue problem:
     a serial algorithm will be used

     Using Slab Decomposition

     bravais-lattice index     =            0
     lattice parameter (alat)  =       5.8081  a.u.
     unit-cell volume          =     580.7294 (a.u.)^3
     number of atoms/cell      =            8
     number of atomic types    =            2
     number of electrons       =        72.00
     number of Kohn-Sham states=           36
     kinetic-energy cutoff     =      50.0000  Ry
     charge density cutoff     =     400.0000  Ry
     scf convergence threshold =      1.0E-08
     mixing beta               =       0.3000
     number of iterations used =            8  plain     mixing
     Exchange-correlation= PBE
                           (   1   4   3   4   0   0   0)

     celldm(1)=   5.808123  celldm(2)=   0.000000  celldm(3)=   0.000000
     celldm(4)=   0.000000  celldm(5)=   0.000000  celldm(6)=   0.000000

     crystal axes: (cart. coord. in units of alat)
               a(1) = (   1.000000   0.000000   0.000000 )
               a(2) = (  -0.500000   0.866025   0.000000 )
               a(3) = (   0.000000   0.000000   3.422440 )

     reciprocal axes: (cart. coord. in units 2 pi/alat)
               b(1) = (  1.000000  0.577350 -0.000000 )
               b(2) = (  0.000000  1.154701  0.000000 )
               b(3) = (  0.000000 -0.000000  0.292189 )

     PseudoPot. # 1 for Zn read from file:
     /home/jvc/QEspresso7.2/ZnO_database/pseudos/Zn.upf
     MD5 check sum: 7f56cabf9682ed8c977c2f7d0c5985c5
     Pseudo is Ultrasoft + core correction, Zval = 12.0
     Generated using &quot;atomic&quot; code by A. Dal Corso  v.6.2.2
     Using radial grid of 1201 points,  6 beta functions with:
                l(1) =   0
                l(2) =   0
                l(3) =   1
                l(4) =   1
                l(5) =   2
                l(6) =   2
     Q(r) pseudized with 0 coefficients

     PseudoPot. # 2 for O  read from file:
     /home/jvc/QEspresso7.2/ZnO_database/pseudos/O.upf
     MD5 check sum: 91400c9766925bcf19f520983a725ff0
     Pseudo is Ultrasoft + core correction, Zval =  6.0
     Generated using &quot;atomic&quot; code by A. Dal Corso  v.6.3MaX
     Using radial grid of 1095 points,  4 beta functions with:
                l(1) =   0
                l(2) =   0
                l(3) =   1
                l(4) =   1
     Q(r) pseudized with 0 coefficients

     atomic species   valence    mass     pseudopotential
        Zn            12.00    65.38000     Zn( 1.00)
        O              6.00    15.99900     O ( 1.00)

      6 Sym. Ops. (no inversion) found

                                    s                        frac. trans.

      isym =  1     identity

 cryst.   s( 1) = (     1          0          0      )
                  (     0          1          0      )
                  (     0          0          1      )

 cart.    s( 1) = (  1.0000000  0.0000000  0.0000000 )
                  (  0.0000000  1.0000000  0.0000000 )
                  (  0.0000000  0.0000000  1.0000000 )

      isym =  2     120 deg rotation - cryst. axis [0,0,1]

[...]

      isym =  3     120 deg rotation - cryst. axis [0,0,-1]

[...]

      isym =  4     inv. 180 deg rotation - cart. axis [1,0,0]

[...]

      isym =  5     inv. 180 deg rotation - cryst. axis [0,1,0]

[...]

      isym =  6     inv. 180 deg rotation - cryst. axis [1,1,0]

 cryst.   s( 6) = (     0         -1          0      )
                  (    -1          0          0      )
                  (     0          0          1      )

 cart.    s( 6) = (  0.5000000 -0.8660254  0.0000000 )
                  ( -0.8660254 -0.5000000  0.0000000 )
                  (  0.0000000  0.0000000  1.0000000 )

   Cartesian axes

     site n.     atom                  positions (alat units)
         1           Zn  tau(   1) = (   0.0000000   0.0000000   0.0000000  )
         2           O   tau(   2) = (  -0.0000000   0.5773503   0.2330121  )
         3           Zn  tau(   3) = (  -0.0000000   0.5773503   0.8556099  )
         4           O   tau(   4) = (   0.0000000   0.0000000   1.0886221  )
         5           Zn  tau(   5) = (   0.0000000   0.0000000   1.7112199  )
         6           O   tau(   6) = (  -0.0000000   0.5773503   1.9442320  )
         7           Zn  tau(   7) = (  -0.0000000   0.5773503   2.5668298  )
         8           O   tau(   8) = (   0.0000000   0.0000000   2.7998419  )

   Crystallographic axes

     site n.     atom                  positions (cryst. coord.)
         1           Zn  tau(   1) = (  0.0000000  0.0000000  0.0000000  )
         2           O   tau(   2) = (  0.3333333  0.6666667  0.0680836  )
         3           Zn  tau(   3) = (  0.3333333  0.6666667  0.2500000  )
         4           O   tau(   4) = (  0.0000000  0.0000000  0.3180836  )
         5           Zn  tau(   5) = (  0.0000000  0.0000000  0.5000000  )
         6           O   tau(   6) = (  0.3333333  0.6666667  0.5680836  )
         7           Zn  tau(   7) = (  0.3333333  0.6666667  0.7500000  )
         8           O   tau(   8) = (  0.0000000  0.0000000  0.8180836  )

     number of k points=    34
                       cart. coord. in units 2pi/alat
        k(    1) = (   0.0000000   0.0000000   0.0000000), wk =   0.0092593
        k(    2) = (   0.0000000   0.0000000   0.0486982), wk =   0.0185185
        k(    3) = (   0.0000000   0.0000000   0.0973964), wk =   0.0185185
        k(    4) = (   0.0000000   0.0000000  -0.1460946), wk =   0.0092593
        k(    5) = (   0.0000000   0.1924501   0.0000000), wk =   0.0555556
        k(    6) = (   0.0000000   0.1924501   0.0486982), wk =   0.0555556
        k(    7) = (   0.0000000   0.1924501   0.0973964), wk =   0.0555556
        k(    8) = (   0.0000000   0.1924501  -0.1460946), wk =   0.0555556
        k(    9) = (   0.0000000   0.3849002   0.0000000), wk =   0.0555556
        k(   10) = (   0.0000000   0.3849002   0.0486982), wk =   0.0555556
        k(   11) = (   0.0000000   0.3849002   0.0973964), wk =   0.0555556
        k(   12) = (   0.0000000   0.3849002  -0.1460946), wk =   0.0555556
        k(   13) = (   0.0000000  -0.5773503   0.0000000), wk =   0.0277778
        k(   14) = (   0.0000000  -0.5773503   0.0486982), wk =   0.0555556
        k(   15) = (   0.0000000  -0.5773503   0.0973964), wk =   0.0555556
        k(   16) = (   0.0000000  -0.5773503  -0.1460946), wk =   0.0277778
        k(   17) = (   0.1666667   0.2886751   0.0000000), wk =   0.0555556
        k(   18) = (   0.1666667   0.2886751   0.0486982), wk =   0.1111111
        k(   19) = (   0.1666667   0.2886751   0.0973964), wk =   0.1111111
        k(   20) = (   0.1666667   0.2886751  -0.1460946), wk =   0.0555556
        k(   21) = (   0.1666667   0.4811252   0.0000000), wk =   0.1111111
        k(   22) = (   0.1666667   0.4811252   0.0486982), wk =   0.1111111
        k(   23) = (   0.1666667   0.4811252   0.0973964), wk =   0.1111111
        k(   24) = (   0.1666667   0.4811252  -0.1460946), wk =   0.1111111
        k(   25) = (   0.3333333   0.5773503   0.0000000), wk =   0.0185185
        k(   26) = (   0.3333333   0.5773503   0.0486982), wk =   0.0370370
        k(   27) = (   0.3333333   0.5773503   0.0973964), wk =   0.0370370
        k(   28) = (   0.3333333   0.5773503  -0.1460946), wk =   0.0185185
        k(   29) = (   0.0000000  -0.1924501   0.0486982), wk =   0.0555556
        k(   30) = (   0.0000000  -0.1924501   0.0973964), wk =   0.0555556
        k(   31) = (   0.0000000  -0.3849002   0.0486982), wk =   0.0555556
        k(   32) = (   0.0000000  -0.3849002   0.0973964), wk =   0.0555556
        k(   33) = (  -0.1666667  -0.4811252   0.0486982), wk =   0.1111111
        k(   34) = (  -0.1666667  -0.4811252   0.0973964), wk =   0.1111111

                       cryst. coord.
        k(    1) = (   0.0000000   0.0000000   0.0000000), wk =   0.0092593
        k(    2) = (   0.0000000   0.0000000   0.1666667), wk =   0.0185185
        k(    3) = (   0.0000000   0.0000000   0.3333333), wk =   0.0185185
        k(    4) = (   0.0000000   0.0000000  -0.5000000), wk =   0.0092593
        k(    5) = (   0.0000000   0.1666667   0.0000000), wk =   0.0555556
        k(    6) = (   0.0000000   0.1666667   0.1666667), wk =   0.0555556
        k(    7) = (   0.0000000   0.1666667   0.3333333), wk =   0.0555556
        k(    8) = (   0.0000000   0.1666667  -0.5000000), wk =   0.0555556
        k(    9) = (   0.0000000   0.3333333   0.0000000), wk =   0.0555556
        k(   10) = (   0.0000000   0.3333333   0.1666667), wk =   0.0555556
        k(   11) = (   0.0000000   0.3333333   0.3333333), wk =   0.0555556
        k(   12) = (   0.0000000   0.3333333  -0.5000000), wk =   0.0555556
        k(   13) = (   0.0000000  -0.5000000   0.0000000), wk =   0.0277778
        k(   14) = (   0.0000000  -0.5000000   0.1666667), wk =   0.0555556
        k(   15) = (   0.0000000  -0.5000000   0.3333333), wk =   0.0555556
        k(   16) = (   0.0000000  -0.5000000  -0.5000000), wk =   0.0277778
        k(   17) = (   0.1666667   0.1666667   0.0000000), wk =   0.0555556
        k(   18) = (   0.1666667   0.1666667   0.1666667), wk =   0.1111111
        k(   19) = (   0.1666667   0.1666667   0.3333333), wk =   0.1111111
        k(   20) = (   0.1666667   0.1666667  -0.5000000), wk =   0.0555556
        k(   21) = (   0.1666667   0.3333333   0.0000000), wk =   0.1111111
        k(   22) = (   0.1666667   0.3333333   0.1666667), wk =   0.1111111
        k(   23) = (   0.1666667   0.3333333   0.3333333), wk =   0.1111111
        k(   24) = (   0.1666667   0.3333333  -0.5000000), wk =   0.1111111
        k(   25) = (   0.3333333   0.3333333   0.0000000), wk =   0.0185185
        k(   26) = (   0.3333333   0.3333333   0.1666667), wk =   0.0370370
        k(   27) = (   0.3333333   0.3333333   0.3333333), wk =   0.0370370
        k(   28) = (   0.3333333   0.3333333  -0.5000000), wk =   0.0185185
        k(   29) = (   0.0000000  -0.1666667   0.1666667), wk =   0.0555556
        k(   30) = (   0.0000000  -0.1666667   0.3333333), wk =   0.0555556
        k(   31) = (   0.0000000  -0.3333333   0.1666667), wk =   0.0555556
        k(   32) = (   0.0000000  -0.3333333   0.3333333), wk =   0.0555556
        k(   33) = (  -0.1666667  -0.3333333   0.1666667), wk =   0.1111111
        k(   34) = (  -0.1666667  -0.3333333   0.3333333), wk =   0.1111111

     Check: negative core charge=   -0.000002

     Initial potential from superposition of free atoms

     starting charge      71.9851, renormalised to      72.0000
     Starting wfcs are   52 randomized atomic wfcs

     Self-consistent Calculation

     iteration #  1     ecut=    50.00 Ry     beta= 0.30
     Davidson diagonalization with overlap

     ethr =  1.00E-02,  avg # of iterations =  2.0

     total energy              =    -722.92092185 Ry
     estimated scf accuracy    <       1.34381041 Ry

[...]

     total energy              =    -723.20913652 Ry
     estimated scf accuracy    <       0.00000002 Ry

     iteration # 38     ecut=    50.00 Ry     beta= 0.30
     Davidson diagonalization with overlap

     ethr =  2.27E-11,  avg # of iterations =  1.7

     End of self-consistent calculation

          k = 0.0000 0.0000 0.0000 (  3513 PWs)   bands (ev):

   -10.0670  -9.6820  -9.6819  -9.2657   2.1657   2.1657   2.1660   2.4907
     2.7081   2.7081   2.8186   2.8186   2.8187   2.8187   2.9743   2.9743
     4.1472   4.1472   4.2800   4.2800   4.2800   4.2800   4.3805   4.3805
     4.6236   6.3762   6.3762   8.0021   8.0021   8.4598   8.4598   8.4598
     8.4598   8.7309   8.9120   8.9120

     occupation numbers
     1.0000   1.0000   1.0000   1.0000   1.0000   1.0000   1.0000   1.0000
     1.0000   1.0000   1.0000   1.0000   1.0000   1.0000   1.0000   1.0000
     1.0000   1.0000   1.0000   1.0000   1.0000   1.0000   1.0000   1.0000
     1.0000   1.0000   1.0000   1.0000   1.0000   1.0000   1.0000   1.0000
     1.0000   1.0000   1.0000   1.0000

[...]

          k = 0.0000-0.3849 0.0974 (  3459 PWs)   bands (ev):

[...]

          k =-0.1667-0.4811 0.0487 (  3456 PWs)   bands (ev):

[...]

          k =-0.1667-0.4811 0.0974 (  3459 PWs)   bands (ev):

    -9.1798  -9.1294  -9.0007  -8.9572   2.2294   2.3135   2.3224   2.5128
     2.8794   2.8835   3.0509   3.0997   3.3135   3.3165   3.4073   3.5268
     4.0883   4.1719   4.2471   4.3051   4.4802   4.4937   4.6207   4.7232
     4.7782   4.9671   5.4068   5.4619   5.8943   6.2197   6.2446   6.6215
     7.2201   7.3555   7.4860   7.6455

     occupation numbers
     1.0000   1.0000   1.0000   1.0000   1.0000   1.0000   1.0000   1.0000
     1.0000   1.0000   1.0000   1.0000   1.0000   1.0000   1.0000   1.0000
     1.0000   1.0000   1.0000   1.0000   1.0000   1.0000   1.0000   1.0000
     1.0000   1.0000   1.0000   1.0000   1.0000   1.0000   1.0000   1.0000
     1.0000   1.0000   1.0000   1.0000

     highest occupied level (ev):     8.9120

!    total energy              =    -723.20913652 Ry
     estimated scf accuracy    <          9.6E-09 Ry

     The total energy is the sum of the following terms:
     one-electron contribution =    -278.36965411 Ry
     hartree contribution      =     225.65434741 Ry
     xc contribution           =    -219.62864098 Ry
     ewald contribution        =    -450.86518883 Ry

     convergence has been achieved in  38 iterations

     Forces acting on atoms (cartesian axes, Ry/au):

     atom    1 type  1   force =     0.00000000    0.00000000   -0.00428164
     atom    2 type  2   force =     0.00000000    0.00000000    0.00428209
     atom    3 type  1   force =     0.00000000    0.00000000   -0.00424664
     atom    4 type  2   force =     0.00000000    0.00000000    0.00428378
     atom    5 type  1   force =     0.00000000    0.00000000   -0.00428508
     atom    6 type  2   force =     0.00000000    0.00000000    0.00428599
     atom    7 type  1   force =     0.00000000    0.00000000   -0.00432527
     atom    8 type  2   force =     0.00000000    0.00000000    0.00428675
     The non-local contrib.  to forces
     atom    1 type  1   force =     0.00000000    0.00000000   -0.07894390
     atom    2 type  2   force =     0.00000000    0.00000000   -0.06536105
     atom    3 type  1   force =     0.00000000    0.00000000   -0.07893363
     atom    4 type  2   force =     0.00000000    0.00000000   -0.06537405
     atom    5 type  1   force =     0.00000000   -0.00000000   -0.07895396
     atom    6 type  2   force =     0.00000000    0.00000000   -0.06535221
     atom    7 type  1   force =     0.00000000    0.00000000   -0.07896678
     atom    8 type  2   force =     0.00000000    0.00000000   -0.06535055
     The ionic contribution  to forces
     atom    1 type  1   force =    -0.00000000    0.00000000   -0.76076090
     atom    2 type  2   force =     0.00000000   -0.00000000    0.76076090
     atom    3 type  1   force =     0.00000000   -0.00000000   -0.76076090
     atom    4 type  2   force =    -0.00000000    0.00000000    0.76076090
     atom    5 type  1   force =    -0.00000000    0.00000000   -0.76076090
     atom    6 type  2   force =     0.00000000   -0.00000000    0.76076090
     atom    7 type  1   force =     0.00000000   -0.00000000   -0.76076090
     atom    8 type  2   force =    -0.00000000    0.00000000    0.76076090
     The local contribution  to forces
     atom    1 type  1   force =     0.00000000    0.00000000    0.83038782
     atom    2 type  2   force =     0.00000001   -0.00000001   -0.69158816
     atom    3 type  1   force =     0.00000004   -0.00000002    0.83035116
     atom    4 type  2   force =     0.00000000    0.00000000   -0.69159891
     atom    5 type  1   force =    -0.00000000    0.00000000    0.83039635
     atom    6 type  2   force =     0.00000001   -0.00000001   -0.69158784
     atom    7 type  1   force =     0.00000004   -0.00000002    0.83045933
     atom    8 type  2   force =     0.00000000    0.00000000   -0.69158587
     The core correction contribution to forces
     atom    1 type  1   force =     0.00000000    0.00000000    0.00502863
     atom    2 type  2   force =    -0.00000000    0.00000000    0.00048054
     atom    3 type  1   force =     0.00000001   -0.00000000    0.00502866
     atom    4 type  2   force =     0.00000000   -0.00000000    0.00048071
     atom    5 type  1   force =     0.00000000   -0.00000000    0.00502909
     atom    6 type  2   force =    -0.00000000    0.00000000    0.00048041
     atom    7 type  1   force =     0.00000001   -0.00000000    0.00502762
     atom    8 type  2   force =     0.00000000   -0.00000000    0.00048036
     The Hubbard contrib.    to forces
     atom    1 type  1   force =     0.00000000    0.00000000    0.00000000
     atom    2 type  2   force =     0.00000000    0.00000000    0.00000000
     atom    3 type  1   force =     0.00000000    0.00000000    0.00000000
     atom    4 type  2   force =     0.00000000    0.00000000    0.00000000
     atom    5 type  1   force =     0.00000000    0.00000000    0.00000000
     atom    6 type  2   force =     0.00000000    0.00000000    0.00000000
     atom    7 type  1   force =     0.00000000    0.00000000    0.00000000
     atom    8 type  2   force =     0.00000000    0.00000000    0.00000000
     The SCF correction term to forces
     atom    1 type  1   force =    -0.00000000    0.00000000    0.00001010
     atom    2 type  2   force =     0.00000000   -0.00000000   -0.00000675
     atom    3 type  1   force =     0.00000000   -0.00000000    0.00007146
     atom    4 type  2   force =    -0.00000000    0.00000000    0.00001853
     atom    5 type  1   force =    -0.00000000    0.00000000    0.00000774
     atom    6 type  2   force =     0.00000000   -0.00000000   -0.00001189
     atom    7 type  1   force =     0.00000000   -0.00000000   -0.00008115
     atom    8 type  2   force =    -0.00000000    0.00000000   -0.00001470

     Total force =     0.012119     Total SCF correction =     0.000112

     General routines

     Parallel routines

   This run was terminated on:  12: 3: 2  13Jul2025

   JOB DONE.
Note: The following floating-point exceptions are signalling: IEEE_INVALID_FLAG
Note: The following floating-point exceptions are signalling: IEEE_INVALID_FLAG