     Program PWSCF v.7.2 starts on 13Jul2025 at 16: 2:46

     Reading input from /home/jvc/QEspresso7.2/ZnO_database/scripts/cell112.in/ZnO-3.47-1.58-112.in
Warning: card &CELL ignored
Warning: card / ignored
Warning: card &FCP ignored
Warning: card / ignored
Warning: card &RISM ignored
Warning: card / ignored

     Current dimensions of program PWSCF are:
     Max number of different atomic species (ntypx) = 10
     Max number of k-points (npk) =  40000
     Max angular momentum in pseudopotentials (lmaxx) =  4
     file Zn.upf: wavefunction(s)  3D renormalized
     Found identity + (  0.0000  0.0000 -0.5000) symmetry
     This is a supercell, fractional translations are disabled
     Message from routine setup:
     using ibrav=0 with symmetry is DISCOURAGED, use correct ibrav instead

     K-points division:     npool     =       2
     R & G space division:  proc/nbgrp/npool/nimage =       4
     Subspace diagonalization in iterative solution of the eigenvalue problem:
     a serial algorithm will be used

     Using Slab Decomposition

     bravais-lattice index     =            0
     lattice parameter (alat)  =       6.5496  a.u.
     unit-cell volume          =     769.8889 (a.u.)^3
     number of atoms/cell      =            8
     number of atomic types    =            2
     number of electrons       =        72.00
     number of Kohn-Sham states=           36
     kinetic-energy cutoff     =      50.0000  Ry
     charge density cutoff     =     400.0000  Ry
     scf convergence threshold =      1.0E-08
     mixing beta               =       0.3000
     number of iterations used =            8  plain     mixing
     Exchange-correlation= PBE
                           (   1   4   3   4   0   0   0)

     celldm(1)=   6.549585  celldm(2)=   0.000000  celldm(3)=   0.000000
     celldm(4)=   0.000000  celldm(5)=   0.000000  celldm(6)=   0.000000

     crystal axes: (cart. coord. in units of alat)
               a(1) = (   1.000000   0.000000   0.000000 )
               a(2) = (  -0.500000   0.866025   0.000000 )
               a(3) = (   0.000000   0.000000   3.164142 )

     reciprocal axes: (cart. coord. in units 2 pi/alat)
               b(1) = (  1.000000  0.577350 -0.000000 )
               b(2) = (  0.000000  1.154701  0.000000 )
               b(3) = (  0.000000 -0.000000  0.316041 )

     PseudoPot. # 1 for Zn read from file:
     /home/jvc/QEspresso7.2/ZnO_database/pseudos/Zn.upf
     MD5 check sum: 7f56cabf9682ed8c977c2f7d0c5985c5
     Pseudo is Ultrasoft + core correction, Zval = 12.0
     Generated using &quot;atomic&quot; code by A. Dal Corso  v.6.2.2
     Using radial grid of 1201 points,  6 beta functions with:
                l(1) =   0
                l(2) =   0
                l(3) =   1
                l(4) =   1
                l(5) =   2
                l(6) =   2
     Q(r) pseudized with 0 coefficients

     PseudoPot. # 2 for O  read from file:
     /home/jvc/QEspresso7.2/ZnO_database/pseudos/O.upf
     MD5 check sum: 91400c9766925bcf19f520983a725ff0
     Pseudo is Ultrasoft + core correction, Zval =  6.0
     Generated using &quot;atomic&quot; code by A. Dal Corso  v.6.3MaX
     Using radial grid of 1095 points,  4 beta functions with:
                l(1) =   0
                l(2) =   0
                l(3) =   1
                l(4) =   1
     Q(r) pseudized with 0 coefficients

     atomic species   valence    mass     pseudopotential
        Zn            12.00    65.38000     Zn( 1.00)
        O              6.00    15.99900     O ( 1.00)

      6 Sym. Ops. (no inversion) found

                                    s                        frac. trans.

      isym =  1     identity

 cryst.   s( 1) = (     1          0          0      )
                  (     0          1          0      )
                  (     0          0          1      )

 cart.    s( 1) = (  1.0000000  0.0000000  0.0000000 )
                  (  0.0000000  1.0000000  0.0000000 )
                  (  0.0000000  0.0000000  1.0000000 )

      isym =  2     120 deg rotation - cryst. axis [0,0,1]

[...]

      isym =  3     120 deg rotation - cryst. axis [0,0,-1]

[...]

      isym =  4     inv. 180 deg rotation - cart. axis [1,0,0]

[...]

      isym =  5     inv. 180 deg rotation - cryst. axis [0,1,0]

[...]

      isym =  6     inv. 180 deg rotation - cryst. axis [1,1,0]

 cryst.   s( 6) = (     0         -1          0      )
                  (    -1          0          0      )
                  (     0          0          1      )

 cart.    s( 6) = (  0.5000000 -0.8660254  0.0000000 )
                  ( -0.8660254 -0.5000000  0.0000000 )
                  (  0.0000000  0.0000000  1.0000000 )

   Cartesian axes

     site n.     atom                  positions (alat units)
         1           Zn  tau(   1) = (   0.0000000   0.0000000   0.0000000  )
         2           O   tau(   2) = (  -0.0000000   0.5773503   0.1848235  )
         3           Zn  tau(   3) = (  -0.0000000   0.5773503   0.7910356  )
         4           O   tau(   4) = (   0.0000000   0.0000000   0.9758591  )
         5           Zn  tau(   5) = (   0.0000000   0.0000000   1.5820712  )
         6           O   tau(   6) = (  -0.0000000   0.5773503   1.7668947  )
         7           Zn  tau(   7) = (  -0.0000000   0.5773503   2.3731068  )
         8           O   tau(   8) = (   0.0000000   0.0000000   2.5579303  )

   Crystallographic axes

     site n.     atom                  positions (cryst. coord.)
         1           Zn  tau(   1) = (  0.0000000  0.0000000  0.0000000  )
         2           O   tau(   2) = (  0.3333333  0.6666667  0.0584119  )
         3           Zn  tau(   3) = (  0.3333333  0.6666667  0.2500000  )
         4           O   tau(   4) = (  0.0000000  0.0000000  0.3084119  )
         5           Zn  tau(   5) = (  0.0000000  0.0000000  0.5000000  )
         6           O   tau(   6) = (  0.3333333  0.6666667  0.5584119  )
         7           Zn  tau(   7) = (  0.3333333  0.6666667  0.7500000  )
         8           O   tau(   8) = (  0.0000000  0.0000000  0.8084119  )

     number of k points=    34
                       cart. coord. in units 2pi/alat
        k(    1) = (   0.0000000   0.0000000   0.0000000), wk =   0.0092593
        k(    2) = (   0.0000000   0.0000000   0.0526736), wk =   0.0185185
        k(    3) = (   0.0000000   0.0000000   0.1053471), wk =   0.0185185
        k(    4) = (   0.0000000   0.0000000  -0.1580207), wk =   0.0092593
        k(    5) = (   0.0000000   0.1924501   0.0000000), wk =   0.0555556
        k(    6) = (   0.0000000   0.1924501   0.0526736), wk =   0.0555556
        k(    7) = (   0.0000000   0.1924501   0.1053471), wk =   0.0555556
        k(    8) = (   0.0000000   0.1924501  -0.1580207), wk =   0.0555556
        k(    9) = (   0.0000000   0.3849002   0.0000000), wk =   0.0555556
        k(   10) = (   0.0000000   0.3849002   0.0526736), wk =   0.0555556
        k(   11) = (   0.0000000   0.3849002   0.1053471), wk =   0.0555556
        k(   12) = (   0.0000000   0.3849002  -0.1580207), wk =   0.0555556
        k(   13) = (   0.0000000  -0.5773503   0.0000000), wk =   0.0277778
        k(   14) = (   0.0000000  -0.5773503   0.0526736), wk =   0.0555556
        k(   15) = (   0.0000000  -0.5773503   0.1053471), wk =   0.0555556
        k(   16) = (   0.0000000  -0.5773503  -0.1580207), wk =   0.0277778
        k(   17) = (   0.1666667   0.2886751   0.0000000), wk =   0.0555556
        k(   18) = (   0.1666667   0.2886751   0.0526736), wk =   0.1111111
        k(   19) = (   0.1666667   0.2886751   0.1053471), wk =   0.1111111
        k(   20) = (   0.1666667   0.2886751  -0.1580207), wk =   0.0555556
        k(   21) = (   0.1666667   0.4811252   0.0000000), wk =   0.1111111
        k(   22) = (   0.1666667   0.4811252   0.0526736), wk =   0.1111111
        k(   23) = (   0.1666667   0.4811252   0.1053471), wk =   0.1111111
        k(   24) = (   0.1666667   0.4811252  -0.1580207), wk =   0.1111111
        k(   25) = (   0.3333333   0.5773503   0.0000000), wk =   0.0185185
        k(   26) = (   0.3333333   0.5773503   0.0526736), wk =   0.0370370
        k(   27) = (   0.3333333   0.5773503   0.1053471), wk =   0.0370370
        k(   28) = (   0.3333333   0.5773503  -0.1580207), wk =   0.0185185
        k(   29) = (   0.0000000  -0.1924501   0.0526736), wk =   0.0555556
        k(   30) = (   0.0000000  -0.1924501   0.1053471), wk =   0.0555556
        k(   31) = (   0.0000000  -0.3849002   0.0526736), wk =   0.0555556
        k(   32) = (   0.0000000  -0.3849002   0.1053471), wk =   0.0555556
        k(   33) = (  -0.1666667  -0.4811252   0.0526736), wk =   0.1111111
        k(   34) = (  -0.1666667  -0.4811252   0.1053471), wk =   0.1111111

                       cryst. coord.
        k(    1) = (   0.0000000   0.0000000   0.0000000), wk =   0.0092593
        k(    2) = (   0.0000000   0.0000000   0.1666667), wk =   0.0185185
        k(    3) = (   0.0000000   0.0000000   0.3333333), wk =   0.0185185
        k(    4) = (   0.0000000   0.0000000  -0.5000000), wk =   0.0092593
        k(    5) = (   0.0000000   0.1666667   0.0000000), wk =   0.0555556
        k(    6) = (   0.0000000   0.1666667   0.1666667), wk =   0.0555556
        k(    7) = (   0.0000000   0.1666667   0.3333333), wk =   0.0555556
        k(    8) = (   0.0000000   0.1666667  -0.5000000), wk =   0.0555556
        k(    9) = (   0.0000000   0.3333333   0.0000000), wk =   0.0555556
        k(   10) = (   0.0000000   0.3333333   0.1666667), wk =   0.0555556
        k(   11) = (   0.0000000   0.3333333   0.3333333), wk =   0.0555556
        k(   12) = (   0.0000000   0.3333333  -0.5000000), wk =   0.0555556
        k(   13) = (   0.0000000  -0.5000000   0.0000000), wk =   0.0277778
        k(   14) = (   0.0000000  -0.5000000   0.1666667), wk =   0.0555556
        k(   15) = (   0.0000000  -0.5000000   0.3333333), wk =   0.0555556
        k(   16) = (   0.0000000  -0.5000000  -0.5000000), wk =   0.0277778
        k(   17) = (   0.1666667   0.1666667   0.0000000), wk =   0.0555556
        k(   18) = (   0.1666667   0.1666667   0.1666667), wk =   0.1111111
        k(   19) = (   0.1666667   0.1666667   0.3333333), wk =   0.1111111
        k(   20) = (   0.1666667   0.1666667  -0.5000000), wk =   0.0555556
        k(   21) = (   0.1666667   0.3333333   0.0000000), wk =   0.1111111
        k(   22) = (   0.1666667   0.3333333   0.1666667), wk =   0.1111111
        k(   23) = (   0.1666667   0.3333333   0.3333333), wk =   0.1111111
        k(   24) = (   0.1666667   0.3333333  -0.5000000), wk =   0.1111111
        k(   25) = (   0.3333333   0.3333333   0.0000000), wk =   0.0185185
        k(   26) = (   0.3333333   0.3333333   0.1666667), wk =   0.0370370
        k(   27) = (   0.3333333   0.3333333   0.3333333), wk =   0.0370370
        k(   28) = (   0.3333333   0.3333333  -0.5000000), wk =   0.0185185
        k(   29) = (   0.0000000  -0.1666667   0.1666667), wk =   0.0555556
        k(   30) = (   0.0000000  -0.1666667   0.3333333), wk =   0.0555556
        k(   31) = (   0.0000000  -0.3333333   0.1666667), wk =   0.0555556
        k(   32) = (   0.0000000  -0.3333333   0.3333333), wk =   0.0555556
        k(   33) = (  -0.1666667  -0.3333333   0.1666667), wk =   0.1111111
        k(   34) = (  -0.1666667  -0.3333333   0.3333333), wk =   0.1111111

     Check: negative core charge=   -0.000002

     Initial potential from superposition of free atoms

     starting charge      71.9851, renormalised to      72.0000
     Starting wfcs are   52 randomized atomic wfcs

     Self-consistent Calculation

     iteration #  1     ecut=    50.00 Ry     beta= 0.30
     Davidson diagonalization with overlap

     ethr =  1.00E-02,  avg # of iterations =  1.5

     total energy              =    -722.85693830 Ry
     estimated scf accuracy    <       1.52213356 Ry

[...]

     c_bands:  1 eigenvalues not converged
     ethr =  2.09E-07,  avg # of iterations = 10.6

[...]

     total energy              =    -723.21845281 Ry
     estimated scf accuracy    <       0.00000002 Ry

     iteration # 42     ecut=    50.00 Ry     beta= 0.30
     Davidson diagonalization with overlap

     ethr =  1.41E-11,  avg # of iterations =  4.9

     End of self-consistent calculation

          k = 0.0000 0.0000 0.0000 (  4685 PWs)   bands (ev):

   -12.0001 -11.7544 -11.7544 -11.5001  -0.2271  -0.2271  -0.2124  -0.2124
    -0.1652  -0.1652  -0.1652  -0.1652  -0.1568  -0.0793  -0.0793   0.4043
     0.5007   0.5007   0.5882   0.5882   0.5882   0.5882   0.6452   0.6452
     0.9613   2.7422   2.7422   4.1912   4.1912   4.5050   4.5050   4.5050
     4.5050   4.7958   4.8085   4.8085

     occupation numbers
     1.0000   1.0000   1.0000   1.0000   1.0000   1.0000   1.0000   1.0000
     1.0000   1.0000   1.0000   1.0000   1.0000   1.0000   1.0000   1.0000
     1.0000   1.0000   1.0000   1.0000   1.0000   1.0000   1.0000   1.0000
     1.0000   1.0000   1.0000   1.0000   1.0000   1.0000   1.0000   1.0000
     1.0000   1.0000   1.0000   1.0000

[...]

          k = 0.0000-0.3849 0.1053 (  4591 PWs)   bands (ev):

[...]

          k =-0.1667-0.4811 0.0527 (  4588 PWs)   bands (ev):

[...]

          k =-0.1667-0.4811 0.1053 (  4590 PWs)   bands (ev):

   -11.5396 -11.5075 -11.4265 -11.3995  -0.2375  -0.2088  -0.1389  -0.0543
     0.0239   0.0565   0.1668   0.1842   0.2216   0.2400   0.3112   0.3238
     0.5167   0.5678   0.5881   0.6041   0.6848   0.6965   0.7790   0.8141
     1.4583   1.5086   1.7711   1.8984   2.6211   2.8804   3.0044   3.4324
     3.5877   3.7804   3.9759   4.0629

     occupation numbers
     1.0000   1.0000   1.0000   1.0000   1.0000   1.0000   1.0000   1.0000
     1.0000   1.0000   1.0000   1.0000   1.0000   1.0000   1.0000   1.0000
     1.0000   1.0000   1.0000   1.0000   1.0000   1.0000   1.0000   1.0000
     1.0000   1.0000   1.0000   1.0000   1.0000   1.0000   1.0000   1.0000
     1.0000   1.0000   1.0000   1.0000

     highest occupied level (ev):     4.8085

!    total energy              =    -723.21845281 Ry
     estimated scf accuracy    <          8.6E-09 Ry

     The total energy is the sum of the following terms:
     one-electron contribution =    -343.93343580 Ry
     hartree contribution      =     249.19183253 Ry
     xc contribution           =    -218.51229751 Ry
     ewald contribution        =    -409.96455203 Ry

     convergence has been achieved in  42 iterations

     Forces acting on atoms (cartesian axes, Ry/au):

     atom    1 type  1   force =     0.00000000    0.00000000   -0.00125238
     atom    2 type  2   force =     0.00000000    0.00000000    0.00120901
     atom    3 type  1   force =     0.00000000    0.00000000   -0.00115206
     atom    4 type  2   force =     0.00000000   -0.00000000    0.00120965
     atom    5 type  1   force =     0.00000000    0.00000000   -0.00116849
     atom    6 type  2   force =     0.00000000    0.00000000    0.00121041
     atom    7 type  1   force =     0.00000000    0.00000000   -0.00126348
     atom    8 type  2   force =     0.00000000    0.00000000    0.00120735
     The non-local contrib.  to forces
     atom    1 type  1   force =     0.00000000    0.00000000    0.03777382
     atom    2 type  2   force =     0.00000000   -0.00000000    0.02419712
     atom    3 type  1   force =     0.00000000    0.00000000    0.03783897
     atom    4 type  2   force =     0.00000000    0.00000000    0.02415281
     atom    5 type  1   force =    -0.00000000    0.00000000    0.03782957
     atom    6 type  2   force =     0.00000000   -0.00000000    0.02417566
     atom    7 type  1   force =     0.00000000   -0.00000000    0.03776476
     atom    8 type  2   force =     0.00000000    0.00000000    0.02421761
     The ionic contribution  to forces
     atom    1 type  1   force =    -0.00000000    0.00000000    0.18135045
     atom    2 type  2   force =     0.00000000   -0.00000000   -0.18135045
     atom    3 type  1   force =     0.00000000   -0.00000000    0.18135045
     atom    4 type  2   force =    -0.00000000    0.00000000   -0.18135045
     atom    5 type  1   force =    -0.00000000    0.00000000    0.18135045
     atom    6 type  2   force =     0.00000000   -0.00000000   -0.18135045
     atom    7 type  1   force =     0.00000000   -0.00000000    0.18135045
     atom    8 type  2   force =    -0.00000000    0.00000000   -0.18135045
     The local contribution  to forces
     atom    1 type  1   force =     0.00000000    0.00000000   -0.21804515
     atom    2 type  2   force =     0.00000001   -0.00000001    0.15857240
     atom    3 type  1   force =     0.00000005   -0.00000003   -0.21821300
     atom    4 type  2   force =    -0.00000000   -0.00000000    0.15854860
     atom    5 type  1   force =    -0.00000000   -0.00000000   -0.21819129
     atom    6 type  2   force =     0.00000001   -0.00000001    0.15855330
     atom    7 type  1   force =     0.00000005   -0.00000003   -0.21803657
     atom    8 type  2   force =    -0.00000000   -0.00000000    0.15857657
     The core correction contribution to forces
     atom    1 type  1   force =     0.00000000   -0.00000000   -0.00223904
     atom    2 type  2   force =    -0.00000000    0.00000000   -0.00018984
     atom    3 type  1   force =     0.00000001   -0.00000000   -0.00223740
     atom    4 type  2   force =     0.00000000   -0.00000000   -0.00019067
     atom    5 type  1   force =     0.00000000   -0.00000000   -0.00224026
     atom    6 type  2   force =    -0.00000000    0.00000000   -0.00019157
     atom    7 type  1   force =     0.00000001   -0.00000000   -0.00224087
     atom    8 type  2   force =     0.00000000   -0.00000000   -0.00019073
     The Hubbard contrib.    to forces
     atom    1 type  1   force =     0.00000000    0.00000000    0.00000000
     atom    2 type  2   force =     0.00000000    0.00000000    0.00000000
     atom    3 type  1   force =     0.00000000    0.00000000    0.00000000
     atom    4 type  2   force =     0.00000000    0.00000000    0.00000000
     atom    5 type  1   force =     0.00000000    0.00000000    0.00000000
     atom    6 type  2   force =     0.00000000    0.00000000    0.00000000
     atom    7 type  1   force =     0.00000000    0.00000000    0.00000000
     atom    8 type  2   force =     0.00000000    0.00000000    0.00000000
     The SCF correction term to forces
     atom    1 type  1   force =    -0.00000000    0.00000000   -0.00009292
     atom    2 type  2   force =     0.00000000   -0.00000000   -0.00002068
     atom    3 type  1   force =     0.00000000   -0.00000000    0.00010847
     atom    4 type  2   force =    -0.00000000    0.00000000    0.00004889
     atom    5 type  1   force =    -0.00000000    0.00000000    0.00008258
     atom    6 type  2   force =     0.00000000   -0.00000000    0.00002301
     atom    7 type  1   force =     0.00000000   -0.00000000   -0.00010172
     atom    8 type  2   force =    -0.00000000    0.00000000   -0.00004612

     Total force =     0.003421     Total SCF correction =     0.000207

     General routines

     Parallel routines

   This run was terminated on:  16: 8: 3  13Jul2025

   JOB DONE.
Note: The following floating-point exceptions are signalling: IEEE_INVALID_FLAG
Note: The following floating-point exceptions are signalling: IEEE_INVALID_FLAG