     Program PWSCF v.7.2 starts on 13Jul2025 at 17:21:29

     Reading input from /home/jvc/QEspresso7.2/ZnO_database/scripts/cell112.in/ZnO-3.53-1.78-112.in
Warning: card &CELL ignored
Warning: card / ignored
Warning: card &FCP ignored
Warning: card / ignored
Warning: card &RISM ignored
Warning: card / ignored

     Current dimensions of program PWSCF are:
     Max number of different atomic species (ntypx) = 10
     Max number of k-points (npk) =  40000
     Max angular momentum in pseudopotentials (lmaxx) =  4
     file Zn.upf: wavefunction(s)  3D renormalized
     Found identity + (  0.0000  0.0000 -0.5000) symmetry
     This is a supercell, fractional translations are disabled
     Message from routine setup:
     using ibrav=0 with symmetry is DISCOURAGED, use correct ibrav instead

     K-points division:     npool     =       2
     R & G space division:  proc/nbgrp/npool/nimage =       4
     Subspace diagonalization in iterative solution of the eigenvalue problem:
     a serial algorithm will be used

     Using Slab Decomposition

     bravais-lattice index     =            0
     lattice parameter (alat)  =       6.6732  a.u.
     unit-cell volume          =     914.0045 (a.u.)^3
     number of atoms/cell      =            8
     number of atomic types    =            2
     number of electrons       =        72.00
     number of Kohn-Sham states=           36
     kinetic-energy cutoff     =      50.0000  Ry
     charge density cutoff     =     400.0000  Ry
     scf convergence threshold =      1.0E-08
     mixing beta               =       0.3000
     number of iterations used =            8  plain     mixing
     Exchange-correlation= PBE
                           (   1   4   3   4   0   0   0)

     celldm(1)=   6.673162  celldm(2)=   0.000000  celldm(3)=   0.000000
     celldm(4)=   0.000000  celldm(5)=   0.000000  celldm(6)=   0.000000

     crystal axes: (cart. coord. in units of alat)
               a(1) = (   1.000000   0.000000   0.000000 )
               a(2) = (  -0.500000   0.866025   0.000000 )
               a(3) = (   0.000000   0.000000   3.551588 )

     reciprocal axes: (cart. coord. in units 2 pi/alat)
               b(1) = (  1.000000  0.577350 -0.000000 )
               b(2) = (  0.000000  1.154701  0.000000 )
               b(3) = (  0.000000 -0.000000  0.281564 )

     PseudoPot. # 1 for Zn read from file:
     /home/jvc/QEspresso7.2/ZnO_database/pseudos/Zn.upf
     MD5 check sum: 7f56cabf9682ed8c977c2f7d0c5985c5
     Pseudo is Ultrasoft + core correction, Zval = 12.0
     Generated using &quot;atomic&quot; code by A. Dal Corso  v.6.2.2
     Using radial grid of 1201 points,  6 beta functions with:
                l(1) =   0
                l(2) =   0
                l(3) =   1
                l(4) =   1
                l(5) =   2
                l(6) =   2
     Q(r) pseudized with 0 coefficients

     PseudoPot. # 2 for O  read from file:
     /home/jvc/QEspresso7.2/ZnO_database/pseudos/O.upf
     MD5 check sum: 91400c9766925bcf19f520983a725ff0
     Pseudo is Ultrasoft + core correction, Zval =  6.0
     Generated using &quot;atomic&quot; code by A. Dal Corso  v.6.3MaX
     Using radial grid of 1095 points,  4 beta functions with:
                l(1) =   0
                l(2) =   0
                l(3) =   1
                l(4) =   1
     Q(r) pseudized with 0 coefficients

     atomic species   valence    mass     pseudopotential
        Zn            12.00    65.38000     Zn( 1.00)
        O              6.00    15.99900     O ( 1.00)

      6 Sym. Ops. (no inversion) found

                                    s                        frac. trans.

      isym =  1     identity

 cryst.   s( 1) = (     1          0          0      )
                  (     0          1          0      )
                  (     0          0          1      )

 cart.    s( 1) = (  1.0000000  0.0000000  0.0000000 )
                  (  0.0000000  1.0000000  0.0000000 )
                  (  0.0000000  0.0000000  1.0000000 )

      isym =  2     120 deg rotation - cryst. axis [0,0,1]

[...]

      isym =  3     120 deg rotation - cryst. axis [0,0,-1]

[...]

      isym =  4     inv. 180 deg rotation - cart. axis [1,0,0]

[...]

      isym =  5     inv. 180 deg rotation - cryst. axis [0,1,0]

[...]

      isym =  6     inv. 180 deg rotation - cryst. axis [1,1,0]

 cryst.   s( 6) = (     0         -1          0      )
                  (    -1          0          0      )
                  (     0          0          1      )

 cart.    s( 6) = (  0.5000000 -0.8660254  0.0000000 )
                  ( -0.8660254 -0.5000000  0.0000000 )
                  (  0.0000000  0.0000000  1.0000000 )

   Cartesian axes

     site n.     atom                  positions (alat units)
         1           Zn  tau(   1) = (   0.0000000   0.0000000   0.0000000  )
         2           O   tau(   2) = (  -0.0000000   0.5773503   0.2562391  )
         3           Zn  tau(   3) = (  -0.0000000   0.5773503   0.8878971  )
         4           O   tau(   4) = (   0.0000000   0.0000000   1.1441362  )
         5           Zn  tau(   5) = (   0.0000000   0.0000000   1.7757942  )
         6           O   tau(   6) = (  -0.0000000   0.5773503   2.0320333  )
         7           Zn  tau(   7) = (  -0.0000000   0.5773503   2.6636913  )
         8           O   tau(   8) = (   0.0000000   0.0000000   2.9199304  )

   Crystallographic axes

     site n.     atom                  positions (cryst. coord.)
         1           Zn  tau(   1) = (  0.0000000  0.0000000  0.0000000  )
         2           O   tau(   2) = (  0.3333333  0.6666667  0.0721477  )
         3           Zn  tau(   3) = (  0.3333333  0.6666667  0.2500000  )
         4           O   tau(   4) = (  0.0000000  0.0000000  0.3221477  )
         5           Zn  tau(   5) = (  0.0000000  0.0000000  0.5000000  )
         6           O   tau(   6) = (  0.3333333  0.6666667  0.5721477  )
         7           Zn  tau(   7) = (  0.3333333  0.6666667  0.7500000  )
         8           O   tau(   8) = (  0.0000000  0.0000000  0.8221477  )

     number of k points=    34
                       cart. coord. in units 2pi/alat
        k(    1) = (   0.0000000   0.0000000   0.0000000), wk =   0.0092593
        k(    2) = (   0.0000000   0.0000000   0.0469274), wk =   0.0185185
        k(    3) = (   0.0000000   0.0000000   0.0938547), wk =   0.0185185
        k(    4) = (   0.0000000   0.0000000  -0.1407821), wk =   0.0092593
        k(    5) = (   0.0000000   0.1924501   0.0000000), wk =   0.0555556
        k(    6) = (   0.0000000   0.1924501   0.0469274), wk =   0.0555556
        k(    7) = (   0.0000000   0.1924501   0.0938547), wk =   0.0555556
        k(    8) = (   0.0000000   0.1924501  -0.1407821), wk =   0.0555556
        k(    9) = (   0.0000000   0.3849002   0.0000000), wk =   0.0555556
        k(   10) = (   0.0000000   0.3849002   0.0469274), wk =   0.0555556
        k(   11) = (   0.0000000   0.3849002   0.0938547), wk =   0.0555556
        k(   12) = (   0.0000000   0.3849002  -0.1407821), wk =   0.0555556
        k(   13) = (   0.0000000  -0.5773503   0.0000000), wk =   0.0277778
        k(   14) = (   0.0000000  -0.5773503   0.0469274), wk =   0.0555556
        k(   15) = (   0.0000000  -0.5773503   0.0938547), wk =   0.0555556
        k(   16) = (   0.0000000  -0.5773503  -0.1407821), wk =   0.0277778
        k(   17) = (   0.1666667   0.2886751   0.0000000), wk =   0.0555556
        k(   18) = (   0.1666667   0.2886751   0.0469274), wk =   0.1111111
        k(   19) = (   0.1666667   0.2886751   0.0938547), wk =   0.1111111
        k(   20) = (   0.1666667   0.2886751  -0.1407821), wk =   0.0555556
        k(   21) = (   0.1666667   0.4811252   0.0000000), wk =   0.1111111
        k(   22) = (   0.1666667   0.4811252   0.0469274), wk =   0.1111111
        k(   23) = (   0.1666667   0.4811252   0.0938547), wk =   0.1111111
        k(   24) = (   0.1666667   0.4811252  -0.1407821), wk =   0.1111111
        k(   25) = (   0.3333333   0.5773503   0.0000000), wk =   0.0185185
        k(   26) = (   0.3333333   0.5773503   0.0469274), wk =   0.0370370
        k(   27) = (   0.3333333   0.5773503   0.0938547), wk =   0.0370370
        k(   28) = (   0.3333333   0.5773503  -0.1407821), wk =   0.0185185
        k(   29) = (   0.0000000  -0.1924501   0.0469274), wk =   0.0555556
        k(   30) = (   0.0000000  -0.1924501   0.0938547), wk =   0.0555556
        k(   31) = (   0.0000000  -0.3849002   0.0469274), wk =   0.0555556
        k(   32) = (   0.0000000  -0.3849002   0.0938547), wk =   0.0555556
        k(   33) = (  -0.1666667  -0.4811252   0.0469274), wk =   0.1111111
        k(   34) = (  -0.1666667  -0.4811252   0.0938547), wk =   0.1111111

                       cryst. coord.
        k(    1) = (   0.0000000   0.0000000   0.0000000), wk =   0.0092593
        k(    2) = (   0.0000000   0.0000000   0.1666667), wk =   0.0185185
        k(    3) = (   0.0000000   0.0000000   0.3333333), wk =   0.0185185
        k(    4) = (   0.0000000   0.0000000  -0.5000000), wk =   0.0092593
        k(    5) = (   0.0000000   0.1666667   0.0000000), wk =   0.0555556
        k(    6) = (   0.0000000   0.1666667   0.1666667), wk =   0.0555556
        k(    7) = (   0.0000000   0.1666667   0.3333333), wk =   0.0555556
        k(    8) = (   0.0000000   0.1666667  -0.5000000), wk =   0.0555556
        k(    9) = (   0.0000000   0.3333333   0.0000000), wk =   0.0555556
        k(   10) = (   0.0000000   0.3333333   0.1666667), wk =   0.0555556
        k(   11) = (   0.0000000   0.3333333   0.3333333), wk =   0.0555556
        k(   12) = (   0.0000000   0.3333333  -0.5000000), wk =   0.0555556
        k(   13) = (   0.0000000  -0.5000000   0.0000000), wk =   0.0277778
        k(   14) = (   0.0000000  -0.5000000   0.1666667), wk =   0.0555556
        k(   15) = (   0.0000000  -0.5000000   0.3333333), wk =   0.0555556
        k(   16) = (   0.0000000  -0.5000000  -0.5000000), wk =   0.0277778
        k(   17) = (   0.1666667   0.1666667   0.0000000), wk =   0.0555556
        k(   18) = (   0.1666667   0.1666667   0.1666667), wk =   0.1111111
        k(   19) = (   0.1666667   0.1666667   0.3333333), wk =   0.1111111
        k(   20) = (   0.1666667   0.1666667  -0.5000000), wk =   0.0555556
        k(   21) = (   0.1666667   0.3333333   0.0000000), wk =   0.1111111
        k(   22) = (   0.1666667   0.3333333   0.1666667), wk =   0.1111111
        k(   23) = (   0.1666667   0.3333333   0.3333333), wk =   0.1111111
        k(   24) = (   0.1666667   0.3333333  -0.5000000), wk =   0.1111111
        k(   25) = (   0.3333333   0.3333333   0.0000000), wk =   0.0185185
        k(   26) = (   0.3333333   0.3333333   0.1666667), wk =   0.0370370
        k(   27) = (   0.3333333   0.3333333   0.3333333), wk =   0.0370370
        k(   28) = (   0.3333333   0.3333333  -0.5000000), wk =   0.0185185
        k(   29) = (   0.0000000  -0.1666667   0.1666667), wk =   0.0555556
        k(   30) = (   0.0000000  -0.1666667   0.3333333), wk =   0.0555556
        k(   31) = (   0.0000000  -0.3333333   0.1666667), wk =   0.0555556
        k(   32) = (   0.0000000  -0.3333333   0.3333333), wk =   0.0555556
        k(   33) = (  -0.1666667  -0.3333333   0.1666667), wk =   0.1111111
        k(   34) = (  -0.1666667  -0.3333333   0.3333333), wk =   0.1111111

     Check: negative core charge=   -0.000003

     Initial potential from superposition of free atoms

     starting charge      71.9851, renormalised to      72.0000
     Starting wfcs are   52 randomized atomic wfcs

     Self-consistent Calculation

     iteration #  1     ecut=    50.00 Ry     beta= 0.30
     Davidson diagonalization with overlap

     ethr =  1.00E-02,  avg # of iterations =  1.1

     total energy              =    -722.58224717 Ry
     estimated scf accuracy    <       1.79704030 Ry

[...]

     c_bands:  1 eigenvalues not converged
     c_bands:  1 eigenvalues not converged
     ethr =  3.77E-10,  avg # of iterations = 13.1

[...]

     total energy              =    -723.02158984 Ry
     estimated scf accuracy    <       0.00000002 Ry

     iteration # 38     ecut=    50.00 Ry     beta= 0.30
     Davidson diagonalization with overlap

     ethr =  3.42E-11,  avg # of iterations =  4.3

     End of self-consistent calculation

          k = 0.0000 0.0000 0.0000 (  5471 PWs)   bands (ev):

   -12.9754 -12.8479 -12.8478 -12.7161  -1.9203  -1.8512  -1.8512  -1.8166
    -1.8166  -1.7791  -1.7791  -1.7791  -1.7791  -1.7315  -1.7315  -1.4485
    -1.4485  -1.4388  -1.4085  -1.4085  -1.4084  -1.4084  -1.3740  -1.3740
    -0.6473   0.7093   0.7093   2.6685   2.6685   2.7381   2.8656   2.8656
     2.8657   2.8657   3.0623   3.0623

     occupation numbers
     1.0000   1.0000   1.0000   1.0000   1.0000   1.0000   1.0000   1.0000
     1.0000   1.0000   1.0000   1.0000   1.0000   1.0000   1.0000   1.0000
     1.0000   1.0000   1.0000   1.0000   1.0000   1.0000   1.0000   1.0000
     1.0000   1.0000   1.0000   1.0000   1.0000   1.0000   1.0000   1.0000
     1.0000   1.0000   1.0000   1.0000

[...]

          k = 0.0000-0.3849 0.0939 (  5473 PWs)   bands (ev):

[...]

          k =-0.1667-0.4811 0.0469 (  5437 PWs)   bands (ev):

[...]

          k =-0.1667-0.4811 0.0939 (  5434 PWs)   bands (ev):

   -12.6506 -12.6352 -12.5943 -12.5797  -1.8194  -1.8021  -1.7606  -1.7467
    -1.6916  -1.6746  -1.5912  -1.5705  -1.5532  -1.5367  -1.5202  -1.5014
    -1.4431  -1.4288  -1.4048  -1.3960  -1.3237  -1.3187  -1.2815  -1.2538
     0.1607   0.1688   0.3663   0.4953   1.2862   1.5652   1.6539   1.8358
     2.0949   2.1331   2.2275   2.3300

     occupation numbers
     1.0000   1.0000   1.0000   1.0000   1.0000   1.0000   1.0000   1.0000
     1.0000   1.0000   1.0000   1.0000   1.0000   1.0000   1.0000   1.0000
     1.0000   1.0000   1.0000   1.0000   1.0000   1.0000   1.0000   1.0000
     1.0000   1.0000   1.0000   1.0000   1.0000   1.0000   1.0000   1.0000
     1.0000   1.0000   1.0000   1.0000

     highest occupied level (ev):     3.0623

!    total energy              =    -723.02158984 Ry
     estimated scf accuracy    <          7.6E-09 Ry

     The total energy is the sum of the following terms:
     one-electron contribution =    -379.06588406 Ry
     hartree contribution      =     261.99278247 Ry
     xc contribution           =    -217.94086635 Ry
     ewald contribution        =    -388.00762190 Ry

     convergence has been achieved in  38 iterations

     Forces acting on atoms (cartesian axes, Ry/au):

     atom    1 type  1   force =     0.00000000   -0.00000000    0.01714888
     atom    2 type  2   force =     0.00000000    0.00000000   -0.01714272
     atom    3 type  1   force =     0.00000000   -0.00000000    0.01711999
     atom    4 type  2   force =     0.00000000    0.00000000   -0.01712736
     atom    5 type  1   force =     0.00000000    0.00000000    0.01708015
     atom    6 type  2   force =     0.00000000    0.00000000   -0.01713153
     atom    7 type  1   force =     0.00000000   -0.00000000    0.01719550
     atom    8 type  2   force =     0.00000000    0.00000000   -0.01714291
     The non-local contrib.  to forces
     atom    1 type  1   force =     0.00000000   -0.00000000   -0.11597261
     atom    2 type  2   force =     0.00000000    0.00000000   -0.11051878
     atom    3 type  1   force =     0.00000000    0.00000000   -0.11600813
     atom    4 type  2   force =     0.00000000    0.00000000   -0.11047392
     atom    5 type  1   force =     0.00000000   -0.00000000   -0.11602623
     atom    6 type  2   force =     0.00000000    0.00000000   -0.11050417
     atom    7 type  1   force =     0.00000000   -0.00000000   -0.11593516
     atom    8 type  2   force =     0.00000000    0.00000000   -0.11052751
     The ionic contribution  to forces
     atom    1 type  1   force =    -0.00000000    0.00000000   -0.91846157
     atom    2 type  2   force =     0.00000000   -0.00000000    0.91846157
     atom    3 type  1   force =     0.00000000   -0.00000000   -0.91846157
     atom    4 type  2   force =    -0.00000000    0.00000000    0.91846157
     atom    5 type  1   force =    -0.00000000    0.00000000   -0.91846157
     atom    6 type  2   force =     0.00000000   -0.00000000    0.91846157
     atom    7 type  1   force =     0.00000000   -0.00000000   -0.91846157
     atom    8 type  2   force =    -0.00000000    0.00000000    0.91846157
     The local contribution  to forces
     atom    1 type  1   force =     0.00000000    0.00000000    1.04646895
     atom    2 type  2   force =     0.00000001   -0.00000001   -0.82612539
     atom    3 type  1   force =     0.00000005   -0.00000003    1.04653165
     atom    4 type  2   force =     0.00000000    0.00000000   -0.82609755
     atom    5 type  1   force =    -0.00000000    0.00000000    1.04660844
     atom    6 type  2   force =     0.00000001   -0.00000001   -0.82608739
     atom    7 type  1   force =     0.00000005   -0.00000003    1.04637651
     atom    8 type  2   force =     0.00000000   -0.00000000   -0.82614390
     The core correction contribution to forces
     atom    1 type  1   force =     0.00000000   -0.00000000    0.00509049
     atom    2 type  2   force =    -0.00000000    0.00000000    0.00102071
     atom    3 type  1   force =     0.00000001   -0.00000000    0.00509068
     atom    4 type  2   force =    -0.00000000    0.00000000    0.00102009
     atom    5 type  1   force =     0.00000000    0.00000000    0.00508834
     atom    6 type  2   force =    -0.00000000    0.00000000    0.00102052
     atom    7 type  1   force =     0.00000001   -0.00000000    0.00509170
     atom    8 type  2   force =    -0.00000000    0.00000000    0.00102083
     The Hubbard contrib.    to forces
     atom    1 type  1   force =     0.00000000    0.00000000    0.00000000
     atom    2 type  2   force =     0.00000000    0.00000000    0.00000000
     atom    3 type  1   force =     0.00000000    0.00000000    0.00000000
     atom    4 type  2   force =     0.00000000    0.00000000    0.00000000
     atom    5 type  1   force =     0.00000000    0.00000000    0.00000000
     atom    6 type  2   force =     0.00000000    0.00000000    0.00000000
     atom    7 type  1   force =     0.00000000    0.00000000    0.00000000
     atom    8 type  2   force =     0.00000000    0.00000000    0.00000000
     The SCF correction term to forces
     atom    1 type  1   force =     0.00000000   -0.00000000    0.00002431
     atom    2 type  2   force =    -0.00000000    0.00000000    0.00001986
     atom    3 type  1   force =    -0.00000000    0.00000000   -0.00003195
     atom    4 type  2   force =     0.00000000   -0.00000000   -0.00003685
     atom    5 type  1   force =     0.00000000   -0.00000000   -0.00012813
     atom    6 type  2   force =    -0.00000000    0.00000000   -0.00002136
     atom    7 type  1   force =    -0.00000000    0.00000000    0.00012472
     atom    8 type  2   force =     0.00000000   -0.00000000    0.00004679

     Total force =     0.048468     Total SCF correction =     0.000195

     General routines

     Parallel routines

   This run was terminated on:  17:26: 5  13Jul2025

   JOB DONE.
Note: The following floating-point exceptions are signalling: IEEE_INVALID_FLAG
Note: The following floating-point exceptions are signalling: IEEE_INVALID_FLAG