     Program PWSCF v.7.2 starts on 13Jul2025 at 10:52: 5

     Reading input from /home/jvc/QEspresso7.2/ZnO_database/scripts/cell112.in/ZnO-2.94-1.45-112.in
Warning: card &CELL ignored
Warning: card / ignored
Warning: card &FCP ignored
Warning: card / ignored
Warning: card &RISM ignored
Warning: card / ignored

     Current dimensions of program PWSCF are:
     Max number of different atomic species (ntypx) = 10
     Max number of k-points (npk) =  40000
     Max angular momentum in pseudopotentials (lmaxx) =  4
     file Zn.upf: wavefunction(s)  3D renormalized
     Found identity + (  0.0000  0.0000  0.5000) symmetry
     This is a supercell, fractional translations are disabled
     Message from routine setup:
     using ibrav=0 with symmetry is DISCOURAGED, use correct ibrav instead

     K-points division:     npool     =       2
     R & G space division:  proc/nbgrp/npool/nimage =       4
     Subspace diagonalization in iterative solution of the eigenvalue problem:
     a serial algorithm will be used

     Using Slab Decomposition

     bravais-lattice index     =            0
     lattice parameter (alat)  =       5.5610  a.u.
     unit-cell volume          =     432.7673 (a.u.)^3
     number of atoms/cell      =            8
     number of atomic types    =            2
     number of electrons       =        72.00
     number of Kohn-Sham states=           36
     kinetic-energy cutoff     =      50.0000  Ry
     charge density cutoff     =     400.0000  Ry
     scf convergence threshold =      1.0E-08
     mixing beta               =       0.3000
     number of iterations used =            8  plain     mixing
     Exchange-correlation= PBE
                           (   1   4   3   4   0   0   0)

     celldm(1)=   5.560969  celldm(2)=   0.000000  celldm(3)=   0.000000
     celldm(4)=   0.000000  celldm(5)=   0.000000  celldm(6)=   0.000000

     crystal axes: (cart. coord. in units of alat)
               a(1) = (   1.000000   0.000000   0.000000 )
               a(2) = (  -0.500000   0.866025   0.000000 )
               a(3) = (   0.000000   0.000000   2.905845 )

     reciprocal axes: (cart. coord. in units 2 pi/alat)
               b(1) = (  1.000000  0.577350 -0.000000 )
               b(2) = (  0.000000  1.154701  0.000000 )
               b(3) = (  0.000000 -0.000000  0.344134 )

     PseudoPot. # 1 for Zn read from file:
     /home/jvc/QEspresso7.2/ZnO_database/pseudos/Zn.upf
     MD5 check sum: 7f56cabf9682ed8c977c2f7d0c5985c5
     Pseudo is Ultrasoft + core correction, Zval = 12.0
     Generated using &quot;atomic&quot; code by A. Dal Corso  v.6.2.2
     Using radial grid of 1201 points,  6 beta functions with:
                l(1) =   0
                l(2) =   0
                l(3) =   1
                l(4) =   1
                l(5) =   2
                l(6) =   2
     Q(r) pseudized with 0 coefficients

     PseudoPot. # 2 for O  read from file:
     /home/jvc/QEspresso7.2/ZnO_database/pseudos/O.upf
     MD5 check sum: 91400c9766925bcf19f520983a725ff0
     Pseudo is Ultrasoft + core correction, Zval =  6.0
     Generated using &quot;atomic&quot; code by A. Dal Corso  v.6.3MaX
     Using radial grid of 1095 points,  4 beta functions with:
                l(1) =   0
                l(2) =   0
                l(3) =   1
                l(4) =   1
     Q(r) pseudized with 0 coefficients

     atomic species   valence    mass     pseudopotential
        Zn            12.00    65.38000     Zn( 1.00)
        O              6.00    15.99900     O ( 1.00)

      6 Sym. Ops. (no inversion) found

                                    s                        frac. trans.

      isym =  1     identity

 cryst.   s( 1) = (     1          0          0      )
                  (     0          1          0      )
                  (     0          0          1      )

 cart.    s( 1) = (  1.0000000  0.0000000  0.0000000 )
                  (  0.0000000  1.0000000  0.0000000 )
                  (  0.0000000  0.0000000  1.0000000 )

      isym =  2     120 deg rotation - cryst. axis [0,0,1]

[...]

      isym =  3     120 deg rotation - cryst. axis [0,0,-1]

[...]

      isym =  4     inv. 180 deg rotation - cart. axis [1,0,0]

[...]

      isym =  5     inv. 180 deg rotation - cryst. axis [0,1,0]

[...]

      isym =  6     inv. 180 deg rotation - cryst. axis [1,1,0]

 cryst.   s( 6) = (     0         -1          0      )
                  (    -1          0          0      )
                  (     0          0          1      )

 cart.    s( 6) = (  0.5000000 -0.8660254  0.0000000 )
                  ( -0.8660254 -0.5000000  0.0000000 )
                  (  0.0000000  0.0000000  1.0000000 )

   Cartesian axes

     site n.     atom                  positions (alat units)
         1           Zn  tau(   1) = (   0.0000000   0.0000000   0.0000000  )
         2           O   tau(   2) = (  -0.0000000   0.5773503   0.1338080  )
         3           Zn  tau(   3) = (  -0.0000000   0.5773503   0.7264613  )
         4           O   tau(   4) = (   0.0000000   0.0000000   0.8602692  )
         5           Zn  tau(   5) = (   0.0000000   0.0000000   1.4529225  )
         6           O   tau(   6) = (  -0.0000000   0.5773503   1.5867305  )
         7           Zn  tau(   7) = (  -0.0000000   0.5773503   2.1793838  )
         8           O   tau(   8) = (   0.0000000   0.0000000   2.3131918  )

   Crystallographic axes

     site n.     atom                  positions (cryst. coord.)
         1           Zn  tau(   1) = (  0.0000000  0.0000000  0.0000000  )
         2           O   tau(   2) = (  0.3333333  0.6666667  0.0460479  )
         3           Zn  tau(   3) = (  0.3333333  0.6666667  0.2500000  )
         4           O   tau(   4) = (  0.0000000  0.0000000  0.2960479  )
         5           Zn  tau(   5) = (  0.0000000  0.0000000  0.5000000  )
         6           O   tau(   6) = (  0.3333333  0.6666667  0.5460479  )
         7           Zn  tau(   7) = (  0.3333333  0.6666667  0.7500000  )
         8           O   tau(   8) = (  0.0000000  0.0000000  0.7960479  )

     number of k points=    34
                       cart. coord. in units 2pi/alat
        k(    1) = (   0.0000000   0.0000000   0.0000000), wk =   0.0092593
        k(    2) = (   0.0000000   0.0000000   0.0573557), wk =   0.0185185
        k(    3) = (   0.0000000   0.0000000   0.1147113), wk =   0.0185185
        k(    4) = (   0.0000000   0.0000000  -0.1720670), wk =   0.0092593
        k(    5) = (   0.0000000   0.1924501   0.0000000), wk =   0.0555556
        k(    6) = (   0.0000000   0.1924501   0.0573557), wk =   0.0555556
        k(    7) = (   0.0000000   0.1924501   0.1147113), wk =   0.0555556
        k(    8) = (   0.0000000   0.1924501  -0.1720670), wk =   0.0555556
        k(    9) = (   0.0000000   0.3849002   0.0000000), wk =   0.0555556
        k(   10) = (   0.0000000   0.3849002   0.0573557), wk =   0.0555556
        k(   11) = (   0.0000000   0.3849002   0.1147113), wk =   0.0555556
        k(   12) = (   0.0000000   0.3849002  -0.1720670), wk =   0.0555556
        k(   13) = (   0.0000000  -0.5773503   0.0000000), wk =   0.0277778
        k(   14) = (   0.0000000  -0.5773503   0.0573557), wk =   0.0555556
        k(   15) = (   0.0000000  -0.5773503   0.1147113), wk =   0.0555556
        k(   16) = (   0.0000000  -0.5773503  -0.1720670), wk =   0.0277778
        k(   17) = (   0.1666667   0.2886751   0.0000000), wk =   0.0555556
        k(   18) = (   0.1666667   0.2886751   0.0573557), wk =   0.1111111
        k(   19) = (   0.1666667   0.2886751   0.1147113), wk =   0.1111111
        k(   20) = (   0.1666667   0.2886751  -0.1720670), wk =   0.0555556
        k(   21) = (   0.1666667   0.4811252   0.0000000), wk =   0.1111111
        k(   22) = (   0.1666667   0.4811252   0.0573557), wk =   0.1111111
        k(   23) = (   0.1666667   0.4811252   0.1147113), wk =   0.1111111
        k(   24) = (   0.1666667   0.4811252  -0.1720670), wk =   0.1111111
        k(   25) = (   0.3333333   0.5773503   0.0000000), wk =   0.0185185
        k(   26) = (   0.3333333   0.5773503   0.0573557), wk =   0.0370370
        k(   27) = (   0.3333333   0.5773503   0.1147113), wk =   0.0370370
        k(   28) = (   0.3333333   0.5773503  -0.1720670), wk =   0.0185185
        k(   29) = (   0.0000000  -0.1924501   0.0573557), wk =   0.0555556
        k(   30) = (   0.0000000  -0.1924501   0.1147113), wk =   0.0555556
        k(   31) = (   0.0000000  -0.3849002   0.0573557), wk =   0.0555556
        k(   32) = (   0.0000000  -0.3849002   0.1147113), wk =   0.0555556
        k(   33) = (  -0.1666667  -0.4811252   0.0573557), wk =   0.1111111
        k(   34) = (  -0.1666667  -0.4811252   0.1147113), wk =   0.1111111

                       cryst. coord.
        k(    1) = (   0.0000000   0.0000000   0.0000000), wk =   0.0092593
        k(    2) = (   0.0000000   0.0000000   0.1666667), wk =   0.0185185
        k(    3) = (   0.0000000   0.0000000   0.3333333), wk =   0.0185185
        k(    4) = (   0.0000000   0.0000000  -0.5000000), wk =   0.0092593
        k(    5) = (   0.0000000   0.1666667   0.0000000), wk =   0.0555556
        k(    6) = (   0.0000000   0.1666667   0.1666667), wk =   0.0555556
        k(    7) = (   0.0000000   0.1666667   0.3333333), wk =   0.0555556
        k(    8) = (   0.0000000   0.1666667  -0.5000000), wk =   0.0555556
        k(    9) = (   0.0000000   0.3333333   0.0000000), wk =   0.0555556
        k(   10) = (   0.0000000   0.3333333   0.1666667), wk =   0.0555556
        k(   11) = (   0.0000000   0.3333333   0.3333333), wk =   0.0555556
        k(   12) = (   0.0000000   0.3333333  -0.5000000), wk =   0.0555556
        k(   13) = (   0.0000000  -0.5000000   0.0000000), wk =   0.0277778
        k(   14) = (   0.0000000  -0.5000000   0.1666667), wk =   0.0555556
        k(   15) = (   0.0000000  -0.5000000   0.3333333), wk =   0.0555556
        k(   16) = (   0.0000000  -0.5000000  -0.5000000), wk =   0.0277778
        k(   17) = (   0.1666667   0.1666667   0.0000000), wk =   0.0555556
        k(   18) = (   0.1666667   0.1666667   0.1666667), wk =   0.1111111
        k(   19) = (   0.1666667   0.1666667   0.3333333), wk =   0.1111111
        k(   20) = (   0.1666667   0.1666667  -0.5000000), wk =   0.0555556
        k(   21) = (   0.1666667   0.3333333   0.0000000), wk =   0.1111111
        k(   22) = (   0.1666667   0.3333333   0.1666667), wk =   0.1111111
        k(   23) = (   0.1666667   0.3333333   0.3333333), wk =   0.1111111
        k(   24) = (   0.1666667   0.3333333  -0.5000000), wk =   0.1111111
        k(   25) = (   0.3333333   0.3333333   0.0000000), wk =   0.0185185
        k(   26) = (   0.3333333   0.3333333   0.1666667), wk =   0.0370370
        k(   27) = (   0.3333333   0.3333333   0.3333333), wk =   0.0370370
        k(   28) = (   0.3333333   0.3333333  -0.5000000), wk =   0.0185185
        k(   29) = (   0.0000000  -0.1666667   0.1666667), wk =   0.0555556
        k(   30) = (   0.0000000  -0.1666667   0.3333333), wk =   0.0555556
        k(   31) = (   0.0000000  -0.3333333   0.1666667), wk =   0.0555556
        k(   32) = (   0.0000000  -0.3333333   0.3333333), wk =   0.0555556
        k(   33) = (  -0.1666667  -0.3333333   0.1666667), wk =   0.1111111
        k(   34) = (  -0.1666667  -0.3333333   0.3333333), wk =   0.1111111

     Initial potential from superposition of free atoms

     starting charge      71.9851, renormalised to      72.0000
     Starting wfcs are   52 randomized atomic wfcs

     Self-consistent Calculation

     iteration #  1     ecut=    50.00 Ry     beta= 0.30
     Davidson diagonalization with overlap

     ethr =  1.00E-02,  avg # of iterations =  2.3

     total energy              =    -722.25887823 Ry
     estimated scf accuracy    <       1.42677388 Ry

[...]

     total energy              =    -722.50774761 Ry
     estimated scf accuracy    <       0.00000002 Ry

     iteration # 25     ecut=    50.00 Ry     beta= 0.30
     Davidson diagonalization with overlap

     ethr =  2.96E-11,  avg # of iterations =  2.0

     End of self-consistent calculation

          k = 0.0000 0.0000 0.0000 (  2569 PWs)   bands (ev):

    -7.4943  -6.6176  -6.6176  -5.6846   5.6079   5.7425   5.7425   6.0431
     6.0431   6.0431   6.0431   6.0517   6.0517   6.2091   6.2091   6.9345
     8.6728   8.6728   9.1080   9.1080   9.1080   9.1080   9.3217   9.3217
    10.0991  12.3401  12.3401  13.3922  13.3922  13.9258  14.0547  14.0547
    14.0548  14.0548  14.6888  14.6888

     occupation numbers
     1.0000   1.0000   1.0000   1.0000   1.0000   1.0000   1.0000   1.0000
     1.0000   1.0000   1.0000   1.0000   1.0000   1.0000   1.0000   1.0000
     1.0000   1.0000   1.0000   1.0000   1.0000   1.0000   1.0000   1.0000
     1.0000   1.0000   1.0000   1.0000   1.0000   1.0000   1.0000   1.0000
     1.0000   1.0000   1.0000   1.0000

[...]

          k = 0.0000-0.3849 0.1147 (  2586 PWs)   bands (ev):

[...]

          k =-0.1667-0.4811 0.0574 (  2583 PWs)   bands (ev):

[...]

          k =-0.1667-0.4811 0.1147 (  2582 PWs)   bands (ev):

    -6.0803  -5.9346  -5.6258  -5.5529   5.1319   5.2415   5.3992   5.6300
     6.4923   6.5305   6.6183   6.6691   7.0117   7.1484   7.1866   7.5110
     8.7064   8.9080   8.9781   9.0217   9.3480   9.3532   9.4964   9.5427
     9.7644   9.9796  10.1349  10.3203  10.7436  10.9431  11.5025  11.8449
    12.2835  12.4824  13.0360  13.3853

     occupation numbers
     1.0000   1.0000   1.0000   1.0000   1.0000   1.0000   1.0000   1.0000
     1.0000   1.0000   1.0000   1.0000   1.0000   1.0000   1.0000   1.0000
     1.0000   1.0000   1.0000   1.0000   1.0000   1.0000   1.0000   1.0000
     1.0000   1.0000   1.0000   1.0000   1.0000   1.0000   1.0000   1.0000
     1.0000   1.0000   1.0000   1.0000

     highest occupied level (ev):    14.6888

!    total energy              =    -722.50774761 Ry
     estimated scf accuracy    <          4.5E-09 Ry

     The total energy is the sum of the following terms:
     one-electron contribution =    -206.67578717 Ry
     hartree contribution      =     202.35597112 Ry
     xc contribution           =    -221.31871543 Ry
     ewald contribution        =    -496.86921613 Ry

     convergence has been achieved in  25 iterations

     Forces acting on atoms (cartesian axes, Ry/au):

     atom    1 type  1   force =     0.00000000    0.00000000    0.05315539
     atom    2 type  2   force =     0.00000000    0.00000000   -0.05315250
     atom    3 type  1   force =     0.00000000    0.00000000    0.05315229
     atom    4 type  2   force =     0.00000000    0.00000000   -0.05315146
     atom    5 type  1   force =     0.00000000    0.00000000    0.05314689
     atom    6 type  2   force =     0.00000000    0.00000000   -0.05315029
     atom    7 type  1   force =     0.00000000    0.00000000    0.05314874
     atom    8 type  2   force =     0.00000000    0.00000000   -0.05314906
     The non-local contrib.  to forces
     atom    1 type  1   force =     0.00000000    0.00000000    0.18154689
     atom    2 type  2   force =     0.00000000   -0.00000000    0.11991000
     atom    3 type  1   force =     0.00000000    0.00000000    0.18154598
     atom    4 type  2   force =     0.00000000   -0.00000000    0.11991184
     atom    5 type  1   force =     0.00000000    0.00000000    0.18154095
     atom    6 type  2   force =     0.00000000    0.00000000    0.11991345
     atom    7 type  1   force =     0.00000000    0.00000000    0.18153898
     atom    8 type  2   force =     0.00000000    0.00000000    0.11991445
     The ionic contribution  to forces
     atom    1 type  1   force =    -0.00000000    0.00000000    1.30234588
     atom    2 type  2   force =     0.00000000   -0.00000000   -1.30234588
     atom    3 type  1   force =     0.00000000   -0.00000000    1.30234588
     atom    4 type  2   force =    -0.00000000    0.00000000   -1.30234588
     atom    5 type  1   force =    -0.00000000    0.00000000    1.30234588
     atom    6 type  2   force =     0.00000000   -0.00000000   -1.30234588
     atom    7 type  1   force =     0.00000000   -0.00000000    1.30234588
     atom    8 type  2   force =    -0.00000000    0.00000000   -1.30234588
     The local contribution  to forces
     atom    1 type  1   force =    -0.00000000   -0.00000000   -1.41203150
     atom    2 type  2   force =     0.00000001   -0.00000001    1.12995145
     atom    3 type  1   force =     0.00000004   -0.00000002   -1.41202926
     atom    4 type  2   force =    -0.00000000   -0.00000000    1.12995548
     atom    5 type  1   force =    -0.00000000   -0.00000000   -1.41201968
     atom    6 type  2   force =     0.00000001   -0.00000001    1.12996145
     atom    7 type  1   force =     0.00000004   -0.00000002   -1.41201533
     atom    8 type  2   force =    -0.00000000   -0.00000000    1.12996054
     The core correction contribution to forces
     atom    1 type  1   force =     0.00000000   -0.00000000   -0.01872654
     atom    2 type  2   force =    -0.00000000    0.00000000   -0.00067651
     atom    3 type  1   force =     0.00000001   -0.00000000   -0.01872642
     atom    4 type  2   force =     0.00000000   -0.00000000   -0.00067652
     atom    5 type  1   force =     0.00000000    0.00000000   -0.01872639
     atom    6 type  2   force =    -0.00000000    0.00000000   -0.00067653
     atom    7 type  1   force =     0.00000001   -0.00000000   -0.01872658
     atom    8 type  2   force =     0.00000000   -0.00000000   -0.00067655
     The Hubbard contrib.    to forces
     atom    1 type  1   force =     0.00000000    0.00000000    0.00000000
     atom    2 type  2   force =     0.00000000    0.00000000    0.00000000
     atom    3 type  1   force =     0.00000000    0.00000000    0.00000000
     atom    4 type  2   force =     0.00000000    0.00000000    0.00000000
     atom    5 type  1   force =     0.00000000    0.00000000    0.00000000
     atom    6 type  2   force =     0.00000000    0.00000000    0.00000000
     atom    7 type  1   force =     0.00000000    0.00000000    0.00000000
     atom    8 type  2   force =     0.00000000    0.00000000    0.00000000
     The SCF correction term to forces
     atom    1 type  1   force =     0.00000000   -0.00000000    0.00001855
     atom    2 type  2   force =    -0.00000000    0.00000000    0.00000631
     atom    3 type  1   force =    -0.00000000    0.00000000    0.00001400
     atom    4 type  2   force =     0.00000000   -0.00000000    0.00000151
     atom    5 type  1   force =     0.00000000   -0.00000000    0.00000401
     atom    6 type  2   force =    -0.00000000    0.00000000   -0.00000489
     atom    7 type  1   force =    -0.00000000    0.00000000    0.00000368
     atom    8 type  2   force =     0.00000000   -0.00000000   -0.00000374

     Total force =     0.150333     Total SCF correction =     0.000025

     General routines

     Parallel routines

   This run was terminated on:  10:53:40  13Jul2025

   JOB DONE.
Note: The following floating-point exceptions are signalling: IEEE_INVALID_FLAG
Note: The following floating-point exceptions are signalling: IEEE_INVALID_FLAG