     Program PWSCF v.7.2 starts on 13Jul2025 at 18: 5:41

     Reading input from /home/jvc/QEspresso7.2/ZnO_database/scripts/cell112.in/ZnO-3.60-1.74-112.in
Warning: card &CELL ignored
Warning: card / ignored
Warning: card &FCP ignored
Warning: card / ignored
Warning: card &RISM ignored
Warning: card / ignored

     Current dimensions of program PWSCF are:
     Max number of different atomic species (ntypx) = 10
     Max number of k-points (npk) =  40000
     Max angular momentum in pseudopotentials (lmaxx) =  4
     file Zn.upf: wavefunction(s)  3D renormalized
     Found identity + (  0.0000  0.0000 -0.5000) symmetry
     This is a supercell, fractional translations are disabled
     Message from routine setup:
     using ibrav=0 with symmetry is DISCOURAGED, use correct ibrav instead

     K-points division:     npool     =       2
     R & G space division:  proc/nbgrp/npool/nimage =       4
     Subspace diagonalization in iterative solution of the eigenvalue problem:
     a serial algorithm will be used

     Using Slab Decomposition

     bravais-lattice index     =            0
     lattice parameter (alat)  =       6.7967  a.u.
     unit-cell volume          =     948.1699 (a.u.)^3
     number of atoms/cell      =            8
     number of atomic types    =            2
     number of electrons       =        72.00
     number of Kohn-Sham states=           36
     kinetic-energy cutoff     =      50.0000  Ry
     charge density cutoff     =     400.0000  Ry
     scf convergence threshold =      1.0E-08
     mixing beta               =       0.3000
     number of iterations used =            8  plain     mixing
     Exchange-correlation= PBE
                           (   1   4   3   4   0   0   0)

     celldm(1)=   6.796739  celldm(2)=   0.000000  celldm(3)=   0.000000
     celldm(4)=   0.000000  celldm(5)=   0.000000  celldm(6)=   0.000000

     crystal axes: (cart. coord. in units of alat)
               a(1) = (   1.000000   0.000000   0.000000 )
               a(2) = (  -0.500000   0.866025   0.000000 )
               a(3) = (   0.000000   0.000000   3.487014 )

     reciprocal axes: (cart. coord. in units 2 pi/alat)
               b(1) = (  1.000000  0.577350 -0.000000 )
               b(2) = (  0.000000  1.154701  0.000000 )
               b(3) = (  0.000000 -0.000000  0.286778 )

     PseudoPot. # 1 for Zn read from file:
     /home/jvc/QEspresso7.2/ZnO_database/pseudos/Zn.upf
     MD5 check sum: 7f56cabf9682ed8c977c2f7d0c5985c5
     Pseudo is Ultrasoft + core correction, Zval = 12.0
     Generated using &quot;atomic&quot; code by A. Dal Corso  v.6.2.2
     Using radial grid of 1201 points,  6 beta functions with:
                l(1) =   0
                l(2) =   0
                l(3) =   1
                l(4) =   1
                l(5) =   2
                l(6) =   2
     Q(r) pseudized with 0 coefficients

     PseudoPot. # 2 for O  read from file:
     /home/jvc/QEspresso7.2/ZnO_database/pseudos/O.upf
     MD5 check sum: 91400c9766925bcf19f520983a725ff0
     Pseudo is Ultrasoft + core correction, Zval =  6.0
     Generated using &quot;atomic&quot; code by A. Dal Corso  v.6.3MaX
     Using radial grid of 1095 points,  4 beta functions with:
                l(1) =   0
                l(2) =   0
                l(3) =   1
                l(4) =   1
     Q(r) pseudized with 0 coefficients

     atomic species   valence    mass     pseudopotential
        Zn            12.00    65.38000     Zn( 1.00)
        O              6.00    15.99900     O ( 1.00)

      6 Sym. Ops. (no inversion) found

                                    s                        frac. trans.

      isym =  1     identity

 cryst.   s( 1) = (     1          0          0      )
                  (     0          1          0      )
                  (     0          0          1      )

 cart.    s( 1) = (  1.0000000  0.0000000  0.0000000 )
                  (  0.0000000  1.0000000  0.0000000 )
                  (  0.0000000  0.0000000  1.0000000 )

      isym =  2     120 deg rotation - cryst. axis [0,0,1]

[...]

      isym =  3     120 deg rotation - cryst. axis [0,0,-1]

[...]

      isym =  4     inv. 180 deg rotation - cart. axis [1,0,0]

[...]

      isym =  5     inv. 180 deg rotation - cryst. axis [0,1,0]

[...]

      isym =  6     inv. 180 deg rotation - cryst. axis [1,1,0]

 cryst.   s( 6) = (     0         -1          0      )
                  (    -1          0          0      )
                  (     0          0          1      )

 cart.    s( 6) = (  0.5000000 -0.8660254  0.0000000 )
                  ( -0.8660254 -0.5000000  0.0000000 )
                  (  0.0000000  0.0000000  1.0000000 )

   Cartesian axes

     site n.     atom                  positions (alat units)
         1           Zn  tau(   1) = (   0.0000000   0.0000000   0.0000000  )
         2           O   tau(   2) = (  -0.0000000   0.5773503   0.2446912  )
         3           Zn  tau(   3) = (  -0.0000000   0.5773503   0.8717535  )
         4           O   tau(   4) = (   0.0000000   0.0000000   1.1164447  )
         5           Zn  tau(   5) = (   0.0000000   0.0000000   1.7435070  )
         6           O   tau(   6) = (  -0.0000000   0.5773503   1.9881982  )
         7           Zn  tau(   7) = (  -0.0000000   0.5773503   2.6152605  )
         8           O   tau(   8) = (   0.0000000   0.0000000   2.8599518  )

   Crystallographic axes

     site n.     atom                  positions (cryst. coord.)
         1           Zn  tau(   1) = (  0.0000000  0.0000000  0.0000000  )
         2           O   tau(   2) = (  0.3333333  0.6666667  0.0701721  )
         3           Zn  tau(   3) = (  0.3333333  0.6666667  0.2500000  )
         4           O   tau(   4) = (  0.0000000  0.0000000  0.3201721  )
         5           Zn  tau(   5) = (  0.0000000  0.0000000  0.5000000  )
         6           O   tau(   6) = (  0.3333333  0.6666667  0.5701721  )
         7           Zn  tau(   7) = (  0.3333333  0.6666667  0.7500000  )
         8           O   tau(   8) = (  0.0000000  0.0000000  0.8201721  )

     number of k points=    34
                       cart. coord. in units 2pi/alat
        k(    1) = (   0.0000000   0.0000000   0.0000000), wk =   0.0092593
        k(    2) = (   0.0000000   0.0000000   0.0477964), wk =   0.0185185
        k(    3) = (   0.0000000   0.0000000   0.0955928), wk =   0.0185185
        k(    4) = (   0.0000000   0.0000000  -0.1433892), wk =   0.0092593
        k(    5) = (   0.0000000   0.1924501   0.0000000), wk =   0.0555556
        k(    6) = (   0.0000000   0.1924501   0.0477964), wk =   0.0555556
        k(    7) = (   0.0000000   0.1924501   0.0955928), wk =   0.0555556
        k(    8) = (   0.0000000   0.1924501  -0.1433892), wk =   0.0555556
        k(    9) = (   0.0000000   0.3849002   0.0000000), wk =   0.0555556
        k(   10) = (   0.0000000   0.3849002   0.0477964), wk =   0.0555556
        k(   11) = (   0.0000000   0.3849002   0.0955928), wk =   0.0555556
        k(   12) = (   0.0000000   0.3849002  -0.1433892), wk =   0.0555556
        k(   13) = (   0.0000000  -0.5773503   0.0000000), wk =   0.0277778
        k(   14) = (   0.0000000  -0.5773503   0.0477964), wk =   0.0555556
        k(   15) = (   0.0000000  -0.5773503   0.0955928), wk =   0.0555556
        k(   16) = (   0.0000000  -0.5773503  -0.1433892), wk =   0.0277778
        k(   17) = (   0.1666667   0.2886751   0.0000000), wk =   0.0555556
        k(   18) = (   0.1666667   0.2886751   0.0477964), wk =   0.1111111
        k(   19) = (   0.1666667   0.2886751   0.0955928), wk =   0.1111111
        k(   20) = (   0.1666667   0.2886751  -0.1433892), wk =   0.0555556
        k(   21) = (   0.1666667   0.4811252   0.0000000), wk =   0.1111111
        k(   22) = (   0.1666667   0.4811252   0.0477964), wk =   0.1111111
        k(   23) = (   0.1666667   0.4811252   0.0955928), wk =   0.1111111
        k(   24) = (   0.1666667   0.4811252  -0.1433892), wk =   0.1111111
        k(   25) = (   0.3333333   0.5773503   0.0000000), wk =   0.0185185
        k(   26) = (   0.3333333   0.5773503   0.0477964), wk =   0.0370370
        k(   27) = (   0.3333333   0.5773503   0.0955928), wk =   0.0370370
        k(   28) = (   0.3333333   0.5773503  -0.1433892), wk =   0.0185185
        k(   29) = (   0.0000000  -0.1924501   0.0477964), wk =   0.0555556
        k(   30) = (   0.0000000  -0.1924501   0.0955928), wk =   0.0555556
        k(   31) = (   0.0000000  -0.3849002   0.0477964), wk =   0.0555556
        k(   32) = (   0.0000000  -0.3849002   0.0955928), wk =   0.0555556
        k(   33) = (  -0.1666667  -0.4811252   0.0477964), wk =   0.1111111
        k(   34) = (  -0.1666667  -0.4811252   0.0955928), wk =   0.1111111

                       cryst. coord.
        k(    1) = (   0.0000000   0.0000000   0.0000000), wk =   0.0092593
        k(    2) = (   0.0000000   0.0000000   0.1666667), wk =   0.0185185
        k(    3) = (   0.0000000   0.0000000   0.3333333), wk =   0.0185185
        k(    4) = (   0.0000000   0.0000000  -0.5000000), wk =   0.0092593
        k(    5) = (   0.0000000   0.1666667   0.0000000), wk =   0.0555556
        k(    6) = (   0.0000000   0.1666667   0.1666667), wk =   0.0555556
        k(    7) = (   0.0000000   0.1666667   0.3333333), wk =   0.0555556
        k(    8) = (   0.0000000   0.1666667  -0.5000000), wk =   0.0555556
        k(    9) = (   0.0000000   0.3333333   0.0000000), wk =   0.0555556
        k(   10) = (   0.0000000   0.3333333   0.1666667), wk =   0.0555556
        k(   11) = (   0.0000000   0.3333333   0.3333333), wk =   0.0555556
        k(   12) = (   0.0000000   0.3333333  -0.5000000), wk =   0.0555556
        k(   13) = (   0.0000000  -0.5000000   0.0000000), wk =   0.0277778
        k(   14) = (   0.0000000  -0.5000000   0.1666667), wk =   0.0555556
        k(   15) = (   0.0000000  -0.5000000   0.3333333), wk =   0.0555556
        k(   16) = (   0.0000000  -0.5000000  -0.5000000), wk =   0.0277778
        k(   17) = (   0.1666667   0.1666667   0.0000000), wk =   0.0555556
        k(   18) = (   0.1666667   0.1666667   0.1666667), wk =   0.1111111
        k(   19) = (   0.1666667   0.1666667   0.3333333), wk =   0.1111111
        k(   20) = (   0.1666667   0.1666667  -0.5000000), wk =   0.0555556
        k(   21) = (   0.1666667   0.3333333   0.0000000), wk =   0.1111111
        k(   22) = (   0.1666667   0.3333333   0.1666667), wk =   0.1111111
        k(   23) = (   0.1666667   0.3333333   0.3333333), wk =   0.1111111
        k(   24) = (   0.1666667   0.3333333  -0.5000000), wk =   0.1111111
        k(   25) = (   0.3333333   0.3333333   0.0000000), wk =   0.0185185
        k(   26) = (   0.3333333   0.3333333   0.1666667), wk =   0.0370370
        k(   27) = (   0.3333333   0.3333333   0.3333333), wk =   0.0370370
        k(   28) = (   0.3333333   0.3333333  -0.5000000), wk =   0.0185185
        k(   29) = (   0.0000000  -0.1666667   0.1666667), wk =   0.0555556
        k(   30) = (   0.0000000  -0.1666667   0.3333333), wk =   0.0555556
        k(   31) = (   0.0000000  -0.3333333   0.1666667), wk =   0.0555556
        k(   32) = (   0.0000000  -0.3333333   0.3333333), wk =   0.0555556
        k(   33) = (  -0.1666667  -0.3333333   0.1666667), wk =   0.1111111
        k(   34) = (  -0.1666667  -0.3333333   0.3333333), wk =   0.1111111

     Check: negative core charge=   -0.000002

     Initial potential from superposition of free atoms

     starting charge      71.9851, renormalised to      72.0000
     Starting wfcs are   52 randomized atomic wfcs

     Self-consistent Calculation

     iteration #  1     ecut=    50.00 Ry     beta= 0.30
     Davidson diagonalization with overlap

     ethr =  1.00E-02,  avg # of iterations =  1.1

     total energy              =    -722.52517744 Ry
     estimated scf accuracy    <       1.85669235 Ry

[...]

     c_bands:  2 eigenvalues not converged
     ethr =  5.64E-08,  avg # of iterations =  8.4

[...]

     c_bands:  1 eigenvalues not converged
     ethr =  1.85E-10,  avg # of iterations = 11.2

[...]

     total energy              =    -722.98294450 Ry
     estimated scf accuracy    <       0.00000006 Ry

     iteration # 32     ecut=    50.00 Ry     beta= 0.30
     Davidson diagonalization with overlap

     ethr =  4.13E-11,  avg # of iterations =  6.4

     End of self-consistent calculation

          k = 0.0000 0.0000 0.0000 (  5711 PWs)   bands (ev):

   -13.1874 -13.0673 -13.0673 -12.9438  -2.2236  -2.1492  -2.1492  -2.1477
    -2.1476  -2.1153  -2.1153  -2.1153  -2.1153  -2.0720  -2.0720  -1.8160
    -1.8160  -1.7774  -1.7774  -1.7773  -1.7773  -1.7722  -1.7465  -1.7465
    -0.7981   0.4695   0.4695   2.3190   2.3190   2.4400   2.5090   2.5090
     2.5090   2.5090   2.6982   2.6982

     occupation numbers
     1.0000   1.0000   1.0000   1.0000   1.0000   1.0000   1.0000   1.0000
     1.0000   1.0000   1.0000   1.0000   1.0000   1.0000   1.0000   1.0000
     1.0000   1.0000   1.0000   1.0000   1.0000   1.0000   1.0000   1.0000
     1.0000   1.0000   1.0000   1.0000   1.0000   1.0000   1.0000   1.0000
     1.0000   1.0000   1.0000   1.0000

[...]

          k = 0.0000-0.3849 0.0956 (  5655 PWs)   bands (ev):

[...]

          k =-0.1667-0.4811 0.0478 (  5655 PWs)   bands (ev):

[...]

          k =-0.1667-0.4811 0.0956 (  5655 PWs)   bands (ev):

   -12.8971 -12.8825 -12.8439 -12.8302  -2.1372  -2.1194  -2.0792  -2.0696
    -2.0245  -2.0026  -1.9369  -1.9145  -1.8991  -1.8891  -1.8728  -1.8547
    -1.8053  -1.7923  -1.7728  -1.7648  -1.7031  -1.6974  -1.6610  -1.6372
    -0.1025  -0.0860   0.0859   0.2158   1.0385   1.2977   1.3658   1.5577
     1.7965   1.8596   1.9374   2.0012

     occupation numbers
     1.0000   1.0000   1.0000   1.0000   1.0000   1.0000   1.0000   1.0000
     1.0000   1.0000   1.0000   1.0000   1.0000   1.0000   1.0000   1.0000
     1.0000   1.0000   1.0000   1.0000   1.0000   1.0000   1.0000   1.0000
     1.0000   1.0000   1.0000   1.0000   1.0000   1.0000   1.0000   1.0000
     1.0000   1.0000   1.0000   1.0000

     highest occupied level (ev):     2.6982

!    total energy              =    -722.98294450 Ry
     estimated scf accuracy    <          5.3E-09 Ry

     The total energy is the sum of the following terms:
     one-electron contribution =    -387.23003641 Ry
     hartree contribution      =     265.17461957 Ry
     xc contribution           =    -217.85052655 Ry
     ewald contribution        =    -383.07700111 Ry

     convergence has been achieved in  32 iterations

     Forces acting on atoms (cartesian axes, Ry/au):

     atom    1 type  1   force =     0.00000000    0.00000000    0.01433530
     atom    2 type  2   force =     0.00000000    0.00000000   -0.01434583
     atom    3 type  1   force =     0.00000000    0.00000000    0.01440868
     atom    4 type  2   force =     0.00000000    0.00000000   -0.01433229
     atom    5 type  1   force =     0.00000000    0.00000000    0.01434774
     atom    6 type  2   force =     0.00000000    0.00000000   -0.01434898
     atom    7 type  1   force =     0.00000000    0.00000000    0.01429311
     atom    8 type  2   force =     0.00000000    0.00000000   -0.01435774
     The non-local contrib.  to forces
     atom    1 type  1   force =     0.00000000   -0.00000000   -0.09054946
     atom    2 type  2   force =     0.00000000   -0.00000000   -0.09053965
     atom    3 type  1   force =     0.00000000    0.00000000   -0.09051476
     atom    4 type  2   force =     0.00000000    0.00000000   -0.09053871
     atom    5 type  1   force =     0.00000000    0.00000000   -0.09054771
     atom    6 type  2   force =     0.00000000   -0.00000000   -0.09053388
     atom    7 type  1   force =     0.00000000    0.00000000   -0.09057558
     atom    8 type  2   force =     0.00000000   -0.00000000   -0.09052806
     The ionic contribution  to forces
     atom    1 type  1   force =    -0.00000000    0.00000000   -0.72400408
     atom    2 type  2   force =     0.00000000   -0.00000000    0.72400408
     atom    3 type  1   force =     0.00000000   -0.00000000   -0.72400408
     atom    4 type  2   force =    -0.00000000    0.00000000    0.72400408
     atom    5 type  1   force =    -0.00000000    0.00000000   -0.72400408
     atom    6 type  2   force =     0.00000000   -0.00000000    0.72400408
     atom    7 type  1   force =     0.00000000   -0.00000000   -0.72400408
     atom    8 type  2   force =    -0.00000000    0.00000000    0.72400408
     The local contribution  to forces
     atom    1 type  1   force =     0.00000000    0.00000000    0.82501341
     atom    2 type  2   force =     0.00000001   -0.00000001   -0.64866275
     atom    3 type  1   force =     0.00000005   -0.00000003    0.82491285
     atom    4 type  2   force =    -0.00000000    0.00000000   -0.64870219
     atom    5 type  1   force =    -0.00000000   -0.00000000    0.82499318
     atom    6 type  2   force =     0.00000001   -0.00000001   -0.64866305
     atom    7 type  1   force =     0.00000005   -0.00000003    0.82507258
     atom    8 type  2   force =    -0.00000000   -0.00000000   -0.64863767
     The core correction contribution to forces
     atom    1 type  1   force =     0.00000000   -0.00000000    0.00389214
     atom    2 type  2   force =    -0.00000000    0.00000000    0.00084837
     atom    3 type  1   force =     0.00000001   -0.00000000    0.00389265
     atom    4 type  2   force =     0.00000000   -0.00000000    0.00084830
     atom    5 type  1   force =     0.00000000   -0.00000000    0.00389281
     atom    6 type  2   force =    -0.00000000    0.00000000    0.00084826
     atom    7 type  1   force =     0.00000001   -0.00000000    0.00389249
     atom    8 type  2   force =     0.00000000   -0.00000000    0.00084823
     The Hubbard contrib.    to forces
     atom    1 type  1   force =     0.00000000    0.00000000    0.00000000
     atom    2 type  2   force =     0.00000000    0.00000000    0.00000000
     atom    3 type  1   force =     0.00000000    0.00000000    0.00000000
     atom    4 type  2   force =     0.00000000    0.00000000    0.00000000
     atom    5 type  1   force =     0.00000000    0.00000000    0.00000000
     atom    6 type  2   force =     0.00000000    0.00000000    0.00000000
     atom    7 type  1   force =     0.00000000    0.00000000    0.00000000
     atom    8 type  2   force =     0.00000000    0.00000000    0.00000000
     The SCF correction term to forces
     atom    1 type  1   force =    -0.00000000    0.00000000   -0.00001620
     atom    2 type  2   force =     0.00000000   -0.00000000    0.00000464
     atom    3 type  1   force =     0.00000000   -0.00000000    0.00012255
     atom    4 type  2   force =    -0.00000000    0.00000000    0.00005674
     atom    5 type  1   force =    -0.00000000    0.00000000    0.00001406
     atom    6 type  2   force =     0.00000000   -0.00000000   -0.00000388
     atom    7 type  1   force =     0.00000000   -0.00000000   -0.00009177
     atom    8 type  2   force =    -0.00000000    0.00000000   -0.00004380

     Total force =     0.040577     Total SCF correction =     0.000171

     General routines

     Parallel routines

   This run was terminated on:  18: 9:59  13Jul2025

   JOB DONE.
Note: The following floating-point exceptions are signalling: IEEE_INVALID_FLAG
Note: The following floating-point exceptions are signalling: IEEE_INVALID_FLAG