     Program PWSCF v.7.2 starts on 13Jul2025 at 16: 8: 4

     Reading input from /home/jvc/QEspresso7.2/ZnO_database/scripts/cell112.in/ZnO-3.47-1.61-112.in
Warning: card &CELL ignored
Warning: card / ignored
Warning: card &FCP ignored
Warning: card / ignored
Warning: card &RISM ignored
Warning: card / ignored

     Current dimensions of program PWSCF are:
     Max number of different atomic species (ntypx) = 10
     Max number of k-points (npk) =  40000
     Max angular momentum in pseudopotentials (lmaxx) =  4
     file Zn.upf: wavefunction(s)  3D renormalized
     Found identity + (  0.0000  0.0000 -0.5000) symmetry
     This is a supercell, fractional translations are disabled
     Message from routine setup:
     using ibrav=0 with symmetry is DISCOURAGED, use correct ibrav instead

     K-points division:     npool     =       2
     R & G space division:  proc/nbgrp/npool/nimage =       4
     Subspace diagonalization in iterative solution of the eigenvalue problem:
     a serial algorithm will be used

     Using Slab Decomposition

     bravais-lattice index     =            0
     lattice parameter (alat)  =       6.5496  a.u.
     unit-cell volume          =     785.6009 (a.u.)^3
     number of atoms/cell      =            8
     number of atomic types    =            2
     number of electrons       =        72.00
     number of Kohn-Sham states=           36
     kinetic-energy cutoff     =      50.0000  Ry
     charge density cutoff     =     400.0000  Ry
     scf convergence threshold =      1.0E-08
     mixing beta               =       0.3000
     number of iterations used =            8  plain     mixing
     Exchange-correlation= PBE
                           (   1   4   3   4   0   0   0)

     celldm(1)=   6.549585  celldm(2)=   0.000000  celldm(3)=   0.000000
     celldm(4)=   0.000000  celldm(5)=   0.000000  celldm(6)=   0.000000

     crystal axes: (cart. coord. in units of alat)
               a(1) = (   1.000000   0.000000   0.000000 )
               a(2) = (  -0.500000   0.866025   0.000000 )
               a(3) = (   0.000000   0.000000   3.228717 )

     reciprocal axes: (cart. coord. in units 2 pi/alat)
               b(1) = (  1.000000  0.577350 -0.000000 )
               b(2) = (  0.000000  1.154701  0.000000 )
               b(3) = (  0.000000 -0.000000  0.309721 )

     PseudoPot. # 1 for Zn read from file:
     /home/jvc/QEspresso7.2/ZnO_database/pseudos/Zn.upf
     MD5 check sum: 7f56cabf9682ed8c977c2f7d0c5985c5
     Pseudo is Ultrasoft + core correction, Zval = 12.0
     Generated using &quot;atomic&quot; code by A. Dal Corso  v.6.2.2
     Using radial grid of 1201 points,  6 beta functions with:
                l(1) =   0
                l(2) =   0
                l(3) =   1
                l(4) =   1
                l(5) =   2
                l(6) =   2
     Q(r) pseudized with 0 coefficients

     PseudoPot. # 2 for O  read from file:
     /home/jvc/QEspresso7.2/ZnO_database/pseudos/O.upf
     MD5 check sum: 91400c9766925bcf19f520983a725ff0
     Pseudo is Ultrasoft + core correction, Zval =  6.0
     Generated using &quot;atomic&quot; code by A. Dal Corso  v.6.3MaX
     Using radial grid of 1095 points,  4 beta functions with:
                l(1) =   0
                l(2) =   0
                l(3) =   1
                l(4) =   1
     Q(r) pseudized with 0 coefficients

     atomic species   valence    mass     pseudopotential
        Zn            12.00    65.38000     Zn( 1.00)
        O              6.00    15.99900     O ( 1.00)

      6 Sym. Ops. (no inversion) found

                                    s                        frac. trans.

      isym =  1     identity

 cryst.   s( 1) = (     1          0          0      )
                  (     0          1          0      )
                  (     0          0          1      )

 cart.    s( 1) = (  1.0000000  0.0000000  0.0000000 )
                  (  0.0000000  1.0000000  0.0000000 )
                  (  0.0000000  0.0000000  1.0000000 )

      isym =  2     120 deg rotation - cryst. axis [0,0,1]

[...]

      isym =  3     120 deg rotation - cryst. axis [0,0,-1]

[...]

      isym =  4     inv. 180 deg rotation - cart. axis [1,0,0]

[...]

      isym =  5     inv. 180 deg rotation - cryst. axis [0,1,0]

[...]

      isym =  6     inv. 180 deg rotation - cryst. axis [1,1,0]

 cryst.   s( 6) = (     0         -1          0      )
                  (    -1          0          0      )
                  (     0          0          1      )

 cart.    s( 6) = (  0.5000000 -0.8660254  0.0000000 )
                  ( -0.8660254 -0.5000000  0.0000000 )
                  (  0.0000000  0.0000000  1.0000000 )

   Cartesian axes

     site n.     atom                  positions (alat units)
         1           Zn  tau(   1) = (   0.0000000   0.0000000   0.0000000  )
         2           O   tau(   2) = (  -0.0000000   0.5773503   0.1971092  )
         3           Zn  tau(   3) = (  -0.0000000   0.5773503   0.8071792  )
         4           O   tau(   4) = (   0.0000000   0.0000000   1.0042884  )
         5           Zn  tau(   5) = (   0.0000000   0.0000000   1.6143584  )
         6           O   tau(   6) = (  -0.0000000   0.5773503   1.8114676  )
         7           Zn  tau(   7) = (  -0.0000000   0.5773503   2.4215375  )
         8           O   tau(   8) = (   0.0000000   0.0000000   2.6186467  )

   Crystallographic axes

     site n.     atom                  positions (cryst. coord.)
         1           Zn  tau(   1) = (  0.0000000  0.0000000  0.0000000  )
         2           O   tau(   2) = (  0.3333333  0.6666667  0.0610488  )
         3           Zn  tau(   3) = (  0.3333333  0.6666667  0.2500000  )
         4           O   tau(   4) = (  0.0000000  0.0000000  0.3110488  )
         5           Zn  tau(   5) = (  0.0000000  0.0000000  0.5000000  )
         6           O   tau(   6) = (  0.3333333  0.6666667  0.5610488  )
         7           Zn  tau(   7) = (  0.3333333  0.6666667  0.7500000  )
         8           O   tau(   8) = (  0.0000000  0.0000000  0.8110488  )

     number of k points=    34
                       cart. coord. in units 2pi/alat
        k(    1) = (   0.0000000   0.0000000   0.0000000), wk =   0.0092593
        k(    2) = (   0.0000000   0.0000000   0.0516201), wk =   0.0185185
        k(    3) = (   0.0000000   0.0000000   0.1032402), wk =   0.0185185
        k(    4) = (   0.0000000   0.0000000  -0.1548603), wk =   0.0092593
        k(    5) = (   0.0000000   0.1924501   0.0000000), wk =   0.0555556
        k(    6) = (   0.0000000   0.1924501   0.0516201), wk =   0.0555556
        k(    7) = (   0.0000000   0.1924501   0.1032402), wk =   0.0555556
        k(    8) = (   0.0000000   0.1924501  -0.1548603), wk =   0.0555556
        k(    9) = (   0.0000000   0.3849002   0.0000000), wk =   0.0555556
        k(   10) = (   0.0000000   0.3849002   0.0516201), wk =   0.0555556
        k(   11) = (   0.0000000   0.3849002   0.1032402), wk =   0.0555556
        k(   12) = (   0.0000000   0.3849002  -0.1548603), wk =   0.0555556
        k(   13) = (   0.0000000  -0.5773503   0.0000000), wk =   0.0277778
        k(   14) = (   0.0000000  -0.5773503   0.0516201), wk =   0.0555556
        k(   15) = (   0.0000000  -0.5773503   0.1032402), wk =   0.0555556
        k(   16) = (   0.0000000  -0.5773503  -0.1548603), wk =   0.0277778
        k(   17) = (   0.1666667   0.2886751   0.0000000), wk =   0.0555556
        k(   18) = (   0.1666667   0.2886751   0.0516201), wk =   0.1111111
        k(   19) = (   0.1666667   0.2886751   0.1032402), wk =   0.1111111
        k(   20) = (   0.1666667   0.2886751  -0.1548603), wk =   0.0555556
        k(   21) = (   0.1666667   0.4811252   0.0000000), wk =   0.1111111
        k(   22) = (   0.1666667   0.4811252   0.0516201), wk =   0.1111111
        k(   23) = (   0.1666667   0.4811252   0.1032402), wk =   0.1111111
        k(   24) = (   0.1666667   0.4811252  -0.1548603), wk =   0.1111111
        k(   25) = (   0.3333333   0.5773503   0.0000000), wk =   0.0185185
        k(   26) = (   0.3333333   0.5773503   0.0516201), wk =   0.0370370
        k(   27) = (   0.3333333   0.5773503   0.1032402), wk =   0.0370370
        k(   28) = (   0.3333333   0.5773503  -0.1548603), wk =   0.0185185
        k(   29) = (   0.0000000  -0.1924501   0.0516201), wk =   0.0555556
        k(   30) = (   0.0000000  -0.1924501   0.1032402), wk =   0.0555556
        k(   31) = (   0.0000000  -0.3849002   0.0516201), wk =   0.0555556
        k(   32) = (   0.0000000  -0.3849002   0.1032402), wk =   0.0555556
        k(   33) = (  -0.1666667  -0.4811252   0.0516201), wk =   0.1111111
        k(   34) = (  -0.1666667  -0.4811252   0.1032402), wk =   0.1111111

                       cryst. coord.
        k(    1) = (   0.0000000   0.0000000   0.0000000), wk =   0.0092593
        k(    2) = (   0.0000000   0.0000000   0.1666667), wk =   0.0185185
        k(    3) = (   0.0000000   0.0000000   0.3333333), wk =   0.0185185
        k(    4) = (   0.0000000   0.0000000  -0.5000000), wk =   0.0092593
        k(    5) = (   0.0000000   0.1666667   0.0000000), wk =   0.0555556
        k(    6) = (   0.0000000   0.1666667   0.1666667), wk =   0.0555556
        k(    7) = (   0.0000000   0.1666667   0.3333333), wk =   0.0555556
        k(    8) = (   0.0000000   0.1666667  -0.5000000), wk =   0.0555556
        k(    9) = (   0.0000000   0.3333333   0.0000000), wk =   0.0555556
        k(   10) = (   0.0000000   0.3333333   0.1666667), wk =   0.0555556
        k(   11) = (   0.0000000   0.3333333   0.3333333), wk =   0.0555556
        k(   12) = (   0.0000000   0.3333333  -0.5000000), wk =   0.0555556
        k(   13) = (   0.0000000  -0.5000000   0.0000000), wk =   0.0277778
        k(   14) = (   0.0000000  -0.5000000   0.1666667), wk =   0.0555556
        k(   15) = (   0.0000000  -0.5000000   0.3333333), wk =   0.0555556
        k(   16) = (   0.0000000  -0.5000000  -0.5000000), wk =   0.0277778
        k(   17) = (   0.1666667   0.1666667   0.0000000), wk =   0.0555556
        k(   18) = (   0.1666667   0.1666667   0.1666667), wk =   0.1111111
        k(   19) = (   0.1666667   0.1666667   0.3333333), wk =   0.1111111
        k(   20) = (   0.1666667   0.1666667  -0.5000000), wk =   0.0555556
        k(   21) = (   0.1666667   0.3333333   0.0000000), wk =   0.1111111
        k(   22) = (   0.1666667   0.3333333   0.1666667), wk =   0.1111111
        k(   23) = (   0.1666667   0.3333333   0.3333333), wk =   0.1111111
        k(   24) = (   0.1666667   0.3333333  -0.5000000), wk =   0.1111111
        k(   25) = (   0.3333333   0.3333333   0.0000000), wk =   0.0185185
        k(   26) = (   0.3333333   0.3333333   0.1666667), wk =   0.0370370
        k(   27) = (   0.3333333   0.3333333   0.3333333), wk =   0.0370370
        k(   28) = (   0.3333333   0.3333333  -0.5000000), wk =   0.0185185
        k(   29) = (   0.0000000  -0.1666667   0.1666667), wk =   0.0555556
        k(   30) = (   0.0000000  -0.1666667   0.3333333), wk =   0.0555556
        k(   31) = (   0.0000000  -0.3333333   0.1666667), wk =   0.0555556
        k(   32) = (   0.0000000  -0.3333333   0.3333333), wk =   0.0555556
        k(   33) = (  -0.1666667  -0.3333333   0.1666667), wk =   0.1111111
        k(   34) = (  -0.1666667  -0.3333333   0.3333333), wk =   0.1111111

     Check: negative core charge=   -0.000002

     Initial potential from superposition of free atoms

     starting charge      71.9851, renormalised to      72.0000
     Starting wfcs are   52 randomized atomic wfcs

     Self-consistent Calculation

     iteration #  1     ecut=    50.00 Ry     beta= 0.30
     Davidson diagonalization with overlap

     ethr =  1.00E-02,  avg # of iterations =  1.5

     total energy              =    -722.83634612 Ry
     estimated scf accuracy    <       1.54431158 Ry

[...]

     c_bands:  2 eigenvalues not converged
     c_bands:  1 eigenvalues not converged
     ethr =  4.63E-08,  avg # of iterations = 13.2

[...]

     c_bands:  1 eigenvalues not converged
     ethr =  4.63E-08,  avg # of iterations = 12.3

[...]

     total energy              =    -723.20413736 Ry
     estimated scf accuracy    <       0.00000003 Ry

     iteration # 37     ecut=    50.00 Ry     beta= 0.30
     Davidson diagonalization with overlap

     ethr =  4.01E-11,  avg # of iterations =  4.1

     End of self-consistent calculation

          k = 0.0000 0.0000 0.0000 (  4709 PWs)   bands (ev):

   -12.1256 -11.9007 -11.9005 -11.6675  -0.4290  -0.4289  -0.3994  -0.3994
    -0.3894  -0.3490  -0.3490  -0.3490  -0.3490  -0.2664  -0.2664   0.1796
     0.2681   0.2681   0.3457   0.3457   0.3457   0.3457   0.3993   0.3993
     0.7330   2.4735   2.4735   3.9942   3.9942   4.2923   4.2923   4.2924
     4.2924   4.5454   4.5827   4.5827

     occupation numbers
     1.0000   1.0000   1.0000   1.0000   1.0000   1.0000   1.0000   1.0000
     1.0000   1.0000   1.0000   1.0000   1.0000   1.0000   1.0000   1.0000
     1.0000   1.0000   1.0000   1.0000   1.0000   1.0000   1.0000   1.0000
     1.0000   1.0000   1.0000   1.0000   1.0000   1.0000   1.0000   1.0000
     1.0000   1.0000   1.0000   1.0000

[...]

          k = 0.0000-0.3849 0.1032 (  4687 PWs)   bands (ev):

[...]

          k =-0.1667-0.4811 0.0516 (  4684 PWs)   bands (ev):

[...]

          k =-0.1667-0.4811 0.1032 (  4683 PWs)   bands (ev):

   -11.6825 -11.6535 -11.5796 -11.5546  -0.4148  -0.3991  -0.3213  -0.2524
    -0.1811  -0.1500  -0.0305  -0.0088   0.0152   0.0309   0.0869   0.1066
     0.2792   0.3244   0.3476   0.3635   0.4414   0.4529   0.5304   0.5663
     1.2698   1.3133   1.5792   1.7084   2.4644   2.7238   2.7999   3.2008
     3.3947   3.5901   3.7359   3.7963

     occupation numbers
     1.0000   1.0000   1.0000   1.0000   1.0000   1.0000   1.0000   1.0000
     1.0000   1.0000   1.0000   1.0000   1.0000   1.0000   1.0000   1.0000
     1.0000   1.0000   1.0000   1.0000   1.0000   1.0000   1.0000   1.0000
     1.0000   1.0000   1.0000   1.0000   1.0000   1.0000   1.0000   1.0000
     1.0000   1.0000   1.0000   1.0000

     highest occupied level (ev):     4.5827

!    total energy              =    -723.20413735 Ry
     estimated scf accuracy    <          8.3E-09 Ry

     The total energy is the sum of the following terms:
     one-electron contribution =    -348.24197304 Ry
     hartree contribution      =     250.75423405 Ry
     xc contribution           =    -218.44364040 Ry
     ewald contribution        =    -407.27275796 Ry

     convergence has been achieved in  37 iterations

     Forces acting on atoms (cartesian axes, Ry/au):

     atom    1 type  1   force =     0.00000000    0.00000000    0.00073544
     atom    2 type  2   force =     0.00000000    0.00000000   -0.00074322
     atom    3 type  1   force =     0.00000000    0.00000000    0.00073593
     atom    4 type  2   force =     0.00000000    0.00000000   -0.00073917
     atom    5 type  1   force =     0.00000000    0.00000000    0.00075317
     atom    6 type  2   force =     0.00000000    0.00000000   -0.00073759
     atom    7 type  1   force =     0.00000000    0.00000000    0.00074155
     atom    8 type  2   force =     0.00000000   -0.00000000   -0.00074612
     The non-local contrib.  to forces
     atom    1 type  1   force =     0.00000000    0.00000000    0.00994541
     atom    2 type  2   force =     0.00000000    0.00000000   -0.00076959
     atom    3 type  1   force =     0.00000000    0.00000000    0.00993528
     atom    4 type  2   force =     0.00000000    0.00000000   -0.00076378
     atom    5 type  1   force =     0.00000000    0.00000000    0.00994319
     atom    6 type  2   force =     0.00000000   -0.00000000   -0.00076741
     atom    7 type  1   force =     0.00000000    0.00000000    0.00995859
     atom    8 type  2   force =     0.00000000   -0.00000000   -0.00077153
     The ionic contribution  to forces
     atom    1 type  1   force =    -0.00000000    0.00000000   -0.01849175
     atom    2 type  2   force =     0.00000000   -0.00000000    0.01849175
     atom    3 type  1   force =     0.00000000   -0.00000000   -0.01849175
     atom    4 type  2   force =    -0.00000000    0.00000000    0.01849175
     atom    5 type  1   force =    -0.00000000    0.00000000   -0.01849175
     atom    6 type  2   force =     0.00000000   -0.00000000    0.01849175
     atom    7 type  1   force =     0.00000000   -0.00000000   -0.01849175
     atom    8 type  2   force =    -0.00000000    0.00000000    0.01849175
     The local contribution  to forces
     atom    1 type  1   force =    -0.00000000    0.00000000    0.00998309
     atom    2 type  2   force =     0.00000001   -0.00000001   -0.01849167
     atom    3 type  1   force =     0.00000005   -0.00000003    0.00999488
     atom    4 type  2   force =    -0.00000000    0.00000000   -0.01848278
     atom    5 type  1   force =    -0.00000000   -0.00000000    0.00998075
     atom    6 type  2   force =     0.00000001   -0.00000001   -0.01849342
     atom    7 type  1   force =     0.00000005   -0.00000003    0.00996625
     atom    8 type  2   force =     0.00000000    0.00000000   -0.01849461
     The core correction contribution to forces
     atom    1 type  1   force =     0.00000000   -0.00000000   -0.00069566
     atom    2 type  2   force =    -0.00000000    0.00000000    0.00002474
     atom    3 type  1   force =     0.00000001   -0.00000000   -0.00069291
     atom    4 type  2   force =     0.00000000   -0.00000000    0.00002367
     atom    5 type  1   force =     0.00000000   -0.00000000   -0.00069334
     atom    6 type  2   force =    -0.00000000    0.00000000    0.00002194
     atom    7 type  1   force =     0.00000001   -0.00000000   -0.00069569
     atom    8 type  2   force =     0.00000000   -0.00000000    0.00002299
     The Hubbard contrib.    to forces
     atom    1 type  1   force =     0.00000000    0.00000000    0.00000000
     atom    2 type  2   force =     0.00000000    0.00000000    0.00000000
     atom    3 type  1   force =     0.00000000    0.00000000    0.00000000
     atom    4 type  2   force =     0.00000000    0.00000000    0.00000000
     atom    5 type  1   force =     0.00000000    0.00000000    0.00000000
     atom    6 type  2   force =     0.00000000    0.00000000    0.00000000
     atom    7 type  1   force =     0.00000000    0.00000000    0.00000000
     atom    8 type  2   force =     0.00000000    0.00000000    0.00000000
     The SCF correction term to forces
     atom    1 type  1   force =     0.00000000    0.00000000   -0.00000626
     atom    2 type  2   force =     0.00000000   -0.00000000    0.00000094
     atom    3 type  1   force =     0.00000000   -0.00000000   -0.00001018
     atom    4 type  2   force =     0.00000000    0.00000000   -0.00000865
     atom    5 type  1   force =     0.00000000    0.00000000    0.00001371
     atom    6 type  2   force =     0.00000000   -0.00000000    0.00000893
     atom    7 type  1   force =     0.00000000   -0.00000000    0.00000354
     atom    8 type  2   force =     0.00000000    0.00000000    0.00000466

     Total force =     0.002097     Total SCF correction =     0.000023

     General routines

     Parallel routines

   This run was terminated on:  16:13: 6  13Jul2025

   JOB DONE.
Note: The following floating-point exceptions are signalling: IEEE_INVALID_FLAG
Note: The following floating-point exceptions are signalling: IEEE_INVALID_FLAG