     Program PWSCF v.7.2 starts on 13Jul2025 at 14:21:27

     Reading input from /home/jvc/QEspresso7.2/ZnO_database/scripts/cell112.in/ZnO-3.34-1.55-112.in
Warning: card &CELL ignored
Warning: card / ignored
Warning: card &FCP ignored
Warning: card / ignored
Warning: card &RISM ignored
Warning: card / ignored

     Current dimensions of program PWSCF are:
     Max number of different atomic species (ntypx) = 10
     Max number of k-points (npk) =  40000
     Max angular momentum in pseudopotentials (lmaxx) =  4
     file Zn.upf: wavefunction(s)  3D renormalized
     Found identity + (  0.0000  0.0000 -0.5000) symmetry
     This is a supercell, fractional translations are disabled
     Message from routine setup:
     using ibrav=0 with symmetry is DISCOURAGED, use correct ibrav instead

     K-points division:     npool     =       2
     R & G space division:  proc/nbgrp/npool/nimage =       4
     Subspace diagonalization in iterative solution of the eigenvalue problem:
     a serial algorithm will be used

     Using Slab Decomposition

     bravais-lattice index     =            0
     lattice parameter (alat)  =       6.3024  a.u.
     unit-cell volume          =     671.9796 (a.u.)^3
     number of atoms/cell      =            8
     number of atomic types    =            2
     number of electrons       =        72.00
     number of Kohn-Sham states=           36
     kinetic-energy cutoff     =      50.0000  Ry
     charge density cutoff     =     400.0000  Ry
     scf convergence threshold =      1.0E-08
     mixing beta               =       0.3000
     number of iterations used =            8  plain     mixing
     Exchange-correlation= PBE
                           (   1   4   3   4   0   0   0)

     celldm(1)=   6.302431  celldm(2)=   0.000000  celldm(3)=   0.000000
     celldm(4)=   0.000000  celldm(5)=   0.000000  celldm(6)=   0.000000

     crystal axes: (cart. coord. in units of alat)
               a(1) = (   1.000000   0.000000   0.000000 )
               a(2) = (  -0.500000   0.866025   0.000000 )
               a(3) = (   0.000000   0.000000   3.099568 )

     reciprocal axes: (cart. coord. in units 2 pi/alat)
               b(1) = (  1.000000  0.577350 -0.000000 )
               b(2) = (  0.000000  1.154701  0.000000 )
               b(3) = (  0.000000 -0.000000  0.322626 )

     PseudoPot. # 1 for Zn read from file:
     /home/jvc/QEspresso7.2/ZnO_database/pseudos/Zn.upf
     MD5 check sum: 7f56cabf9682ed8c977c2f7d0c5985c5
     Pseudo is Ultrasoft + core correction, Zval = 12.0
     Generated using &quot;atomic&quot; code by A. Dal Corso  v.6.2.2
     Using radial grid of 1201 points,  6 beta functions with:
                l(1) =   0
                l(2) =   0
                l(3) =   1
                l(4) =   1
                l(5) =   2
                l(6) =   2
     Q(r) pseudized with 0 coefficients

     PseudoPot. # 2 for O  read from file:
     /home/jvc/QEspresso7.2/ZnO_database/pseudos/O.upf
     MD5 check sum: 91400c9766925bcf19f520983a725ff0
     Pseudo is Ultrasoft + core correction, Zval =  6.0
     Generated using &quot;atomic&quot; code by A. Dal Corso  v.6.3MaX
     Using radial grid of 1095 points,  4 beta functions with:
                l(1) =   0
                l(2) =   0
                l(3) =   1
                l(4) =   1
     Q(r) pseudized with 0 coefficients

     atomic species   valence    mass     pseudopotential
        Zn            12.00    65.38000     Zn( 1.00)
        O              6.00    15.99900     O ( 1.00)

      6 Sym. Ops. (no inversion) found

                                    s                        frac. trans.

      isym =  1     identity

 cryst.   s( 1) = (     1          0          0      )
                  (     0          1          0      )
                  (     0          0          1      )

 cart.    s( 1) = (  1.0000000  0.0000000  0.0000000 )
                  (  0.0000000  1.0000000  0.0000000 )
                  (  0.0000000  0.0000000  1.0000000 )

      isym =  2     120 deg rotation - cryst. axis [0,0,1]

[...]

      isym =  3     120 deg rotation - cryst. axis [0,0,-1]

[...]

      isym =  4     inv. 180 deg rotation - cart. axis [1,0,0]

[...]

      isym =  5     inv. 180 deg rotation - cryst. axis [0,1,0]

[...]

      isym =  6     inv. 180 deg rotation - cryst. axis [1,1,0]

 cryst.   s( 6) = (     0         -1          0      )
                  (    -1          0          0      )
                  (     0          0          1      )

 cart.    s( 6) = (  0.5000000 -0.8660254  0.0000000 )
                  ( -0.8660254 -0.5000000  0.0000000 )
                  (  0.0000000  0.0000000  1.0000000 )

   Cartesian axes

     site n.     atom                  positions (alat units)
         1           Zn  tau(   1) = (   0.0000000   0.0000000   0.0000000  )
         2           O   tau(   2) = (  -0.0000000   0.5773503   0.1723623  )
         3           Zn  tau(   3) = (  -0.0000000   0.5773503   0.7748920  )
         4           O   tau(   4) = (   0.0000000   0.0000000   0.9472543  )
         5           Zn  tau(   5) = (   0.0000000   0.0000000   1.5497840  )
         6           O   tau(   6) = (  -0.0000000   0.5773503   1.7221463  )
         7           Zn  tau(   7) = (  -0.0000000   0.5773503   2.3246760  )
         8           O   tau(   8) = (   0.0000000   0.0000000   2.4970383  )

   Crystallographic axes

     site n.     atom                  positions (cryst. coord.)
         1           Zn  tau(   1) = (  0.0000000  0.0000000  0.0000000  )
         2           O   tau(   2) = (  0.3333333  0.6666667  0.0556085  )
         3           Zn  tau(   3) = (  0.3333333  0.6666667  0.2500000  )
         4           O   tau(   4) = (  0.0000000  0.0000000  0.3056085  )
         5           Zn  tau(   5) = (  0.0000000  0.0000000  0.5000000  )
         6           O   tau(   6) = (  0.3333333  0.6666667  0.5556085  )
         7           Zn  tau(   7) = (  0.3333333  0.6666667  0.7500000  )
         8           O   tau(   8) = (  0.0000000  0.0000000  0.8056085  )

     number of k points=    34
                       cart. coord. in units 2pi/alat
        k(    1) = (   0.0000000   0.0000000   0.0000000), wk =   0.0092593
        k(    2) = (   0.0000000   0.0000000   0.0537709), wk =   0.0185185
        k(    3) = (   0.0000000   0.0000000   0.1075419), wk =   0.0185185
        k(    4) = (   0.0000000   0.0000000  -0.1613128), wk =   0.0092593
        k(    5) = (   0.0000000   0.1924501   0.0000000), wk =   0.0555556
        k(    6) = (   0.0000000   0.1924501   0.0537709), wk =   0.0555556
        k(    7) = (   0.0000000   0.1924501   0.1075419), wk =   0.0555556
        k(    8) = (   0.0000000   0.1924501  -0.1613128), wk =   0.0555556
        k(    9) = (   0.0000000   0.3849002   0.0000000), wk =   0.0555556
        k(   10) = (   0.0000000   0.3849002   0.0537709), wk =   0.0555556
        k(   11) = (   0.0000000   0.3849002   0.1075419), wk =   0.0555556
        k(   12) = (   0.0000000   0.3849002  -0.1613128), wk =   0.0555556
        k(   13) = (   0.0000000  -0.5773503   0.0000000), wk =   0.0277778
        k(   14) = (   0.0000000  -0.5773503   0.0537709), wk =   0.0555556
        k(   15) = (   0.0000000  -0.5773503   0.1075419), wk =   0.0555556
        k(   16) = (   0.0000000  -0.5773503  -0.1613128), wk =   0.0277778
        k(   17) = (   0.1666667   0.2886751   0.0000000), wk =   0.0555556
        k(   18) = (   0.1666667   0.2886751   0.0537709), wk =   0.1111111
        k(   19) = (   0.1666667   0.2886751   0.1075419), wk =   0.1111111
        k(   20) = (   0.1666667   0.2886751  -0.1613128), wk =   0.0555556
        k(   21) = (   0.1666667   0.4811252   0.0000000), wk =   0.1111111
        k(   22) = (   0.1666667   0.4811252   0.0537709), wk =   0.1111111
        k(   23) = (   0.1666667   0.4811252   0.1075419), wk =   0.1111111
        k(   24) = (   0.1666667   0.4811252  -0.1613128), wk =   0.1111111
        k(   25) = (   0.3333333   0.5773503   0.0000000), wk =   0.0185185
        k(   26) = (   0.3333333   0.5773503   0.0537709), wk =   0.0370370
        k(   27) = (   0.3333333   0.5773503   0.1075419), wk =   0.0370370
        k(   28) = (   0.3333333   0.5773503  -0.1613128), wk =   0.0185185
        k(   29) = (   0.0000000  -0.1924501   0.0537709), wk =   0.0555556
        k(   30) = (   0.0000000  -0.1924501   0.1075419), wk =   0.0555556
        k(   31) = (   0.0000000  -0.3849002   0.0537709), wk =   0.0555556
        k(   32) = (   0.0000000  -0.3849002   0.1075419), wk =   0.0555556
        k(   33) = (  -0.1666667  -0.4811252   0.0537709), wk =   0.1111111
        k(   34) = (  -0.1666667  -0.4811252   0.1075419), wk =   0.1111111

                       cryst. coord.
        k(    1) = (   0.0000000   0.0000000   0.0000000), wk =   0.0092593
        k(    2) = (   0.0000000   0.0000000   0.1666667), wk =   0.0185185
        k(    3) = (   0.0000000   0.0000000   0.3333333), wk =   0.0185185
        k(    4) = (   0.0000000   0.0000000  -0.5000000), wk =   0.0092593
        k(    5) = (   0.0000000   0.1666667   0.0000000), wk =   0.0555556
        k(    6) = (   0.0000000   0.1666667   0.1666667), wk =   0.0555556
        k(    7) = (   0.0000000   0.1666667   0.3333333), wk =   0.0555556
        k(    8) = (   0.0000000   0.1666667  -0.5000000), wk =   0.0555556
        k(    9) = (   0.0000000   0.3333333   0.0000000), wk =   0.0555556
        k(   10) = (   0.0000000   0.3333333   0.1666667), wk =   0.0555556
        k(   11) = (   0.0000000   0.3333333   0.3333333), wk =   0.0555556
        k(   12) = (   0.0000000   0.3333333  -0.5000000), wk =   0.0555556
        k(   13) = (   0.0000000  -0.5000000   0.0000000), wk =   0.0277778
        k(   14) = (   0.0000000  -0.5000000   0.1666667), wk =   0.0555556
        k(   15) = (   0.0000000  -0.5000000   0.3333333), wk =   0.0555556
        k(   16) = (   0.0000000  -0.5000000  -0.5000000), wk =   0.0277778
        k(   17) = (   0.1666667   0.1666667   0.0000000), wk =   0.0555556
        k(   18) = (   0.1666667   0.1666667   0.1666667), wk =   0.1111111
        k(   19) = (   0.1666667   0.1666667   0.3333333), wk =   0.1111111
        k(   20) = (   0.1666667   0.1666667  -0.5000000), wk =   0.0555556
        k(   21) = (   0.1666667   0.3333333   0.0000000), wk =   0.1111111
        k(   22) = (   0.1666667   0.3333333   0.1666667), wk =   0.1111111
        k(   23) = (   0.1666667   0.3333333   0.3333333), wk =   0.1111111
        k(   24) = (   0.1666667   0.3333333  -0.5000000), wk =   0.1111111
        k(   25) = (   0.3333333   0.3333333   0.0000000), wk =   0.0185185
        k(   26) = (   0.3333333   0.3333333   0.1666667), wk =   0.0370370
        k(   27) = (   0.3333333   0.3333333   0.3333333), wk =   0.0370370
        k(   28) = (   0.3333333   0.3333333  -0.5000000), wk =   0.0185185
        k(   29) = (   0.0000000  -0.1666667   0.1666667), wk =   0.0555556
        k(   30) = (   0.0000000  -0.1666667   0.3333333), wk =   0.0555556
        k(   31) = (   0.0000000  -0.3333333   0.1666667), wk =   0.0555556
        k(   32) = (   0.0000000  -0.3333333   0.3333333), wk =   0.0555556
        k(   33) = (  -0.1666667  -0.3333333   0.1666667), wk =   0.1111111
        k(   34) = (  -0.1666667  -0.3333333   0.3333333), wk =   0.1111111

     Check: negative core charge=   -0.000002

     Initial potential from superposition of free atoms

     starting charge      71.9851, renormalised to      72.0000
     Starting wfcs are   52 randomized atomic wfcs

     Self-consistent Calculation

     iteration #  1     ecut=    50.00 Ry     beta= 0.30
     Davidson diagonalization with overlap

     ethr =  1.00E-02,  avg # of iterations =  1.9

     total energy              =    -722.94958042 Ry
     estimated scf accuracy    <       1.39908014 Ry

[...]

     c_bands:  1 eigenvalues not converged
     ethr =  1.59E-04,  avg # of iterations = 11.4

[...]

     c_bands:  1 eigenvalues not converged
     ethr =  8.75E-05,  avg # of iterations =  5.4

[...]

     total energy              =    -723.27122006 Ry
     estimated scf accuracy    <       0.00000003 Ry

     iteration # 32     ecut=    50.00 Ry     beta= 0.30
     Davidson diagonalization with overlap

     ethr =  4.17E-11,  avg # of iterations =  2.8

     End of self-consistent calculation

          k = 0.0000 0.0000 0.0000 (  3997 PWs)   bands (ev):

   -11.1182 -10.7723 -10.7723 -10.4111   1.0213   1.0213   1.1159   1.1159
     1.1657   1.1657   1.1657   1.1657   1.2697   1.2747   1.2747   1.4575
     2.1727   2.1727   2.3034   2.3034   2.3034   2.3034   2.3825   2.3825
     2.6582   4.4811   4.4811   5.8263   5.8263   6.2144   6.2144   6.2145
     6.2145   6.5341   6.5877   6.5877

     occupation numbers
     1.0000   1.0000   1.0000   1.0000   1.0000   1.0000   1.0000   1.0000
     1.0000   1.0000   1.0000   1.0000   1.0000   1.0000   1.0000   1.0000
     1.0000   1.0000   1.0000   1.0000   1.0000   1.0000   1.0000   1.0000
     1.0000   1.0000   1.0000   1.0000   1.0000   1.0000   1.0000   1.0000
     1.0000   1.0000   1.0000   1.0000

[...]

          k = 0.0000-0.3849 0.1075 (  4014 PWs)   bands (ev):

[...]

          k =-0.1667-0.4811 0.0538 (  4023 PWs)   bands (ev):

[...]

          k =-0.1667-0.4811 0.1075 (  4027 PWs)   bands (ev):

   -10.4968 -10.4496 -10.3340 -10.2972   0.9383   1.0261   1.0280   1.2216
     1.3908   1.4122   1.5380   1.5673   1.6637   1.7114   1.8048   1.8253
     2.1824   2.2641   2.2922   2.3139   2.4249   2.4346   2.5498   2.5945
     2.9147   3.0391   3.3311   3.4414   3.9394   4.2549   4.4541   4.9366
     5.1315   5.3168   5.6019   5.7231

     occupation numbers
     1.0000   1.0000   1.0000   1.0000   1.0000   1.0000   1.0000   1.0000
     1.0000   1.0000   1.0000   1.0000   1.0000   1.0000   1.0000   1.0000
     1.0000   1.0000   1.0000   1.0000   1.0000   1.0000   1.0000   1.0000
     1.0000   1.0000   1.0000   1.0000   1.0000   1.0000   1.0000   1.0000
     1.0000   1.0000   1.0000   1.0000

     highest occupied level (ev):     6.5877

!    total energy              =    -723.27122006 Ry
     estimated scf accuracy    <          8.3E-09 Ry

     The total energy is the sum of the following terms:
     one-electron contribution =    -313.50063734 Ry
     hartree contribution      =     238.19919631 Ry
     xc contribution           =    -219.01481081 Ry
     ewald contribution        =    -428.95496821 Ry

     convergence has been achieved in  32 iterations

     Forces acting on atoms (cartesian axes, Ry/au):

     atom    1 type  1   force =     0.00000000   -0.00000000    0.00053908
     atom    2 type  2   force =     0.00000000    0.00000000   -0.00052791
     atom    3 type  1   force =     0.00000000    0.00000000    0.00053249
     atom    4 type  2   force =     0.00000000    0.00000000   -0.00052829
     atom    5 type  1   force =     0.00000000    0.00000000    0.00051881
     atom    6 type  2   force =     0.00000000    0.00000000   -0.00052058
     atom    7 type  1   force =     0.00000000    0.00000000    0.00050220
     atom    8 type  2   force =     0.00000000    0.00000000   -0.00051580
     The non-local contrib.  to forces
     atom    1 type  1   force =     0.00000000    0.00000000    0.06891875
     atom    2 type  2   force =    -0.00000000   -0.00000000    0.04913820
     atom    3 type  1   force =     0.00000000   -0.00000000    0.06890346
     atom    4 type  2   force =     0.00000000    0.00000000    0.04913291
     atom    5 type  1   force =     0.00000000   -0.00000000    0.06888533
     atom    6 type  2   force =    -0.00000000   -0.00000000    0.04914174
     atom    7 type  1   force =     0.00000000   -0.00000000    0.06888426
     atom    8 type  2   force =     0.00000000    0.00000000    0.04914721
     The ionic contribution  to forces
     atom    1 type  1   force =    -0.00000000    0.00000000    0.41110554
     atom    2 type  2   force =     0.00000000   -0.00000000   -0.41110554
     atom    3 type  1   force =     0.00000000   -0.00000000    0.41110554
     atom    4 type  2   force =    -0.00000000    0.00000000   -0.41110554
     atom    5 type  1   force =    -0.00000000    0.00000000    0.41110554
     atom    6 type  2   force =     0.00000000   -0.00000000   -0.41110554
     atom    7 type  1   force =     0.00000000   -0.00000000    0.41110554
     atom    8 type  2   force =    -0.00000000    0.00000000   -0.41110554
     The local contribution  to forces
     atom    1 type  1   force =     0.00000000   -0.00000000   -0.47493175
     atom    2 type  2   force =     0.00000001   -0.00000001    0.36180456
     atom    3 type  1   force =     0.00000004   -0.00000003   -0.47490779
     atom    4 type  2   force =    -0.00000000    0.00000000    0.36181107
     atom    5 type  1   force =     0.00000000   -0.00000000   -0.47489395
     atom    6 type  2   force =     0.00000001   -0.00000001    0.36182651
     atom    7 type  1   force =     0.00000004   -0.00000003   -0.47486470
     atom    8 type  2   force =    -0.00000000   -0.00000000    0.36183333
     The core correction contribution to forces
     atom    1 type  1   force =    -0.00000000    0.00000000   -0.00458018
     atom    2 type  2   force =    -0.00000000    0.00000000   -0.00037794
     atom    3 type  1   force =     0.00000001   -0.00000000   -0.00457731
     atom    4 type  2   force =    -0.00000000    0.00000000   -0.00037698
     atom    5 type  1   force =    -0.00000000    0.00000000   -0.00457593
     atom    6 type  2   force =    -0.00000000    0.00000000   -0.00037473
     atom    7 type  1   force =     0.00000001   -0.00000000   -0.00458009
     atom    8 type  2   force =    -0.00000000    0.00000000   -0.00037569
     The Hubbard contrib.    to forces
     atom    1 type  1   force =     0.00000000    0.00000000    0.00000000
     atom    2 type  2   force =     0.00000000    0.00000000    0.00000000
     atom    3 type  1   force =     0.00000000    0.00000000    0.00000000
     atom    4 type  2   force =     0.00000000    0.00000000    0.00000000
     atom    5 type  1   force =     0.00000000    0.00000000    0.00000000
     atom    6 type  2   force =     0.00000000    0.00000000    0.00000000
     atom    7 type  1   force =     0.00000000    0.00000000    0.00000000
     atom    8 type  2   force =     0.00000000    0.00000000    0.00000000
     The SCF correction term to forces
     atom    1 type  1   force =    -0.00000000    0.00000000    0.00002650
     atom    2 type  2   force =     0.00000000   -0.00000000    0.00001259
     atom    3 type  1   force =     0.00000000   -0.00000000    0.00000838
     atom    4 type  2   force =    -0.00000000    0.00000000    0.00001004
     atom    5 type  1   force =    -0.00000000    0.00000000   -0.00000239
     atom    6 type  2   force =     0.00000000   -0.00000000   -0.00000877
     atom    7 type  1   force =     0.00000000   -0.00000000   -0.00004303
     atom    8 type  2   force =    -0.00000000    0.00000000   -0.00001533

     Total force =     0.001480     Total SCF correction =     0.000057

     General routines

     Parallel routines

   This run was terminated on:  14:25:53  13Jul2025

   JOB DONE.
Note: The following floating-point exceptions are signalling: IEEE_INVALID_FLAG
Note: The following floating-point exceptions are signalling: IEEE_INVALID_FLAG