     Program PWSCF v.7.2 starts on 13Jul2025 at 12:28: 5

     Reading input from /home/jvc/QEspresso7.2/ZnO_database/scripts/cell112.in/ZnO-3.14-1.65-112.in
Warning: card &CELL ignored
Warning: card / ignored
Warning: card &FCP ignored
Warning: card / ignored
Warning: card &RISM ignored
Warning: card / ignored

     Current dimensions of program PWSCF are:
     Max number of different atomic species (ntypx) = 10
     Max number of k-points (npk) =  40000
     Max angular momentum in pseudopotentials (lmaxx) =  4
     file Zn.upf: wavefunction(s)  3D renormalized
     Found identity + (  0.0000  0.0000 -0.5000) symmetry
     This is a supercell, fractional translations are disabled
     Message from routine setup:
     using ibrav=0 with symmetry is DISCOURAGED, use correct ibrav instead

     K-points division:     npool     =       2
     R & G space division:  proc/nbgrp/npool/nimage =       4
     Subspace diagonalization in iterative solution of the eigenvalue problem:
     a serial algorithm will be used

     Using Slab Decomposition

     bravais-lattice index     =            0
     lattice parameter (alat)  =       5.9317  a.u.
     unit-cell volume          =     595.2484 (a.u.)^3
     number of atoms/cell      =            8
     number of atomic types    =            2
     number of electrons       =        72.00
     number of Kohn-Sham states=           36
     kinetic-energy cutoff     =      50.0000  Ry
     charge density cutoff     =     400.0000  Ry
     scf convergence threshold =      1.0E-08
     mixing beta               =       0.3000
     number of iterations used =            8  plain     mixing
     Exchange-correlation= PBE
                           (   1   4   3   4   0   0   0)

     celldm(1)=   5.931700  celldm(2)=   0.000000  celldm(3)=   0.000000
     celldm(4)=   0.000000  celldm(5)=   0.000000  celldm(6)=   0.000000

     crystal axes: (cart. coord. in units of alat)
               a(1) = (   1.000000   0.000000   0.000000 )
               a(2) = (  -0.500000   0.866025   0.000000 )
               a(3) = (   0.000000   0.000000   3.293291 )

     reciprocal axes: (cart. coord. in units 2 pi/alat)
               b(1) = (  1.000000  0.577350 -0.000000 )
               b(2) = (  0.000000  1.154701  0.000000 )
               b(3) = (  0.000000 -0.000000  0.303648 )

     PseudoPot. # 1 for Zn read from file:
     /home/jvc/QEspresso7.2/ZnO_database/pseudos/Zn.upf
     MD5 check sum: 7f56cabf9682ed8c977c2f7d0c5985c5
     Pseudo is Ultrasoft + core correction, Zval = 12.0
     Generated using &quot;atomic&quot; code by A. Dal Corso  v.6.2.2
     Using radial grid of 1201 points,  6 beta functions with:
                l(1) =   0
                l(2) =   0
                l(3) =   1
                l(4) =   1
                l(5) =   2
                l(6) =   2
     Q(r) pseudized with 0 coefficients

     PseudoPot. # 2 for O  read from file:
     /home/jvc/QEspresso7.2/ZnO_database/pseudos/O.upf
     MD5 check sum: 91400c9766925bcf19f520983a725ff0
     Pseudo is Ultrasoft + core correction, Zval =  6.0
     Generated using &quot;atomic&quot; code by A. Dal Corso  v.6.3MaX
     Using radial grid of 1095 points,  4 beta functions with:
                l(1) =   0
                l(2) =   0
                l(3) =   1
                l(4) =   1
     Q(r) pseudized with 0 coefficients

     atomic species   valence    mass     pseudopotential
        Zn            12.00    65.38000     Zn( 1.00)
        O              6.00    15.99900     O ( 1.00)

      6 Sym. Ops. (no inversion) found

                                    s                        frac. trans.

      isym =  1     identity

 cryst.   s( 1) = (     1          0          0      )
                  (     0          1          0      )
                  (     0          0          1      )

 cart.    s( 1) = (  1.0000000  0.0000000  0.0000000 )
                  (  0.0000000  1.0000000  0.0000000 )
                  (  0.0000000  0.0000000  1.0000000 )

      isym =  2     120 deg rotation - cryst. axis [0,0,1]

[...]

      isym =  3     120 deg rotation - cryst. axis [0,0,-1]

[...]

      isym =  4     inv. 180 deg rotation - cart. axis [1,0,0]

[...]

      isym =  5     inv. 180 deg rotation - cryst. axis [0,1,0]

[...]

      isym =  6     inv. 180 deg rotation - cryst. axis [1,1,0]

 cryst.   s( 6) = (     0         -1          0      )
                  (    -1          0          0      )
                  (     0          0          1      )

 cart.    s( 6) = (  0.5000000 -0.8660254  0.0000000 )
                  ( -0.8660254 -0.5000000  0.0000000 )
                  (  0.0000000  0.0000000  1.0000000 )

   Cartesian axes

     site n.     atom                  positions (alat units)
         1           Zn  tau(   1) = (   0.0000000   0.0000000   0.0000000  )
         2           O   tau(   2) = (  -0.0000000   0.5773503   0.2092296  )
         3           Zn  tau(   3) = (  -0.0000000   0.5773503   0.8233228  )
         4           O   tau(   4) = (   0.0000000   0.0000000   1.0325524  )
         5           Zn  tau(   5) = (   0.0000000   0.0000000   1.6466455  )
         6           O   tau(   6) = (  -0.0000000   0.5773503   1.8558752  )
         7           Zn  tau(   7) = (  -0.0000000   0.5773503   2.4699683  )
         8           O   tau(   8) = (   0.0000000   0.0000000   2.6791979  )

   Crystallographic axes

     site n.     atom                  positions (cryst. coord.)
         1           Zn  tau(   1) = (  0.0000000  0.0000000  0.0000000  )
         2           O   tau(   2) = (  0.3333333  0.6666667  0.0635321  )
         3           Zn  tau(   3) = (  0.3333333  0.6666667  0.2500000  )
         4           O   tau(   4) = (  0.0000000  0.0000000  0.3135321  )
         5           Zn  tau(   5) = (  0.0000000  0.0000000  0.5000000  )
         6           O   tau(   6) = (  0.3333333  0.6666667  0.5635321  )
         7           Zn  tau(   7) = (  0.3333333  0.6666667  0.7500000  )
         8           O   tau(   8) = (  0.0000000  0.0000000  0.8135321  )

     number of k points=    34
                       cart. coord. in units 2pi/alat
        k(    1) = (   0.0000000   0.0000000   0.0000000), wk =   0.0092593
        k(    2) = (   0.0000000   0.0000000   0.0506079), wk =   0.0185185
        k(    3) = (   0.0000000   0.0000000   0.1012159), wk =   0.0185185
        k(    4) = (   0.0000000   0.0000000  -0.1518238), wk =   0.0092593
        k(    5) = (   0.0000000   0.1924501   0.0000000), wk =   0.0555556
        k(    6) = (   0.0000000   0.1924501   0.0506079), wk =   0.0555556
        k(    7) = (   0.0000000   0.1924501   0.1012159), wk =   0.0555556
        k(    8) = (   0.0000000   0.1924501  -0.1518238), wk =   0.0555556
        k(    9) = (   0.0000000   0.3849002   0.0000000), wk =   0.0555556
        k(   10) = (   0.0000000   0.3849002   0.0506079), wk =   0.0555556
        k(   11) = (   0.0000000   0.3849002   0.1012159), wk =   0.0555556
        k(   12) = (   0.0000000   0.3849002  -0.1518238), wk =   0.0555556
        k(   13) = (   0.0000000  -0.5773503   0.0000000), wk =   0.0277778
        k(   14) = (   0.0000000  -0.5773503   0.0506079), wk =   0.0555556
        k(   15) = (   0.0000000  -0.5773503   0.1012159), wk =   0.0555556
        k(   16) = (   0.0000000  -0.5773503  -0.1518238), wk =   0.0277778
        k(   17) = (   0.1666667   0.2886751   0.0000000), wk =   0.0555556
        k(   18) = (   0.1666667   0.2886751   0.0506079), wk =   0.1111111
        k(   19) = (   0.1666667   0.2886751   0.1012159), wk =   0.1111111
        k(   20) = (   0.1666667   0.2886751  -0.1518238), wk =   0.0555556
        k(   21) = (   0.1666667   0.4811252   0.0000000), wk =   0.1111111
        k(   22) = (   0.1666667   0.4811252   0.0506079), wk =   0.1111111
        k(   23) = (   0.1666667   0.4811252   0.1012159), wk =   0.1111111
        k(   24) = (   0.1666667   0.4811252  -0.1518238), wk =   0.1111111
        k(   25) = (   0.3333333   0.5773503   0.0000000), wk =   0.0185185
        k(   26) = (   0.3333333   0.5773503   0.0506079), wk =   0.0370370
        k(   27) = (   0.3333333   0.5773503   0.1012159), wk =   0.0370370
        k(   28) = (   0.3333333   0.5773503  -0.1518238), wk =   0.0185185
        k(   29) = (   0.0000000  -0.1924501   0.0506079), wk =   0.0555556
        k(   30) = (   0.0000000  -0.1924501   0.1012159), wk =   0.0555556
        k(   31) = (   0.0000000  -0.3849002   0.0506079), wk =   0.0555556
        k(   32) = (   0.0000000  -0.3849002   0.1012159), wk =   0.0555556
        k(   33) = (  -0.1666667  -0.4811252   0.0506079), wk =   0.1111111
        k(   34) = (  -0.1666667  -0.4811252   0.1012159), wk =   0.1111111

                       cryst. coord.
        k(    1) = (   0.0000000   0.0000000   0.0000000), wk =   0.0092593
        k(    2) = (   0.0000000   0.0000000   0.1666667), wk =   0.0185185
        k(    3) = (   0.0000000   0.0000000   0.3333333), wk =   0.0185185
        k(    4) = (   0.0000000   0.0000000  -0.5000000), wk =   0.0092593
        k(    5) = (   0.0000000   0.1666667   0.0000000), wk =   0.0555556
        k(    6) = (   0.0000000   0.1666667   0.1666667), wk =   0.0555556
        k(    7) = (   0.0000000   0.1666667   0.3333333), wk =   0.0555556
        k(    8) = (   0.0000000   0.1666667  -0.5000000), wk =   0.0555556
        k(    9) = (   0.0000000   0.3333333   0.0000000), wk =   0.0555556
        k(   10) = (   0.0000000   0.3333333   0.1666667), wk =   0.0555556
        k(   11) = (   0.0000000   0.3333333   0.3333333), wk =   0.0555556
        k(   12) = (   0.0000000   0.3333333  -0.5000000), wk =   0.0555556
        k(   13) = (   0.0000000  -0.5000000   0.0000000), wk =   0.0277778
        k(   14) = (   0.0000000  -0.5000000   0.1666667), wk =   0.0555556
        k(   15) = (   0.0000000  -0.5000000   0.3333333), wk =   0.0555556
        k(   16) = (   0.0000000  -0.5000000  -0.5000000), wk =   0.0277778
        k(   17) = (   0.1666667   0.1666667   0.0000000), wk =   0.0555556
        k(   18) = (   0.1666667   0.1666667   0.1666667), wk =   0.1111111
        k(   19) = (   0.1666667   0.1666667   0.3333333), wk =   0.1111111
        k(   20) = (   0.1666667   0.1666667  -0.5000000), wk =   0.0555556
        k(   21) = (   0.1666667   0.3333333   0.0000000), wk =   0.1111111
        k(   22) = (   0.1666667   0.3333333   0.1666667), wk =   0.1111111
        k(   23) = (   0.1666667   0.3333333   0.3333333), wk =   0.1111111
        k(   24) = (   0.1666667   0.3333333  -0.5000000), wk =   0.1111111
        k(   25) = (   0.3333333   0.3333333   0.0000000), wk =   0.0185185
        k(   26) = (   0.3333333   0.3333333   0.1666667), wk =   0.0370370
        k(   27) = (   0.3333333   0.3333333   0.3333333), wk =   0.0370370
        k(   28) = (   0.3333333   0.3333333  -0.5000000), wk =   0.0185185
        k(   29) = (   0.0000000  -0.1666667   0.1666667), wk =   0.0555556
        k(   30) = (   0.0000000  -0.1666667   0.3333333), wk =   0.0555556
        k(   31) = (   0.0000000  -0.3333333   0.1666667), wk =   0.0555556
        k(   32) = (   0.0000000  -0.3333333   0.3333333), wk =   0.0555556
        k(   33) = (  -0.1666667  -0.3333333   0.1666667), wk =   0.1111111
        k(   34) = (  -0.1666667  -0.3333333   0.3333333), wk =   0.1111111

     Check: negative core charge=   -0.000002

     Initial potential from superposition of free atoms

     starting charge      71.9851, renormalised to      72.0000
     Starting wfcs are   52 randomized atomic wfcs

     Self-consistent Calculation

     iteration #  1     ecut=    50.00 Ry     beta= 0.30
     Davidson diagonalization with overlap

     ethr =  1.00E-02,  avg # of iterations =  2.0

     total energy              =    -722.94197777 Ry
     estimated scf accuracy    <       1.34290423 Ry

[...]

     total energy              =    -723.23307093 Ry
     estimated scf accuracy    <       0.00000006 Ry

     iteration # 25     ecut=    50.00 Ry     beta= 0.30
     Davidson diagonalization with overlap

     ethr =  3.39E-11,  avg # of iterations =  4.9

     End of self-consistent calculation

          k = 0.0000 0.0000 0.0000 (  3559 PWs)   bands (ev):

   -10.2645  -9.8712  -9.8712  -9.4497   2.0174   2.0174   2.1211   2.3499
     2.3996   2.3996   2.4919   2.4919   2.4920   2.4920   2.6377   2.6377
     3.8110   3.8110   3.9531   3.9531   3.9531   3.9531   4.0516   4.0516
     4.3287   6.1280   6.1281   7.6018   7.6018   8.0503   8.0503   8.0504
     8.0504   8.3751   8.4923   8.4923

     occupation numbers
     1.0000   1.0000   1.0000   1.0000   1.0000   1.0000   1.0000   1.0000
     1.0000   1.0000   1.0000   1.0000   1.0000   1.0000   1.0000   1.0000
     1.0000   1.0000   1.0000   1.0000   1.0000   1.0000   1.0000   1.0000
     1.0000   1.0000   1.0000   1.0000   1.0000   1.0000   1.0000   1.0000
     1.0000   1.0000   1.0000   1.0000

[...]

          k = 0.0000-0.3849 0.1012 (  3539 PWs)   bands (ev):

[...]

          k =-0.1667-0.4811 0.0506 (  3557 PWs)   bands (ev):

[...]

          k =-0.1667-0.4811 0.1012 (  3552 PWs)   bands (ev):

    -9.4413  -9.3887  -9.2568  -9.2133   2.0020   2.0906   2.0999   2.2958
     2.6231   2.6414   2.7944   2.8435   3.0428   3.0930   3.0961   3.2217
     3.7743   3.8674   3.9334   3.9794   4.1256   4.1370   4.2774   4.3530
     4.4431   4.6256   5.0301   5.1186   5.4971   5.8632   5.9019   6.3579
     6.8156   7.0236   7.2110   7.2390

     occupation numbers
     1.0000   1.0000   1.0000   1.0000   1.0000   1.0000   1.0000   1.0000
     1.0000   1.0000   1.0000   1.0000   1.0000   1.0000   1.0000   1.0000
     1.0000   1.0000   1.0000   1.0000   1.0000   1.0000   1.0000   1.0000
     1.0000   1.0000   1.0000   1.0000   1.0000   1.0000   1.0000   1.0000
     1.0000   1.0000   1.0000   1.0000

     highest occupied level (ev):     8.4923

!    total energy              =    -723.23307093 Ry
     estimated scf accuracy    <          4.7E-09 Ry

     The total energy is the sum of the following terms:
     one-electron contribution =    -284.91975626 Ry
     hartree contribution      =     228.06312339 Ry
     xc contribution           =    -219.53278785 Ry
     ewald contribution        =    -446.84365021 Ry

     convergence has been achieved in  25 iterations

     Forces acting on atoms (cartesian axes, Ry/au):

     atom    1 type  1   force =     0.00000000    0.00000000    0.00003041
     atom    2 type  2   force =     0.00000000    0.00000000   -0.00007604
     atom    3 type  1   force =     0.00000000    0.00000000    0.00003954
     atom    4 type  2   force =     0.00000000    0.00000000   -0.00007204
     atom    5 type  1   force =     0.00000000    0.00000000    0.00009663
     atom    6 type  2   force =     0.00000000    0.00000000   -0.00006112
     atom    7 type  1   force =     0.00000000   -0.00000000    0.00010659
     atom    8 type  2   force =     0.00000000    0.00000000   -0.00006396
     The non-local contrib.  to forces
     atom    1 type  1   force =     0.00000000    0.00000000   -0.01867135
     atom    2 type  2   force =     0.00000000   -0.00000000   -0.02258923
     atom    3 type  1   force =     0.00000000    0.00000000   -0.01866917
     atom    4 type  2   force =     0.00000000    0.00000000   -0.02258637
     atom    5 type  1   force =    -0.00000000    0.00000000   -0.01862985
     atom    6 type  2   force =     0.00000000    0.00000000   -0.02259980
     atom    7 type  1   force =     0.00000000    0.00000000   -0.01862794
     atom    8 type  2   force =     0.00000000    0.00000000   -0.02259910
     The ionic contribution  to forces
     atom    1 type  1   force =    -0.00000000    0.00000000   -0.26371417
     atom    2 type  2   force =     0.00000000   -0.00000000    0.26371417
     atom    3 type  1   force =     0.00000000   -0.00000000   -0.26371417
     atom    4 type  2   force =    -0.00000000    0.00000000    0.26371417
     atom    5 type  1   force =    -0.00000000    0.00000000   -0.26371417
     atom    6 type  2   force =     0.00000000   -0.00000000    0.26371417
     atom    7 type  1   force =     0.00000000   -0.00000000   -0.26371417
     atom    8 type  2   force =    -0.00000000    0.00000000    0.26371417
     The local contribution  to forces
     atom    1 type  1   force =    -0.00000000   -0.00000000    0.28159908
     atom    2 type  2   force =     0.00000001   -0.00000001   -0.24133955
     atom    3 type  1   force =     0.00000004   -0.00000002    0.28157303
     atom    4 type  2   force =    -0.00000000   -0.00000000   -0.24134765
     atom    5 type  1   force =    -0.00000000    0.00000000    0.28150683
     atom    6 type  2   force =     0.00000001   -0.00000001   -0.24141117
     atom    7 type  1   force =     0.00000004   -0.00000002    0.28149807
     atom    8 type  2   force =    -0.00000000    0.00000000   -0.24140649
     The core correction contribution to forces
     atom    1 type  1   force =    -0.00000000   -0.00000000    0.00089359
     atom    2 type  2   force =    -0.00000000    0.00000000    0.00018737
     atom    3 type  1   force =     0.00000001   -0.00000000    0.00089743
     atom    4 type  2   force =     0.00000000   -0.00000000    0.00018460
     atom    5 type  1   force =    -0.00000000    0.00000000    0.00089422
     atom    6 type  2   force =    -0.00000000    0.00000000    0.00018397
     atom    7 type  1   force =     0.00000001   -0.00000000    0.00089161
     atom    8 type  2   force =     0.00000000   -0.00000000    0.00018671
     The Hubbard contrib.    to forces
     atom    1 type  1   force =     0.00000000    0.00000000    0.00000000
     atom    2 type  2   force =     0.00000000    0.00000000    0.00000000
     atom    3 type  1   force =     0.00000000    0.00000000    0.00000000
     atom    4 type  2   force =     0.00000000    0.00000000    0.00000000
     atom    5 type  1   force =     0.00000000    0.00000000    0.00000000
     atom    6 type  2   force =     0.00000000    0.00000000    0.00000000
     atom    7 type  1   force =     0.00000000    0.00000000    0.00000000
     atom    8 type  2   force =     0.00000000    0.00000000    0.00000000
     The SCF correction term to forces
     atom    1 type  1   force =    -0.00000000    0.00000000   -0.00007924
     atom    2 type  2   force =    -0.00000000    0.00000000   -0.00005130
     atom    3 type  1   force =     0.00000000   -0.00000000   -0.00005009
     atom    4 type  2   force =    -0.00000000    0.00000000   -0.00003929
     atom    5 type  1   force =    -0.00000000    0.00000000    0.00003709
     atom    6 type  2   force =    -0.00000000    0.00000000    0.00004922
     atom    7 type  1   force =     0.00000000   -0.00000000    0.00005652
     atom    8 type  2   force =    -0.00000000    0.00000000    0.00003825

     Total force =     0.000205     Total SCF correction =     0.000146
     SCF correction compared to forces is large: reduce conv_thr to get better values

     General routines

     Parallel routines

   This run was terminated on:  12:30:37  13Jul2025

   JOB DONE.
Note: The following floating-point exceptions are signalling: IEEE_INVALID_FLAG
Note: The following floating-point exceptions are signalling: IEEE_INVALID_FLAG