     Program PWSCF v.7.2 starts on 13Jul2025 at 15:57:54

     Reading input from /home/jvc/QEspresso7.2/ZnO_database/scripts/cell112.in/ZnO-3.47-1.55-112.in
Warning: card &CELL ignored
Warning: card / ignored
Warning: card &FCP ignored
Warning: card / ignored
Warning: card &RISM ignored
Warning: card / ignored

     Current dimensions of program PWSCF are:
     Max number of different atomic species (ntypx) = 10
     Max number of k-points (npk) =  40000
     Max angular momentum in pseudopotentials (lmaxx) =  4
     file Zn.upf: wavefunction(s)  3D renormalized
     Found identity + (  0.0000  0.0000  0.5000) symmetry
     This is a supercell, fractional translations are disabled
     Message from routine setup:
     using ibrav=0 with symmetry is DISCOURAGED, use correct ibrav instead

     K-points division:     npool     =       2
     R & G space division:  proc/nbgrp/npool/nimage =       4
     Subspace diagonalization in iterative solution of the eigenvalue problem:
     a serial algorithm will be used

     Using Slab Decomposition

     bravais-lattice index     =            0
     lattice parameter (alat)  =       6.5496  a.u.
     unit-cell volume          =     754.1768 (a.u.)^3
     number of atoms/cell      =            8
     number of atomic types    =            2
     number of electrons       =        72.00
     number of Kohn-Sham states=           36
     kinetic-energy cutoff     =      50.0000  Ry
     charge density cutoff     =     400.0000  Ry
     scf convergence threshold =      1.0E-08
     mixing beta               =       0.3000
     number of iterations used =            8  plain     mixing
     Exchange-correlation= PBE
                           (   1   4   3   4   0   0   0)

     celldm(1)=   6.549585  celldm(2)=   0.000000  celldm(3)=   0.000000
     celldm(4)=   0.000000  celldm(5)=   0.000000  celldm(6)=   0.000000

     crystal axes: (cart. coord. in units of alat)
               a(1) = (   1.000000   0.000000   0.000000 )
               a(2) = (  -0.500000   0.866025   0.000000 )
               a(3) = (   0.000000   0.000000   3.099568 )

     reciprocal axes: (cart. coord. in units 2 pi/alat)
               b(1) = (  1.000000  0.577350 -0.000000 )
               b(2) = (  0.000000  1.154701  0.000000 )
               b(3) = (  0.000000 -0.000000  0.322626 )

     PseudoPot. # 1 for Zn read from file:
     /home/jvc/QEspresso7.2/ZnO_database/pseudos/Zn.upf
     MD5 check sum: 7f56cabf9682ed8c977c2f7d0c5985c5
     Pseudo is Ultrasoft + core correction, Zval = 12.0
     Generated using &quot;atomic&quot; code by A. Dal Corso  v.6.2.2
     Using radial grid of 1201 points,  6 beta functions with:
                l(1) =   0
                l(2) =   0
                l(3) =   1
                l(4) =   1
                l(5) =   2
                l(6) =   2
     Q(r) pseudized with 0 coefficients

     PseudoPot. # 2 for O  read from file:
     /home/jvc/QEspresso7.2/ZnO_database/pseudos/O.upf
     MD5 check sum: 91400c9766925bcf19f520983a725ff0
     Pseudo is Ultrasoft + core correction, Zval =  6.0
     Generated using &quot;atomic&quot; code by A. Dal Corso  v.6.3MaX
     Using radial grid of 1095 points,  4 beta functions with:
                l(1) =   0
                l(2) =   0
                l(3) =   1
                l(4) =   1
     Q(r) pseudized with 0 coefficients

     atomic species   valence    mass     pseudopotential
        Zn            12.00    65.38000     Zn( 1.00)
        O              6.00    15.99900     O ( 1.00)

      6 Sym. Ops. (no inversion) found

                                    s                        frac. trans.

      isym =  1     identity

 cryst.   s( 1) = (     1          0          0      )
                  (     0          1          0      )
                  (     0          0          1      )

 cart.    s( 1) = (  1.0000000  0.0000000  0.0000000 )
                  (  0.0000000  1.0000000  0.0000000 )
                  (  0.0000000  0.0000000  1.0000000 )

      isym =  2     120 deg rotation - cryst. axis [0,0,1]

[...]

      isym =  3     120 deg rotation - cryst. axis [0,0,-1]

[...]

      isym =  4     inv. 180 deg rotation - cart. axis [1,0,0]

[...]

      isym =  5     inv. 180 deg rotation - cryst. axis [0,1,0]

[...]

      isym =  6     inv. 180 deg rotation - cryst. axis [1,1,0]

 cryst.   s( 6) = (     0         -1          0      )
                  (    -1          0          0      )
                  (     0          0          1      )

 cart.    s( 6) = (  0.5000000 -0.8660254  0.0000000 )
                  ( -0.8660254 -0.5000000  0.0000000 )
                  (  0.0000000  0.0000000  1.0000000 )

   Cartesian axes

     site n.     atom                  positions (alat units)
         1           Zn  tau(   1) = (   0.0000000   0.0000000   0.0000000  )
         2           O   tau(   2) = (  -0.0000000   0.5773503   0.1723623  )
         3           Zn  tau(   3) = (  -0.0000000   0.5773503   0.7748920  )
         4           O   tau(   4) = (   0.0000000   0.0000000   0.9472543  )
         5           Zn  tau(   5) = (   0.0000000   0.0000000   1.5497840  )
         6           O   tau(   6) = (  -0.0000000   0.5773503   1.7221463  )
         7           Zn  tau(   7) = (  -0.0000000   0.5773503   2.3246760  )
         8           O   tau(   8) = (   0.0000000   0.0000000   2.4970383  )

   Crystallographic axes

     site n.     atom                  positions (cryst. coord.)
         1           Zn  tau(   1) = (  0.0000000  0.0000000  0.0000000  )
         2           O   tau(   2) = (  0.3333333  0.6666667  0.0556085  )
         3           Zn  tau(   3) = (  0.3333333  0.6666667  0.2500000  )
         4           O   tau(   4) = (  0.0000000  0.0000000  0.3056085  )
         5           Zn  tau(   5) = (  0.0000000  0.0000000  0.5000000  )
         6           O   tau(   6) = (  0.3333333  0.6666667  0.5556085  )
         7           Zn  tau(   7) = (  0.3333333  0.6666667  0.7500000  )
         8           O   tau(   8) = (  0.0000000  0.0000000  0.8056085  )

     number of k points=    34
                       cart. coord. in units 2pi/alat
        k(    1) = (   0.0000000   0.0000000   0.0000000), wk =   0.0092593
        k(    2) = (   0.0000000   0.0000000   0.0537709), wk =   0.0185185
        k(    3) = (   0.0000000   0.0000000   0.1075419), wk =   0.0185185
        k(    4) = (   0.0000000   0.0000000  -0.1613128), wk =   0.0092593
        k(    5) = (   0.0000000   0.1924501   0.0000000), wk =   0.0555556
        k(    6) = (   0.0000000   0.1924501   0.0537709), wk =   0.0555556
        k(    7) = (   0.0000000   0.1924501   0.1075419), wk =   0.0555556
        k(    8) = (   0.0000000   0.1924501  -0.1613128), wk =   0.0555556
        k(    9) = (   0.0000000   0.3849002   0.0000000), wk =   0.0555556
        k(   10) = (   0.0000000   0.3849002   0.0537709), wk =   0.0555556
        k(   11) = (   0.0000000   0.3849002   0.1075419), wk =   0.0555556
        k(   12) = (   0.0000000   0.3849002  -0.1613128), wk =   0.0555556
        k(   13) = (   0.0000000  -0.5773503   0.0000000), wk =   0.0277778
        k(   14) = (   0.0000000  -0.5773503   0.0537709), wk =   0.0555556
        k(   15) = (   0.0000000  -0.5773503   0.1075419), wk =   0.0555556
        k(   16) = (   0.0000000  -0.5773503  -0.1613128), wk =   0.0277778
        k(   17) = (   0.1666667   0.2886751   0.0000000), wk =   0.0555556
        k(   18) = (   0.1666667   0.2886751   0.0537709), wk =   0.1111111
        k(   19) = (   0.1666667   0.2886751   0.1075419), wk =   0.1111111
        k(   20) = (   0.1666667   0.2886751  -0.1613128), wk =   0.0555556
        k(   21) = (   0.1666667   0.4811252   0.0000000), wk =   0.1111111
        k(   22) = (   0.1666667   0.4811252   0.0537709), wk =   0.1111111
        k(   23) = (   0.1666667   0.4811252   0.1075419), wk =   0.1111111
        k(   24) = (   0.1666667   0.4811252  -0.1613128), wk =   0.1111111
        k(   25) = (   0.3333333   0.5773503   0.0000000), wk =   0.0185185
        k(   26) = (   0.3333333   0.5773503   0.0537709), wk =   0.0370370
        k(   27) = (   0.3333333   0.5773503   0.1075419), wk =   0.0370370
        k(   28) = (   0.3333333   0.5773503  -0.1613128), wk =   0.0185185
        k(   29) = (   0.0000000  -0.1924501   0.0537709), wk =   0.0555556
        k(   30) = (   0.0000000  -0.1924501   0.1075419), wk =   0.0555556
        k(   31) = (   0.0000000  -0.3849002   0.0537709), wk =   0.0555556
        k(   32) = (   0.0000000  -0.3849002   0.1075419), wk =   0.0555556
        k(   33) = (  -0.1666667  -0.4811252   0.0537709), wk =   0.1111111
        k(   34) = (  -0.1666667  -0.4811252   0.1075419), wk =   0.1111111

                       cryst. coord.
        k(    1) = (   0.0000000   0.0000000   0.0000000), wk =   0.0092593
        k(    2) = (   0.0000000   0.0000000   0.1666667), wk =   0.0185185
        k(    3) = (   0.0000000   0.0000000   0.3333333), wk =   0.0185185
        k(    4) = (   0.0000000   0.0000000  -0.5000000), wk =   0.0092593
        k(    5) = (   0.0000000   0.1666667   0.0000000), wk =   0.0555556
        k(    6) = (   0.0000000   0.1666667   0.1666667), wk =   0.0555556
        k(    7) = (   0.0000000   0.1666667   0.3333333), wk =   0.0555556
        k(    8) = (   0.0000000   0.1666667  -0.5000000), wk =   0.0555556
        k(    9) = (   0.0000000   0.3333333   0.0000000), wk =   0.0555556
        k(   10) = (   0.0000000   0.3333333   0.1666667), wk =   0.0555556
        k(   11) = (   0.0000000   0.3333333   0.3333333), wk =   0.0555556
        k(   12) = (   0.0000000   0.3333333  -0.5000000), wk =   0.0555556
        k(   13) = (   0.0000000  -0.5000000   0.0000000), wk =   0.0277778
        k(   14) = (   0.0000000  -0.5000000   0.1666667), wk =   0.0555556
        k(   15) = (   0.0000000  -0.5000000   0.3333333), wk =   0.0555556
        k(   16) = (   0.0000000  -0.5000000  -0.5000000), wk =   0.0277778
        k(   17) = (   0.1666667   0.1666667   0.0000000), wk =   0.0555556
        k(   18) = (   0.1666667   0.1666667   0.1666667), wk =   0.1111111
        k(   19) = (   0.1666667   0.1666667   0.3333333), wk =   0.1111111
        k(   20) = (   0.1666667   0.1666667  -0.5000000), wk =   0.0555556
        k(   21) = (   0.1666667   0.3333333   0.0000000), wk =   0.1111111
        k(   22) = (   0.1666667   0.3333333   0.1666667), wk =   0.1111111
        k(   23) = (   0.1666667   0.3333333   0.3333333), wk =   0.1111111
        k(   24) = (   0.1666667   0.3333333  -0.5000000), wk =   0.1111111
        k(   25) = (   0.3333333   0.3333333   0.0000000), wk =   0.0185185
        k(   26) = (   0.3333333   0.3333333   0.1666667), wk =   0.0370370
        k(   27) = (   0.3333333   0.3333333   0.3333333), wk =   0.0370370
        k(   28) = (   0.3333333   0.3333333  -0.5000000), wk =   0.0185185
        k(   29) = (   0.0000000  -0.1666667   0.1666667), wk =   0.0555556
        k(   30) = (   0.0000000  -0.1666667   0.3333333), wk =   0.0555556
        k(   31) = (   0.0000000  -0.3333333   0.1666667), wk =   0.0555556
        k(   32) = (   0.0000000  -0.3333333   0.3333333), wk =   0.0555556
        k(   33) = (  -0.1666667  -0.3333333   0.1666667), wk =   0.1111111
        k(   34) = (  -0.1666667  -0.3333333   0.3333333), wk =   0.1111111

     Check: negative core charge=   -0.000002

     Initial potential from superposition of free atoms

     starting charge      71.9851, renormalised to      72.0000
     Starting wfcs are   52 randomized atomic wfcs

     Self-consistent Calculation

     iteration #  1     ecut=    50.00 Ry     beta= 0.30
     Davidson diagonalization with overlap

     ethr =  1.00E-02,  avg # of iterations =  1.6

     total energy              =    -722.87258992 Ry
     estimated scf accuracy    <       1.50457145 Ry

[...]

     total energy              =    -723.22974631 Ry
     estimated scf accuracy    <       0.00000001 Ry

     iteration # 35     ecut=    50.00 Ry     beta= 0.30
     Davidson diagonalization with overlap

     ethr =  1.50E-11,  avg # of iterations =  6.3

     End of self-consistent calculation

          k = 0.0000 0.0000 0.0000 (  4491 PWs)   bands (ev):

   -11.8675 -11.5987 -11.5986 -11.3212  -0.0194  -0.0194  -0.0182  -0.0182
     0.0228   0.0228   0.0228   0.0228   0.0890   0.1103   0.1103   0.6333
     0.7383   0.7383   0.8377   0.8377   0.8377   0.8377   0.8977   0.8977
     1.1998   3.0157   3.0157   4.3999   4.3999   4.7296   4.7296   4.7296
     4.7296   5.0447   5.0455   5.0455

     occupation numbers
     1.0000   1.0000   1.0000   1.0000   1.0000   1.0000   1.0000   1.0000
     1.0000   1.0000   1.0000   1.0000   1.0000   1.0000   1.0000   1.0000
     1.0000   1.0000   1.0000   1.0000   1.0000   1.0000   1.0000   1.0000
     1.0000   1.0000   1.0000   1.0000   1.0000   1.0000   1.0000   1.0000
     1.0000   1.0000   1.0000   1.0000

[...]

          k = 0.0000-0.3849 0.1075 (  4501 PWs)   bands (ev):

[...]

          k =-0.1667-0.4811 0.0538 (  4493 PWs)   bands (ev):

[...]

          k =-0.1667-0.4811 0.1075 (  4502 PWs)   bands (ev):

   -11.3881 -11.3522 -11.2633 -11.2343  -0.0588  -0.0154   0.0416   0.1490
     0.2359   0.2632   0.3653   0.3802   0.4283   0.4577   0.5412   0.5448
     0.7600   0.8167   0.8331   0.8489   0.9346   0.9461   1.0324   1.0663
     1.6644   1.7203   1.9754   2.1002   2.7825   3.0450   3.2281   3.6641
     3.8077   3.9760   4.2286   4.3448

     occupation numbers
     1.0000   1.0000   1.0000   1.0000   1.0000   1.0000   1.0000   1.0000
     1.0000   1.0000   1.0000   1.0000   1.0000   1.0000   1.0000   1.0000
     1.0000   1.0000   1.0000   1.0000   1.0000   1.0000   1.0000   1.0000
     1.0000   1.0000   1.0000   1.0000   1.0000   1.0000   1.0000   1.0000
     1.0000   1.0000   1.0000   1.0000

     highest occupied level (ev):     5.0455

!    total energy              =    -723.22974632 Ry
     estimated scf accuracy    <          1.9E-09 Ry

     The total energy is the sum of the following terms:
     one-electron contribution =    -339.43490852 Ry
     hartree contribution      =     247.55463588 Ry
     xc contribution           =    -218.58148540 Ry
     ewald contribution        =    -412.76798828 Ry

     convergence has been achieved in  35 iterations

     Forces acting on atoms (cartesian axes, Ry/au):

     atom    1 type  1   force =     0.00000000    0.00000000   -0.00265545
     atom    2 type  2   force =     0.00000000    0.00000000    0.00265754
     atom    3 type  1   force =     0.00000000    0.00000000   -0.00266321
     atom    4 type  2   force =     0.00000000   -0.00000000    0.00265585
     atom    5 type  1   force =     0.00000000    0.00000000   -0.00265308
     atom    6 type  2   force =     0.00000000    0.00000000    0.00265819
     atom    7 type  1   force =     0.00000000    0.00000000   -0.00265867
     atom    8 type  2   force =     0.00000000    0.00000000    0.00265884
     The non-local contrib.  to forces
     atom    1 type  1   force =     0.00000000    0.00000000    0.06572565
     atom    2 type  2   force =     0.00000000    0.00000000    0.04951554
     atom    3 type  1   force =     0.00000000    0.00000000    0.06572788
     atom    4 type  2   force =     0.00000000    0.00000000    0.04951469
     atom    5 type  1   force =     0.00000000    0.00000000    0.06573236
     atom    6 type  2   force =    -0.00000000   -0.00000000    0.04951478
     atom    7 type  1   force =     0.00000000    0.00000000    0.06572623
     atom    8 type  2   force =     0.00000000   -0.00000000    0.04951717
     The ionic contribution  to forces
     atom    1 type  1   force =    -0.00000000    0.00000000    0.38066412
     atom    2 type  2   force =     0.00000000   -0.00000000   -0.38066412
     atom    3 type  1   force =     0.00000000   -0.00000000    0.38066412
     atom    4 type  2   force =    -0.00000000    0.00000000   -0.38066412
     atom    5 type  1   force =    -0.00000000    0.00000000    0.38066412
     atom    6 type  2   force =     0.00000000   -0.00000000   -0.38066412
     atom    7 type  1   force =     0.00000000   -0.00000000    0.38066412
     atom    8 type  2   force =    -0.00000000    0.00000000   -0.38066412
     The local contribution  to forces
     atom    1 type  1   force =    -0.00000000    0.00000000   -0.44518258
     atom    2 type  2   force =     0.00000001   -0.00000001    0.33421565
     atom    3 type  1   force =     0.00000005   -0.00000003   -0.44517515
     atom    4 type  2   force =    -0.00000000    0.00000000    0.33421909
     atom    5 type  1   force =    -0.00000000   -0.00000000   -0.44519325
     atom    6 type  2   force =     0.00000001   -0.00000001    0.33421072
     atom    7 type  1   force =     0.00000005   -0.00000003   -0.44518434
     atom    8 type  2   force =    -0.00000000    0.00000000    0.33420887
     The core correction contribution to forces
     atom    1 type  1   force =     0.00000000   -0.00000000   -0.00386455
     atom    2 type  2   force =    -0.00000000    0.00000000   -0.00040769
     atom    3 type  1   force =     0.00000001   -0.00000000   -0.00386749
     atom    4 type  2   force =     0.00000000   -0.00000000   -0.00040887
     atom    5 type  1   force =     0.00000000   -0.00000000   -0.00386912
     atom    6 type  2   force =    -0.00000000    0.00000000   -0.00040892
     atom    7 type  1   force =     0.00000001   -0.00000000   -0.00386639
     atom    8 type  2   force =     0.00000000   -0.00000000   -0.00040777
     The Hubbard contrib.    to forces
     atom    1 type  1   force =     0.00000000    0.00000000    0.00000000
     atom    2 type  2   force =     0.00000000    0.00000000    0.00000000
     atom    3 type  1   force =     0.00000000    0.00000000    0.00000000
     atom    4 type  2   force =     0.00000000    0.00000000    0.00000000
     atom    5 type  1   force =     0.00000000    0.00000000    0.00000000
     atom    6 type  2   force =     0.00000000    0.00000000    0.00000000
     atom    7 type  1   force =     0.00000000    0.00000000    0.00000000
     atom    8 type  2   force =     0.00000000    0.00000000    0.00000000
     The SCF correction term to forces
     atom    1 type  1   force =     0.00000000   -0.00000000    0.00000210
     atom    2 type  2   force =    -0.00000000    0.00000000   -0.00000165
     atom    3 type  1   force =    -0.00000000    0.00000000   -0.00001238
     atom    4 type  2   force =     0.00000000   -0.00000000   -0.00000475
     atom    5 type  1   force =     0.00000000   -0.00000000    0.00001301
     atom    6 type  2   force =    -0.00000000    0.00000000    0.00000592
     atom    7 type  1   force =    -0.00000000    0.00000000    0.00000190
     atom    8 type  2   force =     0.00000000   -0.00000000    0.00000488

     Total force =     0.007517     Total SCF correction =     0.000020

     General routines

     Parallel routines

   This run was terminated on:  16: 2:45  13Jul2025

   JOB DONE.
Note: The following floating-point exceptions are signalling: IEEE_INVALID_FLAG
Note: The following floating-point exceptions are signalling: IEEE_INVALID_FLAG