     Program PWSCF v.7.2 starts on 13Jul2025 at 10:55:37

     Reading input from /home/jvc/QEspresso7.2/ZnO_database/scripts/cell112.in/ZnO-2.94-1.52-112.in
Warning: card &CELL ignored
Warning: card / ignored
Warning: card &FCP ignored
Warning: card / ignored
Warning: card &RISM ignored
Warning: card / ignored

     Current dimensions of program PWSCF are:
     Max number of different atomic species (ntypx) = 10
     Max number of k-points (npk) =  40000
     Max angular momentum in pseudopotentials (lmaxx) =  4
     file Zn.upf: wavefunction(s)  3D renormalized
     Found identity + (  0.0000  0.0000 -0.5000) symmetry
     This is a supercell, fractional translations are disabled
     Message from routine setup:
     using ibrav=0 with symmetry is DISCOURAGED, use correct ibrav instead

     K-points division:     npool     =       2
     R & G space division:  proc/nbgrp/npool/nimage =       4
     Subspace diagonalization in iterative solution of the eigenvalue problem:
     a serial algorithm will be used

     Using Slab Decomposition

     bravais-lattice index     =            0
     lattice parameter (alat)  =       5.5610  a.u.
     unit-cell volume          =     452.0014 (a.u.)^3
     number of atoms/cell      =            8
     number of atomic types    =            2
     number of electrons       =        72.00
     number of Kohn-Sham states=           36
     kinetic-energy cutoff     =      50.0000  Ry
     charge density cutoff     =     400.0000  Ry
     scf convergence threshold =      1.0E-08
     mixing beta               =       0.3000
     number of iterations used =            8  plain     mixing
     Exchange-correlation= PBE
                           (   1   4   3   4   0   0   0)

     celldm(1)=   5.560969  celldm(2)=   0.000000  celldm(3)=   0.000000
     celldm(4)=   0.000000  celldm(5)=   0.000000  celldm(6)=   0.000000

     crystal axes: (cart. coord. in units of alat)
               a(1) = (   1.000000   0.000000   0.000000 )
               a(2) = (  -0.500000   0.866025   0.000000 )
               a(3) = (   0.000000   0.000000   3.034994 )

     reciprocal axes: (cart. coord. in units 2 pi/alat)
               b(1) = (  1.000000  0.577350 -0.000000 )
               b(2) = (  0.000000  1.154701  0.000000 )
               b(3) = (  0.000000 -0.000000  0.329490 )

     PseudoPot. # 1 for Zn read from file:
     /home/jvc/QEspresso7.2/ZnO_database/pseudos/Zn.upf
     MD5 check sum: 7f56cabf9682ed8c977c2f7d0c5985c5
     Pseudo is Ultrasoft + core correction, Zval = 12.0
     Generated using &quot;atomic&quot; code by A. Dal Corso  v.6.2.2
     Using radial grid of 1201 points,  6 beta functions with:
                l(1) =   0
                l(2) =   0
                l(3) =   1
                l(4) =   1
                l(5) =   2
                l(6) =   2
     Q(r) pseudized with 0 coefficients

     PseudoPot. # 2 for O  read from file:
     /home/jvc/QEspresso7.2/ZnO_database/pseudos/O.upf
     MD5 check sum: 91400c9766925bcf19f520983a725ff0
     Pseudo is Ultrasoft + core correction, Zval =  6.0
     Generated using &quot;atomic&quot; code by A. Dal Corso  v.6.3MaX
     Using radial grid of 1095 points,  4 beta functions with:
                l(1) =   0
                l(2) =   0
                l(3) =   1
                l(4) =   1
     Q(r) pseudized with 0 coefficients

     atomic species   valence    mass     pseudopotential
        Zn            12.00    65.38000     Zn( 1.00)
        O              6.00    15.99900     O ( 1.00)

      6 Sym. Ops. (no inversion) found

                                    s                        frac. trans.

      isym =  1     identity

 cryst.   s( 1) = (     1          0          0      )
                  (     0          1          0      )
                  (     0          0          1      )

 cart.    s( 1) = (  1.0000000  0.0000000  0.0000000 )
                  (  0.0000000  1.0000000  0.0000000 )
                  (  0.0000000  0.0000000  1.0000000 )

      isym =  2     120 deg rotation - cryst. axis [0,0,1]

[...]

      isym =  3     120 deg rotation - cryst. axis [0,0,-1]

[...]

      isym =  4     inv. 180 deg rotation - cart. axis [1,0,0]

[...]

      isym =  5     inv. 180 deg rotation - cryst. axis [0,1,0]

[...]

      isym =  6     inv. 180 deg rotation - cryst. axis [1,1,0]

 cryst.   s( 6) = (     0         -1          0      )
                  (    -1          0          0      )
                  (     0          0          1      )

 cart.    s( 6) = (  0.5000000 -0.8660254  0.0000000 )
                  ( -0.8660254 -0.5000000  0.0000000 )
                  (  0.0000000  0.0000000  1.0000000 )

   Cartesian axes

     site n.     atom                  positions (alat units)
         1           Zn  tau(   1) = (   0.0000000   0.0000000   0.0000000  )
         2           O   tau(   2) = (  -0.0000000   0.5773503   0.1597142  )
         3           Zn  tau(   3) = (  -0.0000000   0.5773503   0.7587484  )
         4           O   tau(   4) = (   0.0000000   0.0000000   0.9184627  )
         5           Zn  tau(   5) = (   0.0000000   0.0000000   1.5174969  )
         6           O   tau(   6) = (  -0.0000000   0.5773503   1.6772111  )
         7           Zn  tau(   7) = (  -0.0000000   0.5773503   2.2762453  )
         8           O   tau(   8) = (   0.0000000   0.0000000   2.4359595  )

   Crystallographic axes

     site n.     atom                  positions (cryst. coord.)
         1           Zn  tau(   1) = (  0.0000000  0.0000000  0.0000000  )
         2           O   tau(   2) = (  0.3333333  0.6666667  0.0526242  )
         3           Zn  tau(   3) = (  0.3333333  0.6666667  0.2500000  )
         4           O   tau(   4) = (  0.0000000  0.0000000  0.3026242  )
         5           Zn  tau(   5) = (  0.0000000  0.0000000  0.5000000  )
         6           O   tau(   6) = (  0.3333333  0.6666667  0.5526242  )
         7           Zn  tau(   7) = (  0.3333333  0.6666667  0.7500000  )
         8           O   tau(   8) = (  0.0000000  0.0000000  0.8026242  )

     number of k points=    34
                       cart. coord. in units 2pi/alat
        k(    1) = (   0.0000000   0.0000000   0.0000000), wk =   0.0092593
        k(    2) = (   0.0000000   0.0000000   0.0549150), wk =   0.0185185
        k(    3) = (   0.0000000   0.0000000   0.1098300), wk =   0.0185185
        k(    4) = (   0.0000000   0.0000000  -0.1647450), wk =   0.0092593
        k(    5) = (   0.0000000   0.1924501   0.0000000), wk =   0.0555556
        k(    6) = (   0.0000000   0.1924501   0.0549150), wk =   0.0555556
        k(    7) = (   0.0000000   0.1924501   0.1098300), wk =   0.0555556
        k(    8) = (   0.0000000   0.1924501  -0.1647450), wk =   0.0555556
        k(    9) = (   0.0000000   0.3849002   0.0000000), wk =   0.0555556
        k(   10) = (   0.0000000   0.3849002   0.0549150), wk =   0.0555556
        k(   11) = (   0.0000000   0.3849002   0.1098300), wk =   0.0555556
        k(   12) = (   0.0000000   0.3849002  -0.1647450), wk =   0.0555556
        k(   13) = (   0.0000000  -0.5773503   0.0000000), wk =   0.0277778
        k(   14) = (   0.0000000  -0.5773503   0.0549150), wk =   0.0555556
        k(   15) = (   0.0000000  -0.5773503   0.1098300), wk =   0.0555556
        k(   16) = (   0.0000000  -0.5773503  -0.1647450), wk =   0.0277778
        k(   17) = (   0.1666667   0.2886751   0.0000000), wk =   0.0555556
        k(   18) = (   0.1666667   0.2886751   0.0549150), wk =   0.1111111
        k(   19) = (   0.1666667   0.2886751   0.1098300), wk =   0.1111111
        k(   20) = (   0.1666667   0.2886751  -0.1647450), wk =   0.0555556
        k(   21) = (   0.1666667   0.4811252   0.0000000), wk =   0.1111111
        k(   22) = (   0.1666667   0.4811252   0.0549150), wk =   0.1111111
        k(   23) = (   0.1666667   0.4811252   0.1098300), wk =   0.1111111
        k(   24) = (   0.1666667   0.4811252  -0.1647450), wk =   0.1111111
        k(   25) = (   0.3333333   0.5773503   0.0000000), wk =   0.0185185
        k(   26) = (   0.3333333   0.5773503   0.0549150), wk =   0.0370370
        k(   27) = (   0.3333333   0.5773503   0.1098300), wk =   0.0370370
        k(   28) = (   0.3333333   0.5773503  -0.1647450), wk =   0.0185185
        k(   29) = (   0.0000000  -0.1924501   0.0549150), wk =   0.0555556
        k(   30) = (   0.0000000  -0.1924501   0.1098300), wk =   0.0555556
        k(   31) = (   0.0000000  -0.3849002   0.0549150), wk =   0.0555556
        k(   32) = (   0.0000000  -0.3849002   0.1098300), wk =   0.0555556
        k(   33) = (  -0.1666667  -0.4811252   0.0549150), wk =   0.1111111
        k(   34) = (  -0.1666667  -0.4811252   0.1098300), wk =   0.1111111

                       cryst. coord.
        k(    1) = (   0.0000000   0.0000000   0.0000000), wk =   0.0092593
        k(    2) = (   0.0000000   0.0000000   0.1666667), wk =   0.0185185
        k(    3) = (   0.0000000   0.0000000   0.3333333), wk =   0.0185185
        k(    4) = (   0.0000000   0.0000000  -0.5000000), wk =   0.0092593
        k(    5) = (   0.0000000   0.1666667   0.0000000), wk =   0.0555556
        k(    6) = (   0.0000000   0.1666667   0.1666667), wk =   0.0555556
        k(    7) = (   0.0000000   0.1666667   0.3333333), wk =   0.0555556
        k(    8) = (   0.0000000   0.1666667  -0.5000000), wk =   0.0555556
        k(    9) = (   0.0000000   0.3333333   0.0000000), wk =   0.0555556
        k(   10) = (   0.0000000   0.3333333   0.1666667), wk =   0.0555556
        k(   11) = (   0.0000000   0.3333333   0.3333333), wk =   0.0555556
        k(   12) = (   0.0000000   0.3333333  -0.5000000), wk =   0.0555556
        k(   13) = (   0.0000000  -0.5000000   0.0000000), wk =   0.0277778
        k(   14) = (   0.0000000  -0.5000000   0.1666667), wk =   0.0555556
        k(   15) = (   0.0000000  -0.5000000   0.3333333), wk =   0.0555556
        k(   16) = (   0.0000000  -0.5000000  -0.5000000), wk =   0.0277778
        k(   17) = (   0.1666667   0.1666667   0.0000000), wk =   0.0555556
        k(   18) = (   0.1666667   0.1666667   0.1666667), wk =   0.1111111
        k(   19) = (   0.1666667   0.1666667   0.3333333), wk =   0.1111111
        k(   20) = (   0.1666667   0.1666667  -0.5000000), wk =   0.0555556
        k(   21) = (   0.1666667   0.3333333   0.0000000), wk =   0.1111111
        k(   22) = (   0.1666667   0.3333333   0.1666667), wk =   0.1111111
        k(   23) = (   0.1666667   0.3333333   0.3333333), wk =   0.1111111
        k(   24) = (   0.1666667   0.3333333  -0.5000000), wk =   0.1111111
        k(   25) = (   0.3333333   0.3333333   0.0000000), wk =   0.0185185
        k(   26) = (   0.3333333   0.3333333   0.1666667), wk =   0.0370370
        k(   27) = (   0.3333333   0.3333333   0.3333333), wk =   0.0370370
        k(   28) = (   0.3333333   0.3333333  -0.5000000), wk =   0.0185185
        k(   29) = (   0.0000000  -0.1666667   0.1666667), wk =   0.0555556
        k(   30) = (   0.0000000  -0.1666667   0.3333333), wk =   0.0555556
        k(   31) = (   0.0000000  -0.3333333   0.1666667), wk =   0.0555556
        k(   32) = (   0.0000000  -0.3333333   0.3333333), wk =   0.0555556
        k(   33) = (  -0.1666667  -0.3333333   0.1666667), wk =   0.1111111
        k(   34) = (  -0.1666667  -0.3333333   0.3333333), wk =   0.1111111

     Initial potential from superposition of free atoms

     starting charge      71.9851, renormalised to      72.0000
     Starting wfcs are   52 randomized atomic wfcs

     Self-consistent Calculation

     iteration #  1     ecut=    50.00 Ry     beta= 0.30
     Davidson diagonalization with overlap

     ethr =  1.00E-02,  avg # of iterations =  2.3

     total energy              =    -722.42081297 Ry
     estimated scf accuracy    <       1.39262763 Ry

[...]

     total energy              =    -722.66822280 Ry
     estimated scf accuracy    <       0.00000005 Ry

     iteration # 27     ecut=    50.00 Ry     beta= 0.30
     Davidson diagonalization with overlap

     ethr =  4.76E-11,  avg # of iterations =  3.7

     End of self-consistent calculation

          k = 0.0000 0.0000 0.0000 (  2725 PWs)   bands (ev):

    -7.9378  -7.1863  -7.1862  -6.3738   4.9582   5.0831   5.0832   5.4820
     5.4820   5.5366   5.5366   5.5366   5.5366   5.7177   5.7177   5.9862
     7.9693   7.9693   8.3131   8.3131   8.3131   8.3131   8.5002   8.5002
     9.1220  11.3545  11.3546  12.4915  12.4915  13.1273  13.1273  13.1274
    13.1274  13.3099  13.7567  13.7567

     occupation numbers
     1.0000   1.0000   1.0000   1.0000   1.0000   1.0000   1.0000   1.0000
     1.0000   1.0000   1.0000   1.0000   1.0000   1.0000   1.0000   1.0000
     1.0000   1.0000   1.0000   1.0000   1.0000   1.0000   1.0000   1.0000
     1.0000   1.0000   1.0000   1.0000   1.0000   1.0000   1.0000   1.0000
     1.0000   1.0000   1.0000   1.0000

[...]

          k = 0.0000-0.3849 0.1098 (  2707 PWs)   bands (ev):

[...]

          k =-0.1667-0.4811 0.0549 (  2698 PWs)   bands (ev):

[...]

          k =-0.1667-0.4811 0.1098 (  2697 PWs)   bands (ev):

    -6.6117  -6.4949  -6.2325  -6.1614   4.6683   4.7507   4.8855   5.0827
     5.8909   5.8945   5.9672   6.0266   6.4362   6.5667   6.5775   6.7969
     7.9276   8.1382   8.2480   8.2949   8.5538   8.5566   8.6879   8.7648
     8.9373   9.1134   9.4222   9.5263   9.8991  10.1705  10.5310  11.0363
    11.4438  11.5722  12.1080  12.2891

     occupation numbers
     1.0000   1.0000   1.0000   1.0000   1.0000   1.0000   1.0000   1.0000
     1.0000   1.0000   1.0000   1.0000   1.0000   1.0000   1.0000   1.0000
     1.0000   1.0000   1.0000   1.0000   1.0000   1.0000   1.0000   1.0000
     1.0000   1.0000   1.0000   1.0000   1.0000   1.0000   1.0000   1.0000
     1.0000   1.0000   1.0000   1.0000

     highest occupied level (ev):    13.7567

!    total energy              =    -722.66822280 Ry
     estimated scf accuracy    <          4.5E-09 Ry

     The total energy is the sum of the following terms:
     one-electron contribution =    -217.92218073 Ry
     hartree contribution      =     205.88151418 Ry
     xc contribution           =    -221.04175959 Ry
     ewald contribution        =    -489.58579666 Ry

     convergence has been achieved in  27 iterations

     Forces acting on atoms (cartesian axes, Ry/au):

     atom    1 type  1   force =     0.00000000    0.00000000    0.02927739
     atom    2 type  2   force =     0.00000000    0.00000000   -0.02927208
     atom    3 type  1   force =     0.00000000    0.00000000    0.02927594
     atom    4 type  2   force =     0.00000000    0.00000000   -0.02927015
     atom    5 type  1   force =     0.00000000   -0.00000000    0.02925851
     atom    6 type  2   force =     0.00000000   -0.00000000   -0.02928157
     atom    7 type  1   force =     0.00000000   -0.00000000    0.02928488
     atom    8 type  2   force =     0.00000000    0.00000000   -0.02927291
     The non-local contrib.  to forces
     atom    1 type  1   force =     0.00000000    0.00000000    0.11665847
     atom    2 type  2   force =     0.00000000    0.00000000    0.07485623
     atom    3 type  1   force =     0.00000000    0.00000000    0.11664747
     atom    4 type  2   force =     0.00000000    0.00000000    0.07485847
     atom    5 type  1   force =     0.00000000    0.00000000    0.11665180
     atom    6 type  2   force =     0.00000000    0.00000000    0.07485355
     atom    7 type  1   force =     0.00000000    0.00000000    0.11665572
     atom    8 type  2   force =     0.00000000    0.00000000    0.07485085
     The ionic contribution  to forces
     atom    1 type  1   force =    -0.00000000    0.00000000    0.79930868
     atom    2 type  2   force =     0.00000000   -0.00000000   -0.79930868
     atom    3 type  1   force =     0.00000000   -0.00000000    0.79930868
     atom    4 type  2   force =    -0.00000000    0.00000000   -0.79930868
     atom    5 type  1   force =    -0.00000000    0.00000000    0.79930868
     atom    6 type  2   force =     0.00000000   -0.00000000   -0.79930868
     atom    7 type  1   force =     0.00000000   -0.00000000    0.79930868
     atom    8 type  2   force =    -0.00000000    0.00000000   -0.79930868
     The local contribution  to forces
     atom    1 type  1   force =    -0.00000000    0.00000000   -0.87504218
     atom    2 type  2   force =     0.00000001   -0.00000001    0.69560460
     atom    3 type  1   force =     0.00000004   -0.00000002   -0.87500790
     atom    4 type  2   force =    -0.00000000   -0.00000000    0.69560222
     atom    5 type  1   force =    -0.00000000    0.00000000   -0.87500481
     atom    6 type  2   force =     0.00000001   -0.00000001    0.69561335
     atom    7 type  1   force =     0.00000004   -0.00000002   -0.87504074
     atom    8 type  2   force =    -0.00000000    0.00000000    0.69559523
     The core correction contribution to forces
     atom    1 type  1   force =     0.00000000   -0.00000000   -0.01164919
     atom    2 type  2   force =    -0.00000000    0.00000000   -0.00042516
     atom    3 type  1   force =     0.00000001   -0.00000000   -0.01165047
     atom    4 type  2   force =     0.00000000   -0.00000000   -0.00042525
     atom    5 type  1   force =    -0.00000000    0.00000000   -0.01164979
     atom    6 type  2   force =    -0.00000000    0.00000000   -0.00042515
     atom    7 type  1   force =     0.00000001   -0.00000000   -0.01164987
     atom    8 type  2   force =     0.00000000   -0.00000000   -0.00042510
     The Hubbard contrib.    to forces
     atom    1 type  1   force =     0.00000000    0.00000000    0.00000000
     atom    2 type  2   force =     0.00000000    0.00000000    0.00000000
     atom    3 type  1   force =     0.00000000    0.00000000    0.00000000
     atom    4 type  2   force =     0.00000000    0.00000000    0.00000000
     atom    5 type  1   force =     0.00000000    0.00000000    0.00000000
     atom    6 type  2   force =     0.00000000    0.00000000    0.00000000
     atom    7 type  1   force =     0.00000000    0.00000000    0.00000000
     atom    8 type  2   force =     0.00000000    0.00000000    0.00000000
     The SCF correction term to forces
     atom    1 type  1   force =    -0.00000000    0.00000000    0.00000475
     atom    2 type  2   force =     0.00000000   -0.00000000    0.00000405
     atom    3 type  1   force =     0.00000000   -0.00000000   -0.00001870
     atom    4 type  2   force =    -0.00000000    0.00000000    0.00000622
     atom    5 type  1   force =    -0.00000000    0.00000000   -0.00004424
     atom    6 type  2   force =     0.00000000   -0.00000000   -0.00001151
     atom    7 type  1   force =     0.00000000   -0.00000000    0.00001421
     atom    8 type  2   force =    -0.00000000    0.00000000    0.00001792

     Total force =     0.082800     Total SCF correction =     0.000055

     General routines

     Parallel routines

   This run was terminated on:  10:57:35  13Jul2025

   JOB DONE.
Note: The following floating-point exceptions are signalling: IEEE_INVALID_FLAG
Note: The following floating-point exceptions are signalling: IEEE_INVALID_FLAG