     Program PWSCF v.7.2 starts on 12Aug2025 at 20:44:38

     Reading input from /home/jvc/QEspresso7.2/ZnO_database/scripts/cell323.in/ZnO-3.01-1.45-323.in
Warning: card &CELL ignored
Warning: card / ignored
Warning: card &FCP ignored
Warning: card / ignored
Warning: card &RISM ignored
Warning: card / ignored

     Current dimensions of program PWSCF are:
     Max number of different atomic species (ntypx) = 10
     Max number of k-points (npk) =  40000
     Max angular momentum in pseudopotentials (lmaxx) =  4
     file Zn.upf: wavefunction(s)  3D renormalized
     Found identity + (  0.0000  0.0000  0.3333) symmetry
     This is a supercell, fractional translations are disabled

     K-points division:     npool     =       4
     R & G space division:  proc/nbgrp/npool/nimage =       8
     Subspace diagonalization in iterative solution of the eigenvalue problem:
     one sub-group per band group will be used

     Using Slab Decomposition

     bravais-lattice index     =            0
     lattice parameter (alat)  =      18.5365  a.u.
     unit-cell volume          =    5936.3583 (a.u.)^3
     number of atoms/cell      =           72
     number of atomic types    =            2
     number of electrons       =       648.00
     number of Kohn-Sham states=          324
     kinetic-energy cutoff     =      50.0000  Ry
     charge density cutoff     =     400.0000  Ry
     scf convergence threshold =      1.0E-08
     mixing beta               =       0.3000
     number of iterations used =            8  plain     mixing
     Exchange-correlation= PBE
                           (   1   4   3   4   0   0   0)

     celldm(1)=  18.536466  celldm(2)=   0.000000  celldm(3)=   0.000000
     celldm(4)=   0.000000  celldm(5)=   0.000000  celldm(6)=   0.000000

     crystal axes: (cart. coord. in units of alat)
               a(1) = (   1.000000   0.000000   0.000000 )
               a(2) = (  -0.333333   0.577350   0.000000 )
               a(3) = (   0.000000   0.000000   1.614358 )

     reciprocal axes: (cart. coord. in units 2 pi/alat)
               b(1) = (  1.000000  0.577350 -0.000000 )
               b(2) = (  0.000000  1.732051  0.000000 )
               b(3) = (  0.000000 -0.000000  0.619441 )

     PseudoPot. # 1 for Zn read from file:
     /home/jvc/QEspresso7.2/ZnO_database/pseudos/Zn.upf
     MD5 check sum: 7f56cabf9682ed8c977c2f7d0c5985c5
     Pseudo is Ultrasoft + core correction, Zval = 12.0
     Generated using &quot;atomic&quot; code by A. Dal Corso  v.6.2.2
     Using radial grid of 1201 points,  6 beta functions with:
                l(1) =   0
                l(2) =   0
                l(3) =   1
                l(4) =   1
                l(5) =   2
                l(6) =   2
     Q(r) pseudized with 0 coefficients

     PseudoPot. # 2 for O  read from file:
     /home/jvc/QEspresso7.2/ZnO_database/pseudos/O.upf
     MD5 check sum: 91400c9766925bcf19f520983a725ff0
     Pseudo is Ultrasoft + core correction, Zval =  6.0
     Generated using &quot;atomic&quot; code by A. Dal Corso  v.6.3MaX
     Using radial grid of 1095 points,  4 beta functions with:
                l(1) =   0
                l(2) =   0
                l(3) =   1
                l(4) =   1
     Q(r) pseudized with 0 coefficients

     atomic species   valence    mass     pseudopotential
        Zn            12.00    65.38000     Zn( 1.00)
        O              6.00    15.99900     O ( 1.00)

     No symmetry found

                                    s                        frac. trans.

      isym =  1     identity

 cryst.   s( 1) = (     1          0          0      )
                  (     0          1          0      )
                  (     0          0          1      )

 cart.    s( 1) = (  1.0000000  0.0000000  0.0000000 )
                  (  0.0000000  1.0000000  0.0000000 )
                  (  0.0000000  0.0000000  1.0000000 )

   Cartesian axes

     site n.     atom                  positions (alat units)
         1           Zn  tau(   1) = (   0.1666667   0.0962250   0.2694007  )
         2           Zn  tau(   2) = (   0.0000000   0.1924501   0.0003409  )
         3           O   tau(   3) = (   0.1666667   0.0962250   0.4733710  )
         4           O   tau(   4) = (   0.0000000   0.1924501   0.2043113  )
         5           Zn  tau(   5) = (   0.1666667   0.0962250   0.8075201  )
         6           Zn  tau(   6) = (   0.0000000   0.1924501   0.5384604  )
         7           O   tau(   7) = (   0.1666667   0.0962250   1.0114904  )
         8           O   tau(   8) = (   0.0000000   0.1924501   0.7424307  )
         9           Zn  tau(   9) = (   0.1666667   0.0962250   1.3456396  )
        10           Zn  tau(  10) = (   0.0000000   0.1924501   1.0765798  )
        11           O   tau(  11) = (   0.1666667   0.0962250   1.5496099  )
        12           O   tau(  12) = (   0.0000000   0.1924501   1.2805502  )
        13           Zn  tau(  13) = (   0.0000000   0.3849002   0.2694007  )
        14           Zn  tau(  14) = (  -0.1666667   0.4811252   0.0003409  )
        15           O   tau(  15) = (   0.0000000   0.3849002   0.4733710  )
        16           O   tau(  16) = (  -0.1666667   0.4811252   0.2043113  )
        17           Zn  tau(  17) = (   0.0000000   0.3849002   0.8075201  )
        18           Zn  tau(  18) = (  -0.1666667   0.4811252   0.5384604  )
        19           O   tau(  19) = (   0.0000000   0.3849002   1.0114904  )
        20           O   tau(  20) = (  -0.1666667   0.4811252   0.7424307  )
        21           Zn  tau(  21) = (   0.0000000   0.3849002   1.3456396  )
        22           Zn  tau(  22) = (  -0.1666667   0.4811252   1.0765798  )
        23           O   tau(  23) = (   0.0000000   0.3849002   1.5496099  )
        24           O   tau(  24) = (  -0.1666667   0.4811252   1.2805502  )
        25           Zn  tau(  25) = (   0.5000000   0.0962250   0.2694007  )
        26           Zn  tau(  26) = (   0.3333333   0.1924501   0.0003409  )
        27           O   tau(  27) = (   0.5000000   0.0962250   0.4733710  )
        28           O   tau(  28) = (   0.3333333   0.1924501   0.2043113  )
        29           Zn  tau(  29) = (   0.5000000   0.0962250   0.8075201  )
        30           Zn  tau(  30) = (   0.3333333   0.1924501   0.5384604  )
        31           O   tau(  31) = (   0.5000000   0.0962250   1.0114904  )
        32           O   tau(  32) = (   0.3333333   0.1924501   0.7424307  )
        33           Zn  tau(  33) = (   0.5000000   0.0962250   1.3456396  )
        34           Zn  tau(  34) = (   0.3333333   0.1924501   1.0765798  )
        35           O   tau(  35) = (   0.5000000   0.0962250   1.5496099  )
        36           O   tau(  36) = (   0.3333333   0.1924501   1.2805502  )
        37           Zn  tau(  37) = (   0.3333333   0.3849002   0.2694007  )
        38           Zn  tau(  38) = (   0.1666667   0.4811252   0.0003409  )
        39           O   tau(  39) = (   0.3333333   0.3849002   0.4733710  )
        40           O   tau(  40) = (   0.1666667   0.4811252   0.2043113  )
        41           Zn  tau(  41) = (   0.3333333   0.3849002   0.8075201  )
        42           Zn  tau(  42) = (   0.1666667   0.4811252   0.5384604  )
        43           O   tau(  43) = (   0.3333333   0.3849002   1.0114904  )
        44           O   tau(  44) = (   0.1666667   0.4811252   0.7424307  )
        45           Zn  tau(  45) = (   0.3333333   0.3849002   1.3456396  )
        46           Zn  tau(  46) = (   0.1666667   0.4811252   1.0765798  )
        47           O   tau(  47) = (   0.3333333   0.3849002   1.5496099  )
        48           O   tau(  48) = (   0.1666667   0.4811252   1.2805502  )
        49           Zn  tau(  49) = (   0.8333333   0.0962250   0.2694007  )
        50           Zn  tau(  50) = (   0.6666667   0.1924501   0.0003409  )
        51           O   tau(  51) = (   0.8333333   0.0962250   0.4733710  )
        52           O   tau(  52) = (   0.6666667   0.1924501   0.2043113  )
        53           Zn  tau(  53) = (   0.8333333   0.0962250   0.8075201  )
        54           Zn  tau(  54) = (   0.6666667   0.1924501   0.5384604  )
        55           O   tau(  55) = (   0.8333333   0.0962250   1.0114904  )
        56           O   tau(  56) = (   0.6666667   0.1924501   0.7424307  )
        57           Zn  tau(  57) = (   0.8333333   0.0962250   1.3456396  )
        58           Zn  tau(  58) = (   0.6666667   0.1924501   1.0765798  )
        59           O   tau(  59) = (   0.8333333   0.0962250   1.5496099  )
        60           O   tau(  60) = (   0.6666667   0.1924501   1.2805502  )
        61           Zn  tau(  61) = (   0.6666667   0.3849002   0.2694007  )
        62           Zn  tau(  62) = (   0.5000000   0.4811252   0.0003409  )
        63           O   tau(  63) = (   0.6666667   0.3849002   0.4733710  )
        64           O   tau(  64) = (   0.5000000   0.4811252   0.2043113  )
        65           Zn  tau(  65) = (   0.6666667   0.3849002   0.8075201  )
        66           Zn  tau(  66) = (   0.5000000   0.4811252   0.5384604  )
        67           O   tau(  67) = (   0.6666667   0.3849002   1.0114904  )
        68           O   tau(  68) = (   0.5000000   0.4811252   0.7424307  )
        69           Zn  tau(  69) = (   0.6666667   0.3849002   1.3456396  )
        70           Zn  tau(  70) = (   0.5000000   0.4811252   1.0765798  )
        71           O   tau(  71) = (   0.6666667   0.3849002   1.5496099  )
        72           O   tau(  72) = (   0.5000000   0.4811252   1.2805502  )

   Crystallographic axes

     site n.     atom                  positions (cryst. coord.)
         1           Zn  tau(   1) = (  0.2222222  0.1666667  0.1668779  )
         2           Zn  tau(   2) = (  0.1111111  0.3333333  0.0002112  )
         3           O   tau(   3) = (  0.2222222  0.1666667  0.2932255  )
         4           O   tau(   4) = (  0.1111111  0.3333333  0.1265588  )
         5           Zn  tau(   5) = (  0.2222222  0.1666667  0.5002112  )
         6           Zn  tau(   6) = (  0.1111111  0.3333333  0.3335445  )
         7           O   tau(   7) = (  0.2222222  0.1666667  0.6265588  )
         8           O   tau(   8) = (  0.1111111  0.3333333  0.4598921  )
         9           Zn  tau(   9) = (  0.2222222  0.1666667  0.8335445  )
        10           Zn  tau(  10) = (  0.1111111  0.3333333  0.6668779  )
        11           O   tau(  11) = (  0.2222222  0.1666667  0.9598921  )
        12           O   tau(  12) = (  0.1111111  0.3333333  0.7932255  )
        13           Zn  tau(  13) = (  0.2222222  0.6666667  0.1668779  )
        14           Zn  tau(  14) = (  0.1111111  0.8333333  0.0002112  )
        15           O   tau(  15) = (  0.2222222  0.6666667  0.2932255  )
        16           O   tau(  16) = (  0.1111111  0.8333333  0.1265588  )
        17           Zn  tau(  17) = (  0.2222222  0.6666667  0.5002112  )
        18           Zn  tau(  18) = (  0.1111111  0.8333333  0.3335445  )
        19           O   tau(  19) = (  0.2222222  0.6666667  0.6265588  )
        20           O   tau(  20) = (  0.1111111  0.8333333  0.4598921  )
[...]
     atom    9 type  1   force =    -0.00000009   -0.00000008    0.00046404
     atom   10 type  1   force =     0.00000002   -0.00000007    0.00046414
     atom   11 type  2   force =    -0.00000001    0.00000000   -0.00006504
     atom   12 type  2   force =     0.00000001   -0.00000000   -0.00006504
     atom   13 type  1   force =    -0.00000003   -0.00000003    0.00046405
     atom   14 type  1   force =     0.00000031   -0.00000012    0.00046402
     atom   15 type  2   force =     0.00000000    0.00000000   -0.00006505
     atom   16 type  2   force =    -0.00000001    0.00000001   -0.00006504
     atom   17 type  1   force =    -0.00000013    0.00000013    0.00046388
     atom   18 type  1   force =    -0.00000014   -0.00000010    0.00046417
     atom   19 type  2   force =    -0.00000001    0.00000000   -0.00006506
     atom   20 type  2   force =    -0.00000000   -0.00000001   -0.00006508
     atom   21 type  1   force =    -0.00000000    0.00000002    0.00046431
     atom   22 type  1   force =     0.00000004    0.00000005    0.00046416
     atom   23 type  2   force =    -0.00000001   -0.00000001   -0.00006503
     atom   24 type  2   force =     0.00000000   -0.00000000   -0.00006504
     atom   25 type  1   force =    -0.00000003   -0.00000001    0.00046426
     atom   26 type  1   force =     0.00000002    0.00000003    0.00046412
     atom   27 type  2   force =     0.00000001   -0.00000000   -0.00006505
     atom   28 type  2   force =     0.00000000    0.00000001   -0.00006504
     atom   29 type  1   force =     0.00000002   -0.00000001    0.00046409
     atom   30 type  1   force =     0.00000017    0.00000006    0.00046393
     atom   31 type  2   force =     0.00000001    0.00000001   -0.00006507
     atom   32 type  2   force =     0.00000000    0.00000001   -0.00006506
     atom   33 type  1   force =    -0.00000005   -0.00000017    0.00046406
     atom   34 type  1   force =     0.00000003   -0.00000008    0.00046393
     atom   35 type  2   force =     0.00000000    0.00000001   -0.00006503
     atom   36 type  2   force =     0.00000000    0.00000001   -0.00006504
     atom   37 type  1   force =    -0.00000006   -0.00000005    0.00046422
     atom   38 type  1   force =    -0.00000022   -0.00000015    0.00046402
     atom   39 type  2   force =     0.00000000    0.00000000   -0.00006504
     atom   40 type  2   force =     0.00000001    0.00000001   -0.00006504
     atom   41 type  1   force =    -0.00000009    0.00000001    0.00046400
     atom   42 type  1   force =     0.00000015    0.00000011    0.00046395
     atom   43 type  2   force =     0.00000000    0.00000000   -0.00006506
     atom   44 type  2   force =     0.00000001    0.00000002   -0.00006508
     atom   45 type  1   force =     0.00000017    0.00000023    0.00046394
     atom   46 type  1   force =     0.00000003    0.00000011    0.00046418
     atom   47 type  2   force =     0.00000000   -0.00000000   -0.00006503
     atom   48 type  2   force =     0.00000000    0.00000001   -0.00006503
     atom   49 type  1   force =    -0.00000003    0.00000001    0.00046406
     atom   50 type  1   force =     0.00000017   -0.00000012    0.00046408
     atom   51 type  2   force =    -0.00000000   -0.00000001   -0.00006504
     atom   52 type  2   force =     0.00000000    0.00000001   -0.00006503
     atom   53 type  1   force =    -0.00000013    0.00000002    0.00046405
     atom   54 type  1   force =    -0.00000011    0.00000008    0.00046398
     atom   55 type  2   force =     0.00000001   -0.00000001   -0.00006506
     atom   56 type  2   force =    -0.00000000   -0.00000000   -0.00006508
     atom   57 type  1   force =     0.00000005   -0.00000032    0.00046415
     atom   58 type  1   force =    -0.00000003   -0.00000005    0.00046393
     atom   59 type  2   force =     0.00000001   -0.00000000   -0.00006503
     atom   60 type  2   force =     0.00000001   -0.00000001   -0.00006503
     atom   61 type  1   force =     0.00000000   -0.00000004    0.00046426
     atom   62 type  1   force =    -0.00000001    0.00000020    0.00046402
     atom   63 type  2   force =     0.00000000   -0.00000000   -0.00006504
     atom   64 type  2   force =    -0.00000001   -0.00000001   -0.00006503
     atom   65 type  1   force =     0.00000012    0.00000001    0.00046392
     atom   66 type  1   force =     0.00000009   -0.00000016    0.00046396
     atom   67 type  2   force =    -0.00000000   -0.00000000   -0.00006506
     atom   68 type  2   force =    -0.00000001    0.00000001   -0.00006508
     atom   69 type  1   force =    -0.00000024    0.00000025    0.00046391
     atom   70 type  1   force =    -0.00000001    0.00000005    0.00046440
     atom   71 type  2   force =     0.00000000    0.00000000   -0.00006503
     atom   72 type  2   force =     0.00000000    0.00000000   -0.00006504
     The Hubbard contrib.    to forces
     atom    1 type  1   force =     0.00000000    0.00000000    0.00000000
     atom    2 type  1   force =     0.00000000    0.00000000    0.00000000
     atom    3 type  2   force =     0.00000000    0.00000000    0.00000000
     atom    4 type  2   force =     0.00000000    0.00000000    0.00000000
     atom    5 type  1   force =     0.00000000    0.00000000    0.00000000
     atom    6 type  1   force =     0.00000000    0.00000000    0.00000000
     atom    7 type  2   force =     0.00000000    0.00000000    0.00000000
     atom    8 type  2   force =     0.00000000    0.00000000    0.00000000
     atom    9 type  1   force =     0.00000000    0.00000000    0.00000000
     atom   10 type  1   force =     0.00000000    0.00000000    0.00000000
     atom   11 type  2   force =     0.00000000    0.00000000    0.00000000
     atom   12 type  2   force =     0.00000000    0.00000000    0.00000000
     atom   13 type  1   force =     0.00000000    0.00000000    0.00000000
     atom   14 type  1   force =     0.00000000    0.00000000    0.00000000
     atom   15 type  2   force =     0.00000000    0.00000000    0.00000000
     atom   16 type  2   force =     0.00000000    0.00000000    0.00000000
     atom   17 type  1   force =     0.00000000    0.00000000    0.00000000
     atom   18 type  1   force =     0.00000000    0.00000000    0.00000000
     atom   19 type  2   force =     0.00000000    0.00000000    0.00000000
     atom   20 type  2   force =     0.00000000    0.00000000    0.00000000
     atom   21 type  1   force =     0.00000000    0.00000000    0.00000000
     atom   22 type  1   force =     0.00000000    0.00000000    0.00000000
     atom   23 type  2   force =     0.00000000    0.00000000    0.00000000
     atom   24 type  2   force =     0.00000000    0.00000000    0.00000000
     atom   25 type  1   force =     0.00000000    0.00000000    0.00000000
     atom   26 type  1   force =     0.00000000    0.00000000    0.00000000
     atom   27 type  2   force =     0.00000000    0.00000000    0.00000000
     atom   28 type  2   force =     0.00000000    0.00000000    0.00000000
     atom   29 type  1   force =     0.00000000    0.00000000    0.00000000
     atom   30 type  1   force =     0.00000000    0.00000000    0.00000000
     atom   31 type  2   force =     0.00000000    0.00000000    0.00000000
     atom   32 type  2   force =     0.00000000    0.00000000    0.00000000
     atom   33 type  1   force =     0.00000000    0.00000000    0.00000000
     atom   34 type  1   force =     0.00000000    0.00000000    0.00000000
     atom   35 type  2   force =     0.00000000    0.00000000    0.00000000
     atom   36 type  2   force =     0.00000000    0.00000000    0.00000000
     atom   37 type  1   force =     0.00000000    0.00000000    0.00000000
     atom   38 type  1   force =     0.00000000    0.00000000    0.00000000
     atom   39 type  2   force =     0.00000000    0.00000000    0.00000000
     atom   40 type  2   force =     0.00000000    0.00000000    0.00000000
     atom   41 type  1   force =     0.00000000    0.00000000    0.00000000
     atom   42 type  1   force =     0.00000000    0.00000000    0.00000000
     atom   43 type  2   force =     0.00000000    0.00000000    0.00000000
     atom   44 type  2   force =     0.00000000    0.00000000    0.00000000
     atom   45 type  1   force =     0.00000000    0.00000000    0.00000000
     atom   46 type  1   force =     0.00000000    0.00000000    0.00000000
     atom   47 type  2   force =     0.00000000    0.00000000    0.00000000
     atom   48 type  2   force =     0.00000000    0.00000000    0.00000000
     atom   49 type  1   force =     0.00000000    0.00000000    0.00000000
     atom   50 type  1   force =     0.00000000    0.00000000    0.00000000
     atom   51 type  2   force =     0.00000000    0.00000000    0.00000000
     atom   52 type  2   force =     0.00000000    0.00000000    0.00000000
     atom   53 type  1   force =     0.00000000    0.00000000    0.00000000
     atom   54 type  1   force =     0.00000000    0.00000000    0.00000000
     atom   55 type  2   force =     0.00000000    0.00000000    0.00000000
     atom   56 type  2   force =     0.00000000    0.00000000    0.00000000
     atom   57 type  1   force =     0.00000000    0.00000000    0.00000000
     atom   58 type  1   force =     0.00000000    0.00000000    0.00000000
     atom   59 type  2   force =     0.00000000    0.00000000    0.00000000
     atom   60 type  2   force =     0.00000000    0.00000000    0.00000000
     atom   61 type  1   force =     0.00000000    0.00000000    0.00000000
     atom   62 type  1   force =     0.00000000    0.00000000    0.00000000
     atom   63 type  2   force =     0.00000000    0.00000000    0.00000000
     atom   64 type  2   force =     0.00000000    0.00000000    0.00000000
     atom   65 type  1   force =     0.00000000    0.00000000    0.00000000
     atom   66 type  1   force =     0.00000000    0.00000000    0.00000000
     atom   67 type  2   force =     0.00000000    0.00000000    0.00000000
     atom   68 type  2   force =     0.00000000    0.00000000    0.00000000
     atom   69 type  1   force =     0.00000000    0.00000000    0.00000000
     atom   70 type  1   force =     0.00000000    0.00000000    0.00000000
     atom   71 type  2   force =     0.00000000    0.00000000    0.00000000
     atom   72 type  2   force =     0.00000000    0.00000000    0.00000000
     The SCF correction term to forces
     atom    1 type  1   force =     0.00000626    0.00000119    0.00000865
     atom    2 type  1   force =    -0.00000609    0.00000941   -0.00000170
     atom    3 type  2   force =     0.00000466   -0.00000121    0.00000053
     atom    4 type  2   force =     0.00000055    0.00000136    0.00000568
     atom    5 type  1   force =     0.00000500   -0.00001265   -0.00002241
     atom    6 type  1   force =    -0.00000166   -0.00000023   -0.00000404
     atom    7 type  2   force =     0.00000142   -0.00000302   -0.00000080
     atom    8 type  2   force =    -0.00000192   -0.00000130   -0.00000997
     atom    9 type  1   force =    -0.00000850   -0.00000370    0.00000494
     atom   10 type  1   force =    -0.00000087   -0.00000652   -0.00000071
     atom   11 type  2   force =    -0.00000217    0.00000118    0.00000559
     atom   12 type  2   force =    -0.00000181   -0.00000138    0.00000831
     atom   13 type  1   force =     0.00000261    0.00000394    0.00000505
     atom   14 type  1   force =     0.00001239   -0.00000521    0.00000195
     atom   15 type  2   force =     0.00000057    0.00000385    0.00000022
     atom   16 type  2   force =     0.00000352    0.00000008    0.00000910
     atom   17 type  1   force =    -0.00000785    0.00001200   -0.00002457
     atom   18 type  1   force =    -0.00000582   -0.00000245    0.00000289
     atom   19 type  2   force =     0.00000007    0.00000310   -0.00000136
     atom   20 type  2   force =    -0.00000100   -0.00000037   -0.00001095
     atom   21 type  1   force =     0.00000205    0.00000047    0.00001685
     atom   22 type  1   force =    -0.00000170    0.00000583   -0.00000243
     atom   23 type  2   force =     0.00000200   -0.00000087    0.00000457
     atom   24 type  2   force =     0.00000014    0.00000078    0.00000522
     atom   25 type  1   force =     0.00000335    0.00000205    0.00002248
     atom   26 type  1   force =    -0.00000553   -0.00000104    0.00001032
     atom   27 type  2   force =     0.00000218    0.00000283    0.00000214
     atom   28 type  2   force =     0.00000065   -0.00000100    0.00001291
     atom   29 type  1   force =     0.00000341    0.00000010   -0.00002567
     atom   30 type  1   force =     0.00001621   -0.00000073   -0.00001038
     atom   31 type  2   force =     0.00000053   -0.00000173   -0.00000541
     atom   32 type  2   force =     0.00000649   -0.00000251   -0.00001249
     atom   33 type  1   force =     0.00000108   -0.00001345    0.00000502
     atom   34 type  1   force =     0.00000294   -0.00000383   -0.00000957
     atom   35 type  2   force =     0.00000114   -0.00000515    0.00000728
     atom   36 type  2   force =    -0.00000161    0.00000002    0.00000379
     atom   37 type  1   force =     0.00000227    0.00000164    0.00001997
     atom   38 type  1   force =    -0.00000933   -0.00000636    0.00000097
     atom   39 type  2   force =     0.00000431    0.00000133    0.00000003
     atom   40 type  2   force =    -0.00000025   -0.00000002    0.00000970
     atom   41 type  1   force =     0.00000675    0.00000524   -0.00002431
     atom   42 type  1   force =     0.00000722    0.00001357   -0.00000785
     atom   43 type  2   force =     0.00000198    0.00000318   -0.00000225
     atom   44 type  2   force =     0.00000135    0.00000721   -0.00001127
     atom   45 type  1   force =     0.00000238    0.00001611    0.00000217
     atom   46 type  1   force =     0.00000238    0.00000781   -0.00000432
     atom   47 type  2   force =    -0.00000357    0.00000344    0.00000502
     atom   48 type  2   force =    -0.00000020   -0.00000099    0.00000697
     atom   49 type  1   force =    -0.00000743    0.00000070    0.00001004
     atom   50 type  1   force =     0.00000796   -0.00000813    0.00000727
     atom   51 type  2   force =    -0.00000633   -0.00000244    0.00000099
     atom   52 type  2   force =    -0.00000151   -0.00000335    0.00001272
     atom   53 type  1   force =    -0.00000638   -0.00000361   -0.00002152
     atom   54 type  1   force =    -0.00001621    0.00000199   -0.00000780
     atom   55 type  2   force =    -0.00000118   -0.00000327   -0.00000071
     atom   56 type  2   force =    -0.00000522   -0.00000117   -0.00001344
     atom   57 type  1   force =     0.00000863   -0.00001430    0.00000772
     atom   58 type  1   force =    -0.00000238   -0.00000717   -0.00001205
     atom   59 type  2   force =     0.00000203    0.00000154    0.00000395
     atom   60 type  2   force =     0.00000165   -0.00000271    0.00000395
     atom   61 type  1   force =    -0.00000235   -0.00000451    0.00002140
     atom   62 type  1   force =    -0.00000463    0.00000958    0.00000007
     atom   63 type  2   force =    -0.00000441   -0.00000353    0.00000359
     atom   64 type  2   force =    -0.00000284   -0.00000037    0.00001194
     atom   65 type  1   force =     0.00000296    0.00000071   -0.00003000
     atom   66 type  1   force =    -0.00000462   -0.00001120   -0.00001051
     atom   67 type  2   force =    -0.00000050    0.00000227   -0.00000272
     atom   68 type  2   force =    -0.00000092   -0.00000296   -0.00001166
     atom   69 type  1   force =    -0.00000350    0.00001548    0.00000037
     atom   70 type  1   force =    -0.00000174    0.00000469    0.00000449
     atom   71 type  2   force =     0.00000242    0.00000169    0.00000431
     atom   72 type  2   force =    -0.00000091    0.00000420    0.00000400

     Total force =     0.000518     Total SCF correction =     0.000112
     SCF correction compared to forces is large: reduce conv_thr to get better values

     General routines

     Parallel routines

   This run was terminated on:  21:25: 1  12Aug2025

   JOB DONE.
Note: The following floating-point exceptions are signalling: IEEE_DENORMAL
Note: The following floating-point exceptions are signalling: IEEE_DENORMAL
Note: The following floating-point exceptions are signalling: IEEE_INVALID_FLAG
Note: The following floating-point exceptions are signalling: IEEE_DENORMAL
Note: The following floating-point exceptions are signalling: IEEE_DENORMAL
Note: The following floating-point exceptions are signalling: IEEE_INVALID_FLAG
Note: The following floating-point exceptions are signalling: IEEE_INVALID_FLAG
Note: The following floating-point exceptions are signalling: IEEE_INVALID_FLAG