     Program PWSCF v.7.2 starts on 15Aug2025 at  5: 8:44

     Reading input from /home/jvc/QEspresso7.2/ZnO_database/scripts/cell323.in/ZnO-3.47-1.52-323.in
Warning: card &CELL ignored
Warning: card / ignored
Warning: card &FCP ignored
Warning: card / ignored
Warning: card &RISM ignored
Warning: card / ignored

     Current dimensions of program PWSCF are:
     Max number of different atomic species (ntypx) = 10
     Max number of k-points (npk) =  40000
     Max angular momentum in pseudopotentials (lmaxx) =  4
     file Zn.upf: wavefunction(s)  3D renormalized
     Found identity + (  0.0000  0.0000  0.3333) symmetry
     This is a supercell, fractional translations are disabled

     K-points division:     npool     =       4
     R & G space division:  proc/nbgrp/npool/nimage =       8
     Subspace diagonalization in iterative solution of the eigenvalue problem:
     one sub-group per band group will be used

     Using Slab Decomposition

     bravais-lattice index     =            0
     lattice parameter (alat)  =      18.5365  a.u.
     unit-cell volume          =    5936.3583 (a.u.)^3
     number of atoms/cell      =           72
     number of atomic types    =            2
     number of electrons       =       648.00
     number of Kohn-Sham states=          324
     kinetic-energy cutoff     =      50.0000  Ry
     charge density cutoff     =     400.0000  Ry
     scf convergence threshold =      1.0E-08
     mixing beta               =       0.3000
     number of iterations used =            8  plain     mixing
     Exchange-correlation= PBE
                           (   1   4   3   4   0   0   0)

     celldm(1)=  18.536466  celldm(2)=   0.000000  celldm(3)=   0.000000
     celldm(4)=   0.000000  celldm(5)=   0.000000  celldm(6)=   0.000000

     crystal axes: (cart. coord. in units of alat)
               a(1) = (   1.000000   0.000000   0.000000 )
               a(2) = (  -0.333333   0.577350   0.000000 )
               a(3) = (   0.000000   0.000000   1.614358 )

     reciprocal axes: (cart. coord. in units 2 pi/alat)
               b(1) = (  1.000000  0.577350 -0.000000 )
               b(2) = (  0.000000  1.732051  0.000000 )
               b(3) = (  0.000000 -0.000000  0.619441 )

     PseudoPot. # 1 for Zn read from file:
     /home/jvc/QEspresso7.2/ZnO_database/pseudos/Zn.upf
     MD5 check sum: 7f56cabf9682ed8c977c2f7d0c5985c5
     Pseudo is Ultrasoft + core correction, Zval = 12.0
     Generated using &quot;atomic&quot; code by A. Dal Corso  v.6.2.2
     Using radial grid of 1201 points,  6 beta functions with:
                l(1) =   0
                l(2) =   0
                l(3) =   1
                l(4) =   1
                l(5) =   2
                l(6) =   2
     Q(r) pseudized with 0 coefficients

     PseudoPot. # 2 for O  read from file:
     /home/jvc/QEspresso7.2/ZnO_database/pseudos/O.upf
     MD5 check sum: 91400c9766925bcf19f520983a725ff0
     Pseudo is Ultrasoft + core correction, Zval =  6.0
     Generated using &quot;atomic&quot; code by A. Dal Corso  v.6.3MaX
     Using radial grid of 1095 points,  4 beta functions with:
                l(1) =   0
                l(2) =   0
                l(3) =   1
                l(4) =   1
     Q(r) pseudized with 0 coefficients

     atomic species   valence    mass     pseudopotential
        Zn            12.00    65.38000     Zn( 1.00)
        O              6.00    15.99900     O ( 1.00)

     No symmetry found

                                    s                        frac. trans.

      isym =  1     identity

 cryst.   s( 1) = (     1          0          0      )
                  (     0          1          0      )
                  (     0          0          1      )

 cart.    s( 1) = (  1.0000000  0.0000000  0.0000000 )
                  (  0.0000000  1.0000000  0.0000000 )
                  (  0.0000000  0.0000000  1.0000000 )

   Cartesian axes

     site n.     atom                  positions (alat units)
         1           Zn  tau(   1) = (   0.1666667   0.0962250   0.2694007  )
         2           Zn  tau(   2) = (   0.0000000   0.1924501   0.0003409  )
         3           O   tau(   3) = (   0.1666667   0.0962250   0.4733710  )
         4           O   tau(   4) = (   0.0000000   0.1924501   0.2043113  )
         5           Zn  tau(   5) = (   0.1666667   0.0962250   0.8075201  )
         6           Zn  tau(   6) = (   0.0000000   0.1924501   0.5384604  )
         7           O   tau(   7) = (   0.1666667   0.0962250   1.0114904  )
         8           O   tau(   8) = (   0.0000000   0.1924501   0.7424307  )
         9           Zn  tau(   9) = (   0.1666667   0.0962250   1.3456396  )
        10           Zn  tau(  10) = (   0.0000000   0.1924501   1.0765798  )
        11           O   tau(  11) = (   0.1666667   0.0962250   1.5496099  )
        12           O   tau(  12) = (   0.0000000   0.1924501   1.2805502  )
        13           Zn  tau(  13) = (   0.0000000   0.3849002   0.2694007  )
        14           Zn  tau(  14) = (  -0.1666667   0.4811252   0.0003409  )
        15           O   tau(  15) = (   0.0000000   0.3849002   0.4733710  )
        16           O   tau(  16) = (  -0.1666667   0.4811252   0.2043113  )
        17           Zn  tau(  17) = (   0.0000000   0.3849002   0.8075201  )
        18           Zn  tau(  18) = (  -0.1666667   0.4811252   0.5384604  )
        19           O   tau(  19) = (   0.0000000   0.3849002   1.0114904  )
        20           O   tau(  20) = (  -0.1666667   0.4811252   0.7424307  )
        21           Zn  tau(  21) = (   0.0000000   0.3849002   1.3456396  )
        22           Zn  tau(  22) = (  -0.1666667   0.4811252   1.0765798  )
        23           O   tau(  23) = (   0.0000000   0.3849002   1.5496099  )
        24           O   tau(  24) = (  -0.1666667   0.4811252   1.2805502  )
        25           Zn  tau(  25) = (   0.5000000   0.0962250   0.2694007  )
        26           Zn  tau(  26) = (   0.3333333   0.1924501   0.0003409  )
        27           O   tau(  27) = (   0.5000000   0.0962250   0.4733710  )
        28           O   tau(  28) = (   0.3333333   0.1924501   0.2043113  )
        29           Zn  tau(  29) = (   0.5000000   0.0962250   0.8075201  )
        30           Zn  tau(  30) = (   0.3333333   0.1924501   0.5384604  )
        31           O   tau(  31) = (   0.5000000   0.0962250   1.0114904  )
        32           O   tau(  32) = (   0.3333333   0.1924501   0.7424307  )
        33           Zn  tau(  33) = (   0.5000000   0.0962250   1.3456396  )
        34           Zn  tau(  34) = (   0.3333333   0.1924501   1.0765798  )
        35           O   tau(  35) = (   0.5000000   0.0962250   1.5496099  )
        36           O   tau(  36) = (   0.3333333   0.1924501   1.2805502  )
        37           Zn  tau(  37) = (   0.3333333   0.3849002   0.2694007  )
        38           Zn  tau(  38) = (   0.1666667   0.4811252   0.0003409  )
        39           O   tau(  39) = (   0.3333333   0.3849002   0.4733710  )
        40           O   tau(  40) = (   0.1666667   0.4811252   0.2043113  )
        41           Zn  tau(  41) = (   0.3333333   0.3849002   0.8075201  )
        42           Zn  tau(  42) = (   0.1666667   0.4811252   0.5384604  )
        43           O   tau(  43) = (   0.3333333   0.3849002   1.0114904  )
        44           O   tau(  44) = (   0.1666667   0.4811252   0.7424307  )
        45           Zn  tau(  45) = (   0.3333333   0.3849002   1.3456396  )
        46           Zn  tau(  46) = (   0.1666667   0.4811252   1.0765798  )
        47           O   tau(  47) = (   0.3333333   0.3849002   1.5496099  )
        48           O   tau(  48) = (   0.1666667   0.4811252   1.2805502  )
        49           Zn  tau(  49) = (   0.8333333   0.0962250   0.2694007  )
        50           Zn  tau(  50) = (   0.6666667   0.1924501   0.0003409  )
        51           O   tau(  51) = (   0.8333333   0.0962250   0.4733710  )
        52           O   tau(  52) = (   0.6666667   0.1924501   0.2043113  )
        53           Zn  tau(  53) = (   0.8333333   0.0962250   0.8075201  )
        54           Zn  tau(  54) = (   0.6666667   0.1924501   0.5384604  )
        55           O   tau(  55) = (   0.8333333   0.0962250   1.0114904  )
        56           O   tau(  56) = (   0.6666667   0.1924501   0.7424307  )
        57           Zn  tau(  57) = (   0.8333333   0.0962250   1.3456396  )
        58           Zn  tau(  58) = (   0.6666667   0.1924501   1.0765798  )
        59           O   tau(  59) = (   0.8333333   0.0962250   1.5496099  )
        60           O   tau(  60) = (   0.6666667   0.1924501   1.2805502  )
        61           Zn  tau(  61) = (   0.6666667   0.3849002   0.2694007  )
        62           Zn  tau(  62) = (   0.5000000   0.4811252   0.0003409  )
        63           O   tau(  63) = (   0.6666667   0.3849002   0.4733710  )
        64           O   tau(  64) = (   0.5000000   0.4811252   0.2043113  )
        65           Zn  tau(  65) = (   0.6666667   0.3849002   0.8075201  )
        66           Zn  tau(  66) = (   0.5000000   0.4811252   0.5384604  )
        67           O   tau(  67) = (   0.6666667   0.3849002   1.0114904  )
        68           O   tau(  68) = (   0.5000000   0.4811252   0.7424307  )
        69           Zn  tau(  69) = (   0.6666667   0.3849002   1.3456396  )
        70           Zn  tau(  70) = (   0.5000000   0.4811252   1.0765798  )
        71           O   tau(  71) = (   0.6666667   0.3849002   1.5496099  )
        72           O   tau(  72) = (   0.5000000   0.4811252   1.2805502  )

   Crystallographic axes

     site n.     atom                  positions (cryst. coord.)
         1           Zn  tau(   1) = (  0.2222222  0.1666667  0.1668779  )
         2           Zn  tau(   2) = (  0.1111111  0.3333333  0.0002112  )
         3           O   tau(   3) = (  0.2222222  0.1666667  0.2932255  )
         4           O   tau(   4) = (  0.1111111  0.3333333  0.1265588  )
         5           Zn  tau(   5) = (  0.2222222  0.1666667  0.5002112  )
         6           Zn  tau(   6) = (  0.1111111  0.3333333  0.3335445  )
         7           O   tau(   7) = (  0.2222222  0.1666667  0.6265588  )
         8           O   tau(   8) = (  0.1111111  0.3333333  0.4598921  )
         9           Zn  tau(   9) = (  0.2222222  0.1666667  0.8335445  )
        10           Zn  tau(  10) = (  0.1111111  0.3333333  0.6668779  )
        11           O   tau(  11) = (  0.2222222  0.1666667  0.9598921  )
        12           O   tau(  12) = (  0.1111111  0.3333333  0.7932255  )
        13           Zn  tau(  13) = (  0.2222222  0.6666667  0.1668779  )
        14           Zn  tau(  14) = (  0.1111111  0.8333333  0.0002112  )
        15           O   tau(  15) = (  0.2222222  0.6666667  0.2932255  )
        16           O   tau(  16) = (  0.1111111  0.8333333  0.1265588  )
        17           Zn  tau(  17) = (  0.2222222  0.6666667  0.5002112  )
        18           Zn  tau(  18) = (  0.1111111  0.8333333  0.3335445  )
        19           O   tau(  19) = (  0.2222222  0.6666667  0.6265588  )
        20           O   tau(  20) = (  0.1111111  0.8333333  0.4598921  )
[...]
     atom    7 type  2   force =     0.00000000   -0.00000001   -0.00006505
     atom    8 type  2   force =    -0.00000000   -0.00000000   -0.00006506
     atom    9 type  1   force =    -0.00000005   -0.00000004    0.00046401
     atom   10 type  1   force =     0.00000001   -0.00000002    0.00046407
     atom   11 type  2   force =    -0.00000002   -0.00000000   -0.00006502
     atom   12 type  2   force =    -0.00000001   -0.00000000   -0.00006501
     atom   13 type  1   force =     0.00000000   -0.00000001    0.00046399
     atom   14 type  1   force =     0.00000015   -0.00000005    0.00046404
     atom   15 type  2   force =     0.00000000    0.00000002   -0.00006504
     atom   16 type  2   force =     0.00000001   -0.00000000   -0.00006502
     atom   17 type  1   force =    -0.00000004    0.00000007    0.00046393
     atom   18 type  1   force =    -0.00000009   -0.00000002    0.00046403
     atom   19 type  2   force =    -0.00000000    0.00000001   -0.00006505
     atom   20 type  2   force =    -0.00000001   -0.00000000   -0.00006507
     atom   21 type  1   force =     0.00000002    0.00000000    0.00046410
     atom   22 type  1   force =    -0.00000003    0.00000001    0.00046408
     atom   23 type  2   force =    -0.00000000   -0.00000001   -0.00006503
     atom   24 type  2   force =     0.00000001   -0.00000000   -0.00006502
     atom   25 type  1   force =    -0.00000003   -0.00000001    0.00046413
     atom   26 type  1   force =     0.00000002    0.00000002    0.00046407
     atom   27 type  2   force =     0.00000001    0.00000001   -0.00006504
     atom   28 type  2   force =     0.00000000   -0.00000000   -0.00006500
     atom   29 type  1   force =     0.00000003    0.00000000    0.00046401
     atom   30 type  1   force =     0.00000009    0.00000002    0.00046391
     atom   31 type  2   force =     0.00000000   -0.00000001   -0.00006506
     atom   32 type  2   force =     0.00000002   -0.00000001   -0.00006508
     atom   33 type  1   force =    -0.00000002   -0.00000010    0.00046404
     atom   34 type  1   force =     0.00000004   -0.00000002    0.00046396
     atom   35 type  2   force =    -0.00000000   -0.00000002   -0.00006501
     atom   36 type  2   force =    -0.00000000    0.00000001   -0.00006503
     atom   37 type  1   force =    -0.00000005   -0.00000003    0.00046410
     atom   38 type  1   force =    -0.00000010   -0.00000006    0.00046403
     atom   39 type  2   force =     0.00000001    0.00000000   -0.00006504
     atom   40 type  2   force =    -0.00000000    0.00000001   -0.00006502
     atom   41 type  1   force =    -0.00000005   -0.00000001    0.00046398
     atom   42 type  1   force =     0.00000009    0.00000009    0.00046392
     atom   43 type  2   force =     0.00000001    0.00000001   -0.00006504
     atom   44 type  2   force =     0.00000000    0.00000003   -0.00006508
     atom   45 type  1   force =     0.00000006    0.00000011    0.00046398
     atom   46 type  1   force =     0.00000002    0.00000006    0.00046408
     atom   47 type  2   force =    -0.00000001    0.00000002   -0.00006503
     atom   48 type  2   force =     0.00000000   -0.00000001   -0.00006502
     atom   49 type  1   force =     0.00000003    0.00000003    0.00046404
     atom   50 type  1   force =     0.00000008   -0.00000006    0.00046405
     atom   51 type  2   force =    -0.00000003   -0.00000001   -0.00006504
     atom   52 type  2   force =    -0.00000000   -0.00000000   -0.00006500
     atom   53 type  1   force =    -0.00000007    0.00000002    0.00046399
     atom   54 type  1   force =    -0.00000007    0.00000002    0.00046396
     atom   55 type  2   force =    -0.00000000   -0.00000002   -0.00006504
     atom   56 type  2   force =    -0.00000001    0.00000001   -0.00006508
     atom   57 type  1   force =     0.00000008   -0.00000014    0.00046409
     atom   58 type  1   force =    -0.00000004   -0.00000001    0.00046396
     atom   59 type  2   force =     0.00000001    0.00000001   -0.00006504
     atom   60 type  2   force =     0.00000002   -0.00000001   -0.00006502
     atom   61 type  1   force =     0.00000002   -0.00000001    0.00046413
     atom   62 type  1   force =    -0.00000002    0.00000009    0.00046402
     atom   63 type  2   force =    -0.00000001   -0.00000001   -0.00006503
     atom   64 type  2   force =    -0.00000000    0.00000000   -0.00006500
     atom   65 type  1   force =     0.00000008   -0.00000002    0.00046395
     atom   66 type  1   force =     0.00000002   -0.00000006    0.00046389
     atom   67 type  2   force =    -0.00000001    0.00000001   -0.00006505
     atom   68 type  2   force =     0.00000001   -0.00000001   -0.00006508
     atom   69 type  1   force =    -0.00000008    0.00000013    0.00046397
     atom   70 type  1   force =     0.00000001   -0.00000001    0.00046413
     atom   71 type  2   force =     0.00000001    0.00000001   -0.00006503
     atom   72 type  2   force =    -0.00000000    0.00000002   -0.00006503
     The Hubbard contrib.    to forces
     atom    1 type  1   force =     0.00000000    0.00000000    0.00000000
     atom    2 type  1   force =     0.00000000    0.00000000    0.00000000
     atom    3 type  2   force =     0.00000000    0.00000000    0.00000000
     atom    4 type  2   force =     0.00000000    0.00000000    0.00000000
     atom    5 type  1   force =     0.00000000    0.00000000    0.00000000
     atom    6 type  1   force =     0.00000000    0.00000000    0.00000000
     atom    7 type  2   force =     0.00000000    0.00000000    0.00000000
     atom    8 type  2   force =     0.00000000    0.00000000    0.00000000
     atom    9 type  1   force =     0.00000000    0.00000000    0.00000000
     atom   10 type  1   force =     0.00000000    0.00000000    0.00000000
     atom   11 type  2   force =     0.00000000    0.00000000    0.00000000
     atom   12 type  2   force =     0.00000000    0.00000000    0.00000000
     atom   13 type  1   force =     0.00000000    0.00000000    0.00000000
     atom   14 type  1   force =     0.00000000    0.00000000    0.00000000
     atom   15 type  2   force =     0.00000000    0.00000000    0.00000000
     atom   16 type  2   force =     0.00000000    0.00000000    0.00000000
     atom   17 type  1   force =     0.00000000    0.00000000    0.00000000
     atom   18 type  1   force =     0.00000000    0.00000000    0.00000000
     atom   19 type  2   force =     0.00000000    0.00000000    0.00000000
     atom   20 type  2   force =     0.00000000    0.00000000    0.00000000
     atom   21 type  1   force =     0.00000000    0.00000000    0.00000000
     atom   22 type  1   force =     0.00000000    0.00000000    0.00000000
     atom   23 type  2   force =     0.00000000    0.00000000    0.00000000
     atom   24 type  2   force =     0.00000000    0.00000000    0.00000000
     atom   25 type  1   force =     0.00000000    0.00000000    0.00000000
     atom   26 type  1   force =     0.00000000    0.00000000    0.00000000
     atom   27 type  2   force =     0.00000000    0.00000000    0.00000000
     atom   28 type  2   force =     0.00000000    0.00000000    0.00000000
     atom   29 type  1   force =     0.00000000    0.00000000    0.00000000
     atom   30 type  1   force =     0.00000000    0.00000000    0.00000000
     atom   31 type  2   force =     0.00000000    0.00000000    0.00000000
     atom   32 type  2   force =     0.00000000    0.00000000    0.00000000
     atom   33 type  1   force =     0.00000000    0.00000000    0.00000000
     atom   34 type  1   force =     0.00000000    0.00000000    0.00000000
     atom   35 type  2   force =     0.00000000    0.00000000    0.00000000
     atom   36 type  2   force =     0.00000000    0.00000000    0.00000000
     atom   37 type  1   force =     0.00000000    0.00000000    0.00000000
     atom   38 type  1   force =     0.00000000    0.00000000    0.00000000
     atom   39 type  2   force =     0.00000000    0.00000000    0.00000000
     atom   40 type  2   force =     0.00000000    0.00000000    0.00000000
     atom   41 type  1   force =     0.00000000    0.00000000    0.00000000
     atom   42 type  1   force =     0.00000000    0.00000000    0.00000000
     atom   43 type  2   force =     0.00000000    0.00000000    0.00000000
     atom   44 type  2   force =     0.00000000    0.00000000    0.00000000
     atom   45 type  1   force =     0.00000000    0.00000000    0.00000000
     atom   46 type  1   force =     0.00000000    0.00000000    0.00000000
     atom   47 type  2   force =     0.00000000    0.00000000    0.00000000
     atom   48 type  2   force =     0.00000000    0.00000000    0.00000000
     atom   49 type  1   force =     0.00000000    0.00000000    0.00000000
     atom   50 type  1   force =     0.00000000    0.00000000    0.00000000
     atom   51 type  2   force =     0.00000000    0.00000000    0.00000000
     atom   52 type  2   force =     0.00000000    0.00000000    0.00000000
     atom   53 type  1   force =     0.00000000    0.00000000    0.00000000
     atom   54 type  1   force =     0.00000000    0.00000000    0.00000000
     atom   55 type  2   force =     0.00000000    0.00000000    0.00000000
     atom   56 type  2   force =     0.00000000    0.00000000    0.00000000
     atom   57 type  1   force =     0.00000000    0.00000000    0.00000000
     atom   58 type  1   force =     0.00000000    0.00000000    0.00000000
     atom   59 type  2   force =     0.00000000    0.00000000    0.00000000
     atom   60 type  2   force =     0.00000000    0.00000000    0.00000000
     atom   61 type  1   force =     0.00000000    0.00000000    0.00000000
     atom   62 type  1   force =     0.00000000    0.00000000    0.00000000
     atom   63 type  2   force =     0.00000000    0.00000000    0.00000000
     atom   64 type  2   force =     0.00000000    0.00000000    0.00000000
     atom   65 type  1   force =     0.00000000    0.00000000    0.00000000
     atom   66 type  1   force =     0.00000000    0.00000000    0.00000000
     atom   67 type  2   force =     0.00000000    0.00000000    0.00000000
     atom   68 type  2   force =     0.00000000    0.00000000    0.00000000
     atom   69 type  1   force =     0.00000000    0.00000000    0.00000000
     atom   70 type  1   force =     0.00000000    0.00000000    0.00000000
     atom   71 type  2   force =     0.00000000    0.00000000    0.00000000
     atom   72 type  2   force =     0.00000000    0.00000000    0.00000000
     The SCF correction term to forces
     atom    1 type  1   force =     0.00000194    0.00000040    0.00000420
     atom    2 type  1   force =    -0.00000494    0.00000426   -0.00000084
     atom    3 type  2   force =     0.00000157   -0.00000065    0.00000046
     atom    4 type  2   force =     0.00000047    0.00000057    0.00000253
     atom    5 type  1   force =     0.00000291   -0.00000684   -0.00000832
     atom    6 type  1   force =    -0.00000031   -0.00000245   -0.00000138
     atom    7 type  2   force =     0.00000046   -0.00000154   -0.00000060
     atom    8 type  2   force =    -0.00000078   -0.00000052   -0.00000430
     atom    9 type  1   force =    -0.00000497   -0.00000221    0.00000018
     atom   10 type  1   force =    -0.00000091   -0.00000405    0.00000242
     atom   11 type  2   force =    -0.00000124    0.00000029    0.00000248
     atom   12 type  2   force =    -0.00000092   -0.00000071    0.00000314
     atom   13 type  1   force =     0.00000023    0.00000131    0.00000136
     atom   14 type  1   force =     0.00000567   -0.00000458    0.00000173
     atom   15 type  2   force =    -0.00000001    0.00000159   -0.00000014
     atom   16 type  2   force =     0.00000088   -0.00000037    0.00000374
     atom   17 type  1   force =    -0.00000441    0.00000674   -0.00000975
     atom   18 type  1   force =    -0.00000486   -0.00000125    0.00000165
     atom   19 type  2   force =    -0.00000020    0.00000170   -0.00000031
     atom   20 type  2   force =    -0.00000066   -0.00000016   -0.00000365
     atom   21 type  1   force =     0.00000051    0.00000066    0.00000763
     atom   22 type  1   force =    -0.00000113    0.00000274   -0.00000006
     atom   23 type  2   force =     0.00000055   -0.00000073    0.00000216
     atom   24 type  2   force =    -0.00000011    0.00000035    0.00000162
     atom   25 type  1   force =     0.00000111    0.00000005    0.00001209
     atom   26 type  1   force =    -0.00000188   -0.00000099    0.00000656
     atom   27 type  2   force =     0.00000085    0.00000109    0.00000064
     atom   28 type  2   force =    -0.00000002   -0.00000031    0.00000503
     atom   29 type  1   force =     0.00000177    0.00000003   -0.00000831
     atom   30 type  1   force =     0.00000696   -0.00000100   -0.00000491
     atom   31 type  2   force =     0.00000058   -0.00000050   -0.00000276
     atom   32 type  2   force =     0.00000224   -0.00000158   -0.00000468
     atom   33 type  1   force =     0.00000023   -0.00000734    0.00000223
     atom   34 type  1   force =     0.00000163   -0.00000206   -0.00000422
     atom   35 type  2   force =     0.00000110   -0.00000234    0.00000311
     atom   36 type  2   force =    -0.00000070   -0.00000008    0.00000092
     atom   37 type  1   force =     0.00000008    0.00000014    0.00001041
     atom   38 type  1   force =    -0.00000580   -0.00000381    0.00000071
     atom   39 type  2   force =     0.00000137    0.00000041   -0.00000028
     atom   40 type  2   force =     0.00000011   -0.00000015    0.00000407
     atom   41 type  1   force =     0.00000123    0.00000165   -0.00000792
     atom   42 type  1   force =     0.00000431    0.00000693   -0.00000296
     atom   43 type  2   force =     0.00000076    0.00000136   -0.00000089
     atom   44 type  2   force =     0.00000028    0.00000265   -0.00000375
     atom   45 type  1   force =     0.00000065    0.00000827   -0.00000014
     atom   46 type  1   force =     0.00000186    0.00000377    0.00000012
     atom   47 type  2   force =    -0.00000170    0.00000167    0.00000229
     atom   48 type  2   force =    -0.00000026   -0.00000036    0.00000237
     atom   49 type  1   force =    -0.00000193    0.00000101    0.00000541
     atom   50 type  1   force =     0.00000448   -0.00000460    0.00000257
     atom   51 type  2   force =    -0.00000229   -0.00000090    0.00000034
     atom   52 type  2   force =    -0.00000083   -0.00000090    0.00000482
     atom   53 type  1   force =    -0.00000369    0.00000021   -0.00000765
     atom   54 type  1   force =    -0.00000735    0.00000109   -0.00000429
     atom   55 type  2   force =     0.00000002   -0.00000138   -0.00000012
     atom   56 type  2   force =    -0.00000164   -0.00000019   -0.00000453
     atom   57 type  1   force =     0.00000581   -0.00000618    0.00000491
     atom   58 type  1   force =    -0.00000238   -0.00000344   -0.00000672
     atom   59 type  2   force =     0.00000096    0.00000081    0.00000140
     atom   60 type  2   force =     0.00000083   -0.00000141    0.00000140
     atom   61 type  1   force =     0.00000101   -0.00000129    0.00001037
     atom   62 type  1   force =    -0.00000166    0.00000616   -0.00000092
     atom   63 type  2   force =    -0.00000114   -0.00000100    0.00000115
     atom   64 type  2   force =    -0.00000137   -0.00000057    0.00000500
     atom   65 type  1   force =     0.00000407    0.00000009   -0.00001161
     atom   66 type  1   force =    -0.00000116   -0.00000518   -0.00000597
     atom   67 type  2   force =     0.00000006    0.00000147   -0.00000144
     atom   68 type  2   force =    -0.00000022   -0.00000143   -0.00000432
     atom   69 type  1   force =    -0.00000101    0.00000919   -0.00000022
     atom   70 type  1   force =    -0.00000125    0.00000203    0.00000434
     atom   71 type  2   force =     0.00000162    0.00000063    0.00000195
     atom   72 type  2   force =    -0.00000018    0.00000188    0.00000102

     Total force =     0.000522     Total SCF correction =     0.000051

     General routines

     Parallel routines

   This run was terminated on:   5:51:59  15Aug2025

   JOB DONE.
Note: The following floating-point exceptions are signalling: IEEE_INVALID_FLAG
Note: The following floating-point exceptions are signalling: IEEE_INVALID_FLAG
Note: The following floating-point exceptions are signalling: IEEE_INVALID_FLAG
Note: The following floating-point exceptions are signalling: IEEE_INVALID_FLAG
Note: The following floating-point exceptions are signalling: IEEE_DENORMAL
Note: The following floating-point exceptions are signalling: IEEE_DENORMAL
Note: The following floating-point exceptions are signalling: IEEE_DENORMAL