     Program PWSCF v.7.2 starts on 14Aug2025 at 12: 2: 9

     Reading input from /home/jvc/QEspresso7.2/ZnO_database/scripts/cell323.in/ZnO-3.34-1.45-323.in
Warning: card &CELL ignored
Warning: card / ignored
Warning: card &FCP ignored
Warning: card / ignored
Warning: card &RISM ignored
Warning: card / ignored

     Current dimensions of program PWSCF are:
     Max number of different atomic species (ntypx) = 10
     Max number of k-points (npk) =  40000
     Max angular momentum in pseudopotentials (lmaxx) =  4
     file Zn.upf: wavefunction(s)  3D renormalized
     Found identity + (  0.0000  0.0000  0.3333) symmetry
     This is a supercell, fractional translations are disabled

     K-points division:     npool     =       4
     R & G space division:  proc/nbgrp/npool/nimage =       8
     Subspace diagonalization in iterative solution of the eigenvalue problem:
     one sub-group per band group will be used

     Using Slab Decomposition

     bravais-lattice index     =            0
     lattice parameter (alat)  =      18.5365  a.u.
     unit-cell volume          =    5936.3583 (a.u.)^3
     number of atoms/cell      =           72
     number of atomic types    =            2
     number of electrons       =       648.00
     number of Kohn-Sham states=          324
     kinetic-energy cutoff     =      50.0000  Ry
     charge density cutoff     =     400.0000  Ry
     scf convergence threshold =      1.0E-08
     mixing beta               =       0.3000
     number of iterations used =            8  plain     mixing
     Exchange-correlation= PBE
                           (   1   4   3   4   0   0   0)

     celldm(1)=  18.536466  celldm(2)=   0.000000  celldm(3)=   0.000000
     celldm(4)=   0.000000  celldm(5)=   0.000000  celldm(6)=   0.000000

     crystal axes: (cart. coord. in units of alat)
               a(1) = (   1.000000   0.000000   0.000000 )
               a(2) = (  -0.333333   0.577350   0.000000 )
               a(3) = (   0.000000   0.000000   1.614358 )

     reciprocal axes: (cart. coord. in units 2 pi/alat)
               b(1) = (  1.000000  0.577350 -0.000000 )
               b(2) = (  0.000000  1.732051  0.000000 )
               b(3) = (  0.000000 -0.000000  0.619441 )

     PseudoPot. # 1 for Zn read from file:
     /home/jvc/QEspresso7.2/ZnO_database/pseudos/Zn.upf
     MD5 check sum: 7f56cabf9682ed8c977c2f7d0c5985c5
     Pseudo is Ultrasoft + core correction, Zval = 12.0
     Generated using &quot;atomic&quot; code by A. Dal Corso  v.6.2.2
     Using radial grid of 1201 points,  6 beta functions with:
                l(1) =   0
                l(2) =   0
                l(3) =   1
                l(4) =   1
                l(5) =   2
                l(6) =   2
     Q(r) pseudized with 0 coefficients

     PseudoPot. # 2 for O  read from file:
     /home/jvc/QEspresso7.2/ZnO_database/pseudos/O.upf
     MD5 check sum: 91400c9766925bcf19f520983a725ff0
     Pseudo is Ultrasoft + core correction, Zval =  6.0
     Generated using &quot;atomic&quot; code by A. Dal Corso  v.6.3MaX
     Using radial grid of 1095 points,  4 beta functions with:
                l(1) =   0
                l(2) =   0
                l(3) =   1
                l(4) =   1
     Q(r) pseudized with 0 coefficients

     atomic species   valence    mass     pseudopotential
        Zn            12.00    65.38000     Zn( 1.00)
        O              6.00    15.99900     O ( 1.00)

     No symmetry found

                                    s                        frac. trans.

      isym =  1     identity

 cryst.   s( 1) = (     1          0          0      )
                  (     0          1          0      )
                  (     0          0          1      )

 cart.    s( 1) = (  1.0000000  0.0000000  0.0000000 )
                  (  0.0000000  1.0000000  0.0000000 )
                  (  0.0000000  0.0000000  1.0000000 )

   Cartesian axes

     site n.     atom                  positions (alat units)
         1           Zn  tau(   1) = (   0.1666667   0.0962250   0.2694007  )
         2           Zn  tau(   2) = (   0.0000000   0.1924501   0.0003409  )
         3           O   tau(   3) = (   0.1666667   0.0962250   0.4733710  )
         4           O   tau(   4) = (   0.0000000   0.1924501   0.2043113  )
         5           Zn  tau(   5) = (   0.1666667   0.0962250   0.8075201  )
         6           Zn  tau(   6) = (   0.0000000   0.1924501   0.5384604  )
         7           O   tau(   7) = (   0.1666667   0.0962250   1.0114904  )
         8           O   tau(   8) = (   0.0000000   0.1924501   0.7424307  )
         9           Zn  tau(   9) = (   0.1666667   0.0962250   1.3456396  )
        10           Zn  tau(  10) = (   0.0000000   0.1924501   1.0765798  )
        11           O   tau(  11) = (   0.1666667   0.0962250   1.5496099  )
        12           O   tau(  12) = (   0.0000000   0.1924501   1.2805502  )
        13           Zn  tau(  13) = (   0.0000000   0.3849002   0.2694007  )
        14           Zn  tau(  14) = (  -0.1666667   0.4811252   0.0003409  )
        15           O   tau(  15) = (   0.0000000   0.3849002   0.4733710  )
        16           O   tau(  16) = (  -0.1666667   0.4811252   0.2043113  )
        17           Zn  tau(  17) = (   0.0000000   0.3849002   0.8075201  )
        18           Zn  tau(  18) = (  -0.1666667   0.4811252   0.5384604  )
        19           O   tau(  19) = (   0.0000000   0.3849002   1.0114904  )
        20           O   tau(  20) = (  -0.1666667   0.4811252   0.7424307  )
        21           Zn  tau(  21) = (   0.0000000   0.3849002   1.3456396  )
        22           Zn  tau(  22) = (  -0.1666667   0.4811252   1.0765798  )
        23           O   tau(  23) = (   0.0000000   0.3849002   1.5496099  )
        24           O   tau(  24) = (  -0.1666667   0.4811252   1.2805502  )
        25           Zn  tau(  25) = (   0.5000000   0.0962250   0.2694007  )
        26           Zn  tau(  26) = (   0.3333333   0.1924501   0.0003409  )
        27           O   tau(  27) = (   0.5000000   0.0962250   0.4733710  )
        28           O   tau(  28) = (   0.3333333   0.1924501   0.2043113  )
        29           Zn  tau(  29) = (   0.5000000   0.0962250   0.8075201  )
        30           Zn  tau(  30) = (   0.3333333   0.1924501   0.5384604  )
        31           O   tau(  31) = (   0.5000000   0.0962250   1.0114904  )
        32           O   tau(  32) = (   0.3333333   0.1924501   0.7424307  )
        33           Zn  tau(  33) = (   0.5000000   0.0962250   1.3456396  )
        34           Zn  tau(  34) = (   0.3333333   0.1924501   1.0765798  )
        35           O   tau(  35) = (   0.5000000   0.0962250   1.5496099  )
        36           O   tau(  36) = (   0.3333333   0.1924501   1.2805502  )
        37           Zn  tau(  37) = (   0.3333333   0.3849002   0.2694007  )
        38           Zn  tau(  38) = (   0.1666667   0.4811252   0.0003409  )
        39           O   tau(  39) = (   0.3333333   0.3849002   0.4733710  )
        40           O   tau(  40) = (   0.1666667   0.4811252   0.2043113  )
        41           Zn  tau(  41) = (   0.3333333   0.3849002   0.8075201  )
        42           Zn  tau(  42) = (   0.1666667   0.4811252   0.5384604  )
        43           O   tau(  43) = (   0.3333333   0.3849002   1.0114904  )
        44           O   tau(  44) = (   0.1666667   0.4811252   0.7424307  )
        45           Zn  tau(  45) = (   0.3333333   0.3849002   1.3456396  )
        46           Zn  tau(  46) = (   0.1666667   0.4811252   1.0765798  )
        47           O   tau(  47) = (   0.3333333   0.3849002   1.5496099  )
        48           O   tau(  48) = (   0.1666667   0.4811252   1.2805502  )
        49           Zn  tau(  49) = (   0.8333333   0.0962250   0.2694007  )
        50           Zn  tau(  50) = (   0.6666667   0.1924501   0.0003409  )
        51           O   tau(  51) = (   0.8333333   0.0962250   0.4733710  )
        52           O   tau(  52) = (   0.6666667   0.1924501   0.2043113  )
        53           Zn  tau(  53) = (   0.8333333   0.0962250   0.8075201  )
        54           Zn  tau(  54) = (   0.6666667   0.1924501   0.5384604  )
        55           O   tau(  55) = (   0.8333333   0.0962250   1.0114904  )
        56           O   tau(  56) = (   0.6666667   0.1924501   0.7424307  )
        57           Zn  tau(  57) = (   0.8333333   0.0962250   1.3456396  )
        58           Zn  tau(  58) = (   0.6666667   0.1924501   1.0765798  )
        59           O   tau(  59) = (   0.8333333   0.0962250   1.5496099  )
        60           O   tau(  60) = (   0.6666667   0.1924501   1.2805502  )
        61           Zn  tau(  61) = (   0.6666667   0.3849002   0.2694007  )
        62           Zn  tau(  62) = (   0.5000000   0.4811252   0.0003409  )
        63           O   tau(  63) = (   0.6666667   0.3849002   0.4733710  )
        64           O   tau(  64) = (   0.5000000   0.4811252   0.2043113  )
        65           Zn  tau(  65) = (   0.6666667   0.3849002   0.8075201  )
        66           Zn  tau(  66) = (   0.5000000   0.4811252   0.5384604  )
        67           O   tau(  67) = (   0.6666667   0.3849002   1.0114904  )
        68           O   tau(  68) = (   0.5000000   0.4811252   0.7424307  )
        69           Zn  tau(  69) = (   0.6666667   0.3849002   1.3456396  )
        70           Zn  tau(  70) = (   0.5000000   0.4811252   1.0765798  )
        71           O   tau(  71) = (   0.6666667   0.3849002   1.5496099  )
        72           O   tau(  72) = (   0.5000000   0.4811252   1.2805502  )

   Crystallographic axes

     site n.     atom                  positions (cryst. coord.)
         1           Zn  tau(   1) = (  0.2222222  0.1666667  0.1668779  )
         2           Zn  tau(   2) = (  0.1111111  0.3333333  0.0002112  )
         3           O   tau(   3) = (  0.2222222  0.1666667  0.2932255  )
         4           O   tau(   4) = (  0.1111111  0.3333333  0.1265588  )
         5           Zn  tau(   5) = (  0.2222222  0.1666667  0.5002112  )
         6           Zn  tau(   6) = (  0.1111111  0.3333333  0.3335445  )
         7           O   tau(   7) = (  0.2222222  0.1666667  0.6265588  )
         8           O   tau(   8) = (  0.1111111  0.3333333  0.4598921  )
         9           Zn  tau(   9) = (  0.2222222  0.1666667  0.8335445  )
        10           Zn  tau(  10) = (  0.1111111  0.3333333  0.6668779  )
        11           O   tau(  11) = (  0.2222222  0.1666667  0.9598921  )
        12           O   tau(  12) = (  0.1111111  0.3333333  0.7932255  )
        13           Zn  tau(  13) = (  0.2222222  0.6666667  0.1668779  )
        14           Zn  tau(  14) = (  0.1111111  0.8333333  0.0002112  )
        15           O   tau(  15) = (  0.2222222  0.6666667  0.2932255  )
        16           O   tau(  16) = (  0.1111111  0.8333333  0.1265588  )
        17           Zn  tau(  17) = (  0.2222222  0.6666667  0.5002112  )
        18           Zn  tau(  18) = (  0.1111111  0.8333333  0.3335445  )
        19           O   tau(  19) = (  0.2222222  0.6666667  0.6265588  )
        20           O   tau(  20) = (  0.1111111  0.8333333  0.4598921  )
[...]
     atom    9 type  1   force =     0.00000006    0.00000005    0.00046400
     atom   10 type  1   force =     0.00000000    0.00000007    0.00046395
     atom   11 type  2   force =     0.00000001   -0.00000000   -0.00006504
     atom   12 type  2   force =     0.00000001    0.00000000   -0.00006506
     atom   13 type  1   force =    -0.00000001    0.00000002    0.00046403
     atom   14 type  1   force =    -0.00000020    0.00000009    0.00046400
     atom   15 type  2   force =    -0.00000000   -0.00000001   -0.00006503
     atom   16 type  2   force =    -0.00000001    0.00000000   -0.00006504
     atom   17 type  1   force =     0.00000008   -0.00000012    0.00046410
     atom   18 type  1   force =     0.00000013    0.00000007    0.00046397
     atom   19 type  2   force =    -0.00000000   -0.00000001   -0.00006503
     atom   20 type  2   force =     0.00000001    0.00000000   -0.00006501
     atom   21 type  1   force =    -0.00000001   -0.00000003    0.00046384
     atom   22 type  1   force =     0.00000004   -0.00000004    0.00046392
     atom   23 type  2   force =    -0.00000000    0.00000000   -0.00006504
     atom   24 type  2   force =     0.00000000   -0.00000000   -0.00006505
     atom   25 type  1   force =     0.00000001   -0.00000000    0.00046388
     atom   26 type  1   force =     0.00000002   -0.00000002    0.00046392
     atom   27 type  2   force =    -0.00000001   -0.00000001   -0.00006503
     atom   28 type  2   force =    -0.00000000    0.00000000   -0.00006506
     atom   29 type  1   force =    -0.00000007   -0.00000002    0.00046399
     atom   30 type  1   force =    -0.00000010   -0.00000004    0.00046412
     atom   31 type  2   force =    -0.00000000    0.00000000   -0.00006501
     atom   32 type  2   force =    -0.00000001    0.00000001   -0.00006501
     atom   33 type  1   force =     0.00000004    0.00000013    0.00046398
     atom   34 type  1   force =    -0.00000003    0.00000005    0.00046407
     atom   35 type  2   force =     0.00000000    0.00000002   -0.00006505
     atom   36 type  2   force =     0.00000000   -0.00000001   -0.00006503
     atom   37 type  1   force =     0.00000004    0.00000003    0.00046391
     atom   38 type  1   force =     0.00000017    0.00000014    0.00046400
     atom   39 type  2   force =    -0.00000001    0.00000000   -0.00006503
     atom   40 type  2   force =     0.00000001    0.00000000   -0.00006504
     atom   41 type  1   force =     0.00000004   -0.00000000    0.00046403
     atom   42 type  1   force =    -0.00000010   -0.00000007    0.00046410
     atom   43 type  2   force =    -0.00000001   -0.00000001   -0.00006503
     atom   44 type  2   force =    -0.00000000   -0.00000002   -0.00006500
     atom   45 type  1   force =    -0.00000011   -0.00000016    0.00046404
     atom   46 type  1   force =    -0.00000004   -0.00000008    0.00046391
     atom   47 type  2   force =     0.00000001   -0.00000001   -0.00006503
     atom   48 type  2   force =     0.00000000    0.00000001   -0.00006505
     atom   49 type  1   force =    -0.00000003   -0.00000005    0.00046400
     atom   50 type  1   force =    -0.00000010    0.00000007    0.00046397
     atom   51 type  2   force =     0.00000002    0.00000000   -0.00006503
     atom   52 type  2   force =     0.00000000    0.00000000   -0.00006505
     atom   53 type  1   force =     0.00000011   -0.00000003    0.00046401
     atom   54 type  1   force =     0.00000010   -0.00000005    0.00046405
     atom   55 type  2   force =     0.00000000    0.00000001   -0.00006503
     atom   56 type  2   force =     0.00000001   -0.00000000   -0.00006500
     atom   57 type  1   force =    -0.00000011    0.00000021    0.00046391
     atom   58 type  1   force =     0.00000004    0.00000004    0.00046412
     atom   59 type  2   force =    -0.00000001   -0.00000000   -0.00006504
     atom   60 type  2   force =    -0.00000001    0.00000000   -0.00006504
     atom   61 type  1   force =    -0.00000004    0.00000001    0.00046388
     atom   62 type  1   force =     0.00000004   -0.00000011    0.00046402
     atom   63 type  2   force =     0.00000001    0.00000001   -0.00006504
     atom   64 type  2   force =     0.00000000    0.00000000   -0.00006505
     atom   65 type  1   force =    -0.00000012    0.00000002    0.00046409
     atom   66 type  1   force =    -0.00000002    0.00000010    0.00046413
     atom   67 type  2   force =     0.00000001   -0.00000001   -0.00006502
     atom   68 type  2   force =    -0.00000000    0.00000001   -0.00006500
     atom   69 type  1   force =     0.00000012   -0.00000021    0.00046407
     atom   70 type  1   force =     0.00000000   -0.00000002    0.00046379
     atom   71 type  2   force =    -0.00000001   -0.00000001   -0.00006503
     atom   72 type  2   force =    -0.00000000   -0.00000001   -0.00006504
     The Hubbard contrib.    to forces
     atom    1 type  1   force =     0.00000000    0.00000000    0.00000000
     atom    2 type  1   force =     0.00000000    0.00000000    0.00000000
     atom    3 type  2   force =     0.00000000    0.00000000    0.00000000
     atom    4 type  2   force =     0.00000000    0.00000000    0.00000000
     atom    5 type  1   force =     0.00000000    0.00000000    0.00000000
     atom    6 type  1   force =     0.00000000    0.00000000    0.00000000
     atom    7 type  2   force =     0.00000000    0.00000000    0.00000000
     atom    8 type  2   force =     0.00000000    0.00000000    0.00000000
     atom    9 type  1   force =     0.00000000    0.00000000    0.00000000
     atom   10 type  1   force =     0.00000000    0.00000000    0.00000000
     atom   11 type  2   force =     0.00000000    0.00000000    0.00000000
     atom   12 type  2   force =     0.00000000    0.00000000    0.00000000
     atom   13 type  1   force =     0.00000000    0.00000000    0.00000000
     atom   14 type  1   force =     0.00000000    0.00000000    0.00000000
     atom   15 type  2   force =     0.00000000    0.00000000    0.00000000
     atom   16 type  2   force =     0.00000000    0.00000000    0.00000000
     atom   17 type  1   force =     0.00000000    0.00000000    0.00000000
     atom   18 type  1   force =     0.00000000    0.00000000    0.00000000
     atom   19 type  2   force =     0.00000000    0.00000000    0.00000000
     atom   20 type  2   force =     0.00000000    0.00000000    0.00000000
     atom   21 type  1   force =     0.00000000    0.00000000    0.00000000
     atom   22 type  1   force =     0.00000000    0.00000000    0.00000000
     atom   23 type  2   force =     0.00000000    0.00000000    0.00000000
     atom   24 type  2   force =     0.00000000    0.00000000    0.00000000
     atom   25 type  1   force =     0.00000000    0.00000000    0.00000000
     atom   26 type  1   force =     0.00000000    0.00000000    0.00000000
     atom   27 type  2   force =     0.00000000    0.00000000    0.00000000
     atom   28 type  2   force =     0.00000000    0.00000000    0.00000000
     atom   29 type  1   force =     0.00000000    0.00000000    0.00000000
     atom   30 type  1   force =     0.00000000    0.00000000    0.00000000
     atom   31 type  2   force =     0.00000000    0.00000000    0.00000000
     atom   32 type  2   force =     0.00000000    0.00000000    0.00000000
     atom   33 type  1   force =     0.00000000    0.00000000    0.00000000
     atom   34 type  1   force =     0.00000000    0.00000000    0.00000000
     atom   35 type  2   force =     0.00000000    0.00000000    0.00000000
     atom   36 type  2   force =     0.00000000    0.00000000    0.00000000
     atom   37 type  1   force =     0.00000000    0.00000000    0.00000000
     atom   38 type  1   force =     0.00000000    0.00000000    0.00000000
     atom   39 type  2   force =     0.00000000    0.00000000    0.00000000
     atom   40 type  2   force =     0.00000000    0.00000000    0.00000000
     atom   41 type  1   force =     0.00000000    0.00000000    0.00000000
     atom   42 type  1   force =     0.00000000    0.00000000    0.00000000
     atom   43 type  2   force =     0.00000000    0.00000000    0.00000000
     atom   44 type  2   force =     0.00000000    0.00000000    0.00000000
     atom   45 type  1   force =     0.00000000    0.00000000    0.00000000
     atom   46 type  1   force =     0.00000000    0.00000000    0.00000000
     atom   47 type  2   force =     0.00000000    0.00000000    0.00000000
     atom   48 type  2   force =     0.00000000    0.00000000    0.00000000
     atom   49 type  1   force =     0.00000000    0.00000000    0.00000000
     atom   50 type  1   force =     0.00000000    0.00000000    0.00000000
     atom   51 type  2   force =     0.00000000    0.00000000    0.00000000
     atom   52 type  2   force =     0.00000000    0.00000000    0.00000000
     atom   53 type  1   force =     0.00000000    0.00000000    0.00000000
     atom   54 type  1   force =     0.00000000    0.00000000    0.00000000
     atom   55 type  2   force =     0.00000000    0.00000000    0.00000000
     atom   56 type  2   force =     0.00000000    0.00000000    0.00000000
     atom   57 type  1   force =     0.00000000    0.00000000    0.00000000
     atom   58 type  1   force =     0.00000000    0.00000000    0.00000000
     atom   59 type  2   force =     0.00000000    0.00000000    0.00000000
     atom   60 type  2   force =     0.00000000    0.00000000    0.00000000
     atom   61 type  1   force =     0.00000000    0.00000000    0.00000000
     atom   62 type  1   force =     0.00000000    0.00000000    0.00000000
     atom   63 type  2   force =     0.00000000    0.00000000    0.00000000
     atom   64 type  2   force =     0.00000000    0.00000000    0.00000000
     atom   65 type  1   force =     0.00000000    0.00000000    0.00000000
     atom   66 type  1   force =     0.00000000    0.00000000    0.00000000
     atom   67 type  2   force =     0.00000000    0.00000000    0.00000000
     atom   68 type  2   force =     0.00000000    0.00000000    0.00000000
     atom   69 type  1   force =     0.00000000    0.00000000    0.00000000
     atom   70 type  1   force =     0.00000000    0.00000000    0.00000000
     atom   71 type  2   force =     0.00000000    0.00000000    0.00000000
     atom   72 type  2   force =     0.00000000    0.00000000    0.00000000
     The SCF correction term to forces
     atom    1 type  1   force =    -0.00000362   -0.00000054   -0.00000290
     atom    2 type  1   force =     0.00000472   -0.00000833   -0.00000056
     atom    3 type  2   force =    -0.00000172    0.00000057    0.00000230
     atom    4 type  2   force =     0.00000030   -0.00000161   -0.00000099
     atom    5 type  1   force =    -0.00000269    0.00000950    0.00001047
     atom    6 type  1   force =     0.00000157    0.00000065    0.00000506
     atom    7 type  2   force =    -0.00000032    0.00000184    0.00000064
     atom    8 type  2   force =     0.00000105    0.00000096    0.00000683
     atom    9 type  1   force =     0.00000606    0.00000424   -0.00000254
     atom   10 type  1   force =    -0.00000019    0.00000556   -0.00000233
     atom   11 type  2   force =     0.00000131    0.00000033   -0.00000157
     atom   12 type  2   force =     0.00000005    0.00000191   -0.00000364
     atom   13 type  1   force =    -0.00000036   -0.00000107    0.00000127
     atom   14 type  1   force =    -0.00001023    0.00000438   -0.00000177
     atom   15 type  2   force =     0.00000016   -0.00000142    0.00000239
     atom   16 type  2   force =    -0.00000226    0.00000008   -0.00000228
     atom   17 type  1   force =     0.00000493   -0.00000778    0.00001475
     atom   18 type  1   force =     0.00000392    0.00000161   -0.00000136
     atom   19 type  2   force =     0.00000042   -0.00000167    0.00000098
     atom   20 type  2   force =     0.00000002   -0.00000017    0.00000672
     atom   21 type  1   force =    -0.00000108   -0.00000087   -0.00001293
     atom   22 type  1   force =     0.00000218   -0.00000472   -0.00000093
     atom   23 type  2   force =    -0.00000012    0.00000033   -0.00000241
     atom   24 type  2   force =     0.00000071   -0.00000128   -0.00000279
     atom   25 type  1   force =     0.00000085   -0.00000061   -0.00001151
     atom   26 type  1   force =     0.00000252    0.00000111   -0.00000737
     atom   27 type  2   force =    -0.00000079   -0.00000164    0.00000128
     atom   28 type  2   force =     0.00000005    0.00000058   -0.00000469
     atom   29 type  1   force =    -0.00000318   -0.00000050    0.00001216
     atom   30 type  1   force =    -0.00000984   -0.00000145    0.00000755
     atom   31 type  2   force =    -0.00000079    0.00000051    0.00000273
     atom   32 type  2   force =    -0.00000347    0.00000084    0.00000728
     atom   33 type  1   force =     0.00000175    0.00001169   -0.00000345
     atom   34 type  1   force =    -0.00000240    0.00000276    0.00000509
     atom   35 type  2   force =     0.00000043    0.00000375   -0.00000259
     atom   36 type  2   force =     0.00000137    0.00000070   -0.00000108
     atom   37 type  1   force =     0.00000035    0.00000167   -0.00001168
     atom   38 type  1   force =     0.00000744    0.00000418   -0.00000081
     atom   39 type  2   force =    -0.00000264   -0.00000047    0.00000249
     atom   40 type  2   force =     0.00000112   -0.00000036   -0.00000287
     atom   41 type  1   force =    -0.00000199   -0.00000252    0.00001276
     atom   42 type  1   force =    -0.00000576   -0.00000773    0.00000551
     atom   43 type  2   force =    -0.00000112   -0.00000157    0.00000079
     atom   44 type  2   force =    -0.00000097   -0.00000352    0.00000709
     atom   45 type  1   force =    -0.00000101   -0.00001155   -0.00000016
     atom   46 type  1   force =    -0.00000331   -0.00000638   -0.00000053
     atom   47 type  2   force =     0.00000250   -0.00000209   -0.00000168
     atom   48 type  2   force =    -0.00000091   -0.00000029   -0.00000317
     atom   49 type  1   force =     0.00000292   -0.00000141   -0.00000474
     atom   50 type  1   force =    -0.00000806    0.00000585   -0.00000546
     atom   51 type  2   force =     0.00000259    0.00000077    0.00000205
     atom   52 type  2   force =    -0.00000043    0.00000102   -0.00000515
     atom   53 type  1   force =     0.00000610    0.00000071    0.00001089
     atom   54 type  1   force =     0.00000841   -0.00000233    0.00000351
     atom   55 type  2   force =     0.00000157    0.00000188    0.00000027
     atom   56 type  2   force =     0.00000204    0.00000042    0.00000781
     atom   57 type  1   force =    -0.00000717    0.00001127   -0.00000562
     atom   58 type  1   force =     0.00000125    0.00000452    0.00000908
     atom   59 type  2   force =    -0.00000129   -0.00000023   -0.00000118
     atom   60 type  2   force =    -0.00000171    0.00000178   -0.00000089
     atom   61 type  1   force =     0.00000012    0.00000307   -0.00001244
     atom   62 type  1   force =     0.00000232   -0.00000906    0.00000018
     atom   63 type  2   force =     0.00000235    0.00000192    0.00000094
     atom   64 type  2   force =     0.00000107   -0.00000085   -0.00000474
     atom   65 type  1   force =    -0.00000252    0.00000181    0.00001593
     atom   66 type  1   force =     0.00000132    0.00000747    0.00000766
     atom   67 type  2   force =     0.00000085   -0.00000050    0.00000148
     atom   68 type  2   force =     0.00000038    0.00000090    0.00000733
     atom   69 type  1   force =     0.00000239   -0.00001421    0.00000008
     atom   70 type  1   force =     0.00000087   -0.00000317   -0.00000661
     atom   71 type  2   force =    -0.00000226   -0.00000215   -0.00000126
     atom   72 type  2   force =    -0.00000011   -0.00000274   -0.00000160

     Total force =     0.000525     Total SCF correction =     0.000069
     SCF correction compared to forces is large: reduce conv_thr to get better values

     General routines

     Parallel routines

   This run was terminated on:  12:46:53  14Aug2025

   JOB DONE.
Note: The following floating-point exceptions are signalling: IEEE_DENORMAL
Note: The following floating-point exceptions are signalling: IEEE_INVALID_FLAG
Note: The following floating-point exceptions are signalling: IEEE_INVALID_FLAG
Note: The following floating-point exceptions are signalling: IEEE_DENORMAL
Note: The following floating-point exceptions are signalling: IEEE_INVALID_FLAG
Note: The following floating-point exceptions are signalling: IEEE_DENORMAL
Note: The following floating-point exceptions are signalling: IEEE_INVALID_FLAG
Note: The following floating-point exceptions are signalling: IEEE_DENORMAL