     Program PWSCF v.7.2 starts on 16Jul2025 at 20:40: 2

     Reading input from /home/jvc/QEspresso7.2/ZnO_database/scripts/cell131.in/ZnO-3.40-1.52-131.in
Warning: card &CELL ignored
Warning: card / ignored
Warning: card &FCP ignored
Warning: card / ignored
Warning: card &RISM ignored
Warning: card / ignored

     Current dimensions of program PWSCF are:
     Max number of different atomic species (ntypx) = 10
     Max number of k-points (npk) =  40000
     Max angular momentum in pseudopotentials (lmaxx) =  4
     file Zn.upf: wavefunction(s)  3D renormalized
     Found identity + (  0.0000  0.3333  0.0000) symmetry
     This is a supercell, fractional translations are disabled
     Message from routine setup:
     using ibrav=0 with symmetry is DISCOURAGED, use correct ibrav instead

     K-points division:     npool     =       2
     R & G space division:  proc/nbgrp/npool/nimage =       8
     Subspace diagonalization in iterative solution of the eigenvalue problem:
     a serial algorithm will be used

     Using Slab Decomposition

     bravais-lattice index     =            0
     lattice parameter (alat)  =       6.1788  a.u.
     unit-cell volume          =     989.3930 (a.u.)^3
     number of atoms/cell      =           12
     number of atomic types    =            2
     number of electrons       =       108.00
     number of Kohn-Sham states=           54
     kinetic-energy cutoff     =      50.0000  Ry
     charge density cutoff     =     400.0000  Ry
     scf convergence threshold =      1.0E-08
     mixing beta               =       0.3000
     number of iterations used =            8  plain     mixing
     Exchange-correlation= PBE
                           (   1   4   3   4   0   0   0)

     celldm(1)=   6.178822  celldm(2)=   0.000000  celldm(3)=   0.000000
     celldm(4)=   0.000000  celldm(5)=   0.000000  celldm(6)=   0.000000

     crystal axes: (cart. coord. in units of alat)
               a(1) = (   1.000000   0.000000   0.000000 )
               a(2) = (  -1.500000   2.598076   0.000000 )
               a(3) = (   0.000000   0.000000   1.614358 )

     reciprocal axes: (cart. coord. in units 2 pi/alat)
               b(1) = (  1.000000  0.577350 -0.000000 )
               b(2) = (  0.000000  0.384900  0.000000 )
               b(3) = (  0.000000 -0.000000  0.619441 )

     PseudoPot. # 1 for Zn read from file:
     /home/jvc/QEspresso7.2/ZnO_database/pseudos/Zn.upf
     MD5 check sum: 7f56cabf9682ed8c977c2f7d0c5985c5
     Pseudo is Ultrasoft + core correction, Zval = 12.0
     Generated using &quot;atomic&quot; code by A. Dal Corso  v.6.2.2
     Using radial grid of 1201 points,  6 beta functions with:
                l(1) =   0
                l(2) =   0
                l(3) =   1
                l(4) =   1
                l(5) =   2
                l(6) =   2
     Q(r) pseudized with 0 coefficients

     PseudoPot. # 2 for O  read from file:
     /home/jvc/QEspresso7.2/ZnO_database/pseudos/O.upf
     MD5 check sum: 91400c9766925bcf19f520983a725ff0
     Pseudo is Ultrasoft + core correction, Zval =  6.0
     Generated using &quot;atomic&quot; code by A. Dal Corso  v.6.3MaX
     Using radial grid of 1095 points,  4 beta functions with:
                l(1) =   0
                l(2) =   0
                l(3) =   1
                l(4) =   1
     Q(r) pseudized with 0 coefficients

     atomic species   valence    mass     pseudopotential
        Zn            12.00    65.38000     Zn( 1.00)
        O              6.00    15.99900     O ( 1.00)

      2 Sym. Ops. (no inversion) found

                                    s                        frac. trans.

      isym =  1     identity

 cryst.   s( 1) = (     1          0          0      )
                  (     0          1          0      )
                  (     0          0          1      )

 cart.    s( 1) = (  1.0000000  0.0000000  0.0000000 )
                  (  0.0000000  1.0000000  0.0000000 )
                  (  0.0000000  0.0000000  1.0000000 )

      isym =  2     inv. 180 deg rotation - cart. axis [1,0,0]

 cryst.   s( 2) = (    -1          0          0      )
                  (     3          1          0      )
                  (     0          0          1      )

 cart.    s( 2) = ( -1.0000000  0.0000000  0.0000000 )
                  (  0.0000000  1.0000000  0.0000000 )
                  (  0.0000000  0.0000000  1.0000000 )

   Cartesian axes

     site n.     atom                  positions (alat units)
         1           Zn  tau(   1) = (   0.5000000   0.2886751   0.8082020  )
         2           Zn  tau(   2) = (   0.0000000   0.5773503   0.0010228  )
         3           O   tau(   3) = (   0.5000000   0.2886751   1.4201130  )
         4           O   tau(   4) = (   0.0000000   0.5773503   0.6129338  )
         5           Zn  tau(   5) = (   0.0000000   1.1547005   0.8082020  )
         6           Zn  tau(   6) = (  -0.5000000   1.4433757   0.0010228  )
         7           O   tau(   7) = (   0.0000000   1.1547005   1.4201130  )
         8           O   tau(   8) = (  -0.5000000   1.4433757   0.6129338  )
         9           Zn  tau(   9) = (  -0.5000000   2.0207259   0.8082020  )
        10           Zn  tau(  10) = (  -1.0000000   2.3094011   0.0010228  )
        11           O   tau(  11) = (  -0.5000000   2.0207259   1.4201130  )
        12           O   tau(  12) = (  -1.0000000   2.3094011   0.6129338  )

   Crystallographic axes

     site n.     atom                  positions (cryst. coord.)
         1           Zn  tau(   1) = (  0.6666667  0.1111111  0.5006336  )
         2           Zn  tau(   2) = (  0.3333333  0.2222222  0.0006336  )
         3           O   tau(   3) = (  0.6666667  0.1111111  0.8796764  )
         4           O   tau(   4) = (  0.3333333  0.2222222  0.3796764  )
         5           Zn  tau(   5) = (  0.6666667  0.4444444  0.5006336  )
         6           Zn  tau(   6) = (  0.3333333  0.5555556  0.0006336  )
         7           O   tau(   7) = (  0.6666667  0.4444444  0.8796764  )
         8           O   tau(   8) = (  0.3333333  0.5555556  0.3796764  )
         9           Zn  tau(   9) = (  0.6666667  0.7777778  0.5006336  )
        10           Zn  tau(  10) = (  0.3333333  0.8888889  0.0006336  )
        11           O   tau(  11) = (  0.6666667  0.7777778  0.8796764  )
        12           O   tau(  12) = (  0.3333333  0.8888889  0.3796764  )

     number of k points=    26
                       cart. coord. in units 2pi/alat
        k(    1) = (   0.0000000   0.0000000   0.0000000), wk =   0.0277778
        k(    2) = (   0.0000000   0.0000000   0.1032402), wk =   0.0555556
        k(    3) = (   0.0000000   0.0000000   0.2064804), wk =   0.0555556
        k(    4) = (   0.0000000   0.0000000  -0.3097206), wk =   0.0277778
        k(    5) = (   0.0000000  -0.1924501   0.0000000), wk =   0.0277778
        k(    6) = (   0.0000000  -0.1924501   0.1032402), wk =   0.0555556
        k(    7) = (   0.0000000  -0.1924501   0.2064804), wk =   0.0555556
        k(    8) = (   0.0000000  -0.1924501  -0.3097206), wk =   0.0277778
        k(    9) = (   0.1666667   0.0962250   0.0000000), wk =   0.1111111
        k(   10) = (   0.1666667   0.0962250   0.1032402), wk =   0.1111111
        k(   11) = (   0.1666667   0.0962250   0.2064804), wk =   0.1111111
        k(   12) = (   0.1666667   0.0962250  -0.3097206), wk =   0.1111111
        k(   13) = (   0.3333333   0.1924501   0.0000000), wk =   0.0555556
        k(   14) = (   0.3333333   0.1924501   0.1032402), wk =   0.1111111
        k(   15) = (   0.3333333   0.1924501   0.2064804), wk =   0.1111111
        k(   16) = (   0.3333333   0.1924501  -0.3097206), wk =   0.0555556
        k(   17) = (   0.3333333  -0.0000000   0.0000000), wk =   0.0555556
        k(   18) = (   0.3333333  -0.0000000   0.1032402), wk =   0.1111111
        k(   19) = (   0.3333333  -0.0000000   0.2064804), wk =   0.1111111
        k(   20) = (   0.3333333  -0.0000000  -0.3097206), wk =   0.0555556
        k(   21) = (  -0.5000000  -0.2886751   0.0000000), wk =   0.0555556
        k(   22) = (  -0.5000000  -0.2886751   0.1032402), wk =   0.1111111
        k(   23) = (  -0.5000000  -0.2886751   0.2064804), wk =   0.1111111
        k(   24) = (  -0.5000000  -0.2886751  -0.3097206), wk =   0.0555556
        k(   25) = (  -0.1666667   0.0962250  -0.1032402), wk =   0.1111111
        k(   26) = (  -0.1666667   0.0962250  -0.2064804), wk =   0.1111111

                       cryst. coord.
        k(    1) = (   0.0000000   0.0000000   0.0000000), wk =   0.0277778
        k(    2) = (   0.0000000   0.0000000   0.1666667), wk =   0.0555556
        k(    3) = (   0.0000000   0.0000000   0.3333333), wk =   0.0555556
        k(    4) = (   0.0000000   0.0000000  -0.5000000), wk =   0.0277778
        k(    5) = (   0.0000000  -0.5000000   0.0000000), wk =   0.0277778
        k(    6) = (   0.0000000  -0.5000000   0.1666667), wk =   0.0555556
        k(    7) = (   0.0000000  -0.5000000   0.3333333), wk =   0.0555556
        k(    8) = (   0.0000000  -0.5000000  -0.5000000), wk =   0.0277778
        k(    9) = (   0.1666667   0.0000000   0.0000000), wk =   0.1111111
        k(   10) = (   0.1666667   0.0000000   0.1666667), wk =   0.1111111
        k(   11) = (   0.1666667   0.0000000   0.3333333), wk =   0.1111111
        k(   12) = (   0.1666667   0.0000000  -0.5000000), wk =   0.1111111
        k(   13) = (   0.3333333   0.0000000   0.0000000), wk =   0.0555556
        k(   14) = (   0.3333333   0.0000000   0.1666667), wk =   0.1111111
        k(   15) = (   0.3333333   0.0000000   0.3333333), wk =   0.1111111
        k(   16) = (   0.3333333   0.0000000  -0.5000000), wk =   0.0555556
        k(   17) = (   0.3333333  -0.5000000   0.0000000), wk =   0.0555556
        k(   18) = (   0.3333333  -0.5000000   0.1666667), wk =   0.1111111
        k(   19) = (   0.3333333  -0.5000000   0.3333333), wk =   0.1111111
        k(   20) = (   0.3333333  -0.5000000  -0.5000000), wk =   0.0555556
        k(   21) = (  -0.5000000  -0.0000000   0.0000000), wk =   0.0555556
        k(   22) = (  -0.5000000  -0.0000000   0.1666667), wk =   0.1111111
        k(   23) = (  -0.5000000  -0.0000000   0.3333333), wk =   0.1111111
        k(   24) = (  -0.5000000  -0.0000000  -0.5000000), wk =   0.0555556
        k(   25) = (  -0.1666667   0.5000000  -0.1666667), wk =   0.1111111
        k(   26) = (  -0.1666667   0.5000000  -0.3333333), wk =   0.1111111

     Check: negative core charge=   -0.000002

     Initial potential from superposition of free atoms

     starting charge     107.9776, renormalised to     108.0000
     Starting wfcs are   78 randomized atomic wfcs

     Self-consistent Calculation

     iteration #  1     ecut=    50.00 Ry     beta= 0.30
     Davidson diagonalization with overlap

     ethr =  1.00E-02,  avg # of iterations =  2.0

     total energy              =   -1084.43742914 Ry
     estimated scf accuracy    <       2.07969472 Ry

[...]

     c_bands:  1 eigenvalues not converged
     ethr =  1.11E-10,  avg # of iterations = 14.2

[...]

     total energy              =   -1084.91066369 Ry
     estimated scf accuracy    <       0.00000002 Ry

     iteration # 36     ecut=    50.00 Ry     beta= 0.30
     Davidson diagonalization with overlap

     ethr =  1.44E-11,  avg # of iterations =  3.7

     End of self-consistent calculation

          k = 0.0000 0.0000 0.0000 (  5905 PWs)   bands (ev):

   -10.9985 -10.5470 -10.5470 -10.3182 -10.1575 -10.1574   1.0419   1.0419
     1.3159   1.3159   1.3565   1.3780   1.3780   1.4392   1.5014   1.5014
     1.5195   1.5196   1.7197   1.7197   1.9005   1.9005   2.0312   2.0312
     2.3484   2.3484   2.4282   2.4282   2.4988   2.4988   2.6248   2.6248
     2.6552   2.6552   2.8130   2.8131   2.8918   3.0837   3.0838   3.7941
     3.7941   4.6506   4.6506   5.0972   5.0972   6.0931   6.0931   6.1251
     6.1251   6.3016   6.3016   6.8049   6.8873   6.8873

     occupation numbers
     1.0000   1.0000   1.0000   1.0000   1.0000   1.0000   1.0000   1.0000
     1.0000   1.0000   1.0000   1.0000   1.0000   1.0000   1.0000   1.0000
     1.0000   1.0000   1.0000   1.0000   1.0000   1.0000   1.0000   1.0000
     1.0000   1.0000   1.0000   1.0000   1.0000   1.0000   1.0000   1.0000
     1.0000   1.0000   1.0000   1.0000   1.0000   1.0000   1.0000   1.0000
     1.0000   1.0000   1.0000   1.0000   1.0000   1.0000   1.0000   1.0000
     1.0000   1.0000   1.0000   1.0000   1.0000   1.0000

[...]

          k = 0.3333-0.0000-0.3097 (  5916 PWs)   bands (ev):

[...]

          k =-0.5000-0.2887 0.0000 (  5910 PWs)   bands (ev):

[...]

          k =-0.1667 0.0962-0.2065 (  5905 PWs)   bands (ev):

   -10.7128 -10.5179 -10.4121 -10.2962 -10.2905 -10.1859   1.0368   1.0820
     1.1038   1.1268   1.1443   1.1968   1.4331   1.4425   1.5169   1.5220
     1.5381   1.5437   1.5839   1.6853   1.7338   1.7417   1.8904   1.9133
     2.4609   2.4695   2.4884   2.4958   2.5183   2.5677   2.5935   2.6056
     2.6172   2.6725   2.6913   2.8116   3.2568   3.5916   3.8659   3.9343
     4.4657   4.5350   4.9825   5.0817   5.1229   5.3664   5.3813   5.5974
     5.8447   5.9570   6.0234   6.0904   6.2837   6.4800

     occupation numbers
     1.0000   1.0000   1.0000   1.0000   1.0000   1.0000   1.0000   1.0000
     1.0000   1.0000   1.0000   1.0000   1.0000   1.0000   1.0000   1.0000
     1.0000   1.0000   1.0000   1.0000   1.0000   1.0000   1.0000   1.0000
     1.0000   1.0000   1.0000   1.0000   1.0000   1.0000   1.0000   1.0000
     1.0000   1.0000   1.0000   1.0000   1.0000   1.0000   1.0000   1.0000
     1.0000   1.0000   1.0000   1.0000   1.0000   1.0000   1.0000   1.0000
     1.0000   1.0000   1.0000   1.0000   1.0000   1.0000

     highest occupied level (ev):     6.8873

!    total energy              =   -1084.91066370 Ry
     estimated scf accuracy    <          1.7E-09 Ry

     The total energy is the sum of the following terms:
     one-electron contribution =    -463.57526859 Ry
     hartree contribution      =     354.86696236 Ry
     xc contribution           =    -328.63816151 Ry
     ewald contribution        =    -647.56419596 Ry

     convergence has been achieved in  36 iterations

     Forces acting on atoms (cartesian axes, Ry/au):

     atom    1 type  1   force =     0.00000000   -0.00000008    0.00005844
     atom    2 type  1   force =     0.00000000    0.00000562    0.00006267
     atom    3 type  2   force =     0.00000000    0.00000377   -0.00006350
     atom    4 type  2   force =     0.00000000    0.00000299   -0.00005985
     atom    5 type  1   force =     0.00000000    0.00000144    0.00006027
     atom    6 type  1   force =     0.00000000   -0.00000429    0.00006175
     atom    7 type  2   force =     0.00000000   -0.00000138   -0.00006180
     atom    8 type  2   force =     0.00000000   -0.00000283   -0.00005891
     atom    9 type  1   force =     0.00000000   -0.00000245    0.00005989
     atom   10 type  1   force =     0.00000000   -0.00000073    0.00006426
     atom   11 type  2   force =     0.00000000   -0.00000080   -0.00006153
     atom   12 type  2   force =     0.00000000   -0.00000127   -0.00006170
     The non-local contrib.  to forces
     atom    1 type  1   force =     0.00000000   -0.00000272   -0.00483365
     atom    2 type  1   force =     0.00000000   -0.00000514   -0.00483070
     atom    3 type  2   force =     0.00000000    0.00000003    0.00575335
     atom    4 type  2   force =     0.00000000   -0.00000433    0.00575471
     atom    5 type  1   force =     0.00000000    0.00000008   -0.00483636
     atom    6 type  1   force =     0.00000000    0.00000451   -0.00483187
     atom    7 type  2   force =     0.00000000    0.00000010    0.00575327
     atom    8 type  2   force =     0.00000000    0.00000118    0.00575509
     atom    9 type  1   force =     0.00000000    0.00000099   -0.00483268
     atom   10 type  1   force =     0.00000000    0.00000293   -0.00483482
     atom   11 type  2   force =     0.00000000    0.00000276    0.00575455
     atom   12 type  2   force =     0.00000000    0.00000181    0.00575432
     The ionic contribution  to forces
     atom    1 type  1   force =     0.00000000    0.00000001    0.06271747
     atom    2 type  1   force =    -0.00000000    0.00000001    0.06271747
     atom    3 type  2   force =     0.00000000    0.00000000   -0.06271747
     atom    4 type  2   force =    -0.00000000    0.00000001   -0.06271747
     atom    5 type  1   force =    -0.00000001    0.00000001    0.06271747
     atom    6 type  1   force =     0.00000001   -0.00000001    0.06271747
     atom    7 type  2   force =    -0.00000000    0.00000000   -0.06271747
     atom    8 type  2   force =     0.00000000   -0.00000000   -0.06271747
     atom    9 type  1   force =     0.00000000   -0.00000001    0.06271747
     atom   10 type  1   force =    -0.00000000   -0.00000001    0.06271747
     atom   11 type  2   force =     0.00000000   -0.00000001   -0.06271747
     atom   12 type  2   force =    -0.00000000   -0.00000000   -0.06271747
     The local contribution  to forces
     atom    1 type  1   force =    -0.00000004    0.00000347   -0.05828569
     atom    2 type  1   force =     0.00000000    0.00000432   -0.05829249
     atom    3 type  2   force =    -0.00000001    0.00000418    0.05696431
     atom    4 type  2   force =     0.00000000    0.00000803    0.05697018
     atom    5 type  1   force =    -0.00000009   -0.00000079   -0.05828297
     atom    6 type  1   force =     0.00000009   -0.00000379   -0.05829075
     atom    7 type  2   force =    -0.00000002    0.00000035    0.05696531
     atom    8 type  2   force =     0.00000002   -0.00000593    0.05696944
     atom    9 type  1   force =    -0.00000000   -0.00000033   -0.05828763
     atom   10 type  1   force =     0.00000004   -0.00000332   -0.05828689
     atom   11 type  2   force =    -0.00000000   -0.00000222    0.05696678
     atom   12 type  2   force =     0.00000001   -0.00000404    0.05696668
     The core correction contribution to forces
     atom    1 type  1   force =    -0.00000001    0.00000005    0.00046403
     atom    2 type  1   force =    -0.00000000   -0.00000011    0.00046404
     atom    3 type  2   force =     0.00000000    0.00000001   -0.00006502
     atom    4 type  2   force =     0.00000000    0.00000008   -0.00006502
     atom    5 type  1   force =    -0.00000001   -0.00000002    0.00046394
     atom    6 type  1   force =     0.00000001    0.00000008    0.00046407
     atom    7 type  2   force =     0.00000000    0.00000000   -0.00006501
     atom    8 type  2   force =    -0.00000000   -0.00000003   -0.00006503
     atom    9 type  1   force =     0.00000000    0.00000002    0.00046403
     atom   10 type  1   force =     0.00000001   -0.00000007    0.00046400
     atom   11 type  2   force =    -0.00000000   -0.00000004   -0.00006503
     atom   12 type  2   force =    -0.00000000   -0.00000004   -0.00006503
     The Hubbard contrib.    to forces
     atom    1 type  1   force =     0.00000000    0.00000000    0.00000000
     atom    2 type  1   force =     0.00000000    0.00000000    0.00000000
     atom    3 type  2   force =     0.00000000    0.00000000    0.00000000
     atom    4 type  2   force =     0.00000000    0.00000000    0.00000000
     atom    5 type  1   force =     0.00000000    0.00000000    0.00000000
     atom    6 type  1   force =     0.00000000    0.00000000    0.00000000
     atom    7 type  2   force =     0.00000000    0.00000000    0.00000000
     atom    8 type  2   force =     0.00000000    0.00000000    0.00000000
     atom    9 type  1   force =     0.00000000    0.00000000    0.00000000
     atom   10 type  1   force =     0.00000000    0.00000000    0.00000000
     atom   11 type  2   force =     0.00000000    0.00000000    0.00000000
     atom   12 type  2   force =     0.00000000    0.00000000    0.00000000
     The SCF correction term to forces
     atom    1 type  1   force =     0.00000000   -0.00000075   -0.00000489
     atom    2 type  1   force =     0.00000000    0.00000668    0.00000319
     atom    3 type  2   force =    -0.00000000   -0.00000031    0.00000017
     atom    4 type  2   force =    -0.00000000   -0.00000065   -0.00000341
     atom    5 type  1   force =     0.00000000    0.00000230   -0.00000297
     atom    6 type  1   force =    -0.00000000   -0.00000494    0.00000166
     atom    7 type  2   force =     0.00000000   -0.00000170    0.00000092
     atom    8 type  2   force =     0.00000000    0.00000210   -0.00000211
     atom    9 type  1   force =    -0.00000000   -0.00000299   -0.00000247
     atom   10 type  1   force =    -0.00000000   -0.00000012    0.00000333
     atom   11 type  2   force =     0.00000000   -0.00000115   -0.00000152
     atom   12 type  2   force =     0.00000000    0.00000113   -0.00000136

     Total force =     0.000212     Total SCF correction =     0.000013

     General routines

     Parallel routines

   This run was terminated on:  20:43:28  16Jul2025

   JOB DONE.
Note: The following floating-point exceptions are signalling: IEEE_INVALID_FLAG
Note: The following floating-point exceptions are signalling: IEEE_INVALID_FLAG