     Program PWSCF v.7.0 starts on 27Aug2025 at 15: 7:21

     K-points division:     npool     =      17

     Reading input from /home/jvc/QEspresso7.2/ZnO_database/scripts/cell113.in/ZnO-3.20-1.68-113.in
Warning: card &CELL ignored
Warning: card / ignored
Warning: card &FCP ignored
Warning: card / ignored
Warning: card &RISM ignored
Warning: card / ignored

     Current dimensions of program PWSCF are:
     Max number of different atomic species (ntypx) = 10
     Max number of k-points (npk) =  40000
     Max angular momentum in pseudopotentials (lmaxx) =  4
     file Zn.upf: wavefunction(s)  3D renormalized
     Found identity + (  0.0000  0.0000  0.3333) symmetry
     This is a supercell, fractional translations are disabled
     Message from routine setup:
     using ibrav=0 with symmetry is DISCOURAGED, use correct ibrav instead

     Subspace diagonalization in iterative solution of the eigenvalue problem:
     a serial algorithm will be used

     Using Slab Decomposition

     bravais-lattice index     =            0
     lattice parameter (alat)  =       6.0553  a.u.
     unit-cell volume          =     968.4723 (a.u.)^3
     number of atoms/cell      =           12
     number of atomic types    =            2
     number of electrons       =       108.00
     number of Kohn-Sham states=           54
     kinetic-energy cutoff     =      50.0000  Ry
     charge density cutoff     =     400.0000  Ry
     scf convergence threshold =      1.0E-08
     mixing beta               =       0.3000
     number of iterations used =            8  plain     mixing
     Exchange-correlation= PBE
                           (   1   4   3   4   0   0   0)

     celldm(1)=   6.055277  celldm(2)=   0.000000  celldm(3)=   0.000000
     celldm(4)=   0.000000  celldm(5)=   0.000000  celldm(6)=   0.000000

     crystal axes: (cart. coord. in units of alat)
               a(1) = (   1.000000   0.000000   0.000000 )
               a(2) = (  -0.500000   0.866025   0.000000 )
               a(3) = (   0.000000   0.000000   5.036798 )

     reciprocal axes: (cart. coord. in units 2 pi/alat)
               b(1) = (  1.000000  0.577350 -0.000000 )
               b(2) = (  0.000000  1.154701  0.000000 )
               b(3) = (  0.000000 -0.000000  0.198539 )

     PseudoPot. # 1 for Zn read from file:
     /home/jvc/QEspresso7.2/ZnO_database/pseudos/Zn.upf
     MD5 check sum: 7f56cabf9682ed8c977c2f7d0c5985c5
     Pseudo is Ultrasoft + core correction, Zval = 12.0
     Generated using &quot;atomic&quot; code by A. Dal Corso  v.6.2.2
     Using radial grid of 1201 points,  6 beta functions with:
                l(1) =   0
                l(2) =   0
                l(3) =   1
                l(4) =   1
                l(5) =   2
                l(6) =   2
     Q(r) pseudized with 0 coefficients

     PseudoPot. # 2 for O  read from file:
     /home/jvc/QEspresso7.2/ZnO_database/pseudos/O.upf
     MD5 check sum: 91400c9766925bcf19f520983a725ff0
     Pseudo is Ultrasoft + core correction, Zval =  6.0
     Generated using &quot;atomic&quot; code by A. Dal Corso  v.6.3MaX
     Using radial grid of 1095 points,  4 beta functions with:
                l(1) =   0
                l(2) =   0
                l(3) =   1
                l(4) =   1
     Q(r) pseudized with 0 coefficients

     atomic species   valence    mass     pseudopotential
        Zn            12.00    65.38000     Zn( 1.00)
        O              6.00    15.99900     O ( 1.00)

      6 Sym. Ops. (no inversion) found

                                    s                        frac. trans.

      isym =  1     identity

 cryst.   s( 1) = (     1          0          0      )
                  (     0          1          0      )
                  (     0          0          1      )

 cart.    s( 1) = (  1.0000000  0.0000000  0.0000000 )
                  (  0.0000000  1.0000000  0.0000000 )
                  (  0.0000000  0.0000000  1.0000000 )

      isym =  2     120 deg rotation - cryst. axis [0,0,1]

[...]

      isym =  3     120 deg rotation - cryst. axis [0,0,-1]

[...]

      isym =  4     inv. 180 deg rotation - cart. axis [1,0,0]

[...]

      isym =  5     inv. 180 deg rotation - cryst. axis [0,1,0]

[...]

      isym =  6     inv. 180 deg rotation - cryst. axis [1,1,0]

 cryst.   s( 6) = (     0         -1          0      )
                  (    -1          0          0      )
                  (     0          0          1      )

 cart.    s( 6) = (  0.5000000 -0.8660254  0.0000000 )
                  ( -0.8660254 -0.5000000  0.0000000 )
                  (  0.0000000  0.0000000  1.0000000 )

   Cartesian axes

     site n.     atom                  positions (alat units)
         1           Zn  tau(   1) = (   0.5000000   0.2886751   0.8405301  )
         2           Zn  tau(   2) = (  -0.0000000   0.5773503   0.0010637  )
         3           O   tau(   3) = (   0.5000000   0.2886751   1.4769175  )
         4           O   tau(   4) = (  -0.0000000   0.5773503   0.6374511  )
         5           Zn  tau(   5) = (   0.5000000   0.2886751   2.5194628  )
         6           Zn  tau(   6) = (  -0.0000000   0.5773503   1.6799964  )
         7           O   tau(   7) = (   0.5000000   0.2886751   3.1558502  )
         8           O   tau(   8) = (  -0.0000000   0.5773503   2.3163838  )
         9           Zn  tau(   9) = (   0.5000000   0.2886751   4.1983955  )
        10           Zn  tau(  10) = (  -0.0000000   0.5773503   3.3589291  )
        11           O   tau(  11) = (   0.5000000   0.2886751   4.8347829  )
        12           O   tau(  12) = (  -0.0000000   0.5773503   3.9953165  )

   Crystallographic axes

     site n.     atom                  positions (cryst. coord.)
         1           Zn  tau(   1) = (  0.6666667  0.3333333  0.1668779  )
         2           Zn  tau(   2) = (  0.3333333  0.6666667  0.0002112  )
         3           O   tau(   3) = (  0.6666667  0.3333333  0.2932255  )
         4           O   tau(   4) = (  0.3333333  0.6666667  0.1265588  )
         5           Zn  tau(   5) = (  0.6666667  0.3333333  0.5002112  )
         6           Zn  tau(   6) = (  0.3333333  0.6666667  0.3335445  )
         7           O   tau(   7) = (  0.6666667  0.3333333  0.6265588  )
         8           O   tau(   8) = (  0.3333333  0.6666667  0.4598921  )
         9           Zn  tau(   9) = (  0.6666667  0.3333333  0.8335445  )
        10           Zn  tau(  10) = (  0.3333333  0.6666667  0.6668779  )
        11           O   tau(  11) = (  0.6666667  0.3333333  0.9598921  )
        12           O   tau(  12) = (  0.3333333  0.6666667  0.7932255  )

     number of k points=    34
                       cart. coord. in units 2pi/alat
        k(    1) = (   0.0000000   0.0000000   0.0000000), wk =   0.0092593
        k(    2) = (   0.0000000   0.0000000   0.0330898), wk =   0.0185185
        k(    3) = (   0.0000000   0.0000000   0.0661796), wk =   0.0185185
        k(    4) = (   0.0000000   0.0000000  -0.0992694), wk =   0.0092593
        k(    5) = (   0.0000000   0.1924501   0.0000000), wk =   0.0555556
        k(    6) = (   0.0000000   0.1924501   0.0330898), wk =   0.0555556
        k(    7) = (   0.0000000   0.1924501   0.0661796), wk =   0.0555556
        k(    8) = (   0.0000000   0.1924501  -0.0992694), wk =   0.0555556
        k(    9) = (   0.0000000   0.3849002   0.0000000), wk =   0.0555556
        k(   10) = (   0.0000000   0.3849002   0.0330898), wk =   0.0555556
        k(   11) = (   0.0000000   0.3849002   0.0661796), wk =   0.0555556
        k(   12) = (   0.0000000   0.3849002  -0.0992694), wk =   0.0555556
        k(   13) = (   0.0000000  -0.5773503   0.0000000), wk =   0.0277778
        k(   14) = (   0.0000000  -0.5773503   0.0330898), wk =   0.0555556
        k(   15) = (   0.0000000  -0.5773503   0.0661796), wk =   0.0555556
        k(   16) = (   0.0000000  -0.5773503  -0.0992694), wk =   0.0277778
        k(   17) = (   0.1666667   0.2886751   0.0000000), wk =   0.0555556
        k(   18) = (   0.1666667   0.2886751   0.0330898), wk =   0.1111111
        k(   19) = (   0.1666667   0.2886751   0.0661796), wk =   0.1111111
        k(   20) = (   0.1666667   0.2886751  -0.0992694), wk =   0.0555556
        k(   21) = (   0.1666667   0.4811252   0.0000000), wk =   0.1111111
        k(   22) = (   0.1666667   0.4811252   0.0330898), wk =   0.1111111
        k(   23) = (   0.1666667   0.4811252   0.0661796), wk =   0.1111111
        k(   24) = (   0.1666667   0.4811252  -0.0992694), wk =   0.1111111
        k(   25) = (   0.3333333   0.5773503   0.0000000), wk =   0.0185185
        k(   26) = (   0.3333333   0.5773503   0.0330898), wk =   0.0370370
        k(   27) = (   0.3333333   0.5773503   0.0661796), wk =   0.0370370
        k(   28) = (   0.3333333   0.5773503  -0.0992694), wk =   0.0185185
        k(   29) = (   0.0000000  -0.1924501   0.0330898), wk =   0.0555556
        k(   30) = (   0.0000000  -0.1924501   0.0661796), wk =   0.0555556
        k(   31) = (   0.0000000  -0.3849002   0.0330898), wk =   0.0555556
        k(   32) = (   0.0000000  -0.3849002   0.0661796), wk =   0.0555556
        k(   33) = (  -0.1666667  -0.4811252   0.0330898), wk =   0.1111111
        k(   34) = (  -0.1666667  -0.4811252   0.0661796), wk =   0.1111111

                       cryst. coord.
        k(    1) = (   0.0000000   0.0000000   0.0000000), wk =   0.0092593
        k(    2) = (   0.0000000   0.0000000   0.1666667), wk =   0.0185185
        k(    3) = (   0.0000000   0.0000000   0.3333333), wk =   0.0185185
        k(    4) = (   0.0000000   0.0000000  -0.5000000), wk =   0.0092593
        k(    5) = (   0.0000000   0.1666667   0.0000000), wk =   0.0555556
        k(    6) = (   0.0000000   0.1666667   0.1666667), wk =   0.0555556
        k(    7) = (   0.0000000   0.1666667   0.3333333), wk =   0.0555556
        k(    8) = (   0.0000000   0.1666667  -0.5000000), wk =   0.0555556
        k(    9) = (   0.0000000   0.3333333   0.0000000), wk =   0.0555556
        k(   10) = (   0.0000000   0.3333333   0.1666667), wk =   0.0555556
        k(   11) = (   0.0000000   0.3333333   0.3333333), wk =   0.0555556
        k(   12) = (   0.0000000   0.3333333  -0.5000000), wk =   0.0555556
        k(   13) = (   0.0000000  -0.5000000   0.0000000), wk =   0.0277778
        k(   14) = (   0.0000000  -0.5000000   0.1666667), wk =   0.0555556
        k(   15) = (   0.0000000  -0.5000000   0.3333333), wk =   0.0555556
        k(   16) = (   0.0000000  -0.5000000  -0.5000000), wk =   0.0277778
        k(   17) = (   0.1666667   0.1666667   0.0000000), wk =   0.0555556
        k(   18) = (   0.1666667   0.1666667   0.1666667), wk =   0.1111111
        k(   19) = (   0.1666667   0.1666667   0.3333333), wk =   0.1111111
        k(   20) = (   0.1666667   0.1666667  -0.5000000), wk =   0.0555556
        k(   21) = (   0.1666667   0.3333333   0.0000000), wk =   0.1111111
        k(   22) = (   0.1666667   0.3333333   0.1666667), wk =   0.1111111
        k(   23) = (   0.1666667   0.3333333   0.3333333), wk =   0.1111111
        k(   24) = (   0.1666667   0.3333333  -0.5000000), wk =   0.1111111
        k(   25) = (   0.3333333   0.3333333   0.0000000), wk =   0.0185185
        k(   26) = (   0.3333333   0.3333333   0.1666667), wk =   0.0370370
        k(   27) = (   0.3333333   0.3333333   0.3333333), wk =   0.0370370
        k(   28) = (   0.3333333   0.3333333  -0.5000000), wk =   0.0185185
        k(   29) = (   0.0000000  -0.1666667   0.1666667), wk =   0.0555556
        k(   30) = (   0.0000000  -0.1666667   0.3333333), wk =   0.0555556
        k(   31) = (   0.0000000  -0.3333333   0.1666667), wk =   0.0555556
        k(   32) = (   0.0000000  -0.3333333   0.3333333), wk =   0.0555556
        k(   33) = (  -0.1666667  -0.3333333   0.1666667), wk =   0.1111111
        k(   34) = (  -0.1666667  -0.3333333   0.3333333), wk =   0.1111111

     Check: negative core charge=   -0.000002

     Initial potential from superposition of free atoms

     starting charge     107.9776, renormalised to     108.0000
     Starting wfcs are   78 randomized atomic wfcs

     Self-consistent Calculation

     iteration #  1     ecut=    50.00 Ry     beta= 0.30
     Davidson diagonalization with overlap

     ethr =  1.00E-02,  avg # of iterations =  2.0

     total energy              =   -1084.43415453 Ry
     estimated scf accuracy    <       2.06123279 Ry

[...]

     total energy              =   -1084.89917562 Ry
     estimated scf accuracy    <       0.00000002 Ry

     iteration # 26     ecut=    50.00 Ry     beta= 0.30
     Davidson diagonalization with overlap

     ethr =  1.79E-11,  avg # of iterations =  2.4

     End of self-consistent calculation

          k = 0.0000 0.0000 0.0000 (  5781 PWs)   bands (ev):

   -10.8578 -10.7024 -10.7024 -10.3774 -10.3774 -10.2073   1.3384   1.3384
     1.4219   1.4219   1.5042   1.5042   1.5074   1.5347   1.5347   1.5347
     1.5347   1.5646   1.6196   1.6196   1.6196   1.6196   1.6754   1.6754
     2.7180   2.7180   2.7741   2.7741   2.7741   2.7741   2.8655   2.8655
     2.8655   2.8655   2.8992   2.8992   3.2156   4.0994   4.0994   5.6808
     5.6808   6.5518   6.5518   6.7272   6.7272   6.7272   6.7272   7.0511
     7.0747   7.0747   7.0747   7.0747   7.2466   7.2466

     occupation numbers
     1.0000   1.0000   1.0000   1.0000   1.0000   1.0000   1.0000   1.0000
     1.0000   1.0000   1.0000   1.0000   1.0000   1.0000   1.0000   1.0000
     1.0000   1.0000   1.0000   1.0000   1.0000   1.0000   1.0000   1.0000
     1.0000   1.0000   1.0000   1.0000   1.0000   1.0000   1.0000   1.0000
     1.0000   1.0000   1.0000   1.0000   1.0000   1.0000   1.0000   1.0000
     1.0000   1.0000   1.0000   1.0000   1.0000   1.0000   1.0000   1.0000
     1.0000   1.0000   1.0000   1.0000   1.0000   1.0000

[...]

          k = 0.0000-0.3849 0.0662 (  5790 PWs)   bands (ev):

[...]

          k =-0.1667-0.4811 0.0331 (  5792 PWs)   bands (ev):

[...]

          k =-0.1667-0.4811 0.0662 (  5780 PWs)   bands (ev):

   -10.1591 -10.1394 -10.0743 -10.0379  -9.9790  -9.9626   1.2806   1.3099
     1.3366   1.3697   1.4947   1.5837   1.7823   1.7824   1.8505   1.9107
     2.0082   2.0366   2.1050   2.1132   2.1833   2.1968   2.2406   2.2685
     2.6687   2.7099   2.7989   2.8203   2.8402   2.8490   2.9703   2.9703
     3.0031   3.0469   3.1559   3.1855   3.3409   3.4101   3.6332   3.7480
     3.9320   3.9525   4.4393   4.6010   4.7867   4.9915   5.0814   5.3056
     5.7127   5.7896   5.8593   5.9322   6.0595   6.0646

     occupation numbers
     1.0000   1.0000   1.0000   1.0000   1.0000   1.0000   1.0000   1.0000
     1.0000   1.0000   1.0000   1.0000   1.0000   1.0000   1.0000   1.0000
     1.0000   1.0000   1.0000   1.0000   1.0000   1.0000   1.0000   1.0000
     1.0000   1.0000   1.0000   1.0000   1.0000   1.0000   1.0000   1.0000
     1.0000   1.0000   1.0000   1.0000   1.0000   1.0000   1.0000   1.0000
     1.0000   1.0000   1.0000   1.0000   1.0000   1.0000   1.0000   1.0000
     1.0000   1.0000   1.0000   1.0000   1.0000   1.0000

     highest occupied level (ev):     7.2466

!    total energy              =   -1084.89917562 Ry
     estimated scf accuracy    <          2.3E-09 Ry

     The total energy is the sum of the following terms:
     one-electron contribution =    -456.30487035 Ry
     hartree contribution      =     352.28429739 Ry
     xc contribution           =    -328.77278122 Ry
     ewald contribution        =    -652.10582143 Ry

     convergence has been achieved in  26 iterations

     Forces acting on atoms (cartesian axes, Ry/au):

     atom    1 type  1   force =     0.00000000    0.00000000    0.01194477
     atom    2 type  1   force =     0.00000000   -0.00000000    0.01194969
     atom    3 type  2   force =     0.00000000    0.00000000   -0.01194577
     atom    4 type  2   force =     0.00000000    0.00000000   -0.01194352
     atom    5 type  1   force =     0.00000000    0.00000000    0.01194522
     atom    6 type  1   force =     0.00000000    0.00000000    0.01194515
     atom    7 type  2   force =     0.00000000    0.00000000   -0.01194589
     atom    8 type  2   force =     0.00000000    0.00000000   -0.01194458
     atom    9 type  1   force =     0.00000000    0.00000000    0.01194461
     atom   10 type  1   force =     0.00000000    0.00000000    0.01194304
     atom   11 type  2   force =     0.00000000    0.00000000   -0.01194396
     atom   12 type  2   force =     0.00000000    0.00000000   -0.01194876
     The non-local contrib.  to forces
     atom    1 type  1   force =     0.00000000    0.00000000    0.10646174
     atom    2 type  1   force =     0.00000000   -0.00000000    0.10646764
     atom    3 type  2   force =     0.00000000    0.00000000    0.10114627
     atom    4 type  2   force =     0.00000000    0.00000000    0.10114727
     atom    5 type  1   force =     0.00000000   -0.00000000    0.10646601
     atom    6 type  1   force =     0.00000000   -0.00000000    0.10645655
     atom    7 type  2   force =     0.00000000    0.00000000    0.10114773
     atom    8 type  2   force =     0.00000000    0.00000000    0.10114910
     atom    9 type  1   force =    -0.00000000    0.00000000    0.10645835
     atom   10 type  1   force =     0.00000000    0.00000000    0.10646325
     atom   11 type  2   force =     0.00000000    0.00000000    0.10114771
     atom   12 type  2   force =     0.00000000   -0.00000000    0.10114393
     The ionic contribution  to forces
     atom    1 type  1   force =    -0.00000000    0.00000000    0.88513270
     atom    2 type  1   force =     0.00000000   -0.00000000    0.88513274
     atom    3 type  2   force =    -0.00000000    0.00000000   -0.88513272
     atom    4 type  2   force =     0.00000000   -0.00000000   -0.88513273
     atom    5 type  1   force =    -0.00000000    0.00000000    0.88513274
     atom    6 type  1   force =     0.00000000   -0.00000000    0.88513270
     atom    7 type  2   force =    -0.00000000    0.00000000   -0.88513273
     atom    8 type  2   force =     0.00000000   -0.00000000   -0.88513270
     atom    9 type  1   force =    -0.00000000    0.00000000    0.88513270
     atom   10 type  1   force =     0.00000000   -0.00000000    0.88513270
     atom   11 type  2   force =    -0.00000000    0.00000000   -0.88513270
     atom   12 type  2   force =     0.00000000   -0.00000000   -0.88513272
     The local contribution  to forces
     atom    1 type  1   force =    -0.00000004    0.00000002   -0.97190485
     atom    2 type  1   force =     0.00000004   -0.00000002   -0.97190473
     atom    3 type  2   force =    -0.00000001    0.00000001    0.77285210
     atom    4 type  2   force =     0.00000001   -0.00000001    0.77284988
     atom    5 type  1   force =    -0.00000004    0.00000002   -0.97190040
     atom    6 type  1   force =     0.00000004   -0.00000002   -0.97189658
     atom    7 type  2   force =    -0.00000001    0.00000001    0.77284618
     atom    8 type  2   force =     0.00000001   -0.00000001    0.77285354
     atom    9 type  1   force =    -0.00000004    0.00000002   -0.97189848
     atom   10 type  1   force =     0.00000004   -0.00000002   -0.97190824
     atom   11 type  2   force =    -0.00000001    0.00000001    0.77284935
     atom   12 type  2   force =     0.00000001   -0.00000001    0.77285008
     The core correction contribution to forces
     atom    1 type  1   force =    -0.00000001    0.00000000   -0.00774330
     atom    2 type  1   force =     0.00000001   -0.00000000   -0.00774350
     atom    3 type  2   force =     0.00000000   -0.00000000   -0.00081009
     atom    4 type  2   force =    -0.00000000    0.00000000   -0.00080927
     atom    5 type  1   force =    -0.00000001    0.00000000   -0.00774347
     atom    6 type  1   force =     0.00000001   -0.00000000   -0.00774085
     atom    7 type  2   force =     0.00000000   -0.00000000   -0.00080928
     atom    8 type  2   force =    -0.00000000    0.00000000   -0.00081158
     atom    9 type  1   force =    -0.00000001    0.00000000   -0.00774089
     atom   10 type  1   force =     0.00000001   -0.00000000   -0.00774318
     atom   11 type  2   force =     0.00000000   -0.00000000   -0.00081158
     atom   12 type  2   force =    -0.00000000    0.00000000   -0.00081006
     The Hubbard contrib.    to forces
     atom    1 type  1   force =     0.00000000    0.00000000    0.00000000
     atom    2 type  1   force =     0.00000000    0.00000000    0.00000000
     atom    3 type  2   force =     0.00000000    0.00000000    0.00000000
     atom    4 type  2   force =     0.00000000    0.00000000    0.00000000
     atom    5 type  1   force =     0.00000000    0.00000000    0.00000000
     atom    6 type  1   force =     0.00000000    0.00000000    0.00000000
     atom    7 type  2   force =     0.00000000    0.00000000    0.00000000
     atom    8 type  2   force =     0.00000000    0.00000000    0.00000000
     atom    9 type  1   force =     0.00000000    0.00000000    0.00000000
     atom   10 type  1   force =     0.00000000    0.00000000    0.00000000
     atom   11 type  2   force =     0.00000000    0.00000000    0.00000000
     atom   12 type  2   force =     0.00000000    0.00000000    0.00000000
     The SCF correction term to forces
     atom    1 type  1   force =    -0.00000000    0.00000000   -0.00000178
     atom    2 type  1   force =     0.00000000   -0.00000000   -0.00000274
     atom    3 type  2   force =    -0.00000000    0.00000000   -0.00000161
     atom    4 type  2   force =     0.00000000   -0.00000000    0.00000105
     atom    5 type  1   force =    -0.00000000    0.00000000   -0.00000992
     atom    6 type  1   force =     0.00000000   -0.00000000   -0.00000695
     atom    7 type  2   force =    -0.00000000    0.00000000    0.00000194
     atom    8 type  2   force =     0.00000000   -0.00000000   -0.00000322
     atom    9 type  1   force =    -0.00000000    0.00000000   -0.00000734
     atom   10 type  1   force =     0.00000000   -0.00000000   -0.00000176
     atom   11 type  2   force =    -0.00000000    0.00000000    0.00000298
     atom   12 type  2   force =     0.00000000   -0.00000000   -0.00000026

     Total force =     0.041380     Total SCF correction =     0.000016

     General routines

     Parallel routines

   This run was terminated on:  15:12:49  27Aug2025

   JOB DONE.