     Program PWSCF v.7.0 starts on 27Aug2025 at 20:40:24

     K-points division:     npool     =      17

     Reading input from /home/jvc/QEspresso7.2/ZnO_database/scripts/cell113.in/ZnO-3.53-1.61-113.in
Warning: card &CELL ignored
Warning: card / ignored
Warning: card &FCP ignored
Warning: card / ignored
Warning: card &RISM ignored
Warning: card / ignored

     Current dimensions of program PWSCF are:
     Max number of different atomic species (ntypx) = 10
     Max number of k-points (npk) =  40000
     Max angular momentum in pseudopotentials (lmaxx) =  4
     file Zn.upf: wavefunction(s)  3D renormalized
     Found identity + (  0.0000  0.0000  0.3333) symmetry
     This is a supercell, fractional translations are disabled
     Message from routine setup:
     using ibrav=0 with symmetry is DISCOURAGED, use correct ibrav instead

     Subspace diagonalization in iterative solution of the eigenvalue problem:
     a serial algorithm will be used

     Using Slab Decomposition

     bravais-lattice index     =            0
     lattice parameter (alat)  =       6.6732  a.u.
     unit-cell volume          =    1246.3697 (a.u.)^3
     number of atoms/cell      =           12
     number of atomic types    =            2
     number of electrons       =       108.00
     number of Kohn-Sham states=           54
     kinetic-energy cutoff     =      50.0000  Ry
     charge density cutoff     =     400.0000  Ry
     scf convergence threshold =      1.0E-08
     mixing beta               =       0.3000
     number of iterations used =            8  plain     mixing
     Exchange-correlation= PBE
                           (   1   4   3   4   0   0   0)

     celldm(1)=   6.673162  celldm(2)=   0.000000  celldm(3)=   0.000000
     celldm(4)=   0.000000  celldm(5)=   0.000000  celldm(6)=   0.000000

     crystal axes: (cart. coord. in units of alat)
               a(1) = (   1.000000   0.000000   0.000000 )
               a(2) = (  -0.500000   0.866025   0.000000 )
               a(3) = (   0.000000   0.000000   4.843075 )

     reciprocal axes: (cart. coord. in units 2 pi/alat)
               b(1) = (  1.000000  0.577350 -0.000000 )
               b(2) = (  0.000000  1.154701  0.000000 )
               b(3) = (  0.000000 -0.000000  0.206480 )

     PseudoPot. # 1 for Zn read from file:
     /home/jvc/QEspresso7.2/ZnO_database/pseudos/Zn.upf
     MD5 check sum: 7f56cabf9682ed8c977c2f7d0c5985c5
     Pseudo is Ultrasoft + core correction, Zval = 12.0
     Generated using &quot;atomic&quot; code by A. Dal Corso  v.6.2.2
     Using radial grid of 1201 points,  6 beta functions with:
                l(1) =   0
                l(2) =   0
                l(3) =   1
                l(4) =   1
                l(5) =   2
                l(6) =   2
     Q(r) pseudized with 0 coefficients

     PseudoPot. # 2 for O  read from file:
     /home/jvc/QEspresso7.2/ZnO_database/pseudos/O.upf
     MD5 check sum: 91400c9766925bcf19f520983a725ff0
     Pseudo is Ultrasoft + core correction, Zval =  6.0
     Generated using &quot;atomic&quot; code by A. Dal Corso  v.6.3MaX
     Using radial grid of 1095 points,  4 beta functions with:
                l(1) =   0
                l(2) =   0
                l(3) =   1
                l(4) =   1
     Q(r) pseudized with 0 coefficients

     atomic species   valence    mass     pseudopotential
        Zn            12.00    65.38000     Zn( 1.00)
        O              6.00    15.99900     O ( 1.00)

      6 Sym. Ops. (no inversion) found

                                    s                        frac. trans.

      isym =  1     identity

 cryst.   s( 1) = (     1          0          0      )
                  (     0          1          0      )
                  (     0          0          1      )

 cart.    s( 1) = (  1.0000000  0.0000000  0.0000000 )
                  (  0.0000000  1.0000000  0.0000000 )
                  (  0.0000000  0.0000000  1.0000000 )

      isym =  2     120 deg rotation - cryst. axis [0,0,1]

[...]

      isym =  3     120 deg rotation - cryst. axis [0,0,-1]

[...]

      isym =  4     inv. 180 deg rotation - cart. axis [1,0,0]

[...]

      isym =  5     inv. 180 deg rotation - cryst. axis [0,1,0]

[...]

      isym =  6     inv. 180 deg rotation - cryst. axis [1,1,0]

 cryst.   s( 6) = (     0         -1          0      )
                  (    -1          0          0      )
                  (     0          0          1      )

 cart.    s( 6) = (  0.5000000 -0.8660254  0.0000000 )
                  ( -0.8660254 -0.5000000  0.0000000 )
                  (  0.0000000  0.0000000  1.0000000 )

   Cartesian axes

     site n.     atom                  positions (alat units)
         1           Zn  tau(   1) = (   0.5000000   0.2886751   0.8082020  )
         2           Zn  tau(   2) = (  -0.0000000   0.5773503   0.0010228  )
         3           O   tau(   3) = (   0.5000000   0.2886751   1.4201130  )
         4           O   tau(   4) = (  -0.0000000   0.5773503   0.6129338  )
         5           Zn  tau(   5) = (   0.5000000   0.2886751   2.4225604  )
         6           Zn  tau(   6) = (  -0.0000000   0.5773503   1.6153812  )
         7           O   tau(   7) = (   0.5000000   0.2886751   3.0344713  )
         8           O   tau(   8) = (  -0.0000000   0.5773503   2.2272921  )
         9           Zn  tau(   9) = (   0.5000000   0.2886751   4.0369187  )
        10           Zn  tau(  10) = (  -0.0000000   0.5773503   3.2297395  )
        11           O   tau(  11) = (   0.5000000   0.2886751   4.6488297  )
        12           O   tau(  12) = (  -0.0000000   0.5773503   3.8416505  )

   Crystallographic axes

     site n.     atom                  positions (cryst. coord.)
         1           Zn  tau(   1) = (  0.6666667  0.3333333  0.1668779  )
         2           Zn  tau(   2) = (  0.3333333  0.6666667  0.0002112  )
         3           O   tau(   3) = (  0.6666667  0.3333333  0.2932255  )
         4           O   tau(   4) = (  0.3333333  0.6666667  0.1265588  )
         5           Zn  tau(   5) = (  0.6666667  0.3333333  0.5002112  )
         6           Zn  tau(   6) = (  0.3333333  0.6666667  0.3335445  )
         7           O   tau(   7) = (  0.6666667  0.3333333  0.6265588  )
         8           O   tau(   8) = (  0.3333333  0.6666667  0.4598921  )
         9           Zn  tau(   9) = (  0.6666667  0.3333333  0.8335445  )
        10           Zn  tau(  10) = (  0.3333333  0.6666667  0.6668779  )
        11           O   tau(  11) = (  0.6666667  0.3333333  0.9598921  )
        12           O   tau(  12) = (  0.3333333  0.6666667  0.7932255  )

     number of k points=    34
                       cart. coord. in units 2pi/alat
        k(    1) = (   0.0000000   0.0000000   0.0000000), wk =   0.0092593
        k(    2) = (   0.0000000   0.0000000   0.0344134), wk =   0.0185185
        k(    3) = (   0.0000000   0.0000000   0.0688268), wk =   0.0185185
        k(    4) = (   0.0000000   0.0000000  -0.1032402), wk =   0.0092593
        k(    5) = (   0.0000000   0.1924501   0.0000000), wk =   0.0555556
        k(    6) = (   0.0000000   0.1924501   0.0344134), wk =   0.0555556
        k(    7) = (   0.0000000   0.1924501   0.0688268), wk =   0.0555556
        k(    8) = (   0.0000000   0.1924501  -0.1032402), wk =   0.0555556
        k(    9) = (   0.0000000   0.3849002   0.0000000), wk =   0.0555556
        k(   10) = (   0.0000000   0.3849002   0.0344134), wk =   0.0555556
        k(   11) = (   0.0000000   0.3849002   0.0688268), wk =   0.0555556
        k(   12) = (   0.0000000   0.3849002  -0.1032402), wk =   0.0555556
        k(   13) = (   0.0000000  -0.5773503   0.0000000), wk =   0.0277778
        k(   14) = (   0.0000000  -0.5773503   0.0344134), wk =   0.0555556
        k(   15) = (   0.0000000  -0.5773503   0.0688268), wk =   0.0555556
        k(   16) = (   0.0000000  -0.5773503  -0.1032402), wk =   0.0277778
        k(   17) = (   0.1666667   0.2886751   0.0000000), wk =   0.0555556
        k(   18) = (   0.1666667   0.2886751   0.0344134), wk =   0.1111111
        k(   19) = (   0.1666667   0.2886751   0.0688268), wk =   0.1111111
        k(   20) = (   0.1666667   0.2886751  -0.1032402), wk =   0.0555556
        k(   21) = (   0.1666667   0.4811252   0.0000000), wk =   0.1111111
        k(   22) = (   0.1666667   0.4811252   0.0344134), wk =   0.1111111
        k(   23) = (   0.1666667   0.4811252   0.0688268), wk =   0.1111111
        k(   24) = (   0.1666667   0.4811252  -0.1032402), wk =   0.1111111
        k(   25) = (   0.3333333   0.5773503   0.0000000), wk =   0.0185185
        k(   26) = (   0.3333333   0.5773503   0.0344134), wk =   0.0370370
        k(   27) = (   0.3333333   0.5773503   0.0688268), wk =   0.0370370
        k(   28) = (   0.3333333   0.5773503  -0.1032402), wk =   0.0185185
        k(   29) = (   0.0000000  -0.1924501   0.0344134), wk =   0.0555556
        k(   30) = (   0.0000000  -0.1924501   0.0688268), wk =   0.0555556
        k(   31) = (   0.0000000  -0.3849002   0.0344134), wk =   0.0555556
        k(   32) = (   0.0000000  -0.3849002   0.0688268), wk =   0.0555556
        k(   33) = (  -0.1666667  -0.4811252   0.0344134), wk =   0.1111111
        k(   34) = (  -0.1666667  -0.4811252   0.0688268), wk =   0.1111111

                       cryst. coord.
        k(    1) = (   0.0000000   0.0000000   0.0000000), wk =   0.0092593
        k(    2) = (   0.0000000   0.0000000   0.1666667), wk =   0.0185185
        k(    3) = (   0.0000000   0.0000000   0.3333333), wk =   0.0185185
        k(    4) = (   0.0000000   0.0000000  -0.5000000), wk =   0.0092593
        k(    5) = (   0.0000000   0.1666667   0.0000000), wk =   0.0555556
        k(    6) = (   0.0000000   0.1666667   0.1666667), wk =   0.0555556
        k(    7) = (   0.0000000   0.1666667   0.3333333), wk =   0.0555556
        k(    8) = (   0.0000000   0.1666667  -0.5000000), wk =   0.0555556
        k(    9) = (   0.0000000   0.3333333   0.0000000), wk =   0.0555556
        k(   10) = (   0.0000000   0.3333333   0.1666667), wk =   0.0555556
        k(   11) = (   0.0000000   0.3333333   0.3333333), wk =   0.0555556
        k(   12) = (   0.0000000   0.3333333  -0.5000000), wk =   0.0555556
        k(   13) = (   0.0000000  -0.5000000   0.0000000), wk =   0.0277778
        k(   14) = (   0.0000000  -0.5000000   0.1666667), wk =   0.0555556
        k(   15) = (   0.0000000  -0.5000000   0.3333333), wk =   0.0555556
        k(   16) = (   0.0000000  -0.5000000  -0.5000000), wk =   0.0277778
        k(   17) = (   0.1666667   0.1666667   0.0000000), wk =   0.0555556
        k(   18) = (   0.1666667   0.1666667   0.1666667), wk =   0.1111111
        k(   19) = (   0.1666667   0.1666667   0.3333333), wk =   0.1111111
        k(   20) = (   0.1666667   0.1666667  -0.5000000), wk =   0.0555556
        k(   21) = (   0.1666667   0.3333333   0.0000000), wk =   0.1111111
        k(   22) = (   0.1666667   0.3333333   0.1666667), wk =   0.1111111
        k(   23) = (   0.1666667   0.3333333   0.3333333), wk =   0.1111111
        k(   24) = (   0.1666667   0.3333333  -0.5000000), wk =   0.1111111
        k(   25) = (   0.3333333   0.3333333   0.0000000), wk =   0.0185185
        k(   26) = (   0.3333333   0.3333333   0.1666667), wk =   0.0370370
        k(   27) = (   0.3333333   0.3333333   0.3333333), wk =   0.0370370
        k(   28) = (   0.3333333   0.3333333  -0.5000000), wk =   0.0185185
        k(   29) = (   0.0000000  -0.1666667   0.1666667), wk =   0.0555556
        k(   30) = (   0.0000000  -0.1666667   0.3333333), wk =   0.0555556
        k(   31) = (   0.0000000  -0.3333333   0.1666667), wk =   0.0555556
        k(   32) = (   0.0000000  -0.3333333   0.3333333), wk =   0.0555556
        k(   33) = (  -0.1666667  -0.3333333   0.1666667), wk =   0.1111111
        k(   34) = (  -0.1666667  -0.3333333   0.3333333), wk =   0.1111111

     Check: negative core charge=   -0.000002

     Initial potential from superposition of free atoms

     starting charge     107.9776, renormalised to     108.0000
     Starting wfcs are   78 randomized atomic wfcs

     Self-consistent Calculation

     iteration #  1     ecut=    50.00 Ry     beta= 0.30
     Davidson diagonalization with overlap

     ethr =  1.00E-02,  avg # of iterations =  1.3

     total energy              =   -1084.15001685 Ry
     estimated scf accuracy    <       2.42307191 Ry

[...]

     c_bands:  1 eigenvalues not converged
     ethr =  2.54E-05,  avg # of iterations =  7.6

[...]

     c_bands:  1 eigenvalues not converged
     ethr =  2.78E-08,  avg # of iterations = 10.5

[...]

     total energy              =   -1084.73132004 Ry
     estimated scf accuracy    <       0.00000001 Ry

     iteration # 50     ecut=    50.00 Ry     beta= 0.30
     Davidson diagonalization with overlap

     ethr =  1.32E-11,  avg # of iterations =  5.4

     End of self-consistent calculation

          k = 0.0000 0.0000 0.0000 (  7447 PWs)   bands (ev):

   -12.4598 -12.3624 -12.3623 -12.1629 -12.1629 -12.0610  -0.9458  -0.9458
    -0.9351  -0.9351  -0.9188  -0.9163  -0.9163  -0.9163  -0.9163  -0.8594
    -0.8594  -0.8594  -0.8594  -0.8205  -0.8205  -0.7896  -0.7896  -0.3746
    -0.3746  -0.3380  -0.3380  -0.3380  -0.3380  -0.3227  -0.2808  -0.2808
    -0.2808  -0.2808  -0.2613  -0.2613   0.2571   1.2155   1.2155   2.5835
     2.5836   3.4151   3.4151   3.5503   3.5503   3.5503   3.5503   3.8157
     3.8157   3.8158   3.8158   3.9185   3.9459   3.9459

     occupation numbers
     1.0000   1.0000   1.0000   1.0000   1.0000   1.0000   1.0000   1.0000
     1.0000   1.0000   1.0000   1.0000   1.0000   1.0000   1.0000   1.0000
     1.0000   1.0000   1.0000   1.0000   1.0000   1.0000   1.0000   1.0000
     1.0000   1.0000   1.0000   1.0000   1.0000   1.0000   1.0000   1.0000
     1.0000   1.0000   1.0000   1.0000   1.0000   1.0000   1.0000   1.0000
     1.0000   1.0000   1.0000   1.0000   1.0000   1.0000   1.0000   1.0000
     1.0000   1.0000   1.0000   1.0000   1.0000   1.0000

[...]

          k = 0.0000-0.3849 0.0688 (  7462 PWs)   bands (ev):

[...]

          k =-0.1667-0.4811 0.0344 (  7412 PWs)   bands (ev):

[...]

          k =-0.1667-0.4811 0.0688 (  7415 PWs)   bands (ev):

   -12.0779 -12.0658 -12.0260 -12.0037 -11.9674 -11.9572  -0.9092  -0.9084
    -0.9049  -0.8756  -0.7953  -0.7868  -0.7119  -0.6984  -0.6625  -0.6442
    -0.5805  -0.5767  -0.5715  -0.5665  -0.5210  -0.5103  -0.4899  -0.4714
    -0.3646  -0.3471  -0.3112  -0.3016  -0.2964  -0.2915  -0.2221  -0.2197
    -0.1928  -0.1692  -0.1230  -0.1087   0.7920   0.8081   0.8656   0.9481
     1.1428   1.2092   1.9405   2.0672   2.2317   2.4261   2.4317   2.6224
     2.9773   2.9918   3.0576   3.1518   3.1714   3.2080

     occupation numbers
     1.0000   1.0000   1.0000   1.0000   1.0000   1.0000   1.0000   1.0000
     1.0000   1.0000   1.0000   1.0000   1.0000   1.0000   1.0000   1.0000
     1.0000   1.0000   1.0000   1.0000   1.0000   1.0000   1.0000   1.0000
     1.0000   1.0000   1.0000   1.0000   1.0000   1.0000   1.0000   1.0000
     1.0000   1.0000   1.0000   1.0000   1.0000   1.0000   1.0000   1.0000
     1.0000   1.0000   1.0000   1.0000   1.0000   1.0000   1.0000   1.0000
     1.0000   1.0000   1.0000   1.0000   1.0000   1.0000

     highest occupied level (ev):     3.9459

!    total energy              =   -1084.73132005 Ry
     estimated scf accuracy    <          1.0E-09 Ry

     The total energy is the sum of the following terms:
     one-electron contribution =    -540.65040314 Ry
     hartree contribution      =     382.90421243 Ry
     xc contribution           =    -327.39176862 Ry
     ewald contribution        =    -599.59336072 Ry

     convergence has been achieved in  50 iterations

     Forces acting on atoms (cartesian axes, Ry/au):

     atom    1 type  1   force =     0.00000000    0.00000000   -0.00011099
     atom    2 type  1   force =     0.00000000    0.00000000   -0.00012414
     atom    3 type  2   force =     0.00000000   -0.00000000    0.00011288
     atom    4 type  2   force =     0.00000000    0.00000000    0.00011339
     atom    5 type  1   force =     0.00000000   -0.00000000   -0.00009037
     atom    6 type  1   force =     0.00000000    0.00000000   -0.00012022
     atom    7 type  2   force =     0.00000000    0.00000000    0.00011060
     atom    8 type  2   force =     0.00000000    0.00000000    0.00011153
     atom    9 type  1   force =     0.00000000    0.00000000   -0.00013491
     atom   10 type  1   force =     0.00000000    0.00000000   -0.00009553
     atom   11 type  2   force =     0.00000000    0.00000000    0.00011428
     atom   12 type  2   force =     0.00000000   -0.00000000    0.00011348
     The non-local contrib.  to forces
     atom    1 type  1   force =     0.00000000    0.00000000   -0.00452833
     atom    2 type  1   force =     0.00000000   -0.00000000   -0.00453619
     atom    3 type  2   force =     0.00000000   -0.00000000    0.00669797
     atom    4 type  2   force =     0.00000000    0.00000000    0.00670099
     atom    5 type  1   force =     0.00000000    0.00000000   -0.00451283
     atom    6 type  1   force =     0.00000000   -0.00000000   -0.00452957
     atom    7 type  2   force =     0.00000000   -0.00000000    0.00668044
     atom    8 type  2   force =     0.00000000    0.00000000    0.00668872
     atom    9 type  1   force =     0.00000000    0.00000000   -0.00454052
     atom   10 type  1   force =     0.00000000    0.00000000   -0.00451084
     atom   11 type  2   force =     0.00000000    0.00000000    0.00670708
     atom   12 type  2   force =     0.00000000   -0.00000000    0.00670232
     The ionic contribution  to forces
     atom    1 type  1   force =    -0.00000000    0.00000000    0.05376955
     atom    2 type  1   force =     0.00000000   -0.00000000    0.05376959
     atom    3 type  2   force =    -0.00000000    0.00000000   -0.05376957
     atom    4 type  2   force =     0.00000000   -0.00000000   -0.05376957
     atom    5 type  1   force =    -0.00000000    0.00000000    0.05376959
     atom    6 type  1   force =     0.00000000   -0.00000000    0.05376955
     atom    7 type  2   force =    -0.00000000    0.00000000   -0.05376957
     atom    8 type  2   force =     0.00000000   -0.00000000   -0.05376955
     atom    9 type  1   force =    -0.00000000    0.00000000    0.05376955
     atom   10 type  1   force =     0.00000000   -0.00000000    0.05376955
     atom   11 type  2   force =    -0.00000000    0.00000000   -0.05376955
     atom   12 type  2   force =     0.00000000   -0.00000000   -0.05376957
     The local contribution  to forces
     atom    1 type  1   force =    -0.00000005    0.00000003   -0.04962342
     atom    2 type  1   force =     0.00000005   -0.00000003   -0.04960458
     atom    3 type  2   force =    -0.00000001    0.00000001    0.04726132
     atom    4 type  2   force =     0.00000001   -0.00000001    0.04726079
     atom    5 type  1   force =    -0.00000005    0.00000003   -0.04966383
     atom    6 type  1   force =     0.00000005   -0.00000003   -0.04961544
     atom    7 type  2   force =    -0.00000001    0.00000001    0.04725741
     atom    8 type  2   force =     0.00000001   -0.00000001    0.04725544
     atom    9 type  1   force =    -0.00000005    0.00000003   -0.04958821
     atom   10 type  1   force =     0.00000005   -0.00000003   -0.04965892
     atom   11 type  2   force =    -0.00000001    0.00000001    0.04726166
     atom   12 type  2   force =     0.00000001   -0.00000001    0.04727160
     The core correction contribution to forces
     atom    1 type  1   force =    -0.00000001    0.00000000    0.00026712
     atom    2 type  1   force =     0.00000001   -0.00000000    0.00026704
     atom    3 type  2   force =     0.00000000   -0.00000000   -0.00007604
     atom    4 type  2   force =    -0.00000000    0.00000000   -0.00007609
     atom    5 type  1   force =    -0.00000001    0.00000000    0.00026769
     atom    6 type  1   force =     0.00000001   -0.00000000    0.00026702
     atom    7 type  2   force =     0.00000000   -0.00000000   -0.00007578
     atom    8 type  2   force =    -0.00000000    0.00000000   -0.00007590
     atom    9 type  1   force =    -0.00000001    0.00000000    0.00026660
     atom   10 type  1   force =     0.00000001   -0.00000000    0.00026718
     atom   11 type  2   force =     0.00000000   -0.00000000   -0.00007618
     atom   12 type  2   force =    -0.00000000    0.00000000   -0.00007609
     The Hubbard contrib.    to forces
     atom    1 type  1   force =     0.00000000    0.00000000    0.00000000
     atom    2 type  1   force =     0.00000000    0.00000000    0.00000000
     atom    3 type  2   force =     0.00000000    0.00000000    0.00000000
     atom    4 type  2   force =     0.00000000    0.00000000    0.00000000
     atom    5 type  1   force =     0.00000000    0.00000000    0.00000000
     atom    6 type  1   force =     0.00000000    0.00000000    0.00000000
     atom    7 type  2   force =     0.00000000    0.00000000    0.00000000
     atom    8 type  2   force =     0.00000000    0.00000000    0.00000000
     atom    9 type  1   force =     0.00000000    0.00000000    0.00000000
     atom   10 type  1   force =     0.00000000    0.00000000    0.00000000
     atom   11 type  2   force =     0.00000000    0.00000000    0.00000000
     atom   12 type  2   force =     0.00000000    0.00000000    0.00000000
     The SCF correction term to forces
     atom    1 type  1   force =    -0.00000000    0.00000000    0.00000515
     atom    2 type  1   force =     0.00000000   -0.00000000   -0.00001894
     atom    3 type  2   force =    -0.00000000    0.00000000    0.00000026
     atom    4 type  2   force =     0.00000000   -0.00000000   -0.00000168
     atom    5 type  1   force =    -0.00000000    0.00000000    0.00005008
     atom    6 type  1   force =     0.00000000   -0.00000000   -0.00001072
     atom    7 type  2   force =    -0.00000000    0.00000000    0.00001917
     atom    8 type  2   force =     0.00000000   -0.00000000    0.00001388
     atom    9 type  1   force =    -0.00000000    0.00000000   -0.00004127
     atom   10 type  1   force =     0.00000000   -0.00000000    0.00003856
     atom   11 type  2   force =    -0.00000000    0.00000000   -0.00000766
     atom   12 type  2   force =     0.00000000   -0.00000000   -0.00001373

     Total force =     0.000392     Total SCF correction =     0.000084
     SCF correction compared to forces is large: reduce conv_thr to get better values

     General routines

     Parallel routines

   This run was terminated on:  20:50:46  27Aug2025

   JOB DONE.