     Program PWSCF v.7.0 starts on 27Aug2025 at 12: 9:20

     K-points division:     npool     =      17

     Reading input from /home/jvc/QEspresso7.2/ZnO_database/scripts/cell113.in/ZnO-2.94-1.52-113.in
Warning: card &CELL ignored
Warning: card / ignored
Warning: card &FCP ignored
Warning: card / ignored
Warning: card &RISM ignored
Warning: card / ignored

     Current dimensions of program PWSCF are:
     Max number of different atomic species (ntypx) = 10
     Max number of k-points (npk) =  40000
     Max angular momentum in pseudopotentials (lmaxx) =  4
     file Zn.upf: wavefunction(s)  3D renormalized
     Found identity + (  0.0000  0.0000  0.3333) symmetry
     This is a supercell, fractional translations are disabled
     Message from routine setup:
     using ibrav=0 with symmetry is DISCOURAGED, use correct ibrav instead

     Subspace diagonalization in iterative solution of the eigenvalue problem:
     a serial algorithm will be used

     Using Slab Decomposition

     bravais-lattice index     =            0
     lattice parameter (alat)  =       5.5610  a.u.
     unit-cell volume          =     678.0021 (a.u.)^3
     number of atoms/cell      =           12
     number of atomic types    =            2
     number of electrons       =       108.00
     number of Kohn-Sham states=           54
     kinetic-energy cutoff     =      50.0000  Ry
     charge density cutoff     =     400.0000  Ry
     scf convergence threshold =      1.0E-08
     mixing beta               =       0.3000
     number of iterations used =            8  plain     mixing
     Exchange-correlation= PBE
                           (   1   4   3   4   0   0   0)

     celldm(1)=   5.560969  celldm(2)=   0.000000  celldm(3)=   0.000000
     celldm(4)=   0.000000  celldm(5)=   0.000000  celldm(6)=   0.000000

     crystal axes: (cart. coord. in units of alat)
               a(1) = (   1.000000   0.000000   0.000000 )
               a(2) = (  -0.500000   0.866025   0.000000 )
               a(3) = (   0.000000   0.000000   4.552491 )

     reciprocal axes: (cart. coord. in units 2 pi/alat)
               b(1) = (  1.000000  0.577350 -0.000000 )
               b(2) = (  0.000000  1.154701  0.000000 )
               b(3) = (  0.000000 -0.000000  0.219660 )

     PseudoPot. # 1 for Zn read from file:
     /home/jvc/QEspresso7.2/ZnO_database/pseudos/Zn.upf
     MD5 check sum: 7f56cabf9682ed8c977c2f7d0c5985c5
     Pseudo is Ultrasoft + core correction, Zval = 12.0
     Generated using &quot;atomic&quot; code by A. Dal Corso  v.6.2.2
     Using radial grid of 1201 points,  6 beta functions with:
                l(1) =   0
                l(2) =   0
                l(3) =   1
                l(4) =   1
                l(5) =   2
                l(6) =   2
     Q(r) pseudized with 0 coefficients

     PseudoPot. # 2 for O  read from file:
     /home/jvc/QEspresso7.2/ZnO_database/pseudos/O.upf
     MD5 check sum: 91400c9766925bcf19f520983a725ff0
     Pseudo is Ultrasoft + core correction, Zval =  6.0
     Generated using &quot;atomic&quot; code by A. Dal Corso  v.6.3MaX
     Using radial grid of 1095 points,  4 beta functions with:
                l(1) =   0
                l(2) =   0
                l(3) =   1
                l(4) =   1
     Q(r) pseudized with 0 coefficients

     atomic species   valence    mass     pseudopotential
        Zn            12.00    65.38000     Zn( 1.00)
        O              6.00    15.99900     O ( 1.00)

      6 Sym. Ops. (no inversion) found

                                    s                        frac. trans.

      isym =  1     identity

 cryst.   s( 1) = (     1          0          0      )
                  (     0          1          0      )
                  (     0          0          1      )

 cart.    s( 1) = (  1.0000000  0.0000000  0.0000000 )
                  (  0.0000000  1.0000000  0.0000000 )
                  (  0.0000000  0.0000000  1.0000000 )

      isym =  2     120 deg rotation - cryst. axis [0,0,1]

[...]

      isym =  3     120 deg rotation - cryst. axis [0,0,-1]

[...]

      isym =  4     inv. 180 deg rotation - cart. axis [1,0,0]

[...]

      isym =  5     inv. 180 deg rotation - cryst. axis [0,1,0]

[...]

      isym =  6     inv. 180 deg rotation - cryst. axis [1,1,0]

 cryst.   s( 6) = (     0         -1          0      )
                  (    -1          0          0      )
                  (     0          0          1      )

 cart.    s( 6) = (  0.5000000 -0.8660254  0.0000000 )
                  ( -0.8660254 -0.5000000  0.0000000 )
                  (  0.0000000  0.0000000  1.0000000 )

   Cartesian axes

     site n.     atom                  positions (alat units)
         1           Zn  tau(   1) = (   0.5000000   0.2886751   0.7597099  )
         2           Zn  tau(   2) = (  -0.0000000   0.5773503   0.0009615  )
         3           O   tau(   3) = (   0.5000000   0.2886751   1.3349062  )
         4           O   tau(   4) = (  -0.0000000   0.5773503   0.5761578  )
         5           Zn  tau(   5) = (   0.5000000   0.2886751   2.2772067  )
         6           Zn  tau(   6) = (  -0.0000000   0.5773503   1.5184583  )
         7           O   tau(   7) = (   0.5000000   0.2886751   2.8524030  )
         8           O   tau(   8) = (  -0.0000000   0.5773503   2.0936546  )
         9           Zn  tau(   9) = (   0.5000000   0.2886751   3.7947036  )
        10           Zn  tau(  10) = (  -0.0000000   0.5773503   3.0359552  )
        11           O   tau(  11) = (   0.5000000   0.2886751   4.3698999  )
        12           O   tau(  12) = (  -0.0000000   0.5773503   3.6111515  )

   Crystallographic axes

     site n.     atom                  positions (cryst. coord.)
         1           Zn  tau(   1) = (  0.6666667  0.3333333  0.1668779  )
         2           Zn  tau(   2) = (  0.3333333  0.6666667  0.0002112  )
         3           O   tau(   3) = (  0.6666667  0.3333333  0.2932255  )
         4           O   tau(   4) = (  0.3333333  0.6666667  0.1265588  )
         5           Zn  tau(   5) = (  0.6666667  0.3333333  0.5002112  )
         6           Zn  tau(   6) = (  0.3333333  0.6666667  0.3335445  )
         7           O   tau(   7) = (  0.6666667  0.3333333  0.6265588  )
         8           O   tau(   8) = (  0.3333333  0.6666667  0.4598921  )
         9           Zn  tau(   9) = (  0.6666667  0.3333333  0.8335445  )
        10           Zn  tau(  10) = (  0.3333333  0.6666667  0.6668779  )
        11           O   tau(  11) = (  0.6666667  0.3333333  0.9598921  )
        12           O   tau(  12) = (  0.3333333  0.6666667  0.7932255  )

     number of k points=    34
                       cart. coord. in units 2pi/alat
        k(    1) = (   0.0000000   0.0000000   0.0000000), wk =   0.0092593
        k(    2) = (   0.0000000   0.0000000   0.0366100), wk =   0.0185185
        k(    3) = (   0.0000000   0.0000000   0.0732200), wk =   0.0185185
        k(    4) = (   0.0000000   0.0000000  -0.1098300), wk =   0.0092593
        k(    5) = (   0.0000000   0.1924501   0.0000000), wk =   0.0555556
        k(    6) = (   0.0000000   0.1924501   0.0366100), wk =   0.0555556
        k(    7) = (   0.0000000   0.1924501   0.0732200), wk =   0.0555556
        k(    8) = (   0.0000000   0.1924501  -0.1098300), wk =   0.0555556
        k(    9) = (   0.0000000   0.3849002   0.0000000), wk =   0.0555556
        k(   10) = (   0.0000000   0.3849002   0.0366100), wk =   0.0555556
        k(   11) = (   0.0000000   0.3849002   0.0732200), wk =   0.0555556
        k(   12) = (   0.0000000   0.3849002  -0.1098300), wk =   0.0555556
        k(   13) = (   0.0000000  -0.5773503   0.0000000), wk =   0.0277778
        k(   14) = (   0.0000000  -0.5773503   0.0366100), wk =   0.0555556
        k(   15) = (   0.0000000  -0.5773503   0.0732200), wk =   0.0555556
        k(   16) = (   0.0000000  -0.5773503  -0.1098300), wk =   0.0277778
        k(   17) = (   0.1666667   0.2886751   0.0000000), wk =   0.0555556
        k(   18) = (   0.1666667   0.2886751   0.0366100), wk =   0.1111111
        k(   19) = (   0.1666667   0.2886751   0.0732200), wk =   0.1111111
        k(   20) = (   0.1666667   0.2886751  -0.1098300), wk =   0.0555556
        k(   21) = (   0.1666667   0.4811252   0.0000000), wk =   0.1111111
        k(   22) = (   0.1666667   0.4811252   0.0366100), wk =   0.1111111
        k(   23) = (   0.1666667   0.4811252   0.0732200), wk =   0.1111111
        k(   24) = (   0.1666667   0.4811252  -0.1098300), wk =   0.1111111
        k(   25) = (   0.3333333   0.5773503   0.0000000), wk =   0.0185185
        k(   26) = (   0.3333333   0.5773503   0.0366100), wk =   0.0370370
        k(   27) = (   0.3333333   0.5773503   0.0732200), wk =   0.0370370
        k(   28) = (   0.3333333   0.5773503  -0.1098300), wk =   0.0185185
        k(   29) = (   0.0000000  -0.1924501   0.0366100), wk =   0.0555556
        k(   30) = (   0.0000000  -0.1924501   0.0732200), wk =   0.0555556
        k(   31) = (   0.0000000  -0.3849002   0.0366100), wk =   0.0555556
        k(   32) = (   0.0000000  -0.3849002   0.0732200), wk =   0.0555556
        k(   33) = (  -0.1666667  -0.4811252   0.0366100), wk =   0.1111111
        k(   34) = (  -0.1666667  -0.4811252   0.0732200), wk =   0.1111111

                       cryst. coord.
        k(    1) = (   0.0000000   0.0000000   0.0000000), wk =   0.0092593
        k(    2) = (   0.0000000   0.0000000   0.1666667), wk =   0.0185185
        k(    3) = (   0.0000000   0.0000000   0.3333333), wk =   0.0185185
        k(    4) = (   0.0000000   0.0000000  -0.5000000), wk =   0.0092593
        k(    5) = (   0.0000000   0.1666667   0.0000000), wk =   0.0555556
        k(    6) = (   0.0000000   0.1666667   0.1666667), wk =   0.0555556
        k(    7) = (   0.0000000   0.1666667   0.3333333), wk =   0.0555556
        k(    8) = (   0.0000000   0.1666667  -0.5000000), wk =   0.0555556
        k(    9) = (   0.0000000   0.3333333   0.0000000), wk =   0.0555556
        k(   10) = (   0.0000000   0.3333333   0.1666667), wk =   0.0555556
        k(   11) = (   0.0000000   0.3333333   0.3333333), wk =   0.0555556
        k(   12) = (   0.0000000   0.3333333  -0.5000000), wk =   0.0555556
        k(   13) = (   0.0000000  -0.5000000   0.0000000), wk =   0.0277778
        k(   14) = (   0.0000000  -0.5000000   0.1666667), wk =   0.0555556
        k(   15) = (   0.0000000  -0.5000000   0.3333333), wk =   0.0555556
        k(   16) = (   0.0000000  -0.5000000  -0.5000000), wk =   0.0277778
        k(   17) = (   0.1666667   0.1666667   0.0000000), wk =   0.0555556
        k(   18) = (   0.1666667   0.1666667   0.1666667), wk =   0.1111111
        k(   19) = (   0.1666667   0.1666667   0.3333333), wk =   0.1111111
        k(   20) = (   0.1666667   0.1666667  -0.5000000), wk =   0.0555556
        k(   21) = (   0.1666667   0.3333333   0.0000000), wk =   0.1111111
        k(   22) = (   0.1666667   0.3333333   0.1666667), wk =   0.1111111
        k(   23) = (   0.1666667   0.3333333   0.3333333), wk =   0.1111111
        k(   24) = (   0.1666667   0.3333333  -0.5000000), wk =   0.1111111
        k(   25) = (   0.3333333   0.3333333   0.0000000), wk =   0.0185185
        k(   26) = (   0.3333333   0.3333333   0.1666667), wk =   0.0370370
        k(   27) = (   0.3333333   0.3333333   0.3333333), wk =   0.0370370
        k(   28) = (   0.3333333   0.3333333  -0.5000000), wk =   0.0185185
        k(   29) = (   0.0000000  -0.1666667   0.1666667), wk =   0.0555556
        k(   30) = (   0.0000000  -0.1666667   0.3333333), wk =   0.0555556
        k(   31) = (   0.0000000  -0.3333333   0.1666667), wk =   0.0555556
        k(   32) = (   0.0000000  -0.3333333   0.3333333), wk =   0.0555556
        k(   33) = (  -0.1666667  -0.3333333   0.1666667), wk =   0.1111111
        k(   34) = (  -0.1666667  -0.3333333   0.3333333), wk =   0.1111111

     Initial potential from superposition of free atoms

     starting charge     107.9776, renormalised to     108.0000
     Starting wfcs are   78 randomized atomic wfcs

     Self-consistent Calculation

     iteration #  1     ecut=    50.00 Ry     beta= 0.30
     Davidson diagonalization with overlap

     ethr =  1.00E-02,  avg # of iterations =  2.3

     total energy              =   -1083.57853360 Ry
     estimated scf accuracy    <       2.11692639 Ry

[...]

     total energy              =   -1083.95216467 Ry
     estimated scf accuracy    <       0.00000001 Ry

     iteration # 23     ecut=    50.00 Ry     beta= 0.30
     Davidson diagonalization with overlap

     ethr =  9.92E-12,  avg # of iterations =  2.1

     End of self-consistent calculation

          k = 0.0000 0.0000 0.0000 (  4065 PWs)   bands (ev):

    -7.9672  -7.5968  -7.5967  -6.8111  -6.8111  -6.3975   4.7346   4.7346
     4.9066   5.1722   5.1722   5.5484   5.5484   5.5862   5.5862   5.5862
     5.5862   5.6401   5.7682   5.7682   5.7682   5.7682   5.9221   5.9221
     7.9396   7.9396   8.1350   8.1350   8.1350   8.1350   8.4110   8.4110
     8.4110   8.4110   8.4717   8.4717   8.9383  10.3411  10.3411  12.2095
    12.2095  12.3829  12.3829  12.5798  12.5798  12.5798  12.5798  13.3323
    13.3323  13.3323  13.3323  13.6349  13.7015  13.7015

     occupation numbers
     1.0000   1.0000   1.0000   1.0000   1.0000   1.0000   1.0000   1.0000
     1.0000   1.0000   1.0000   1.0000   1.0000   1.0000   1.0000   1.0000
     1.0000   1.0000   1.0000   1.0000   1.0000   1.0000   1.0000   1.0000
     1.0000   1.0000   1.0000   1.0000   1.0000   1.0000   1.0000   1.0000
     1.0000   1.0000   1.0000   1.0000   1.0000   1.0000   1.0000   1.0000
     1.0000   1.0000   1.0000   1.0000   1.0000   1.0000   1.0000   1.0000
     1.0000   1.0000   1.0000   1.0000   1.0000   1.0000

[...]

          k = 0.0000-0.3849 0.0732 (  4050 PWs)   bands (ev):

[...]

          k =-0.1667-0.4811 0.0366 (  4049 PWs)   bands (ev):

[...]

          k =-0.1667-0.4811 0.0732 (  4047 PWs)   bands (ev):

    -6.6827  -6.6254  -6.4464  -6.3551  -6.2268  -6.1964   4.5292   4.5500
     4.7797   4.9121   4.9271   5.1455   5.7673   5.7810   5.8112   5.8437
     5.9162   5.9630   6.3997   6.4393   6.5035   6.6205   6.6664   6.7903
     7.8607   7.9587   8.1275   8.1950   8.2657   8.2684   8.5560   8.5703
     8.5993   8.6153   8.6888   8.7817   8.9177   8.9455   9.3271   9.3692
     9.5055   9.5802   9.9050   9.9338  10.3824  10.5564  10.7001  10.9458
    11.7006  11.8109  11.8339  12.1182  12.1570  12.2106

     occupation numbers
     1.0000   1.0000   1.0000   1.0000   1.0000   1.0000   1.0000   1.0000
     1.0000   1.0000   1.0000   1.0000   1.0000   1.0000   1.0000   1.0000
     1.0000   1.0000   1.0000   1.0000   1.0000   1.0000   1.0000   1.0000
     1.0000   1.0000   1.0000   1.0000   1.0000   1.0000   1.0000   1.0000
     1.0000   1.0000   1.0000   1.0000   1.0000   1.0000   1.0000   1.0000
     1.0000   1.0000   1.0000   1.0000   1.0000   1.0000   1.0000   1.0000
     1.0000   1.0000   1.0000   1.0000   1.0000   1.0000

     highest occupied level (ev):    13.7015

!    total energy              =   -1083.95216467 Ry
     estimated scf accuracy    <          3.6E-09 Ry

     The total energy is the sum of the following terms:
     one-electron contribution =    -328.46179108 Ry
     hartree contribution      =     309.56407129 Ry
     xc contribution           =    -331.59739990 Ry
     ewald contribution        =    -733.45704498 Ry

     convergence has been achieved in  23 iterations

     Forces acting on atoms (cartesian axes, Ry/au):

     atom    1 type  1   force =     0.00000000    0.00000000   -0.10224872
     atom    2 type  1   force =     0.00000000    0.00000000   -0.10223143
     atom    3 type  2   force =     0.00000000    0.00000000    0.10224204
     atom    4 type  2   force =     0.00000000    0.00000000    0.10224460
     atom    5 type  1   force =     0.00000000    0.00000000   -0.10225271
     atom    6 type  1   force =     0.00000000    0.00000000   -0.10224385
     atom    7 type  2   force =     0.00000000    0.00000000    0.10225092
     atom    8 type  2   force =     0.00000000    0.00000000    0.10225104
     atom    9 type  1   force =     0.00000000    0.00000000   -0.10223742
     atom   10 type  1   force =     0.00000000   -0.00000000   -0.10225214
     atom   11 type  2   force =     0.00000000    0.00000000    0.10223715
     atom   12 type  2   force =     0.00000000   -0.00000000    0.10224051
     The non-local contrib.  to forces
     atom    1 type  1   force =     0.00000000    0.00000000   -0.22293836
     atom    2 type  1   force =     0.00000000    0.00000000   -0.22292676
     atom    3 type  2   force =     0.00000000    0.00000000   -0.11677347
     atom    4 type  2   force =     0.00000000   -0.00000000   -0.11676915
     atom    5 type  1   force =     0.00000000    0.00000000   -0.22294683
     atom    6 type  1   force =     0.00000000   -0.00000000   -0.22293346
     atom    7 type  2   force =     0.00000000   -0.00000000   -0.11676162
     atom    8 type  2   force =     0.00000000   -0.00000000   -0.11676442
     atom    9 type  1   force =     0.00000000   -0.00000000   -0.22292497
     atom   10 type  1   force =     0.00000000    0.00000000   -0.22294809
     atom   11 type  2   force =     0.00000000    0.00000000   -0.11678256
     atom   12 type  2   force =     0.00000000    0.00000000   -0.11677488
     The ionic contribution  to forces
     atom    1 type  1   force =    -0.00000000    0.00000000   -1.55809775
     atom    2 type  1   force =     0.00000000   -0.00000000   -1.55809770
     atom    3 type  2   force =    -0.00000000    0.00000000    1.55809773
     atom    4 type  2   force =     0.00000000   -0.00000000    1.55809771
     atom    5 type  1   force =    -0.00000000    0.00000000   -1.55809770
     atom    6 type  1   force =     0.00000000   -0.00000000   -1.55809775
     atom    7 type  2   force =    -0.00000000    0.00000000    1.55809771
     atom    8 type  2   force =     0.00000000   -0.00000000    1.55809775
     atom    9 type  1   force =    -0.00000000    0.00000000   -1.55809775
     atom   10 type  1   force =     0.00000000   -0.00000000   -1.55809775
     atom   11 type  2   force =    -0.00000000    0.00000000    1.55809775
     atom   12 type  2   force =     0.00000000   -0.00000000    1.55809773
     The local contribution  to forces
     atom    1 type  1   force =    -0.00000004    0.00000002    1.65482416
     atom    2 type  1   force =     0.00000004   -0.00000002    1.65480210
     atom    3 type  2   force =    -0.00000001    0.00000001   -1.33956129
     atom    4 type  2   force =     0.00000001   -0.00000001   -1.33955652
     atom    5 type  1   force =    -0.00000004    0.00000002    1.65484422
     atom    6 type  1   force =     0.00000004   -0.00000002    1.65481653
     atom    7 type  2   force =    -0.00000001    0.00000001   -1.33954853
     atom    8 type  2   force =     0.00000001   -0.00000001   -1.33954681
     atom    9 type  1   force =    -0.00000004    0.00000002    1.65479338
     atom   10 type  1   force =     0.00000004   -0.00000002    1.65484708
     atom   11 type  2   force =    -0.00000001    0.00000001   -1.33956911
     atom   12 type  2   force =     0.00000001   -0.00000001   -1.33955908
     The core correction contribution to forces
     atom    1 type  1   force =    -0.00000001    0.00000000    0.02398224
     atom    2 type  1   force =     0.00000001   -0.00000000    0.02398175
     atom    3 type  2   force =     0.00000000   -0.00000000    0.00047983
     atom    4 type  2   force =    -0.00000000    0.00000000    0.00047978
     atom    5 type  1   force =    -0.00000001    0.00000000    0.02398187
     atom    6 type  1   force =     0.00000001   -0.00000000    0.02398193
     atom    7 type  2   force =     0.00000000   -0.00000000    0.00047970
     atom    8 type  2   force =    -0.00000000    0.00000000    0.00047973
     atom    9 type  1   force =    -0.00000001    0.00000000    0.02398263
     atom   10 type  1   force =     0.00000001   -0.00000000    0.02398191
     atom   11 type  2   force =     0.00000000   -0.00000000    0.00047995
     atom   12 type  2   force =    -0.00000000    0.00000000    0.00047988
     The Hubbard contrib.    to forces
     atom    1 type  1   force =     0.00000000    0.00000000    0.00000000
     atom    2 type  1   force =     0.00000000    0.00000000    0.00000000
     atom    3 type  2   force =     0.00000000    0.00000000    0.00000000
     atom    4 type  2   force =     0.00000000    0.00000000    0.00000000
     atom    5 type  1   force =     0.00000000    0.00000000    0.00000000
     atom    6 type  1   force =     0.00000000    0.00000000    0.00000000
     atom    7 type  2   force =     0.00000000    0.00000000    0.00000000
     atom    8 type  2   force =     0.00000000    0.00000000    0.00000000
     atom    9 type  1   force =     0.00000000    0.00000000    0.00000000
     atom   10 type  1   force =     0.00000000    0.00000000    0.00000000
     atom   11 type  2   force =     0.00000000    0.00000000    0.00000000
     atom   12 type  2   force =     0.00000000    0.00000000    0.00000000
     The SCF correction term to forces
     atom    1 type  1   force =     0.00000000   -0.00000000   -0.00002039
     atom    2 type  1   force =    -0.00000000    0.00000000    0.00000779
     atom    3 type  2   force =     0.00000000   -0.00000000   -0.00000214
     atom    4 type  2   force =    -0.00000000    0.00000000   -0.00000862
     atom    5 type  1   force =     0.00000000   -0.00000000   -0.00003566
     atom    6 type  1   force =    -0.00000000    0.00000000   -0.00001248
     atom    7 type  2   force =     0.00000000   -0.00000000   -0.00001772
     atom    8 type  2   force =    -0.00000000    0.00000000   -0.00001659
     atom    9 type  1   force =     0.00000000   -0.00000000    0.00000790
     atom   10 type  1   force =    -0.00000000    0.00000000   -0.00003667
     atom   11 type  2   force =     0.00000000   -0.00000000    0.00000974
     atom   12 type  2   force =    -0.00000000    0.00000000   -0.00000453

     Total force =     0.354185     Total SCF correction =     0.000064

     General routines

     Parallel routines

   This run was terminated on:  12:12: 8  27Aug2025

   JOB DONE.