     Program PWSCF v.7.0 starts on 27Aug2025 at 15:52:15

     K-points division:     npool     =      17

     Reading input from /home/jvc/QEspresso7.2/ZnO_database/scripts/cell113.in/ZnO-3.27-1.61-113.in
Warning: card &CELL ignored
Warning: card / ignored
Warning: card &FCP ignored
Warning: card / ignored
Warning: card &RISM ignored
Warning: card / ignored

     Current dimensions of program PWSCF are:
     Max number of different atomic species (ntypx) = 10
     Max number of k-points (npk) =  40000
     Max angular momentum in pseudopotentials (lmaxx) =  4
     file Zn.upf: wavefunction(s)  3D renormalized
     Found identity + (  0.0000  0.0000  0.3333) symmetry
     This is a supercell, fractional translations are disabled
     Message from routine setup:
     using ibrav=0 with symmetry is DISCOURAGED, use correct ibrav instead

     Subspace diagonalization in iterative solution of the eigenvalue problem:
     a serial algorithm will be used

     Using Slab Decomposition

     bravais-lattice index     =            0
     lattice parameter (alat)  =       6.1789  a.u.
     unit-cell volume          =     989.4085 (a.u.)^3
     number of atoms/cell      =           12
     number of atomic types    =            2
     number of electrons       =       108.00
     number of Kohn-Sham states=           54
     kinetic-energy cutoff     =      50.0000  Ry
     charge density cutoff     =     400.0000  Ry
     scf convergence threshold =      1.0E-08
     mixing beta               =       0.3000
     number of iterations used =            8  plain     mixing
     Exchange-correlation= PBE
                           (   1   4   3   4   0   0   0)

     celldm(1)=   6.178854  celldm(2)=   0.000000  celldm(3)=   0.000000
     celldm(4)=   0.000000  celldm(5)=   0.000000  celldm(6)=   0.000000

     crystal axes: (cart. coord. in units of alat)
               a(1) = (   1.000000   0.000000   0.000000 )
               a(2) = (  -0.500000   0.866025   0.000000 )
               a(3) = (   0.000000   0.000000   4.843075 )

     reciprocal axes: (cart. coord. in units 2 pi/alat)
               b(1) = (  1.000000  0.577350 -0.000000 )
               b(2) = (  0.000000  1.154701  0.000000 )
               b(3) = (  0.000000 -0.000000  0.206480 )

     PseudoPot. # 1 for Zn read from file:
     /home/jvc/QEspresso7.2/ZnO_database/pseudos/Zn.upf
     MD5 check sum: 7f56cabf9682ed8c977c2f7d0c5985c5
     Pseudo is Ultrasoft + core correction, Zval = 12.0
     Generated using &quot;atomic&quot; code by A. Dal Corso  v.6.2.2
     Using radial grid of 1201 points,  6 beta functions with:
                l(1) =   0
                l(2) =   0
                l(3) =   1
                l(4) =   1
                l(5) =   2
                l(6) =   2
     Q(r) pseudized with 0 coefficients

     PseudoPot. # 2 for O  read from file:
     /home/jvc/QEspresso7.2/ZnO_database/pseudos/O.upf
     MD5 check sum: 91400c9766925bcf19f520983a725ff0
     Pseudo is Ultrasoft + core correction, Zval =  6.0
     Generated using &quot;atomic&quot; code by A. Dal Corso  v.6.3MaX
     Using radial grid of 1095 points,  4 beta functions with:
                l(1) =   0
                l(2) =   0
                l(3) =   1
                l(4) =   1
     Q(r) pseudized with 0 coefficients

     atomic species   valence    mass     pseudopotential
        Zn            12.00    65.38000     Zn( 1.00)
        O              6.00    15.99900     O ( 1.00)

      6 Sym. Ops. (no inversion) found

                                    s                        frac. trans.

      isym =  1     identity

 cryst.   s( 1) = (     1          0          0      )
                  (     0          1          0      )
                  (     0          0          1      )

 cart.    s( 1) = (  1.0000000  0.0000000  0.0000000 )
                  (  0.0000000  1.0000000  0.0000000 )
                  (  0.0000000  0.0000000  1.0000000 )

      isym =  2     120 deg rotation - cryst. axis [0,0,1]

[...]

      isym =  3     120 deg rotation - cryst. axis [0,0,-1]

[...]

      isym =  4     inv. 180 deg rotation - cart. axis [1,0,0]

[...]

      isym =  5     inv. 180 deg rotation - cryst. axis [0,1,0]

[...]

      isym =  6     inv. 180 deg rotation - cryst. axis [1,1,0]

 cryst.   s( 6) = (     0         -1          0      )
                  (    -1          0          0      )
                  (     0          0          1      )

 cart.    s( 6) = (  0.5000000 -0.8660254  0.0000000 )
                  ( -0.8660254 -0.5000000  0.0000000 )
                  (  0.0000000  0.0000000  1.0000000 )

   Cartesian axes

     site n.     atom                  positions (alat units)
         1           Zn  tau(   1) = (   0.5000000   0.2886751   0.8082020  )
         2           Zn  tau(   2) = (  -0.0000000   0.5773503   0.0010228  )
         3           O   tau(   3) = (   0.5000000   0.2886751   1.4201130  )
         4           O   tau(   4) = (  -0.0000000   0.5773503   0.6129338  )
         5           Zn  tau(   5) = (   0.5000000   0.2886751   2.4225604  )
         6           Zn  tau(   6) = (  -0.0000000   0.5773503   1.6153812  )
         7           O   tau(   7) = (   0.5000000   0.2886751   3.0344713  )
         8           O   tau(   8) = (  -0.0000000   0.5773503   2.2272921  )
         9           Zn  tau(   9) = (   0.5000000   0.2886751   4.0369187  )
        10           Zn  tau(  10) = (  -0.0000000   0.5773503   3.2297395  )
        11           O   tau(  11) = (   0.5000000   0.2886751   4.6488297  )
        12           O   tau(  12) = (  -0.0000000   0.5773503   3.8416505  )

   Crystallographic axes

     site n.     atom                  positions (cryst. coord.)
         1           Zn  tau(   1) = (  0.6666667  0.3333333  0.1668779  )
         2           Zn  tau(   2) = (  0.3333333  0.6666667  0.0002112  )
         3           O   tau(   3) = (  0.6666667  0.3333333  0.2932255  )
         4           O   tau(   4) = (  0.3333333  0.6666667  0.1265588  )
         5           Zn  tau(   5) = (  0.6666667  0.3333333  0.5002112  )
         6           Zn  tau(   6) = (  0.3333333  0.6666667  0.3335445  )
         7           O   tau(   7) = (  0.6666667  0.3333333  0.6265588  )
         8           O   tau(   8) = (  0.3333333  0.6666667  0.4598921  )
         9           Zn  tau(   9) = (  0.6666667  0.3333333  0.8335445  )
        10           Zn  tau(  10) = (  0.3333333  0.6666667  0.6668779  )
        11           O   tau(  11) = (  0.6666667  0.3333333  0.9598921  )
        12           O   tau(  12) = (  0.3333333  0.6666667  0.7932255  )

     number of k points=    34
                       cart. coord. in units 2pi/alat
        k(    1) = (   0.0000000   0.0000000   0.0000000), wk =   0.0092593
        k(    2) = (   0.0000000   0.0000000   0.0344134), wk =   0.0185185
        k(    3) = (   0.0000000   0.0000000   0.0688268), wk =   0.0185185
        k(    4) = (   0.0000000   0.0000000  -0.1032402), wk =   0.0092593
        k(    5) = (   0.0000000   0.1924501   0.0000000), wk =   0.0555556
        k(    6) = (   0.0000000   0.1924501   0.0344134), wk =   0.0555556
        k(    7) = (   0.0000000   0.1924501   0.0688268), wk =   0.0555556
        k(    8) = (   0.0000000   0.1924501  -0.1032402), wk =   0.0555556
        k(    9) = (   0.0000000   0.3849002   0.0000000), wk =   0.0555556
        k(   10) = (   0.0000000   0.3849002   0.0344134), wk =   0.0555556
        k(   11) = (   0.0000000   0.3849002   0.0688268), wk =   0.0555556
        k(   12) = (   0.0000000   0.3849002  -0.1032402), wk =   0.0555556
        k(   13) = (   0.0000000  -0.5773503   0.0000000), wk =   0.0277778
        k(   14) = (   0.0000000  -0.5773503   0.0344134), wk =   0.0555556
        k(   15) = (   0.0000000  -0.5773503   0.0688268), wk =   0.0555556
        k(   16) = (   0.0000000  -0.5773503  -0.1032402), wk =   0.0277778
        k(   17) = (   0.1666667   0.2886751   0.0000000), wk =   0.0555556
        k(   18) = (   0.1666667   0.2886751   0.0344134), wk =   0.1111111
        k(   19) = (   0.1666667   0.2886751   0.0688268), wk =   0.1111111
        k(   20) = (   0.1666667   0.2886751  -0.1032402), wk =   0.0555556
        k(   21) = (   0.1666667   0.4811252   0.0000000), wk =   0.1111111
        k(   22) = (   0.1666667   0.4811252   0.0344134), wk =   0.1111111
        k(   23) = (   0.1666667   0.4811252   0.0688268), wk =   0.1111111
        k(   24) = (   0.1666667   0.4811252  -0.1032402), wk =   0.1111111
        k(   25) = (   0.3333333   0.5773503   0.0000000), wk =   0.0185185
        k(   26) = (   0.3333333   0.5773503   0.0344134), wk =   0.0370370
        k(   27) = (   0.3333333   0.5773503   0.0688268), wk =   0.0370370
        k(   28) = (   0.3333333   0.5773503  -0.1032402), wk =   0.0185185
        k(   29) = (   0.0000000  -0.1924501   0.0344134), wk =   0.0555556
        k(   30) = (   0.0000000  -0.1924501   0.0688268), wk =   0.0555556
        k(   31) = (   0.0000000  -0.3849002   0.0344134), wk =   0.0555556
        k(   32) = (   0.0000000  -0.3849002   0.0688268), wk =   0.0555556
        k(   33) = (  -0.1666667  -0.4811252   0.0344134), wk =   0.1111111
        k(   34) = (  -0.1666667  -0.4811252   0.0688268), wk =   0.1111111

                       cryst. coord.
        k(    1) = (   0.0000000   0.0000000   0.0000000), wk =   0.0092593
        k(    2) = (   0.0000000   0.0000000   0.1666667), wk =   0.0185185
        k(    3) = (   0.0000000   0.0000000   0.3333333), wk =   0.0185185
        k(    4) = (   0.0000000   0.0000000  -0.5000000), wk =   0.0092593
        k(    5) = (   0.0000000   0.1666667   0.0000000), wk =   0.0555556
        k(    6) = (   0.0000000   0.1666667   0.1666667), wk =   0.0555556
        k(    7) = (   0.0000000   0.1666667   0.3333333), wk =   0.0555556
        k(    8) = (   0.0000000   0.1666667  -0.5000000), wk =   0.0555556
        k(    9) = (   0.0000000   0.3333333   0.0000000), wk =   0.0555556
        k(   10) = (   0.0000000   0.3333333   0.1666667), wk =   0.0555556
        k(   11) = (   0.0000000   0.3333333   0.3333333), wk =   0.0555556
        k(   12) = (   0.0000000   0.3333333  -0.5000000), wk =   0.0555556
        k(   13) = (   0.0000000  -0.5000000   0.0000000), wk =   0.0277778
        k(   14) = (   0.0000000  -0.5000000   0.1666667), wk =   0.0555556
        k(   15) = (   0.0000000  -0.5000000   0.3333333), wk =   0.0555556
        k(   16) = (   0.0000000  -0.5000000  -0.5000000), wk =   0.0277778
        k(   17) = (   0.1666667   0.1666667   0.0000000), wk =   0.0555556
        k(   18) = (   0.1666667   0.1666667   0.1666667), wk =   0.1111111
        k(   19) = (   0.1666667   0.1666667   0.3333333), wk =   0.1111111
        k(   20) = (   0.1666667   0.1666667  -0.5000000), wk =   0.0555556
        k(   21) = (   0.1666667   0.3333333   0.0000000), wk =   0.1111111
        k(   22) = (   0.1666667   0.3333333   0.1666667), wk =   0.1111111
        k(   23) = (   0.1666667   0.3333333   0.3333333), wk =   0.1111111
        k(   24) = (   0.1666667   0.3333333  -0.5000000), wk =   0.1111111
        k(   25) = (   0.3333333   0.3333333   0.0000000), wk =   0.0185185
        k(   26) = (   0.3333333   0.3333333   0.1666667), wk =   0.0370370
        k(   27) = (   0.3333333   0.3333333   0.3333333), wk =   0.0370370
        k(   28) = (   0.3333333   0.3333333  -0.5000000), wk =   0.0185185
        k(   29) = (   0.0000000  -0.1666667   0.1666667), wk =   0.0555556
        k(   30) = (   0.0000000  -0.1666667   0.3333333), wk =   0.0555556
        k(   31) = (   0.0000000  -0.3333333   0.1666667), wk =   0.0555556
        k(   32) = (   0.0000000  -0.3333333   0.3333333), wk =   0.0555556
        k(   33) = (  -0.1666667  -0.3333333   0.1666667), wk =   0.1111111
        k(   34) = (  -0.1666667  -0.3333333   0.3333333), wk =   0.1111111

     Check: negative core charge=   -0.000002

     Initial potential from superposition of free atoms

     starting charge     107.9776, renormalised to     108.0000
     Starting wfcs are   78 randomized atomic wfcs

     Self-consistent Calculation

     iteration #  1     ecut=    50.00 Ry     beta= 0.30
     Davidson diagonalization with overlap

     ethr =  1.00E-02,  avg # of iterations =  1.9

     total energy              =   -1084.43867503 Ry
     estimated scf accuracy    <       2.07428282 Ry

[...]

     c_bands:  1 eigenvalues not converged
     ethr =  1.63E-04,  avg # of iterations = 10.8

[...]

     total energy              =   -1084.91070081 Ry
     estimated scf accuracy    <       0.00000009 Ry

     iteration # 49     ecut=    50.00 Ry     beta= 0.30
     Davidson diagonalization with overlap

     ethr =  5.37E-11,  avg # of iterations =  4.9

     End of self-consistent calculation

          k = 0.0000 0.0000 0.0000 (  5833 PWs)   bands (ev):

   -10.9990 -10.8357 -10.8357 -10.4957 -10.4957 -10.3188   1.1610   1.1610
     1.2058   1.2058   1.3156   1.3156   1.3447   1.3447   1.3447   1.3447
     1.3561   1.4362   1.4362   1.4362   1.4362   1.4388   1.5010   1.5010
     2.4279   2.4279   2.4914   2.4914   2.4914   2.4914   2.5914   2.5914
     2.5914   2.5914   2.6245   2.6245   2.8914   3.8748   3.8748   5.4560
     5.4560   6.1245   6.1245   6.3183   6.3183   6.3184   6.3184   6.6997
     6.6997   6.6998   6.6998   6.8042   6.8867   6.8867

     occupation numbers
     1.0000   1.0000   1.0000   1.0000   1.0000   1.0000   1.0000   1.0000
     1.0000   1.0000   1.0000   1.0000   1.0000   1.0000   1.0000   1.0000
     1.0000   1.0000   1.0000   1.0000   1.0000   1.0000   1.0000   1.0000
     1.0000   1.0000   1.0000   1.0000   1.0000   1.0000   1.0000   1.0000
     1.0000   1.0000   1.0000   1.0000   1.0000   1.0000   1.0000   1.0000
     1.0000   1.0000   1.0000   1.0000   1.0000   1.0000   1.0000   1.0000
     1.0000   1.0000   1.0000   1.0000   1.0000   1.0000

[...]

          k = 0.0000-0.3849 0.0688 (  5908 PWs)   bands (ev):

[...]

          k =-0.1667-0.4811 0.0344 (  5923 PWs)   bands (ev):

[...]

          k =-0.1667-0.4811 0.0688 (  5931 PWs)   bands (ev):

   -10.3498 -10.3285 -10.2591 -10.2208 -10.1598 -10.1430   1.0785   1.1076
     1.1542   1.1954   1.3193   1.4189   1.5618   1.5710   1.6325   1.6904
     1.7609   1.7827   1.8613   1.8667   1.9460   1.9885   2.0157   2.0681
     2.4018   2.4408   2.5161   2.5387   2.5545   2.5620   2.6806   2.6812
     2.7184   2.7616   2.8551   2.8751   3.0891   3.1543   3.3697   3.4837
     3.6752   3.6985   4.1451   4.3004   4.5091   4.7586   4.7975   5.0525
     5.5112   5.5398   5.6197   5.7450   5.7875   5.8232

     occupation numbers
     1.0000   1.0000   1.0000   1.0000   1.0000   1.0000   1.0000   1.0000
     1.0000   1.0000   1.0000   1.0000   1.0000   1.0000   1.0000   1.0000
     1.0000   1.0000   1.0000   1.0000   1.0000   1.0000   1.0000   1.0000
     1.0000   1.0000   1.0000   1.0000   1.0000   1.0000   1.0000   1.0000
     1.0000   1.0000   1.0000   1.0000   1.0000   1.0000   1.0000   1.0000
     1.0000   1.0000   1.0000   1.0000   1.0000   1.0000   1.0000   1.0000
     1.0000   1.0000   1.0000   1.0000   1.0000   1.0000

     highest occupied level (ev):     6.8867

!    total energy              =   -1084.91070083 Ry
     estimated scf accuracy    <          2.7E-09 Ry

     The total energy is the sum of the following terms:
     one-electron contribution =    -463.57959147 Ry
     hartree contribution      =     354.86755756 Ry
     xc contribution           =    -328.63783734 Ry
     ewald contribution        =    -647.56082958 Ry

     convergence has been achieved in  49 iterations

     Forces acting on atoms (cartesian axes, Ry/au):

     atom    1 type  1   force =     0.00000000    0.00000000    0.00006606
     atom    2 type  1   force =     0.00000000    0.00000000    0.00006677
     atom    3 type  2   force =     0.00000000    0.00000000   -0.00007005
     atom    4 type  2   force =     0.00000000    0.00000000   -0.00007175
     atom    5 type  1   force =     0.00000000    0.00000000    0.00006559
     atom    6 type  1   force =     0.00000000    0.00000000    0.00007154
     atom    7 type  2   force =     0.00000000    0.00000000   -0.00006857
     atom    8 type  2   force =     0.00000000    0.00000000   -0.00006878
     atom    9 type  1   force =     0.00000000    0.00000000    0.00006390
     atom   10 type  1   force =     0.00000000    0.00000000    0.00007785
     atom   11 type  2   force =     0.00000000    0.00000000   -0.00006612
     atom   12 type  2   force =     0.00000000   -0.00000000   -0.00006644
     The non-local contrib.  to forces
     atom    1 type  1   force =     0.00000000    0.00000000   -0.00481850
     atom    2 type  1   force =     0.00000000   -0.00000000   -0.00482716
     atom    3 type  2   force =    -0.00000000   -0.00000000    0.00567977
     atom    4 type  2   force =     0.00000000    0.00000000    0.00567780
     atom    5 type  1   force =     0.00000000    0.00000000   -0.00481956
     atom    6 type  1   force =     0.00000000    0.00000000   -0.00482487
     atom    7 type  2   force =     0.00000000    0.00000000    0.00567950
     atom    8 type  2   force =     0.00000000    0.00000000    0.00568166
     atom    9 type  1   force =     0.00000000    0.00000000   -0.00483105
     atom   10 type  1   force =     0.00000000   -0.00000000   -0.00482280
     atom   11 type  2   force =    -0.00000000   -0.00000000    0.00568722
     atom   12 type  2   force =    -0.00000000   -0.00000000    0.00568585
     The ionic contribution  to forces
     atom    1 type  1   force =    -0.00000000    0.00000000    0.06271681
     atom    2 type  1   force =     0.00000000   -0.00000000    0.06271685
     atom    3 type  2   force =    -0.00000000    0.00000000   -0.06271682
     atom    4 type  2   force =     0.00000000   -0.00000000   -0.06271683
     atom    5 type  1   force =    -0.00000000    0.00000000    0.06271685
     atom    6 type  1   force =     0.00000000   -0.00000000    0.06271681
     atom    7 type  2   force =    -0.00000000    0.00000000   -0.06271683
     atom    8 type  2   force =     0.00000000   -0.00000000   -0.06271681
     atom    9 type  1   force =    -0.00000000    0.00000000    0.06271681
     atom   10 type  1   force =     0.00000000   -0.00000000    0.06271681
     atom   11 type  2   force =    -0.00000000    0.00000000   -0.06271681
     atom   12 type  2   force =     0.00000000   -0.00000000   -0.06271682
     The local contribution  to forces
     atom    1 type  1   force =    -0.00000004    0.00000002   -0.05829354
     atom    2 type  1   force =     0.00000004   -0.00000002   -0.05828101
     atom    3 type  2   force =    -0.00000001    0.00000001    0.05702763
     atom    4 type  2   force =     0.00000001   -0.00000001    0.05702522
     atom    5 type  1   force =    -0.00000004    0.00000002   -0.05828973
     atom    6 type  1   force =     0.00000004   -0.00000002   -0.05828728
     atom    7 type  2   force =    -0.00000001    0.00000001    0.05702248
     atom    8 type  2   force =     0.00000001   -0.00000001    0.05702562
     atom    9 type  1   force =    -0.00000004    0.00000002   -0.05827422
     atom   10 type  1   force =     0.00000004   -0.00000002   -0.05829490
     atom   11 type  2   force =    -0.00000001    0.00000001    0.05703159
     atom   12 type  2   force =     0.00000001   -0.00000001    0.05702989
     The core correction contribution to forces
     atom    1 type  1   force =    -0.00000001    0.00000000    0.00046177
     atom    2 type  1   force =     0.00000001   -0.00000000    0.00046162
     atom    3 type  2   force =     0.00000000   -0.00000000   -0.00006414
     atom    4 type  2   force =    -0.00000000    0.00000000   -0.00006413
     atom    5 type  1   force =    -0.00000001    0.00000000    0.00046161
     atom    6 type  1   force =     0.00000001   -0.00000000    0.00046166
     atom    7 type  2   force =     0.00000000   -0.00000000   -0.00006415
     atom    8 type  2   force =    -0.00000000    0.00000000   -0.00006417
     atom    9 type  1   force =    -0.00000001    0.00000000    0.00046155
     atom   10 type  1   force =     0.00000001   -0.00000000    0.00046169
     atom   11 type  2   force =     0.00000000   -0.00000000   -0.00006423
     atom   12 type  2   force =    -0.00000000    0.00000000   -0.00006421
     The Hubbard contrib.    to forces
     atom    1 type  1   force =     0.00000000    0.00000000    0.00000000
     atom    2 type  1   force =     0.00000000    0.00000000    0.00000000
     atom    3 type  2   force =     0.00000000    0.00000000    0.00000000
     atom    4 type  2   force =     0.00000000    0.00000000    0.00000000
     atom    5 type  1   force =     0.00000000    0.00000000    0.00000000
     atom    6 type  1   force =     0.00000000    0.00000000    0.00000000
     atom    7 type  2   force =     0.00000000    0.00000000    0.00000000
     atom    8 type  2   force =     0.00000000    0.00000000    0.00000000
     atom    9 type  1   force =     0.00000000    0.00000000    0.00000000
     atom   10 type  1   force =     0.00000000    0.00000000    0.00000000
     atom   11 type  2   force =     0.00000000    0.00000000    0.00000000
     atom   12 type  2   force =     0.00000000    0.00000000    0.00000000
     The SCF correction term to forces
     atom    1 type  1   force =     0.00000000   -0.00000000   -0.00000172
     atom    2 type  1   force =    -0.00000000    0.00000000   -0.00000477
     atom    3 type  2   force =     0.00000000   -0.00000000    0.00000227
     atom    4 type  2   force =    -0.00000000    0.00000000    0.00000495
     atom    5 type  1   force =     0.00000000   -0.00000000   -0.00000481
     atom    6 type  1   force =    -0.00000000    0.00000000    0.00000398
     atom    7 type  2   force =     0.00000000   -0.00000000    0.00000918
     atom    8 type  2   force =    -0.00000000    0.00000000    0.00000367
     atom    9 type  1   force =     0.00000000   -0.00000000   -0.00001043
     atom   10 type  1   force =    -0.00000000    0.00000000    0.00001580
     atom   11 type  2   force =     0.00000000   -0.00000000   -0.00000514
     atom   12 type  2   force =    -0.00000000    0.00000000   -0.00000238

     Total force =     0.000238     Total SCF correction =     0.000024
     SCF correction compared to forces is large: reduce conv_thr to get better values

     General routines

     Parallel routines

   This run was terminated on:  16: 0:15  27Aug2025

   JOB DONE.