     Program PWSCF v.7.0 starts on 28Aug2025 at  8:14:54

     K-points division:     npool     =      17

     Reading input from ZnO-3.60-1.45-113.in
Warning: card &CELL ignored
Warning: card / ignored
Warning: card &FCP ignored
Warning: card / ignored
Warning: card &RISM ignored
Warning: card / ignored

     Current dimensions of program PWSCF are:
     Max number of different atomic species (ntypx) = 10
     Max number of k-points (npk) =  40000
     Max angular momentum in pseudopotentials (lmaxx) =  4
     file Zn.upf: wavefunction(s)  3D renormalized
     Found identity + (  0.0000  0.0000  0.3333) symmetry
     This is a supercell, fractional translations are disabled
     Message from routine setup:
     using ibrav=0 with symmetry is DISCOURAGED, use correct ibrav instead

     Subspace diagonalization in iterative solution of the eigenvalue problem:
     a serial algorithm will be used

     Using Slab Decomposition

     bravais-lattice index     =            0
     lattice parameter (alat)  =       6.7967  a.u.
     unit-cell volume          =    1185.2124 (a.u.)^3
     number of atoms/cell      =           12
     number of atomic types    =            2
     number of electrons       =       108.00
     number of Kohn-Sham states=           54
     kinetic-energy cutoff     =      50.0000  Ry
     charge density cutoff     =     400.0000  Ry
     scf convergence threshold =      1.0E-08
     mixing beta               =       0.3000
     number of iterations used =            8  plain     mixing
     Exchange-correlation= PBE
                           (   1   4   3   4   0   0   0)

     celldm(1)=   6.796739  celldm(2)=   0.000000  celldm(3)=   0.000000
     celldm(4)=   0.000000  celldm(5)=   0.000000  celldm(6)=   0.000000

     crystal axes: (cart. coord. in units of alat)
               a(1) = (   1.000000   0.000000   0.000000 )
               a(2) = (  -0.500000   0.866025   0.000000 )
               a(3) = (   0.000000   0.000000   4.358768 )

     reciprocal axes: (cart. coord. in units 2 pi/alat)
               b(1) = (  1.000000  0.577350 -0.000000 )
               b(2) = (  0.000000  1.154701  0.000000 )
               b(3) = (  0.000000 -0.000000  0.229423 )

     PseudoPot. # 1 for Zn read from file:
     /home/jvc/QEspresso7.2/ZnO_database/pseudos/Zn.upf
     MD5 check sum: 7f56cabf9682ed8c977c2f7d0c5985c5
     Pseudo is Ultrasoft + core correction, Zval = 12.0
     Generated using &quot;atomic&quot; code by A. Dal Corso  v.6.2.2
     Using radial grid of 1201 points,  6 beta functions with:
                l(1) =   0
                l(2) =   0
                l(3) =   1
                l(4) =   1
                l(5) =   2
                l(6) =   2
     Q(r) pseudized with 0 coefficients

     PseudoPot. # 2 for O  read from file:
     /home/jvc/QEspresso7.2/ZnO_database/pseudos/O.upf
     MD5 check sum: 91400c9766925bcf19f520983a725ff0
     Pseudo is Ultrasoft + core correction, Zval =  6.0
     Generated using &quot;atomic&quot; code by A. Dal Corso  v.6.3MaX
     Using radial grid of 1095 points,  4 beta functions with:
                l(1) =   0
                l(2) =   0
                l(3) =   1
                l(4) =   1
     Q(r) pseudized with 0 coefficients

     atomic species   valence    mass     pseudopotential
        Zn            12.00    65.38000     Zn( 1.00)
        O              6.00    15.99900     O ( 1.00)

      6 Sym. Ops. (no inversion) found

                                    s                        frac. trans.

      isym =  1     identity

 cryst.   s( 1) = (     1          0          0      )
                  (     0          1          0      )
                  (     0          0          1      )

 cart.    s( 1) = (  1.0000000  0.0000000  0.0000000 )
                  (  0.0000000  1.0000000  0.0000000 )
                  (  0.0000000  0.0000000  1.0000000 )

      isym =  2     120 deg rotation - cryst. axis [0,0,1]

[...]

      isym =  3     120 deg rotation - cryst. axis [0,0,-1]

[...]

      isym =  4     inv. 180 deg rotation - cart. axis [1,0,0]

[...]

      isym =  5     inv. 180 deg rotation - cryst. axis [0,1,0]

[...]

      isym =  6     inv. 180 deg rotation - cryst. axis [1,1,0]

 cryst.   s( 6) = (     0         -1          0      )
                  (    -1          0          0      )
                  (     0          0          1      )

 cart.    s( 6) = (  0.5000000 -0.8660254  0.0000000 )
                  ( -0.8660254 -0.5000000  0.0000000 )
                  (  0.0000000  0.0000000  1.0000000 )

   Cartesian axes

     site n.     atom                  positions (alat units)
         1           Zn  tau(   1) = (   0.5000000   0.2886751   0.7273818  )
         2           Zn  tau(   2) = (  -0.0000000   0.5773503   0.0009206  )
         3           O   tau(   3) = (   0.5000000   0.2886751   1.2781017  )
         4           O   tau(   4) = (  -0.0000000   0.5773503   0.5516404  )
         5           Zn  tau(   5) = (   0.5000000   0.2886751   2.1803043  )
         6           Zn  tau(   6) = (  -0.0000000   0.5773503   1.4538431  )
         7           O   tau(   7) = (   0.5000000   0.2886751   2.7310242  )
         8           O   tau(   8) = (  -0.0000000   0.5773503   2.0045629  )
         9           Zn  tau(   9) = (   0.5000000   0.2886751   3.6332269  )
        10           Zn  tau(  10) = (  -0.0000000   0.5773503   2.9067656  )
        11           O   tau(  11) = (   0.5000000   0.2886751   4.1839467  )
        12           O   tau(  12) = (  -0.0000000   0.5773503   3.4574855  )

   Crystallographic axes

     site n.     atom                  positions (cryst. coord.)
         1           Zn  tau(   1) = (  0.6666667  0.3333333  0.1668779  )
         2           Zn  tau(   2) = (  0.3333333  0.6666667  0.0002112  )
         3           O   tau(   3) = (  0.6666667  0.3333333  0.2932255  )
         4           O   tau(   4) = (  0.3333333  0.6666667  0.1265588  )
         5           Zn  tau(   5) = (  0.6666667  0.3333333  0.5002112  )
         6           Zn  tau(   6) = (  0.3333333  0.6666667  0.3335445  )
         7           O   tau(   7) = (  0.6666667  0.3333333  0.6265588  )
         8           O   tau(   8) = (  0.3333333  0.6666667  0.4598921  )
         9           Zn  tau(   9) = (  0.6666667  0.3333333  0.8335445  )
        10           Zn  tau(  10) = (  0.3333333  0.6666667  0.6668779  )
        11           O   tau(  11) = (  0.6666667  0.3333333  0.9598921  )
        12           O   tau(  12) = (  0.3333333  0.6666667  0.7932255  )

     number of k points=    34
                       cart. coord. in units 2pi/alat
        k(    1) = (   0.0000000   0.0000000   0.0000000), wk =   0.0092593
        k(    2) = (   0.0000000   0.0000000   0.0382371), wk =   0.0185185
        k(    3) = (   0.0000000   0.0000000   0.0764742), wk =   0.0185185
        k(    4) = (   0.0000000   0.0000000  -0.1147113), wk =   0.0092593
        k(    5) = (   0.0000000   0.1924501   0.0000000), wk =   0.0555556
        k(    6) = (   0.0000000   0.1924501   0.0382371), wk =   0.0555556
        k(    7) = (   0.0000000   0.1924501   0.0764742), wk =   0.0555556
        k(    8) = (   0.0000000   0.1924501  -0.1147113), wk =   0.0555556
        k(    9) = (   0.0000000   0.3849002   0.0000000), wk =   0.0555556
        k(   10) = (   0.0000000   0.3849002   0.0382371), wk =   0.0555556
        k(   11) = (   0.0000000   0.3849002   0.0764742), wk =   0.0555556
        k(   12) = (   0.0000000   0.3849002  -0.1147113), wk =   0.0555556
        k(   13) = (   0.0000000  -0.5773503   0.0000000), wk =   0.0277778
        k(   14) = (   0.0000000  -0.5773503   0.0382371), wk =   0.0555556
        k(   15) = (   0.0000000  -0.5773503   0.0764742), wk =   0.0555556
        k(   16) = (   0.0000000  -0.5773503  -0.1147113), wk =   0.0277778
        k(   17) = (   0.1666667   0.2886751   0.0000000), wk =   0.0555556
        k(   18) = (   0.1666667   0.2886751   0.0382371), wk =   0.1111111
        k(   19) = (   0.1666667   0.2886751   0.0764742), wk =   0.1111111
        k(   20) = (   0.1666667   0.2886751  -0.1147113), wk =   0.0555556
        k(   21) = (   0.1666667   0.4811252   0.0000000), wk =   0.1111111
        k(   22) = (   0.1666667   0.4811252   0.0382371), wk =   0.1111111
        k(   23) = (   0.1666667   0.4811252   0.0764742), wk =   0.1111111
        k(   24) = (   0.1666667   0.4811252  -0.1147113), wk =   0.1111111
        k(   25) = (   0.3333333   0.5773503   0.0000000), wk =   0.0185185
        k(   26) = (   0.3333333   0.5773503   0.0382371), wk =   0.0370370
        k(   27) = (   0.3333333   0.5773503   0.0764742), wk =   0.0370370
        k(   28) = (   0.3333333   0.5773503  -0.1147113), wk =   0.0185185
        k(   29) = (   0.0000000  -0.1924501   0.0382371), wk =   0.0555556
        k(   30) = (   0.0000000  -0.1924501   0.0764742), wk =   0.0555556
        k(   31) = (   0.0000000  -0.3849002   0.0382371), wk =   0.0555556
        k(   32) = (   0.0000000  -0.3849002   0.0764742), wk =   0.0555556
        k(   33) = (  -0.1666667  -0.4811252   0.0382371), wk =   0.1111111
        k(   34) = (  -0.1666667  -0.4811252   0.0764742), wk =   0.1111111

                       cryst. coord.
        k(    1) = (   0.0000000   0.0000000   0.0000000), wk =   0.0092593
        k(    2) = (   0.0000000   0.0000000   0.1666667), wk =   0.0185185
        k(    3) = (   0.0000000   0.0000000   0.3333333), wk =   0.0185185
        k(    4) = (   0.0000000   0.0000000  -0.5000000), wk =   0.0092593
        k(    5) = (   0.0000000   0.1666667   0.0000000), wk =   0.0555556
        k(    6) = (   0.0000000   0.1666667   0.1666667), wk =   0.0555556
        k(    7) = (   0.0000000   0.1666667   0.3333333), wk =   0.0555556
        k(    8) = (   0.0000000   0.1666667  -0.5000000), wk =   0.0555556
        k(    9) = (   0.0000000   0.3333333   0.0000000), wk =   0.0555556
        k(   10) = (   0.0000000   0.3333333   0.1666667), wk =   0.0555556
        k(   11) = (   0.0000000   0.3333333   0.3333333), wk =   0.0555556
        k(   12) = (   0.0000000   0.3333333  -0.5000000), wk =   0.0555556
        k(   13) = (   0.0000000  -0.5000000   0.0000000), wk =   0.0277778
        k(   14) = (   0.0000000  -0.5000000   0.1666667), wk =   0.0555556
        k(   15) = (   0.0000000  -0.5000000   0.3333333), wk =   0.0555556
        k(   16) = (   0.0000000  -0.5000000  -0.5000000), wk =   0.0277778
        k(   17) = (   0.1666667   0.1666667   0.0000000), wk =   0.0555556
        k(   18) = (   0.1666667   0.1666667   0.1666667), wk =   0.1111111
        k(   19) = (   0.1666667   0.1666667   0.3333333), wk =   0.1111111
        k(   20) = (   0.1666667   0.1666667  -0.5000000), wk =   0.0555556
        k(   21) = (   0.1666667   0.3333333   0.0000000), wk =   0.1111111
        k(   22) = (   0.1666667   0.3333333   0.1666667), wk =   0.1111111
        k(   23) = (   0.1666667   0.3333333   0.3333333), wk =   0.1111111
        k(   24) = (   0.1666667   0.3333333  -0.5000000), wk =   0.1111111
        k(   25) = (   0.3333333   0.3333333   0.0000000), wk =   0.0185185
        k(   26) = (   0.3333333   0.3333333   0.1666667), wk =   0.0370370
        k(   27) = (   0.3333333   0.3333333   0.3333333), wk =   0.0370370
        k(   28) = (   0.3333333   0.3333333  -0.5000000), wk =   0.0185185
        k(   29) = (   0.0000000  -0.1666667   0.1666667), wk =   0.0555556
        k(   30) = (   0.0000000  -0.1666667   0.3333333), wk =   0.0555556
        k(   31) = (   0.0000000  -0.3333333   0.1666667), wk =   0.0555556
        k(   32) = (   0.0000000  -0.3333333   0.3333333), wk =   0.0555556
        k(   33) = (  -0.1666667  -0.3333333   0.1666667), wk =   0.1111111
        k(   34) = (  -0.1666667  -0.3333333   0.3333333), wk =   0.1111111

     Check: negative core charge=   -0.000002

     Initial potential from superposition of free atoms

     starting charge     107.9776, renormalised to     108.0000
     Starting wfcs are   78 randomized atomic wfcs

     Self-consistent Calculation

     iteration #  1     ecut=    50.00 Ry     beta= 0.30
     Davidson diagonalization with overlap

     ethr =  1.00E-02,  avg # of iterations =  1.6

     total energy              =   -1084.20270531 Ry
     estimated scf accuracy    <       2.36811089 Ry

[...]

     total energy              =   -1084.76654861 Ry
     estimated scf accuracy    <       0.00000002 Ry

     iteration # 37     ecut=    50.00 Ry     beta= 0.30
     Davidson diagonalization with overlap

     ethr =  1.41E-11,  avg # of iterations =  1.1

     End of self-consistent calculation

          k = 0.0000 0.0000 0.0000 (  7153 PWs)   bands (ev):

   -12.1920 -12.0523 -12.0522 -11.7701 -11.7700 -11.6284  -0.5720  -0.5719
    -0.4681  -0.4383  -0.4383  -0.4337  -0.4337  -0.4193  -0.4193  -0.4193
    -0.4193  -0.3355  -0.3355  -0.3354  -0.3354  -0.2616  -0.2616   0.1599
     0.1599   0.2268   0.2268   0.2268   0.2268   0.3152   0.3152   0.3152
     0.3152   0.3343   0.3343   0.4022   0.5050   1.8564   1.8564   3.2242
     3.2242   3.6674   3.6674   3.8770   3.8770   3.8771   3.8771   4.2753
     4.2753   4.2754   4.2754   4.4633   4.4633   4.5165

     occupation numbers
     1.0000   1.0000   1.0000   1.0000   1.0000   1.0000   1.0000   1.0000
     1.0000   1.0000   1.0000   1.0000   1.0000   1.0000   1.0000   1.0000
     1.0000   1.0000   1.0000   1.0000   1.0000   1.0000   1.0000   1.0000
     1.0000   1.0000   1.0000   1.0000   1.0000   1.0000   1.0000   1.0000
     1.0000   1.0000   1.0000   1.0000   1.0000   1.0000   1.0000   1.0000
     1.0000   1.0000   1.0000   1.0000   1.0000   1.0000   1.0000   1.0000
     1.0000   1.0000   1.0000   1.0000   1.0000   1.0000

[...]

          k = 0.0000-0.3849 0.0765 (  7069 PWs)   bands (ev):

[...]

          k =-0.1667-0.4811 0.0382 (  7065 PWs)   bands (ev):

[...]

          k =-0.1667-0.4811 0.0765 (  7068 PWs)   bands (ev):

   -11.7885 -11.7696 -11.7094 -11.6773 -11.6285 -11.6156  -0.5738  -0.5439
    -0.5034  -0.4706  -0.3686  -0.3535  -0.2753  -0.2242  -0.1936  -0.1707
    -0.1398  -0.1207  -0.1147  -0.1051  -0.0310   0.0367   0.0505   0.1109
     0.1980   0.2179   0.2503   0.2580   0.2666   0.2680   0.3649   0.3667
     0.3943   0.4164   0.4549   0.4651   1.2463   1.2516   1.3629   1.4608
     1.6860   1.7522   2.2630   2.3803   2.6461   2.8535   2.9678   3.1261
     3.5913   3.6319   3.6954   3.7447   3.8168   3.8974

     occupation numbers
     1.0000   1.0000   1.0000   1.0000   1.0000   1.0000   1.0000   1.0000
     1.0000   1.0000   1.0000   1.0000   1.0000   1.0000   1.0000   1.0000
     1.0000   1.0000   1.0000   1.0000   1.0000   1.0000   1.0000   1.0000
     1.0000   1.0000   1.0000   1.0000   1.0000   1.0000   1.0000   1.0000
     1.0000   1.0000   1.0000   1.0000   1.0000   1.0000   1.0000   1.0000
     1.0000   1.0000   1.0000   1.0000   1.0000   1.0000   1.0000   1.0000
     1.0000   1.0000   1.0000   1.0000   1.0000   1.0000

     highest occupied level (ev):     4.5165

!    total energy              =   -1084.76654860 Ry
     estimated scf accuracy    <          9.6E-09 Ry

     The total energy is the sum of the following terms:
     one-electron contribution =    -528.53992916 Ry
     hartree contribution      =     378.97535537 Ry
     xc contribution           =    -327.67835548 Ry
     ewald contribution        =    -607.52361933 Ry

     convergence has been achieved in  37 iterations

     Forces acting on atoms (cartesian axes, Ry/au):

     atom    1 type  1   force =     0.00000000   -0.00000000   -0.01335409
     atom    2 type  1   force =     0.00000000    0.00000000   -0.01338181
     atom    3 type  2   force =     0.00000000    0.00000000    0.01338141
     atom    4 type  2   force =     0.00000000    0.00000000    0.01338159
     atom    5 type  1   force =     0.00000000   -0.00000000   -0.01340496
     atom    6 type  1   force =     0.00000000   -0.00000000   -0.01340309
     atom    7 type  2   force =     0.00000000    0.00000000    0.01338309
     atom    8 type  2   force =     0.00000000   -0.00000000    0.01338382
     atom    9 type  1   force =     0.00000000   -0.00000000   -0.01338754
     atom   10 type  1   force =     0.00000000    0.00000000   -0.01336414
     atom   11 type  2   force =     0.00000000    0.00000000    0.01338274
     atom   12 type  2   force =     0.00000000    0.00000000    0.01338296
     The non-local contrib.  to forces
     atom    1 type  1   force =     0.00000000    0.00000000   -0.28590026
     atom    2 type  1   force =     0.00000000    0.00000000   -0.28591951
     atom    3 type  2   force =     0.00000000    0.00000000   -0.25077462
     atom    4 type  2   force =     0.00000000    0.00000000   -0.25078970
     atom    5 type  1   force =     0.00000000    0.00000000   -0.28593566
     atom    6 type  1   force =     0.00000000    0.00000000   -0.28592800
     atom    7 type  2   force =     0.00000000    0.00000000   -0.25078223
     atom    8 type  2   force =     0.00000000    0.00000000   -0.25076198
     atom    9 type  1   force =     0.00000000    0.00000000   -0.28591983
     atom   10 type  1   force =     0.00000000   -0.00000000   -0.28590869
     atom   11 type  2   force =     0.00000000   -0.00000000   -0.25077364
     atom   12 type  2   force =     0.00000000    0.00000000   -0.25078077
     The ionic contribution  to forces
     atom    1 type  1   force =    -0.00000000    0.00000000   -1.86792561
     atom    2 type  1   force =     0.00000000   -0.00000000   -1.86792557
     atom    3 type  2   force =    -0.00000000    0.00000000    1.86792559
     atom    4 type  2   force =     0.00000000   -0.00000000    1.86792558
     atom    5 type  1   force =    -0.00000000    0.00000000   -1.86792557
     atom    6 type  1   force =     0.00000000   -0.00000000   -1.86792561
     atom    7 type  2   force =    -0.00000000    0.00000000    1.86792558
     atom    8 type  2   force =     0.00000000   -0.00000000    1.86792561
     atom    9 type  1   force =    -0.00000000    0.00000000   -1.86792561
     atom   10 type  1   force =     0.00000000   -0.00000000   -1.86792561
     atom   11 type  2   force =    -0.00000000    0.00000000    1.86792561
     atom   12 type  2   force =     0.00000000   -0.00000000    1.86792559
     The local contribution  to forces
     atom    1 type  1   force =    -0.00000005    0.00000003    2.12201654
     atom    2 type  1   force =     0.00000005   -0.00000003    2.12206492
     atom    3 type  2   force =    -0.00000001    0.00000001   -1.60585361
     atom    4 type  2   force =     0.00000001   -0.00000001   -1.60587519
     atom    5 type  1   force =    -0.00000005    0.00000003    2.12210418
     atom    6 type  1   force =     0.00000005   -0.00000003    2.12209931
     atom    7 type  2   force =    -0.00000001    0.00000001   -1.60586662
     atom    8 type  2   force =     0.00000001   -0.00000001   -1.60585374
     atom    9 type  1   force =    -0.00000005    0.00000003    2.12207542
     atom   10 type  1   force =     0.00000005   -0.00000003    2.12203478
     atom   11 type  2   force =    -0.00000001    0.00000001   -1.60586432
     atom   12 type  2   force =     0.00000001   -0.00000001   -1.60585843
     The core correction contribution to forces
     atom    1 type  1   force =    -0.00000001    0.00000000    0.01838014
     atom    2 type  1   force =     0.00000001   -0.00000000    0.01837995
     atom    3 type  2   force =     0.00000000   -0.00000000    0.00209688
     atom    4 type  2   force =    -0.00000000    0.00000000    0.00209705
     atom    5 type  1   force =    -0.00000001    0.00000000    0.01837966
     atom    6 type  1   force =     0.00000001   -0.00000000    0.01837891
     atom    7 type  2   force =     0.00000000   -0.00000000    0.00209697
     atom    8 type  2   force =    -0.00000000    0.00000000    0.00209671
     atom    9 type  1   force =    -0.00000001    0.00000000    0.01837929
     atom   10 type  1   force =     0.00000001   -0.00000000    0.01838026
     atom   11 type  2   force =     0.00000000   -0.00000000    0.00209686
     atom   12 type  2   force =    -0.00000000    0.00000000    0.00209696
     The Hubbard contrib.    to forces
     atom    1 type  1   force =     0.00000000    0.00000000    0.00000000
     atom    2 type  1   force =     0.00000000    0.00000000    0.00000000
     atom    3 type  2   force =     0.00000000    0.00000000    0.00000000
     atom    4 type  2   force =     0.00000000    0.00000000    0.00000000
     atom    5 type  1   force =     0.00000000    0.00000000    0.00000000
     atom    6 type  1   force =     0.00000000    0.00000000    0.00000000
     atom    7 type  2   force =     0.00000000    0.00000000    0.00000000
     atom    8 type  2   force =     0.00000000    0.00000000    0.00000000
     atom    9 type  1   force =     0.00000000    0.00000000    0.00000000
     atom   10 type  1   force =     0.00000000    0.00000000    0.00000000
     atom   11 type  2   force =     0.00000000    0.00000000    0.00000000
     atom   12 type  2   force =     0.00000000    0.00000000    0.00000000
     The SCF correction term to forces
     atom    1 type  1   force =     0.00000000   -0.00000000    0.00007707
     atom    2 type  1   force =    -0.00000000    0.00000000    0.00002038
     atom    3 type  2   force =     0.00000000   -0.00000000   -0.00001085
     atom    4 type  2   force =    -0.00000000    0.00000000    0.00002582
     atom    5 type  1   force =     0.00000000   -0.00000000   -0.00002560
     atom    6 type  1   force =    -0.00000000    0.00000000   -0.00002573
     atom    7 type  2   force =     0.00000000   -0.00000000    0.00001136
     atom    8 type  2   force =    -0.00000000    0.00000000   -0.00002080
     atom    9 type  1   force =     0.00000000   -0.00000000    0.00000516
     atom   10 type  1   force =    -0.00000000    0.00000000    0.00005708
     atom   11 type  2   force =     0.00000000   -0.00000000    0.00000020
     atom   12 type  2   force =    -0.00000000    0.00000000    0.00000158

     Total force =     0.046359     Total SCF correction =     0.000111

     General routines

     Parallel routines

   This run was terminated on:   8:19:41  28Aug2025

   JOB DONE.