     Program PWSCF v.7.0 starts on 27Aug2025 at 19:16:38

     K-points division:     npool     =      17

     Reading input from /home/jvc/QEspresso7.2/ZnO_database/scripts/cell113.in/ZnO-3.47-1.61-113.in
Warning: card &CELL ignored
Warning: card / ignored
Warning: card &FCP ignored
Warning: card / ignored
Warning: card &RISM ignored
Warning: card / ignored

     Current dimensions of program PWSCF are:
     Max number of different atomic species (ntypx) = 10
     Max number of k-points (npk) =  40000
     Max angular momentum in pseudopotentials (lmaxx) =  4
     file Zn.upf: wavefunction(s)  3D renormalized
     Found identity + (  0.0000  0.0000  0.3333) symmetry
     This is a supercell, fractional translations are disabled
     Message from routine setup:
     using ibrav=0 with symmetry is DISCOURAGED, use correct ibrav instead

     Subspace diagonalization in iterative solution of the eigenvalue problem:
     a serial algorithm will be used

     Using Slab Decomposition

     bravais-lattice index     =            0
     lattice parameter (alat)  =       6.5496  a.u.
     unit-cell volume          =    1178.4013 (a.u.)^3
     number of atoms/cell      =           12
     number of atomic types    =            2
     number of electrons       =       108.00
     number of Kohn-Sham states=           54
     kinetic-energy cutoff     =      50.0000  Ry
     charge density cutoff     =     400.0000  Ry
     scf convergence threshold =      1.0E-08
     mixing beta               =       0.3000
     number of iterations used =            8  plain     mixing
     Exchange-correlation= PBE
                           (   1   4   3   4   0   0   0)

     celldm(1)=   6.549585  celldm(2)=   0.000000  celldm(3)=   0.000000
     celldm(4)=   0.000000  celldm(5)=   0.000000  celldm(6)=   0.000000

     crystal axes: (cart. coord. in units of alat)
               a(1) = (   1.000000   0.000000   0.000000 )
               a(2) = (  -0.500000   0.866025   0.000000 )
               a(3) = (   0.000000   0.000000   4.843075 )

     reciprocal axes: (cart. coord. in units 2 pi/alat)
               b(1) = (  1.000000  0.577350 -0.000000 )
               b(2) = (  0.000000  1.154701  0.000000 )
               b(3) = (  0.000000 -0.000000  0.206480 )

     PseudoPot. # 1 for Zn read from file:
     /home/jvc/QEspresso7.2/ZnO_database/pseudos/Zn.upf
     MD5 check sum: 7f56cabf9682ed8c977c2f7d0c5985c5
     Pseudo is Ultrasoft + core correction, Zval = 12.0
     Generated using &quot;atomic&quot; code by A. Dal Corso  v.6.2.2
     Using radial grid of 1201 points,  6 beta functions with:
                l(1) =   0
                l(2) =   0
                l(3) =   1
                l(4) =   1
                l(5) =   2
                l(6) =   2
     Q(r) pseudized with 0 coefficients

     PseudoPot. # 2 for O  read from file:
     /home/jvc/QEspresso7.2/ZnO_database/pseudos/O.upf
     MD5 check sum: 91400c9766925bcf19f520983a725ff0
     Pseudo is Ultrasoft + core correction, Zval =  6.0
     Generated using &quot;atomic&quot; code by A. Dal Corso  v.6.3MaX
     Using radial grid of 1095 points,  4 beta functions with:
                l(1) =   0
                l(2) =   0
                l(3) =   1
                l(4) =   1
     Q(r) pseudized with 0 coefficients

     atomic species   valence    mass     pseudopotential
        Zn            12.00    65.38000     Zn( 1.00)
        O              6.00    15.99900     O ( 1.00)

      6 Sym. Ops. (no inversion) found

                                    s                        frac. trans.

      isym =  1     identity

 cryst.   s( 1) = (     1          0          0      )
                  (     0          1          0      )
                  (     0          0          1      )

 cart.    s( 1) = (  1.0000000  0.0000000  0.0000000 )
                  (  0.0000000  1.0000000  0.0000000 )
                  (  0.0000000  0.0000000  1.0000000 )

      isym =  2     120 deg rotation - cryst. axis [0,0,1]

[...]

      isym =  3     120 deg rotation - cryst. axis [0,0,-1]

[...]

      isym =  4     inv. 180 deg rotation - cart. axis [1,0,0]

[...]

      isym =  5     inv. 180 deg rotation - cryst. axis [0,1,0]

[...]

      isym =  6     inv. 180 deg rotation - cryst. axis [1,1,0]

 cryst.   s( 6) = (     0         -1          0      )
                  (    -1          0          0      )
                  (     0          0          1      )

 cart.    s( 6) = (  0.5000000 -0.8660254  0.0000000 )
                  ( -0.8660254 -0.5000000  0.0000000 )
                  (  0.0000000  0.0000000  1.0000000 )

   Cartesian axes

     site n.     atom                  positions (alat units)
         1           Zn  tau(   1) = (   0.5000000   0.2886751   0.8082020  )
         2           Zn  tau(   2) = (  -0.0000000   0.5773503   0.0010228  )
         3           O   tau(   3) = (   0.5000000   0.2886751   1.4201130  )
         4           O   tau(   4) = (  -0.0000000   0.5773503   0.6129338  )
         5           Zn  tau(   5) = (   0.5000000   0.2886751   2.4225604  )
         6           Zn  tau(   6) = (  -0.0000000   0.5773503   1.6153812  )
         7           O   tau(   7) = (   0.5000000   0.2886751   3.0344713  )
         8           O   tau(   8) = (  -0.0000000   0.5773503   2.2272921  )
         9           Zn  tau(   9) = (   0.5000000   0.2886751   4.0369187  )
        10           Zn  tau(  10) = (  -0.0000000   0.5773503   3.2297395  )
        11           O   tau(  11) = (   0.5000000   0.2886751   4.6488297  )
        12           O   tau(  12) = (  -0.0000000   0.5773503   3.8416505  )

   Crystallographic axes

     site n.     atom                  positions (cryst. coord.)
         1           Zn  tau(   1) = (  0.6666667  0.3333333  0.1668779  )
         2           Zn  tau(   2) = (  0.3333333  0.6666667  0.0002112  )
         3           O   tau(   3) = (  0.6666667  0.3333333  0.2932255  )
         4           O   tau(   4) = (  0.3333333  0.6666667  0.1265588  )
         5           Zn  tau(   5) = (  0.6666667  0.3333333  0.5002112  )
         6           Zn  tau(   6) = (  0.3333333  0.6666667  0.3335445  )
         7           O   tau(   7) = (  0.6666667  0.3333333  0.6265588  )
         8           O   tau(   8) = (  0.3333333  0.6666667  0.4598921  )
         9           Zn  tau(   9) = (  0.6666667  0.3333333  0.8335445  )
        10           Zn  tau(  10) = (  0.3333333  0.6666667  0.6668779  )
        11           O   tau(  11) = (  0.6666667  0.3333333  0.9598921  )
        12           O   tau(  12) = (  0.3333333  0.6666667  0.7932255  )

     number of k points=    34
                       cart. coord. in units 2pi/alat
        k(    1) = (   0.0000000   0.0000000   0.0000000), wk =   0.0092593
        k(    2) = (   0.0000000   0.0000000   0.0344134), wk =   0.0185185
        k(    3) = (   0.0000000   0.0000000   0.0688268), wk =   0.0185185
        k(    4) = (   0.0000000   0.0000000  -0.1032402), wk =   0.0092593
        k(    5) = (   0.0000000   0.1924501   0.0000000), wk =   0.0555556
        k(    6) = (   0.0000000   0.1924501   0.0344134), wk =   0.0555556
        k(    7) = (   0.0000000   0.1924501   0.0688268), wk =   0.0555556
        k(    8) = (   0.0000000   0.1924501  -0.1032402), wk =   0.0555556
        k(    9) = (   0.0000000   0.3849002   0.0000000), wk =   0.0555556
        k(   10) = (   0.0000000   0.3849002   0.0344134), wk =   0.0555556
        k(   11) = (   0.0000000   0.3849002   0.0688268), wk =   0.0555556
        k(   12) = (   0.0000000   0.3849002  -0.1032402), wk =   0.0555556
        k(   13) = (   0.0000000  -0.5773503   0.0000000), wk =   0.0277778
        k(   14) = (   0.0000000  -0.5773503   0.0344134), wk =   0.0555556
        k(   15) = (   0.0000000  -0.5773503   0.0688268), wk =   0.0555556
        k(   16) = (   0.0000000  -0.5773503  -0.1032402), wk =   0.0277778
        k(   17) = (   0.1666667   0.2886751   0.0000000), wk =   0.0555556
        k(   18) = (   0.1666667   0.2886751   0.0344134), wk =   0.1111111
        k(   19) = (   0.1666667   0.2886751   0.0688268), wk =   0.1111111
        k(   20) = (   0.1666667   0.2886751  -0.1032402), wk =   0.0555556
        k(   21) = (   0.1666667   0.4811252   0.0000000), wk =   0.1111111
        k(   22) = (   0.1666667   0.4811252   0.0344134), wk =   0.1111111
        k(   23) = (   0.1666667   0.4811252   0.0688268), wk =   0.1111111
        k(   24) = (   0.1666667   0.4811252  -0.1032402), wk =   0.1111111
        k(   25) = (   0.3333333   0.5773503   0.0000000), wk =   0.0185185
        k(   26) = (   0.3333333   0.5773503   0.0344134), wk =   0.0370370
        k(   27) = (   0.3333333   0.5773503   0.0688268), wk =   0.0370370
        k(   28) = (   0.3333333   0.5773503  -0.1032402), wk =   0.0185185
        k(   29) = (   0.0000000  -0.1924501   0.0344134), wk =   0.0555556
        k(   30) = (   0.0000000  -0.1924501   0.0688268), wk =   0.0555556
        k(   31) = (   0.0000000  -0.3849002   0.0344134), wk =   0.0555556
        k(   32) = (   0.0000000  -0.3849002   0.0688268), wk =   0.0555556
        k(   33) = (  -0.1666667  -0.4811252   0.0344134), wk =   0.1111111
        k(   34) = (  -0.1666667  -0.4811252   0.0688268), wk =   0.1111111

                       cryst. coord.
        k(    1) = (   0.0000000   0.0000000   0.0000000), wk =   0.0092593
        k(    2) = (   0.0000000   0.0000000   0.1666667), wk =   0.0185185
        k(    3) = (   0.0000000   0.0000000   0.3333333), wk =   0.0185185
        k(    4) = (   0.0000000   0.0000000  -0.5000000), wk =   0.0092593
        k(    5) = (   0.0000000   0.1666667   0.0000000), wk =   0.0555556
        k(    6) = (   0.0000000   0.1666667   0.1666667), wk =   0.0555556
        k(    7) = (   0.0000000   0.1666667   0.3333333), wk =   0.0555556
        k(    8) = (   0.0000000   0.1666667  -0.5000000), wk =   0.0555556
        k(    9) = (   0.0000000   0.3333333   0.0000000), wk =   0.0555556
        k(   10) = (   0.0000000   0.3333333   0.1666667), wk =   0.0555556
        k(   11) = (   0.0000000   0.3333333   0.3333333), wk =   0.0555556
        k(   12) = (   0.0000000   0.3333333  -0.5000000), wk =   0.0555556
        k(   13) = (   0.0000000  -0.5000000   0.0000000), wk =   0.0277778
        k(   14) = (   0.0000000  -0.5000000   0.1666667), wk =   0.0555556
        k(   15) = (   0.0000000  -0.5000000   0.3333333), wk =   0.0555556
        k(   16) = (   0.0000000  -0.5000000  -0.5000000), wk =   0.0277778
        k(   17) = (   0.1666667   0.1666667   0.0000000), wk =   0.0555556
        k(   18) = (   0.1666667   0.1666667   0.1666667), wk =   0.1111111
        k(   19) = (   0.1666667   0.1666667   0.3333333), wk =   0.1111111
        k(   20) = (   0.1666667   0.1666667  -0.5000000), wk =   0.0555556
        k(   21) = (   0.1666667   0.3333333   0.0000000), wk =   0.1111111
        k(   22) = (   0.1666667   0.3333333   0.1666667), wk =   0.1111111
        k(   23) = (   0.1666667   0.3333333   0.3333333), wk =   0.1111111
        k(   24) = (   0.1666667   0.3333333  -0.5000000), wk =   0.1111111
        k(   25) = (   0.3333333   0.3333333   0.0000000), wk =   0.0185185
        k(   26) = (   0.3333333   0.3333333   0.1666667), wk =   0.0370370
        k(   27) = (   0.3333333   0.3333333   0.3333333), wk =   0.0370370
        k(   28) = (   0.3333333   0.3333333  -0.5000000), wk =   0.0185185
        k(   29) = (   0.0000000  -0.1666667   0.1666667), wk =   0.0555556
        k(   30) = (   0.0000000  -0.1666667   0.3333333), wk =   0.0555556
        k(   31) = (   0.0000000  -0.3333333   0.1666667), wk =   0.0555556
        k(   32) = (   0.0000000  -0.3333333   0.3333333), wk =   0.0555556
        k(   33) = (  -0.1666667  -0.3333333   0.1666667), wk =   0.1111111
        k(   34) = (  -0.1666667  -0.3333333   0.3333333), wk =   0.1111111

     Check: negative core charge=   -0.000002

     Initial potential from superposition of free atoms

     starting charge     107.9776, renormalised to     108.0000
     Starting wfcs are   78 randomized atomic wfcs

     Self-consistent Calculation

     iteration #  1     ecut=    50.00 Ry     beta= 0.30
     Davidson diagonalization with overlap

     ethr =  1.00E-02,  avg # of iterations =  1.4

     total energy              =   -1084.25410245 Ry
     estimated scf accuracy    <       2.31814058 Ry

[...]

     c_bands:  1 eigenvalues not converged
     c_bands:  1 eigenvalues not converged
     ethr =  1.23E-10,  avg # of iterations = 11.9

[...]

     total energy              =   -1084.80624148 Ry
     estimated scf accuracy    <       0.00000005 Ry

     iteration # 50     ecut=    50.00 Ry     beta= 0.30
     Davidson diagonalization with overlap

     ethr =  1.11E-11,  avg # of iterations =  6.1

     End of self-consistent calculation

          k = 0.0000 0.0000 0.0000 (  7073 PWs)   bands (ev):

   -12.1257 -12.0144 -12.0144 -11.7858 -11.7858 -11.6684  -0.4327  -0.4327
    -0.4029  -0.4029  -0.3820  -0.3820  -0.3820  -0.3820  -0.3817  -0.3176
    -0.3176  -0.3176  -0.3176  -0.3057  -0.3057  -0.2728  -0.2728   0.1819
     0.2686   0.2686   0.3101   0.3101   0.3101   0.3101   0.3756   0.3756
     0.3756   0.3756   0.3991   0.3991   0.7452   1.7702   1.7702   3.2017
     3.2017   4.0001   4.0001   4.1485   4.1485   4.1485   4.1485   4.4396
     4.4396   4.4396   4.4396   4.5444   4.5822   4.5822

     occupation numbers
     1.0000   1.0000   1.0000   1.0000   1.0000   1.0000   1.0000   1.0000
     1.0000   1.0000   1.0000   1.0000   1.0000   1.0000   1.0000   1.0000
     1.0000   1.0000   1.0000   1.0000   1.0000   1.0000   1.0000   1.0000
     1.0000   1.0000   1.0000   1.0000   1.0000   1.0000   1.0000   1.0000
     1.0000   1.0000   1.0000   1.0000   1.0000   1.0000   1.0000   1.0000
     1.0000   1.0000   1.0000   1.0000   1.0000   1.0000   1.0000   1.0000
     1.0000   1.0000   1.0000   1.0000   1.0000   1.0000

[...]

          k = 0.0000-0.3849 0.0688 (  7027 PWs)   bands (ev):

[...]

          k =-0.1667-0.4811 0.0344 (  7025 PWs)   bands (ev):

[...]

          k =-0.1667-0.4811 0.0688 (  7023 PWs)   bands (ev):

   -11.6882 -11.6743 -11.6284 -11.6028 -11.5613 -11.5497  -0.4123  -0.4020
    -0.3958  -0.3808  -0.2628  -0.2439  -0.1729  -0.1399  -0.1218  -0.0800
    -0.0142  -0.0054  -0.0044   0.0060   0.0675   0.0749   0.1067   0.1278
     0.2715   0.2937   0.3376   0.3495   0.3563   0.3619   0.4410   0.4429
     0.4729   0.5008   0.5564   0.5734   1.2732   1.2743   1.3822   1.4733
     1.6676   1.7249   2.4055   2.5392   2.7106   2.9264   2.9303   3.1422
     3.5280   3.5329   3.6094   3.7177   3.7260   3.7707

     occupation numbers
     1.0000   1.0000   1.0000   1.0000   1.0000   1.0000   1.0000   1.0000
     1.0000   1.0000   1.0000   1.0000   1.0000   1.0000   1.0000   1.0000
     1.0000   1.0000   1.0000   1.0000   1.0000   1.0000   1.0000   1.0000
     1.0000   1.0000   1.0000   1.0000   1.0000   1.0000   1.0000   1.0000
     1.0000   1.0000   1.0000   1.0000   1.0000   1.0000   1.0000   1.0000
     1.0000   1.0000   1.0000   1.0000   1.0000   1.0000   1.0000   1.0000
     1.0000   1.0000   1.0000   1.0000   1.0000   1.0000

     highest occupied level (ev):     4.5822

!    total energy              =   -1084.80624149 Ry
     estimated scf accuracy    <          1.7E-09 Ry

     The total energy is the sum of the following terms:
     one-electron contribution =    -522.36976296 Ry
     hartree contribution      =     376.13577375 Ry
     xc contribution           =    -327.66580927 Ry
     ewald contribution        =    -610.90644300 Ry

     convergence has been achieved in  50 iterations

     Forces acting on atoms (cartesian axes, Ry/au):

     atom    1 type  1   force =     0.00000000   -0.00000000   -0.00009235
     atom    2 type  1   force =     0.00000000    0.00000000   -0.00008683
     atom    3 type  2   force =     0.00000000    0.00000000    0.00010854
     atom    4 type  2   force =     0.00000000   -0.00000000    0.00010799
     atom    5 type  1   force =     0.00000000    0.00000000   -0.00011969
     atom    6 type  1   force =     0.00000000    0.00000000   -0.00013295
     atom    7 type  2   force =     0.00000000    0.00000000    0.00010879
     atom    8 type  2   force =     0.00000000   -0.00000000    0.00010922
     atom    9 type  1   force =     0.00000000    0.00000000   -0.00010005
     atom   10 type  1   force =     0.00000000    0.00000000   -0.00011964
     atom   11 type  2   force =     0.00000000   -0.00000000    0.00010804
     atom   12 type  2   force =     0.00000000    0.00000000    0.00010894
     The non-local contrib.  to forces
     atom    1 type  1   force =     0.00000000    0.00000000   -0.00450974
     atom    2 type  1   force =     0.00000000   -0.00000000   -0.00450879
     atom    3 type  2   force =     0.00000000    0.00000000    0.00661407
     atom    4 type  2   force =     0.00000000    0.00000000    0.00660225
     atom    5 type  1   force =     0.00000000    0.00000000   -0.00452799
     atom    6 type  1   force =     0.00000000   -0.00000000   -0.00453454
     atom    7 type  2   force =     0.00000000    0.00000000    0.00661226
     atom    8 type  2   force =     0.00000000    0.00000000    0.00661754
     atom    9 type  1   force =     0.00000000   -0.00000000   -0.00451932
     atom   10 type  1   force =     0.00000000   -0.00000000   -0.00452855
     atom   11 type  2   force =     0.00000000   -0.00000000    0.00660187
     atom   12 type  2   force =     0.00000000    0.00000000    0.00661134
     The ionic contribution  to forces
     atom    1 type  1   force =    -0.00000000    0.00000000    0.05581774
     atom    2 type  1   force =     0.00000000   -0.00000000    0.05581777
     atom    3 type  2   force =    -0.00000000    0.00000000   -0.05581775
     atom    4 type  2   force =     0.00000000   -0.00000000   -0.05581776
     atom    5 type  1   force =    -0.00000000    0.00000000    0.05581777
     atom    6 type  1   force =     0.00000000   -0.00000000    0.05581773
     atom    7 type  2   force =    -0.00000000    0.00000000   -0.05581776
     atom    8 type  2   force =     0.00000000   -0.00000000   -0.05581774
     atom    9 type  1   force =    -0.00000000    0.00000000    0.05581773
     atom   10 type  1   force =     0.00000000   -0.00000000    0.05581774
     atom   11 type  2   force =    -0.00000000    0.00000000   -0.05581774
     atom   12 type  2   force =     0.00000000   -0.00000000   -0.05581775
     The local contribution  to forces
     atom    1 type  1   force =    -0.00000005    0.00000003   -0.05173125
     atom    2 type  1   force =     0.00000005   -0.00000003   -0.05173471
     atom    3 type  2   force =    -0.00000001    0.00000001    0.04940229
     atom    4 type  2   force =     0.00000001   -0.00000001    0.04938267
     atom    5 type  1   force =    -0.00000005    0.00000003   -0.05169052
     atom    6 type  1   force =     0.00000005   -0.00000003   -0.05166375
     atom    7 type  2   force =    -0.00000001    0.00000001    0.04939320
     atom    8 type  2   force =     0.00000001   -0.00000001    0.04939458
     atom    9 type  1   force =    -0.00000005    0.00000003   -0.05171159
     atom   10 type  1   force =     0.00000005   -0.00000003   -0.05168081
     atom   11 type  2   force =    -0.00000001    0.00000001    0.04937773
     atom   12 type  2   force =     0.00000001   -0.00000001    0.04938308
     The core correction contribution to forces
     atom    1 type  1   force =    -0.00000001    0.00000000    0.00029787
     atom    2 type  1   force =     0.00000001   -0.00000000    0.00029785
     atom    3 type  2   force =     0.00000000   -0.00000000   -0.00007311
     atom    4 type  2   force =    -0.00000000    0.00000000   -0.00007298
     atom    5 type  1   force =    -0.00000001    0.00000000    0.00029786
     atom    6 type  1   force =     0.00000001   -0.00000000    0.00029703
     atom    7 type  2   force =     0.00000000   -0.00000000   -0.00007310
     atom    8 type  2   force =    -0.00000000    0.00000000   -0.00007317
     atom    9 type  1   force =    -0.00000001    0.00000000    0.00029780
     atom   10 type  1   force =     0.00000001   -0.00000000    0.00029724
     atom   11 type  2   force =     0.00000000   -0.00000000   -0.00007298
     atom   12 type  2   force =    -0.00000000    0.00000000   -0.00007310
     The Hubbard contrib.    to forces
     atom    1 type  1   force =     0.00000000    0.00000000    0.00000000
     atom    2 type  1   force =     0.00000000    0.00000000    0.00000000
     atom    3 type  2   force =     0.00000000    0.00000000    0.00000000
     atom    4 type  2   force =     0.00000000    0.00000000    0.00000000
     atom    5 type  1   force =     0.00000000    0.00000000    0.00000000
     atom    6 type  1   force =     0.00000000    0.00000000    0.00000000
     atom    7 type  2   force =     0.00000000    0.00000000    0.00000000
     atom    8 type  2   force =     0.00000000    0.00000000    0.00000000
     atom    9 type  1   force =     0.00000000    0.00000000    0.00000000
     atom   10 type  1   force =     0.00000000    0.00000000    0.00000000
     atom   11 type  2   force =     0.00000000    0.00000000    0.00000000
     atom   12 type  2   force =     0.00000000    0.00000000    0.00000000
     The SCF correction term to forces
     atom    1 type  1   force =    -0.00000000    0.00000000    0.00003372
     atom    2 type  1   force =     0.00000000   -0.00000000    0.00004173
     atom    3 type  2   force =    -0.00000000    0.00000000   -0.00001628
     atom    4 type  2   force =    -0.00000000    0.00000000    0.00001448
     atom    5 type  1   force =    -0.00000000    0.00000000   -0.00001613
     atom    6 type  1   force =     0.00000000   -0.00000000   -0.00004874
     atom    7 type  2   force =    -0.00000000    0.00000000   -0.00000513
     atom    8 type  2   force =    -0.00000000    0.00000000   -0.00001131
     atom    9 type  1   force =    -0.00000000    0.00000000    0.00001600
     atom   10 type  1   force =     0.00000000   -0.00000000   -0.00002458
     atom   11 type  2   force =     0.00000000   -0.00000000    0.00001983
     atom   12 type  2   force =    -0.00000000    0.00000000    0.00000605

     Total force =     0.000378     Total SCF correction =     0.000086
     SCF correction compared to forces is large: reduce conv_thr to get better values

     General routines

     Parallel routines

   This run was terminated on:  19:26: 3  27Aug2025

   JOB DONE.