     Program PWSCF v.7.0 starts on 27Aug2025 at 20:34: 1

     K-points division:     npool     =      17

     Reading input from /home/jvc/QEspresso7.2/ZnO_database/scripts/cell113.in/ZnO-3.53-1.58-113.in
Warning: card &CELL ignored
Warning: card / ignored
Warning: card &FCP ignored
Warning: card / ignored
Warning: card &RISM ignored
Warning: card / ignored

     Current dimensions of program PWSCF are:
     Max number of different atomic species (ntypx) = 10
     Max number of k-points (npk) =  40000
     Max angular momentum in pseudopotentials (lmaxx) =  4
     file Zn.upf: wavefunction(s)  3D renormalized
     Found identity + (  0.0000  0.0000  0.3333) symmetry
     This is a supercell, fractional translations are disabled
     Message from routine setup:
     using ibrav=0 with symmetry is DISCOURAGED, use correct ibrav instead

     Subspace diagonalization in iterative solution of the eigenvalue problem:
     a serial algorithm will be used

     Using Slab Decomposition

     bravais-lattice index     =            0
     lattice parameter (alat)  =       6.6732  a.u.
     unit-cell volume          =    1221.4423 (a.u.)^3
     number of atoms/cell      =           12
     number of atomic types    =            2
     number of electrons       =       108.00
     number of Kohn-Sham states=           54
     kinetic-energy cutoff     =      50.0000  Ry
     charge density cutoff     =     400.0000  Ry
     scf convergence threshold =      1.0E-08
     mixing beta               =       0.3000
     number of iterations used =            8  plain     mixing
     Exchange-correlation= PBE
                           (   1   4   3   4   0   0   0)

     celldm(1)=   6.673162  celldm(2)=   0.000000  celldm(3)=   0.000000
     celldm(4)=   0.000000  celldm(5)=   0.000000  celldm(6)=   0.000000

     crystal axes: (cart. coord. in units of alat)
               a(1) = (   1.000000   0.000000   0.000000 )
               a(2) = (  -0.500000   0.866025   0.000000 )
               a(3) = (   0.000000   0.000000   4.746214 )

     reciprocal axes: (cart. coord. in units 2 pi/alat)
               b(1) = (  1.000000  0.577350 -0.000000 )
               b(2) = (  0.000000  1.154701  0.000000 )
               b(3) = (  0.000000 -0.000000  0.210694 )

     PseudoPot. # 1 for Zn read from file:
     /home/jvc/QEspresso7.2/ZnO_database/pseudos/Zn.upf
     MD5 check sum: 7f56cabf9682ed8c977c2f7d0c5985c5
     Pseudo is Ultrasoft + core correction, Zval = 12.0
     Generated using &quot;atomic&quot; code by A. Dal Corso  v.6.2.2
     Using radial grid of 1201 points,  6 beta functions with:
                l(1) =   0
                l(2) =   0
                l(3) =   1
                l(4) =   1
                l(5) =   2
                l(6) =   2
     Q(r) pseudized with 0 coefficients

     PseudoPot. # 2 for O  read from file:
     /home/jvc/QEspresso7.2/ZnO_database/pseudos/O.upf
     MD5 check sum: 91400c9766925bcf19f520983a725ff0
     Pseudo is Ultrasoft + core correction, Zval =  6.0
     Generated using &quot;atomic&quot; code by A. Dal Corso  v.6.3MaX
     Using radial grid of 1095 points,  4 beta functions with:
                l(1) =   0
                l(2) =   0
                l(3) =   1
                l(4) =   1
     Q(r) pseudized with 0 coefficients

     atomic species   valence    mass     pseudopotential
        Zn            12.00    65.38000     Zn( 1.00)
        O              6.00    15.99900     O ( 1.00)

      6 Sym. Ops. (no inversion) found

                                    s                        frac. trans.

      isym =  1     identity

 cryst.   s( 1) = (     1          0          0      )
                  (     0          1          0      )
                  (     0          0          1      )

 cart.    s( 1) = (  1.0000000  0.0000000  0.0000000 )
                  (  0.0000000  1.0000000  0.0000000 )
                  (  0.0000000  0.0000000  1.0000000 )

      isym =  2     120 deg rotation - cryst. axis [0,0,1]

[...]

      isym =  3     120 deg rotation - cryst. axis [0,0,-1]

[...]

      isym =  4     inv. 180 deg rotation - cart. axis [1,0,0]

[...]

      isym =  5     inv. 180 deg rotation - cryst. axis [0,1,0]

[...]

      isym =  6     inv. 180 deg rotation - cryst. axis [1,1,0]

 cryst.   s( 6) = (     0         -1          0      )
                  (    -1          0          0      )
                  (     0          0          1      )

 cart.    s( 6) = (  0.5000000 -0.8660254  0.0000000 )
                  ( -0.8660254 -0.5000000  0.0000000 )
                  (  0.0000000  0.0000000  1.0000000 )

   Cartesian axes

     site n.     atom                  positions (alat units)
         1           Zn  tau(   1) = (   0.5000000   0.2886751   0.7920380  )
         2           Zn  tau(   2) = (  -0.0000000   0.5773503   0.0010024  )
         3           O   tau(   3) = (   0.5000000   0.2886751   1.3917107  )
         4           O   tau(   4) = (  -0.0000000   0.5773503   0.6006751  )
         5           Zn  tau(   5) = (   0.5000000   0.2886751   2.3741092  )
         6           Zn  tau(   6) = (  -0.0000000   0.5773503   1.5830736  )
         7           O   tau(   7) = (   0.5000000   0.2886751   2.9737819  )
         8           O   tau(   8) = (  -0.0000000   0.5773503   2.1827463  )
         9           Zn  tau(   9) = (   0.5000000   0.2886751   3.9561803  )
        10           Zn  tau(  10) = (  -0.0000000   0.5773503   3.1651448  )
        11           O   tau(  11) = (   0.5000000   0.2886751   4.5558531  )
        12           O   tau(  12) = (  -0.0000000   0.5773503   3.7648175  )

   Crystallographic axes

     site n.     atom                  positions (cryst. coord.)
         1           Zn  tau(   1) = (  0.6666667  0.3333333  0.1668779  )
         2           Zn  tau(   2) = (  0.3333333  0.6666667  0.0002112  )
         3           O   tau(   3) = (  0.6666667  0.3333333  0.2932255  )
         4           O   tau(   4) = (  0.3333333  0.6666667  0.1265588  )
         5           Zn  tau(   5) = (  0.6666667  0.3333333  0.5002112  )
         6           Zn  tau(   6) = (  0.3333333  0.6666667  0.3335445  )
         7           O   tau(   7) = (  0.6666667  0.3333333  0.6265588  )
         8           O   tau(   8) = (  0.3333333  0.6666667  0.4598921  )
         9           Zn  tau(   9) = (  0.6666667  0.3333333  0.8335445  )
        10           Zn  tau(  10) = (  0.3333333  0.6666667  0.6668779  )
        11           O   tau(  11) = (  0.6666667  0.3333333  0.9598921  )
        12           O   tau(  12) = (  0.3333333  0.6666667  0.7932255  )

     number of k points=    34
                       cart. coord. in units 2pi/alat
        k(    1) = (   0.0000000   0.0000000   0.0000000), wk =   0.0092593
        k(    2) = (   0.0000000   0.0000000   0.0351157), wk =   0.0185185
        k(    3) = (   0.0000000   0.0000000   0.0702314), wk =   0.0185185
        k(    4) = (   0.0000000   0.0000000  -0.1053471), wk =   0.0092593
        k(    5) = (   0.0000000   0.1924501   0.0000000), wk =   0.0555556
        k(    6) = (   0.0000000   0.1924501   0.0351157), wk =   0.0555556
        k(    7) = (   0.0000000   0.1924501   0.0702314), wk =   0.0555556
        k(    8) = (   0.0000000   0.1924501  -0.1053471), wk =   0.0555556
        k(    9) = (   0.0000000   0.3849002   0.0000000), wk =   0.0555556
        k(   10) = (   0.0000000   0.3849002   0.0351157), wk =   0.0555556
        k(   11) = (   0.0000000   0.3849002   0.0702314), wk =   0.0555556
        k(   12) = (   0.0000000   0.3849002  -0.1053471), wk =   0.0555556
        k(   13) = (   0.0000000  -0.5773503   0.0000000), wk =   0.0277778
        k(   14) = (   0.0000000  -0.5773503   0.0351157), wk =   0.0555556
        k(   15) = (   0.0000000  -0.5773503   0.0702314), wk =   0.0555556
        k(   16) = (   0.0000000  -0.5773503  -0.1053471), wk =   0.0277778
        k(   17) = (   0.1666667   0.2886751   0.0000000), wk =   0.0555556
        k(   18) = (   0.1666667   0.2886751   0.0351157), wk =   0.1111111
        k(   19) = (   0.1666667   0.2886751   0.0702314), wk =   0.1111111
        k(   20) = (   0.1666667   0.2886751  -0.1053471), wk =   0.0555556
        k(   21) = (   0.1666667   0.4811252   0.0000000), wk =   0.1111111
        k(   22) = (   0.1666667   0.4811252   0.0351157), wk =   0.1111111
        k(   23) = (   0.1666667   0.4811252   0.0702314), wk =   0.1111111
        k(   24) = (   0.1666667   0.4811252  -0.1053471), wk =   0.1111111
        k(   25) = (   0.3333333   0.5773503   0.0000000), wk =   0.0185185
        k(   26) = (   0.3333333   0.5773503   0.0351157), wk =   0.0370370
        k(   27) = (   0.3333333   0.5773503   0.0702314), wk =   0.0370370
        k(   28) = (   0.3333333   0.5773503  -0.1053471), wk =   0.0185185
        k(   29) = (   0.0000000  -0.1924501   0.0351157), wk =   0.0555556
        k(   30) = (   0.0000000  -0.1924501   0.0702314), wk =   0.0555556
        k(   31) = (   0.0000000  -0.3849002   0.0351157), wk =   0.0555556
        k(   32) = (   0.0000000  -0.3849002   0.0702314), wk =   0.0555556
        k(   33) = (  -0.1666667  -0.4811252   0.0351157), wk =   0.1111111
        k(   34) = (  -0.1666667  -0.4811252   0.0702314), wk =   0.1111111

                       cryst. coord.
        k(    1) = (   0.0000000   0.0000000   0.0000000), wk =   0.0092593
        k(    2) = (   0.0000000   0.0000000   0.1666667), wk =   0.0185185
        k(    3) = (   0.0000000   0.0000000   0.3333333), wk =   0.0185185
        k(    4) = (   0.0000000   0.0000000  -0.5000000), wk =   0.0092593
        k(    5) = (   0.0000000   0.1666667   0.0000000), wk =   0.0555556
        k(    6) = (   0.0000000   0.1666667   0.1666667), wk =   0.0555556
        k(    7) = (   0.0000000   0.1666667   0.3333333), wk =   0.0555556
        k(    8) = (   0.0000000   0.1666667  -0.5000000), wk =   0.0555556
        k(    9) = (   0.0000000   0.3333333   0.0000000), wk =   0.0555556
        k(   10) = (   0.0000000   0.3333333   0.1666667), wk =   0.0555556
        k(   11) = (   0.0000000   0.3333333   0.3333333), wk =   0.0555556
        k(   12) = (   0.0000000   0.3333333  -0.5000000), wk =   0.0555556
        k(   13) = (   0.0000000  -0.5000000   0.0000000), wk =   0.0277778
        k(   14) = (   0.0000000  -0.5000000   0.1666667), wk =   0.0555556
        k(   15) = (   0.0000000  -0.5000000   0.3333333), wk =   0.0555556
        k(   16) = (   0.0000000  -0.5000000  -0.5000000), wk =   0.0277778
        k(   17) = (   0.1666667   0.1666667   0.0000000), wk =   0.0555556
        k(   18) = (   0.1666667   0.1666667   0.1666667), wk =   0.1111111
        k(   19) = (   0.1666667   0.1666667   0.3333333), wk =   0.1111111
        k(   20) = (   0.1666667   0.1666667  -0.5000000), wk =   0.0555556
        k(   21) = (   0.1666667   0.3333333   0.0000000), wk =   0.1111111
        k(   22) = (   0.1666667   0.3333333   0.1666667), wk =   0.1111111
        k(   23) = (   0.1666667   0.3333333   0.3333333), wk =   0.1111111
        k(   24) = (   0.1666667   0.3333333  -0.5000000), wk =   0.1111111
        k(   25) = (   0.3333333   0.3333333   0.0000000), wk =   0.0185185
        k(   26) = (   0.3333333   0.3333333   0.1666667), wk =   0.0370370
        k(   27) = (   0.3333333   0.3333333   0.3333333), wk =   0.0370370
        k(   28) = (   0.3333333   0.3333333  -0.5000000), wk =   0.0185185
        k(   29) = (   0.0000000  -0.1666667   0.1666667), wk =   0.0555556
        k(   30) = (   0.0000000  -0.1666667   0.3333333), wk =   0.0555556
        k(   31) = (   0.0000000  -0.3333333   0.1666667), wk =   0.0555556
        k(   32) = (   0.0000000  -0.3333333   0.3333333), wk =   0.0555556
        k(   33) = (  -0.1666667  -0.3333333   0.1666667), wk =   0.1111111
        k(   34) = (  -0.1666667  -0.3333333   0.3333333), wk =   0.1111111

     Check: negative core charge=   -0.000002

     Initial potential from superposition of free atoms

     starting charge     107.9776, renormalised to     108.0000
     Starting wfcs are   78 randomized atomic wfcs

     Self-consistent Calculation

     iteration #  1     ecut=    50.00 Ry     beta= 0.30
     Davidson diagonalization with overlap

     ethr =  1.00E-02,  avg # of iterations =  1.4

     total energy              =   -1084.18889128 Ry
     estimated scf accuracy    <       2.38354342 Ry

[...]

     c_bands:  1 eigenvalues not converged
     ethr =  8.82E-05,  avg # of iterations =  6.3

[...]

     total energy              =   -1084.75899997 Ry
     estimated scf accuracy    <       0.00000019 Ry

     iteration # 29     ecut=    50.00 Ry     beta= 0.30
     Davidson diagonalization with overlap

     ethr =  1.73E-10,  avg # of iterations =  5.9

     End of self-consistent calculation

          k = 0.0000 0.0000 0.0000 (  7289 PWs)   bands (ev):

   -12.3412 -12.2338 -12.2337 -12.0139 -12.0139 -11.9016  -0.7705  -0.7705
    -0.7365  -0.7365  -0.7272  -0.7172  -0.7172  -0.7172  -0.7172  -0.6543
    -0.6543  -0.6542  -0.6542  -0.6208  -0.6208  -0.6089  -0.6089  -0.1502
    -0.1502  -0.1083  -0.1083  -0.1083  -0.1083  -0.0838  -0.0436  -0.0436
    -0.0436  -0.0436  -0.0226  -0.0226   0.3879   1.4321   1.4321   2.8215
     2.8215   3.5710   3.5710   3.7212   3.7212   3.7212   3.7212   4.0145
     4.0145   4.0146   4.0146   4.1570   4.1576   4.1576

     occupation numbers
     1.0000   1.0000   1.0000   1.0000   1.0000   1.0000   1.0000   1.0000
     1.0000   1.0000   1.0000   1.0000   1.0000   1.0000   1.0000   1.0000
     1.0000   1.0000   1.0000   1.0000   1.0000   1.0000   1.0000   1.0000
     1.0000   1.0000   1.0000   1.0000   1.0000   1.0000   1.0000   1.0000
     1.0000   1.0000   1.0000   1.0000   1.0000   1.0000   1.0000   1.0000
     1.0000   1.0000   1.0000   1.0000   1.0000   1.0000   1.0000   1.0000
     1.0000   1.0000   1.0000   1.0000   1.0000   1.0000

[...]

          k = 0.0000-0.3849 0.0702 (  7305 PWs)   bands (ev):

[...]

          k =-0.1667-0.4811 0.0351 (  7268 PWs)   bands (ev):

[...]

          k =-0.1667-0.4811 0.0702 (  7263 PWs)   bands (ev):

   -11.9457 -11.9322 -11.8877 -11.8630 -11.8233 -11.8122  -0.7377  -0.7273
    -0.7226  -0.7074  -0.6079  -0.5976  -0.5190  -0.4977  -0.4623  -0.4393
    -0.3853  -0.3786  -0.3750  -0.3683  -0.3120  -0.2905  -0.2734  -0.2453
    -0.1367  -0.1177  -0.0822  -0.0715  -0.0660  -0.0613   0.0135   0.0155
     0.0447   0.0694   0.1165   0.1306   0.9606   0.9730   1.0480   1.1359
     1.3386   1.4054   2.0856   2.2126   2.3884   2.5962   2.6143   2.8095
     3.1895   3.2154   3.2701   3.3570   3.4029   3.4212

     occupation numbers
     1.0000   1.0000   1.0000   1.0000   1.0000   1.0000   1.0000   1.0000
     1.0000   1.0000   1.0000   1.0000   1.0000   1.0000   1.0000   1.0000
     1.0000   1.0000   1.0000   1.0000   1.0000   1.0000   1.0000   1.0000
     1.0000   1.0000   1.0000   1.0000   1.0000   1.0000   1.0000   1.0000
     1.0000   1.0000   1.0000   1.0000   1.0000   1.0000   1.0000   1.0000
     1.0000   1.0000   1.0000   1.0000   1.0000   1.0000   1.0000   1.0000
     1.0000   1.0000   1.0000   1.0000   1.0000   1.0000

     highest occupied level (ev):     4.1576

!    total energy              =   -1084.75900003 Ry
     estimated scf accuracy    <          7.6E-09 Ry

     The total energy is the sum of the following terms:
     one-electron contribution =    -534.39601039 Ry
     hartree contribution      =     380.62375256 Ry
     xc contribution           =    -327.49063030 Ry
     ewald contribution        =    -603.49611190 Ry

     convergence has been achieved in  29 iterations

     Forces acting on atoms (cartesian axes, Ry/au):

     atom    1 type  1   force =     0.00000000    0.00000000   -0.00013669
     atom    2 type  1   force =     0.00000000   -0.00000000   -0.00014094
     atom    3 type  2   force =     0.00000000    0.00000000    0.00013477
     atom    4 type  2   force =     0.00000000    0.00000000    0.00013849
     atom    5 type  1   force =     0.00000000    0.00000000   -0.00011572
     atom    6 type  1   force =     0.00000000    0.00000000   -0.00014363
     atom    7 type  2   force =     0.00000000   -0.00000000    0.00013671
     atom    8 type  2   force =     0.00000000   -0.00000000    0.00014038
     atom    9 type  1   force =     0.00000000    0.00000000   -0.00014283
     atom   10 type  1   force =     0.00000000   -0.00000000   -0.00014592
     atom   11 type  2   force =     0.00000000    0.00000000    0.00013825
     atom   12 type  2   force =     0.00000000   -0.00000000    0.00013714
     The non-local contrib.  to forces
     atom    1 type  1   force =    -0.00000000    0.00000000   -0.05630370
     atom    2 type  1   force =     0.00000000    0.00000000   -0.05630130
     atom    3 type  2   force =     0.00000000    0.00000000   -0.04513149
     atom    4 type  2   force =     0.00000000    0.00000000   -0.04512328
     atom    5 type  1   force =     0.00000000   -0.00000000   -0.05629534
     atom    6 type  1   force =     0.00000000    0.00000000   -0.05629978
     atom    7 type  2   force =     0.00000000   -0.00000000   -0.04512868
     atom    8 type  2   force =     0.00000000   -0.00000000   -0.04512611
     atom    9 type  1   force =     0.00000000    0.00000000   -0.05630359
     atom   10 type  1   force =     0.00000000    0.00000000   -0.05629837
     atom   11 type  2   force =     0.00000000   -0.00000000   -0.04512765
     atom   12 type  2   force =     0.00000000   -0.00000000   -0.04512816
     The ionic contribution  to forces
     atom    1 type  1   force =    -0.00000000    0.00000000   -0.30712517
     atom    2 type  1   force =     0.00000000   -0.00000000   -0.30712514
     atom    3 type  2   force =    -0.00000000    0.00000000    0.30712516
     atom    4 type  2   force =     0.00000000   -0.00000000    0.30712515
     atom    5 type  1   force =    -0.00000000    0.00000000   -0.30712514
     atom    6 type  1   force =     0.00000000   -0.00000000   -0.30712517
     atom    7 type  2   force =    -0.00000000    0.00000000    0.30712515
     atom    8 type  2   force =     0.00000000   -0.00000000    0.30712517
     atom    9 type  1   force =    -0.00000000    0.00000000   -0.30712517
     atom   10 type  1   force =     0.00000000   -0.00000000   -0.30712517
     atom   11 type  2   force =    -0.00000000    0.00000000    0.30712517
     atom   12 type  2   force =     0.00000000   -0.00000000    0.30712516
     The local contribution  to forces
     atom    1 type  1   force =    -0.00000005    0.00000003    0.35986684
     atom    2 type  1   force =     0.00000005   -0.00000003    0.35986509
     atom    3 type  2   force =    -0.00000001    0.00000001   -0.26226878
     atom    4 type  2   force =     0.00000001   -0.00000001   -0.26225888
     atom    5 type  1   force =    -0.00000005    0.00000003    0.35983603
     atom    6 type  1   force =     0.00000005   -0.00000003    0.35986810
     atom    7 type  2   force =    -0.00000001    0.00000001   -0.26225917
     atom    8 type  2   force =     0.00000001   -0.00000001   -0.26226878
     atom    9 type  1   force =    -0.00000005    0.00000003    0.35986904
     atom   10 type  1   force =     0.00000005   -0.00000003    0.35986943
     atom   11 type  2   force =    -0.00000001    0.00000001   -0.26226375
     atom   12 type  2   force =     0.00000001   -0.00000001   -0.26225292
     The core correction contribution to forces
     atom    1 type  1   force =    -0.00000001    0.00000000    0.00344043
     atom    2 type  1   force =     0.00000001   -0.00000000    0.00344053
     atom    3 type  2   force =     0.00000000   -0.00000000    0.00038249
     atom    4 type  2   force =    -0.00000000    0.00000000    0.00038243
     atom    5 type  1   force =    -0.00000001    0.00000000    0.00344095
     atom    6 type  1   force =     0.00000001   -0.00000000    0.00344029
     atom    7 type  2   force =     0.00000000   -0.00000000    0.00038249
     atom    8 type  2   force =    -0.00000000    0.00000000    0.00038246
     atom    9 type  1   force =    -0.00000001    0.00000000    0.00344055
     atom   10 type  1   force =     0.00000001   -0.00000000    0.00344009
     atom   11 type  2   force =     0.00000000   -0.00000000    0.00038245
     atom   12 type  2   force =    -0.00000000    0.00000000    0.00038251
     The Hubbard contrib.    to forces
     atom    1 type  1   force =     0.00000000    0.00000000    0.00000000
     atom    2 type  1   force =     0.00000000    0.00000000    0.00000000
     atom    3 type  2   force =     0.00000000    0.00000000    0.00000000
     atom    4 type  2   force =     0.00000000    0.00000000    0.00000000
     atom    5 type  1   force =     0.00000000    0.00000000    0.00000000
     atom    6 type  1   force =     0.00000000    0.00000000    0.00000000
     atom    7 type  2   force =     0.00000000    0.00000000    0.00000000
     atom    8 type  2   force =     0.00000000    0.00000000    0.00000000
     atom    9 type  1   force =     0.00000000    0.00000000    0.00000000
     atom   10 type  1   force =     0.00000000    0.00000000    0.00000000
     atom   11 type  2   force =     0.00000000    0.00000000    0.00000000
     atom   12 type  2   force =     0.00000000    0.00000000    0.00000000
     The SCF correction term to forces
     atom    1 type  1   force =    -0.00000000    0.00000000   -0.00002192
     atom    2 type  1   force =     0.00000000   -0.00000000   -0.00002693
     atom    3 type  2   force =    -0.00000000    0.00000000    0.00002055
     atom    4 type  2   force =     0.00000000   -0.00000000    0.00000624
     atom    5 type  1   force =    -0.00000000    0.00000000    0.00002095
     atom    6 type  1   force =     0.00000000   -0.00000000   -0.00003390
     atom    7 type  2   force =    -0.00000000    0.00000000    0.00001009
     atom    8 type  2   force =     0.00000000   -0.00000000    0.00002081
     atom    9 type  1   force =    -0.00000000    0.00000000   -0.00003048
     atom   10 type  1   force =     0.00000000   -0.00000000   -0.00003872
     atom   11 type  2   force =    -0.00000000    0.00000000    0.00001519
     atom   12 type  2   force =     0.00000000   -0.00000000    0.00000373

     Total force =     0.000477     Total SCF correction =     0.000080
     SCF correction compared to forces is large: reduce conv_thr to get better values

     General routines

     Parallel routines

   This run was terminated on:  20:40:23  27Aug2025

   JOB DONE.