     Program PWSCF v.7.0 starts on 27Aug2025 at 13: 4: 6

     K-points division:     npool     =      17

     Reading input from /home/jvc/QEspresso7.2/ZnO_database/scripts/cell113.in/ZnO-3.01-1.78-113.in
Warning: card &CELL ignored
Warning: card / ignored
Warning: card &FCP ignored
Warning: card / ignored
Warning: card &RISM ignored
Warning: card / ignored

     Current dimensions of program PWSCF are:
     Max number of different atomic species (ntypx) = 10
     Max number of k-points (npk) =  40000
     Max angular momentum in pseudopotentials (lmaxx) =  4
     file Zn.upf: wavefunction(s)  3D renormalized
     Found identity + (  0.0000  0.0000  0.3333) symmetry
     This is a supercell, fractional translations are disabled
     Message from routine setup:
     using ibrav=0 with symmetry is DISCOURAGED, use correct ibrav instead

     Subspace diagonalization in iterative solution of the eigenvalue problem:
     a serial algorithm will be used

     Using Slab Decomposition

     bravais-lattice index     =            0
     lattice parameter (alat)  =       5.6845  a.u.
     unit-cell volume          =     847.4846 (a.u.)^3
     number of atoms/cell      =           12
     number of atomic types    =            2
     number of electrons       =       108.00
     number of Kohn-Sham states=           54
     kinetic-energy cutoff     =      50.0000  Ry
     charge density cutoff     =     400.0000  Ry
     scf convergence threshold =      1.0E-08
     mixing beta               =       0.3000
     number of iterations used =            8  plain     mixing
     Exchange-correlation= PBE
                           (   1   4   3   4   0   0   0)

     celldm(1)=   5.684546  celldm(2)=   0.000000  celldm(3)=   0.000000
     celldm(4)=   0.000000  celldm(5)=   0.000000  celldm(6)=   0.000000

     crystal axes: (cart. coord. in units of alat)
               a(1) = (   1.000000   0.000000   0.000000 )
               a(2) = (  -0.500000   0.866025   0.000000 )
               a(3) = (   0.000000   0.000000   5.327383 )

     reciprocal axes: (cart. coord. in units 2 pi/alat)
               b(1) = (  1.000000  0.577350 -0.000000 )
               b(2) = (  0.000000  1.154701  0.000000 )
               b(3) = (  0.000000 -0.000000  0.187709 )

     PseudoPot. # 1 for Zn read from file:
     /home/jvc/QEspresso7.2/ZnO_database/pseudos/Zn.upf
     MD5 check sum: 7f56cabf9682ed8c977c2f7d0c5985c5
     Pseudo is Ultrasoft + core correction, Zval = 12.0
     Generated using &quot;atomic&quot; code by A. Dal Corso  v.6.2.2
     Using radial grid of 1201 points,  6 beta functions with:
                l(1) =   0
                l(2) =   0
                l(3) =   1
                l(4) =   1
                l(5) =   2
                l(6) =   2
     Q(r) pseudized with 0 coefficients

     PseudoPot. # 2 for O  read from file:
     /home/jvc/QEspresso7.2/ZnO_database/pseudos/O.upf
     MD5 check sum: 91400c9766925bcf19f520983a725ff0
     Pseudo is Ultrasoft + core correction, Zval =  6.0
     Generated using &quot;atomic&quot; code by A. Dal Corso  v.6.3MaX
     Using radial grid of 1095 points,  4 beta functions with:
                l(1) =   0
                l(2) =   0
                l(3) =   1
                l(4) =   1
     Q(r) pseudized with 0 coefficients

     atomic species   valence    mass     pseudopotential
        Zn            12.00    65.38000     Zn( 1.00)
        O              6.00    15.99900     O ( 1.00)

      6 Sym. Ops. (no inversion) found

                                    s                        frac. trans.

      isym =  1     identity

 cryst.   s( 1) = (     1          0          0      )
                  (     0          1          0      )
                  (     0          0          1      )

 cart.    s( 1) = (  1.0000000  0.0000000  0.0000000 )
                  (  0.0000000  1.0000000  0.0000000 )
                  (  0.0000000  0.0000000  1.0000000 )

      isym =  2     120 deg rotation - cryst. axis [0,0,1]

[...]

      isym =  3     120 deg rotation - cryst. axis [0,0,-1]

[...]

      isym =  4     inv. 180 deg rotation - cart. axis [1,0,0]

[...]

      isym =  5     inv. 180 deg rotation - cryst. axis [0,1,0]

[...]

      isym =  6     inv. 180 deg rotation - cryst. axis [1,1,0]

 cryst.   s( 6) = (     0         -1          0      )
                  (    -1          0          0      )
                  (     0          0          1      )

 cart.    s( 6) = (  0.5000000 -0.8660254  0.0000000 )
                  ( -0.8660254 -0.5000000  0.0000000 )
                  (  0.0000000  0.0000000  1.0000000 )

   Cartesian axes

     site n.     atom                  positions (alat units)
         1           Zn  tau(   1) = (   0.5000000   0.2886751   0.8890222  )
         2           Zn  tau(   2) = (  -0.0000000   0.5773503   0.0011251  )
         3           O   tau(   3) = (   0.5000000   0.2886751   1.5621243  )
         4           O   tau(   4) = (  -0.0000000   0.5773503   0.6742272  )
         5           Zn  tau(   5) = (   0.5000000   0.2886751   2.6648164  )
         6           Zn  tau(   6) = (  -0.0000000   0.5773503   1.7769193  )
         7           O   tau(   7) = (   0.5000000   0.2886751   3.3379185  )
         8           O   tau(   8) = (  -0.0000000   0.5773503   2.4500214  )
         9           Zn  tau(   9) = (   0.5000000   0.2886751   4.4406106  )
        10           Zn  tau(  10) = (  -0.0000000   0.5773503   3.5527135  )
        11           O   tau(  11) = (   0.5000000   0.2886751   5.1137127  )
        12           O   tau(  12) = (  -0.0000000   0.5773503   4.2258156  )

   Crystallographic axes

     site n.     atom                  positions (cryst. coord.)
         1           Zn  tau(   1) = (  0.6666667  0.3333333  0.1668779  )
         2           Zn  tau(   2) = (  0.3333333  0.6666667  0.0002112  )
         3           O   tau(   3) = (  0.6666667  0.3333333  0.2932255  )
         4           O   tau(   4) = (  0.3333333  0.6666667  0.1265588  )
         5           Zn  tau(   5) = (  0.6666667  0.3333333  0.5002112  )
         6           Zn  tau(   6) = (  0.3333333  0.6666667  0.3335445  )
         7           O   tau(   7) = (  0.6666667  0.3333333  0.6265588  )
         8           O   tau(   8) = (  0.3333333  0.6666667  0.4598921  )
         9           Zn  tau(   9) = (  0.6666667  0.3333333  0.8335445  )
        10           Zn  tau(  10) = (  0.3333333  0.6666667  0.6668779  )
        11           O   tau(  11) = (  0.6666667  0.3333333  0.9598921  )
        12           O   tau(  12) = (  0.3333333  0.6666667  0.7932255  )

     number of k points=    34
                       cart. coord. in units 2pi/alat
        k(    1) = (   0.0000000   0.0000000   0.0000000), wk =   0.0092593
        k(    2) = (   0.0000000   0.0000000   0.0312849), wk =   0.0185185
        k(    3) = (   0.0000000   0.0000000   0.0625698), wk =   0.0185185
        k(    4) = (   0.0000000   0.0000000  -0.0938547), wk =   0.0092593
        k(    5) = (   0.0000000   0.1924501   0.0000000), wk =   0.0555556
        k(    6) = (   0.0000000   0.1924501   0.0312849), wk =   0.0555556
        k(    7) = (   0.0000000   0.1924501   0.0625698), wk =   0.0555556
        k(    8) = (   0.0000000   0.1924501  -0.0938547), wk =   0.0555556
        k(    9) = (   0.0000000   0.3849002   0.0000000), wk =   0.0555556
        k(   10) = (   0.0000000   0.3849002   0.0312849), wk =   0.0555556
        k(   11) = (   0.0000000   0.3849002   0.0625698), wk =   0.0555556
        k(   12) = (   0.0000000   0.3849002  -0.0938547), wk =   0.0555556
        k(   13) = (   0.0000000  -0.5773503   0.0000000), wk =   0.0277778
        k(   14) = (   0.0000000  -0.5773503   0.0312849), wk =   0.0555556
        k(   15) = (   0.0000000  -0.5773503   0.0625698), wk =   0.0555556
        k(   16) = (   0.0000000  -0.5773503  -0.0938547), wk =   0.0277778
        k(   17) = (   0.1666667   0.2886751   0.0000000), wk =   0.0555556
        k(   18) = (   0.1666667   0.2886751   0.0312849), wk =   0.1111111
        k(   19) = (   0.1666667   0.2886751   0.0625698), wk =   0.1111111
        k(   20) = (   0.1666667   0.2886751  -0.0938547), wk =   0.0555556
        k(   21) = (   0.1666667   0.4811252   0.0000000), wk =   0.1111111
        k(   22) = (   0.1666667   0.4811252   0.0312849), wk =   0.1111111
        k(   23) = (   0.1666667   0.4811252   0.0625698), wk =   0.1111111
        k(   24) = (   0.1666667   0.4811252  -0.0938547), wk =   0.1111111
        k(   25) = (   0.3333333   0.5773503   0.0000000), wk =   0.0185185
        k(   26) = (   0.3333333   0.5773503   0.0312849), wk =   0.0370370
        k(   27) = (   0.3333333   0.5773503   0.0625698), wk =   0.0370370
        k(   28) = (   0.3333333   0.5773503  -0.0938547), wk =   0.0185185
        k(   29) = (   0.0000000  -0.1924501   0.0312849), wk =   0.0555556
        k(   30) = (   0.0000000  -0.1924501   0.0625698), wk =   0.0555556
        k(   31) = (   0.0000000  -0.3849002   0.0312849), wk =   0.0555556
        k(   32) = (   0.0000000  -0.3849002   0.0625698), wk =   0.0555556
        k(   33) = (  -0.1666667  -0.4811252   0.0312849), wk =   0.1111111
        k(   34) = (  -0.1666667  -0.4811252   0.0625698), wk =   0.1111111

                       cryst. coord.
        k(    1) = (   0.0000000   0.0000000   0.0000000), wk =   0.0092593
        k(    2) = (   0.0000000   0.0000000   0.1666667), wk =   0.0185185
        k(    3) = (   0.0000000   0.0000000   0.3333333), wk =   0.0185185
        k(    4) = (   0.0000000   0.0000000  -0.5000000), wk =   0.0092593
        k(    5) = (   0.0000000   0.1666667   0.0000000), wk =   0.0555556
        k(    6) = (   0.0000000   0.1666667   0.1666667), wk =   0.0555556
        k(    7) = (   0.0000000   0.1666667   0.3333333), wk =   0.0555556
        k(    8) = (   0.0000000   0.1666667  -0.5000000), wk =   0.0555556
        k(    9) = (   0.0000000   0.3333333   0.0000000), wk =   0.0555556
        k(   10) = (   0.0000000   0.3333333   0.1666667), wk =   0.0555556
        k(   11) = (   0.0000000   0.3333333   0.3333333), wk =   0.0555556
        k(   12) = (   0.0000000   0.3333333  -0.5000000), wk =   0.0555556
        k(   13) = (   0.0000000  -0.5000000   0.0000000), wk =   0.0277778
        k(   14) = (   0.0000000  -0.5000000   0.1666667), wk =   0.0555556
        k(   15) = (   0.0000000  -0.5000000   0.3333333), wk =   0.0555556
        k(   16) = (   0.0000000  -0.5000000  -0.5000000), wk =   0.0277778
        k(   17) = (   0.1666667   0.1666667   0.0000000), wk =   0.0555556
        k(   18) = (   0.1666667   0.1666667   0.1666667), wk =   0.1111111
        k(   19) = (   0.1666667   0.1666667   0.3333333), wk =   0.1111111
        k(   20) = (   0.1666667   0.1666667  -0.5000000), wk =   0.0555556
        k(   21) = (   0.1666667   0.3333333   0.0000000), wk =   0.1111111
        k(   22) = (   0.1666667   0.3333333   0.1666667), wk =   0.1111111
        k(   23) = (   0.1666667   0.3333333   0.3333333), wk =   0.1111111
        k(   24) = (   0.1666667   0.3333333  -0.5000000), wk =   0.1111111
        k(   25) = (   0.3333333   0.3333333   0.0000000), wk =   0.0185185
        k(   26) = (   0.3333333   0.3333333   0.1666667), wk =   0.0370370
        k(   27) = (   0.3333333   0.3333333   0.3333333), wk =   0.0370370
        k(   28) = (   0.3333333   0.3333333  -0.5000000), wk =   0.0185185
        k(   29) = (   0.0000000  -0.1666667   0.1666667), wk =   0.0555556
        k(   30) = (   0.0000000  -0.1666667   0.3333333), wk =   0.0555556
        k(   31) = (   0.0000000  -0.3333333   0.1666667), wk =   0.0555556
        k(   32) = (   0.0000000  -0.3333333   0.3333333), wk =   0.0555556
        k(   33) = (  -0.1666667  -0.3333333   0.1666667), wk =   0.1111111
        k(   34) = (  -0.1666667  -0.3333333   0.3333333), wk =   0.1111111

     Check: negative core charge=   -0.000002

     Initial potential from superposition of free atoms

     starting charge     107.9776, renormalised to     108.0000
     Starting wfcs are   78 randomized atomic wfcs

     Self-consistent Calculation

     iteration #  1     ecut=    50.00 Ry     beta= 0.30
     Davidson diagonalization with overlap

     ethr =  1.00E-02,  avg # of iterations =  2.0

     total energy              =   -1084.28872506 Ry
     estimated scf accuracy    <       2.04492307 Ry

[...]

     total energy              =   -1084.71444308 Ry
     estimated scf accuracy    <       0.00000002 Ry

     iteration # 35     ecut=    50.00 Ry     beta= 0.30
     Davidson diagonalization with overlap

     ethr =  1.67E-11,  avg # of iterations =  2.1

     End of self-consistent calculation

          k = 0.0000 0.0000 0.0000 (  5049 PWs)   bands (ev):

    -9.9046  -9.7282  -9.7282  -9.3543  -9.3543  -9.1554   2.4007   2.4476
     2.4476   2.7222   2.7222   2.8450   2.8450   2.8802   2.8802   2.8802
     2.8802   2.9226   2.9683   2.9683   2.9683   2.9683   3.0226   3.0226
     4.5649   4.5649   4.6232   4.6232   4.6233   4.6233   4.7244   4.7244
     4.7244   4.7244   4.7669   4.7669   5.1952   5.9697   5.9697   7.6055
     7.6055   8.7997   8.7997   8.9754   8.9754   8.9755   8.9755   9.0383
     9.3283   9.3283   9.3283   9.3283   9.5049   9.5049

     occupation numbers
     1.0000   1.0000   1.0000   1.0000   1.0000   1.0000   1.0000   1.0000
     1.0000   1.0000   1.0000   1.0000   1.0000   1.0000   1.0000   1.0000
     1.0000   1.0000   1.0000   1.0000   1.0000   1.0000   1.0000   1.0000
     1.0000   1.0000   1.0000   1.0000   1.0000   1.0000   1.0000   1.0000
     1.0000   1.0000   1.0000   1.0000   1.0000   1.0000   1.0000   1.0000
     1.0000   1.0000   1.0000   1.0000   1.0000   1.0000   1.0000   1.0000
     1.0000   1.0000   1.0000   1.0000   1.0000   1.0000

[...]

          k = 0.0000-0.3849 0.0626 (  5061 PWs)   bands (ev):

[...]

          k =-0.1667-0.4811 0.0313 (  5041 PWs)   bands (ev):

[...]

          k =-0.1667-0.4811 0.0626 (  5039 PWs)   bands (ev):

    -8.9517  -8.9295  -8.8559  -8.8143  -8.7464  -8.7273   2.4494   2.4786
     2.4998   2.5345   2.6488   2.7300   3.1917   3.1943   3.2489   3.3072
     3.4410   3.4974   3.6383   3.6473   3.6759   3.7084   3.7176   3.7428
     4.4401   4.4954   4.6433   4.6574   4.7052   4.7120   4.8811   4.8824
     4.9053   4.9503   5.1034   5.1054   5.1823   5.2110   5.4948   5.6251
     5.7802   5.7949   6.2194   6.3782   6.6455   6.7886   6.8988   7.0767
     7.5524   7.6691   7.7182   7.7326   7.9673   8.0186

     occupation numbers
     1.0000   1.0000   1.0000   1.0000   1.0000   1.0000   1.0000   1.0000
     1.0000   1.0000   1.0000   1.0000   1.0000   1.0000   1.0000   1.0000
     1.0000   1.0000   1.0000   1.0000   1.0000   1.0000   1.0000   1.0000
     1.0000   1.0000   1.0000   1.0000   1.0000   1.0000   1.0000   1.0000
     1.0000   1.0000   1.0000   1.0000   1.0000   1.0000   1.0000   1.0000
     1.0000   1.0000   1.0000   1.0000   1.0000   1.0000   1.0000   1.0000
     1.0000   1.0000   1.0000   1.0000   1.0000   1.0000

     highest occupied level (ev):     9.5049

!    total energy              =   -1084.71444308 Ry
     estimated scf accuracy    <          4.3E-09 Ry

     The total energy is the sum of the following terms:
     one-electron contribution =    -411.15517597 Ry
     hartree contribution      =     336.81287679 Ry
     xc contribution           =    -329.70413489 Ry
     ewald contribution        =    -680.66800901 Ry

     convergence has been achieved in  35 iterations

     Forces acting on atoms (cartesian axes, Ry/au):

     atom    1 type  1   force =     0.00000000    0.00000000    0.05265820
     atom    2 type  1   force =     0.00000000   -0.00000000    0.05266445
     atom    3 type  2   force =     0.00000000   -0.00000000   -0.05266096
     atom    4 type  2   force =     0.00000000   -0.00000000   -0.05265791
     atom    5 type  1   force =     0.00000000    0.00000000    0.05265515
     atom    6 type  1   force =     0.00000000   -0.00000000    0.05265609
     atom    7 type  2   force =     0.00000000    0.00000000   -0.05265766
     atom    8 type  2   force =     0.00000000    0.00000000   -0.05265723
     atom    9 type  1   force =     0.00000000    0.00000000    0.05266206
     atom   10 type  1   force =     0.00000000   -0.00000000    0.05265680
     atom   11 type  2   force =     0.00000000    0.00000000   -0.05265784
     atom   12 type  2   force =     0.00000000    0.00000000   -0.05266117
     The non-local contrib.  to forces
     atom    1 type  1   force =     0.00000000    0.00000000    0.27843540
     atom    2 type  1   force =     0.00000000    0.00000000    0.27844268
     atom    3 type  2   force =     0.00000000    0.00000000    0.22857729
     atom    4 type  2   force =     0.00000000    0.00000000    0.22857903
     atom    5 type  1   force =     0.00000000    0.00000000    0.27843635
     atom    6 type  1   force =     0.00000000    0.00000000    0.27843016
     atom    7 type  2   force =     0.00000000    0.00000000    0.22858110
     atom    8 type  2   force =     0.00000000    0.00000000    0.22858321
     atom    9 type  1   force =     0.00000000    0.00000000    0.27843353
     atom   10 type  1   force =     0.00000000    0.00000000    0.27843331
     atom   11 type  2   force =     0.00000000    0.00000000    0.22857915
     atom   12 type  2   force =     0.00000000   -0.00000000    0.22857509
     The ionic contribution  to forces
     atom    1 type  1   force =    -0.00000000    0.00000000    2.26036755
     atom    2 type  1   force =     0.00000000   -0.00000000    2.26036760
     atom    3 type  2   force =    -0.00000000    0.00000000   -2.26036757
     atom    4 type  2   force =     0.00000000   -0.00000000   -2.26036758
     atom    5 type  1   force =    -0.00000000    0.00000000    2.26036760
     atom    6 type  1   force =     0.00000000   -0.00000000    2.26036755
     atom    7 type  2   force =    -0.00000000    0.00000000   -2.26036758
     atom    8 type  2   force =     0.00000000   -0.00000000   -2.26036755
     atom    9 type  1   force =    -0.00000000    0.00000000    2.26036755
     atom   10 type  1   force =     0.00000000   -0.00000000    2.26036755
     atom   11 type  2   force =    -0.00000000    0.00000000   -2.26036755
     atom   12 type  2   force =     0.00000000   -0.00000000   -2.26036757
     The local contribution  to forces
     atom    1 type  1   force =    -0.00000004    0.00000002   -2.46351093
     atom    2 type  1   force =     0.00000004   -0.00000002   -2.46351314
     atom    3 type  2   force =    -0.00000001    0.00000001    1.98077700
     atom    4 type  2   force =     0.00000001   -0.00000001    1.98077095
     atom    5 type  1   force =    -0.00000004    0.00000002   -2.46349625
     atom    6 type  1   force =     0.00000004   -0.00000002   -2.46349639
     atom    7 type  2   force =    -0.00000001    0.00000001    1.98077306
     atom    8 type  2   force =     0.00000001   -0.00000001    1.98077917
     atom    9 type  1   force =    -0.00000004    0.00000002   -2.46350741
     atom   10 type  1   force =     0.00000004   -0.00000002   -2.46350745
     atom   11 type  2   force =    -0.00000001    0.00000001    1.98077217
     atom   12 type  2   force =     0.00000001   -0.00000001    1.98077391
     The core correction contribution to forces
     atom    1 type  1   force =    -0.00000001    0.00000000   -0.02265153
     atom    2 type  1   force =     0.00000001   -0.00000000   -0.02265197
     atom    3 type  2   force =     0.00000000   -0.00000000   -0.00164588
     atom    4 type  2   force =    -0.00000000    0.00000000   -0.00164524
     atom    5 type  1   force =    -0.00000001    0.00000000   -0.02265210
     atom    6 type  1   force =     0.00000001   -0.00000000   -0.02264859
     atom    7 type  2   force =     0.00000000   -0.00000000   -0.00164528
     atom    8 type  2   force =    -0.00000000    0.00000000   -0.00164712
     atom    9 type  1   force =    -0.00000001    0.00000000   -0.02264839
     atom   10 type  1   force =     0.00000001   -0.00000000   -0.02265155
     atom   11 type  2   force =     0.00000000   -0.00000000   -0.00164707
     atom   12 type  2   force =    -0.00000000    0.00000000   -0.00164585
     The Hubbard contrib.    to forces
     atom    1 type  1   force =     0.00000000    0.00000000    0.00000000
     atom    2 type  1   force =     0.00000000    0.00000000    0.00000000
     atom    3 type  2   force =     0.00000000    0.00000000    0.00000000
     atom    4 type  2   force =     0.00000000    0.00000000    0.00000000
     atom    5 type  1   force =     0.00000000    0.00000000    0.00000000
     atom    6 type  1   force =     0.00000000    0.00000000    0.00000000
     atom    7 type  2   force =     0.00000000    0.00000000    0.00000000
     atom    8 type  2   force =     0.00000000    0.00000000    0.00000000
     atom    9 type  1   force =     0.00000000    0.00000000    0.00000000
     atom   10 type  1   force =     0.00000000    0.00000000    0.00000000
     atom   11 type  2   force =     0.00000000    0.00000000    0.00000000
     atom   12 type  2   force =     0.00000000    0.00000000    0.00000000
     The SCF correction term to forces
     atom    1 type  1   force =     0.00000000   -0.00000000    0.00001978
     atom    2 type  1   force =    -0.00000000    0.00000000    0.00002136
     atom    3 type  2   force =     0.00000000   -0.00000000    0.00000026
     atom    4 type  2   force =    -0.00000000    0.00000000    0.00000700
     atom    5 type  1   force =     0.00000000   -0.00000000    0.00000162
     atom    6 type  1   force =    -0.00000000    0.00000000    0.00000542
     atom    7 type  2   force =     0.00000000   -0.00000000    0.00000310
     atom    8 type  2   force =    -0.00000000    0.00000000   -0.00000287
     atom    9 type  1   force =     0.00000000   -0.00000000    0.00001885
     atom   10 type  1   force =    -0.00000000    0.00000000    0.00001700
     atom   11 type  2   force =     0.00000000   -0.00000000    0.00000753
     atom   12 type  2   force =    -0.00000000    0.00000000    0.00000532

     Total force =     0.182415     Total SCF correction =     0.000041

     General routines

     Parallel routines

   This run was terminated on:  13: 8:41  27Aug2025

   JOB DONE.