     Program PWSCF v.7.0 starts on 27Aug2025 at 18: 2:48

     K-points division:     npool     =      17

     Reading input from /home/jvc/QEspresso7.2/ZnO_database/scripts/cell113.in/ZnO-3.40-1.61-113.in
Warning: card &CELL ignored
Warning: card / ignored
Warning: card &FCP ignored
Warning: card / ignored
Warning: card &RISM ignored
Warning: card / ignored

     Current dimensions of program PWSCF are:
     Max number of different atomic species (ntypx) = 10
     Max number of k-points (npk) =  40000
     Max angular momentum in pseudopotentials (lmaxx) =  4
     file Zn.upf: wavefunction(s)  3D renormalized
     Found identity + (  0.0000  0.0000  0.3333) symmetry
     This is a supercell, fractional translations are disabled
     Message from routine setup:
     using ibrav=0 with symmetry is DISCOURAGED, use correct ibrav instead

     Subspace diagonalization in iterative solution of the eigenvalue problem:
     a serial algorithm will be used

     Using Slab Decomposition

     bravais-lattice index     =            0
     lattice parameter (alat)  =       6.4260  a.u.
     unit-cell volume          =    1112.9500 (a.u.)^3
     number of atoms/cell      =           12
     number of atomic types    =            2
     number of electrons       =       108.00
     number of Kohn-Sham states=           54
     kinetic-energy cutoff     =      50.0000  Ry
     charge density cutoff     =     400.0000  Ry
     scf convergence threshold =      1.0E-08
     mixing beta               =       0.3000
     number of iterations used =            8  plain     mixing
     Exchange-correlation= PBE
                           (   1   4   3   4   0   0   0)

     celldm(1)=   6.426008  celldm(2)=   0.000000  celldm(3)=   0.000000
     celldm(4)=   0.000000  celldm(5)=   0.000000  celldm(6)=   0.000000

     crystal axes: (cart. coord. in units of alat)
               a(1) = (   1.000000   0.000000   0.000000 )
               a(2) = (  -0.500000   0.866025   0.000000 )
               a(3) = (   0.000000   0.000000   4.843075 )

     reciprocal axes: (cart. coord. in units 2 pi/alat)
               b(1) = (  1.000000  0.577350 -0.000000 )
               b(2) = (  0.000000  1.154701  0.000000 )
               b(3) = (  0.000000 -0.000000  0.206480 )

     PseudoPot. # 1 for Zn read from file:
     /home/jvc/QEspresso7.2/ZnO_database/pseudos/Zn.upf
     MD5 check sum: 7f56cabf9682ed8c977c2f7d0c5985c5
     Pseudo is Ultrasoft + core correction, Zval = 12.0
     Generated using &quot;atomic&quot; code by A. Dal Corso  v.6.2.2
     Using radial grid of 1201 points,  6 beta functions with:
                l(1) =   0
                l(2) =   0
                l(3) =   1
                l(4) =   1
                l(5) =   2
                l(6) =   2
     Q(r) pseudized with 0 coefficients

     PseudoPot. # 2 for O  read from file:
     /home/jvc/QEspresso7.2/ZnO_database/pseudos/O.upf
     MD5 check sum: 91400c9766925bcf19f520983a725ff0
     Pseudo is Ultrasoft + core correction, Zval =  6.0
     Generated using &quot;atomic&quot; code by A. Dal Corso  v.6.3MaX
     Using radial grid of 1095 points,  4 beta functions with:
                l(1) =   0
                l(2) =   0
                l(3) =   1
                l(4) =   1
     Q(r) pseudized with 0 coefficients

     atomic species   valence    mass     pseudopotential
        Zn            12.00    65.38000     Zn( 1.00)
        O              6.00    15.99900     O ( 1.00)

      6 Sym. Ops. (no inversion) found

                                    s                        frac. trans.

      isym =  1     identity

 cryst.   s( 1) = (     1          0          0      )
                  (     0          1          0      )
                  (     0          0          1      )

 cart.    s( 1) = (  1.0000000  0.0000000  0.0000000 )
                  (  0.0000000  1.0000000  0.0000000 )
                  (  0.0000000  0.0000000  1.0000000 )

      isym =  2     120 deg rotation - cryst. axis [0,0,1]

[...]

      isym =  3     120 deg rotation - cryst. axis [0,0,-1]

[...]

      isym =  4     inv. 180 deg rotation - cart. axis [1,0,0]

[...]

      isym =  5     inv. 180 deg rotation - cryst. axis [0,1,0]

[...]

      isym =  6     inv. 180 deg rotation - cryst. axis [1,1,0]

 cryst.   s( 6) = (     0         -1          0      )
                  (    -1          0          0      )
                  (     0          0          1      )

 cart.    s( 6) = (  0.5000000 -0.8660254  0.0000000 )
                  ( -0.8660254 -0.5000000  0.0000000 )
                  (  0.0000000  0.0000000  1.0000000 )

   Cartesian axes

     site n.     atom                  positions (alat units)
         1           Zn  tau(   1) = (   0.5000000   0.2886751   0.8082020  )
         2           Zn  tau(   2) = (  -0.0000000   0.5773503   0.0010228  )
         3           O   tau(   3) = (   0.5000000   0.2886751   1.4201130  )
         4           O   tau(   4) = (  -0.0000000   0.5773503   0.6129338  )
         5           Zn  tau(   5) = (   0.5000000   0.2886751   2.4225604  )
         6           Zn  tau(   6) = (  -0.0000000   0.5773503   1.6153812  )
         7           O   tau(   7) = (   0.5000000   0.2886751   3.0344713  )
         8           O   tau(   8) = (  -0.0000000   0.5773503   2.2272921  )
         9           Zn  tau(   9) = (   0.5000000   0.2886751   4.0369187  )
        10           Zn  tau(  10) = (  -0.0000000   0.5773503   3.2297395  )
        11           O   tau(  11) = (   0.5000000   0.2886751   4.6488297  )
        12           O   tau(  12) = (  -0.0000000   0.5773503   3.8416505  )

   Crystallographic axes

     site n.     atom                  positions (cryst. coord.)
         1           Zn  tau(   1) = (  0.6666667  0.3333333  0.1668779  )
         2           Zn  tau(   2) = (  0.3333333  0.6666667  0.0002112  )
         3           O   tau(   3) = (  0.6666667  0.3333333  0.2932255  )
         4           O   tau(   4) = (  0.3333333  0.6666667  0.1265588  )
         5           Zn  tau(   5) = (  0.6666667  0.3333333  0.5002112  )
         6           Zn  tau(   6) = (  0.3333333  0.6666667  0.3335445  )
         7           O   tau(   7) = (  0.6666667  0.3333333  0.6265588  )
         8           O   tau(   8) = (  0.3333333  0.6666667  0.4598921  )
         9           Zn  tau(   9) = (  0.6666667  0.3333333  0.8335445  )
        10           Zn  tau(  10) = (  0.3333333  0.6666667  0.6668779  )
        11           O   tau(  11) = (  0.6666667  0.3333333  0.9598921  )
        12           O   tau(  12) = (  0.3333333  0.6666667  0.7932255  )

     number of k points=    34
                       cart. coord. in units 2pi/alat
        k(    1) = (   0.0000000   0.0000000   0.0000000), wk =   0.0092593
        k(    2) = (   0.0000000   0.0000000   0.0344134), wk =   0.0185185
        k(    3) = (   0.0000000   0.0000000   0.0688268), wk =   0.0185185
        k(    4) = (   0.0000000   0.0000000  -0.1032402), wk =   0.0092593
        k(    5) = (   0.0000000   0.1924501   0.0000000), wk =   0.0555556
        k(    6) = (   0.0000000   0.1924501   0.0344134), wk =   0.0555556
        k(    7) = (   0.0000000   0.1924501   0.0688268), wk =   0.0555556
        k(    8) = (   0.0000000   0.1924501  -0.1032402), wk =   0.0555556
        k(    9) = (   0.0000000   0.3849002   0.0000000), wk =   0.0555556
        k(   10) = (   0.0000000   0.3849002   0.0344134), wk =   0.0555556
        k(   11) = (   0.0000000   0.3849002   0.0688268), wk =   0.0555556
        k(   12) = (   0.0000000   0.3849002  -0.1032402), wk =   0.0555556
        k(   13) = (   0.0000000  -0.5773503   0.0000000), wk =   0.0277778
        k(   14) = (   0.0000000  -0.5773503   0.0344134), wk =   0.0555556
        k(   15) = (   0.0000000  -0.5773503   0.0688268), wk =   0.0555556
        k(   16) = (   0.0000000  -0.5773503  -0.1032402), wk =   0.0277778
        k(   17) = (   0.1666667   0.2886751   0.0000000), wk =   0.0555556
        k(   18) = (   0.1666667   0.2886751   0.0344134), wk =   0.1111111
        k(   19) = (   0.1666667   0.2886751   0.0688268), wk =   0.1111111
        k(   20) = (   0.1666667   0.2886751  -0.1032402), wk =   0.0555556
        k(   21) = (   0.1666667   0.4811252   0.0000000), wk =   0.1111111
        k(   22) = (   0.1666667   0.4811252   0.0344134), wk =   0.1111111
        k(   23) = (   0.1666667   0.4811252   0.0688268), wk =   0.1111111
        k(   24) = (   0.1666667   0.4811252  -0.1032402), wk =   0.1111111
        k(   25) = (   0.3333333   0.5773503   0.0000000), wk =   0.0185185
        k(   26) = (   0.3333333   0.5773503   0.0344134), wk =   0.0370370
        k(   27) = (   0.3333333   0.5773503   0.0688268), wk =   0.0370370
        k(   28) = (   0.3333333   0.5773503  -0.1032402), wk =   0.0185185
        k(   29) = (   0.0000000  -0.1924501   0.0344134), wk =   0.0555556
        k(   30) = (   0.0000000  -0.1924501   0.0688268), wk =   0.0555556
        k(   31) = (   0.0000000  -0.3849002   0.0344134), wk =   0.0555556
        k(   32) = (   0.0000000  -0.3849002   0.0688268), wk =   0.0555556
        k(   33) = (  -0.1666667  -0.4811252   0.0344134), wk =   0.1111111
        k(   34) = (  -0.1666667  -0.4811252   0.0688268), wk =   0.1111111

                       cryst. coord.
        k(    1) = (   0.0000000   0.0000000   0.0000000), wk =   0.0092593
        k(    2) = (   0.0000000   0.0000000   0.1666667), wk =   0.0185185
        k(    3) = (   0.0000000   0.0000000   0.3333333), wk =   0.0185185
        k(    4) = (   0.0000000   0.0000000  -0.5000000), wk =   0.0092593
        k(    5) = (   0.0000000   0.1666667   0.0000000), wk =   0.0555556
        k(    6) = (   0.0000000   0.1666667   0.1666667), wk =   0.0555556
        k(    7) = (   0.0000000   0.1666667   0.3333333), wk =   0.0555556
        k(    8) = (   0.0000000   0.1666667  -0.5000000), wk =   0.0555556
        k(    9) = (   0.0000000   0.3333333   0.0000000), wk =   0.0555556
        k(   10) = (   0.0000000   0.3333333   0.1666667), wk =   0.0555556
        k(   11) = (   0.0000000   0.3333333   0.3333333), wk =   0.0555556
        k(   12) = (   0.0000000   0.3333333  -0.5000000), wk =   0.0555556
        k(   13) = (   0.0000000  -0.5000000   0.0000000), wk =   0.0277778
        k(   14) = (   0.0000000  -0.5000000   0.1666667), wk =   0.0555556
        k(   15) = (   0.0000000  -0.5000000   0.3333333), wk =   0.0555556
        k(   16) = (   0.0000000  -0.5000000  -0.5000000), wk =   0.0277778
        k(   17) = (   0.1666667   0.1666667   0.0000000), wk =   0.0555556
        k(   18) = (   0.1666667   0.1666667   0.1666667), wk =   0.1111111
        k(   19) = (   0.1666667   0.1666667   0.3333333), wk =   0.1111111
        k(   20) = (   0.1666667   0.1666667  -0.5000000), wk =   0.0555556
        k(   21) = (   0.1666667   0.3333333   0.0000000), wk =   0.1111111
        k(   22) = (   0.1666667   0.3333333   0.1666667), wk =   0.1111111
        k(   23) = (   0.1666667   0.3333333   0.3333333), wk =   0.1111111
        k(   24) = (   0.1666667   0.3333333  -0.5000000), wk =   0.1111111
        k(   25) = (   0.3333333   0.3333333   0.0000000), wk =   0.0185185
        k(   26) = (   0.3333333   0.3333333   0.1666667), wk =   0.0370370
        k(   27) = (   0.3333333   0.3333333   0.3333333), wk =   0.0370370
        k(   28) = (   0.3333333   0.3333333  -0.5000000), wk =   0.0185185
        k(   29) = (   0.0000000  -0.1666667   0.1666667), wk =   0.0555556
        k(   30) = (   0.0000000  -0.1666667   0.3333333), wk =   0.0555556
        k(   31) = (   0.0000000  -0.3333333   0.1666667), wk =   0.0555556
        k(   32) = (   0.0000000  -0.3333333   0.3333333), wk =   0.0555556
        k(   33) = (  -0.1666667  -0.3333333   0.1666667), wk =   0.1111111
        k(   34) = (  -0.1666667  -0.3333333   0.3333333), wk =   0.1111111

     Check: negative core charge=   -0.000002

     Initial potential from superposition of free atoms

     starting charge     107.9776, renormalised to     108.0000
     Starting wfcs are   78 randomized atomic wfcs

     Self-consistent Calculation

     iteration #  1     ecut=    50.00 Ry     beta= 0.30
     Davidson diagonalization with overlap

     ethr =  1.00E-02,  avg # of iterations =  1.7

     total energy              =   -1084.34055808 Ry
     estimated scf accuracy    <       2.22518008 Ry

[...]

     ethr =  2.91E-05,  avg # of iterations =  2.5
[barbara][[39144,1],1][../../../../../../opal/mca/btl/tcp/btl_tcp.c:559:mca_btl_tcp_recv_blocking] recv(18) failed: Connection reset by peer (104)

[...]

     c_bands:  1 eigenvalues not converged
     ethr =  7.96E-08,  avg # of iterations =  9.8

[...]

     total energy              =   -1084.86413814 Ry
     estimated scf accuracy    <       0.00000148 Ry

     iteration # 41     ecut=    50.00 Ry     beta= 0.30
     Davidson diagonalization with overlap

     ethr =  6.05E-10,  avg # of iterations =  6.6

     End of self-consistent calculation

          k = 0.0000 0.0000 0.0000 (  6665 PWs)   bands (ev):

   -11.7725 -11.6457 -11.6457 -11.3843 -11.3842 -11.2495   0.0958   0.0958
     0.1483   0.1483   0.1716   0.1716   0.1717   0.1717   0.1751   0.1777
     0.1777   0.2450   0.2450   0.2450   0.2450   0.2964   0.2964   0.6124
     0.9483   0.9483   0.9960   0.9960   0.9960   0.9960   1.0715   1.0715
     1.0715   1.0715   1.0971   1.0971   1.3733   2.3971   2.3971   3.8829
     3.8829   4.6427   4.6427   4.8052   4.8052   4.8052   4.8052   5.1240
     5.1240   5.1241   5.1241   5.2298   5.2802   5.2802

     occupation numbers
     1.0000   1.0000   1.0000   1.0000   1.0000   1.0000   1.0000   1.0000
     1.0000   1.0000   1.0000   1.0000   1.0000   1.0000   1.0000   1.0000
     1.0000   1.0000   1.0000   1.0000   1.0000   1.0000   1.0000   1.0000
     1.0000   1.0000   1.0000   1.0000   1.0000   1.0000   1.0000   1.0000
     1.0000   1.0000   1.0000   1.0000   1.0000   1.0000   1.0000   1.0000
     1.0000   1.0000   1.0000   1.0000   1.0000   1.0000   1.0000   1.0000
     1.0000   1.0000   1.0000   1.0000   1.0000   1.0000

[...]

          k = 0.0000-0.3849 0.0688 (  6649 PWs)   bands (ev):

[...]

          k =-0.1667-0.4811 0.0344 (  6647 PWs)   bands (ev):

[...]

          k =-0.1667-0.4811 0.0688 (  6647 PWs)   bands (ev):

   -11.2725 -11.2564 -11.2037 -11.1743 -11.1270 -11.1139   0.0806   0.1102
     0.1127   0.1262   0.2692   0.3108   0.3821   0.4239   0.4344   0.4965
     0.5632   0.5758   0.5903   0.6002   0.6728   0.6872   0.7227   0.7522
     0.9431   0.9703   1.0234   1.0383   1.0472   1.0535   1.1438   1.1450
     1.1779   1.2107   1.2774   1.2969   1.8032   1.8261   1.9705   2.0694
     2.2620   2.3082   2.9232   3.0638   3.2437   3.4741   3.4892   3.7163
     4.1288   4.1347   4.2161   4.3356   4.3416   4.3898

     occupation numbers
     1.0000   1.0000   1.0000   1.0000   1.0000   1.0000   1.0000   1.0000
     1.0000   1.0000   1.0000   1.0000   1.0000   1.0000   1.0000   1.0000
     1.0000   1.0000   1.0000   1.0000   1.0000   1.0000   1.0000   1.0000
     1.0000   1.0000   1.0000   1.0000   1.0000   1.0000   1.0000   1.0000
     1.0000   1.0000   1.0000   1.0000   1.0000   1.0000   1.0000   1.0000
     1.0000   1.0000   1.0000   1.0000   1.0000   1.0000   1.0000   1.0000
     1.0000   1.0000   1.0000   1.0000   1.0000   1.0000

     highest occupied level (ev):     5.2802

!    total energy              =   -1084.86413853 Ry
     estimated scf accuracy    <          2.9E-09 Ry

     The total energy is the sum of the following terms:
     one-electron contribution =    -503.45550505 Ry
     hartree contribution      =     369.20878526 Ry
     xc contribution           =    -327.96277492 Ry
     ewald contribution        =    -622.65464383 Ry

     convergence has been achieved in  41 iterations

     Forces acting on atoms (cartesian axes, Ry/au):

     atom    1 type  1   force =     0.00000000   -0.00000000   -0.00012980
     atom    2 type  1   force =     0.00000000   -0.00000000   -0.00014175
     atom    3 type  2   force =     0.00000000    0.00000000    0.00008542
     atom    4 type  2   force =     0.00000000    0.00000000    0.00008559
     atom    5 type  1   force =     0.00000000    0.00000000   -0.00005187
     atom    6 type  1   force =     0.00000000   -0.00000000   -0.00009415
     atom    7 type  2   force =     0.00000000    0.00000000    0.00009113
     atom    8 type  2   force =     0.00000000   -0.00000000    0.00008972
     atom    9 type  1   force =     0.00000000    0.00000000   -0.00007584
     atom   10 type  1   force =     0.00000000    0.00000000   -0.00003384
     atom   11 type  2   force =     0.00000000    0.00000000    0.00008727
     atom   12 type  2   force =     0.00000000    0.00000000    0.00008813
     The non-local contrib.  to forces
     atom    1 type  1   force =     0.00000000    0.00000000   -0.00458337
     atom    2 type  1   force =     0.00000000   -0.00000000   -0.00459464
     atom    3 type  2   force =     0.00000000    0.00000000    0.00643378
     atom    4 type  2   force =     0.00000000    0.00000000    0.00644505
     atom    5 type  1   force =     0.00000000    0.00000000   -0.00454656
     atom    6 type  1   force =     0.00000000   -0.00000000   -0.00457027
     atom    7 type  2   force =     0.00000000   -0.00000000    0.00643741
     atom    8 type  2   force =     0.00000000    0.00000000    0.00643377
     atom    9 type  1   force =     0.00000000   -0.00000000   -0.00456246
     atom   10 type  1   force =     0.00000000    0.00000000   -0.00453983
     atom   11 type  2   force =     0.00000000    0.00000000    0.00646249
     atom   12 type  2   force =     0.00000000   -0.00000000    0.00644151
     The ionic contribution  to forces
     atom    1 type  1   force =    -0.00000000    0.00000000    0.05798521
     atom    2 type  1   force =     0.00000000   -0.00000000    0.05798525
     atom    3 type  2   force =    -0.00000000    0.00000000   -0.05798523
     atom    4 type  2   force =     0.00000000   -0.00000000   -0.05798524
     atom    5 type  1   force =    -0.00000000    0.00000000    0.05798525
     atom    6 type  1   force =     0.00000000   -0.00000000    0.05798521
     atom    7 type  2   force =    -0.00000000    0.00000000   -0.05798524
     atom    8 type  2   force =     0.00000000   -0.00000000   -0.05798521
     atom    9 type  1   force =    -0.00000000    0.00000000    0.05798521
     atom   10 type  1   force =     0.00000000   -0.00000000    0.05798521
     atom   11 type  2   force =    -0.00000000    0.00000000   -0.05798521
     atom   12 type  2   force =     0.00000000   -0.00000000   -0.05798523
     The local contribution  to forces
     atom    1 type  1   force =    -0.00000004    0.00000003   -0.05379845
     atom    2 type  1   force =     0.00000004   -0.00000003   -0.05376410
     atom    3 type  2   force =    -0.00000001    0.00000001    0.05172035
     atom    4 type  2   force =     0.00000001   -0.00000001    0.05175151
     atom    5 type  1   force =    -0.00000004    0.00000003   -0.05389243
     atom    6 type  1   force =     0.00000004   -0.00000003   -0.05383968
     atom    7 type  2   force =    -0.00000001    0.00000001    0.05165441
     atom    8 type  2   force =     0.00000001   -0.00000001    0.05167260
     atom    9 type  1   force =    -0.00000004    0.00000003   -0.05385326
     atom   10 type  1   force =     0.00000004   -0.00000003   -0.05391532
     atom   11 type  2   force =    -0.00000001    0.00000001    0.05174082
     atom   12 type  2   force =     0.00000001   -0.00000001    0.05168234
     The core correction contribution to forces
     atom    1 type  1   force =    -0.00000001    0.00000000    0.00033909
     atom    2 type  1   force =     0.00000001   -0.00000000    0.00034136
     atom    3 type  2   force =     0.00000000   -0.00000000   -0.00007342
     atom    4 type  2   force =    -0.00000000    0.00000000   -0.00007188
     atom    5 type  1   force =    -0.00000001    0.00000000    0.00034202
     atom    6 type  1   force =     0.00000001   -0.00000000    0.00034039
     atom    7 type  2   force =     0.00000000   -0.00000000   -0.00007197
     atom    8 type  2   force =    -0.00000000    0.00000000   -0.00007422
     atom    9 type  1   force =    -0.00000001    0.00000000    0.00033946
     atom   10 type  1   force =     0.00000001   -0.00000000    0.00033901
     atom   11 type  2   force =     0.00000000   -0.00000000   -0.00007447
     atom   12 type  2   force =    -0.00000000    0.00000000   -0.00007360
     The Hubbard contrib.    to forces
     atom    1 type  1   force =     0.00000000    0.00000000    0.00000000
     atom    2 type  1   force =     0.00000000    0.00000000    0.00000000
     atom    3 type  2   force =     0.00000000    0.00000000    0.00000000
     atom    4 type  2   force =     0.00000000    0.00000000    0.00000000
     atom    5 type  1   force =     0.00000000    0.00000000    0.00000000
     atom    6 type  1   force =     0.00000000    0.00000000    0.00000000
     atom    7 type  2   force =     0.00000000    0.00000000    0.00000000
     atom    8 type  2   force =     0.00000000    0.00000000    0.00000000
     atom    9 type  1   force =     0.00000000    0.00000000    0.00000000
     atom   10 type  1   force =     0.00000000    0.00000000    0.00000000
     atom   11 type  2   force =     0.00000000    0.00000000    0.00000000
     atom   12 type  2   force =     0.00000000    0.00000000    0.00000000
     The SCF correction term to forces
     atom    1 type  1   force =     0.00000000   -0.00000000   -0.00007402
     atom    2 type  1   force =    -0.00000000    0.00000000   -0.00011134
     atom    3 type  2   force =     0.00000000   -0.00000000   -0.00001180
     atom    4 type  2   force =    -0.00000000    0.00000000   -0.00005558
     atom    5 type  1   force =     0.00000000   -0.00000000    0.00005813
     atom    6 type  1   force =    -0.00000000    0.00000000   -0.00001153
     atom    7 type  2   force =     0.00000000   -0.00000000    0.00005479
     atom    8 type  2   force =    -0.00000000    0.00000000    0.00004105
     atom    9 type  1   force =     0.00000000   -0.00000000    0.00001347
     atom   10 type  1   force =    -0.00000000    0.00000000    0.00009536
     atom   11 type  2   force =     0.00000000   -0.00000000   -0.00005809
     atom   12 type  2   force =    -0.00000000    0.00000000    0.00002139

     Total force =     0.000319     Total SCF correction =     0.000206
     SCF correction compared to forces is large: reduce conv_thr to get better values

     General routines

     Parallel routines

   This run was terminated on:  18:10: 4  27Aug2025

   JOB DONE.