     Program PWSCF v.7.0 starts on 27Aug2025 at 22: 7: 3

     K-points division:     npool     =      17

     Reading input from /home/jvc/QEspresso7.2/ZnO_database/scripts/cell113.in/ZnO-3.60-1.61-113.in
Warning: card &CELL ignored
Warning: card / ignored
Warning: card &FCP ignored
Warning: card / ignored
Warning: card &RISM ignored
Warning: card / ignored

     Current dimensions of program PWSCF are:
     Max number of different atomic species (ntypx) = 10
     Max number of k-points (npk) =  40000
     Max angular momentum in pseudopotentials (lmaxx) =  4
     file Zn.upf: wavefunction(s)  3D renormalized
     Found identity + (  0.0000  0.0000  0.3333) symmetry
     This is a supercell, fractional translations are disabled
     Message from routine setup:
     using ibrav=0 with symmetry is DISCOURAGED, use correct ibrav instead

     Subspace diagonalization in iterative solution of the eigenvalue problem:
     a serial algorithm will be used

     Using Slab Decomposition

     bravais-lattice index     =            0
     lattice parameter (alat)  =       6.7967  a.u.
     unit-cell volume          =    1316.9027 (a.u.)^3
     number of atoms/cell      =           12
     number of atomic types    =            2
     number of electrons       =       108.00
     number of Kohn-Sham states=           54
     kinetic-energy cutoff     =      50.0000  Ry
     charge density cutoff     =     400.0000  Ry
     scf convergence threshold =      1.0E-08
     mixing beta               =       0.3000
     number of iterations used =            8  plain     mixing
     Exchange-correlation= PBE
                           (   1   4   3   4   0   0   0)

     celldm(1)=   6.796739  celldm(2)=   0.000000  celldm(3)=   0.000000
     celldm(4)=   0.000000  celldm(5)=   0.000000  celldm(6)=   0.000000

     crystal axes: (cart. coord. in units of alat)
               a(1) = (   1.000000   0.000000   0.000000 )
               a(2) = (  -0.500000   0.866025   0.000000 )
               a(3) = (   0.000000   0.000000   4.843075 )

     reciprocal axes: (cart. coord. in units 2 pi/alat)
               b(1) = (  1.000000  0.577350 -0.000000 )
               b(2) = (  0.000000  1.154701  0.000000 )
               b(3) = (  0.000000 -0.000000  0.206480 )

     PseudoPot. # 1 for Zn read from file:
     /home/jvc/QEspresso7.2/ZnO_database/pseudos/Zn.upf
     MD5 check sum: 7f56cabf9682ed8c977c2f7d0c5985c5
     Pseudo is Ultrasoft + core correction, Zval = 12.0
     Generated using &quot;atomic&quot; code by A. Dal Corso  v.6.2.2
     Using radial grid of 1201 points,  6 beta functions with:
                l(1) =   0
                l(2) =   0
                l(3) =   1
                l(4) =   1
                l(5) =   2
                l(6) =   2
     Q(r) pseudized with 0 coefficients

     PseudoPot. # 2 for O  read from file:
     /home/jvc/QEspresso7.2/ZnO_database/pseudos/O.upf
     MD5 check sum: 91400c9766925bcf19f520983a725ff0
     Pseudo is Ultrasoft + core correction, Zval =  6.0
     Generated using &quot;atomic&quot; code by A. Dal Corso  v.6.3MaX
     Using radial grid of 1095 points,  4 beta functions with:
                l(1) =   0
                l(2) =   0
                l(3) =   1
                l(4) =   1
     Q(r) pseudized with 0 coefficients

     atomic species   valence    mass     pseudopotential
        Zn            12.00    65.38000     Zn( 1.00)
        O              6.00    15.99900     O ( 1.00)

      6 Sym. Ops. (no inversion) found

                                    s                        frac. trans.

      isym =  1     identity

 cryst.   s( 1) = (     1          0          0      )
                  (     0          1          0      )
                  (     0          0          1      )

 cart.    s( 1) = (  1.0000000  0.0000000  0.0000000 )
                  (  0.0000000  1.0000000  0.0000000 )
                  (  0.0000000  0.0000000  1.0000000 )

      isym =  2     120 deg rotation - cryst. axis [0,0,1]

[...]

      isym =  3     120 deg rotation - cryst. axis [0,0,-1]

[...]

      isym =  4     inv. 180 deg rotation - cart. axis [1,0,0]

[...]

      isym =  5     inv. 180 deg rotation - cryst. axis [0,1,0]

[...]

      isym =  6     inv. 180 deg rotation - cryst. axis [1,1,0]

 cryst.   s( 6) = (     0         -1          0      )
                  (    -1          0          0      )
                  (     0          0          1      )

 cart.    s( 6) = (  0.5000000 -0.8660254  0.0000000 )
                  ( -0.8660254 -0.5000000  0.0000000 )
                  (  0.0000000  0.0000000  1.0000000 )

   Cartesian axes

     site n.     atom                  positions (alat units)
         1           Zn  tau(   1) = (   0.5000000   0.2886751   0.8082020  )
         2           Zn  tau(   2) = (  -0.0000000   0.5773503   0.0010228  )
         3           O   tau(   3) = (   0.5000000   0.2886751   1.4201130  )
         4           O   tau(   4) = (  -0.0000000   0.5773503   0.6129338  )
         5           Zn  tau(   5) = (   0.5000000   0.2886751   2.4225604  )
         6           Zn  tau(   6) = (  -0.0000000   0.5773503   1.6153812  )
         7           O   tau(   7) = (   0.5000000   0.2886751   3.0344713  )
         8           O   tau(   8) = (  -0.0000000   0.5773503   2.2272921  )
         9           Zn  tau(   9) = (   0.5000000   0.2886751   4.0369187  )
        10           Zn  tau(  10) = (  -0.0000000   0.5773503   3.2297395  )
        11           O   tau(  11) = (   0.5000000   0.2886751   4.6488297  )
        12           O   tau(  12) = (  -0.0000000   0.5773503   3.8416505  )

   Crystallographic axes

     site n.     atom                  positions (cryst. coord.)
         1           Zn  tau(   1) = (  0.6666667  0.3333333  0.1668779  )
         2           Zn  tau(   2) = (  0.3333333  0.6666667  0.0002112  )
         3           O   tau(   3) = (  0.6666667  0.3333333  0.2932255  )
         4           O   tau(   4) = (  0.3333333  0.6666667  0.1265588  )
         5           Zn  tau(   5) = (  0.6666667  0.3333333  0.5002112  )
         6           Zn  tau(   6) = (  0.3333333  0.6666667  0.3335445  )
         7           O   tau(   7) = (  0.6666667  0.3333333  0.6265588  )
         8           O   tau(   8) = (  0.3333333  0.6666667  0.4598921  )
         9           Zn  tau(   9) = (  0.6666667  0.3333333  0.8335445  )
        10           Zn  tau(  10) = (  0.3333333  0.6666667  0.6668779  )
        11           O   tau(  11) = (  0.6666667  0.3333333  0.9598921  )
        12           O   tau(  12) = (  0.3333333  0.6666667  0.7932255  )

     number of k points=    34
                       cart. coord. in units 2pi/alat
        k(    1) = (   0.0000000   0.0000000   0.0000000), wk =   0.0092593
        k(    2) = (   0.0000000   0.0000000   0.0344134), wk =   0.0185185
        k(    3) = (   0.0000000   0.0000000   0.0688268), wk =   0.0185185
        k(    4) = (   0.0000000   0.0000000  -0.1032402), wk =   0.0092593
        k(    5) = (   0.0000000   0.1924501   0.0000000), wk =   0.0555556
        k(    6) = (   0.0000000   0.1924501   0.0344134), wk =   0.0555556
        k(    7) = (   0.0000000   0.1924501   0.0688268), wk =   0.0555556
        k(    8) = (   0.0000000   0.1924501  -0.1032402), wk =   0.0555556
        k(    9) = (   0.0000000   0.3849002   0.0000000), wk =   0.0555556
        k(   10) = (   0.0000000   0.3849002   0.0344134), wk =   0.0555556
        k(   11) = (   0.0000000   0.3849002   0.0688268), wk =   0.0555556
        k(   12) = (   0.0000000   0.3849002  -0.1032402), wk =   0.0555556
        k(   13) = (   0.0000000  -0.5773503   0.0000000), wk =   0.0277778
        k(   14) = (   0.0000000  -0.5773503   0.0344134), wk =   0.0555556
        k(   15) = (   0.0000000  -0.5773503   0.0688268), wk =   0.0555556
        k(   16) = (   0.0000000  -0.5773503  -0.1032402), wk =   0.0277778
        k(   17) = (   0.1666667   0.2886751   0.0000000), wk =   0.0555556
        k(   18) = (   0.1666667   0.2886751   0.0344134), wk =   0.1111111
        k(   19) = (   0.1666667   0.2886751   0.0688268), wk =   0.1111111
        k(   20) = (   0.1666667   0.2886751  -0.1032402), wk =   0.0555556
        k(   21) = (   0.1666667   0.4811252   0.0000000), wk =   0.1111111
        k(   22) = (   0.1666667   0.4811252   0.0344134), wk =   0.1111111
        k(   23) = (   0.1666667   0.4811252   0.0688268), wk =   0.1111111
        k(   24) = (   0.1666667   0.4811252  -0.1032402), wk =   0.1111111
        k(   25) = (   0.3333333   0.5773503   0.0000000), wk =   0.0185185
        k(   26) = (   0.3333333   0.5773503   0.0344134), wk =   0.0370370
        k(   27) = (   0.3333333   0.5773503   0.0688268), wk =   0.0370370
        k(   28) = (   0.3333333   0.5773503  -0.1032402), wk =   0.0185185
        k(   29) = (   0.0000000  -0.1924501   0.0344134), wk =   0.0555556
        k(   30) = (   0.0000000  -0.1924501   0.0688268), wk =   0.0555556
        k(   31) = (   0.0000000  -0.3849002   0.0344134), wk =   0.0555556
        k(   32) = (   0.0000000  -0.3849002   0.0688268), wk =   0.0555556
        k(   33) = (  -0.1666667  -0.4811252   0.0344134), wk =   0.1111111
        k(   34) = (  -0.1666667  -0.4811252   0.0688268), wk =   0.1111111

                       cryst. coord.
        k(    1) = (   0.0000000   0.0000000   0.0000000), wk =   0.0092593
        k(    2) = (   0.0000000   0.0000000   0.1666667), wk =   0.0185185
        k(    3) = (   0.0000000   0.0000000   0.3333333), wk =   0.0185185
        k(    4) = (   0.0000000   0.0000000  -0.5000000), wk =   0.0092593
        k(    5) = (   0.0000000   0.1666667   0.0000000), wk =   0.0555556
        k(    6) = (   0.0000000   0.1666667   0.1666667), wk =   0.0555556
        k(    7) = (   0.0000000   0.1666667   0.3333333), wk =   0.0555556
        k(    8) = (   0.0000000   0.1666667  -0.5000000), wk =   0.0555556
        k(    9) = (   0.0000000   0.3333333   0.0000000), wk =   0.0555556
        k(   10) = (   0.0000000   0.3333333   0.1666667), wk =   0.0555556
        k(   11) = (   0.0000000   0.3333333   0.3333333), wk =   0.0555556
        k(   12) = (   0.0000000   0.3333333  -0.5000000), wk =   0.0555556
        k(   13) = (   0.0000000  -0.5000000   0.0000000), wk =   0.0277778
        k(   14) = (   0.0000000  -0.5000000   0.1666667), wk =   0.0555556
        k(   15) = (   0.0000000  -0.5000000   0.3333333), wk =   0.0555556
        k(   16) = (   0.0000000  -0.5000000  -0.5000000), wk =   0.0277778
        k(   17) = (   0.1666667   0.1666667   0.0000000), wk =   0.0555556
        k(   18) = (   0.1666667   0.1666667   0.1666667), wk =   0.1111111
        k(   19) = (   0.1666667   0.1666667   0.3333333), wk =   0.1111111
        k(   20) = (   0.1666667   0.1666667  -0.5000000), wk =   0.0555556
        k(   21) = (   0.1666667   0.3333333   0.0000000), wk =   0.1111111
        k(   22) = (   0.1666667   0.3333333   0.1666667), wk =   0.1111111
        k(   23) = (   0.1666667   0.3333333   0.3333333), wk =   0.1111111
        k(   24) = (   0.1666667   0.3333333  -0.5000000), wk =   0.1111111
        k(   25) = (   0.3333333   0.3333333   0.0000000), wk =   0.0185185
        k(   26) = (   0.3333333   0.3333333   0.1666667), wk =   0.0370370
        k(   27) = (   0.3333333   0.3333333   0.3333333), wk =   0.0370370
        k(   28) = (   0.3333333   0.3333333  -0.5000000), wk =   0.0185185
        k(   29) = (   0.0000000  -0.1666667   0.1666667), wk =   0.0555556
        k(   30) = (   0.0000000  -0.1666667   0.3333333), wk =   0.0555556
        k(   31) = (   0.0000000  -0.3333333   0.1666667), wk =   0.0555556
        k(   32) = (   0.0000000  -0.3333333   0.3333333), wk =   0.0555556
        k(   33) = (  -0.1666667  -0.3333333   0.1666667), wk =   0.1111111
        k(   34) = (  -0.1666667  -0.3333333   0.3333333), wk =   0.1111111

     Check: negative core charge=   -0.000002

     Initial potential from superposition of free atoms

     starting charge     107.9776, renormalised to     108.0000
     Starting wfcs are   78 randomized atomic wfcs

     Self-consistent Calculation

     iteration #  1     ecut=    50.00 Ry     beta= 0.30
     Davidson diagonalization with overlap

     ethr =  1.00E-02,  avg # of iterations =  1.3

     total energy              =   -1084.02658800 Ry
     estimated scf accuracy    <       2.54687020 Ry

[...]

     c_bands:  1 eigenvalues not converged
     c_bands:  1 eigenvalues not converged
     ethr =  1.21E-07,  avg # of iterations = 11.9

[...]

     c_bands:  1 eigenvalues not converged
     ethr =  2.69E-11,  avg # of iterations = 15.0

[...]

     total energy              =   -1084.64296942 Ry
     estimated scf accuracy    <       0.00000038 Ry

     iteration # 37     ecut=    50.00 Ry     beta= 0.30
     Davidson diagonalization with overlap

     ethr =  2.58E-11,  avg # of iterations =  9.1

     End of self-consistent calculation

          k = 0.0000 0.0000 0.0000 (  7917 PWs)   bands (ev):

   -12.7770 -12.6918 -12.6918 -12.5182 -12.5182 -12.4297  -1.4480  -1.4480
    -1.4450  -1.4450  -1.4361  -1.4321  -1.4321  -1.4321  -1.4321  -1.3830
    -1.3830  -1.3830  -1.3830  -1.3491  -1.3491  -1.2753  -1.2753  -0.9823
    -0.9823  -0.9507  -0.9507  -0.9507  -0.9507  -0.9013  -0.9013  -0.9013
    -0.9013  -0.8856  -0.8839  -0.8839  -0.1116   0.7274   0.7274   2.0226
     2.0226   2.8817   2.8817   3.0047   3.0047   3.0047   3.0047   3.2466
     3.2466   3.2466   3.2466   3.3466   3.3654   3.3654

     occupation numbers
     1.0000   1.0000   1.0000   1.0000   1.0000   1.0000   1.0000   1.0000
     1.0000   1.0000   1.0000   1.0000   1.0000   1.0000   1.0000   1.0000
     1.0000   1.0000   1.0000   1.0000   1.0000   1.0000   1.0000   1.0000
     1.0000   1.0000   1.0000   1.0000   1.0000   1.0000   1.0000   1.0000
     1.0000   1.0000   1.0000   1.0000   1.0000   1.0000   1.0000   1.0000
     1.0000   1.0000   1.0000   1.0000   1.0000   1.0000   1.0000   1.0000
     1.0000   1.0000   1.0000   1.0000   1.0000   1.0000

[...]

          k = 0.0000-0.3849 0.0688 (  7866 PWs)   bands (ev):

[...]

          k =-0.1667-0.4811 0.0344 (  7852 PWs)   bands (ev):

[...]

          k =-0.1667-0.4811 0.0688 (  7854 PWs)   bands (ev):

   -12.4442 -12.4338 -12.3992 -12.3798 -12.3481 -12.3392  -1.4125  -1.4072
    -1.3951  -1.3693  -1.3186  -1.3141  -1.2396  -1.2392  -1.1960  -1.1930
    -1.1341  -1.1270  -1.1251  -1.1191  -1.0889  -1.0727  -1.0667  -1.0451
    -0.9671  -0.9539  -0.9254  -0.9174  -0.9136  -0.9092  -0.8484  -0.8457
    -0.8217  -0.8018  -0.7636  -0.7516   0.3697   0.3975   0.4140   0.4877
     0.6796   0.7523   1.5214   1.6410   1.7989   1.9700   1.9830   2.1510
     2.4766   2.4991   2.5550   2.6377   2.6657   2.6957

     occupation numbers
     1.0000   1.0000   1.0000   1.0000   1.0000   1.0000   1.0000   1.0000
     1.0000   1.0000   1.0000   1.0000   1.0000   1.0000   1.0000   1.0000
     1.0000   1.0000   1.0000   1.0000   1.0000   1.0000   1.0000   1.0000
     1.0000   1.0000   1.0000   1.0000   1.0000   1.0000   1.0000   1.0000
     1.0000   1.0000   1.0000   1.0000   1.0000   1.0000   1.0000   1.0000
     1.0000   1.0000   1.0000   1.0000   1.0000   1.0000   1.0000   1.0000
     1.0000   1.0000   1.0000   1.0000   1.0000   1.0000

     highest occupied level (ev):     3.3654

!    total energy              =   -1084.64296947 Ry
     estimated scf accuracy    <          6.8E-09 Ry

     The total energy is the sum of the following terms:
     one-electron contribution =    -558.33154135 Ry
     hartree contribution      =     389.51863320 Ry
     xc contribution           =    -327.13839806 Ry
     ewald contribution        =    -588.69166326 Ry

     convergence has been achieved in  37 iterations

     Forces acting on atoms (cartesian axes, Ry/au):

     atom    1 type  1   force =     0.00000000    0.00000000   -0.00013252
     atom    2 type  1   force =     0.00000000    0.00000000   -0.00009957
     atom    3 type  2   force =     0.00000000    0.00000000    0.00009639
     atom    4 type  2   force =     0.00000000    0.00000000    0.00009679
     atom    5 type  1   force =     0.00000000    0.00000000   -0.00009774
     atom    6 type  1   force =     0.00000000    0.00000000   -0.00009997
     atom    7 type  2   force =     0.00000000   -0.00000000    0.00009484
     atom    8 type  2   force =     0.00000000   -0.00000000    0.00009577
     atom    9 type  1   force =     0.00000000    0.00000000   -0.00010357
     atom   10 type  1   force =     0.00000000    0.00000000   -0.00004288
     atom   11 type  2   force =     0.00000000   -0.00000000    0.00009755
     atom   12 type  2   force =     0.00000000   -0.00000000    0.00009491
     The non-local contrib.  to forces
     atom    1 type  1   force =     0.00000000    0.00000000   -0.00456185
     atom    2 type  1   force =     0.00000000    0.00000000   -0.00454411
     atom    3 type  2   force =     0.00000000   -0.00000000    0.00673615
     atom    4 type  2   force =     0.00000000    0.00000000    0.00674272
     atom    5 type  1   force =     0.00000000   -0.00000000   -0.00453618
     atom    6 type  1   force =     0.00000000    0.00000000   -0.00454344
     atom    7 type  2   force =     0.00000000   -0.00000000    0.00670869
     atom    8 type  2   force =     0.00000000    0.00000000    0.00672561
     atom    9 type  1   force =     0.00000000   -0.00000000   -0.00453750
     atom   10 type  1   force =     0.00000000    0.00000000   -0.00450398
     atom   11 type  2   force =     0.00000000   -0.00000000    0.00673647
     atom   12 type  2   force =     0.00000000   -0.00000000    0.00671751
     The ionic contribution  to forces
     atom    1 type  1   force =    -0.00000000    0.00000000    0.05183207
     atom    2 type  1   force =     0.00000000   -0.00000000    0.05183210
     atom    3 type  2   force =    -0.00000000    0.00000000   -0.05183208
     atom    4 type  2   force =     0.00000000   -0.00000000   -0.05183209
     atom    5 type  1   force =    -0.00000000    0.00000000    0.05183210
     atom    6 type  1   force =     0.00000000   -0.00000000    0.05183207
     atom    7 type  2   force =    -0.00000000    0.00000000   -0.05183209
     atom    8 type  2   force =     0.00000000   -0.00000000   -0.05183207
     atom    9 type  1   force =    -0.00000000    0.00000000    0.05183207
     atom   10 type  1   force =     0.00000000   -0.00000000    0.05183207
     atom   11 type  2   force =    -0.00000000    0.00000000   -0.05183207
     atom   12 type  2   force =     0.00000000   -0.00000000   -0.05183208
     The local contribution  to forces
     atom    1 type  1   force =    -0.00000005    0.00000003   -0.04757111
     atom    2 type  1   force =     0.00000005   -0.00000003   -0.04761944
     atom    3 type  2   force =    -0.00000001    0.00000001    0.04527828
     atom    4 type  2   force =     0.00000001   -0.00000001    0.04529761
     atom    5 type  1   force =    -0.00000005    0.00000003   -0.04763579
     atom    6 type  1   force =     0.00000005   -0.00000003   -0.04762167
     atom    7 type  2   force =    -0.00000001    0.00000001    0.04525858
     atom    8 type  2   force =     0.00000001   -0.00000001    0.04527811
     atom    9 type  1   force =    -0.00000005    0.00000003   -0.04762411
     atom   10 type  1   force =     0.00000005   -0.00000003   -0.04772219
     atom   11 type  2   force =    -0.00000001    0.00000001    0.04527413
     atom   12 type  2   force =     0.00000001   -0.00000001    0.04528426
     The core correction contribution to forces
     atom    1 type  1   force =    -0.00000001    0.00000000    0.00023812
     atom    2 type  1   force =     0.00000001   -0.00000000    0.00023844
     atom    3 type  2   force =     0.00000000   -0.00000000   -0.00007539
     atom    4 type  2   force =    -0.00000000    0.00000000   -0.00007545
     atom    5 type  1   force =    -0.00000001    0.00000000    0.00023883
     atom    6 type  1   force =     0.00000001   -0.00000000    0.00023868
     atom    7 type  2   force =     0.00000000   -0.00000000   -0.00007501
     atom    8 type  2   force =    -0.00000000    0.00000000   -0.00007523
     atom    9 type  1   force =    -0.00000001    0.00000000    0.00023817
     atom   10 type  1   force =     0.00000001   -0.00000000    0.00023966
     atom   11 type  2   force =     0.00000000   -0.00000000   -0.00007541
     atom   12 type  2   force =    -0.00000000    0.00000000   -0.00007510
     The Hubbard contrib.    to forces
     atom    1 type  1   force =     0.00000000    0.00000000    0.00000000
     atom    2 type  1   force =     0.00000000    0.00000000    0.00000000
     atom    3 type  2   force =     0.00000000    0.00000000    0.00000000
     atom    4 type  2   force =     0.00000000    0.00000000    0.00000000
     atom    5 type  1   force =     0.00000000    0.00000000    0.00000000
     atom    6 type  1   force =     0.00000000    0.00000000    0.00000000
     atom    7 type  2   force =     0.00000000    0.00000000    0.00000000
     atom    8 type  2   force =     0.00000000    0.00000000    0.00000000
     atom    9 type  1   force =     0.00000000    0.00000000    0.00000000
     atom   10 type  1   force =     0.00000000    0.00000000    0.00000000
     atom   11 type  2   force =     0.00000000    0.00000000    0.00000000
     atom   12 type  2   force =     0.00000000    0.00000000    0.00000000
     The SCF correction term to forces
     atom    1 type  1   force =    -0.00000000    0.00000000   -0.00006817
     atom    2 type  1   force =     0.00000000   -0.00000000   -0.00000499
     atom    3 type  2   force =    -0.00000000    0.00000000   -0.00000899
     atom    4 type  2   force =     0.00000000   -0.00000000   -0.00003444
     atom    5 type  1   force =    -0.00000000    0.00000000    0.00000487
     atom    6 type  1   force =     0.00000000   -0.00000000   -0.00000404
     atom    7 type  2   force =    -0.00000000    0.00000000    0.00003625
     atom    8 type  2   force =     0.00000000   -0.00000000    0.00000092
     atom    9 type  1   force =    -0.00000000    0.00000000   -0.00001062
     atom   10 type  1   force =     0.00000000   -0.00000000    0.00011312
     atom   11 type  2   force =    -0.00000000    0.00000000   -0.00000400
     atom   12 type  2   force =     0.00000000   -0.00000000    0.00000190

     Total force =     0.000339     Total SCF correction =     0.000142
     SCF correction compared to forces is large: reduce conv_thr to get better values

     General routines

     Parallel routines

   This run was terminated on:  22:15:25  27Aug2025

   JOB DONE.