     Program PWSCF v.7.0 starts on 27Aug2025 at 21:43: 4

     K-points division:     npool     =      17

     Reading input from /home/jvc/QEspresso7.2/ZnO_database/scripts/cell113.in/ZnO-3.60-1.52-113.in
Warning: card &CELL ignored
Warning: card / ignored
Warning: card &FCP ignored
Warning: card / ignored
Warning: card &RISM ignored
Warning: card / ignored

     Current dimensions of program PWSCF are:
     Max number of different atomic species (ntypx) = 10
     Max number of k-points (npk) =  40000
     Max angular momentum in pseudopotentials (lmaxx) =  4
     file Zn.upf: wavefunction(s)  3D renormalized
     Found identity + (  0.0000  0.0000  0.3333) symmetry
     This is a supercell, fractional translations are disabled
     Message from routine setup:
     using ibrav=0 with symmetry is DISCOURAGED, use correct ibrav instead

     Subspace diagonalization in iterative solution of the eigenvalue problem:
     a serial algorithm will be used

     Using Slab Decomposition

     bravais-lattice index     =            0
     lattice parameter (alat)  =       6.7967  a.u.
     unit-cell volume          =    1237.8885 (a.u.)^3
     number of atoms/cell      =           12
     number of atomic types    =            2
     number of electrons       =       108.00
     number of Kohn-Sham states=           54
     kinetic-energy cutoff     =      50.0000  Ry
     charge density cutoff     =     400.0000  Ry
     scf convergence threshold =      1.0E-08
     mixing beta               =       0.3000
     number of iterations used =            8  plain     mixing
     Exchange-correlation= PBE
                           (   1   4   3   4   0   0   0)

     celldm(1)=   6.796739  celldm(2)=   0.000000  celldm(3)=   0.000000
     celldm(4)=   0.000000  celldm(5)=   0.000000  celldm(6)=   0.000000

     crystal axes: (cart. coord. in units of alat)
               a(1) = (   1.000000   0.000000   0.000000 )
               a(2) = (  -0.500000   0.866025   0.000000 )
               a(3) = (   0.000000   0.000000   4.552491 )

     reciprocal axes: (cart. coord. in units 2 pi/alat)
               b(1) = (  1.000000  0.577350 -0.000000 )
               b(2) = (  0.000000  1.154701  0.000000 )
               b(3) = (  0.000000 -0.000000  0.219660 )

     PseudoPot. # 1 for Zn read from file:
     /home/jvc/QEspresso7.2/ZnO_database/pseudos/Zn.upf
     MD5 check sum: 7f56cabf9682ed8c977c2f7d0c5985c5
     Pseudo is Ultrasoft + core correction, Zval = 12.0
     Generated using &quot;atomic&quot; code by A. Dal Corso  v.6.2.2
     Using radial grid of 1201 points,  6 beta functions with:
                l(1) =   0
                l(2) =   0
                l(3) =   1
                l(4) =   1
                l(5) =   2
                l(6) =   2
     Q(r) pseudized with 0 coefficients

     PseudoPot. # 2 for O  read from file:
     /home/jvc/QEspresso7.2/ZnO_database/pseudos/O.upf
     MD5 check sum: 91400c9766925bcf19f520983a725ff0
     Pseudo is Ultrasoft + core correction, Zval =  6.0
     Generated using &quot;atomic&quot; code by A. Dal Corso  v.6.3MaX
     Using radial grid of 1095 points,  4 beta functions with:
                l(1) =   0
                l(2) =   0
                l(3) =   1
                l(4) =   1
     Q(r) pseudized with 0 coefficients

     atomic species   valence    mass     pseudopotential
        Zn            12.00    65.38000     Zn( 1.00)
        O              6.00    15.99900     O ( 1.00)

      6 Sym. Ops. (no inversion) found

                                    s                        frac. trans.

      isym =  1     identity

 cryst.   s( 1) = (     1          0          0      )
                  (     0          1          0      )
                  (     0          0          1      )

 cart.    s( 1) = (  1.0000000  0.0000000  0.0000000 )
                  (  0.0000000  1.0000000  0.0000000 )
                  (  0.0000000  0.0000000  1.0000000 )

      isym =  2     120 deg rotation - cryst. axis [0,0,1]

[...]

      isym =  3     120 deg rotation - cryst. axis [0,0,-1]

[...]

      isym =  4     inv. 180 deg rotation - cart. axis [1,0,0]

[...]

      isym =  5     inv. 180 deg rotation - cryst. axis [0,1,0]

[...]

      isym =  6     inv. 180 deg rotation - cryst. axis [1,1,0]

 cryst.   s( 6) = (     0         -1          0      )
                  (    -1          0          0      )
                  (     0          0          1      )

 cart.    s( 6) = (  0.5000000 -0.8660254  0.0000000 )
                  ( -0.8660254 -0.5000000  0.0000000 )
                  (  0.0000000  0.0000000  1.0000000 )

   Cartesian axes

     site n.     atom                  positions (alat units)
         1           Zn  tau(   1) = (   0.5000000   0.2886751   0.7597099  )
         2           Zn  tau(   2) = (  -0.0000000   0.5773503   0.0009615  )
         3           O   tau(   3) = (   0.5000000   0.2886751   1.3349062  )
         4           O   tau(   4) = (  -0.0000000   0.5773503   0.5761578  )
         5           Zn  tau(   5) = (   0.5000000   0.2886751   2.2772067  )
         6           Zn  tau(   6) = (  -0.0000000   0.5773503   1.5184583  )
         7           O   tau(   7) = (   0.5000000   0.2886751   2.8524030  )
         8           O   tau(   8) = (  -0.0000000   0.5773503   2.0936546  )
         9           Zn  tau(   9) = (   0.5000000   0.2886751   3.7947036  )
        10           Zn  tau(  10) = (  -0.0000000   0.5773503   3.0359552  )
        11           O   tau(  11) = (   0.5000000   0.2886751   4.3698999  )
        12           O   tau(  12) = (  -0.0000000   0.5773503   3.6111515  )

   Crystallographic axes

     site n.     atom                  positions (cryst. coord.)
         1           Zn  tau(   1) = (  0.6666667  0.3333333  0.1668779  )
         2           Zn  tau(   2) = (  0.3333333  0.6666667  0.0002112  )
         3           O   tau(   3) = (  0.6666667  0.3333333  0.2932255  )
         4           O   tau(   4) = (  0.3333333  0.6666667  0.1265588  )
         5           Zn  tau(   5) = (  0.6666667  0.3333333  0.5002112  )
         6           Zn  tau(   6) = (  0.3333333  0.6666667  0.3335445  )
         7           O   tau(   7) = (  0.6666667  0.3333333  0.6265588  )
         8           O   tau(   8) = (  0.3333333  0.6666667  0.4598921  )
         9           Zn  tau(   9) = (  0.6666667  0.3333333  0.8335445  )
        10           Zn  tau(  10) = (  0.3333333  0.6666667  0.6668779  )
        11           O   tau(  11) = (  0.6666667  0.3333333  0.9598921  )
        12           O   tau(  12) = (  0.3333333  0.6666667  0.7932255  )

     number of k points=    34
                       cart. coord. in units 2pi/alat
        k(    1) = (   0.0000000   0.0000000   0.0000000), wk =   0.0092593
        k(    2) = (   0.0000000   0.0000000   0.0366100), wk =   0.0185185
        k(    3) = (   0.0000000   0.0000000   0.0732200), wk =   0.0185185
        k(    4) = (   0.0000000   0.0000000  -0.1098300), wk =   0.0092593
        k(    5) = (   0.0000000   0.1924501   0.0000000), wk =   0.0555556
        k(    6) = (   0.0000000   0.1924501   0.0366100), wk =   0.0555556
        k(    7) = (   0.0000000   0.1924501   0.0732200), wk =   0.0555556
        k(    8) = (   0.0000000   0.1924501  -0.1098300), wk =   0.0555556
        k(    9) = (   0.0000000   0.3849002   0.0000000), wk =   0.0555556
        k(   10) = (   0.0000000   0.3849002   0.0366100), wk =   0.0555556
        k(   11) = (   0.0000000   0.3849002   0.0732200), wk =   0.0555556
        k(   12) = (   0.0000000   0.3849002  -0.1098300), wk =   0.0555556
        k(   13) = (   0.0000000  -0.5773503   0.0000000), wk =   0.0277778
        k(   14) = (   0.0000000  -0.5773503   0.0366100), wk =   0.0555556
        k(   15) = (   0.0000000  -0.5773503   0.0732200), wk =   0.0555556
        k(   16) = (   0.0000000  -0.5773503  -0.1098300), wk =   0.0277778
        k(   17) = (   0.1666667   0.2886751   0.0000000), wk =   0.0555556
        k(   18) = (   0.1666667   0.2886751   0.0366100), wk =   0.1111111
        k(   19) = (   0.1666667   0.2886751   0.0732200), wk =   0.1111111
        k(   20) = (   0.1666667   0.2886751  -0.1098300), wk =   0.0555556
        k(   21) = (   0.1666667   0.4811252   0.0000000), wk =   0.1111111
        k(   22) = (   0.1666667   0.4811252   0.0366100), wk =   0.1111111
        k(   23) = (   0.1666667   0.4811252   0.0732200), wk =   0.1111111
        k(   24) = (   0.1666667   0.4811252  -0.1098300), wk =   0.1111111
        k(   25) = (   0.3333333   0.5773503   0.0000000), wk =   0.0185185
        k(   26) = (   0.3333333   0.5773503   0.0366100), wk =   0.0370370
        k(   27) = (   0.3333333   0.5773503   0.0732200), wk =   0.0370370
        k(   28) = (   0.3333333   0.5773503  -0.1098300), wk =   0.0185185
        k(   29) = (   0.0000000  -0.1924501   0.0366100), wk =   0.0555556
        k(   30) = (   0.0000000  -0.1924501   0.0732200), wk =   0.0555556
        k(   31) = (   0.0000000  -0.3849002   0.0366100), wk =   0.0555556
        k(   32) = (   0.0000000  -0.3849002   0.0732200), wk =   0.0555556
        k(   33) = (  -0.1666667  -0.4811252   0.0366100), wk =   0.1111111
        k(   34) = (  -0.1666667  -0.4811252   0.0732200), wk =   0.1111111

                       cryst. coord.
        k(    1) = (   0.0000000   0.0000000   0.0000000), wk =   0.0092593
        k(    2) = (   0.0000000   0.0000000   0.1666667), wk =   0.0185185
        k(    3) = (   0.0000000   0.0000000   0.3333333), wk =   0.0185185
        k(    4) = (   0.0000000   0.0000000  -0.5000000), wk =   0.0092593
        k(    5) = (   0.0000000   0.1666667   0.0000000), wk =   0.0555556
        k(    6) = (   0.0000000   0.1666667   0.1666667), wk =   0.0555556
        k(    7) = (   0.0000000   0.1666667   0.3333333), wk =   0.0555556
        k(    8) = (   0.0000000   0.1666667  -0.5000000), wk =   0.0555556
        k(    9) = (   0.0000000   0.3333333   0.0000000), wk =   0.0555556
        k(   10) = (   0.0000000   0.3333333   0.1666667), wk =   0.0555556
        k(   11) = (   0.0000000   0.3333333   0.3333333), wk =   0.0555556
        k(   12) = (   0.0000000   0.3333333  -0.5000000), wk =   0.0555556
        k(   13) = (   0.0000000  -0.5000000   0.0000000), wk =   0.0277778
        k(   14) = (   0.0000000  -0.5000000   0.1666667), wk =   0.0555556
        k(   15) = (   0.0000000  -0.5000000   0.3333333), wk =   0.0555556
        k(   16) = (   0.0000000  -0.5000000  -0.5000000), wk =   0.0277778
        k(   17) = (   0.1666667   0.1666667   0.0000000), wk =   0.0555556
        k(   18) = (   0.1666667   0.1666667   0.1666667), wk =   0.1111111
        k(   19) = (   0.1666667   0.1666667   0.3333333), wk =   0.1111111
        k(   20) = (   0.1666667   0.1666667  -0.5000000), wk =   0.0555556
        k(   21) = (   0.1666667   0.3333333   0.0000000), wk =   0.1111111
        k(   22) = (   0.1666667   0.3333333   0.1666667), wk =   0.1111111
        k(   23) = (   0.1666667   0.3333333   0.3333333), wk =   0.1111111
        k(   24) = (   0.1666667   0.3333333  -0.5000000), wk =   0.1111111
        k(   25) = (   0.3333333   0.3333333   0.0000000), wk =   0.0185185
        k(   26) = (   0.3333333   0.3333333   0.1666667), wk =   0.0370370
        k(   27) = (   0.3333333   0.3333333   0.3333333), wk =   0.0370370
        k(   28) = (   0.3333333   0.3333333  -0.5000000), wk =   0.0185185
        k(   29) = (   0.0000000  -0.1666667   0.1666667), wk =   0.0555556
        k(   30) = (   0.0000000  -0.1666667   0.3333333), wk =   0.0555556
        k(   31) = (   0.0000000  -0.3333333   0.1666667), wk =   0.0555556
        k(   32) = (   0.0000000  -0.3333333   0.3333333), wk =   0.0555556
        k(   33) = (  -0.1666667  -0.3333333   0.1666667), wk =   0.1111111
        k(   34) = (  -0.1666667  -0.3333333   0.3333333), wk =   0.1111111

     Check: negative core charge=   -0.000002

     Initial potential from superposition of free atoms

     starting charge     107.9776, renormalised to     108.0000
     Starting wfcs are   78 randomized atomic wfcs

     Self-consistent Calculation

     iteration #  1     ecut=    50.00 Ry     beta= 0.30
     Davidson diagonalization with overlap

     ethr =  1.00E-02,  avg # of iterations =  1.4

     total energy              =   -1084.14977879 Ry
     estimated scf accuracy    <       2.42422231 Ry

[...]

     total energy              =   -1084.73165134 Ry
     estimated scf accuracy    <       0.00000049 Ry

     iteration # 52     ecut=    50.00 Ry     beta= 0.30
     Davidson diagonalization with overlap

     ethr =  9.63E-11,  avg # of iterations =  6.6

     End of self-consistent calculation

          k = 0.0000 0.0000 0.0000 (  7407 PWs)   bands (ev):

   -12.4282 -12.3133 -12.3133 -12.0798 -12.0797 -11.9614  -0.9198  -0.9198
    -0.8635  -0.8517  -0.8517  -0.8353  -0.8353  -0.8353  -0.8353  -0.7672
    -0.7672  -0.7672  -0.7672  -0.7623  -0.7623  -0.7134  -0.7134  -0.3150
    -0.3150  -0.2658  -0.2658  -0.2658  -0.2658  -0.1945  -0.1945  -0.1945
    -0.1945  -0.1744  -0.1744  -0.1344   0.2346   1.3524   1.3524   2.7076
     2.7076   3.3357   3.3357   3.5051   3.5051   3.5052   3.5052   3.8326
     3.8326   3.8327   3.8327   3.9904   3.9904   4.0250

     occupation numbers
     1.0000   1.0000   1.0000   1.0000   1.0000   1.0000   1.0000   1.0000
     1.0000   1.0000   1.0000   1.0000   1.0000   1.0000   1.0000   1.0000
     1.0000   1.0000   1.0000   1.0000   1.0000   1.0000   1.0000   1.0000
     1.0000   1.0000   1.0000   1.0000   1.0000   1.0000   1.0000   1.0000
     1.0000   1.0000   1.0000   1.0000   1.0000   1.0000   1.0000   1.0000
     1.0000   1.0000   1.0000   1.0000   1.0000   1.0000   1.0000   1.0000
     1.0000   1.0000   1.0000   1.0000   1.0000   1.0000

[...]

          k = 0.0000-0.3849 0.0732 (  7390 PWs)   bands (ev):

[...]

          k =-0.1667-0.4811 0.0366 (  7384 PWs)   bands (ev):

[...]

          k =-0.1667-0.4811 0.0732 (  7381 PWs)   bands (ev):

   -12.0556 -12.0408 -11.9925 -11.9661 -11.9245 -11.9132  -0.8897  -0.8613
    -0.8603  -0.8497  -0.7516  -0.7443  -0.6616  -0.6361  -0.5972  -0.5774
    -0.5412  -0.5304  -0.5279  -0.5229  -0.4609  -0.4174  -0.4148  -0.3671
    -0.2876  -0.2708  -0.2423  -0.2327  -0.2273  -0.2239  -0.1449  -0.1440
    -0.1150  -0.0928  -0.0530  -0.0415   0.8545   0.8752   0.9371   1.0270
     1.2458   1.3222   1.9425   2.0633   2.2633   2.4700   2.5262   2.7024
     3.1065   3.1652   3.1726   3.2521   3.3244   3.3535

     occupation numbers
     1.0000   1.0000   1.0000   1.0000   1.0000   1.0000   1.0000   1.0000
     1.0000   1.0000   1.0000   1.0000   1.0000   1.0000   1.0000   1.0000
     1.0000   1.0000   1.0000   1.0000   1.0000   1.0000   1.0000   1.0000
     1.0000   1.0000   1.0000   1.0000   1.0000   1.0000   1.0000   1.0000
     1.0000   1.0000   1.0000   1.0000   1.0000   1.0000   1.0000   1.0000
     1.0000   1.0000   1.0000   1.0000   1.0000   1.0000   1.0000   1.0000
     1.0000   1.0000   1.0000   1.0000   1.0000   1.0000

     highest occupied level (ev):     4.0250

!    total energy              =   -1084.73165145 Ry
     estimated scf accuracy    <          9.9E-09 Ry

     The total energy is the sum of the following terms:
     one-electron contribution =    -540.12454367 Ry
     hartree contribution      =     382.93225837 Ry
     xc contribution           =    -327.43814753 Ry
     ewald contribution        =    -600.10121862 Ry

     convergence has been achieved in  52 iterations

     Forces acting on atoms (cartesian axes, Ry/au):

     atom    1 type  1   force =     0.00000000   -0.00000000   -0.00147902
     atom    2 type  1   force =     0.00000000    0.00000000   -0.00148262
     atom    3 type  2   force =     0.00000000    0.00000000    0.00148491
     atom    4 type  2   force =     0.00000000   -0.00000000    0.00148689
     atom    5 type  1   force =     0.00000000    0.00000000   -0.00147407
     atom    6 type  1   force =     0.00000000   -0.00000000   -0.00148531
     atom    7 type  2   force =     0.00000000   -0.00000000    0.00149064
     atom    8 type  2   force =     0.00000000   -0.00000000    0.00148950
     atom    9 type  1   force =     0.00000000    0.00000000   -0.00151348
     atom   10 type  1   force =     0.00000000   -0.00000000   -0.00148777
     atom   11 type  2   force =     0.00000000   -0.00000000    0.00148641
     atom   12 type  2   force =     0.00000000   -0.00000000    0.00148392
     The non-local contrib.  to forces
     atom    1 type  1   force =     0.00000000    0.00000000   -0.16410289
     atom    2 type  1   force =    -0.00000000   -0.00000000   -0.16410719
     atom    3 type  2   force =     0.00000000    0.00000000   -0.14990733
     atom    4 type  2   force =     0.00000000   -0.00000000   -0.14990954
     atom    5 type  1   force =     0.00000000    0.00000000   -0.16411573
     atom    6 type  1   force =     0.00000000    0.00000000   -0.16411404
     atom    7 type  2   force =     0.00000000   -0.00000000   -0.14988330
     atom    8 type  2   force =     0.00000000    0.00000000   -0.14989240
     atom    9 type  1   force =     0.00000000    0.00000000   -0.16412794
     atom   10 type  1   force =     0.00000000    0.00000000   -0.16412175
     atom   11 type  2   force =     0.00000000   -0.00000000   -0.14990593
     atom   12 type  2   force =     0.00000000   -0.00000000   -0.14989764
     The ionic contribution  to forces
     atom    1 type  1   force =    -0.00000000    0.00000000   -1.04302411
     atom    2 type  1   force =     0.00000000   -0.00000000   -1.04302408
     atom    3 type  2   force =    -0.00000000    0.00000000    1.04302410
     atom    4 type  2   force =     0.00000000   -0.00000000    1.04302409
     atom    5 type  1   force =    -0.00000000    0.00000000   -1.04302408
     atom    6 type  1   force =     0.00000000   -0.00000000   -1.04302411
     atom    7 type  2   force =    -0.00000000    0.00000000    1.04302409
     atom    8 type  2   force =     0.00000000   -0.00000000    1.04302411
     atom    9 type  1   force =    -0.00000000    0.00000000   -1.04302411
     atom   10 type  1   force =     0.00000000   -0.00000000   -1.04302411
     atom   11 type  2   force =    -0.00000000    0.00000000    1.04302411
     atom   12 type  2   force =     0.00000000   -0.00000000    1.04302410
     The local contribution  to forces
     atom    1 type  1   force =    -0.00000005    0.00000003    1.19562281
     atom    2 type  1   force =     0.00000005   -0.00000003    1.19563447
     atom    3 type  2   force =    -0.00000001    0.00000001   -0.89294279
     atom    4 type  2   force =     0.00000001   -0.00000001   -0.89293793
     atom    5 type  1   force =    -0.00000005    0.00000003    1.19564191
     atom    6 type  1   force =     0.00000005   -0.00000003    1.19564134
     atom    7 type  2   force =    -0.00000001    0.00000001   -0.89295958
     atom    8 type  2   force =     0.00000001   -0.00000001   -0.89296103
     atom    9 type  1   force =    -0.00000005    0.00000003    1.19567618
     atom   10 type  1   force =     0.00000005   -0.00000003    1.19565843
     atom   11 type  2   force =    -0.00000001    0.00000001   -0.89292166
     atom   12 type  2   force =     0.00000001   -0.00000001   -0.89291455
     The core correction contribution to forces
     atom    1 type  1   force =    -0.00000001    0.00000000    0.01000412
     atom    2 type  1   force =     0.00000001   -0.00000000    0.01000660
     atom    3 type  2   force =     0.00000000   -0.00000000    0.00129791
     atom    4 type  2   force =    -0.00000000    0.00000000    0.00129923
     atom    5 type  1   force =    -0.00000001    0.00000000    0.01000643
     atom    6 type  1   force =     0.00000001   -0.00000000    0.01000505
     atom    7 type  2   force =     0.00000000   -0.00000000    0.00129879
     atom    8 type  2   force =    -0.00000000    0.00000000    0.00129661
     atom    9 type  1   force =    -0.00000001    0.00000000    0.01000510
     atom   10 type  1   force =     0.00000001   -0.00000000    0.01000372
     atom   11 type  2   force =     0.00000000   -0.00000000    0.00129691
     atom   12 type  2   force =    -0.00000000    0.00000000    0.00129783
     The Hubbard contrib.    to forces
     atom    1 type  1   force =     0.00000000    0.00000000    0.00000000
     atom    2 type  1   force =     0.00000000    0.00000000    0.00000000
     atom    3 type  2   force =     0.00000000    0.00000000    0.00000000
     atom    4 type  2   force =     0.00000000    0.00000000    0.00000000
     atom    5 type  1   force =     0.00000000    0.00000000    0.00000000
     atom    6 type  1   force =     0.00000000    0.00000000    0.00000000
     atom    7 type  2   force =     0.00000000    0.00000000    0.00000000
     atom    8 type  2   force =     0.00000000    0.00000000    0.00000000
     atom    9 type  1   force =     0.00000000    0.00000000    0.00000000
     atom   10 type  1   force =     0.00000000    0.00000000    0.00000000
     atom   11 type  2   force =     0.00000000    0.00000000    0.00000000
     atom   12 type  2   force =     0.00000000    0.00000000    0.00000000
     The SCF correction term to forces
     atom    1 type  1   force =    -0.00000000    0.00000000    0.00002064
     atom    2 type  1   force =     0.00000000   -0.00000000    0.00000717
     atom    3 type  2   force =    -0.00000000    0.00000000    0.00001261
     atom    4 type  2   force =     0.00000000   -0.00000000    0.00001063
     atom    5 type  1   force =    -0.00000000    0.00000000    0.00001699
     atom    6 type  1   force =     0.00000000   -0.00000000    0.00000604
     atom    7 type  2   force =    -0.00000000    0.00000000    0.00001024
     atom    8 type  2   force =     0.00000000   -0.00000000    0.00002180
     atom    9 type  1   force =    -0.00000000    0.00000000   -0.00004313
     atom   10 type  1   force =     0.00000000   -0.00000000   -0.00000446
     atom   11 type  2   force =    -0.00000000    0.00000000   -0.00000744
     atom   12 type  2   force =     0.00000000   -0.00000000   -0.00002623

     Total force =     0.005151     Total SCF correction =     0.000065

     General routines

     Parallel routines

   This run was terminated on:  21:53: 7  27Aug2025

   JOB DONE.