     Program PWSCF v.7.0 starts on 27Aug2025 at 20:19: 9

     K-points division:     npool     =      17

     Reading input from /home/jvc/QEspresso7.2/ZnO_database/scripts/cell113.in/ZnO-3.53-1.52-113.in
Warning: card &CELL ignored
Warning: card / ignored
Warning: card &FCP ignored
Warning: card / ignored
Warning: card &RISM ignored
Warning: card / ignored

     Current dimensions of program PWSCF are:
     Max number of different atomic species (ntypx) = 10
     Max number of k-points (npk) =  40000
     Max angular momentum in pseudopotentials (lmaxx) =  4
     file Zn.upf: wavefunction(s)  3D renormalized
     Found identity + (  0.0000  0.0000  0.3333) symmetry
     This is a supercell, fractional translations are disabled
     Message from routine setup:
     using ibrav=0 with symmetry is DISCOURAGED, use correct ibrav instead

     Subspace diagonalization in iterative solution of the eigenvalue problem:
     a serial algorithm will be used

     Using Slab Decomposition

     bravais-lattice index     =            0
     lattice parameter (alat)  =       6.6732  a.u.
     unit-cell volume          =    1171.5875 (a.u.)^3
     number of atoms/cell      =           12
     number of atomic types    =            2
     number of electrons       =       108.00
     number of Kohn-Sham states=           54
     kinetic-energy cutoff     =      50.0000  Ry
     charge density cutoff     =     400.0000  Ry
     scf convergence threshold =      1.0E-08
     mixing beta               =       0.3000
     number of iterations used =            8  plain     mixing
     Exchange-correlation= PBE
                           (   1   4   3   4   0   0   0)

     celldm(1)=   6.673162  celldm(2)=   0.000000  celldm(3)=   0.000000
     celldm(4)=   0.000000  celldm(5)=   0.000000  celldm(6)=   0.000000

     crystal axes: (cart. coord. in units of alat)
               a(1) = (   1.000000   0.000000   0.000000 )
               a(2) = (  -0.500000   0.866025   0.000000 )
               a(3) = (   0.000000   0.000000   4.552491 )

     reciprocal axes: (cart. coord. in units 2 pi/alat)
               b(1) = (  1.000000  0.577350 -0.000000 )
               b(2) = (  0.000000  1.154701  0.000000 )
               b(3) = (  0.000000 -0.000000  0.219660 )

     PseudoPot. # 1 for Zn read from file:
     /home/jvc/QEspresso7.2/ZnO_database/pseudos/Zn.upf
     MD5 check sum: 7f56cabf9682ed8c977c2f7d0c5985c5
     Pseudo is Ultrasoft + core correction, Zval = 12.0
     Generated using &quot;atomic&quot; code by A. Dal Corso  v.6.2.2
     Using radial grid of 1201 points,  6 beta functions with:
                l(1) =   0
                l(2) =   0
                l(3) =   1
                l(4) =   1
                l(5) =   2
                l(6) =   2
     Q(r) pseudized with 0 coefficients

     PseudoPot. # 2 for O  read from file:
     /home/jvc/QEspresso7.2/ZnO_database/pseudos/O.upf
     MD5 check sum: 91400c9766925bcf19f520983a725ff0
     Pseudo is Ultrasoft + core correction, Zval =  6.0
     Generated using &quot;atomic&quot; code by A. Dal Corso  v.6.3MaX
     Using radial grid of 1095 points,  4 beta functions with:
                l(1) =   0
                l(2) =   0
                l(3) =   1
                l(4) =   1
     Q(r) pseudized with 0 coefficients

     atomic species   valence    mass     pseudopotential
        Zn            12.00    65.38000     Zn( 1.00)
        O              6.00    15.99900     O ( 1.00)

      6 Sym. Ops. (no inversion) found

                                    s                        frac. trans.

      isym =  1     identity

 cryst.   s( 1) = (     1          0          0      )
                  (     0          1          0      )
                  (     0          0          1      )

 cart.    s( 1) = (  1.0000000  0.0000000  0.0000000 )
                  (  0.0000000  1.0000000  0.0000000 )
                  (  0.0000000  0.0000000  1.0000000 )

      isym =  2     120 deg rotation - cryst. axis [0,0,1]

[...]

      isym =  3     120 deg rotation - cryst. axis [0,0,-1]

[...]

      isym =  4     inv. 180 deg rotation - cart. axis [1,0,0]

[...]

      isym =  5     inv. 180 deg rotation - cryst. axis [0,1,0]

[...]

      isym =  6     inv. 180 deg rotation - cryst. axis [1,1,0]

 cryst.   s( 6) = (     0         -1          0      )
                  (    -1          0          0      )
                  (     0          0          1      )

 cart.    s( 6) = (  0.5000000 -0.8660254  0.0000000 )
                  ( -0.8660254 -0.5000000  0.0000000 )
                  (  0.0000000  0.0000000  1.0000000 )

   Cartesian axes

     site n.     atom                  positions (alat units)
         1           Zn  tau(   1) = (   0.5000000   0.2886751   0.7597099  )
         2           Zn  tau(   2) = (  -0.0000000   0.5773503   0.0009615  )
         3           O   tau(   3) = (   0.5000000   0.2886751   1.3349062  )
         4           O   tau(   4) = (  -0.0000000   0.5773503   0.5761578  )
         5           Zn  tau(   5) = (   0.5000000   0.2886751   2.2772067  )
         6           Zn  tau(   6) = (  -0.0000000   0.5773503   1.5184583  )
         7           O   tau(   7) = (   0.5000000   0.2886751   2.8524030  )
         8           O   tau(   8) = (  -0.0000000   0.5773503   2.0936546  )
         9           Zn  tau(   9) = (   0.5000000   0.2886751   3.7947036  )
        10           Zn  tau(  10) = (  -0.0000000   0.5773503   3.0359552  )
        11           O   tau(  11) = (   0.5000000   0.2886751   4.3698999  )
        12           O   tau(  12) = (  -0.0000000   0.5773503   3.6111515  )

   Crystallographic axes

     site n.     atom                  positions (cryst. coord.)
         1           Zn  tau(   1) = (  0.6666667  0.3333333  0.1668779  )
         2           Zn  tau(   2) = (  0.3333333  0.6666667  0.0002112  )
         3           O   tau(   3) = (  0.6666667  0.3333333  0.2932255  )
         4           O   tau(   4) = (  0.3333333  0.6666667  0.1265588  )
         5           Zn  tau(   5) = (  0.6666667  0.3333333  0.5002112  )
         6           Zn  tau(   6) = (  0.3333333  0.6666667  0.3335445  )
         7           O   tau(   7) = (  0.6666667  0.3333333  0.6265588  )
         8           O   tau(   8) = (  0.3333333  0.6666667  0.4598921  )
         9           Zn  tau(   9) = (  0.6666667  0.3333333  0.8335445  )
        10           Zn  tau(  10) = (  0.3333333  0.6666667  0.6668779  )
        11           O   tau(  11) = (  0.6666667  0.3333333  0.9598921  )
        12           O   tau(  12) = (  0.3333333  0.6666667  0.7932255  )

     number of k points=    34
                       cart. coord. in units 2pi/alat
        k(    1) = (   0.0000000   0.0000000   0.0000000), wk =   0.0092593
        k(    2) = (   0.0000000   0.0000000   0.0366100), wk =   0.0185185
        k(    3) = (   0.0000000   0.0000000   0.0732200), wk =   0.0185185
        k(    4) = (   0.0000000   0.0000000  -0.1098300), wk =   0.0092593
        k(    5) = (   0.0000000   0.1924501   0.0000000), wk =   0.0555556
        k(    6) = (   0.0000000   0.1924501   0.0366100), wk =   0.0555556
        k(    7) = (   0.0000000   0.1924501   0.0732200), wk =   0.0555556
        k(    8) = (   0.0000000   0.1924501  -0.1098300), wk =   0.0555556
        k(    9) = (   0.0000000   0.3849002   0.0000000), wk =   0.0555556
        k(   10) = (   0.0000000   0.3849002   0.0366100), wk =   0.0555556
        k(   11) = (   0.0000000   0.3849002   0.0732200), wk =   0.0555556
        k(   12) = (   0.0000000   0.3849002  -0.1098300), wk =   0.0555556
        k(   13) = (   0.0000000  -0.5773503   0.0000000), wk =   0.0277778
        k(   14) = (   0.0000000  -0.5773503   0.0366100), wk =   0.0555556
        k(   15) = (   0.0000000  -0.5773503   0.0732200), wk =   0.0555556
        k(   16) = (   0.0000000  -0.5773503  -0.1098300), wk =   0.0277778
        k(   17) = (   0.1666667   0.2886751   0.0000000), wk =   0.0555556
        k(   18) = (   0.1666667   0.2886751   0.0366100), wk =   0.1111111
        k(   19) = (   0.1666667   0.2886751   0.0732200), wk =   0.1111111
        k(   20) = (   0.1666667   0.2886751  -0.1098300), wk =   0.0555556
        k(   21) = (   0.1666667   0.4811252   0.0000000), wk =   0.1111111
        k(   22) = (   0.1666667   0.4811252   0.0366100), wk =   0.1111111
        k(   23) = (   0.1666667   0.4811252   0.0732200), wk =   0.1111111
        k(   24) = (   0.1666667   0.4811252  -0.1098300), wk =   0.1111111
        k(   25) = (   0.3333333   0.5773503   0.0000000), wk =   0.0185185
        k(   26) = (   0.3333333   0.5773503   0.0366100), wk =   0.0370370
        k(   27) = (   0.3333333   0.5773503   0.0732200), wk =   0.0370370
        k(   28) = (   0.3333333   0.5773503  -0.1098300), wk =   0.0185185
        k(   29) = (   0.0000000  -0.1924501   0.0366100), wk =   0.0555556
        k(   30) = (   0.0000000  -0.1924501   0.0732200), wk =   0.0555556
        k(   31) = (   0.0000000  -0.3849002   0.0366100), wk =   0.0555556
        k(   32) = (   0.0000000  -0.3849002   0.0732200), wk =   0.0555556
        k(   33) = (  -0.1666667  -0.4811252   0.0366100), wk =   0.1111111
        k(   34) = (  -0.1666667  -0.4811252   0.0732200), wk =   0.1111111

                       cryst. coord.
        k(    1) = (   0.0000000   0.0000000   0.0000000), wk =   0.0092593
        k(    2) = (   0.0000000   0.0000000   0.1666667), wk =   0.0185185
        k(    3) = (   0.0000000   0.0000000   0.3333333), wk =   0.0185185
        k(    4) = (   0.0000000   0.0000000  -0.5000000), wk =   0.0092593
        k(    5) = (   0.0000000   0.1666667   0.0000000), wk =   0.0555556
        k(    6) = (   0.0000000   0.1666667   0.1666667), wk =   0.0555556
        k(    7) = (   0.0000000   0.1666667   0.3333333), wk =   0.0555556
        k(    8) = (   0.0000000   0.1666667  -0.5000000), wk =   0.0555556
        k(    9) = (   0.0000000   0.3333333   0.0000000), wk =   0.0555556
        k(   10) = (   0.0000000   0.3333333   0.1666667), wk =   0.0555556
        k(   11) = (   0.0000000   0.3333333   0.3333333), wk =   0.0555556
        k(   12) = (   0.0000000   0.3333333  -0.5000000), wk =   0.0555556
        k(   13) = (   0.0000000  -0.5000000   0.0000000), wk =   0.0277778
        k(   14) = (   0.0000000  -0.5000000   0.1666667), wk =   0.0555556
        k(   15) = (   0.0000000  -0.5000000   0.3333333), wk =   0.0555556
        k(   16) = (   0.0000000  -0.5000000  -0.5000000), wk =   0.0277778
        k(   17) = (   0.1666667   0.1666667   0.0000000), wk =   0.0555556
        k(   18) = (   0.1666667   0.1666667   0.1666667), wk =   0.1111111
        k(   19) = (   0.1666667   0.1666667   0.3333333), wk =   0.1111111
        k(   20) = (   0.1666667   0.1666667  -0.5000000), wk =   0.0555556
        k(   21) = (   0.1666667   0.3333333   0.0000000), wk =   0.1111111
        k(   22) = (   0.1666667   0.3333333   0.1666667), wk =   0.1111111
        k(   23) = (   0.1666667   0.3333333   0.3333333), wk =   0.1111111
        k(   24) = (   0.1666667   0.3333333  -0.5000000), wk =   0.1111111
        k(   25) = (   0.3333333   0.3333333   0.0000000), wk =   0.0185185
        k(   26) = (   0.3333333   0.3333333   0.1666667), wk =   0.0370370
        k(   27) = (   0.3333333   0.3333333   0.3333333), wk =   0.0370370
        k(   28) = (   0.3333333   0.3333333  -0.5000000), wk =   0.0185185
        k(   29) = (   0.0000000  -0.1666667   0.1666667), wk =   0.0555556
        k(   30) = (   0.0000000  -0.1666667   0.3333333), wk =   0.0555556
        k(   31) = (   0.0000000  -0.3333333   0.1666667), wk =   0.0555556
        k(   32) = (   0.0000000  -0.3333333   0.3333333), wk =   0.0555556
        k(   33) = (  -0.1666667  -0.3333333   0.1666667), wk =   0.1111111
        k(   34) = (  -0.1666667  -0.3333333   0.3333333), wk =   0.1111111

     Check: negative core charge=   -0.000002

     Initial potential from superposition of free atoms

     starting charge     107.9776, renormalised to     108.0000
     Starting wfcs are   78 randomized atomic wfcs

     Self-consistent Calculation

     iteration #  1     ecut=    50.00 Ry     beta= 0.30
     Davidson diagonalization with overlap

     ethr =  1.00E-02,  avg # of iterations =  1.6

     total energy              =   -1084.24994171 Ry
     estimated scf accuracy    <       2.31878928 Ry

[...]

     c_bands:  1 eigenvalues not converged
     ethr =  2.35E-04,  avg # of iterations = 10.3

[...]

     total energy              =   -1084.80142533 Ry
     estimated scf accuracy    <       0.00000014 Ry

     iteration # 29     ecut=    50.00 Ry     beta= 0.30
     Davidson diagonalization with overlap

     ethr =  1.31E-10,  avg # of iterations =  5.4

     End of self-consistent calculation

          k = 0.0000 0.0000 0.0000 (  6999 PWs)   bands (ev):

   -12.0998 -11.9693 -11.9693 -11.7033 -11.7032 -11.5680  -0.4195  -0.4195
    -0.3362  -0.3264  -0.3264  -0.3074  -0.3074  -0.3073  -0.3073  -0.2920
    -0.2920  -0.2299  -0.2299  -0.2299  -0.2299  -0.1688  -0.1688   0.3156
     0.3156   0.3727   0.3727   0.3727   0.3727   0.3864   0.4536   0.4536
     0.4536   0.4536   0.4763   0.4763   0.7000   1.9159   1.9159   3.3332
     3.3332   3.9007   3.9007   4.0857   4.0857   4.0858   4.0858   4.4429
     4.4429   4.4429   4.4429   4.6145   4.6145   4.6538

     occupation numbers
     1.0000   1.0000   1.0000   1.0000   1.0000   1.0000   1.0000   1.0000
     1.0000   1.0000   1.0000   1.0000   1.0000   1.0000   1.0000   1.0000
     1.0000   1.0000   1.0000   1.0000   1.0000   1.0000   1.0000   1.0000
     1.0000   1.0000   1.0000   1.0000   1.0000   1.0000   1.0000   1.0000
     1.0000   1.0000   1.0000   1.0000   1.0000   1.0000   1.0000   1.0000
     1.0000   1.0000   1.0000   1.0000   1.0000   1.0000   1.0000   1.0000
     1.0000   1.0000   1.0000   1.0000   1.0000   1.0000

[...]

          k = 0.0000-0.3849 0.0732 (  7010 PWs)   bands (ev):

[...]

          k =-0.1667-0.4811 0.0366 (  6971 PWs)   bands (ev):

[...]

          k =-0.1667-0.4811 0.0732 (  6963 PWs)   bands (ev):

   -11.6742 -11.6572 -11.6019 -11.5718 -11.5246 -11.5118  -0.4148  -0.3837
    -0.3674  -0.3455  -0.2300  -0.2126  -0.1313  -0.0897  -0.0563  -0.0308
     0.0072   0.0199   0.0348   0.0370   0.1119   0.1688   0.1708   0.2261
     0.3385   0.3606   0.3977   0.4087   0.4162   0.4195   0.5098   0.5101
     0.5424   0.5686   0.6156   0.6284   1.3376   1.3383   1.4573   1.5543
     1.7675   1.8290   2.3983   2.5237   2.7441   2.9657   3.0263   3.2163
     3.6520   3.7135   3.7247   3.8142   3.8903   3.9162

     occupation numbers
     1.0000   1.0000   1.0000   1.0000   1.0000   1.0000   1.0000   1.0000
     1.0000   1.0000   1.0000   1.0000   1.0000   1.0000   1.0000   1.0000
     1.0000   1.0000   1.0000   1.0000   1.0000   1.0000   1.0000   1.0000
     1.0000   1.0000   1.0000   1.0000   1.0000   1.0000   1.0000   1.0000
     1.0000   1.0000   1.0000   1.0000   1.0000   1.0000   1.0000   1.0000
     1.0000   1.0000   1.0000   1.0000   1.0000   1.0000   1.0000   1.0000
     1.0000   1.0000   1.0000   1.0000   1.0000   1.0000

     highest occupied level (ev):     4.6538

!    total energy              =   -1084.80142540 Ry
     estimated scf accuracy    <          1.2E-09 Ry

     The total energy is the sum of the following terms:
     one-electron contribution =    -522.17654036 Ry
     hartree contribution      =     376.29963707 Ry
     xc contribution           =    -327.71031796 Ry
     ewald contribution        =    -611.21420415 Ry

     convergence has been achieved in  29 iterations

     Forces acting on atoms (cartesian axes, Ry/au):

     atom    1 type  1   force =     0.00000000    0.00000000   -0.00587911
     atom    2 type  1   force =     0.00000000   -0.00000000   -0.00587510
     atom    3 type  2   force =     0.00000000   -0.00000000    0.00585391
     atom    4 type  2   force =     0.00000000    0.00000000    0.00585519
     atom    5 type  1   force =     0.00000000    0.00000000   -0.00583969
     atom    6 type  1   force =     0.00000000    0.00000000   -0.00584777
     atom    7 type  2   force =     0.00000000    0.00000000    0.00585835
     atom    8 type  2   force =     0.00000000    0.00000000    0.00586174
     atom    9 type  1   force =     0.00000000   -0.00000000   -0.00583308
     atom   10 type  1   force =     0.00000000    0.00000000   -0.00586364
     atom   11 type  2   force =     0.00000000    0.00000000    0.00585502
     atom   12 type  2   force =     0.00000000   -0.00000000    0.00585418
     The non-local contrib.  to forces
     atom    1 type  1   force =     0.00000000   -0.00000000   -0.16891122
     atom    2 type  1   force =     0.00000000    0.00000000   -0.16890139
     atom    3 type  2   force =     0.00000000    0.00000000   -0.14762406
     atom    4 type  2   force =     0.00000000    0.00000000   -0.14762124
     atom    5 type  1   force =     0.00000000    0.00000000   -0.16889730
     atom    6 type  1   force =     0.00000000   -0.00000000   -0.16890358
     atom    7 type  2   force =     0.00000000    0.00000000   -0.14761126
     atom    8 type  2   force =     0.00000000    0.00000000   -0.14761106
     atom    9 type  1   force =     0.00000000    0.00000000   -0.16889617
     atom   10 type  1   force =     0.00000000   -0.00000000   -0.16890925
     atom   11 type  2   force =     0.00000000   -0.00000000   -0.14761762
     atom   12 type  2   force =     0.00000000    0.00000000   -0.14762617
     The ionic contribution  to forces
     atom    1 type  1   force =    -0.00000000    0.00000000   -1.08201232
     atom    2 type  1   force =     0.00000000   -0.00000000   -1.08201229
     atom    3 type  2   force =    -0.00000000    0.00000000    1.08201231
     atom    4 type  2   force =     0.00000000   -0.00000000    1.08201230
     atom    5 type  1   force =    -0.00000000    0.00000000   -1.08201229
     atom    6 type  1   force =     0.00000000   -0.00000000   -1.08201232
     atom    7 type  2   force =    -0.00000000    0.00000000    1.08201230
     atom    8 type  2   force =     0.00000000   -0.00000000    1.08201232
     atom    9 type  1   force =    -0.00000000    0.00000000   -1.08201232
     atom   10 type  1   force =     0.00000000   -0.00000000   -1.08201232
     atom   11 type  2   force =    -0.00000000    0.00000000    1.08201232
     atom   12 type  2   force =     0.00000000   -0.00000000    1.08201231
     The local contribution  to forces
     atom    1 type  1   force =    -0.00000005    0.00000003    1.23425159
     atom    2 type  1   force =     0.00000005   -0.00000003    1.23424864
     atom    3 type  2   force =    -0.00000001    0.00000001   -0.92978101
     atom    4 type  2   force =     0.00000001   -0.00000001   -0.92976809
     atom    5 type  1   force =    -0.00000005    0.00000003    1.23421335
     atom    6 type  1   force =     0.00000005   -0.00000003    1.23421667
     atom    7 type  2   force =    -0.00000001    0.00000001   -0.92977349
     atom    8 type  2   force =     0.00000001   -0.00000001   -0.92978233
     atom    9 type  1   force =    -0.00000005    0.00000003    1.23419970
     atom   10 type  1   force =     0.00000005   -0.00000003    1.23424048
     atom   11 type  2   force =    -0.00000001    0.00000001   -0.92977170
     atom   12 type  2   force =     0.00000001   -0.00000001   -0.92980049
     The core correction contribution to forces
     atom    1 type  1   force =    -0.00000001    0.00000000    0.01082296
     atom    2 type  1   force =     0.00000001   -0.00000000    0.01082257
     atom    3 type  2   force =     0.00000000   -0.00000000    0.00124121
     atom    4 type  2   force =    -0.00000000    0.00000000    0.00124151
     atom    5 type  1   force =    -0.00000001    0.00000000    0.01082292
     atom    6 type  1   force =     0.00000001   -0.00000000    0.01082530
     atom    7 type  2   force =     0.00000000   -0.00000000    0.00124140
     atom    8 type  2   force =    -0.00000000    0.00000000    0.00123946
     atom    9 type  1   force =    -0.00000001    0.00000000    0.01082535
     atom   10 type  1   force =     0.00000001   -0.00000000    0.01082282
     atom   11 type  2   force =     0.00000000   -0.00000000    0.00123954
     atom   12 type  2   force =    -0.00000000    0.00000000    0.00124119
     The Hubbard contrib.    to forces
     atom    1 type  1   force =     0.00000000    0.00000000    0.00000000
     atom    2 type  1   force =     0.00000000    0.00000000    0.00000000
     atom    3 type  2   force =     0.00000000    0.00000000    0.00000000
     atom    4 type  2   force =     0.00000000    0.00000000    0.00000000
     atom    5 type  1   force =     0.00000000    0.00000000    0.00000000
     atom    6 type  1   force =     0.00000000    0.00000000    0.00000000
     atom    7 type  2   force =     0.00000000    0.00000000    0.00000000
     atom    8 type  2   force =     0.00000000    0.00000000    0.00000000
     atom    9 type  1   force =     0.00000000    0.00000000    0.00000000
     atom   10 type  1   force =     0.00000000    0.00000000    0.00000000
     atom   11 type  2   force =     0.00000000    0.00000000    0.00000000
     atom   12 type  2   force =     0.00000000    0.00000000    0.00000000
     The SCF correction term to forces
     atom    1 type  1   force =     0.00000000   -0.00000000   -0.00002663
     atom    2 type  1   force =    -0.00000000    0.00000000   -0.00002914
     atom    3 type  2   force =     0.00000000   -0.00000000    0.00000895
     atom    4 type  2   force =    -0.00000000    0.00000000   -0.00000581
     atom    5 type  1   force =     0.00000000   -0.00000000    0.00003711
     atom    6 type  1   force =    -0.00000000    0.00000000    0.00002966
     atom    7 type  2   force =     0.00000000   -0.00000000   -0.00000711
     atom    8 type  2   force =    -0.00000000    0.00000000    0.00000684
     atom    9 type  1   force =     0.00000000   -0.00000000    0.00005385
     atom   10 type  1   force =    -0.00000000    0.00000000   -0.00000187
     atom   11 type  2   force =     0.00000000   -0.00000000   -0.00000404
     atom   12 type  2   force =    -0.00000000    0.00000000    0.00003082

     Total force =     0.020287     Total SCF correction =     0.000089

     General routines

     Parallel routines

   This run was terminated on:  20:25:12  27Aug2025

   JOB DONE.