     Program PWSCF v.7.0 starts on 27Aug2025 at 12:14:28

     K-points division:     npool     =      17

     Reading input from /home/jvc/QEspresso7.2/ZnO_database/scripts/cell113.in/ZnO-2.94-1.58-113.in
Warning: card &CELL ignored
Warning: card / ignored
Warning: card &FCP ignored
Warning: card / ignored
Warning: card &RISM ignored
Warning: card / ignored

     Current dimensions of program PWSCF are:
     Max number of different atomic species (ntypx) = 10
     Max number of k-points (npk) =  40000
     Max angular momentum in pseudopotentials (lmaxx) =  4
     file Zn.upf: wavefunction(s)  3D renormalized
     Found identity + (  0.0000  0.0000  0.3333) symmetry
     This is a supercell, fractional translations are disabled
     Message from routine setup:
     using ibrav=0 with symmetry is DISCOURAGED, use correct ibrav instead

     Subspace diagonalization in iterative solution of the eigenvalue problem:
     a serial algorithm will be used

     Using Slab Decomposition

     bravais-lattice index     =            0
     lattice parameter (alat)  =       5.5610  a.u.
     unit-cell volume          =     706.8532 (a.u.)^3
     number of atoms/cell      =           12
     number of atomic types    =            2
     number of electrons       =       108.00
     number of Kohn-Sham states=           54
     kinetic-energy cutoff     =      50.0000  Ry
     charge density cutoff     =     400.0000  Ry
     scf convergence threshold =      1.0E-08
     mixing beta               =       0.3000
     number of iterations used =            8  plain     mixing
     Exchange-correlation= PBE
                           (   1   4   3   4   0   0   0)

     celldm(1)=   5.560969  celldm(2)=   0.000000  celldm(3)=   0.000000
     celldm(4)=   0.000000  celldm(5)=   0.000000  celldm(6)=   0.000000

     crystal axes: (cart. coord. in units of alat)
               a(1) = (   1.000000   0.000000   0.000000 )
               a(2) = (  -0.500000   0.866025   0.000000 )
               a(3) = (   0.000000   0.000000   4.746214 )

     reciprocal axes: (cart. coord. in units 2 pi/alat)
               b(1) = (  1.000000  0.577350 -0.000000 )
               b(2) = (  0.000000  1.154701  0.000000 )
               b(3) = (  0.000000 -0.000000  0.210694 )

     PseudoPot. # 1 for Zn read from file:
     /home/jvc/QEspresso7.2/ZnO_database/pseudos/Zn.upf
     MD5 check sum: 7f56cabf9682ed8c977c2f7d0c5985c5
     Pseudo is Ultrasoft + core correction, Zval = 12.0
     Generated using &quot;atomic&quot; code by A. Dal Corso  v.6.2.2
     Using radial grid of 1201 points,  6 beta functions with:
                l(1) =   0
                l(2) =   0
                l(3) =   1
                l(4) =   1
                l(5) =   2
                l(6) =   2
     Q(r) pseudized with 0 coefficients

     PseudoPot. # 2 for O  read from file:
     /home/jvc/QEspresso7.2/ZnO_database/pseudos/O.upf
     MD5 check sum: 91400c9766925bcf19f520983a725ff0
     Pseudo is Ultrasoft + core correction, Zval =  6.0
     Generated using &quot;atomic&quot; code by A. Dal Corso  v.6.3MaX
     Using radial grid of 1095 points,  4 beta functions with:
                l(1) =   0
                l(2) =   0
                l(3) =   1
                l(4) =   1
     Q(r) pseudized with 0 coefficients

     atomic species   valence    mass     pseudopotential
        Zn            12.00    65.38000     Zn( 1.00)
        O              6.00    15.99900     O ( 1.00)

      6 Sym. Ops. (no inversion) found

                                    s                        frac. trans.

      isym =  1     identity

 cryst.   s( 1) = (     1          0          0      )
                  (     0          1          0      )
                  (     0          0          1      )

 cart.    s( 1) = (  1.0000000  0.0000000  0.0000000 )
                  (  0.0000000  1.0000000  0.0000000 )
                  (  0.0000000  0.0000000  1.0000000 )

      isym =  2     120 deg rotation - cryst. axis [0,0,1]

[...]

      isym =  3     120 deg rotation - cryst. axis [0,0,-1]

[...]

      isym =  4     inv. 180 deg rotation - cart. axis [1,0,0]

[...]

      isym =  5     inv. 180 deg rotation - cryst. axis [0,1,0]

[...]

      isym =  6     inv. 180 deg rotation - cryst. axis [1,1,0]

 cryst.   s( 6) = (     0         -1          0      )
                  (    -1          0          0      )
                  (     0          0          1      )

 cart.    s( 6) = (  0.5000000 -0.8660254  0.0000000 )
                  ( -0.8660254 -0.5000000  0.0000000 )
                  (  0.0000000  0.0000000  1.0000000 )

   Cartesian axes

     site n.     atom                  positions (alat units)
         1           Zn  tau(   1) = (   0.5000000   0.2886751   0.7920380  )
         2           Zn  tau(   2) = (  -0.0000000   0.5773503   0.0010024  )
         3           O   tau(   3) = (   0.5000000   0.2886751   1.3917107  )
         4           O   tau(   4) = (  -0.0000000   0.5773503   0.6006751  )
         5           Zn  tau(   5) = (   0.5000000   0.2886751   2.3741092  )
         6           Zn  tau(   6) = (  -0.0000000   0.5773503   1.5830736  )
         7           O   tau(   7) = (   0.5000000   0.2886751   2.9737819  )
         8           O   tau(   8) = (  -0.0000000   0.5773503   2.1827463  )
         9           Zn  tau(   9) = (   0.5000000   0.2886751   3.9561803  )
        10           Zn  tau(  10) = (  -0.0000000   0.5773503   3.1651448  )
        11           O   tau(  11) = (   0.5000000   0.2886751   4.5558531  )
        12           O   tau(  12) = (  -0.0000000   0.5773503   3.7648175  )

   Crystallographic axes

     site n.     atom                  positions (cryst. coord.)
         1           Zn  tau(   1) = (  0.6666667  0.3333333  0.1668779  )
         2           Zn  tau(   2) = (  0.3333333  0.6666667  0.0002112  )
         3           O   tau(   3) = (  0.6666667  0.3333333  0.2932255  )
         4           O   tau(   4) = (  0.3333333  0.6666667  0.1265588  )
         5           Zn  tau(   5) = (  0.6666667  0.3333333  0.5002112  )
         6           Zn  tau(   6) = (  0.3333333  0.6666667  0.3335445  )
         7           O   tau(   7) = (  0.6666667  0.3333333  0.6265588  )
         8           O   tau(   8) = (  0.3333333  0.6666667  0.4598921  )
         9           Zn  tau(   9) = (  0.6666667  0.3333333  0.8335445  )
        10           Zn  tau(  10) = (  0.3333333  0.6666667  0.6668779  )
        11           O   tau(  11) = (  0.6666667  0.3333333  0.9598921  )
        12           O   tau(  12) = (  0.3333333  0.6666667  0.7932255  )

     number of k points=    34
                       cart. coord. in units 2pi/alat
        k(    1) = (   0.0000000   0.0000000   0.0000000), wk =   0.0092593
        k(    2) = (   0.0000000   0.0000000   0.0351157), wk =   0.0185185
        k(    3) = (   0.0000000   0.0000000   0.0702314), wk =   0.0185185
        k(    4) = (   0.0000000   0.0000000  -0.1053471), wk =   0.0092593
        k(    5) = (   0.0000000   0.1924501   0.0000000), wk =   0.0555556
        k(    6) = (   0.0000000   0.1924501   0.0351157), wk =   0.0555556
        k(    7) = (   0.0000000   0.1924501   0.0702314), wk =   0.0555556
        k(    8) = (   0.0000000   0.1924501  -0.1053471), wk =   0.0555556
        k(    9) = (   0.0000000   0.3849002   0.0000000), wk =   0.0555556
        k(   10) = (   0.0000000   0.3849002   0.0351157), wk =   0.0555556
        k(   11) = (   0.0000000   0.3849002   0.0702314), wk =   0.0555556
        k(   12) = (   0.0000000   0.3849002  -0.1053471), wk =   0.0555556
        k(   13) = (   0.0000000  -0.5773503   0.0000000), wk =   0.0277778
        k(   14) = (   0.0000000  -0.5773503   0.0351157), wk =   0.0555556
        k(   15) = (   0.0000000  -0.5773503   0.0702314), wk =   0.0555556
        k(   16) = (   0.0000000  -0.5773503  -0.1053471), wk =   0.0277778
        k(   17) = (   0.1666667   0.2886751   0.0000000), wk =   0.0555556
        k(   18) = (   0.1666667   0.2886751   0.0351157), wk =   0.1111111
        k(   19) = (   0.1666667   0.2886751   0.0702314), wk =   0.1111111
        k(   20) = (   0.1666667   0.2886751  -0.1053471), wk =   0.0555556
        k(   21) = (   0.1666667   0.4811252   0.0000000), wk =   0.1111111
        k(   22) = (   0.1666667   0.4811252   0.0351157), wk =   0.1111111
        k(   23) = (   0.1666667   0.4811252   0.0702314), wk =   0.1111111
        k(   24) = (   0.1666667   0.4811252  -0.1053471), wk =   0.1111111
        k(   25) = (   0.3333333   0.5773503   0.0000000), wk =   0.0185185
        k(   26) = (   0.3333333   0.5773503   0.0351157), wk =   0.0370370
        k(   27) = (   0.3333333   0.5773503   0.0702314), wk =   0.0370370
        k(   28) = (   0.3333333   0.5773503  -0.1053471), wk =   0.0185185
        k(   29) = (   0.0000000  -0.1924501   0.0351157), wk =   0.0555556
        k(   30) = (   0.0000000  -0.1924501   0.0702314), wk =   0.0555556
        k(   31) = (   0.0000000  -0.3849002   0.0351157), wk =   0.0555556
        k(   32) = (   0.0000000  -0.3849002   0.0702314), wk =   0.0555556
        k(   33) = (  -0.1666667  -0.4811252   0.0351157), wk =   0.1111111
        k(   34) = (  -0.1666667  -0.4811252   0.0702314), wk =   0.1111111

                       cryst. coord.
        k(    1) = (   0.0000000   0.0000000   0.0000000), wk =   0.0092593
        k(    2) = (   0.0000000   0.0000000   0.1666667), wk =   0.0185185
        k(    3) = (   0.0000000   0.0000000   0.3333333), wk =   0.0185185
        k(    4) = (   0.0000000   0.0000000  -0.5000000), wk =   0.0092593
        k(    5) = (   0.0000000   0.1666667   0.0000000), wk =   0.0555556
        k(    6) = (   0.0000000   0.1666667   0.1666667), wk =   0.0555556
        k(    7) = (   0.0000000   0.1666667   0.3333333), wk =   0.0555556
        k(    8) = (   0.0000000   0.1666667  -0.5000000), wk =   0.0555556
        k(    9) = (   0.0000000   0.3333333   0.0000000), wk =   0.0555556
        k(   10) = (   0.0000000   0.3333333   0.1666667), wk =   0.0555556
        k(   11) = (   0.0000000   0.3333333   0.3333333), wk =   0.0555556
        k(   12) = (   0.0000000   0.3333333  -0.5000000), wk =   0.0555556
        k(   13) = (   0.0000000  -0.5000000   0.0000000), wk =   0.0277778
        k(   14) = (   0.0000000  -0.5000000   0.1666667), wk =   0.0555556
        k(   15) = (   0.0000000  -0.5000000   0.3333333), wk =   0.0555556
        k(   16) = (   0.0000000  -0.5000000  -0.5000000), wk =   0.0277778
        k(   17) = (   0.1666667   0.1666667   0.0000000), wk =   0.0555556
        k(   18) = (   0.1666667   0.1666667   0.1666667), wk =   0.1111111
        k(   19) = (   0.1666667   0.1666667   0.3333333), wk =   0.1111111
        k(   20) = (   0.1666667   0.1666667  -0.5000000), wk =   0.0555556
        k(   21) = (   0.1666667   0.3333333   0.0000000), wk =   0.1111111
        k(   22) = (   0.1666667   0.3333333   0.1666667), wk =   0.1111111
        k(   23) = (   0.1666667   0.3333333   0.3333333), wk =   0.1111111
        k(   24) = (   0.1666667   0.3333333  -0.5000000), wk =   0.1111111
        k(   25) = (   0.3333333   0.3333333   0.0000000), wk =   0.0185185
        k(   26) = (   0.3333333   0.3333333   0.1666667), wk =   0.0370370
        k(   27) = (   0.3333333   0.3333333   0.3333333), wk =   0.0370370
        k(   28) = (   0.3333333   0.3333333  -0.5000000), wk =   0.0185185
        k(   29) = (   0.0000000  -0.1666667   0.1666667), wk =   0.0555556
        k(   30) = (   0.0000000  -0.1666667   0.3333333), wk =   0.0555556
        k(   31) = (   0.0000000  -0.3333333   0.1666667), wk =   0.0555556
        k(   32) = (   0.0000000  -0.3333333   0.3333333), wk =   0.0555556
        k(   33) = (  -0.1666667  -0.3333333   0.1666667), wk =   0.1111111
        k(   34) = (  -0.1666667  -0.3333333   0.3333333), wk =   0.1111111

     Check: negative core charge=   -0.000001

     Initial potential from superposition of free atoms

     starting charge     107.9776, renormalised to     108.0000
     Starting wfcs are   78 randomized atomic wfcs

     Self-consistent Calculation

     iteration #  1     ecut=    50.00 Ry     beta= 0.30
     Davidson diagonalization with overlap

     ethr =  1.00E-02,  avg # of iterations =  2.3

     total energy              =   -1083.83007269 Ry
     estimated scf accuracy    <       2.06113162 Ry

[...]

     total energy              =   -1084.20473584 Ry
     estimated scf accuracy    <       0.00000006 Ry

     iteration # 24     ecut=    50.00 Ry     beta= 0.30
     Davidson diagonalization with overlap

     ethr =  1.60E-11,  avg # of iterations =  4.9

     End of self-consistent calculation

          k = 0.0000 0.0000 0.0000 (  4235 PWs)   bands (ev):

    -8.3410  -8.0226  -8.0226  -7.3428  -7.3428  -6.9800   4.2810   4.2810
     4.3377   4.7099   4.7100   5.0201   5.0201   5.0632   5.0632   5.0632
     5.0632   5.1078   5.2207   5.2207   5.2207   5.2207   5.3410   5.3410
     7.3032   7.3032   7.4528   7.4528   7.4528   7.4528   7.6781   7.6781
     7.6781   7.6781   7.7438   7.7438   8.1958   9.4013   9.4013  11.3716
    11.3717  11.5798  11.5798  11.8975  11.8975  11.8975  11.8975  12.5405
    12.5405  12.5405  12.5405  12.6917  12.8594  12.8594

     occupation numbers
     1.0000   1.0000   1.0000   1.0000   1.0000   1.0000   1.0000   1.0000
     1.0000   1.0000   1.0000   1.0000   1.0000   1.0000   1.0000   1.0000
     1.0000   1.0000   1.0000   1.0000   1.0000   1.0000   1.0000   1.0000
     1.0000   1.0000   1.0000   1.0000   1.0000   1.0000   1.0000   1.0000
     1.0000   1.0000   1.0000   1.0000   1.0000   1.0000   1.0000   1.0000
     1.0000   1.0000   1.0000   1.0000   1.0000   1.0000   1.0000   1.0000
     1.0000   1.0000   1.0000   1.0000   1.0000   1.0000

[...]

          k = 0.0000-0.3849 0.0702 (  4225 PWs)   bands (ev):

[...]

          k =-0.1667-0.4811 0.0351 (  4218 PWs)   bands (ev):

[...]

          k =-0.1667-0.4811 0.0702 (  4221 PWs)   bands (ev):

    -7.1122  -7.0657  -6.9175  -6.8392  -6.7227  -6.6930   4.1555   4.1791
     4.3484   4.4545   4.5015   4.6837   5.2807   5.2920   5.3314   5.3709
     5.4468   5.4887   5.8844   5.9154   5.9585   6.0395   6.0977   6.1948
     7.1927   7.2829   7.4431   7.5081   7.5694   7.5747   7.8272   7.8383
     7.8773   7.8992   7.9493   8.0646   8.1632   8.2210   8.5385   8.7102
     8.7422   8.8696   9.0427   9.1602   9.5882   9.8133   9.8272  10.1498
    10.8344  10.8598  10.9579  11.1486  11.2549  11.2820

     occupation numbers
     1.0000   1.0000   1.0000   1.0000   1.0000   1.0000   1.0000   1.0000
     1.0000   1.0000   1.0000   1.0000   1.0000   1.0000   1.0000   1.0000
     1.0000   1.0000   1.0000   1.0000   1.0000   1.0000   1.0000   1.0000
     1.0000   1.0000   1.0000   1.0000   1.0000   1.0000   1.0000   1.0000
     1.0000   1.0000   1.0000   1.0000   1.0000   1.0000   1.0000   1.0000
     1.0000   1.0000   1.0000   1.0000   1.0000   1.0000   1.0000   1.0000
     1.0000   1.0000   1.0000   1.0000   1.0000   1.0000

     highest occupied level (ev):    12.8594

!    total energy              =   -1084.20473584 Ry
     estimated scf accuracy    <          8.4E-09 Ry

     The total energy is the sum of the following terms:
     one-electron contribution =    -342.65118854 Ry
     hartree contribution      =     313.81760457 Ry
     xc contribution           =    -331.17581759 Ry
     ewald contribution        =    -724.19533428 Ry

     convergence has been achieved in  24 iterations

     Forces acting on atoms (cartesian axes, Ry/au):

     atom    1 type  1   force =     0.00000000    0.00000000   -0.02571867
     atom    2 type  1   force =     0.00000000    0.00000000   -0.02580011
     atom    3 type  2   force =     0.00000000    0.00000000    0.02576536
     atom    4 type  2   force =     0.00000000    0.00000000    0.02576151
     atom    5 type  1   force =     0.00000000    0.00000000   -0.02572013
     atom    6 type  1   force =     0.00000000   -0.00000000   -0.02578369
     atom    7 type  2   force =     0.00000000   -0.00000000    0.02576651
     atom    8 type  2   force =     0.00000000    0.00000000    0.02576232
     atom    9 type  1   force =     0.00000000    0.00000000   -0.02578080
     atom   10 type  1   force =     0.00000000   -0.00000000   -0.02579257
     atom   11 type  2   force =     0.00000000   -0.00000000    0.02577067
     atom   12 type  2   force =     0.00000000    0.00000000    0.02576961
     The non-local contrib.  to forces
     atom    1 type  1   force =     0.00000000    0.00000000   -0.07586285
     atom    2 type  1   force =     0.00000000    0.00000000   -0.07591612
     atom    3 type  2   force =     0.00000000    0.00000000   -0.04157053
     atom    4 type  2   force =     0.00000000    0.00000000   -0.04157635
     atom    5 type  1   force =     0.00000000    0.00000000   -0.07586718
     atom    6 type  1   force =     0.00000000   -0.00000000   -0.07590023
     atom    7 type  2   force =     0.00000000    0.00000000   -0.04156590
     atom    8 type  2   force =     0.00000000    0.00000000   -0.04157209
     atom    9 type  1   force =     0.00000000    0.00000000   -0.07590906
     atom   10 type  1   force =     0.00000000    0.00000000   -0.07590302
     atom   11 type  2   force =     0.00000000    0.00000000   -0.04155481
     atom   12 type  2   force =     0.00000000   -0.00000000   -0.04154494
     The ionic contribution  to forces
     atom    1 type  1   force =    -0.00000000    0.00000000   -0.44226025
     atom    2 type  1   force =     0.00000000   -0.00000000   -0.44226020
     atom    3 type  2   force =    -0.00000000    0.00000000    0.44226023
     atom    4 type  2   force =     0.00000000   -0.00000000    0.44226022
     atom    5 type  1   force =    -0.00000000    0.00000000   -0.44226020
     atom    6 type  1   force =     0.00000000   -0.00000000   -0.44226025
     atom    7 type  2   force =    -0.00000000    0.00000000    0.44226022
     atom    8 type  2   force =     0.00000000   -0.00000000    0.44226025
     atom    9 type  1   force =    -0.00000000    0.00000000   -0.44226025
     atom   10 type  1   force =     0.00000000   -0.00000000   -0.44226025
     atom   11 type  2   force =    -0.00000000    0.00000000    0.44226025
     atom   12 type  2   force =     0.00000000   -0.00000000    0.44226023
     The local contribution  to forces
     atom    1 type  1   force =    -0.00000004    0.00000002    0.48430674
     atom    2 type  1   force =     0.00000004   -0.00000002    0.48446217
     atom    3 type  2   force =    -0.00000001    0.00000001   -0.37514095
     atom    4 type  2   force =     0.00000001   -0.00000001   -0.37515558
     atom    5 type  1   force =    -0.00000004    0.00000002    0.48431090
     atom    6 type  1   force =     0.00000004   -0.00000002    0.48443570
     atom    7 type  2   force =    -0.00000001    0.00000001   -0.37514044
     atom    8 type  2   force =     0.00000001   -0.00000001   -0.37515666
     atom    9 type  1   force =    -0.00000004    0.00000002    0.48442195
     atom   10 type  1   force =     0.00000004   -0.00000002    0.48444710
     atom   11 type  2   force =    -0.00000001    0.00000001   -0.37511757
     atom   12 type  2   force =     0.00000001   -0.00000001   -0.37512469
     The core correction contribution to forces
     atom    1 type  1   force =    -0.00000001    0.00000000    0.00799061
     atom    2 type  1   force =     0.00000001   -0.00000000    0.00798837
     atom    3 type  2   force =     0.00000000   -0.00000000    0.00020926
     atom    4 type  2   force =    -0.00000000    0.00000000    0.00020931
     atom    5 type  1   force =    -0.00000001    0.00000000    0.00799075
     atom    6 type  1   force =     0.00000001   -0.00000000    0.00798770
     atom    7 type  2   force =     0.00000000   -0.00000000    0.00020918
     atom    8 type  2   force =    -0.00000000    0.00000000    0.00020925
     atom    9 type  1   force =    -0.00000001    0.00000000    0.00798971
     atom   10 type  1   force =     0.00000001   -0.00000000    0.00798731
     atom   11 type  2   force =     0.00000000   -0.00000000    0.00020908
     atom   12 type  2   force =    -0.00000000    0.00000000    0.00020892
     The Hubbard contrib.    to forces
     atom    1 type  1   force =     0.00000000    0.00000000    0.00000000
     atom    2 type  1   force =     0.00000000    0.00000000    0.00000000
     atom    3 type  2   force =     0.00000000    0.00000000    0.00000000
     atom    4 type  2   force =     0.00000000    0.00000000    0.00000000
     atom    5 type  1   force =     0.00000000    0.00000000    0.00000000
     atom    6 type  1   force =     0.00000000    0.00000000    0.00000000
     atom    7 type  2   force =     0.00000000    0.00000000    0.00000000
     atom    8 type  2   force =     0.00000000    0.00000000    0.00000000
     atom    9 type  1   force =     0.00000000    0.00000000    0.00000000
     atom   10 type  1   force =     0.00000000    0.00000000    0.00000000
     atom   11 type  2   force =     0.00000000    0.00000000    0.00000000
     atom   12 type  2   force =     0.00000000    0.00000000    0.00000000
     The SCF correction term to forces
     atom    1 type  1   force =     0.00000000   -0.00000000    0.00010661
     atom    2 type  1   force =    -0.00000000    0.00000000   -0.00007481
     atom    3 type  2   force =    -0.00000000    0.00000000    0.00000687
     atom    4 type  2   force =    -0.00000000    0.00000000    0.00002343
     atom    5 type  1   force =     0.00000000   -0.00000000    0.00010512
     atom    6 type  1   force =    -0.00000000    0.00000000   -0.00004709
     atom    7 type  2   force =    -0.00000000    0.00000000    0.00000297
     atom    8 type  2   force =    -0.00000000    0.00000000    0.00002108
     atom    9 type  1   force =     0.00000000   -0.00000000   -0.00002363
     atom   10 type  1   force =    -0.00000000    0.00000000   -0.00006418
     atom   11 type  2   force =    -0.00000000    0.00000000   -0.00002676
     atom   12 type  2   force =    -0.00000000    0.00000000   -0.00003039

     Total force =     0.089256     Total SCF correction =     0.000194

     General routines

     Parallel routines

   This run was terminated on:  12:17:12  27Aug2025

   JOB DONE.