     Program PWSCF v.7.0 starts on 27Aug2025 at 21:53: 8

     K-points division:     npool     =      17

     Reading input from /home/jvc/QEspresso7.2/ZnO_database/scripts/cell113.in/ZnO-3.60-1.55-113.in
Warning: card &CELL ignored
Warning: card / ignored
Warning: card &FCP ignored
Warning: card / ignored
Warning: card &RISM ignored
Warning: card / ignored

     Current dimensions of program PWSCF are:
     Max number of different atomic species (ntypx) = 10
     Max number of k-points (npk) =  40000
     Max angular momentum in pseudopotentials (lmaxx) =  4
     file Zn.upf: wavefunction(s)  3D renormalized
     Found identity + (  0.0000  0.0000  0.3333) symmetry
     This is a supercell, fractional translations are disabled
     Message from routine setup:
     using ibrav=0 with symmetry is DISCOURAGED, use correct ibrav instead

     Subspace diagonalization in iterative solution of the eigenvalue problem:
     a serial algorithm will be used

     Using Slab Decomposition

     bravais-lattice index     =            0
     lattice parameter (alat)  =       6.7967  a.u.
     unit-cell volume          =    1264.2266 (a.u.)^3
     number of atoms/cell      =           12
     number of atomic types    =            2
     number of electrons       =       108.00
     number of Kohn-Sham states=           54
     kinetic-energy cutoff     =      50.0000  Ry
     charge density cutoff     =     400.0000  Ry
     scf convergence threshold =      1.0E-08
     mixing beta               =       0.3000
     number of iterations used =            8  plain     mixing
     Exchange-correlation= PBE
                           (   1   4   3   4   0   0   0)

     celldm(1)=   6.796739  celldm(2)=   0.000000  celldm(3)=   0.000000
     celldm(4)=   0.000000  celldm(5)=   0.000000  celldm(6)=   0.000000

     crystal axes: (cart. coord. in units of alat)
               a(1) = (   1.000000   0.000000   0.000000 )
               a(2) = (  -0.500000   0.866025   0.000000 )
               a(3) = (   0.000000   0.000000   4.649352 )

     reciprocal axes: (cart. coord. in units 2 pi/alat)
               b(1) = (  1.000000  0.577350 -0.000000 )
               b(2) = (  0.000000  1.154701  0.000000 )
               b(3) = (  0.000000 -0.000000  0.215084 )

     PseudoPot. # 1 for Zn read from file:
     /home/jvc/QEspresso7.2/ZnO_database/pseudos/Zn.upf
     MD5 check sum: 7f56cabf9682ed8c977c2f7d0c5985c5
     Pseudo is Ultrasoft + core correction, Zval = 12.0
     Generated using &quot;atomic&quot; code by A. Dal Corso  v.6.2.2
     Using radial grid of 1201 points,  6 beta functions with:
                l(1) =   0
                l(2) =   0
                l(3) =   1
                l(4) =   1
                l(5) =   2
                l(6) =   2
     Q(r) pseudized with 0 coefficients

     PseudoPot. # 2 for O  read from file:
     /home/jvc/QEspresso7.2/ZnO_database/pseudos/O.upf
     MD5 check sum: 91400c9766925bcf19f520983a725ff0
     Pseudo is Ultrasoft + core correction, Zval =  6.0
     Generated using &quot;atomic&quot; code by A. Dal Corso  v.6.3MaX
     Using radial grid of 1095 points,  4 beta functions with:
                l(1) =   0
                l(2) =   0
                l(3) =   1
                l(4) =   1
     Q(r) pseudized with 0 coefficients

     atomic species   valence    mass     pseudopotential
        Zn            12.00    65.38000     Zn( 1.00)
        O              6.00    15.99900     O ( 1.00)

      6 Sym. Ops. (no inversion) found

                                    s                        frac. trans.

      isym =  1     identity

 cryst.   s( 1) = (     1          0          0      )
                  (     0          1          0      )
                  (     0          0          1      )

 cart.    s( 1) = (  1.0000000  0.0000000  0.0000000 )
                  (  0.0000000  1.0000000  0.0000000 )
                  (  0.0000000  0.0000000  1.0000000 )

      isym =  2     120 deg rotation - cryst. axis [0,0,1]

[...]

      isym =  3     120 deg rotation - cryst. axis [0,0,-1]

[...]

      isym =  4     inv. 180 deg rotation - cart. axis [1,0,0]

[...]

      isym =  5     inv. 180 deg rotation - cryst. axis [0,1,0]

[...]

      isym =  6     inv. 180 deg rotation - cryst. axis [1,1,0]

 cryst.   s( 6) = (     0         -1          0      )
                  (    -1          0          0      )
                  (     0          0          1      )

 cart.    s( 6) = (  0.5000000 -0.8660254  0.0000000 )
                  ( -0.8660254 -0.5000000  0.0000000 )
                  (  0.0000000  0.0000000  1.0000000 )

   Cartesian axes

     site n.     atom                  positions (alat units)
         1           Zn  tau(   1) = (   0.5000000   0.2886751   0.7758739  )
         2           Zn  tau(   2) = (  -0.0000000   0.5773503   0.0009819  )
         3           O   tau(   3) = (   0.5000000   0.2886751   1.3633085  )
         4           O   tau(   4) = (  -0.0000000   0.5773503   0.5884164  )
         5           Zn  tau(   5) = (   0.5000000   0.2886751   2.3256580  )
         6           Zn  tau(   6) = (  -0.0000000   0.5773503   1.5507659  )
         7           O   tau(   7) = (   0.5000000   0.2886751   2.9130925  )
         8           O   tau(   8) = (  -0.0000000   0.5773503   2.1382005  )
         9           Zn  tau(   9) = (   0.5000000   0.2886751   3.8754420  )
        10           Zn  tau(  10) = (  -0.0000000   0.5773503   3.1005500  )
        11           O   tau(  11) = (   0.5000000   0.2886751   4.4628765  )
        12           O   tau(  12) = (  -0.0000000   0.5773503   3.6879845  )

   Crystallographic axes

     site n.     atom                  positions (cryst. coord.)
         1           Zn  tau(   1) = (  0.6666667  0.3333333  0.1668779  )
         2           Zn  tau(   2) = (  0.3333333  0.6666667  0.0002112  )
         3           O   tau(   3) = (  0.6666667  0.3333333  0.2932255  )
         4           O   tau(   4) = (  0.3333333  0.6666667  0.1265588  )
         5           Zn  tau(   5) = (  0.6666667  0.3333333  0.5002112  )
         6           Zn  tau(   6) = (  0.3333333  0.6666667  0.3335445  )
         7           O   tau(   7) = (  0.6666667  0.3333333  0.6265588  )
         8           O   tau(   8) = (  0.3333333  0.6666667  0.4598921  )
         9           Zn  tau(   9) = (  0.6666667  0.3333333  0.8335445  )
        10           Zn  tau(  10) = (  0.3333333  0.6666667  0.6668779  )
        11           O   tau(  11) = (  0.6666667  0.3333333  0.9598921  )
        12           O   tau(  12) = (  0.3333333  0.6666667  0.7932255  )

     number of k points=    34
                       cart. coord. in units 2pi/alat
        k(    1) = (   0.0000000   0.0000000   0.0000000), wk =   0.0092593
        k(    2) = (   0.0000000   0.0000000   0.0358473), wk =   0.0185185
        k(    3) = (   0.0000000   0.0000000   0.0716946), wk =   0.0185185
        k(    4) = (   0.0000000   0.0000000  -0.1075419), wk =   0.0092593
        k(    5) = (   0.0000000   0.1924501   0.0000000), wk =   0.0555556
        k(    6) = (   0.0000000   0.1924501   0.0358473), wk =   0.0555556
        k(    7) = (   0.0000000   0.1924501   0.0716946), wk =   0.0555556
        k(    8) = (   0.0000000   0.1924501  -0.1075419), wk =   0.0555556
        k(    9) = (   0.0000000   0.3849002   0.0000000), wk =   0.0555556
        k(   10) = (   0.0000000   0.3849002   0.0358473), wk =   0.0555556
        k(   11) = (   0.0000000   0.3849002   0.0716946), wk =   0.0555556
        k(   12) = (   0.0000000   0.3849002  -0.1075419), wk =   0.0555556
        k(   13) = (   0.0000000  -0.5773503   0.0000000), wk =   0.0277778
        k(   14) = (   0.0000000  -0.5773503   0.0358473), wk =   0.0555556
        k(   15) = (   0.0000000  -0.5773503   0.0716946), wk =   0.0555556
        k(   16) = (   0.0000000  -0.5773503  -0.1075419), wk =   0.0277778
        k(   17) = (   0.1666667   0.2886751   0.0000000), wk =   0.0555556
        k(   18) = (   0.1666667   0.2886751   0.0358473), wk =   0.1111111
        k(   19) = (   0.1666667   0.2886751   0.0716946), wk =   0.1111111
        k(   20) = (   0.1666667   0.2886751  -0.1075419), wk =   0.0555556
        k(   21) = (   0.1666667   0.4811252   0.0000000), wk =   0.1111111
        k(   22) = (   0.1666667   0.4811252   0.0358473), wk =   0.1111111
        k(   23) = (   0.1666667   0.4811252   0.0716946), wk =   0.1111111
        k(   24) = (   0.1666667   0.4811252  -0.1075419), wk =   0.1111111
        k(   25) = (   0.3333333   0.5773503   0.0000000), wk =   0.0185185
        k(   26) = (   0.3333333   0.5773503   0.0358473), wk =   0.0370370
        k(   27) = (   0.3333333   0.5773503   0.0716946), wk =   0.0370370
        k(   28) = (   0.3333333   0.5773503  -0.1075419), wk =   0.0185185
        k(   29) = (   0.0000000  -0.1924501   0.0358473), wk =   0.0555556
        k(   30) = (   0.0000000  -0.1924501   0.0716946), wk =   0.0555556
        k(   31) = (   0.0000000  -0.3849002   0.0358473), wk =   0.0555556
        k(   32) = (   0.0000000  -0.3849002   0.0716946), wk =   0.0555556
        k(   33) = (  -0.1666667  -0.4811252   0.0358473), wk =   0.1111111
        k(   34) = (  -0.1666667  -0.4811252   0.0716946), wk =   0.1111111

                       cryst. coord.
        k(    1) = (   0.0000000   0.0000000   0.0000000), wk =   0.0092593
        k(    2) = (   0.0000000   0.0000000   0.1666667), wk =   0.0185185
        k(    3) = (   0.0000000   0.0000000   0.3333333), wk =   0.0185185
        k(    4) = (   0.0000000   0.0000000  -0.5000000), wk =   0.0092593
        k(    5) = (   0.0000000   0.1666667   0.0000000), wk =   0.0555556
        k(    6) = (   0.0000000   0.1666667   0.1666667), wk =   0.0555556
        k(    7) = (   0.0000000   0.1666667   0.3333333), wk =   0.0555556
        k(    8) = (   0.0000000   0.1666667  -0.5000000), wk =   0.0555556
        k(    9) = (   0.0000000   0.3333333   0.0000000), wk =   0.0555556
        k(   10) = (   0.0000000   0.3333333   0.1666667), wk =   0.0555556
        k(   11) = (   0.0000000   0.3333333   0.3333333), wk =   0.0555556
        k(   12) = (   0.0000000   0.3333333  -0.5000000), wk =   0.0555556
        k(   13) = (   0.0000000  -0.5000000   0.0000000), wk =   0.0277778
        k(   14) = (   0.0000000  -0.5000000   0.1666667), wk =   0.0555556
        k(   15) = (   0.0000000  -0.5000000   0.3333333), wk =   0.0555556
        k(   16) = (   0.0000000  -0.5000000  -0.5000000), wk =   0.0277778
        k(   17) = (   0.1666667   0.1666667   0.0000000), wk =   0.0555556
        k(   18) = (   0.1666667   0.1666667   0.1666667), wk =   0.1111111
        k(   19) = (   0.1666667   0.1666667   0.3333333), wk =   0.1111111
        k(   20) = (   0.1666667   0.1666667  -0.5000000), wk =   0.0555556
        k(   21) = (   0.1666667   0.3333333   0.0000000), wk =   0.1111111
        k(   22) = (   0.1666667   0.3333333   0.1666667), wk =   0.1111111
        k(   23) = (   0.1666667   0.3333333   0.3333333), wk =   0.1111111
        k(   24) = (   0.1666667   0.3333333  -0.5000000), wk =   0.1111111
        k(   25) = (   0.3333333   0.3333333   0.0000000), wk =   0.0185185
        k(   26) = (   0.3333333   0.3333333   0.1666667), wk =   0.0370370
        k(   27) = (   0.3333333   0.3333333   0.3333333), wk =   0.0370370
        k(   28) = (   0.3333333   0.3333333  -0.5000000), wk =   0.0185185
        k(   29) = (   0.0000000  -0.1666667   0.1666667), wk =   0.0555556
        k(   30) = (   0.0000000  -0.1666667   0.3333333), wk =   0.0555556
        k(   31) = (   0.0000000  -0.3333333   0.1666667), wk =   0.0555556
        k(   32) = (   0.0000000  -0.3333333   0.3333333), wk =   0.0555556
        k(   33) = (  -0.1666667  -0.3333333   0.1666667), wk =   0.1111111
        k(   34) = (  -0.1666667  -0.3333333   0.3333333), wk =   0.1111111

     Check: negative core charge=   -0.000002

     Initial potential from superposition of free atoms

     starting charge     107.9776, renormalised to     108.0000
     Starting wfcs are   78 randomized atomic wfcs

     Self-consistent Calculation

     iteration #  1     ecut=    50.00 Ry     beta= 0.30
     Davidson diagonalization with overlap

     ethr =  1.00E-02,  avg # of iterations =  1.3

     total energy              =   -1084.11432931 Ry
     estimated scf accuracy    <       2.45839473 Ry

[...]

     total energy              =   -1084.70577632 Ry
     estimated scf accuracy    <       0.00000002 Ry

     iteration # 42     ecut=    50.00 Ry     beta= 0.30
     Davidson diagonalization with overlap

     ethr =  2.13E-11,  avg # of iterations =  7.1

     End of self-consistent calculation

          k = 0.0000 0.0000 0.0000 (  7613 PWs)   bands (ev):

   -12.5457 -12.4417 -12.4416 -12.2298 -12.2297 -12.1221  -1.0951  -1.0950
    -1.0572  -1.0550  -1.0550  -1.0386  -1.0386  -1.0386  -1.0386  -0.9774
    -0.9774  -0.9774  -0.9774  -0.9311  -0.9311  -0.9306  -0.9306  -0.5436
    -0.5436  -0.5012  -0.5012  -0.5012  -0.5012  -0.4378  -0.4378  -0.4378
    -0.4378  -0.4180  -0.4180  -0.3929   0.1139   1.1277   1.1277   2.4680
     2.4680   3.1789   3.1789   3.3311   3.3311   3.3312   3.3312   3.6275
     3.6275   3.6275   3.6275   3.7713   3.7713   3.7933

     occupation numbers
     1.0000   1.0000   1.0000   1.0000   1.0000   1.0000   1.0000   1.0000
     1.0000   1.0000   1.0000   1.0000   1.0000   1.0000   1.0000   1.0000
     1.0000   1.0000   1.0000   1.0000   1.0000   1.0000   1.0000   1.0000
     1.0000   1.0000   1.0000   1.0000   1.0000   1.0000   1.0000   1.0000
     1.0000   1.0000   1.0000   1.0000   1.0000   1.0000   1.0000   1.0000
     1.0000   1.0000   1.0000   1.0000   1.0000   1.0000   1.0000   1.0000
     1.0000   1.0000   1.0000   1.0000   1.0000   1.0000

[...]

          k = 0.0000-0.3849 0.0717 (  7539 PWs)   bands (ev):

[...]

          k =-0.1667-0.4811 0.0358 (  7531 PWs)   bands (ev):

[...]

          k =-0.1667-0.4811 0.0717 (  7545 PWs)   bands (ev):

   -12.1873 -12.1741 -12.1309 -12.1070 -12.0689 -12.0583  -1.0551  -1.0430
    -1.0390  -1.0266  -0.9426  -0.9367  -0.8551  -0.8401  -0.7991  -0.7834
    -0.7396  -0.7342  -0.7282  -0.7245  -0.6732  -0.6406  -0.6388  -0.5991
    -0.5206  -0.5052  -0.4772  -0.4677  -0.4631  -0.4592  -0.3878  -0.3860
    -0.3582  -0.3364  -0.2966  -0.2847   0.6809   0.7058   0.7487   0.8336
     1.0453   1.1221   1.7951   1.9163   2.0960   2.2942   2.3308   2.5083
     2.8844   2.9272   2.9589   3.0309   3.1014   3.1085

     occupation numbers
     1.0000   1.0000   1.0000   1.0000   1.0000   1.0000   1.0000   1.0000
     1.0000   1.0000   1.0000   1.0000   1.0000   1.0000   1.0000   1.0000
     1.0000   1.0000   1.0000   1.0000   1.0000   1.0000   1.0000   1.0000
     1.0000   1.0000   1.0000   1.0000   1.0000   1.0000   1.0000   1.0000
     1.0000   1.0000   1.0000   1.0000   1.0000   1.0000   1.0000   1.0000
     1.0000   1.0000   1.0000   1.0000   1.0000   1.0000   1.0000   1.0000
     1.0000   1.0000   1.0000   1.0000   1.0000   1.0000

     highest occupied level (ev):     3.7933

!    total energy              =   -1084.70577633 Ry
     estimated scf accuracy    <          1.8E-09 Ry

     The total energy is the sum of the following terms:
     one-electron contribution =    -546.09469908 Ry
     hartree contribution      =     385.04865989 Ry
     xc contribution           =    -327.33123932 Ry
     ewald contribution        =    -596.32849782 Ry

     convergence has been achieved in  42 iterations

     Forces acting on atoms (cartesian axes, Ry/au):

     atom    1 type  1   force =     0.00000000    0.00000000    0.00074184
     atom    2 type  1   force =     0.00000000    0.00000000    0.00072929
     atom    3 type  2   force =     0.00000000    0.00000000   -0.00072813
     atom    4 type  2   force =     0.00000000    0.00000000   -0.00072293
     atom    5 type  1   force =     0.00000000   -0.00000000    0.00068984
     atom    6 type  1   force =     0.00000000   -0.00000000    0.00072209
     atom    7 type  2   force =     0.00000000    0.00000000   -0.00072826
     atom    8 type  2   force =     0.00000000   -0.00000000   -0.00073084
     atom    9 type  1   force =     0.00000000    0.00000000    0.00073337
     atom   10 type  1   force =     0.00000000    0.00000000    0.00074082
     atom   11 type  2   force =     0.00000000    0.00000000   -0.00072174
     atom   12 type  2   force =     0.00000000    0.00000000   -0.00072535
     The non-local contrib.  to forces
     atom    1 type  1   force =     0.00000000   -0.00000000   -0.10790237
     atom    2 type  1   force =     0.00000000    0.00000000   -0.10791338
     atom    3 type  2   force =     0.00000000   -0.00000000   -0.09807278
     atom    4 type  2   force =     0.00000000    0.00000000   -0.09807657
     atom    5 type  1   force =    -0.00000000   -0.00000000   -0.10793319
     atom    6 type  1   force =     0.00000000   -0.00000000   -0.10790840
     atom    7 type  2   force =     0.00000000    0.00000000   -0.09806901
     atom    8 type  2   force =     0.00000000   -0.00000000   -0.09806134
     atom    9 type  1   force =     0.00000000   -0.00000000   -0.10790355
     atom   10 type  1   force =     0.00000000   -0.00000000   -0.10790229
     atom   11 type  2   force =     0.00000000   -0.00000000   -0.09806946
     atom   12 type  2   force =     0.00000000    0.00000000   -0.09808030
     The ionic contribution  to forces
     atom    1 type  1   force =    -0.00000000    0.00000000   -0.66056190
     atom    2 type  1   force =     0.00000000   -0.00000000   -0.66056187
     atom    3 type  2   force =    -0.00000000    0.00000000    0.66056189
     atom    4 type  2   force =     0.00000000   -0.00000000    0.66056188
     atom    5 type  1   force =    -0.00000000    0.00000000   -0.66056187
     atom    6 type  1   force =     0.00000000   -0.00000000   -0.66056190
     atom    7 type  2   force =    -0.00000000    0.00000000    0.66056188
     atom    8 type  2   force =     0.00000000   -0.00000000    0.66056190
     atom    9 type  1   force =    -0.00000000    0.00000000   -0.66056190
     atom   10 type  1   force =     0.00000000   -0.00000000   -0.66056190
     atom   11 type  2   force =    -0.00000000    0.00000000    0.66056190
     atom   12 type  2   force =     0.00000000   -0.00000000    0.66056189
     The local contribution  to forces
     atom    1 type  1   force =    -0.00000005    0.00000003    0.76275872
     atom    2 type  1   force =     0.00000005   -0.00000003    0.76278057
     atom    3 type  2   force =    -0.00000001    0.00000001   -0.56407382
     atom    4 type  2   force =     0.00000001   -0.00000001   -0.56407547
     atom    5 type  1   force =    -0.00000005    0.00000003    0.76283600
     atom    6 type  1   force =     0.00000005   -0.00000003    0.76278020
     atom    7 type  2   force =    -0.00000001    0.00000001   -0.56407472
     atom    8 type  2   force =     0.00000001   -0.00000001   -0.56406304
     atom    9 type  1   force =    -0.00000005    0.00000003    0.76277030
     atom   10 type  1   force =     0.00000005   -0.00000003    0.76275253
     atom   11 type  2   force =    -0.00000001    0.00000001   -0.56407259
     atom   12 type  2   force =     0.00000001   -0.00000001   -0.56408028
     The core correction contribution to forces
     atom    1 type  1   force =    -0.00000001    0.00000000    0.00641860
     atom    2 type  1   force =     0.00000001   -0.00000000    0.00641856
     atom    3 type  2   force =     0.00000000   -0.00000000    0.00085890
     atom    4 type  2   force =    -0.00000000    0.00000000    0.00085895
     atom    5 type  1   force =    -0.00000001    0.00000000    0.00641841
     atom    6 type  1   force =     0.00000001   -0.00000000    0.00641851
     atom    7 type  2   force =     0.00000000   -0.00000000    0.00085884
     atom    8 type  2   force =    -0.00000000    0.00000000    0.00085874
     atom    9 type  1   force =    -0.00000001    0.00000000    0.00641838
     atom   10 type  1   force =     0.00000001   -0.00000000    0.00641911
     atom   11 type  2   force =     0.00000000   -0.00000000    0.00085886
     atom   12 type  2   force =    -0.00000000    0.00000000    0.00085899
     The Hubbard contrib.    to forces
     atom    1 type  1   force =     0.00000000    0.00000000    0.00000000
     atom    2 type  1   force =     0.00000000    0.00000000    0.00000000
     atom    3 type  2   force =     0.00000000    0.00000000    0.00000000
     atom    4 type  2   force =     0.00000000    0.00000000    0.00000000
     atom    5 type  1   force =     0.00000000    0.00000000    0.00000000
     atom    6 type  1   force =     0.00000000    0.00000000    0.00000000
     atom    7 type  2   force =     0.00000000    0.00000000    0.00000000
     atom    8 type  2   force =     0.00000000    0.00000000    0.00000000
     atom    9 type  1   force =     0.00000000    0.00000000    0.00000000
     atom   10 type  1   force =     0.00000000    0.00000000    0.00000000
     atom   11 type  2   force =     0.00000000    0.00000000    0.00000000
     atom   12 type  2   force =     0.00000000    0.00000000    0.00000000
     The SCF correction term to forces
     atom    1 type  1   force =     0.00000000   -0.00000000    0.00002979
     atom    2 type  1   force =    -0.00000000    0.00000000    0.00000641
     atom    3 type  2   force =     0.00000000   -0.00000000   -0.00000131
     atom    4 type  2   force =    -0.00000000    0.00000000    0.00000929
     atom    5 type  1   force =     0.00000000   -0.00000000   -0.00006850
     atom    6 type  1   force =    -0.00000000    0.00000000   -0.00000532
     atom    7 type  2   force =     0.00000000   -0.00000000   -0.00000424
     atom    8 type  2   force =    -0.00000000    0.00000000   -0.00002609
     atom    9 type  1   force =     0.00000000   -0.00000000    0.00001114
     atom   10 type  1   force =    -0.00000000    0.00000000    0.00003436
     atom   11 type  2   force =     0.00000000   -0.00000000    0.00000057
     atom   12 type  2   force =    -0.00000000    0.00000000    0.00001537

     Total force =     0.002516     Total SCF correction =     0.000089

     General routines

     Parallel routines

   This run was terminated on:  22: 1:17  27Aug2025

   JOB DONE.