     Program PWSCF v.7.0 starts on 27Aug2025 at 20:50:47

     K-points division:     npool     =      17

     Reading input from /home/jvc/QEspresso7.2/ZnO_database/scripts/cell113.in/ZnO-3.53-1.65-113.in
Warning: card &CELL ignored
Warning: card / ignored
Warning: card &FCP ignored
Warning: card / ignored
Warning: card &RISM ignored
Warning: card / ignored

     Current dimensions of program PWSCF are:
     Max number of different atomic species (ntypx) = 10
     Max number of k-points (npk) =  40000
     Max angular momentum in pseudopotentials (lmaxx) =  4
     file Zn.upf: wavefunction(s)  3D renormalized
     Found identity + (  0.0000  0.0000  0.3333) symmetry
     This is a supercell, fractional translations are disabled
     Message from routine setup:
     using ibrav=0 with symmetry is DISCOURAGED, use correct ibrav instead

     Subspace diagonalization in iterative solution of the eigenvalue problem:
     a serial algorithm will be used

     Using Slab Decomposition

     bravais-lattice index     =            0
     lattice parameter (alat)  =       6.6732  a.u.
     unit-cell volume          =    1271.2971 (a.u.)^3
     number of atoms/cell      =           12
     number of atomic types    =            2
     number of electrons       =       108.00
     number of Kohn-Sham states=           54
     kinetic-energy cutoff     =      50.0000  Ry
     charge density cutoff     =     400.0000  Ry
     scf convergence threshold =      1.0E-08
     mixing beta               =       0.3000
     number of iterations used =            8  plain     mixing
     Exchange-correlation= PBE
                           (   1   4   3   4   0   0   0)

     celldm(1)=   6.673162  celldm(2)=   0.000000  celldm(3)=   0.000000
     celldm(4)=   0.000000  celldm(5)=   0.000000  celldm(6)=   0.000000

     crystal axes: (cart. coord. in units of alat)
               a(1) = (   1.000000   0.000000   0.000000 )
               a(2) = (  -0.500000   0.866025   0.000000 )
               a(3) = (   0.000000   0.000000   4.939937 )

     reciprocal axes: (cart. coord. in units 2 pi/alat)
               b(1) = (  1.000000  0.577350 -0.000000 )
               b(2) = (  0.000000  1.154701  0.000000 )
               b(3) = (  0.000000 -0.000000  0.202432 )

     PseudoPot. # 1 for Zn read from file:
     /home/jvc/QEspresso7.2/ZnO_database/pseudos/Zn.upf
     MD5 check sum: 7f56cabf9682ed8c977c2f7d0c5985c5
     Pseudo is Ultrasoft + core correction, Zval = 12.0
     Generated using &quot;atomic&quot; code by A. Dal Corso  v.6.2.2
     Using radial grid of 1201 points,  6 beta functions with:
                l(1) =   0
                l(2) =   0
                l(3) =   1
                l(4) =   1
                l(5) =   2
                l(6) =   2
     Q(r) pseudized with 0 coefficients

     PseudoPot. # 2 for O  read from file:
     /home/jvc/QEspresso7.2/ZnO_database/pseudos/O.upf
     MD5 check sum: 91400c9766925bcf19f520983a725ff0
     Pseudo is Ultrasoft + core correction, Zval =  6.0
     Generated using &quot;atomic&quot; code by A. Dal Corso  v.6.3MaX
     Using radial grid of 1095 points,  4 beta functions with:
                l(1) =   0
                l(2) =   0
                l(3) =   1
                l(4) =   1
     Q(r) pseudized with 0 coefficients

     atomic species   valence    mass     pseudopotential
        Zn            12.00    65.38000     Zn( 1.00)
        O              6.00    15.99900     O ( 1.00)

      6 Sym. Ops. (no inversion) found

                                    s                        frac. trans.

      isym =  1     identity

 cryst.   s( 1) = (     1          0          0      )
                  (     0          1          0      )
                  (     0          0          1      )

 cart.    s( 1) = (  1.0000000  0.0000000  0.0000000 )
                  (  0.0000000  1.0000000  0.0000000 )
                  (  0.0000000  0.0000000  1.0000000 )

      isym =  2     120 deg rotation - cryst. axis [0,0,1]

[...]

      isym =  3     120 deg rotation - cryst. axis [0,0,-1]

[...]

      isym =  4     inv. 180 deg rotation - cart. axis [1,0,0]

[...]

      isym =  5     inv. 180 deg rotation - cryst. axis [0,1,0]

[...]

      isym =  6     inv. 180 deg rotation - cryst. axis [1,1,0]

 cryst.   s( 6) = (     0         -1          0      )
                  (    -1          0          0      )
                  (     0          0          1      )

 cart.    s( 6) = (  0.5000000 -0.8660254  0.0000000 )
                  ( -0.8660254 -0.5000000  0.0000000 )
                  (  0.0000000  0.0000000  1.0000000 )

   Cartesian axes

     site n.     atom                  positions (alat units)
         1           Zn  tau(   1) = (   0.5000000   0.2886751   0.8243661  )
         2           Zn  tau(   2) = (  -0.0000000   0.5773503   0.0010433  )
         3           O   tau(   3) = (   0.5000000   0.2886751   1.4485152  )
         4           O   tau(   4) = (  -0.0000000   0.5773503   0.6251925  )
         5           Zn  tau(   5) = (   0.5000000   0.2886751   2.4710116  )
         6           Zn  tau(   6) = (  -0.0000000   0.5773503   1.6476888  )
         7           O   tau(   7) = (   0.5000000   0.2886751   3.0951608  )
         8           O   tau(   8) = (  -0.0000000   0.5773503   2.2718380  )
         9           Zn  tau(   9) = (   0.5000000   0.2886751   4.1176571  )
        10           Zn  tau(  10) = (  -0.0000000   0.5773503   3.2943343  )
        11           O   tau(  11) = (   0.5000000   0.2886751   4.7418063  )
        12           O   tau(  12) = (  -0.0000000   0.5773503   3.9184835  )

   Crystallographic axes

     site n.     atom                  positions (cryst. coord.)
         1           Zn  tau(   1) = (  0.6666667  0.3333333  0.1668779  )
         2           Zn  tau(   2) = (  0.3333333  0.6666667  0.0002112  )
         3           O   tau(   3) = (  0.6666667  0.3333333  0.2932255  )
         4           O   tau(   4) = (  0.3333333  0.6666667  0.1265588  )
         5           Zn  tau(   5) = (  0.6666667  0.3333333  0.5002112  )
         6           Zn  tau(   6) = (  0.3333333  0.6666667  0.3335445  )
         7           O   tau(   7) = (  0.6666667  0.3333333  0.6265588  )
         8           O   tau(   8) = (  0.3333333  0.6666667  0.4598921  )
         9           Zn  tau(   9) = (  0.6666667  0.3333333  0.8335445  )
        10           Zn  tau(  10) = (  0.3333333  0.6666667  0.6668779  )
        11           O   tau(  11) = (  0.6666667  0.3333333  0.9598921  )
        12           O   tau(  12) = (  0.3333333  0.6666667  0.7932255  )

     number of k points=    34
                       cart. coord. in units 2pi/alat
        k(    1) = (   0.0000000   0.0000000   0.0000000), wk =   0.0092593
        k(    2) = (   0.0000000   0.0000000   0.0337386), wk =   0.0185185
        k(    3) = (   0.0000000   0.0000000   0.0674772), wk =   0.0185185
        k(    4) = (   0.0000000   0.0000000  -0.1012159), wk =   0.0092593
        k(    5) = (   0.0000000   0.1924501   0.0000000), wk =   0.0555556
        k(    6) = (   0.0000000   0.1924501   0.0337386), wk =   0.0555556
        k(    7) = (   0.0000000   0.1924501   0.0674772), wk =   0.0555556
        k(    8) = (   0.0000000   0.1924501  -0.1012159), wk =   0.0555556
        k(    9) = (   0.0000000   0.3849002   0.0000000), wk =   0.0555556
        k(   10) = (   0.0000000   0.3849002   0.0337386), wk =   0.0555556
        k(   11) = (   0.0000000   0.3849002   0.0674772), wk =   0.0555556
        k(   12) = (   0.0000000   0.3849002  -0.1012159), wk =   0.0555556
        k(   13) = (   0.0000000  -0.5773503   0.0000000), wk =   0.0277778
        k(   14) = (   0.0000000  -0.5773503   0.0337386), wk =   0.0555556
        k(   15) = (   0.0000000  -0.5773503   0.0674772), wk =   0.0555556
        k(   16) = (   0.0000000  -0.5773503  -0.1012159), wk =   0.0277778
        k(   17) = (   0.1666667   0.2886751   0.0000000), wk =   0.0555556
        k(   18) = (   0.1666667   0.2886751   0.0337386), wk =   0.1111111
        k(   19) = (   0.1666667   0.2886751   0.0674772), wk =   0.1111111
        k(   20) = (   0.1666667   0.2886751  -0.1012159), wk =   0.0555556
        k(   21) = (   0.1666667   0.4811252   0.0000000), wk =   0.1111111
        k(   22) = (   0.1666667   0.4811252   0.0337386), wk =   0.1111111
        k(   23) = (   0.1666667   0.4811252   0.0674772), wk =   0.1111111
        k(   24) = (   0.1666667   0.4811252  -0.1012159), wk =   0.1111111
        k(   25) = (   0.3333333   0.5773503   0.0000000), wk =   0.0185185
        k(   26) = (   0.3333333   0.5773503   0.0337386), wk =   0.0370370
        k(   27) = (   0.3333333   0.5773503   0.0674772), wk =   0.0370370
        k(   28) = (   0.3333333   0.5773503  -0.1012159), wk =   0.0185185
        k(   29) = (   0.0000000  -0.1924501   0.0337386), wk =   0.0555556
        k(   30) = (   0.0000000  -0.1924501   0.0674772), wk =   0.0555556
        k(   31) = (   0.0000000  -0.3849002   0.0337386), wk =   0.0555556
        k(   32) = (   0.0000000  -0.3849002   0.0674772), wk =   0.0555556
        k(   33) = (  -0.1666667  -0.4811252   0.0337386), wk =   0.1111111
        k(   34) = (  -0.1666667  -0.4811252   0.0674772), wk =   0.1111111

                       cryst. coord.
        k(    1) = (   0.0000000   0.0000000   0.0000000), wk =   0.0092593
        k(    2) = (   0.0000000   0.0000000   0.1666667), wk =   0.0185185
        k(    3) = (   0.0000000   0.0000000   0.3333333), wk =   0.0185185
        k(    4) = (   0.0000000   0.0000000  -0.5000000), wk =   0.0092593
        k(    5) = (   0.0000000   0.1666667   0.0000000), wk =   0.0555556
        k(    6) = (   0.0000000   0.1666667   0.1666667), wk =   0.0555556
        k(    7) = (   0.0000000   0.1666667   0.3333333), wk =   0.0555556
        k(    8) = (   0.0000000   0.1666667  -0.5000000), wk =   0.0555556
        k(    9) = (   0.0000000   0.3333333   0.0000000), wk =   0.0555556
        k(   10) = (   0.0000000   0.3333333   0.1666667), wk =   0.0555556
        k(   11) = (   0.0000000   0.3333333   0.3333333), wk =   0.0555556
        k(   12) = (   0.0000000   0.3333333  -0.5000000), wk =   0.0555556
        k(   13) = (   0.0000000  -0.5000000   0.0000000), wk =   0.0277778
        k(   14) = (   0.0000000  -0.5000000   0.1666667), wk =   0.0555556
        k(   15) = (   0.0000000  -0.5000000   0.3333333), wk =   0.0555556
        k(   16) = (   0.0000000  -0.5000000  -0.5000000), wk =   0.0277778
        k(   17) = (   0.1666667   0.1666667   0.0000000), wk =   0.0555556
        k(   18) = (   0.1666667   0.1666667   0.1666667), wk =   0.1111111
        k(   19) = (   0.1666667   0.1666667   0.3333333), wk =   0.1111111
        k(   20) = (   0.1666667   0.1666667  -0.5000000), wk =   0.0555556
        k(   21) = (   0.1666667   0.3333333   0.0000000), wk =   0.1111111
        k(   22) = (   0.1666667   0.3333333   0.1666667), wk =   0.1111111
        k(   23) = (   0.1666667   0.3333333   0.3333333), wk =   0.1111111
        k(   24) = (   0.1666667   0.3333333  -0.5000000), wk =   0.1111111
        k(   25) = (   0.3333333   0.3333333   0.0000000), wk =   0.0185185
        k(   26) = (   0.3333333   0.3333333   0.1666667), wk =   0.0370370
        k(   27) = (   0.3333333   0.3333333   0.3333333), wk =   0.0370370
        k(   28) = (   0.3333333   0.3333333  -0.5000000), wk =   0.0185185
        k(   29) = (   0.0000000  -0.1666667   0.1666667), wk =   0.0555556
        k(   30) = (   0.0000000  -0.1666667   0.3333333), wk =   0.0555556
        k(   31) = (   0.0000000  -0.3333333   0.1666667), wk =   0.0555556
        k(   32) = (   0.0000000  -0.3333333   0.3333333), wk =   0.0555556
        k(   33) = (  -0.1666667  -0.3333333   0.1666667), wk =   0.1111111
        k(   34) = (  -0.1666667  -0.3333333   0.3333333), wk =   0.1111111

     Check: negative core charge=   -0.000003

     Initial potential from superposition of free atoms

     starting charge     107.9776, renormalised to     108.0000
     Starting wfcs are   78 randomized atomic wfcs

     Self-consistent Calculation

     iteration #  1     ecut=    50.00 Ry     beta= 0.30
     Davidson diagonalization with overlap

     ethr =  1.00E-02,  avg # of iterations =  1.3

     total energy              =   -1084.10860723 Ry
     estimated scf accuracy    <       2.46469225 Ry

[...]

     c_bands:  1 eigenvalues not converged
     ethr =  2.65E-04,  avg # of iterations = 10.6

[...]

     c_bands:  1 eigenvalues not converged
     c_bands:  1 eigenvalues not converged
     ethr =  1.21E-10,  avg # of iterations = 14.4

[...]

     total energy              =   -1084.70055063 Ry
     estimated scf accuracy    <       0.00000064 Ry

     iteration # 39     ecut=    50.00 Ry     beta= 0.30
     Davidson diagonalization with overlap

     ethr =  1.21E-10,  avg # of iterations =  7.3

     End of self-consistent calculation

          k = 0.0000 0.0000 0.0000 (  7605 PWs)   bands (ev):

   -12.5774 -12.4891 -12.4891 -12.3085 -12.3085 -12.2160  -1.1289  -1.1289
    -1.1202  -1.1202  -1.1111  -1.1111  -1.1111  -1.1111  -1.1064  -1.0598
    -1.0598  -1.0598  -1.0598  -1.0261  -1.0261  -0.9607  -0.9607  -0.5925
    -0.5925  -0.5609  -0.5609  -0.5609  -0.5609  -0.5575  -0.5109  -0.5109
    -0.5109  -0.5109  -0.4922  -0.4922   0.1351   1.0137   1.0137   2.3561
     2.3561   3.2640   3.2640   3.3857   3.3857   3.3857   3.3857   3.6256
     3.6256   3.6256   3.6256   3.6832   3.7438   3.7438

     occupation numbers
     1.0000   1.0000   1.0000   1.0000   1.0000   1.0000   1.0000   1.0000
     1.0000   1.0000   1.0000   1.0000   1.0000   1.0000   1.0000   1.0000
     1.0000   1.0000   1.0000   1.0000   1.0000   1.0000   1.0000   1.0000
     1.0000   1.0000   1.0000   1.0000   1.0000   1.0000   1.0000   1.0000
     1.0000   1.0000   1.0000   1.0000   1.0000   1.0000   1.0000   1.0000
     1.0000   1.0000   1.0000   1.0000   1.0000   1.0000   1.0000   1.0000
     1.0000   1.0000   1.0000   1.0000   1.0000   1.0000

[...]

          k = 0.0000-0.3849 0.0675 (  7610 PWs)   bands (ev):

[...]

          k =-0.1667-0.4811 0.0337 (  7563 PWs)   bands (ev):

[...]

          k =-0.1667-0.4811 0.0675 (  7561 PWs)   bands (ev):

   -12.2083 -12.1975 -12.1618 -12.1417 -12.1086 -12.0993  -1.0938  -1.0890
    -1.0746  -1.0464  -0.9806  -0.9736  -0.9032  -0.8958  -0.8600  -0.8471
    -0.7764  -0.7702  -0.7680  -0.7615  -0.7296  -0.7188  -0.7031  -0.6886
    -0.5862  -0.5696  -0.5330  -0.5251  -0.5197  -0.5149  -0.4495  -0.4469
    -0.4227  -0.4005  -0.3558  -0.3416   0.6344   0.6525   0.6961   0.7729
     0.9580   1.0228   1.8018   1.9273   2.0856   2.2618   2.2640   2.4444
     2.7761   2.7826   2.8540   2.9542   2.9594   3.0069

     occupation numbers
     1.0000   1.0000   1.0000   1.0000   1.0000   1.0000   1.0000   1.0000
     1.0000   1.0000   1.0000   1.0000   1.0000   1.0000   1.0000   1.0000
     1.0000   1.0000   1.0000   1.0000   1.0000   1.0000   1.0000   1.0000
     1.0000   1.0000   1.0000   1.0000   1.0000   1.0000   1.0000   1.0000
     1.0000   1.0000   1.0000   1.0000   1.0000   1.0000   1.0000   1.0000
     1.0000   1.0000   1.0000   1.0000   1.0000   1.0000   1.0000   1.0000
     1.0000   1.0000   1.0000   1.0000   1.0000   1.0000

     highest occupied level (ev):     3.7438

!    total energy              =   -1084.70055077 Ry
     estimated scf accuracy    <          4.6E-09 Ry

     The total energy is the sum of the following terms:
     one-electron contribution =    -546.98898130 Ry
     hartree contribution      =     385.25639054 Ry
     xc contribution           =    -327.29957103 Ry
     ewald contribution        =    -595.66838898 Ry

     convergence has been achieved in  39 iterations

     Forces acting on atoms (cartesian axes, Ry/au):

     atom    1 type  1   force =     0.00000000   -0.00000000   -0.00152609
     atom    2 type  1   force =     0.00000000    0.00000000   -0.00151897
     atom    3 type  2   force =     0.00000000   -0.00000000    0.00151613
     atom    4 type  2   force =     0.00000000    0.00000000    0.00151606
     atom    5 type  1   force =     0.00000000    0.00000000   -0.00150802
     atom    6 type  1   force =     0.00000000    0.00000000   -0.00152180
     atom    7 type  2   force =     0.00000000    0.00000000    0.00151518
     atom    8 type  2   force =     0.00000000    0.00000000    0.00151582
     atom    9 type  1   force =     0.00000000    0.00000000   -0.00151105
     atom   10 type  1   force =     0.00000000   -0.00000000   -0.00150875
     atom   11 type  2   force =     0.00000000    0.00000000    0.00151569
     atom   12 type  2   force =     0.00000000   -0.00000000    0.00151580
     The non-local contrib.  to forces
     atom    1 type  1   force =     0.00000000    0.00000000    0.04433587
     atom    2 type  1   force =     0.00000000    0.00000000    0.04434099
     atom    3 type  2   force =     0.00000000   -0.00000000    0.05847356
     atom    4 type  2   force =     0.00000000   -0.00000000    0.05847583
     atom    5 type  1   force =     0.00000000    0.00000000    0.04434816
     atom    6 type  1   force =     0.00000000    0.00000000    0.04433815
     atom    7 type  2   force =     0.00000000    0.00000000    0.05846427
     atom    8 type  2   force =     0.00000000   -0.00000000    0.05846837
     atom    9 type  1   force =     0.00000000    0.00000000    0.04434641
     atom   10 type  1   force =     0.00000000    0.00000000    0.04435070
     atom   11 type  2   force =     0.00000000   -0.00000000    0.05847184
     atom   12 type  2   force =     0.00000000   -0.00000000    0.05846842
     The ionic contribution  to forces
     atom    1 type  1   force =    -0.00000000    0.00000000    0.39869710
     atom    2 type  1   force =     0.00000000   -0.00000000    0.39869713
     atom    3 type  2   force =    -0.00000000    0.00000000   -0.39869711
     atom    4 type  2   force =     0.00000000   -0.00000000   -0.39869712
     atom    5 type  1   force =    -0.00000000    0.00000000    0.39869713
     atom    6 type  1   force =     0.00000000   -0.00000000    0.39869710
     atom    7 type  2   force =    -0.00000000    0.00000000   -0.39869712
     atom    8 type  2   force =     0.00000000   -0.00000000   -0.39869710
     atom    9 type  1   force =    -0.00000000    0.00000000    0.39869710
     atom   10 type  1   force =     0.00000000   -0.00000000    0.39869710
     atom   11 type  2   force =    -0.00000000    0.00000000   -0.39869710
     atom   12 type  2   force =     0.00000000   -0.00000000   -0.39869711
     The local contribution  to forces
     atom    1 type  1   force =    -0.00000005    0.00000003   -0.44193193
     atom    2 type  1   force =     0.00000005   -0.00000003   -0.44194167
     atom    3 type  2   force =    -0.00000001    0.00000001    0.34228920
     atom    4 type  2   force =     0.00000001   -0.00000001    0.34229116
     atom    5 type  1   force =    -0.00000005    0.00000003   -0.44196177
     atom    6 type  1   force =     0.00000005   -0.00000003   -0.44193802
     atom    7 type  2   force =    -0.00000001    0.00000001    0.34228209
     atom    8 type  2   force =     0.00000001   -0.00000001    0.34228125
     atom    9 type  1   force =    -0.00000005    0.00000003   -0.44195607
     atom   10 type  1   force =     0.00000005   -0.00000003   -0.44196328
     atom   11 type  2   force =    -0.00000001    0.00000001    0.34228478
     atom   12 type  2   force =     0.00000001   -0.00000001    0.34228011
     The core correction contribution to forces
     atom    1 type  1   force =    -0.00000001    0.00000000   -0.00260681
     atom    2 type  1   force =     0.00000001   -0.00000000   -0.00260694
     atom    3 type  2   force =     0.00000000   -0.00000000   -0.00054468
     atom    4 type  2   force =    -0.00000000    0.00000000   -0.00054470
     atom    5 type  1   force =    -0.00000001    0.00000000   -0.00260655
     atom    6 type  1   force =     0.00000001   -0.00000000   -0.00260680
     atom    7 type  2   force =     0.00000000   -0.00000000   -0.00054455
     atom    8 type  2   force =    -0.00000000    0.00000000   -0.00054462
     atom    9 type  1   force =    -0.00000001    0.00000000   -0.00260672
     atom   10 type  1   force =     0.00000001   -0.00000000   -0.00260668
     atom   11 type  2   force =     0.00000000   -0.00000000   -0.00054466
     atom   12 type  2   force =    -0.00000000    0.00000000   -0.00054461
     The Hubbard contrib.    to forces
     atom    1 type  1   force =     0.00000000    0.00000000    0.00000000
     atom    2 type  1   force =     0.00000000    0.00000000    0.00000000
     atom    3 type  2   force =     0.00000000    0.00000000    0.00000000
     atom    4 type  2   force =     0.00000000    0.00000000    0.00000000
     atom    5 type  1   force =     0.00000000    0.00000000    0.00000000
     atom    6 type  1   force =     0.00000000    0.00000000    0.00000000
     atom    7 type  2   force =     0.00000000    0.00000000    0.00000000
     atom    8 type  2   force =     0.00000000    0.00000000    0.00000000
     atom    9 type  1   force =     0.00000000    0.00000000    0.00000000
     atom   10 type  1   force =     0.00000000    0.00000000    0.00000000
     atom   11 type  2   force =     0.00000000    0.00000000    0.00000000
     atom   12 type  2   force =     0.00000000    0.00000000    0.00000000
     The SCF correction term to forces
     atom    1 type  1   force =    -0.00000000    0.00000000   -0.00002214
     atom    2 type  1   force =     0.00000000   -0.00000000   -0.00001031
     atom    3 type  2   force =     0.00000000   -0.00000000   -0.00000667
     atom    4 type  2   force =    -0.00000000    0.00000000   -0.00001093
     atom    5 type  1   force =    -0.00000000    0.00000000    0.00001318
     atom    6 type  1   force =     0.00000000   -0.00000000   -0.00001404
     atom    7 type  2   force =     0.00000000   -0.00000000    0.00000867
     atom    8 type  2   force =    -0.00000000    0.00000000    0.00000610
     atom    9 type  1   force =    -0.00000000    0.00000000    0.00000642
     atom   10 type  1   force =     0.00000000   -0.00000000    0.00001160
     atom   11 type  2   force =     0.00000000   -0.00000000   -0.00000099
     atom   12 type  2   force =    -0.00000000    0.00000000    0.00000718

     Total force =     0.005251     Total SCF correction =     0.000038

     General routines

     Parallel routines

   This run was terminated on:  21: 0:30  27Aug2025

   JOB DONE.