     Program PWSCF v.7.0 starts on 27Aug2025 at 17:33: 3

     K-points division:     npool     =      17

     Reading input from /home/jvc/QEspresso7.2/ZnO_database/scripts/cell113.in/ZnO-3.40-1.45-113.in
Warning: card &CELL ignored
Warning: card / ignored
Warning: card &FCP ignored
Warning: card / ignored
Warning: card &RISM ignored
Warning: card / ignored

     Current dimensions of program PWSCF are:
     Max number of different atomic species (ntypx) = 10
     Max number of k-points (npk) =  40000
     Max angular momentum in pseudopotentials (lmaxx) =  4
     file Zn.upf: wavefunction(s)  3D renormalized
     Found identity + (  0.0000  0.0000  0.3333) symmetry
     This is a supercell, fractional translations are disabled
     Message from routine setup:
     using ibrav=0 with symmetry is DISCOURAGED, use correct ibrav instead

     Subspace diagonalization in iterative solution of the eigenvalue problem:
     a serial algorithm will be used

     Using Slab Decomposition

     bravais-lattice index     =            0
     lattice parameter (alat)  =       6.4260  a.u.
     unit-cell volume          =    1001.6550 (a.u.)^3
     number of atoms/cell      =           12
     number of atomic types    =            2
     number of electrons       =       108.00
     number of Kohn-Sham states=           54
     kinetic-energy cutoff     =      50.0000  Ry
     charge density cutoff     =     400.0000  Ry
     scf convergence threshold =      1.0E-08
     mixing beta               =       0.3000
     number of iterations used =            8  plain     mixing
     Exchange-correlation= PBE
                           (   1   4   3   4   0   0   0)

     celldm(1)=   6.426008  celldm(2)=   0.000000  celldm(3)=   0.000000
     celldm(4)=   0.000000  celldm(5)=   0.000000  celldm(6)=   0.000000

     crystal axes: (cart. coord. in units of alat)
               a(1) = (   1.000000   0.000000   0.000000 )
               a(2) = (  -0.500000   0.866025   0.000000 )
               a(3) = (   0.000000   0.000000   4.358768 )

     reciprocal axes: (cart. coord. in units 2 pi/alat)
               b(1) = (  1.000000  0.577350 -0.000000 )
               b(2) = (  0.000000  1.154701  0.000000 )
               b(3) = (  0.000000 -0.000000  0.229423 )

     PseudoPot. # 1 for Zn read from file:
     /home/jvc/QEspresso7.2/ZnO_database/pseudos/Zn.upf
     MD5 check sum: 7f56cabf9682ed8c977c2f7d0c5985c5
     Pseudo is Ultrasoft + core correction, Zval = 12.0
     Generated using &quot;atomic&quot; code by A. Dal Corso  v.6.2.2
     Using radial grid of 1201 points,  6 beta functions with:
                l(1) =   0
                l(2) =   0
                l(3) =   1
                l(4) =   1
                l(5) =   2
                l(6) =   2
     Q(r) pseudized with 0 coefficients

     PseudoPot. # 2 for O  read from file:
     /home/jvc/QEspresso7.2/ZnO_database/pseudos/O.upf
     MD5 check sum: 91400c9766925bcf19f520983a725ff0
     Pseudo is Ultrasoft + core correction, Zval =  6.0
     Generated using &quot;atomic&quot; code by A. Dal Corso  v.6.3MaX
     Using radial grid of 1095 points,  4 beta functions with:
                l(1) =   0
                l(2) =   0
                l(3) =   1
                l(4) =   1
     Q(r) pseudized with 0 coefficients

     atomic species   valence    mass     pseudopotential
        Zn            12.00    65.38000     Zn( 1.00)
        O              6.00    15.99900     O ( 1.00)

      6 Sym. Ops. (no inversion) found

                                    s                        frac. trans.

      isym =  1     identity

 cryst.   s( 1) = (     1          0          0      )
                  (     0          1          0      )
                  (     0          0          1      )

 cart.    s( 1) = (  1.0000000  0.0000000  0.0000000 )
                  (  0.0000000  1.0000000  0.0000000 )
                  (  0.0000000  0.0000000  1.0000000 )

      isym =  2     120 deg rotation - cryst. axis [0,0,1]

[...]

      isym =  3     120 deg rotation - cryst. axis [0,0,-1]

[...]

      isym =  4     inv. 180 deg rotation - cart. axis [1,0,0]

[...]

      isym =  5     inv. 180 deg rotation - cryst. axis [0,1,0]

[...]

      isym =  6     inv. 180 deg rotation - cryst. axis [1,1,0]

 cryst.   s( 6) = (     0         -1          0      )
                  (    -1          0          0      )
                  (     0          0          1      )

 cart.    s( 6) = (  0.5000000 -0.8660254  0.0000000 )
                  ( -0.8660254 -0.5000000  0.0000000 )
                  (  0.0000000  0.0000000  1.0000000 )

   Cartesian axes

     site n.     atom                  positions (alat units)
         1           Zn  tau(   1) = (   0.5000000   0.2886751   0.7273818  )
         2           Zn  tau(   2) = (  -0.0000000   0.5773503   0.0009206  )
         3           O   tau(   3) = (   0.5000000   0.2886751   1.2781017  )
         4           O   tau(   4) = (  -0.0000000   0.5773503   0.5516404  )
         5           Zn  tau(   5) = (   0.5000000   0.2886751   2.1803043  )
         6           Zn  tau(   6) = (  -0.0000000   0.5773503   1.4538431  )
         7           O   tau(   7) = (   0.5000000   0.2886751   2.7310242  )
         8           O   tau(   8) = (  -0.0000000   0.5773503   2.0045629  )
         9           Zn  tau(   9) = (   0.5000000   0.2886751   3.6332269  )
        10           Zn  tau(  10) = (  -0.0000000   0.5773503   2.9067656  )
        11           O   tau(  11) = (   0.5000000   0.2886751   4.1839467  )
        12           O   tau(  12) = (  -0.0000000   0.5773503   3.4574855  )

   Crystallographic axes

     site n.     atom                  positions (cryst. coord.)
         1           Zn  tau(   1) = (  0.6666667  0.3333333  0.1668779  )
         2           Zn  tau(   2) = (  0.3333333  0.6666667  0.0002112  )
         3           O   tau(   3) = (  0.6666667  0.3333333  0.2932255  )
         4           O   tau(   4) = (  0.3333333  0.6666667  0.1265588  )
         5           Zn  tau(   5) = (  0.6666667  0.3333333  0.5002112  )
         6           Zn  tau(   6) = (  0.3333333  0.6666667  0.3335445  )
         7           O   tau(   7) = (  0.6666667  0.3333333  0.6265588  )
         8           O   tau(   8) = (  0.3333333  0.6666667  0.4598921  )
         9           Zn  tau(   9) = (  0.6666667  0.3333333  0.8335445  )
        10           Zn  tau(  10) = (  0.3333333  0.6666667  0.6668779  )
        11           O   tau(  11) = (  0.6666667  0.3333333  0.9598921  )
        12           O   tau(  12) = (  0.3333333  0.6666667  0.7932255  )

     number of k points=    34
                       cart. coord. in units 2pi/alat
        k(    1) = (   0.0000000   0.0000000   0.0000000), wk =   0.0092593
        k(    2) = (   0.0000000   0.0000000   0.0382371), wk =   0.0185185
        k(    3) = (   0.0000000   0.0000000   0.0764742), wk =   0.0185185
        k(    4) = (   0.0000000   0.0000000  -0.1147113), wk =   0.0092593
        k(    5) = (   0.0000000   0.1924501   0.0000000), wk =   0.0555556
        k(    6) = (   0.0000000   0.1924501   0.0382371), wk =   0.0555556
        k(    7) = (   0.0000000   0.1924501   0.0764742), wk =   0.0555556
        k(    8) = (   0.0000000   0.1924501  -0.1147113), wk =   0.0555556
        k(    9) = (   0.0000000   0.3849002   0.0000000), wk =   0.0555556
        k(   10) = (   0.0000000   0.3849002   0.0382371), wk =   0.0555556
        k(   11) = (   0.0000000   0.3849002   0.0764742), wk =   0.0555556
        k(   12) = (   0.0000000   0.3849002  -0.1147113), wk =   0.0555556
        k(   13) = (   0.0000000  -0.5773503   0.0000000), wk =   0.0277778
        k(   14) = (   0.0000000  -0.5773503   0.0382371), wk =   0.0555556
        k(   15) = (   0.0000000  -0.5773503   0.0764742), wk =   0.0555556
        k(   16) = (   0.0000000  -0.5773503  -0.1147113), wk =   0.0277778
        k(   17) = (   0.1666667   0.2886751   0.0000000), wk =   0.0555556
        k(   18) = (   0.1666667   0.2886751   0.0382371), wk =   0.1111111
        k(   19) = (   0.1666667   0.2886751   0.0764742), wk =   0.1111111
        k(   20) = (   0.1666667   0.2886751  -0.1147113), wk =   0.0555556
        k(   21) = (   0.1666667   0.4811252   0.0000000), wk =   0.1111111
        k(   22) = (   0.1666667   0.4811252   0.0382371), wk =   0.1111111
        k(   23) = (   0.1666667   0.4811252   0.0764742), wk =   0.1111111
        k(   24) = (   0.1666667   0.4811252  -0.1147113), wk =   0.1111111
        k(   25) = (   0.3333333   0.5773503   0.0000000), wk =   0.0185185
        k(   26) = (   0.3333333   0.5773503   0.0382371), wk =   0.0370370
        k(   27) = (   0.3333333   0.5773503   0.0764742), wk =   0.0370370
        k(   28) = (   0.3333333   0.5773503  -0.1147113), wk =   0.0185185
        k(   29) = (   0.0000000  -0.1924501   0.0382371), wk =   0.0555556
        k(   30) = (   0.0000000  -0.1924501   0.0764742), wk =   0.0555556
        k(   31) = (   0.0000000  -0.3849002   0.0382371), wk =   0.0555556
        k(   32) = (   0.0000000  -0.3849002   0.0764742), wk =   0.0555556
        k(   33) = (  -0.1666667  -0.4811252   0.0382371), wk =   0.1111111
        k(   34) = (  -0.1666667  -0.4811252   0.0764742), wk =   0.1111111

                       cryst. coord.
        k(    1) = (   0.0000000   0.0000000   0.0000000), wk =   0.0092593
        k(    2) = (   0.0000000   0.0000000   0.1666667), wk =   0.0185185
        k(    3) = (   0.0000000   0.0000000   0.3333333), wk =   0.0185185
        k(    4) = (   0.0000000   0.0000000  -0.5000000), wk =   0.0092593
        k(    5) = (   0.0000000   0.1666667   0.0000000), wk =   0.0555556
        k(    6) = (   0.0000000   0.1666667   0.1666667), wk =   0.0555556
        k(    7) = (   0.0000000   0.1666667   0.3333333), wk =   0.0555556
        k(    8) = (   0.0000000   0.1666667  -0.5000000), wk =   0.0555556
        k(    9) = (   0.0000000   0.3333333   0.0000000), wk =   0.0555556
        k(   10) = (   0.0000000   0.3333333   0.1666667), wk =   0.0555556
        k(   11) = (   0.0000000   0.3333333   0.3333333), wk =   0.0555556
        k(   12) = (   0.0000000   0.3333333  -0.5000000), wk =   0.0555556
        k(   13) = (   0.0000000  -0.5000000   0.0000000), wk =   0.0277778
        k(   14) = (   0.0000000  -0.5000000   0.1666667), wk =   0.0555556
        k(   15) = (   0.0000000  -0.5000000   0.3333333), wk =   0.0555556
        k(   16) = (   0.0000000  -0.5000000  -0.5000000), wk =   0.0277778
        k(   17) = (   0.1666667   0.1666667   0.0000000), wk =   0.0555556
        k(   18) = (   0.1666667   0.1666667   0.1666667), wk =   0.1111111
        k(   19) = (   0.1666667   0.1666667   0.3333333), wk =   0.1111111
        k(   20) = (   0.1666667   0.1666667  -0.5000000), wk =   0.0555556
        k(   21) = (   0.1666667   0.3333333   0.0000000), wk =   0.1111111
        k(   22) = (   0.1666667   0.3333333   0.1666667), wk =   0.1111111
        k(   23) = (   0.1666667   0.3333333   0.3333333), wk =   0.1111111
        k(   24) = (   0.1666667   0.3333333  -0.5000000), wk =   0.1111111
        k(   25) = (   0.3333333   0.3333333   0.0000000), wk =   0.0185185
        k(   26) = (   0.3333333   0.3333333   0.1666667), wk =   0.0370370
        k(   27) = (   0.3333333   0.3333333   0.3333333), wk =   0.0370370
        k(   28) = (   0.3333333   0.3333333  -0.5000000), wk =   0.0185185
        k(   29) = (   0.0000000  -0.1666667   0.1666667), wk =   0.0555556
        k(   30) = (   0.0000000  -0.1666667   0.3333333), wk =   0.0555556
        k(   31) = (   0.0000000  -0.3333333   0.1666667), wk =   0.0555556
        k(   32) = (   0.0000000  -0.3333333   0.3333333), wk =   0.0555556
        k(   33) = (  -0.1666667  -0.3333333   0.1666667), wk =   0.1111111
        k(   34) = (  -0.1666667  -0.3333333   0.3333333), wk =   0.1111111

     Check: negative core charge=   -0.000002

     Initial potential from superposition of free atoms

     starting charge     107.9776, renormalised to     108.0000
     Starting wfcs are   78 randomized atomic wfcs

     Self-consistent Calculation

     iteration #  1     ecut=    50.00 Ry     beta= 0.30
     Davidson diagonalization with overlap

     ethr =  1.00E-02,  avg # of iterations =  2.0

     total energy              =   -1084.36554115 Ry
     estimated scf accuracy    <       2.14617280 Ry

[...]

     total energy              =   -1084.85665771 Ry
     estimated scf accuracy    <       0.00000001 Ry

     iteration # 37     ecut=    50.00 Ry     beta= 0.30
     Davidson diagonalization with overlap

     ethr =  1.33E-11,  avg # of iterations =  2.0

     End of self-consistent calculation

          k = 0.0000 0.0000 0.0000 (  5985 PWs)   bands (ev):

   -11.1205 -10.9204 -10.9204 -10.5120 -10.5120 -10.3053   0.9744   0.9744
     0.9805   0.9805   1.1965   1.2244   1.2244   1.2427   1.2427   1.2427
     1.2427   1.3589   1.3589   1.3589   1.3589   1.4642   1.4642   1.5560
     2.2081   2.2081   2.3073   2.3073   2.3073   2.3073   2.4389   2.4389
     2.4389   2.4389   2.4631   2.4631   2.6477   3.9097   3.9097   5.4372
     5.4372   5.6152   5.6152   5.8812   5.8812   5.8812   5.8812   6.3882
     6.3882   6.3882   6.3882   6.6268   6.6268   6.7144

     occupation numbers
     1.0000   1.0000   1.0000   1.0000   1.0000   1.0000   1.0000   1.0000
     1.0000   1.0000   1.0000   1.0000   1.0000   1.0000   1.0000   1.0000
     1.0000   1.0000   1.0000   1.0000   1.0000   1.0000   1.0000   1.0000
     1.0000   1.0000   1.0000   1.0000   1.0000   1.0000   1.0000   1.0000
     1.0000   1.0000   1.0000   1.0000   1.0000   1.0000   1.0000   1.0000
     1.0000   1.0000   1.0000   1.0000   1.0000   1.0000   1.0000   1.0000
     1.0000   1.0000   1.0000   1.0000   1.0000   1.0000

[...]

          k = 0.0000-0.3849 0.0765 (  5975 PWs)   bands (ev):

[...]

          k =-0.1667-0.4811 0.0382 (  5986 PWs)   bands (ev):

[...]

          k =-0.1667-0.4811 0.0765 (  5985 PWs)   bands (ev):

   -10.5299 -10.5015 -10.4121 -10.3654 -10.2964 -10.2789   0.8291   0.8543
     0.9820   1.0596   1.1527   1.2764   1.3829   1.4345   1.4606   1.5056
     1.5484   1.5666   1.6497   1.6809   1.7509   1.8558   1.8921   1.9952
     2.2317   2.2696   2.3358   2.3487   2.3671   2.3677   2.5071   2.5120
     2.5479   2.5820   2.6412   2.6479   2.9796   3.0531   3.2724   3.3855
     3.5520   3.5774   3.9138   4.0232   4.4068   4.6125   4.7747   4.9417
     5.5045   5.5902   5.6524   5.7099   5.8210   5.8995

     occupation numbers
     1.0000   1.0000   1.0000   1.0000   1.0000   1.0000   1.0000   1.0000
     1.0000   1.0000   1.0000   1.0000   1.0000   1.0000   1.0000   1.0000
     1.0000   1.0000   1.0000   1.0000   1.0000   1.0000   1.0000   1.0000
     1.0000   1.0000   1.0000   1.0000   1.0000   1.0000   1.0000   1.0000
     1.0000   1.0000   1.0000   1.0000   1.0000   1.0000   1.0000   1.0000
     1.0000   1.0000   1.0000   1.0000   1.0000   1.0000   1.0000   1.0000
     1.0000   1.0000   1.0000   1.0000   1.0000   1.0000

     highest occupied level (ev):     6.7144

!    total energy              =   -1084.85665771 Ry
     estimated scf accuracy    <          4.9E-09 Ry

     The total energy is the sum of the following terms:
     one-electron contribution =    -472.28533637 Ry
     hartree contribution      =     358.61763094 Ry
     xc contribution           =    -328.61589337 Ry
     ewald contribution        =    -642.57305891 Ry

     convergence has been achieved in  37 iterations

     Forces acting on atoms (cartesian axes, Ry/au):

     atom    1 type  1   force =     0.00000000   -0.00000000   -0.04543159
     atom    2 type  1   force =     0.00000000    0.00000000   -0.04543746
     atom    3 type  2   force =     0.00000000    0.00000000    0.04542453
     atom    4 type  2   force =     0.00000000   -0.00000000    0.04542625
     atom    5 type  1   force =     0.00000000   -0.00000000   -0.04540787
     atom    6 type  1   force =     0.00000000    0.00000000   -0.04541368
     atom    7 type  2   force =     0.00000000   -0.00000000    0.04542318
     atom    8 type  2   force =     0.00000000    0.00000000    0.04542055
     atom    9 type  1   force =     0.00000000    0.00000000   -0.04543952
     atom   10 type  1   force =     0.00000000    0.00000000   -0.04541791
     atom   11 type  2   force =     0.00000000    0.00000000    0.04542749
     atom   12 type  2   force =     0.00000000    0.00000000    0.04542603
     The non-local contrib.  to forces
     atom    1 type  1   force =     0.00000000    0.00000000   -0.31126823
     atom    2 type  1   force =     0.00000000   -0.00000000   -0.31127349
     atom    3 type  2   force =     0.00000000    0.00000000   -0.23560123
     atom    4 type  2   force =     0.00000000    0.00000000   -0.23559567
     atom    5 type  1   force =     0.00000000   -0.00000000   -0.31125015
     atom    6 type  1   force =     0.00000000    0.00000000   -0.31125662
     atom    7 type  2   force =     0.00000000    0.00000000   -0.23560203
     atom    8 type  2   force =     0.00000000    0.00000000   -0.23560700
     atom    9 type  1   force =     0.00000000    0.00000000   -0.31127290
     atom   10 type  1   force =     0.00000000    0.00000000   -0.31125684
     atom   11 type  2   force =     0.00000000    0.00000000   -0.23559056
     atom   12 type  2   force =     0.00000000    0.00000000   -0.23559459
     The ionic contribution  to forces
     atom    1 type  1   force =    -0.00000000    0.00000000   -2.08967269
     atom    2 type  1   force =     0.00000000   -0.00000000   -2.08967265
     atom    3 type  2   force =    -0.00000000    0.00000000    2.08967268
     atom    4 type  2   force =     0.00000000   -0.00000000    2.08967267
     atom    5 type  1   force =    -0.00000000    0.00000000   -2.08967265
     atom    6 type  1   force =     0.00000000   -0.00000000   -2.08967269
     atom    7 type  2   force =    -0.00000000    0.00000000    2.08967267
     atom    8 type  2   force =     0.00000000   -0.00000000    2.08967269
     atom    9 type  1   force =    -0.00000000    0.00000000   -2.08967269
     atom   10 type  1   force =     0.00000000   -0.00000000   -2.08967269
     atom   11 type  2   force =    -0.00000000    0.00000000    2.08967269
     atom   12 type  2   force =     0.00000000   -0.00000000    2.08967268
     The local contribution  to forces
     atom    1 type  1   force =    -0.00000004    0.00000003    2.33216662
     atom    2 type  1   force =     0.00000004   -0.00000003    2.33217433
     atom    3 type  2   force =    -0.00000001    0.00000001   -1.81039471
     atom    4 type  2   force =     0.00000001   -0.00000001   -1.81038568
     atom    5 type  1   force =    -0.00000004    0.00000003    2.33212547
     atom    6 type  1   force =     0.00000004   -0.00000003    2.33213320
     atom    7 type  2   force =    -0.00000001    0.00000001   -1.81039796
     atom    8 type  2   force =     0.00000001   -0.00000001   -1.81040838
     atom    9 type  1   force =    -0.00000004    0.00000003    2.33217902
     atom   10 type  1   force =     0.00000004   -0.00000003    2.33213673
     atom   11 type  2   force =    -0.00000001    0.00000001   -1.81037993
     atom   12 type  2   force =     0.00000001   -0.00000001   -1.81038308
     The core correction contribution to forces
     atom    1 type  1   force =    -0.00000001    0.00000000    0.02337107
     atom    2 type  1   force =     0.00000001   -0.00000000    0.02337124
     atom    3 type  2   force =     0.00000000   -0.00000000    0.00174088
     atom    4 type  2   force =    -0.00000000    0.00000000    0.00174081
     atom    5 type  1   force =    -0.00000001    0.00000000    0.02337116
     atom    6 type  1   force =     0.00000001   -0.00000000    0.02337163
     atom    7 type  2   force =     0.00000000   -0.00000000    0.00174087
     atom    8 type  2   force =    -0.00000000    0.00000000    0.00174092
     atom    9 type  1   force =    -0.00000001    0.00000000    0.02337073
     atom   10 type  1   force =     0.00000001   -0.00000000    0.02337133
     atom   11 type  2   force =     0.00000000   -0.00000000    0.00174075
     atom   12 type  2   force =    -0.00000000    0.00000000    0.00174079
     The Hubbard contrib.    to forces
     atom    1 type  1   force =     0.00000000    0.00000000    0.00000000
     atom    2 type  1   force =     0.00000000    0.00000000    0.00000000
     atom    3 type  2   force =     0.00000000    0.00000000    0.00000000
     atom    4 type  2   force =     0.00000000    0.00000000    0.00000000
     atom    5 type  1   force =     0.00000000    0.00000000    0.00000000
     atom    6 type  1   force =     0.00000000    0.00000000    0.00000000
     atom    7 type  2   force =     0.00000000    0.00000000    0.00000000
     atom    8 type  2   force =     0.00000000    0.00000000    0.00000000
     atom    9 type  1   force =     0.00000000    0.00000000    0.00000000
     atom   10 type  1   force =     0.00000000    0.00000000    0.00000000
     atom   11 type  2   force =     0.00000000    0.00000000    0.00000000
     atom   12 type  2   force =     0.00000000    0.00000000    0.00000000
     The SCF correction term to forces
     atom    1 type  1   force =    -0.00000000    0.00000000   -0.00003078
     atom    2 type  1   force =     0.00000000   -0.00000000   -0.00003932
     atom    3 type  2   force =    -0.00000000    0.00000000    0.00000448
     atom    4 type  2   force =     0.00000000   -0.00000000   -0.00000830
     atom    5 type  1   force =    -0.00000000    0.00000000    0.00001589
     atom    6 type  1   force =     0.00000000   -0.00000000    0.00000837
     atom    7 type  2   force =    -0.00000000    0.00000000    0.00000721
     atom    8 type  2   force =     0.00000000   -0.00000000    0.00001990
     atom    9 type  1   force =    -0.00000000    0.00000000   -0.00004610
     atom   10 type  1   force =     0.00000000   -0.00000000    0.00000114
     atom   11 type  2   force =    -0.00000000    0.00000000   -0.00001789
     atom   12 type  2   force =     0.00000000   -0.00000000   -0.00001220

     Total force =     0.157356     Total SCF correction =     0.000077

     General routines

     Parallel routines

   This run was terminated on:  17:38:40  27Aug2025

   JOB DONE.