     Program PWSCF v.7.0 starts on 27Aug2025 at 20:25:13

     K-points division:     npool     =      17

     Reading input from /home/jvc/QEspresso7.2/ZnO_database/scripts/cell113.in/ZnO-3.53-1.55-113.in
Warning: card &CELL ignored
Warning: card / ignored
Warning: card &FCP ignored
Warning: card / ignored
Warning: card &RISM ignored
Warning: card / ignored

     Current dimensions of program PWSCF are:
     Max number of different atomic species (ntypx) = 10
     Max number of k-points (npk) =  40000
     Max angular momentum in pseudopotentials (lmaxx) =  4
     file Zn.upf: wavefunction(s)  3D renormalized
     Found identity + (  0.0000  0.0000  0.3333) symmetry
     This is a supercell, fractional translations are disabled
     Message from routine setup:
     using ibrav=0 with symmetry is DISCOURAGED, use correct ibrav instead

     Subspace diagonalization in iterative solution of the eigenvalue problem:
     a serial algorithm will be used

     Using Slab Decomposition

     bravais-lattice index     =            0
     lattice parameter (alat)  =       6.6732  a.u.
     unit-cell volume          =    1196.5149 (a.u.)^3
     number of atoms/cell      =           12
     number of atomic types    =            2
     number of electrons       =       108.00
     number of Kohn-Sham states=           54
     kinetic-energy cutoff     =      50.0000  Ry
     charge density cutoff     =     400.0000  Ry
     scf convergence threshold =      1.0E-08
     mixing beta               =       0.3000
     number of iterations used =            8  plain     mixing
     Exchange-correlation= PBE
                           (   1   4   3   4   0   0   0)

     celldm(1)=   6.673162  celldm(2)=   0.000000  celldm(3)=   0.000000
     celldm(4)=   0.000000  celldm(5)=   0.000000  celldm(6)=   0.000000

     crystal axes: (cart. coord. in units of alat)
               a(1) = (   1.000000   0.000000   0.000000 )
               a(2) = (  -0.500000   0.866025   0.000000 )
               a(3) = (   0.000000   0.000000   4.649352 )

     reciprocal axes: (cart. coord. in units 2 pi/alat)
               b(1) = (  1.000000  0.577350 -0.000000 )
               b(2) = (  0.000000  1.154701  0.000000 )
               b(3) = (  0.000000 -0.000000  0.215084 )

     PseudoPot. # 1 for Zn read from file:
     /home/jvc/QEspresso7.2/ZnO_database/pseudos/Zn.upf
     MD5 check sum: 7f56cabf9682ed8c977c2f7d0c5985c5
     Pseudo is Ultrasoft + core correction, Zval = 12.0
     Generated using &quot;atomic&quot; code by A. Dal Corso  v.6.2.2
     Using radial grid of 1201 points,  6 beta functions with:
                l(1) =   0
                l(2) =   0
                l(3) =   1
                l(4) =   1
                l(5) =   2
                l(6) =   2
     Q(r) pseudized with 0 coefficients

     PseudoPot. # 2 for O  read from file:
     /home/jvc/QEspresso7.2/ZnO_database/pseudos/O.upf
     MD5 check sum: 91400c9766925bcf19f520983a725ff0
     Pseudo is Ultrasoft + core correction, Zval =  6.0
     Generated using &quot;atomic&quot; code by A. Dal Corso  v.6.3MaX
     Using radial grid of 1095 points,  4 beta functions with:
                l(1) =   0
                l(2) =   0
                l(3) =   1
                l(4) =   1
     Q(r) pseudized with 0 coefficients

     atomic species   valence    mass     pseudopotential
        Zn            12.00    65.38000     Zn( 1.00)
        O              6.00    15.99900     O ( 1.00)

      6 Sym. Ops. (no inversion) found

                                    s                        frac. trans.

      isym =  1     identity

 cryst.   s( 1) = (     1          0          0      )
                  (     0          1          0      )
                  (     0          0          1      )

 cart.    s( 1) = (  1.0000000  0.0000000  0.0000000 )
                  (  0.0000000  1.0000000  0.0000000 )
                  (  0.0000000  0.0000000  1.0000000 )

      isym =  2     120 deg rotation - cryst. axis [0,0,1]

[...]

      isym =  3     120 deg rotation - cryst. axis [0,0,-1]

[...]

      isym =  4     inv. 180 deg rotation - cart. axis [1,0,0]

[...]

      isym =  5     inv. 180 deg rotation - cryst. axis [0,1,0]

[...]

      isym =  6     inv. 180 deg rotation - cryst. axis [1,1,0]

 cryst.   s( 6) = (     0         -1          0      )
                  (    -1          0          0      )
                  (     0          0          1      )

 cart.    s( 6) = (  0.5000000 -0.8660254  0.0000000 )
                  ( -0.8660254 -0.5000000  0.0000000 )
                  (  0.0000000  0.0000000  1.0000000 )

   Cartesian axes

     site n.     atom                  positions (alat units)
         1           Zn  tau(   1) = (   0.5000000   0.2886751   0.7758739  )
         2           Zn  tau(   2) = (  -0.0000000   0.5773503   0.0009819  )
         3           O   tau(   3) = (   0.5000000   0.2886751   1.3633085  )
         4           O   tau(   4) = (  -0.0000000   0.5773503   0.5884164  )
         5           Zn  tau(   5) = (   0.5000000   0.2886751   2.3256580  )
         6           Zn  tau(   6) = (  -0.0000000   0.5773503   1.5507659  )
         7           O   tau(   7) = (   0.5000000   0.2886751   2.9130925  )
         8           O   tau(   8) = (  -0.0000000   0.5773503   2.1382005  )
         9           Zn  tau(   9) = (   0.5000000   0.2886751   3.8754420  )
        10           Zn  tau(  10) = (  -0.0000000   0.5773503   3.1005500  )
        11           O   tau(  11) = (   0.5000000   0.2886751   4.4628765  )
        12           O   tau(  12) = (  -0.0000000   0.5773503   3.6879845  )

   Crystallographic axes

     site n.     atom                  positions (cryst. coord.)
         1           Zn  tau(   1) = (  0.6666667  0.3333333  0.1668779  )
         2           Zn  tau(   2) = (  0.3333333  0.6666667  0.0002112  )
         3           O   tau(   3) = (  0.6666667  0.3333333  0.2932255  )
         4           O   tau(   4) = (  0.3333333  0.6666667  0.1265588  )
         5           Zn  tau(   5) = (  0.6666667  0.3333333  0.5002112  )
         6           Zn  tau(   6) = (  0.3333333  0.6666667  0.3335445  )
         7           O   tau(   7) = (  0.6666667  0.3333333  0.6265588  )
         8           O   tau(   8) = (  0.3333333  0.6666667  0.4598921  )
         9           Zn  tau(   9) = (  0.6666667  0.3333333  0.8335445  )
        10           Zn  tau(  10) = (  0.3333333  0.6666667  0.6668779  )
        11           O   tau(  11) = (  0.6666667  0.3333333  0.9598921  )
        12           O   tau(  12) = (  0.3333333  0.6666667  0.7932255  )

     number of k points=    34
                       cart. coord. in units 2pi/alat
        k(    1) = (   0.0000000   0.0000000   0.0000000), wk =   0.0092593
        k(    2) = (   0.0000000   0.0000000   0.0358473), wk =   0.0185185
        k(    3) = (   0.0000000   0.0000000   0.0716946), wk =   0.0185185
        k(    4) = (   0.0000000   0.0000000  -0.1075419), wk =   0.0092593
        k(    5) = (   0.0000000   0.1924501   0.0000000), wk =   0.0555556
        k(    6) = (   0.0000000   0.1924501   0.0358473), wk =   0.0555556
        k(    7) = (   0.0000000   0.1924501   0.0716946), wk =   0.0555556
        k(    8) = (   0.0000000   0.1924501  -0.1075419), wk =   0.0555556
        k(    9) = (   0.0000000   0.3849002   0.0000000), wk =   0.0555556
        k(   10) = (   0.0000000   0.3849002   0.0358473), wk =   0.0555556
        k(   11) = (   0.0000000   0.3849002   0.0716946), wk =   0.0555556
        k(   12) = (   0.0000000   0.3849002  -0.1075419), wk =   0.0555556
        k(   13) = (   0.0000000  -0.5773503   0.0000000), wk =   0.0277778
        k(   14) = (   0.0000000  -0.5773503   0.0358473), wk =   0.0555556
        k(   15) = (   0.0000000  -0.5773503   0.0716946), wk =   0.0555556
        k(   16) = (   0.0000000  -0.5773503  -0.1075419), wk =   0.0277778
        k(   17) = (   0.1666667   0.2886751   0.0000000), wk =   0.0555556
        k(   18) = (   0.1666667   0.2886751   0.0358473), wk =   0.1111111
        k(   19) = (   0.1666667   0.2886751   0.0716946), wk =   0.1111111
        k(   20) = (   0.1666667   0.2886751  -0.1075419), wk =   0.0555556
        k(   21) = (   0.1666667   0.4811252   0.0000000), wk =   0.1111111
        k(   22) = (   0.1666667   0.4811252   0.0358473), wk =   0.1111111
        k(   23) = (   0.1666667   0.4811252   0.0716946), wk =   0.1111111
        k(   24) = (   0.1666667   0.4811252  -0.1075419), wk =   0.1111111
        k(   25) = (   0.3333333   0.5773503   0.0000000), wk =   0.0185185
        k(   26) = (   0.3333333   0.5773503   0.0358473), wk =   0.0370370
        k(   27) = (   0.3333333   0.5773503   0.0716946), wk =   0.0370370
        k(   28) = (   0.3333333   0.5773503  -0.1075419), wk =   0.0185185
        k(   29) = (   0.0000000  -0.1924501   0.0358473), wk =   0.0555556
        k(   30) = (   0.0000000  -0.1924501   0.0716946), wk =   0.0555556
        k(   31) = (   0.0000000  -0.3849002   0.0358473), wk =   0.0555556
        k(   32) = (   0.0000000  -0.3849002   0.0716946), wk =   0.0555556
        k(   33) = (  -0.1666667  -0.4811252   0.0358473), wk =   0.1111111
        k(   34) = (  -0.1666667  -0.4811252   0.0716946), wk =   0.1111111

                       cryst. coord.
        k(    1) = (   0.0000000   0.0000000   0.0000000), wk =   0.0092593
        k(    2) = (   0.0000000   0.0000000   0.1666667), wk =   0.0185185
        k(    3) = (   0.0000000   0.0000000   0.3333333), wk =   0.0185185
        k(    4) = (   0.0000000   0.0000000  -0.5000000), wk =   0.0092593
        k(    5) = (   0.0000000   0.1666667   0.0000000), wk =   0.0555556
        k(    6) = (   0.0000000   0.1666667   0.1666667), wk =   0.0555556
        k(    7) = (   0.0000000   0.1666667   0.3333333), wk =   0.0555556
        k(    8) = (   0.0000000   0.1666667  -0.5000000), wk =   0.0555556
        k(    9) = (   0.0000000   0.3333333   0.0000000), wk =   0.0555556
        k(   10) = (   0.0000000   0.3333333   0.1666667), wk =   0.0555556
        k(   11) = (   0.0000000   0.3333333   0.3333333), wk =   0.0555556
        k(   12) = (   0.0000000   0.3333333  -0.5000000), wk =   0.0555556
        k(   13) = (   0.0000000  -0.5000000   0.0000000), wk =   0.0277778
        k(   14) = (   0.0000000  -0.5000000   0.1666667), wk =   0.0555556
        k(   15) = (   0.0000000  -0.5000000   0.3333333), wk =   0.0555556
        k(   16) = (   0.0000000  -0.5000000  -0.5000000), wk =   0.0277778
        k(   17) = (   0.1666667   0.1666667   0.0000000), wk =   0.0555556
        k(   18) = (   0.1666667   0.1666667   0.1666667), wk =   0.1111111
        k(   19) = (   0.1666667   0.1666667   0.3333333), wk =   0.1111111
        k(   20) = (   0.1666667   0.1666667  -0.5000000), wk =   0.0555556
        k(   21) = (   0.1666667   0.3333333   0.0000000), wk =   0.1111111
        k(   22) = (   0.1666667   0.3333333   0.1666667), wk =   0.1111111
        k(   23) = (   0.1666667   0.3333333   0.3333333), wk =   0.1111111
        k(   24) = (   0.1666667   0.3333333  -0.5000000), wk =   0.1111111
        k(   25) = (   0.3333333   0.3333333   0.0000000), wk =   0.0185185
        k(   26) = (   0.3333333   0.3333333   0.1666667), wk =   0.0370370
        k(   27) = (   0.3333333   0.3333333   0.3333333), wk =   0.0370370
        k(   28) = (   0.3333333   0.3333333  -0.5000000), wk =   0.0185185
        k(   29) = (   0.0000000  -0.1666667   0.1666667), wk =   0.0555556
        k(   30) = (   0.0000000  -0.1666667   0.3333333), wk =   0.0555556
        k(   31) = (   0.0000000  -0.3333333   0.1666667), wk =   0.0555556
        k(   32) = (   0.0000000  -0.3333333   0.3333333), wk =   0.0555556
        k(   33) = (  -0.1666667  -0.3333333   0.1666667), wk =   0.1111111
        k(   34) = (  -0.1666667  -0.3333333   0.3333333), wk =   0.1111111

     Check: negative core charge=   -0.000002

     Initial potential from superposition of free atoms

     starting charge     107.9776, renormalised to     108.0000
     Starting wfcs are   78 randomized atomic wfcs

     Self-consistent Calculation

     iteration #  1     ecut=    50.00 Ry     beta= 0.30
     Davidson diagonalization with overlap

     ethr =  1.00E-02,  avg # of iterations =  1.4

     total energy              =   -1084.22174079 Ry
     estimated scf accuracy    <       2.34982155 Ry

[...]

[barbara][[30197,1],3][../../../../../../opal/mca/btl/tcp/btl_tcp.c:559:mca_btl_tcp_recv_blocking] recv(18) failed: Connection reset by peer (104)
     ethr =  2.44E-04,  avg # of iterations =  9.4

[...]

     c_bands:  1 eigenvalues not converged
     ethr =  9.82E-07,  avg # of iterations =  9.9

[...]

     c_bands:  1 eigenvalues not converged
     ethr =  9.82E-07,  avg # of iterations = 12.0

[...]

     total energy              =   -1084.78272515 Ry
     estimated scf accuracy    <       0.00000006 Ry

     iteration # 42     ecut=    50.00 Ry     beta= 0.30
     Davidson diagonalization with overlap

     ethr =  1.02E-11,  avg # of iterations =  5.9

     End of self-consistent calculation

          k = 0.0000 0.0000 0.0000 (  7143 PWs)   bands (ev):

   -12.2209 -12.1024 -12.1024 -11.8603 -11.8603 -11.7369  -0.5947  -0.5947
    -0.5337  -0.5337  -0.5332  -0.5141  -0.5141  -0.5141  -0.5141  -0.4546
    -0.4546  -0.4443  -0.4443  -0.4443  -0.4443  -0.3918  -0.3918   0.0795
     0.0795   0.1288   0.1288   0.1288   0.1288   0.1549   0.2010   0.2010
     0.2010   0.2010   0.2230   0.2230   0.5323   1.6655   1.6655   3.0713
     3.0713   3.7330   3.7330   3.8997   3.8997   3.8997   3.8997   4.2236
     4.2236   4.2236   4.2236   4.3805   4.3805   4.4016

     occupation numbers
     1.0000   1.0000   1.0000   1.0000   1.0000   1.0000   1.0000   1.0000
     1.0000   1.0000   1.0000   1.0000   1.0000   1.0000   1.0000   1.0000
     1.0000   1.0000   1.0000   1.0000   1.0000   1.0000   1.0000   1.0000
     1.0000   1.0000   1.0000   1.0000   1.0000   1.0000   1.0000   1.0000
     1.0000   1.0000   1.0000   1.0000   1.0000   1.0000   1.0000   1.0000
     1.0000   1.0000   1.0000   1.0000   1.0000   1.0000   1.0000   1.0000
     1.0000   1.0000   1.0000   1.0000   1.0000   1.0000

[...]

          k = 0.0000-0.3849 0.0717 (  7163 PWs)   bands (ev):

[...]

          k =-0.1667-0.4811 0.0358 (  7113 PWs)   bands (ev):

[...]

          k =-0.1667-0.4811 0.0717 (  7120 PWs)   bands (ev):

   -11.8108 -11.7956 -11.7460 -11.7187 -11.6753 -11.6634  -0.5741  -0.5467
    -0.5431  -0.5344  -0.4192  -0.4062  -0.3253  -0.2946  -0.2599  -0.2345
    -0.1897  -0.1780  -0.1748  -0.1671  -0.1012  -0.0634  -0.0532  -0.0125
     0.0975   0.1180   0.1540   0.1652   0.1714   0.1755   0.2572   0.2586
     0.2896   0.3153   0.3626   0.3763   1.1423   1.1492   1.2449   1.3377
     1.5468   1.6121   2.2381   2.3646   2.5586   2.7760   2.8122   3.0073
     3.4143   3.4557   3.4924   3.5775   3.6484   3.6510

     occupation numbers
     1.0000   1.0000   1.0000   1.0000   1.0000   1.0000   1.0000   1.0000
     1.0000   1.0000   1.0000   1.0000   1.0000   1.0000   1.0000   1.0000
     1.0000   1.0000   1.0000   1.0000   1.0000   1.0000   1.0000   1.0000
     1.0000   1.0000   1.0000   1.0000   1.0000   1.0000   1.0000   1.0000
     1.0000   1.0000   1.0000   1.0000   1.0000   1.0000   1.0000   1.0000
     1.0000   1.0000   1.0000   1.0000   1.0000   1.0000   1.0000   1.0000
     1.0000   1.0000   1.0000   1.0000   1.0000   1.0000

     highest occupied level (ev):     4.4016

!    total energy              =   -1084.78272516 Ry
     estimated scf accuracy    <          6.5E-10 Ry

     The total energy is the sum of the following terms:
     one-electron contribution =    -528.23449410 Ry
     hartree contribution      =     378.41984610 Ry
     xc contribution           =    -327.59645901 Ry
     ewald contribution        =    -607.37161815 Ry

     convergence has been achieved in  42 iterations

     Forces acting on atoms (cartesian axes, Ry/au):

     atom    1 type  1   force =     0.00000000   -0.00000000   -0.00190740
     atom    2 type  1   force =     0.00000000   -0.00000000   -0.00190582
     atom    3 type  2   force =     0.00000000   -0.00000000    0.00190690
     atom    4 type  2   force =     0.00000000   -0.00000000    0.00190901
     atom    5 type  1   force =     0.00000000   -0.00000000   -0.00190498
     atom    6 type  1   force =     0.00000000    0.00000000   -0.00191219
     atom    7 type  2   force =     0.00000000    0.00000000    0.00190942
     atom    8 type  2   force =     0.00000000    0.00000000    0.00190937
     atom    9 type  1   force =     0.00000000    0.00000000   -0.00190918
     atom   10 type  1   force =     0.00000000    0.00000000   -0.00191098
     atom   11 type  2   force =     0.00000000    0.00000000    0.00190922
     atom   12 type  2   force =     0.00000000    0.00000000    0.00190663
     The non-local contrib.  to forces
     atom    1 type  1   force =     0.00000000   -0.00000000   -0.11106165
     atom    2 type  1   force =     0.00000000    0.00000000   -0.11106168
     atom    3 type  2   force =     0.00000000    0.00000000   -0.09667500
     atom    4 type  2   force =     0.00000000   -0.00000000   -0.09667255
     atom    5 type  1   force =     0.00000000    0.00000000   -0.11106199
     atom    6 type  1   force =     0.00000000    0.00000000   -0.11106707
     atom    7 type  2   force =     0.00000000   -0.00000000   -0.09667089
     atom    8 type  2   force =     0.00000000    0.00000000   -0.09667162
     atom    9 type  1   force =     0.00000000   -0.00000000   -0.11106577
     atom   10 type  1   force =     0.00000000    0.00000000   -0.11106380
     atom   11 type  2   force =     0.00000000    0.00000000   -0.09667270
     atom   12 type  2   force =     0.00000000   -0.00000000   -0.09667614
     The ionic contribution  to forces
     atom    1 type  1   force =    -0.00000000    0.00000000   -0.68525368
     atom    2 type  1   force =     0.00000000   -0.00000000   -0.68525365
     atom    3 type  2   force =    -0.00000000    0.00000000    0.68525367
     atom    4 type  2   force =     0.00000000   -0.00000000    0.68525366
     atom    5 type  1   force =    -0.00000000    0.00000000   -0.68525365
     atom    6 type  1   force =     0.00000000   -0.00000000   -0.68525369
     atom    7 type  2   force =    -0.00000000    0.00000000    0.68525366
     atom    8 type  2   force =     0.00000000   -0.00000000    0.68525368
     atom    9 type  1   force =    -0.00000000    0.00000000   -0.68525369
     atom   10 type  1   force =     0.00000000   -0.00000000   -0.68525368
     atom   11 type  2   force =    -0.00000000    0.00000000    0.68525368
     atom   12 type  2   force =     0.00000000   -0.00000000    0.68525367
     The local contribution  to forces
     atom    1 type  1   force =    -0.00000005    0.00000003    0.78745898
     atom    2 type  1   force =     0.00000005   -0.00000003    0.78746320
     atom    3 type  2   force =    -0.00000001    0.00000001   -0.58748755
     atom    4 type  2   force =     0.00000001   -0.00000001   -0.58749011
     atom    5 type  1   force =    -0.00000005    0.00000003    0.78746428
     atom    6 type  1   force =     0.00000005   -0.00000003    0.78746542
     atom    7 type  2   force =    -0.00000001    0.00000001   -0.58749075
     atom    8 type  2   force =     0.00000001   -0.00000001   -0.58749062
     atom    9 type  1   force =    -0.00000005    0.00000003    0.78746210
     atom   10 type  1   force =     0.00000005   -0.00000003    0.78746409
     atom   11 type  2   force =    -0.00000001    0.00000001   -0.58749172
     atom   12 type  2   force =     0.00000001   -0.00000001   -0.58748606
     The core correction contribution to forces
     atom    1 type  1   force =    -0.00000001    0.00000000    0.00694361
     atom    2 type  1   force =     0.00000001   -0.00000000    0.00694634
     atom    3 type  2   force =     0.00000000   -0.00000000    0.00082048
     atom    4 type  2   force =    -0.00000000    0.00000000    0.00082175
     atom    5 type  1   force =    -0.00000001    0.00000000    0.00694632
     atom    6 type  1   force =     0.00000001   -0.00000000    0.00694477
     atom    7 type  2   force =     0.00000000   -0.00000000    0.00082172
     atom    8 type  2   force =    -0.00000000    0.00000000    0.00081954
     atom    9 type  1   force =    -0.00000001    0.00000000    0.00694483
     atom   10 type  1   force =     0.00000001   -0.00000000    0.00694358
     atom   11 type  2   force =     0.00000000   -0.00000000    0.00081955
     atom   12 type  2   force =    -0.00000000    0.00000000    0.00082050
     The Hubbard contrib.    to forces
     atom    1 type  1   force =     0.00000000    0.00000000    0.00000000
     atom    2 type  1   force =     0.00000000    0.00000000    0.00000000
     atom    3 type  2   force =     0.00000000    0.00000000    0.00000000
     atom    4 type  2   force =     0.00000000    0.00000000    0.00000000
     atom    5 type  1   force =     0.00000000    0.00000000    0.00000000
     atom    6 type  1   force =     0.00000000    0.00000000    0.00000000
     atom    7 type  2   force =     0.00000000    0.00000000    0.00000000
     atom    8 type  2   force =     0.00000000    0.00000000    0.00000000
     atom    9 type  1   force =     0.00000000    0.00000000    0.00000000
     atom   10 type  1   force =     0.00000000    0.00000000    0.00000000
     atom   11 type  2   force =     0.00000000    0.00000000    0.00000000
     atom   12 type  2   force =     0.00000000    0.00000000    0.00000000
     The SCF correction term to forces
     atom    1 type  1   force =    -0.00000000    0.00000000    0.00000504
     atom    2 type  1   force =     0.00000000   -0.00000000   -0.00000033
     atom    3 type  2   force =    -0.00000000    0.00000000   -0.00000499
     atom    4 type  2   force =     0.00000000   -0.00000000   -0.00000403
     atom    5 type  1   force =    -0.00000000    0.00000000   -0.00000023
     atom    6 type  1   force =     0.00000000   -0.00000000   -0.00000192
     atom    7 type  2   force =    -0.00000000    0.00000000   -0.00000461
     atom    8 type  2   force =     0.00000000   -0.00000000   -0.00000190
     atom    9 type  1   force =    -0.00000000    0.00000000    0.00000306
     atom   10 type  1   force =     0.00000000   -0.00000000   -0.00000146
     atom   11 type  2   force =    -0.00000000    0.00000000    0.00000011
     atom   12 type  2   force =     0.00000000   -0.00000000   -0.00000563

     Total force =     0.006611     Total SCF correction =     0.000012

     General routines

     Parallel routines

   This run was terminated on:  20:34: 0  27Aug2025

   JOB DONE.