     Program PWSCF v.7.0 starts on 27Aug2025 at 12: 7:19

     K-points division:     npool     =      17

     Reading input from /home/jvc/QEspresso7.2/ZnO_database/scripts/cell113.in/ZnO-2.94-1.49-113.in
Warning: card &CELL ignored
Warning: card / ignored
Warning: card &FCP ignored
Warning: card / ignored
Warning: card &RISM ignored
Warning: card / ignored

     Current dimensions of program PWSCF are:
     Max number of different atomic species (ntypx) = 10
     Max number of k-points (npk) =  40000
     Max angular momentum in pseudopotentials (lmaxx) =  4
     file Zn.upf: wavefunction(s)  3D renormalized
     Found identity + (  0.0000  0.0000  0.3333) symmetry
     This is a supercell, fractional translations are disabled
     Message from routine setup:
     using ibrav=0 with symmetry is DISCOURAGED, use correct ibrav instead

     Subspace diagonalization in iterative solution of the eigenvalue problem:
     a serial algorithm will be used

     Using Slab Decomposition

     bravais-lattice index     =            0
     lattice parameter (alat)  =       5.5610  a.u.
     unit-cell volume          =     663.5765 (a.u.)^3
     number of atoms/cell      =           12
     number of atomic types    =            2
     number of electrons       =       108.00
     number of Kohn-Sham states=           54
     kinetic-energy cutoff     =      50.0000  Ry
     charge density cutoff     =     400.0000  Ry
     scf convergence threshold =      1.0E-08
     mixing beta               =       0.3000
     number of iterations used =            8  plain     mixing
     Exchange-correlation= PBE
                           (   1   4   3   4   0   0   0)

     celldm(1)=   5.560969  celldm(2)=   0.000000  celldm(3)=   0.000000
     celldm(4)=   0.000000  celldm(5)=   0.000000  celldm(6)=   0.000000

     crystal axes: (cart. coord. in units of alat)
               a(1) = (   1.000000   0.000000   0.000000 )
               a(2) = (  -0.500000   0.866025   0.000000 )
               a(3) = (   0.000000   0.000000   4.455629 )

     reciprocal axes: (cart. coord. in units 2 pi/alat)
               b(1) = (  1.000000  0.577350 -0.000000 )
               b(2) = (  0.000000  1.154701  0.000000 )
               b(3) = (  0.000000 -0.000000  0.224435 )

     PseudoPot. # 1 for Zn read from file:
     /home/jvc/QEspresso7.2/ZnO_database/pseudos/Zn.upf
     MD5 check sum: 7f56cabf9682ed8c977c2f7d0c5985c5
     Pseudo is Ultrasoft + core correction, Zval = 12.0
     Generated using &quot;atomic&quot; code by A. Dal Corso  v.6.2.2
     Using radial grid of 1201 points,  6 beta functions with:
                l(1) =   0
                l(2) =   0
                l(3) =   1
                l(4) =   1
                l(5) =   2
                l(6) =   2
     Q(r) pseudized with 0 coefficients

     PseudoPot. # 2 for O  read from file:
     /home/jvc/QEspresso7.2/ZnO_database/pseudos/O.upf
     MD5 check sum: 91400c9766925bcf19f520983a725ff0
     Pseudo is Ultrasoft + core correction, Zval =  6.0
     Generated using &quot;atomic&quot; code by A. Dal Corso  v.6.3MaX
     Using radial grid of 1095 points,  4 beta functions with:
                l(1) =   0
                l(2) =   0
                l(3) =   1
                l(4) =   1
     Q(r) pseudized with 0 coefficients

     atomic species   valence    mass     pseudopotential
        Zn            12.00    65.38000     Zn( 1.00)
        O              6.00    15.99900     O ( 1.00)

      6 Sym. Ops. (no inversion) found

                                    s                        frac. trans.

      isym =  1     identity

 cryst.   s( 1) = (     1          0          0      )
                  (     0          1          0      )
                  (     0          0          1      )

 cart.    s( 1) = (  1.0000000  0.0000000  0.0000000 )
                  (  0.0000000  1.0000000  0.0000000 )
                  (  0.0000000  0.0000000  1.0000000 )

      isym =  2     120 deg rotation - cryst. axis [0,0,1]

[...]

      isym =  3     120 deg rotation - cryst. axis [0,0,-1]

[...]

      isym =  4     inv. 180 deg rotation - cart. axis [1,0,0]

[...]

      isym =  5     inv. 180 deg rotation - cryst. axis [0,1,0]

[...]

      isym =  6     inv. 180 deg rotation - cryst. axis [1,1,0]

 cryst.   s( 6) = (     0         -1          0      )
                  (    -1          0          0      )
                  (     0          0          1      )

 cart.    s( 6) = (  0.5000000 -0.8660254  0.0000000 )
                  ( -0.8660254 -0.5000000  0.0000000 )
                  (  0.0000000  0.0000000  1.0000000 )

   Cartesian axes

     site n.     atom                  positions (alat units)
         1           Zn  tau(   1) = (   0.5000000   0.2886751   0.7435459  )
         2           Zn  tau(   2) = (  -0.0000000   0.5773503   0.0009410  )
         3           O   tau(   3) = (   0.5000000   0.2886751   1.3065039  )
         4           O   tau(   4) = (  -0.0000000   0.5773503   0.5638991  )
         5           Zn  tau(   5) = (   0.5000000   0.2886751   2.2287555  )
         6           Zn  tau(   6) = (  -0.0000000   0.5773503   1.4861507  )
         7           O   tau(   7) = (   0.5000000   0.2886751   2.7917136  )
         8           O   tau(   8) = (  -0.0000000   0.5773503   2.0491088  )
         9           Zn  tau(   9) = (   0.5000000   0.2886751   3.7139652  )
        10           Zn  tau(  10) = (  -0.0000000   0.5773503   2.9713604  )
        11           O   tau(  11) = (   0.5000000   0.2886751   4.2769233  )
        12           O   tau(  12) = (  -0.0000000   0.5773503   3.5343185  )

   Crystallographic axes

     site n.     atom                  positions (cryst. coord.)
         1           Zn  tau(   1) = (  0.6666667  0.3333333  0.1668779  )
         2           Zn  tau(   2) = (  0.3333333  0.6666667  0.0002112  )
         3           O   tau(   3) = (  0.6666667  0.3333333  0.2932255  )
         4           O   tau(   4) = (  0.3333333  0.6666667  0.1265588  )
         5           Zn  tau(   5) = (  0.6666667  0.3333333  0.5002112  )
         6           Zn  tau(   6) = (  0.3333333  0.6666667  0.3335445  )
         7           O   tau(   7) = (  0.6666667  0.3333333  0.6265588  )
         8           O   tau(   8) = (  0.3333333  0.6666667  0.4598921  )
         9           Zn  tau(   9) = (  0.6666667  0.3333333  0.8335445  )
        10           Zn  tau(  10) = (  0.3333333  0.6666667  0.6668779  )
        11           O   tau(  11) = (  0.6666667  0.3333333  0.9598921  )
        12           O   tau(  12) = (  0.3333333  0.6666667  0.7932255  )

     number of k points=    34
                       cart. coord. in units 2pi/alat
        k(    1) = (   0.0000000   0.0000000   0.0000000), wk =   0.0092593
        k(    2) = (   0.0000000   0.0000000   0.0374059), wk =   0.0185185
        k(    3) = (   0.0000000   0.0000000   0.0748117), wk =   0.0185185
        k(    4) = (   0.0000000   0.0000000  -0.1122176), wk =   0.0092593
        k(    5) = (   0.0000000   0.1924501   0.0000000), wk =   0.0555556
        k(    6) = (   0.0000000   0.1924501   0.0374059), wk =   0.0555556
        k(    7) = (   0.0000000   0.1924501   0.0748117), wk =   0.0555556
        k(    8) = (   0.0000000   0.1924501  -0.1122176), wk =   0.0555556
        k(    9) = (   0.0000000   0.3849002   0.0000000), wk =   0.0555556
        k(   10) = (   0.0000000   0.3849002   0.0374059), wk =   0.0555556
        k(   11) = (   0.0000000   0.3849002   0.0748117), wk =   0.0555556
        k(   12) = (   0.0000000   0.3849002  -0.1122176), wk =   0.0555556
        k(   13) = (   0.0000000  -0.5773503   0.0000000), wk =   0.0277778
        k(   14) = (   0.0000000  -0.5773503   0.0374059), wk =   0.0555556
        k(   15) = (   0.0000000  -0.5773503   0.0748117), wk =   0.0555556
        k(   16) = (   0.0000000  -0.5773503  -0.1122176), wk =   0.0277778
        k(   17) = (   0.1666667   0.2886751   0.0000000), wk =   0.0555556
        k(   18) = (   0.1666667   0.2886751   0.0374059), wk =   0.1111111
        k(   19) = (   0.1666667   0.2886751   0.0748117), wk =   0.1111111
        k(   20) = (   0.1666667   0.2886751  -0.1122176), wk =   0.0555556
        k(   21) = (   0.1666667   0.4811252   0.0000000), wk =   0.1111111
        k(   22) = (   0.1666667   0.4811252   0.0374059), wk =   0.1111111
        k(   23) = (   0.1666667   0.4811252   0.0748117), wk =   0.1111111
        k(   24) = (   0.1666667   0.4811252  -0.1122176), wk =   0.1111111
        k(   25) = (   0.3333333   0.5773503   0.0000000), wk =   0.0185185
        k(   26) = (   0.3333333   0.5773503   0.0374059), wk =   0.0370370
        k(   27) = (   0.3333333   0.5773503   0.0748117), wk =   0.0370370
        k(   28) = (   0.3333333   0.5773503  -0.1122176), wk =   0.0185185
        k(   29) = (   0.0000000  -0.1924501   0.0374059), wk =   0.0555556
        k(   30) = (   0.0000000  -0.1924501   0.0748117), wk =   0.0555556
        k(   31) = (   0.0000000  -0.3849002   0.0374059), wk =   0.0555556
        k(   32) = (   0.0000000  -0.3849002   0.0748117), wk =   0.0555556
        k(   33) = (  -0.1666667  -0.4811252   0.0374059), wk =   0.1111111
        k(   34) = (  -0.1666667  -0.4811252   0.0748117), wk =   0.1111111

                       cryst. coord.
        k(    1) = (   0.0000000   0.0000000   0.0000000), wk =   0.0092593
        k(    2) = (   0.0000000   0.0000000   0.1666667), wk =   0.0185185
        k(    3) = (   0.0000000   0.0000000   0.3333333), wk =   0.0185185
        k(    4) = (   0.0000000   0.0000000  -0.5000000), wk =   0.0092593
        k(    5) = (   0.0000000   0.1666667   0.0000000), wk =   0.0555556
        k(    6) = (   0.0000000   0.1666667   0.1666667), wk =   0.0555556
        k(    7) = (   0.0000000   0.1666667   0.3333333), wk =   0.0555556
        k(    8) = (   0.0000000   0.1666667  -0.5000000), wk =   0.0555556
        k(    9) = (   0.0000000   0.3333333   0.0000000), wk =   0.0555556
        k(   10) = (   0.0000000   0.3333333   0.1666667), wk =   0.0555556
        k(   11) = (   0.0000000   0.3333333   0.3333333), wk =   0.0555556
        k(   12) = (   0.0000000   0.3333333  -0.5000000), wk =   0.0555556
        k(   13) = (   0.0000000  -0.5000000   0.0000000), wk =   0.0277778
        k(   14) = (   0.0000000  -0.5000000   0.1666667), wk =   0.0555556
        k(   15) = (   0.0000000  -0.5000000   0.3333333), wk =   0.0555556
        k(   16) = (   0.0000000  -0.5000000  -0.5000000), wk =   0.0277778
        k(   17) = (   0.1666667   0.1666667   0.0000000), wk =   0.0555556
        k(   18) = (   0.1666667   0.1666667   0.1666667), wk =   0.1111111
        k(   19) = (   0.1666667   0.1666667   0.3333333), wk =   0.1111111
        k(   20) = (   0.1666667   0.1666667  -0.5000000), wk =   0.0555556
        k(   21) = (   0.1666667   0.3333333   0.0000000), wk =   0.1111111
        k(   22) = (   0.1666667   0.3333333   0.1666667), wk =   0.1111111
        k(   23) = (   0.1666667   0.3333333   0.3333333), wk =   0.1111111
        k(   24) = (   0.1666667   0.3333333  -0.5000000), wk =   0.1111111
        k(   25) = (   0.3333333   0.3333333   0.0000000), wk =   0.0185185
        k(   26) = (   0.3333333   0.3333333   0.1666667), wk =   0.0370370
        k(   27) = (   0.3333333   0.3333333   0.3333333), wk =   0.0370370
        k(   28) = (   0.3333333   0.3333333  -0.5000000), wk =   0.0185185
        k(   29) = (   0.0000000  -0.1666667   0.1666667), wk =   0.0555556
        k(   30) = (   0.0000000  -0.1666667   0.3333333), wk =   0.0555556
        k(   31) = (   0.0000000  -0.3333333   0.1666667), wk =   0.0555556
        k(   32) = (   0.0000000  -0.3333333   0.3333333), wk =   0.0555556
        k(   33) = (  -0.1666667  -0.3333333   0.1666667), wk =   0.1111111
        k(   34) = (  -0.1666667  -0.3333333   0.3333333), wk =   0.1111111

     Initial potential from superposition of free atoms

     starting charge     107.9776, renormalised to     108.0000
     Starting wfcs are   78 randomized atomic wfcs

     Self-consistent Calculation

     iteration #  1     ecut=    50.00 Ry     beta= 0.30
     Davidson diagonalization with overlap

     ethr =  1.00E-02,  avg # of iterations =  2.4

     total energy              =   -1083.41037549 Ry
     estimated scf accuracy    <       2.15895890 Ry

[...]

     c_bands:  1 eigenvalues not converged
     ethr =  1.94E-07,  avg # of iterations = 12.3

[...]

     total energy              =   -1083.78614062 Ry
     estimated scf accuracy    <       0.00000002 Ry

     iteration # 16     ecut=    50.00 Ry     beta= 0.30
     Davidson diagonalization with overlap

     ethr =  1.46E-11,  avg # of iterations =  9.7

     End of self-consistent calculation

          k = 0.0000 0.0000 0.0000 (  3967 PWs)   bands (ev):

    -7.7740  -7.3746  -7.3746  -6.5322  -6.5322  -6.0936   4.9697   4.9697
     5.2189   5.4074   5.4074   5.8207   5.8207   5.8527   5.8527   5.8527
     5.8527   5.9137   6.0477   6.0477   6.0477   6.0477   6.2227   6.2227
     8.2681   8.2681   8.4905   8.4905   8.4905   8.4905   8.7944   8.7944
     8.7945   8.7945   8.8503   8.8503   9.3300  10.8468  10.8468  12.5444
    12.5444  12.9163  12.9164  12.9428  12.9428  12.9428  12.9428  13.7551
    13.7551  13.7552  13.7552  14.1314  14.1508  14.1508

     occupation numbers
     1.0000   1.0000   1.0000   1.0000   1.0000   1.0000   1.0000   1.0000
     1.0000   1.0000   1.0000   1.0000   1.0000   1.0000   1.0000   1.0000
     1.0000   1.0000   1.0000   1.0000   1.0000   1.0000   1.0000   1.0000
     1.0000   1.0000   1.0000   1.0000   1.0000   1.0000   1.0000   1.0000
     1.0000   1.0000   1.0000   1.0000   1.0000   1.0000   1.0000   1.0000
     1.0000   1.0000   1.0000   1.0000   1.0000   1.0000   1.0000   1.0000
     1.0000   1.0000   1.0000   1.0000   1.0000   1.0000

[...]

          k = 0.0000-0.3849 0.0748 (  3962 PWs)   bands (ev):

[...]

          k =-0.1667-0.4811 0.0374 (  3955 PWs)   bands (ev):

[...]

          k =-0.1667-0.4811 0.0748 (  3962 PWs)   bands (ev):

    -6.4614  -6.3977  -6.2007  -6.1024  -5.9694  -5.9394   4.7187   4.7382
     4.9993   5.1443   5.1445   5.3803   6.0166   6.0318   6.0556   6.0848
     6.1614   6.2161   6.6609   6.7038   6.7857   6.9269   6.9537   7.0931
     8.2071   8.3088   8.4872   8.5518   8.6257   8.6339   8.9390   8.9516
     8.9723   9.0029   9.0757   9.1598   9.3156   9.3235   9.7064   9.7477
     9.9290   9.9511  10.3475  10.3554  10.8205  10.9534  11.1843  11.3685
    12.1499  12.3031  12.3524  12.5860  12.7106  12.7176

     occupation numbers
     1.0000   1.0000   1.0000   1.0000   1.0000   1.0000   1.0000   1.0000
     1.0000   1.0000   1.0000   1.0000   1.0000   1.0000   1.0000   1.0000
     1.0000   1.0000   1.0000   1.0000   1.0000   1.0000   1.0000   1.0000
     1.0000   1.0000   1.0000   1.0000   1.0000   1.0000   1.0000   1.0000
     1.0000   1.0000   1.0000   1.0000   1.0000   1.0000   1.0000   1.0000
     1.0000   1.0000   1.0000   1.0000   1.0000   1.0000   1.0000   1.0000
     1.0000   1.0000   1.0000   1.0000   1.0000   1.0000

     highest occupied level (ev):    14.1508

!    total energy              =   -1083.78614068 Ry
     estimated scf accuracy    <          4.1E-10 Ry

     The total energy is the sum of the following terms:
     one-electron contribution =    -321.53465166 Ry
     hartree contribution      =     307.60248606 Ry
     xc contribution           =    -331.83303969 Ry
     ewald contribution        =    -738.02093540 Ry

     convergence has been achieved in  16 iterations

     Forces acting on atoms (cartesian axes, Ry/au):

     atom    1 type  1   force =     0.00000000    0.00000000   -0.15376876
     atom    2 type  1   force =     0.00000000    0.00000000   -0.15375146
     atom    3 type  2   force =     0.00000000    0.00000000    0.15376895
     atom    4 type  2   force =     0.00000000   -0.00000000    0.15377173
     atom    5 type  1   force =     0.00000000    0.00000000   -0.15375609
     atom    6 type  1   force =     0.00000000    0.00000000   -0.15378360
     atom    7 type  2   force =     0.00000000    0.00000000    0.15377095
     atom    8 type  2   force =     0.00000000    0.00000000    0.15376137
     atom    9 type  1   force =     0.00000000    0.00000000   -0.15376858
     atom   10 type  1   force =     0.00000000    0.00000000   -0.15377438
     atom   11 type  2   force =     0.00000000    0.00000000    0.15376201
     atom   12 type  2   force =     0.00000000    0.00000000    0.15376785
     The non-local contrib.  to forces
     atom    1 type  1   force =     0.00000000    0.00000000   -0.30127681
     atom    2 type  1   force =     0.00000000    0.00000000   -0.30126108
     atom    3 type  2   force =     0.00000000    0.00000000   -0.15062669
     atom    4 type  2   force =     0.00000000   -0.00000000   -0.15062426
     atom    5 type  1   force =     0.00000000    0.00000000   -0.30126468
     atom    6 type  1   force =     0.00000000    0.00000000   -0.30127239
     atom    7 type  2   force =     0.00000000    0.00000000   -0.15062011
     atom    8 type  2   force =     0.00000000   -0.00000000   -0.15063388
     atom    9 type  1   force =     0.00000000   -0.00000000   -0.30126299
     atom   10 type  1   force =     0.00000000    0.00000000   -0.30128386
     atom   11 type  2   force =     0.00000000   -0.00000000   -0.15063555
     atom   12 type  2   force =     0.00000000    0.00000000   -0.15063443
     The ionic contribution  to forces
     atom    1 type  1   force =    -0.00000000    0.00000000   -2.15847729
     atom    2 type  1   force =     0.00000000   -0.00000000   -2.15847724
     atom    3 type  2   force =    -0.00000000    0.00000000    2.15847727
     atom    4 type  2   force =     0.00000000   -0.00000000    2.15847726
     atom    5 type  1   force =    -0.00000000    0.00000000   -2.15847724
     atom    6 type  1   force =     0.00000000   -0.00000000   -2.15847729
     atom    7 type  2   force =    -0.00000000    0.00000000    2.15847726
     atom    8 type  2   force =     0.00000000   -0.00000000    2.15847729
     atom    9 type  1   force =    -0.00000000    0.00000000   -2.15847729
     atom   10 type  1   force =     0.00000000   -0.00000000   -2.15847729
     atom   11 type  2   force =    -0.00000000    0.00000000    2.15847729
     atom   12 type  2   force =     0.00000000   -0.00000000    2.15847727
     The local contribution  to forces
     atom    1 type  1   force =    -0.00000004    0.00000002    2.27274185
     atom    2 type  1   force =     0.00000004   -0.00000002    2.27272263
     atom    3 type  2   force =    -0.00000001    0.00000001   -1.85460922
     atom    4 type  2   force =     0.00000001   -0.00000001   -1.85462011
     atom    5 type  1   force =    -0.00000004    0.00000002    2.27273332
     atom    6 type  1   force =     0.00000004   -0.00000002    2.27275026
     atom    7 type  2   force =    -0.00000001    0.00000001   -1.85459687
     atom    8 type  2   force =     0.00000001   -0.00000001   -1.85461166
     atom    9 type  1   force =    -0.00000004    0.00000002    2.27272718
     atom   10 type  1   force =     0.00000004   -0.00000002    2.27275472
     atom   11 type  2   force =    -0.00000001    0.00000001   -1.85462125
     atom   12 type  2   force =     0.00000001   -0.00000001   -1.85461414
     The core correction contribution to forces
     atom    1 type  1   force =    -0.00000001    0.00000000    0.03324886
     atom    2 type  1   force =     0.00000001   -0.00000000    0.03325210
     atom    3 type  2   force =     0.00000000   -0.00000000    0.00053737
     atom    4 type  2   force =    -0.00000000    0.00000000    0.00053380
     atom    5 type  1   force =    -0.00000001    0.00000000    0.03325200
     atom    6 type  1   force =     0.00000001   -0.00000000    0.03323778
     atom    7 type  2   force =     0.00000000   -0.00000000    0.00053381
     atom    8 type  2   force =    -0.00000000    0.00000000    0.00053686
     atom    9 type  1   force =    -0.00000001    0.00000000    0.03323786
     atom   10 type  1   force =     0.00000001   -0.00000000    0.03324898
     atom   11 type  2   force =     0.00000000   -0.00000000    0.00053686
     atom   12 type  2   force =    -0.00000000    0.00000000    0.00053747
     The Hubbard contrib.    to forces
     atom    1 type  1   force =     0.00000000    0.00000000    0.00000000
     atom    2 type  1   force =     0.00000000    0.00000000    0.00000000
     atom    3 type  2   force =     0.00000000    0.00000000    0.00000000
     atom    4 type  2   force =     0.00000000    0.00000000    0.00000000
     atom    5 type  1   force =     0.00000000    0.00000000    0.00000000
     atom    6 type  1   force =     0.00000000    0.00000000    0.00000000
     atom    7 type  2   force =     0.00000000    0.00000000    0.00000000
     atom    8 type  2   force =     0.00000000    0.00000000    0.00000000
     atom    9 type  1   force =     0.00000000    0.00000000    0.00000000
     atom   10 type  1   force =     0.00000000    0.00000000    0.00000000
     atom   11 type  2   force =     0.00000000    0.00000000    0.00000000
     atom   12 type  2   force =     0.00000000    0.00000000    0.00000000
     The SCF correction term to forces
     atom    1 type  1   force =     0.00000000   -0.00000000   -0.00000907
     atom    2 type  1   force =    -0.00000000    0.00000000    0.00000844
     atom    3 type  2   force =     0.00000000   -0.00000000   -0.00001347
     atom    4 type  2   force =    -0.00000000    0.00000000    0.00000135
     atom    5 type  1   force =     0.00000000   -0.00000000   -0.00000318
     atom    6 type  1   force =    -0.00000000    0.00000000   -0.00002565
     atom    7 type  2   force =     0.00000000   -0.00000000   -0.00002684
     atom    8 type  2   force =    -0.00000000    0.00000000   -0.00001092
     atom    9 type  1   force =     0.00000000   -0.00000000    0.00000297
     atom   10 type  1   force =    -0.00000000    0.00000000   -0.00002063
     atom   11 type  2   force =     0.00000000   -0.00000000    0.00000097
     atom   12 type  2   force =    -0.00000000    0.00000000   -0.00000203

     Total force =     0.532665     Total SCF correction =     0.000048

     General routines

     Parallel routines

   This run was terminated on:  12: 9:19  27Aug2025

   JOB DONE.