     Program PWSCF v.7.0 starts on 27Aug2025 at 18:55:59

     K-points division:     npool     =      17

     Reading input from /home/jvc/QEspresso7.2/ZnO_database/scripts/cell113.in/ZnO-3.47-1.52-113.in
Warning: card &CELL ignored
Warning: card / ignored
Warning: card &FCP ignored
Warning: card / ignored
Warning: card &RISM ignored
Warning: card / ignored

     Current dimensions of program PWSCF are:
     Max number of different atomic species (ntypx) = 10
     Max number of k-points (npk) =  40000
     Max angular momentum in pseudopotentials (lmaxx) =  4
     file Zn.upf: wavefunction(s)  3D renormalized
     Found identity + (  0.0000  0.0000  0.3333) symmetry
     This is a supercell, fractional translations are disabled
     Message from routine setup:
     using ibrav=0 with symmetry is DISCOURAGED, use correct ibrav instead

     Subspace diagonalization in iterative solution of the eigenvalue problem:
     a serial algorithm will be used

     Using Slab Decomposition

     bravais-lattice index     =            0
     lattice parameter (alat)  =       6.5496  a.u.
     unit-cell volume          =    1107.6972 (a.u.)^3
     number of atoms/cell      =           12
     number of atomic types    =            2
     number of electrons       =       108.00
     number of Kohn-Sham states=           54
     kinetic-energy cutoff     =      50.0000  Ry
     charge density cutoff     =     400.0000  Ry
     scf convergence threshold =      1.0E-08
     mixing beta               =       0.3000
     number of iterations used =            8  plain     mixing
     Exchange-correlation= PBE
                           (   1   4   3   4   0   0   0)

     celldm(1)=   6.549585  celldm(2)=   0.000000  celldm(3)=   0.000000
     celldm(4)=   0.000000  celldm(5)=   0.000000  celldm(6)=   0.000000

     crystal axes: (cart. coord. in units of alat)
               a(1) = (   1.000000   0.000000   0.000000 )
               a(2) = (  -0.500000   0.866025   0.000000 )
               a(3) = (   0.000000   0.000000   4.552491 )

     reciprocal axes: (cart. coord. in units 2 pi/alat)
               b(1) = (  1.000000  0.577350 -0.000000 )
               b(2) = (  0.000000  1.154701  0.000000 )
               b(3) = (  0.000000 -0.000000  0.219660 )

     PseudoPot. # 1 for Zn read from file:
     /home/jvc/QEspresso7.2/ZnO_database/pseudos/Zn.upf
     MD5 check sum: 7f56cabf9682ed8c977c2f7d0c5985c5
     Pseudo is Ultrasoft + core correction, Zval = 12.0
     Generated using &quot;atomic&quot; code by A. Dal Corso  v.6.2.2
     Using radial grid of 1201 points,  6 beta functions with:
                l(1) =   0
                l(2) =   0
                l(3) =   1
                l(4) =   1
                l(5) =   2
                l(6) =   2
     Q(r) pseudized with 0 coefficients

     PseudoPot. # 2 for O  read from file:
     /home/jvc/QEspresso7.2/ZnO_database/pseudos/O.upf
     MD5 check sum: 91400c9766925bcf19f520983a725ff0
     Pseudo is Ultrasoft + core correction, Zval =  6.0
     Generated using &quot;atomic&quot; code by A. Dal Corso  v.6.3MaX
     Using radial grid of 1095 points,  4 beta functions with:
                l(1) =   0
                l(2) =   0
                l(3) =   1
                l(4) =   1
     Q(r) pseudized with 0 coefficients

     atomic species   valence    mass     pseudopotential
        Zn            12.00    65.38000     Zn( 1.00)
        O              6.00    15.99900     O ( 1.00)

      6 Sym. Ops. (no inversion) found

                                    s                        frac. trans.

      isym =  1     identity

 cryst.   s( 1) = (     1          0          0      )
                  (     0          1          0      )
                  (     0          0          1      )

 cart.    s( 1) = (  1.0000000  0.0000000  0.0000000 )
                  (  0.0000000  1.0000000  0.0000000 )
                  (  0.0000000  0.0000000  1.0000000 )

      isym =  2     120 deg rotation - cryst. axis [0,0,1]

[...]

      isym =  3     120 deg rotation - cryst. axis [0,0,-1]

[...]

      isym =  4     inv. 180 deg rotation - cart. axis [1,0,0]

[...]

      isym =  5     inv. 180 deg rotation - cryst. axis [0,1,0]

[...]

      isym =  6     inv. 180 deg rotation - cryst. axis [1,1,0]

 cryst.   s( 6) = (     0         -1          0      )
                  (    -1          0          0      )
                  (     0          0          1      )

 cart.    s( 6) = (  0.5000000 -0.8660254  0.0000000 )
                  ( -0.8660254 -0.5000000  0.0000000 )
                  (  0.0000000  0.0000000  1.0000000 )

   Cartesian axes

     site n.     atom                  positions (alat units)
         1           Zn  tau(   1) = (   0.5000000   0.2886751   0.7597099  )
         2           Zn  tau(   2) = (  -0.0000000   0.5773503   0.0009615  )
         3           O   tau(   3) = (   0.5000000   0.2886751   1.3349062  )
         4           O   tau(   4) = (  -0.0000000   0.5773503   0.5761578  )
         5           Zn  tau(   5) = (   0.5000000   0.2886751   2.2772067  )
         6           Zn  tau(   6) = (  -0.0000000   0.5773503   1.5184583  )
         7           O   tau(   7) = (   0.5000000   0.2886751   2.8524030  )
         8           O   tau(   8) = (  -0.0000000   0.5773503   2.0936546  )
         9           Zn  tau(   9) = (   0.5000000   0.2886751   3.7947036  )
        10           Zn  tau(  10) = (  -0.0000000   0.5773503   3.0359552  )
        11           O   tau(  11) = (   0.5000000   0.2886751   4.3698999  )
        12           O   tau(  12) = (  -0.0000000   0.5773503   3.6111515  )

   Crystallographic axes

     site n.     atom                  positions (cryst. coord.)
         1           Zn  tau(   1) = (  0.6666667  0.3333333  0.1668779  )
         2           Zn  tau(   2) = (  0.3333333  0.6666667  0.0002112  )
         3           O   tau(   3) = (  0.6666667  0.3333333  0.2932255  )
         4           O   tau(   4) = (  0.3333333  0.6666667  0.1265588  )
         5           Zn  tau(   5) = (  0.6666667  0.3333333  0.5002112  )
         6           Zn  tau(   6) = (  0.3333333  0.6666667  0.3335445  )
         7           O   tau(   7) = (  0.6666667  0.3333333  0.6265588  )
         8           O   tau(   8) = (  0.3333333  0.6666667  0.4598921  )
         9           Zn  tau(   9) = (  0.6666667  0.3333333  0.8335445  )
        10           Zn  tau(  10) = (  0.3333333  0.6666667  0.6668779  )
        11           O   tau(  11) = (  0.6666667  0.3333333  0.9598921  )
        12           O   tau(  12) = (  0.3333333  0.6666667  0.7932255  )

     number of k points=    34
                       cart. coord. in units 2pi/alat
        k(    1) = (   0.0000000   0.0000000   0.0000000), wk =   0.0092593
        k(    2) = (   0.0000000   0.0000000   0.0366100), wk =   0.0185185
        k(    3) = (   0.0000000   0.0000000   0.0732200), wk =   0.0185185
        k(    4) = (   0.0000000   0.0000000  -0.1098300), wk =   0.0092593
        k(    5) = (   0.0000000   0.1924501   0.0000000), wk =   0.0555556
        k(    6) = (   0.0000000   0.1924501   0.0366100), wk =   0.0555556
        k(    7) = (   0.0000000   0.1924501   0.0732200), wk =   0.0555556
        k(    8) = (   0.0000000   0.1924501  -0.1098300), wk =   0.0555556
        k(    9) = (   0.0000000   0.3849002   0.0000000), wk =   0.0555556
        k(   10) = (   0.0000000   0.3849002   0.0366100), wk =   0.0555556
        k(   11) = (   0.0000000   0.3849002   0.0732200), wk =   0.0555556
        k(   12) = (   0.0000000   0.3849002  -0.1098300), wk =   0.0555556
        k(   13) = (   0.0000000  -0.5773503   0.0000000), wk =   0.0277778
        k(   14) = (   0.0000000  -0.5773503   0.0366100), wk =   0.0555556
        k(   15) = (   0.0000000  -0.5773503   0.0732200), wk =   0.0555556
        k(   16) = (   0.0000000  -0.5773503  -0.1098300), wk =   0.0277778
        k(   17) = (   0.1666667   0.2886751   0.0000000), wk =   0.0555556
        k(   18) = (   0.1666667   0.2886751   0.0366100), wk =   0.1111111
        k(   19) = (   0.1666667   0.2886751   0.0732200), wk =   0.1111111
        k(   20) = (   0.1666667   0.2886751  -0.1098300), wk =   0.0555556
        k(   21) = (   0.1666667   0.4811252   0.0000000), wk =   0.1111111
        k(   22) = (   0.1666667   0.4811252   0.0366100), wk =   0.1111111
        k(   23) = (   0.1666667   0.4811252   0.0732200), wk =   0.1111111
        k(   24) = (   0.1666667   0.4811252  -0.1098300), wk =   0.1111111
        k(   25) = (   0.3333333   0.5773503   0.0000000), wk =   0.0185185
        k(   26) = (   0.3333333   0.5773503   0.0366100), wk =   0.0370370
        k(   27) = (   0.3333333   0.5773503   0.0732200), wk =   0.0370370
        k(   28) = (   0.3333333   0.5773503  -0.1098300), wk =   0.0185185
        k(   29) = (   0.0000000  -0.1924501   0.0366100), wk =   0.0555556
        k(   30) = (   0.0000000  -0.1924501   0.0732200), wk =   0.0555556
        k(   31) = (   0.0000000  -0.3849002   0.0366100), wk =   0.0555556
        k(   32) = (   0.0000000  -0.3849002   0.0732200), wk =   0.0555556
        k(   33) = (  -0.1666667  -0.4811252   0.0366100), wk =   0.1111111
        k(   34) = (  -0.1666667  -0.4811252   0.0732200), wk =   0.1111111

                       cryst. coord.
        k(    1) = (   0.0000000   0.0000000   0.0000000), wk =   0.0092593
        k(    2) = (   0.0000000   0.0000000   0.1666667), wk =   0.0185185
        k(    3) = (   0.0000000   0.0000000   0.3333333), wk =   0.0185185
        k(    4) = (   0.0000000   0.0000000  -0.5000000), wk =   0.0092593
        k(    5) = (   0.0000000   0.1666667   0.0000000), wk =   0.0555556
        k(    6) = (   0.0000000   0.1666667   0.1666667), wk =   0.0555556
        k(    7) = (   0.0000000   0.1666667   0.3333333), wk =   0.0555556
        k(    8) = (   0.0000000   0.1666667  -0.5000000), wk =   0.0555556
        k(    9) = (   0.0000000   0.3333333   0.0000000), wk =   0.0555556
        k(   10) = (   0.0000000   0.3333333   0.1666667), wk =   0.0555556
        k(   11) = (   0.0000000   0.3333333   0.3333333), wk =   0.0555556
        k(   12) = (   0.0000000   0.3333333  -0.5000000), wk =   0.0555556
        k(   13) = (   0.0000000  -0.5000000   0.0000000), wk =   0.0277778
        k(   14) = (   0.0000000  -0.5000000   0.1666667), wk =   0.0555556
        k(   15) = (   0.0000000  -0.5000000   0.3333333), wk =   0.0555556
        k(   16) = (   0.0000000  -0.5000000  -0.5000000), wk =   0.0277778
        k(   17) = (   0.1666667   0.1666667   0.0000000), wk =   0.0555556
        k(   18) = (   0.1666667   0.1666667   0.1666667), wk =   0.1111111
        k(   19) = (   0.1666667   0.1666667   0.3333333), wk =   0.1111111
        k(   20) = (   0.1666667   0.1666667  -0.5000000), wk =   0.0555556
        k(   21) = (   0.1666667   0.3333333   0.0000000), wk =   0.1111111
        k(   22) = (   0.1666667   0.3333333   0.1666667), wk =   0.1111111
        k(   23) = (   0.1666667   0.3333333   0.3333333), wk =   0.1111111
        k(   24) = (   0.1666667   0.3333333  -0.5000000), wk =   0.1111111
        k(   25) = (   0.3333333   0.3333333   0.0000000), wk =   0.0185185
        k(   26) = (   0.3333333   0.3333333   0.1666667), wk =   0.0370370
        k(   27) = (   0.3333333   0.3333333   0.3333333), wk =   0.0370370
        k(   28) = (   0.3333333   0.3333333  -0.5000000), wk =   0.0185185
        k(   29) = (   0.0000000  -0.1666667   0.1666667), wk =   0.0555556
        k(   30) = (   0.0000000  -0.1666667   0.3333333), wk =   0.0555556
        k(   31) = (   0.0000000  -0.3333333   0.1666667), wk =   0.0555556
        k(   32) = (   0.0000000  -0.3333333   0.3333333), wk =   0.0555556
        k(   33) = (  -0.1666667  -0.3333333   0.1666667), wk =   0.1111111
        k(   34) = (  -0.1666667  -0.3333333   0.3333333), wk =   0.1111111

     Check: negative core charge=   -0.000002

     Initial potential from superposition of free atoms

     starting charge     107.9776, renormalised to     108.0000
     Starting wfcs are   78 randomized atomic wfcs

     Self-consistent Calculation

     iteration #  1     ecut=    50.00 Ry     beta= 0.30
     Davidson diagonalization with overlap

     ethr =  1.00E-02,  avg # of iterations =  1.6

     total energy              =   -1084.32911095 Ry
     estimated scf accuracy    <       2.22983722 Ry

[...]

     total energy              =   -1084.85428237 Ry
     estimated scf accuracy    <       0.00000002 Ry

     iteration # 44     ecut=    50.00 Ry     beta= 0.30
     Davidson diagonalization with overlap

     ethr =  1.40E-11,  avg # of iterations =  5.0

     End of self-consistent calculation

          k = 0.0000 0.0000 0.0000 (  6661 PWs)   bands (ev):

   -11.7526 -11.6047 -11.6047 -11.3022 -11.3021 -11.1478   0.0954   0.0954
     0.1801   0.1801   0.2111   0.2179   0.2179   0.2389   0.2389   0.2389
     0.2389   0.3260   0.3260   0.3260   0.3260   0.3955   0.3955   0.7862
     0.9822   0.9822   1.0470   1.0470   1.0470   1.0470   1.1399   1.1399
     1.1400   1.1400   1.1644   1.1644   1.3508   2.5479   2.5479   4.0203
     4.0203   4.5212   4.5212   4.7228   4.7228   4.7228   4.7228   5.1118
     5.1118   5.1118   5.1118   5.2986   5.2986   5.3396

     occupation numbers
     1.0000   1.0000   1.0000   1.0000   1.0000   1.0000   1.0000   1.0000
     1.0000   1.0000   1.0000   1.0000   1.0000   1.0000   1.0000   1.0000
     1.0000   1.0000   1.0000   1.0000   1.0000   1.0000   1.0000   1.0000
     1.0000   1.0000   1.0000   1.0000   1.0000   1.0000   1.0000   1.0000
     1.0000   1.0000   1.0000   1.0000   1.0000   1.0000   1.0000   1.0000
     1.0000   1.0000   1.0000   1.0000   1.0000   1.0000   1.0000   1.0000
     1.0000   1.0000   1.0000   1.0000   1.0000   1.0000

[...]

          k = 0.0000-0.3849 0.0732 (  6607 PWs)   bands (ev):

[...]

          k =-0.1667-0.4811 0.0366 (  6607 PWs)   bands (ev):

[...]

          k =-0.1667-0.4811 0.0732 (  6604 PWs)   bands (ev):

   -11.2675 -11.2478 -11.1846 -11.1503 -11.0969 -11.0826   0.0611   0.0922
     0.1322   0.1669   0.2921   0.3329   0.4132   0.4716   0.4886   0.5280
     0.5677   0.5789   0.6178   0.6239   0.7025   0.7750   0.7753   0.8436
     0.9992   1.0265   1.0731   1.0864   1.0963   1.0999   1.2021   1.2026
     1.2380   1.2684   1.3238   1.3375   1.8649   1.8906   2.0460   2.1493
     2.3551   2.3986   2.9054   3.0356   3.2801   3.5149   3.5793   3.7837
     4.2516   4.3158   4.3305   4.4325   4.5115   4.5333

     occupation numbers
     1.0000   1.0000   1.0000   1.0000   1.0000   1.0000   1.0000   1.0000
     1.0000   1.0000   1.0000   1.0000   1.0000   1.0000   1.0000   1.0000
     1.0000   1.0000   1.0000   1.0000   1.0000   1.0000   1.0000   1.0000
     1.0000   1.0000   1.0000   1.0000   1.0000   1.0000   1.0000   1.0000
     1.0000   1.0000   1.0000   1.0000   1.0000   1.0000   1.0000   1.0000
     1.0000   1.0000   1.0000   1.0000   1.0000   1.0000   1.0000   1.0000
     1.0000   1.0000   1.0000   1.0000   1.0000   1.0000

     highest occupied level (ev):     5.3396

!    total energy              =   -1084.85428237 Ry
     estimated scf accuracy    <          2.3E-09 Ry

     The total energy is the sum of the following terms:
     one-electron contribution =    -503.61801523 Ry
     hartree contribution      =     369.51514811 Ry
     xc contribution           =    -328.00486763 Ry
     ewald contribution        =    -622.74654762 Ry

     convergence has been achieved in  44 iterations

     Forces acting on atoms (cartesian axes, Ry/au):

     atom    1 type  1   force =     0.00000000    0.00000000   -0.01101824
     atom    2 type  1   force =     0.00000000    0.00000000   -0.01102897
     atom    3 type  2   force =     0.00000000    0.00000000    0.01102418
     atom    4 type  2   force =     0.00000000   -0.00000000    0.01102671
     atom    5 type  1   force =     0.00000000   -0.00000000   -0.01102310
     atom    6 type  1   force =     0.00000000    0.00000000   -0.01101883
     atom    7 type  2   force =     0.00000000    0.00000000    0.01102282
     atom    8 type  2   force =     0.00000000    0.00000000    0.01102082
     atom    9 type  1   force =     0.00000000    0.00000000   -0.01102403
     atom   10 type  1   force =     0.00000000    0.00000000   -0.01102702
     atom   11 type  2   force =     0.00000000    0.00000000    0.01102223
     atom   12 type  2   force =     0.00000000    0.00000000    0.01102344
     The non-local contrib.  to forces
     atom    1 type  1   force =     0.00000000    0.00000000   -0.17386501
     atom    2 type  1   force =     0.00000000   -0.00000000   -0.17386711
     atom    3 type  2   force =     0.00000000    0.00000000   -0.14509421
     atom    4 type  2   force =     0.00000000    0.00000000   -0.14509385
     atom    5 type  1   force =     0.00000000   -0.00000000   -0.17386273
     atom    6 type  1   force =     0.00000000   -0.00000000   -0.17386459
     atom    7 type  2   force =     0.00000000   -0.00000000   -0.14508653
     atom    8 type  2   force =     0.00000000   -0.00000000   -0.14508937
     atom    9 type  1   force =     0.00000000   -0.00000000   -0.17386563
     atom   10 type  1   force =     0.00000000    0.00000000   -0.17386436
     atom   11 type  2   force =     0.00000000   -0.00000000   -0.14508908
     atom   12 type  2   force =     0.00000000    0.00000000   -0.14508725
     The ionic contribution  to forces
     atom    1 type  1   force =    -0.00000000    0.00000000   -1.12322817
     atom    2 type  1   force =     0.00000000   -0.00000000   -1.12322814
     atom    3 type  2   force =    -0.00000000    0.00000000    1.12322816
     atom    4 type  2   force =     0.00000000   -0.00000000    1.12322815
     atom    5 type  1   force =    -0.00000000    0.00000000   -1.12322814
     atom    6 type  1   force =     0.00000000   -0.00000000   -1.12322817
     atom    7 type  2   force =    -0.00000000    0.00000000    1.12322815
     atom    8 type  2   force =     0.00000000   -0.00000000    1.12322817
     atom    9 type  1   force =    -0.00000000    0.00000000   -1.12322817
     atom   10 type  1   force =     0.00000000   -0.00000000   -1.12322817
     atom   11 type  2   force =    -0.00000000    0.00000000    1.12322817
     atom   12 type  2   force =     0.00000000   -0.00000000    1.12322816
     The local contribution  to forces
     atom    1 type  1   force =    -0.00000005    0.00000003    1.27432783
     atom    2 type  1   force =     0.00000005   -0.00000003    1.27433849
     atom    3 type  2   force =    -0.00000001    0.00000001   -0.96829546
     atom    4 type  2   force =     0.00000001   -0.00000001   -0.96829236
     atom    5 type  1   force =    -0.00000005    0.00000003    1.27432859
     atom    6 type  1   force =     0.00000005   -0.00000003    1.27432858
     atom    7 type  2   force =    -0.00000001    0.00000001   -0.96829935
     atom    8 type  2   force =     0.00000001   -0.00000001   -0.96830123
     atom    9 type  1   force =    -0.00000005    0.00000003    1.27433327
     atom   10 type  1   force =     0.00000005   -0.00000003    1.27433427
     atom   11 type  2   force =    -0.00000001    0.00000001   -0.96829272
     atom   12 type  2   force =     0.00000001   -0.00000001   -0.96829759
     The core correction contribution to forces
     atom    1 type  1   force =    -0.00000001    0.00000000    0.01173448
     atom    2 type  1   force =     0.00000001   -0.00000000    0.01173440
     atom    3 type  2   force =     0.00000000   -0.00000000    0.00117746
     atom    4 type  2   force =    -0.00000000    0.00000000    0.00117747
     atom    5 type  1   force =    -0.00000001    0.00000000    0.01173446
     atom    6 type  1   force =     0.00000001   -0.00000000    0.01173441
     atom    7 type  2   force =     0.00000000   -0.00000000    0.00117734
     atom    8 type  2   force =    -0.00000000    0.00000000    0.00117738
     atom    9 type  1   force =    -0.00000001    0.00000000    0.01173443
     atom   10 type  1   force =     0.00000001   -0.00000000    0.01173439
     atom   11 type  2   force =     0.00000000   -0.00000000    0.00117739
     atom   12 type  2   force =    -0.00000000    0.00000000    0.00117736
     The Hubbard contrib.    to forces
     atom    1 type  1   force =     0.00000000    0.00000000    0.00000000
     atom    2 type  1   force =     0.00000000    0.00000000    0.00000000
     atom    3 type  2   force =     0.00000000    0.00000000    0.00000000
     atom    4 type  2   force =     0.00000000    0.00000000    0.00000000
     atom    5 type  1   force =     0.00000000    0.00000000    0.00000000
     atom    6 type  1   force =     0.00000000    0.00000000    0.00000000
     atom    7 type  2   force =     0.00000000    0.00000000    0.00000000
     atom    8 type  2   force =     0.00000000    0.00000000    0.00000000
     atom    9 type  1   force =     0.00000000    0.00000000    0.00000000
     atom   10 type  1   force =     0.00000000    0.00000000    0.00000000
     atom   11 type  2   force =     0.00000000    0.00000000    0.00000000
     atom   12 type  2   force =     0.00000000    0.00000000    0.00000000
     The SCF correction term to forces
     atom    1 type  1   force =    -0.00000000    0.00000000    0.00001049
     atom    2 type  1   force =     0.00000000   -0.00000000   -0.00000874
     atom    3 type  2   force =    -0.00000000    0.00000000    0.00000608
     atom    4 type  2   force =     0.00000000   -0.00000000    0.00000516
     atom    5 type  1   force =    -0.00000000    0.00000000    0.00000257
     atom    6 type  1   force =     0.00000000   -0.00000000    0.00000879
     atom    7 type  2   force =    -0.00000000    0.00000000    0.00000107
     atom    8 type  2   force =     0.00000000   -0.00000000    0.00000372
     atom    9 type  1   force =    -0.00000000    0.00000000   -0.00000007
     atom   10 type  1   force =     0.00000000   -0.00000000   -0.00000530
     atom   11 type  2   force =    -0.00000000    0.00000000   -0.00000368
     atom   12 type  2   force =     0.00000000   -0.00000000    0.00000063

     Total force =     0.038186     Total SCF correction =     0.000020

     General routines

     Parallel routines

   This run was terminated on:  19: 3:26  27Aug2025

   JOB DONE.