     Program PWSCF v.7.0 starts on 27Aug2025 at 22:30:52

     K-points division:     npool     =      17

     Reading input from /home/jvc/QEspresso7.2/ZnO_database/scripts/cell113.in/ZnO-3.60-1.71-113.in
Warning: card &CELL ignored
Warning: card / ignored
Warning: card &FCP ignored
Warning: card / ignored
Warning: card &RISM ignored
Warning: card / ignored

     Current dimensions of program PWSCF are:
     Max number of different atomic species (ntypx) = 10
     Max number of k-points (npk) =  40000
     Max angular momentum in pseudopotentials (lmaxx) =  4
     file Zn.upf: wavefunction(s)  3D renormalized
     Found identity + (  0.0000  0.0000  0.3333) symmetry
     This is a supercell, fractional translations are disabled
     Message from routine setup:
     using ibrav=0 with symmetry is DISCOURAGED, use correct ibrav instead

     Subspace diagonalization in iterative solution of the eigenvalue problem:
     a serial algorithm will be used

     Using Slab Decomposition

     bravais-lattice index     =            0
     lattice parameter (alat)  =       6.7967  a.u.
     unit-cell volume          =    1395.9168 (a.u.)^3
     number of atoms/cell      =           12
     number of atomic types    =            2
     number of electrons       =       108.00
     number of Kohn-Sham states=           54
     kinetic-energy cutoff     =      50.0000  Ry
     charge density cutoff     =     400.0000  Ry
     scf convergence threshold =      1.0E-08
     mixing beta               =       0.3000
     number of iterations used =            8  plain     mixing
     Exchange-correlation= PBE
                           (   1   4   3   4   0   0   0)

     celldm(1)=   6.796739  celldm(2)=   0.000000  celldm(3)=   0.000000
     celldm(4)=   0.000000  celldm(5)=   0.000000  celldm(6)=   0.000000

     crystal axes: (cart. coord. in units of alat)
               a(1) = (   1.000000   0.000000   0.000000 )
               a(2) = (  -0.500000   0.866025   0.000000 )
               a(3) = (   0.000000   0.000000   5.133660 )

     reciprocal axes: (cart. coord. in units 2 pi/alat)
               b(1) = (  1.000000  0.577350 -0.000000 )
               b(2) = (  0.000000  1.154701  0.000000 )
               b(3) = (  0.000000 -0.000000  0.194793 )

     PseudoPot. # 1 for Zn read from file:
     /home/jvc/QEspresso7.2/ZnO_database/pseudos/Zn.upf
     MD5 check sum: 7f56cabf9682ed8c977c2f7d0c5985c5
     Pseudo is Ultrasoft + core correction, Zval = 12.0
     Generated using &quot;atomic&quot; code by A. Dal Corso  v.6.2.2
     Using radial grid of 1201 points,  6 beta functions with:
                l(1) =   0
                l(2) =   0
                l(3) =   1
                l(4) =   1
                l(5) =   2
                l(6) =   2
     Q(r) pseudized with 0 coefficients

     PseudoPot. # 2 for O  read from file:
     /home/jvc/QEspresso7.2/ZnO_database/pseudos/O.upf
     MD5 check sum: 91400c9766925bcf19f520983a725ff0
     Pseudo is Ultrasoft + core correction, Zval =  6.0
     Generated using &quot;atomic&quot; code by A. Dal Corso  v.6.3MaX
     Using radial grid of 1095 points,  4 beta functions with:
                l(1) =   0
                l(2) =   0
                l(3) =   1
                l(4) =   1
     Q(r) pseudized with 0 coefficients

     atomic species   valence    mass     pseudopotential
        Zn            12.00    65.38000     Zn( 1.00)
        O              6.00    15.99900     O ( 1.00)

      6 Sym. Ops. (no inversion) found

                                    s                        frac. trans.

      isym =  1     identity

 cryst.   s( 1) = (     1          0          0      )
                  (     0          1          0      )
                  (     0          0          1      )

 cart.    s( 1) = (  1.0000000 -0.0000000  0.0000000 )
                  (  0.0000000  1.0000000  0.0000000 )
                  (  0.0000000  0.0000000  1.0000000 )

      isym =  2     120 deg rotation - cryst. axis [0,0,1]

[...]

      isym =  3     120 deg rotation - cryst. axis [0,0,-1]

[...]

      isym =  4     inv. 180 deg rotation - cart. axis [1,0,0]

[...]

      isym =  5     inv. 180 deg rotation - cryst. axis [0,1,0]

[...]

      isym =  6     inv. 180 deg rotation - cryst. axis [1,1,0]

 cryst.   s( 6) = (     0         -1          0      )
                  (    -1          0          0      )
                  (     0          0          1      )

 cart.    s( 6) = (  0.5000000 -0.8660254  0.0000000 )
                  ( -0.8660254 -0.5000000  0.0000000 )
                  (  0.0000000  0.0000000  1.0000000 )

   Cartesian axes

     site n.     atom                  positions (alat units)
         1           Zn  tau(   1) = (   0.5000000   0.2886751   0.8566941  )
         2           Zn  tau(   2) = (  -0.0000000   0.5773503   0.0010842  )
         3           O   tau(   3) = (   0.5000000   0.2886751   1.5053197  )
         4           O   tau(   4) = (  -0.0000000   0.5773503   0.6497098  )
         5           Zn  tau(   5) = (   0.5000000   0.2886751   2.5679140  )
         6           Zn  tau(   6) = (  -0.0000000   0.5773503   1.7123041  )
         7           O   tau(   7) = (   0.5000000   0.2886751   3.2165396  )
         8           O   tau(   8) = (  -0.0000000   0.5773503   2.3609297  )
         9           Zn  tau(   9) = (   0.5000000   0.2886751   4.2791338  )
        10           Zn  tau(  10) = (  -0.0000000   0.5773503   3.4235239  )
        11           O   tau(  11) = (   0.5000000   0.2886751   4.9277595  )
        12           O   tau(  12) = (  -0.0000000   0.5773503   4.0721495  )

   Crystallographic axes

     site n.     atom                  positions (cryst. coord.)
         1           Zn  tau(   1) = (  0.6666667  0.3333333  0.1668779  )
         2           Zn  tau(   2) = (  0.3333333  0.6666667  0.0002112  )
         3           O   tau(   3) = (  0.6666667  0.3333333  0.2932255  )
         4           O   tau(   4) = (  0.3333333  0.6666667  0.1265588  )
         5           Zn  tau(   5) = (  0.6666667  0.3333333  0.5002112  )
         6           Zn  tau(   6) = (  0.3333333  0.6666667  0.3335445  )
         7           O   tau(   7) = (  0.6666667  0.3333333  0.6265588  )
         8           O   tau(   8) = (  0.3333333  0.6666667  0.4598921  )
         9           Zn  tau(   9) = (  0.6666667  0.3333333  0.8335445  )
        10           Zn  tau(  10) = (  0.3333333  0.6666667  0.6668779  )
        11           O   tau(  11) = (  0.6666667  0.3333333  0.9598921  )
        12           O   tau(  12) = (  0.3333333  0.6666667  0.7932255  )

     number of k points=    34
                       cart. coord. in units 2pi/alat
        k(    1) = (   0.0000000   0.0000000   0.0000000), wk =   0.0092593
        k(    2) = (   0.0000000   0.0000000   0.0324655), wk =   0.0185185
        k(    3) = (   0.0000000   0.0000000   0.0649309), wk =   0.0185185
        k(    4) = (   0.0000000   0.0000000  -0.0973964), wk =   0.0092593
        k(    5) = (   0.0000000   0.1924501   0.0000000), wk =   0.0555556
        k(    6) = (   0.0000000   0.1924501   0.0324655), wk =   0.0555556
        k(    7) = (   0.0000000   0.1924501   0.0649309), wk =   0.0555556
        k(    8) = (   0.0000000   0.1924501  -0.0973964), wk =   0.0555556
        k(    9) = (   0.0000000   0.3849002   0.0000000), wk =   0.0555556
        k(   10) = (   0.0000000   0.3849002   0.0324655), wk =   0.0555556
        k(   11) = (   0.0000000   0.3849002   0.0649309), wk =   0.0555556
        k(   12) = (   0.0000000   0.3849002  -0.0973964), wk =   0.0555556
        k(   13) = (   0.0000000  -0.5773503   0.0000000), wk =   0.0277778
        k(   14) = (   0.0000000  -0.5773503   0.0324655), wk =   0.0555556
        k(   15) = (   0.0000000  -0.5773503   0.0649309), wk =   0.0555556
        k(   16) = (   0.0000000  -0.5773503  -0.0973964), wk =   0.0277778
        k(   17) = (   0.1666667   0.2886751   0.0000000), wk =   0.0555556
        k(   18) = (   0.1666667   0.2886751   0.0324655), wk =   0.1111111
        k(   19) = (   0.1666667   0.2886751   0.0649309), wk =   0.1111111
        k(   20) = (   0.1666667   0.2886751  -0.0973964), wk =   0.0555556
        k(   21) = (   0.1666667   0.4811252   0.0000000), wk =   0.1111111
        k(   22) = (   0.1666667   0.4811252   0.0324655), wk =   0.1111111
        k(   23) = (   0.1666667   0.4811252   0.0649309), wk =   0.1111111
        k(   24) = (   0.1666667   0.4811252  -0.0973964), wk =   0.1111111
        k(   25) = (   0.3333333   0.5773503   0.0000000), wk =   0.0185185
        k(   26) = (   0.3333333   0.5773503   0.0324655), wk =   0.0370370
        k(   27) = (   0.3333333   0.5773503   0.0649309), wk =   0.0370370
        k(   28) = (   0.3333333   0.5773503  -0.0973964), wk =   0.0185185
        k(   29) = (   0.0000000  -0.1924501   0.0324655), wk =   0.0555556
        k(   30) = (   0.0000000  -0.1924501   0.0649309), wk =   0.0555556
        k(   31) = (   0.0000000  -0.3849002   0.0324655), wk =   0.0555556
        k(   32) = (   0.0000000  -0.3849002   0.0649309), wk =   0.0555556
        k(   33) = (  -0.1666667  -0.4811252   0.0324655), wk =   0.1111111
        k(   34) = (  -0.1666667  -0.4811252   0.0649309), wk =   0.1111111

                       cryst. coord.
        k(    1) = (   0.0000000   0.0000000   0.0000000), wk =   0.0092593
        k(    2) = (   0.0000000   0.0000000   0.1666667), wk =   0.0185185
        k(    3) = (   0.0000000   0.0000000   0.3333333), wk =   0.0185185
        k(    4) = (   0.0000000   0.0000000  -0.5000000), wk =   0.0092593
        k(    5) = (   0.0000000   0.1666667   0.0000000), wk =   0.0555556
        k(    6) = (   0.0000000   0.1666667   0.1666667), wk =   0.0555556
        k(    7) = (   0.0000000   0.1666667   0.3333333), wk =   0.0555556
        k(    8) = (   0.0000000   0.1666667  -0.5000000), wk =   0.0555556
        k(    9) = (   0.0000000   0.3333333   0.0000000), wk =   0.0555556
        k(   10) = (   0.0000000   0.3333333   0.1666667), wk =   0.0555556
        k(   11) = (   0.0000000   0.3333333   0.3333333), wk =   0.0555556
        k(   12) = (   0.0000000   0.3333333  -0.5000000), wk =   0.0555556
        k(   13) = (   0.0000000  -0.5000000   0.0000000), wk =   0.0277778
        k(   14) = (   0.0000000  -0.5000000   0.1666667), wk =   0.0555556
        k(   15) = (   0.0000000  -0.5000000   0.3333333), wk =   0.0555556
        k(   16) = (   0.0000000  -0.5000000  -0.5000000), wk =   0.0277778
        k(   17) = (   0.1666667   0.1666667   0.0000000), wk =   0.0555556
        k(   18) = (   0.1666667   0.1666667   0.1666667), wk =   0.1111111
        k(   19) = (   0.1666667   0.1666667   0.3333333), wk =   0.1111111
        k(   20) = (   0.1666667   0.1666667  -0.5000000), wk =   0.0555556
        k(   21) = (   0.1666667   0.3333333   0.0000000), wk =   0.1111111
        k(   22) = (   0.1666667   0.3333333   0.1666667), wk =   0.1111111
        k(   23) = (   0.1666667   0.3333333   0.3333333), wk =   0.1111111
        k(   24) = (   0.1666667   0.3333333  -0.5000000), wk =   0.1111111
        k(   25) = (   0.3333333   0.3333333   0.0000000), wk =   0.0185185
        k(   26) = (   0.3333333   0.3333333   0.1666667), wk =   0.0370370
        k(   27) = (   0.3333333   0.3333333   0.3333333), wk =   0.0370370
        k(   28) = (   0.3333333   0.3333333  -0.5000000), wk =   0.0185185
        k(   29) = (   0.0000000  -0.1666667   0.1666667), wk =   0.0555556
        k(   30) = (   0.0000000  -0.1666667   0.3333333), wk =   0.0555556
        k(   31) = (   0.0000000  -0.3333333   0.1666667), wk =   0.0555556
        k(   32) = (   0.0000000  -0.3333333   0.3333333), wk =   0.0555556
        k(   33) = (  -0.1666667  -0.3333333   0.1666667), wk =   0.1111111
        k(   34) = (  -0.1666667  -0.3333333   0.3333333), wk =   0.1111111

     Check: negative core charge=   -0.000003

     Initial potential from superposition of free atoms

     starting charge     107.9776, renormalised to     108.0000
     Starting wfcs are   78 randomized atomic wfcs

     Self-consistent Calculation

     iteration #  1     ecut=    50.00 Ry     beta= 0.30
     Davidson diagonalization with overlap

     ethr =  1.00E-02,  avg # of iterations =  1.1

     total energy              =   -1083.86644148 Ry
     estimated scf accuracy    <       2.71332353 Ry

[...]

     c_bands:  3 eigenvalues not converged
     c_bands:  3 eigenvalues not converged
     ethr =  7.12E-08,  avg # of iterations = 17.2

[...]

     c_bands:  1 eigenvalues not converged
     ethr =  7.12E-08,  avg # of iterations = 10.2

[...]

     total energy              =   -1084.53281271 Ry
     estimated scf accuracy    <       0.00000002 Ry

     iteration # 41     ecut=    50.00 Ry     beta= 0.30
     Davidson diagonalization with overlap

     ethr =  1.71E-11,  avg # of iterations =  3.9

     End of self-consistent calculation

          k = 0.0000 0.0000 0.0000 (  8377 PWs)   bands (ev):

   -13.1133 -13.0507 -13.0507 -12.9230 -12.9230 -12.8579  -2.0014  -2.0014
    -1.9881  -1.9881  -1.9881  -1.9881  -1.9769  -1.9616  -1.9616  -1.9530
    -1.9530  -1.9530  -1.9530  -1.9312  -1.9312  -1.8036  -1.8036  -1.5948
    -1.5948  -1.5751  -1.5751  -1.5751  -1.5751  -1.5617  -1.5422  -1.5422
    -1.5422  -1.5422  -1.5286  -1.5286  -0.4220   0.2253   0.2253   1.4247
     1.4247   2.4707   2.4707   2.5599   2.5599   2.5599   2.5599   2.6739
     2.7372   2.7372   2.7372   2.7372   2.8252   2.8252

     occupation numbers
     1.0000   1.0000   1.0000   1.0000   1.0000   1.0000   1.0000   1.0000
     1.0000   1.0000   1.0000   1.0000   1.0000   1.0000   1.0000   1.0000
     1.0000   1.0000   1.0000   1.0000   1.0000   1.0000   1.0000   1.0000
     1.0000   1.0000   1.0000   1.0000   1.0000   1.0000   1.0000   1.0000
     1.0000   1.0000   1.0000   1.0000   1.0000   1.0000   1.0000   1.0000
     1.0000   1.0000   1.0000   1.0000   1.0000   1.0000   1.0000   1.0000
     1.0000   1.0000   1.0000   1.0000   1.0000   1.0000

[...]

          k = 0.0000-0.3849 0.0649 (  8327 PWs)   bands (ev):

[...]

          k =-0.1667-0.4811 0.0325 (  8322 PWs)   bands (ev):

[...]

          k =-0.1667-0.4811 0.0649 (  8319 PWs)   bands (ev):

   -12.8129 -12.8055 -12.7808 -12.7667 -12.7432 -12.7365  -1.9518  -1.9417
    -1.9123  -1.8900  -1.8613  -1.8587  -1.8095  -1.7980  -1.7794  -1.7672
    -1.7230  -1.7106  -1.6893  -1.6858  -1.6769  -1.6702  -1.6658  -1.6554
    -1.5887  -1.5775  -1.5457  -1.5435  -1.5378  -1.5349  -1.4809  -1.4786
    -1.4622  -1.4469  -1.4144  -1.4037  -0.0312  -0.0076  -0.0075   0.0493
     0.2050   0.2656   1.1556   1.2662   1.4186   1.5385   1.5442   1.6788
     1.9420   1.9547   2.0088   2.0991   2.1379   2.1687

     occupation numbers
     1.0000   1.0000   1.0000   1.0000   1.0000   1.0000   1.0000   1.0000
     1.0000   1.0000   1.0000   1.0000   1.0000   1.0000   1.0000   1.0000
     1.0000   1.0000   1.0000   1.0000   1.0000   1.0000   1.0000   1.0000
     1.0000   1.0000   1.0000   1.0000   1.0000   1.0000   1.0000   1.0000
     1.0000   1.0000   1.0000   1.0000   1.0000   1.0000   1.0000   1.0000
     1.0000   1.0000   1.0000   1.0000   1.0000   1.0000   1.0000   1.0000
     1.0000   1.0000   1.0000   1.0000   1.0000   1.0000

     highest occupied level (ev):     2.8252

!    total energy              =   -1084.53281271 Ry
     estimated scf accuracy    <          3.7E-09 Ry

     The total energy is the sum of the following terms:
     one-electron contribution =    -577.29227431 Ry
     hartree contribution      =     396.73537569 Ry
     xc contribution           =    -326.89351473 Ry
     ewald contribution        =    -577.08239935 Ry

     convergence has been achieved in  41 iterations

     Forces acting on atoms (cartesian axes, Ry/au):

     atom    1 type  1   force =     0.00000000    0.00000000   -0.00972163
     atom    2 type  1   force =     0.00000000    0.00000000   -0.00970567
     atom    3 type  2   force =     0.00000000    0.00000000    0.00973609
     atom    4 type  2   force =     0.00000000    0.00000000    0.00972540
     atom    5 type  1   force =     0.00000000    0.00000000   -0.00975175
     atom    6 type  1   force =     0.00000000   -0.00000000   -0.00976981
     atom    7 type  2   force =     0.00000000    0.00000000    0.00972950
     atom    8 type  2   force =     0.00000000    0.00000000    0.00973685
     atom    9 type  1   force =     0.00000000    0.00000000   -0.00968673
     atom   10 type  1   force =     0.00000000   -0.00000000   -0.00973455
     atom   11 type  2   force =     0.00000000   -0.00000000    0.00972270
     atom   12 type  2   force =     0.00000000    0.00000000    0.00971959
     The non-local contrib.  to forces
     atom    1 type  1   force =    -0.00000000   -0.00000000    0.12928882
     atom    2 type  1   force =     0.00000000   -0.00000000    0.12930356
     atom    3 type  2   force =     0.00000000    0.00000000    0.16140251
     atom    4 type  2   force =     0.00000000   -0.00000000    0.16138407
     atom    5 type  1   force =    -0.00000000   -0.00000000    0.12925495
     atom    6 type  1   force =     0.00000000   -0.00000000    0.12924496
     atom    7 type  2   force =     0.00000000    0.00000000    0.16139192
     atom    8 type  2   force =     0.00000000    0.00000000    0.16141357
     atom    9 type  1   force =     0.00000000    0.00000000    0.12931783
     atom   10 type  1   force =     0.00000000    0.00000000    0.12926780
     atom   11 type  2   force =     0.00000000    0.00000000    0.16136792
     atom   12 type  2   force =     0.00000000    0.00000000    0.16137001
     The ionic contribution  to forces
     atom    1 type  1   force =    -0.00000000    0.00000000    1.00748787
     atom    2 type  1   force =     0.00000000   -0.00000000    1.00748790
     atom    3 type  2   force =    -0.00000000    0.00000000   -1.00748788
     atom    4 type  2   force =     0.00000000   -0.00000000   -1.00748789
     atom    5 type  1   force =    -0.00000000    0.00000000    1.00748790
     atom    6 type  1   force =     0.00000000   -0.00000000    1.00748787
     atom    7 type  2   force =    -0.00000000    0.00000000   -1.00748789
     atom    8 type  2   force =     0.00000000   -0.00000000   -1.00748787
     atom    9 type  1   force =    -0.00000000    0.00000000    1.00748787
     atom   10 type  1   force =     0.00000000   -0.00000000    1.00748787
     atom   11 type  2   force =    -0.00000000    0.00000000   -1.00748787
     atom   12 type  2   force =     0.00000000   -0.00000000   -1.00748788
     The local contribution  to forces
     atom    1 type  1   force =    -0.00000005    0.00000003   -1.13949341
     atom    2 type  1   force =     0.00000005   -0.00000003   -1.13952230
     atom    3 type  2   force =    -0.00000001    0.00000001    0.85739391
     atom    4 type  2   force =     0.00000001   -0.00000001    0.85736202
     atom    5 type  1   force =    -0.00000005    0.00000003   -1.13943320
     atom    6 type  1   force =     0.00000005   -0.00000003   -1.13939588
     atom    7 type  2   force =    -0.00000001    0.00000001    0.85737099
     atom    8 type  2   force =     0.00000001   -0.00000001    0.85738993
     atom    9 type  1   force =    -0.00000005    0.00000003   -1.13956244
     atom   10 type  1   force =     0.00000005   -0.00000003   -1.13945649
     atom   11 type  2   force =    -0.00000001    0.00000001    0.85734801
     atom   12 type  2   force =     0.00000001   -0.00000001    0.85734086
     The core correction contribution to forces
     atom    1 type  1   force =    -0.00000001    0.00000000   -0.00701568
     atom    2 type  1   force =     0.00000001   -0.00000000   -0.00701528
     atom    3 type  2   force =     0.00000000   -0.00000000   -0.00153536
     atom    4 type  2   force =    -0.00000000    0.00000000   -0.00153595
     atom    5 type  1   force =    -0.00000001    0.00000000   -0.00701546
     atom    6 type  1   force =     0.00000001   -0.00000000   -0.00701635
     atom    7 type  2   force =     0.00000000   -0.00000000   -0.00153525
     atom    8 type  2   force =    -0.00000000    0.00000000   -0.00153632
     atom    9 type  1   force =    -0.00000001    0.00000000   -0.00701474
     atom   10 type  1   force =     0.00000001   -0.00000000   -0.00701536
     atom   11 type  2   force =     0.00000000   -0.00000000   -0.00153493
     atom   12 type  2   force =    -0.00000000    0.00000000   -0.00153576
     The Hubbard contrib.    to forces
     atom    1 type  1   force =     0.00000000    0.00000000    0.00000000
     atom    2 type  1   force =     0.00000000    0.00000000    0.00000000
     atom    3 type  2   force =     0.00000000    0.00000000    0.00000000
     atom    4 type  2   force =     0.00000000    0.00000000    0.00000000
     atom    5 type  1   force =     0.00000000    0.00000000    0.00000000
     atom    6 type  1   force =     0.00000000    0.00000000    0.00000000
     atom    7 type  2   force =     0.00000000    0.00000000    0.00000000
     atom    8 type  2   force =     0.00000000    0.00000000    0.00000000
     atom    9 type  1   force =     0.00000000    0.00000000    0.00000000
     atom   10 type  1   force =     0.00000000    0.00000000    0.00000000
     atom   11 type  2   force =     0.00000000    0.00000000    0.00000000
     atom   12 type  2   force =     0.00000000    0.00000000    0.00000000
     The SCF correction term to forces
     atom    1 type  1   force =     0.00000000   -0.00000000    0.00001162
     atom    2 type  1   force =    -0.00000000    0.00000000    0.00004130
     atom    3 type  2   force =    -0.00000000    0.00000000   -0.00003623
     atom    4 type  2   force =     0.00000000   -0.00000000    0.00000400
     atom    5 type  1   force =     0.00000000   -0.00000000   -0.00004509
     atom    6 type  1   force =    -0.00000000    0.00000000   -0.00008956
     atom    7 type  2   force =    -0.00000000    0.00000000   -0.00000941
     atom    8 type  2   force =    -0.00000000    0.00000000   -0.00004160
     atom    9 type  1   force =     0.00000000   -0.00000000    0.00008561
     atom   10 type  1   force =    -0.00000000    0.00000000   -0.00001750
     atom   11 type  2   force =    -0.00000000    0.00000000    0.00003044
     atom   12 type  2   force =    -0.00000000    0.00000000    0.00003323

     Total force =     0.033700     Total SCF correction =     0.000157

     General routines

     Parallel routines

   This run was terminated on:  22:41: 8  27Aug2025

   JOB DONE.