     Program PWSCF v.7.0 starts on 27Aug2025 at 12: 5:23

     K-points division:     npool     =      17

     Reading input from /home/jvc/QEspresso7.2/ZnO_database/scripts/cell113.in/ZnO-2.94-1.45-113.in
Warning: card &CELL ignored
Warning: card / ignored
Warning: card &FCP ignored
Warning: card / ignored
Warning: card &RISM ignored
Warning: card / ignored

     Current dimensions of program PWSCF are:
     Max number of different atomic species (ntypx) = 10
     Max number of k-points (npk) =  40000
     Max angular momentum in pseudopotentials (lmaxx) =  4
     file Zn.upf: wavefunction(s)  3D renormalized
     Found identity + (  0.0000  0.0000  0.3333) symmetry
     This is a supercell, fractional translations are disabled
     Message from routine setup:
     using ibrav=0 with symmetry is DISCOURAGED, use correct ibrav instead

     Subspace diagonalization in iterative solution of the eigenvalue problem:
     a serial algorithm will be used

     Using Slab Decomposition

     bravais-lattice index     =            0
     lattice parameter (alat)  =       5.5610  a.u.
     unit-cell volume          =     649.1509 (a.u.)^3
     number of atoms/cell      =           12
     number of atomic types    =            2
     number of electrons       =       108.00
     number of Kohn-Sham states=           54
     kinetic-energy cutoff     =      50.0000  Ry
     charge density cutoff     =     400.0000  Ry
     scf convergence threshold =      1.0E-08
     mixing beta               =       0.3000
     number of iterations used =            8  plain     mixing
     Exchange-correlation= PBE
                           (   1   4   3   4   0   0   0)

     celldm(1)=   5.560969  celldm(2)=   0.000000  celldm(3)=   0.000000
     celldm(4)=   0.000000  celldm(5)=   0.000000  celldm(6)=   0.000000

     crystal axes: (cart. coord. in units of alat)
               a(1) = (   1.000000   0.000000   0.000000 )
               a(2) = (  -0.500000   0.866025   0.000000 )
               a(3) = (   0.000000   0.000000   4.358768 )

     reciprocal axes: (cart. coord. in units 2 pi/alat)
               b(1) = (  1.000000  0.577350 -0.000000 )
               b(2) = (  0.000000  1.154701  0.000000 )
               b(3) = (  0.000000 -0.000000  0.229423 )

     PseudoPot. # 1 for Zn read from file:
     /home/jvc/QEspresso7.2/ZnO_database/pseudos/Zn.upf
     MD5 check sum: 7f56cabf9682ed8c977c2f7d0c5985c5
     Pseudo is Ultrasoft + core correction, Zval = 12.0
     Generated using &quot;atomic&quot; code by A. Dal Corso  v.6.2.2
     Using radial grid of 1201 points,  6 beta functions with:
                l(1) =   0
                l(2) =   0
                l(3) =   1
                l(4) =   1
                l(5) =   2
                l(6) =   2
     Q(r) pseudized with 0 coefficients

     PseudoPot. # 2 for O  read from file:
     /home/jvc/QEspresso7.2/ZnO_database/pseudos/O.upf
     MD5 check sum: 91400c9766925bcf19f520983a725ff0
     Pseudo is Ultrasoft + core correction, Zval =  6.0
     Generated using &quot;atomic&quot; code by A. Dal Corso  v.6.3MaX
     Using radial grid of 1095 points,  4 beta functions with:
                l(1) =   0
                l(2) =   0
                l(3) =   1
                l(4) =   1
     Q(r) pseudized with 0 coefficients

     atomic species   valence    mass     pseudopotential
        Zn            12.00    65.38000     Zn( 1.00)
        O              6.00    15.99900     O ( 1.00)

      6 Sym. Ops. (no inversion) found

                                    s                        frac. trans.

      isym =  1     identity

 cryst.   s( 1) = (     1          0          0      )
                  (     0          1          0      )
                  (     0          0          1      )

 cart.    s( 1) = (  1.0000000  0.0000000  0.0000000 )
                  (  0.0000000  1.0000000  0.0000000 )
                  (  0.0000000  0.0000000  1.0000000 )

      isym =  2     120 deg rotation - cryst. axis [0,0,1]

[...]

      isym =  3     120 deg rotation - cryst. axis [0,0,-1]

[...]

      isym =  4     inv. 180 deg rotation - cart. axis [1,0,0]

[...]

      isym =  5     inv. 180 deg rotation - cryst. axis [0,1,0]

[...]

      isym =  6     inv. 180 deg rotation - cryst. axis [1,1,0]

 cryst.   s( 6) = (     0         -1          0      )
                  (    -1          0          0      )
                  (     0          0          1      )

 cart.    s( 6) = (  0.5000000 -0.8660254  0.0000000 )
                  ( -0.8660254 -0.5000000  0.0000000 )
                  (  0.0000000  0.0000000  1.0000000 )

   Cartesian axes

     site n.     atom                  positions (alat units)
         1           Zn  tau(   1) = (   0.5000000   0.2886751   0.7273818  )
         2           Zn  tau(   2) = (  -0.0000000   0.5773503   0.0009206  )
         3           O   tau(   3) = (   0.5000000   0.2886751   1.2781017  )
         4           O   tau(   4) = (  -0.0000000   0.5773503   0.5516404  )
         5           Zn  tau(   5) = (   0.5000000   0.2886751   2.1803043  )
         6           Zn  tau(   6) = (  -0.0000000   0.5773503   1.4538431  )
         7           O   tau(   7) = (   0.5000000   0.2886751   2.7310242  )
         8           O   tau(   8) = (  -0.0000000   0.5773503   2.0045629  )
         9           Zn  tau(   9) = (   0.5000000   0.2886751   3.6332269  )
        10           Zn  tau(  10) = (  -0.0000000   0.5773503   2.9067656  )
        11           O   tau(  11) = (   0.5000000   0.2886751   4.1839467  )
        12           O   tau(  12) = (  -0.0000000   0.5773503   3.4574855  )

   Crystallographic axes

     site n.     atom                  positions (cryst. coord.)
         1           Zn  tau(   1) = (  0.6666667  0.3333333  0.1668779  )
         2           Zn  tau(   2) = (  0.3333333  0.6666667  0.0002112  )
         3           O   tau(   3) = (  0.6666667  0.3333333  0.2932255  )
         4           O   tau(   4) = (  0.3333333  0.6666667  0.1265588  )
         5           Zn  tau(   5) = (  0.6666667  0.3333333  0.5002112  )
         6           Zn  tau(   6) = (  0.3333333  0.6666667  0.3335445  )
         7           O   tau(   7) = (  0.6666667  0.3333333  0.6265588  )
         8           O   tau(   8) = (  0.3333333  0.6666667  0.4598921  )
         9           Zn  tau(   9) = (  0.6666667  0.3333333  0.8335445  )
        10           Zn  tau(  10) = (  0.3333333  0.6666667  0.6668779  )
        11           O   tau(  11) = (  0.6666667  0.3333333  0.9598921  )
        12           O   tau(  12) = (  0.3333333  0.6666667  0.7932255  )

     number of k points=    34
                       cart. coord. in units 2pi/alat
        k(    1) = (   0.0000000   0.0000000   0.0000000), wk =   0.0092593
        k(    2) = (   0.0000000   0.0000000   0.0382371), wk =   0.0185185
        k(    3) = (   0.0000000   0.0000000   0.0764742), wk =   0.0185185
        k(    4) = (   0.0000000   0.0000000  -0.1147113), wk =   0.0092593
        k(    5) = (   0.0000000   0.1924501   0.0000000), wk =   0.0555556
        k(    6) = (   0.0000000   0.1924501   0.0382371), wk =   0.0555556
        k(    7) = (   0.0000000   0.1924501   0.0764742), wk =   0.0555556
        k(    8) = (   0.0000000   0.1924501  -0.1147113), wk =   0.0555556
        k(    9) = (   0.0000000   0.3849002   0.0000000), wk =   0.0555556
        k(   10) = (   0.0000000   0.3849002   0.0382371), wk =   0.0555556
        k(   11) = (   0.0000000   0.3849002   0.0764742), wk =   0.0555556
        k(   12) = (   0.0000000   0.3849002  -0.1147113), wk =   0.0555556
        k(   13) = (   0.0000000  -0.5773503   0.0000000), wk =   0.0277778
        k(   14) = (   0.0000000  -0.5773503   0.0382371), wk =   0.0555556
        k(   15) = (   0.0000000  -0.5773503   0.0764742), wk =   0.0555556
        k(   16) = (   0.0000000  -0.5773503  -0.1147113), wk =   0.0277778
        k(   17) = (   0.1666667   0.2886751   0.0000000), wk =   0.0555556
        k(   18) = (   0.1666667   0.2886751   0.0382371), wk =   0.1111111
        k(   19) = (   0.1666667   0.2886751   0.0764742), wk =   0.1111111
        k(   20) = (   0.1666667   0.2886751  -0.1147113), wk =   0.0555556
        k(   21) = (   0.1666667   0.4811252   0.0000000), wk =   0.1111111
        k(   22) = (   0.1666667   0.4811252   0.0382371), wk =   0.1111111
        k(   23) = (   0.1666667   0.4811252   0.0764742), wk =   0.1111111
        k(   24) = (   0.1666667   0.4811252  -0.1147113), wk =   0.1111111
        k(   25) = (   0.3333333   0.5773503   0.0000000), wk =   0.0185185
        k(   26) = (   0.3333333   0.5773503   0.0382371), wk =   0.0370370
        k(   27) = (   0.3333333   0.5773503   0.0764742), wk =   0.0370370
        k(   28) = (   0.3333333   0.5773503  -0.1147113), wk =   0.0185185
        k(   29) = (   0.0000000  -0.1924501   0.0382371), wk =   0.0555556
        k(   30) = (   0.0000000  -0.1924501   0.0764742), wk =   0.0555556
        k(   31) = (   0.0000000  -0.3849002   0.0382371), wk =   0.0555556
        k(   32) = (   0.0000000  -0.3849002   0.0764742), wk =   0.0555556
        k(   33) = (  -0.1666667  -0.4811252   0.0382371), wk =   0.1111111
        k(   34) = (  -0.1666667  -0.4811252   0.0764742), wk =   0.1111111

                       cryst. coord.
        k(    1) = (   0.0000000   0.0000000   0.0000000), wk =   0.0092593
        k(    2) = (   0.0000000   0.0000000   0.1666667), wk =   0.0185185
        k(    3) = (   0.0000000   0.0000000   0.3333333), wk =   0.0185185
        k(    4) = (   0.0000000   0.0000000  -0.5000000), wk =   0.0092593
        k(    5) = (   0.0000000   0.1666667   0.0000000), wk =   0.0555556
        k(    6) = (   0.0000000   0.1666667   0.1666667), wk =   0.0555556
        k(    7) = (   0.0000000   0.1666667   0.3333333), wk =   0.0555556
        k(    8) = (   0.0000000   0.1666667  -0.5000000), wk =   0.0555556
        k(    9) = (   0.0000000   0.3333333   0.0000000), wk =   0.0555556
        k(   10) = (   0.0000000   0.3333333   0.1666667), wk =   0.0555556
        k(   11) = (   0.0000000   0.3333333   0.3333333), wk =   0.0555556
        k(   12) = (   0.0000000   0.3333333  -0.5000000), wk =   0.0555556
        k(   13) = (   0.0000000  -0.5000000   0.0000000), wk =   0.0277778
        k(   14) = (   0.0000000  -0.5000000   0.1666667), wk =   0.0555556
        k(   15) = (   0.0000000  -0.5000000   0.3333333), wk =   0.0555556
        k(   16) = (   0.0000000  -0.5000000  -0.5000000), wk =   0.0277778
        k(   17) = (   0.1666667   0.1666667   0.0000000), wk =   0.0555556
        k(   18) = (   0.1666667   0.1666667   0.1666667), wk =   0.1111111
        k(   19) = (   0.1666667   0.1666667   0.3333333), wk =   0.1111111
        k(   20) = (   0.1666667   0.1666667  -0.5000000), wk =   0.0555556
        k(   21) = (   0.1666667   0.3333333   0.0000000), wk =   0.1111111
        k(   22) = (   0.1666667   0.3333333   0.1666667), wk =   0.1111111
        k(   23) = (   0.1666667   0.3333333   0.3333333), wk =   0.1111111
        k(   24) = (   0.1666667   0.3333333  -0.5000000), wk =   0.1111111
        k(   25) = (   0.3333333   0.3333333   0.0000000), wk =   0.0185185
        k(   26) = (   0.3333333   0.3333333   0.1666667), wk =   0.0370370
        k(   27) = (   0.3333333   0.3333333   0.3333333), wk =   0.0370370
        k(   28) = (   0.3333333   0.3333333  -0.5000000), wk =   0.0185185
        k(   29) = (   0.0000000  -0.1666667   0.1666667), wk =   0.0555556
        k(   30) = (   0.0000000  -0.1666667   0.3333333), wk =   0.0555556
        k(   31) = (   0.0000000  -0.3333333   0.1666667), wk =   0.0555556
        k(   32) = (   0.0000000  -0.3333333   0.3333333), wk =   0.0555556
        k(   33) = (  -0.1666667  -0.3333333   0.1666667), wk =   0.1111111
        k(   34) = (  -0.1666667  -0.3333333   0.3333333), wk =   0.1111111

     Initial potential from superposition of free atoms

     starting charge     107.9776, renormalised to     108.0000
     Starting wfcs are   78 randomized atomic wfcs

     Self-consistent Calculation

     iteration #  1     ecut=    50.00 Ry     beta= 0.30
     Davidson diagonalization with overlap

     ethr =  1.00E-02,  avg # of iterations =  2.4

     total energy              =   -1083.20366341 Ry
     estimated scf accuracy    <       2.22118912 Ry

[...]

     total energy              =   -1083.58741445 Ry
     estimated scf accuracy    <       0.00000002 Ry

     iteration # 17     ecut=    50.00 Ry     beta= 0.30
     Davidson diagonalization with overlap

     ethr =  1.92E-11,  avg # of iterations =  6.1

     End of self-consistent calculation

          k = 0.0000 0.0000 0.0000 (  3871 PWs)   bands (ev):

    -7.5761  -7.1456  -7.1456  -6.2440  -6.2440  -5.7814   5.2100   5.2101
     5.5527   5.6438   5.6438   6.0975   6.0975   6.1214   6.1214   6.1214
     6.1214   6.1930   6.3298   6.3298   6.3298   6.3298   6.5294   6.5294
     8.6032   8.6032   8.8565   8.8565   8.8565   8.8565   9.1900   9.1900
     9.1900   9.1900   9.2376   9.2376   9.7396  11.3793  11.3794  12.8946
    12.8946  13.3223  13.3223  13.3223  13.3223  13.4681  13.4681  14.1977
    14.1977  14.1977  14.1977  14.6203  14.6203  14.6457

     occupation numbers
     1.0000   1.0000   1.0000   1.0000   1.0000   1.0000   1.0000   1.0000
     1.0000   1.0000   1.0000   1.0000   1.0000   1.0000   1.0000   1.0000
     1.0000   1.0000   1.0000   1.0000   1.0000   1.0000   1.0000   1.0000
     1.0000   1.0000   1.0000   1.0000   1.0000   1.0000   1.0000   1.0000
     1.0000   1.0000   1.0000   1.0000   1.0000   1.0000   1.0000   1.0000
     1.0000   1.0000   1.0000   1.0000   1.0000   1.0000   1.0000   1.0000
     1.0000   1.0000   1.0000   1.0000   1.0000   1.0000

[...]

          k = 0.0000-0.3849 0.0765 (  3878 PWs)   bands (ev):

[...]

          k =-0.1667-0.4811 0.0382 (  3876 PWs)   bands (ev):

[...]

          k =-0.1667-0.4811 0.0765 (  3874 PWs)   bands (ev):

    -6.2353  -6.1644  -5.9476  -5.8420  -5.7054  -5.6767   4.9100   4.9286
     5.2215   5.3651   5.3788   5.6179   6.2695   6.2857   6.3020   6.3284
     6.4137   6.4812   6.9230   6.9685   7.0741   7.2419   7.2440   7.3987
     8.5616   8.6671   8.8597   8.9176   8.9959   9.0108   9.3350   9.3402
     9.3645   9.4034   9.4742   9.5511   9.7133   9.7295  10.0623  10.1877
    10.3377  10.3716  10.7775  10.8157  11.2917  11.3697  11.7029  11.8105
    12.6209  12.7938  12.9315  13.0815  13.2556  13.2998

     occupation numbers
     1.0000   1.0000   1.0000   1.0000   1.0000   1.0000   1.0000   1.0000
     1.0000   1.0000   1.0000   1.0000   1.0000   1.0000   1.0000   1.0000
     1.0000   1.0000   1.0000   1.0000   1.0000   1.0000   1.0000   1.0000
     1.0000   1.0000   1.0000   1.0000   1.0000   1.0000   1.0000   1.0000
     1.0000   1.0000   1.0000   1.0000   1.0000   1.0000   1.0000   1.0000
     1.0000   1.0000   1.0000   1.0000   1.0000   1.0000   1.0000   1.0000
     1.0000   1.0000   1.0000   1.0000   1.0000   1.0000

     highest occupied level (ev):    14.6457

!    total energy              =   -1083.58741446 Ry
     estimated scf accuracy    <          5.1E-09 Ry

     The total energy is the sum of the following terms:
     one-electron contribution =    -314.73337521 Ry
     hartree contribution      =     305.76261418 Ry
     xc contribution           =    -332.08778536 Ry
     ewald contribution        =    -742.52886807 Ry

     convergence has been achieved in  17 iterations

     Forces acting on atoms (cartesian axes, Ry/au):

     atom    1 type  1   force =     0.00000000   -0.00000000   -0.21623711
     atom    2 type  1   force =     0.00000000   -0.00000000   -0.21621975
     atom    3 type  2   force =     0.00000000    0.00000000    0.21623613
     atom    4 type  2   force =     0.00000000   -0.00000000    0.21623524
     atom    5 type  1   force =     0.00000000   -0.00000000   -0.21623158
     atom    6 type  1   force =     0.00000000    0.00000000   -0.21624167
     atom    7 type  2   force =     0.00000000    0.00000000    0.21623664
     atom    8 type  2   force =     0.00000000   -0.00000000    0.21622823
     atom    9 type  1   force =     0.00000000    0.00000000   -0.21624412
     atom   10 type  1   force =     0.00000000    0.00000000   -0.21622614
     atom   11 type  2   force =     0.00000000    0.00000000    0.21622856
     atom   12 type  2   force =     0.00000000   -0.00000000    0.21623556
     The non-local contrib.  to forces
     atom    1 type  1   force =     0.00000000    0.00000000   -0.38239400
     atom    2 type  1   force =     0.00000000    0.00000000   -0.38237112
     atom    3 type  2   force =     0.00000000    0.00000000   -0.18159346
     atom    4 type  2   force =     0.00000000    0.00000000   -0.18158667
     atom    5 type  1   force =     0.00000000    0.00000000   -0.38237686
     atom    6 type  1   force =     0.00000000    0.00000000   -0.38238639
     atom    7 type  2   force =     0.00000000   -0.00000000   -0.18158828
     atom    8 type  2   force =     0.00000000   -0.00000000   -0.18159404
     atom    9 type  1   force =     0.00000000    0.00000000   -0.38238873
     atom   10 type  1   force =     0.00000000    0.00000000   -0.38238887
     atom   11 type  2   force =     0.00000000    0.00000000   -0.18159549
     atom   12 type  2   force =     0.00000000    0.00000000   -0.18159273
     The ionic contribution  to forces
     atom    1 type  1   force =    -0.00000000    0.00000000   -2.79035800
     atom    2 type  1   force =     0.00000000   -0.00000000   -2.79035795
     atom    3 type  2   force =    -0.00000000    0.00000000    2.79035799
     atom    4 type  2   force =     0.00000000   -0.00000000    2.79035797
     atom    5 type  1   force =    -0.00000000    0.00000000   -2.79035795
     atom    6 type  1   force =     0.00000000   -0.00000000   -2.79035801
     atom    7 type  2   force =    -0.00000000    0.00000000    2.79035797
     atom    8 type  2   force =     0.00000000   -0.00000000    2.79035800
     atom    9 type  1   force =    -0.00000000    0.00000000   -2.79035801
     atom   10 type  1   force =     0.00000000   -0.00000000   -2.79035800
     atom   11 type  2   force =    -0.00000000    0.00000000    2.79035800
     atom   12 type  2   force =     0.00000000   -0.00000000    2.79035799
     The local contribution  to forces
     atom    1 type  1   force =    -0.00000004    0.00000002    2.91304053
     atom    2 type  1   force =     0.00000004   -0.00000002    2.91301978
     atom    3 type  2   force =    -0.00000001    0.00000001   -2.39306416
     atom    4 type  2   force =     0.00000001   -0.00000001   -2.39306073
     atom    5 type  1   force =    -0.00000004    0.00000002    2.91303263
     atom    6 type  1   force =     0.00000004   -0.00000002    2.91303321
     atom    7 type  2   force =    -0.00000001    0.00000001   -2.39307215
     atom    8 type  2   force =     0.00000001   -0.00000001   -2.39305954
     atom    9 type  1   force =    -0.00000004    0.00000002    2.91303428
     atom   10 type  1   force =     0.00000004   -0.00000002    2.91302827
     atom   11 type  2   force =    -0.00000001    0.00000001   -2.39307455
     atom   12 type  2   force =     0.00000001   -0.00000001   -2.39306176
     The core correction contribution to forces
     atom    1 type  1   force =    -0.00000001    0.00000000    0.04347239
     atom    2 type  1   force =     0.00000001   -0.00000000    0.04346968
     atom    3 type  2   force =     0.00000000   -0.00000000    0.00053578
     atom    4 type  2   force =    -0.00000000    0.00000000    0.00053284
     atom    5 type  1   force =    -0.00000001    0.00000000    0.04346986
     atom    6 type  1   force =     0.00000001   -0.00000000    0.04346265
     atom    7 type  2   force =     0.00000000   -0.00000000    0.00053284
     atom    8 type  2   force =    -0.00000000    0.00000000    0.00053336
     atom    9 type  1   force =    -0.00000001    0.00000000    0.04346287
     atom   10 type  1   force =     0.00000001   -0.00000000    0.04347225
     atom   11 type  2   force =     0.00000000   -0.00000000    0.00053334
     atom   12 type  2   force =    -0.00000000    0.00000000    0.00053578
     The Hubbard contrib.    to forces
     atom    1 type  1   force =     0.00000000    0.00000000    0.00000000
     atom    2 type  1   force =     0.00000000    0.00000000    0.00000000
     atom    3 type  2   force =     0.00000000    0.00000000    0.00000000
     atom    4 type  2   force =     0.00000000    0.00000000    0.00000000
     atom    5 type  1   force =     0.00000000    0.00000000    0.00000000
     atom    6 type  1   force =     0.00000000    0.00000000    0.00000000
     atom    7 type  2   force =     0.00000000    0.00000000    0.00000000
     atom    8 type  2   force =     0.00000000    0.00000000    0.00000000
     atom    9 type  1   force =     0.00000000    0.00000000    0.00000000
     atom   10 type  1   force =     0.00000000    0.00000000    0.00000000
     atom   11 type  2   force =     0.00000000    0.00000000    0.00000000
     atom   12 type  2   force =     0.00000000    0.00000000    0.00000000
     The SCF correction term to forces
     atom    1 type  1   force =    -0.00000000    0.00000000    0.00000593
     atom    2 type  1   force =     0.00000000   -0.00000000    0.00002383
     atom    3 type  2   force =    -0.00000000    0.00000000    0.00000395
     atom    4 type  2   force =     0.00000000   -0.00000000   -0.00000420
     atom    5 type  1   force =    -0.00000000    0.00000000    0.00000470
     atom    6 type  1   force =     0.00000000   -0.00000000    0.00001084
     atom    7 type  2   force =    -0.00000000    0.00000000    0.00001023
     atom    8 type  2   force =     0.00000000   -0.00000000   -0.00000559
     atom    9 type  1   force =    -0.00000000    0.00000000    0.00000942
     atom   10 type  1   force =     0.00000000   -0.00000000    0.00002418
     atom   11 type  2   force =    -0.00000000    0.00000000    0.00001123
     atom   12 type  2   force =     0.00000000   -0.00000000    0.00000026

     Total force =     0.749054     Total SCF correction =     0.000041

     General routines

     Parallel routines

   This run was terminated on:  12: 7:18  27Aug2025

   JOB DONE.