     Program PWSCF v.7.0 starts on 27Aug2025 at 14:56:54

     K-points division:     npool     =      17

     Reading input from /home/jvc/QEspresso7.2/ZnO_database/scripts/cell113.in/ZnO-3.20-1.61-113.in
Warning: card &CELL ignored
Warning: card / ignored
Warning: card &FCP ignored
Warning: card / ignored
Warning: card &RISM ignored
Warning: card / ignored

     Current dimensions of program PWSCF are:
     Max number of different atomic species (ntypx) = 10
     Max number of k-points (npk) =  40000
     Max angular momentum in pseudopotentials (lmaxx) =  4
     file Zn.upf: wavefunction(s)  3D renormalized
     Found identity + (  0.0000  0.0000  0.3333) symmetry
     This is a supercell, fractional translations are disabled
     Message from routine setup:
     using ibrav=0 with symmetry is DISCOURAGED, use correct ibrav instead

     Subspace diagonalization in iterative solution of the eigenvalue problem:
     a serial algorithm will be used

     Using Slab Decomposition

     bravais-lattice index     =            0
     lattice parameter (alat)  =       6.0553  a.u.
     unit-cell volume          =     931.2233 (a.u.)^3
     number of atoms/cell      =           12
     number of atomic types    =            2
     number of electrons       =       108.00
     number of Kohn-Sham states=           54
     kinetic-energy cutoff     =      50.0000  Ry
     charge density cutoff     =     400.0000  Ry
     scf convergence threshold =      1.0E-08
     mixing beta               =       0.3000
     number of iterations used =            8  plain     mixing
     Exchange-correlation= PBE
                           (   1   4   3   4   0   0   0)

     celldm(1)=   6.055277  celldm(2)=   0.000000  celldm(3)=   0.000000
     celldm(4)=   0.000000  celldm(5)=   0.000000  celldm(6)=   0.000000

     crystal axes: (cart. coord. in units of alat)
               a(1) = (   1.000000   0.000000   0.000000 )
               a(2) = (  -0.500000   0.866025   0.000000 )
               a(3) = (   0.000000   0.000000   4.843075 )

     reciprocal axes: (cart. coord. in units 2 pi/alat)
               b(1) = (  1.000000  0.577350 -0.000000 )
               b(2) = (  0.000000  1.154701  0.000000 )
               b(3) = (  0.000000 -0.000000  0.206480 )

     PseudoPot. # 1 for Zn read from file:
     /home/jvc/QEspresso7.2/ZnO_database/pseudos/Zn.upf
     MD5 check sum: 7f56cabf9682ed8c977c2f7d0c5985c5
     Pseudo is Ultrasoft + core correction, Zval = 12.0
     Generated using &quot;atomic&quot; code by A. Dal Corso  v.6.2.2
     Using radial grid of 1201 points,  6 beta functions with:
                l(1) =   0
                l(2) =   0
                l(3) =   1
                l(4) =   1
                l(5) =   2
                l(6) =   2
     Q(r) pseudized with 0 coefficients

     PseudoPot. # 2 for O  read from file:
     /home/jvc/QEspresso7.2/ZnO_database/pseudos/O.upf
     MD5 check sum: 91400c9766925bcf19f520983a725ff0
     Pseudo is Ultrasoft + core correction, Zval =  6.0
     Generated using &quot;atomic&quot; code by A. Dal Corso  v.6.3MaX
     Using radial grid of 1095 points,  4 beta functions with:
                l(1) =   0
                l(2) =   0
                l(3) =   1
                l(4) =   1
     Q(r) pseudized with 0 coefficients

     atomic species   valence    mass     pseudopotential
        Zn            12.00    65.38000     Zn( 1.00)
        O              6.00    15.99900     O ( 1.00)

      6 Sym. Ops. (no inversion) found

                                    s                        frac. trans.

      isym =  1     identity

 cryst.   s( 1) = (     1          0          0      )
                  (     0          1          0      )
                  (     0          0          1      )

 cart.    s( 1) = (  1.0000000  0.0000000  0.0000000 )
                  (  0.0000000  1.0000000  0.0000000 )
                  (  0.0000000  0.0000000  1.0000000 )

      isym =  2     120 deg rotation - cryst. axis [0,0,1]

[...]

      isym =  3     120 deg rotation - cryst. axis [0,0,-1]

[...]

      isym =  4     inv. 180 deg rotation - cart. axis [1,0,0]

[...]

      isym =  5     inv. 180 deg rotation - cryst. axis [0,1,0]

[...]

      isym =  6     inv. 180 deg rotation - cryst. axis [1,1,0]

 cryst.   s( 6) = (     0         -1          0      )
                  (    -1          0          0      )
                  (     0          0          1      )

 cart.    s( 6) = (  0.5000000 -0.8660254  0.0000000 )
                  ( -0.8660254 -0.5000000  0.0000000 )
                  (  0.0000000  0.0000000  1.0000000 )

   Cartesian axes

     site n.     atom                  positions (alat units)
         1           Zn  tau(   1) = (   0.5000000   0.2886751   0.8082020  )
         2           Zn  tau(   2) = (  -0.0000000   0.5773503   0.0010228  )
         3           O   tau(   3) = (   0.5000000   0.2886751   1.4201130  )
         4           O   tau(   4) = (  -0.0000000   0.5773503   0.6129338  )
         5           Zn  tau(   5) = (   0.5000000   0.2886751   2.4225604  )
         6           Zn  tau(   6) = (  -0.0000000   0.5773503   1.6153812  )
         7           O   tau(   7) = (   0.5000000   0.2886751   3.0344713  )
         8           O   tau(   8) = (  -0.0000000   0.5773503   2.2272921  )
         9           Zn  tau(   9) = (   0.5000000   0.2886751   4.0369187  )
        10           Zn  tau(  10) = (  -0.0000000   0.5773503   3.2297395  )
        11           O   tau(  11) = (   0.5000000   0.2886751   4.6488297  )
        12           O   tau(  12) = (  -0.0000000   0.5773503   3.8416505  )

   Crystallographic axes

     site n.     atom                  positions (cryst. coord.)
         1           Zn  tau(   1) = (  0.6666667  0.3333333  0.1668779  )
         2           Zn  tau(   2) = (  0.3333333  0.6666667  0.0002112  )
         3           O   tau(   3) = (  0.6666667  0.3333333  0.2932255  )
         4           O   tau(   4) = (  0.3333333  0.6666667  0.1265588  )
         5           Zn  tau(   5) = (  0.6666667  0.3333333  0.5002112  )
         6           Zn  tau(   6) = (  0.3333333  0.6666667  0.3335445  )
         7           O   tau(   7) = (  0.6666667  0.3333333  0.6265588  )
         8           O   tau(   8) = (  0.3333333  0.6666667  0.4598921  )
         9           Zn  tau(   9) = (  0.6666667  0.3333333  0.8335445  )
        10           Zn  tau(  10) = (  0.3333333  0.6666667  0.6668779  )
        11           O   tau(  11) = (  0.6666667  0.3333333  0.9598921  )
        12           O   tau(  12) = (  0.3333333  0.6666667  0.7932255  )

     number of k points=    34
                       cart. coord. in units 2pi/alat
        k(    1) = (   0.0000000   0.0000000   0.0000000), wk =   0.0092593
        k(    2) = (   0.0000000   0.0000000   0.0344134), wk =   0.0185185
        k(    3) = (   0.0000000   0.0000000   0.0688268), wk =   0.0185185
        k(    4) = (   0.0000000   0.0000000  -0.1032402), wk =   0.0092593
        k(    5) = (   0.0000000   0.1924501   0.0000000), wk =   0.0555556
        k(    6) = (   0.0000000   0.1924501   0.0344134), wk =   0.0555556
        k(    7) = (   0.0000000   0.1924501   0.0688268), wk =   0.0555556
        k(    8) = (   0.0000000   0.1924501  -0.1032402), wk =   0.0555556
        k(    9) = (   0.0000000   0.3849002   0.0000000), wk =   0.0555556
        k(   10) = (   0.0000000   0.3849002   0.0344134), wk =   0.0555556
        k(   11) = (   0.0000000   0.3849002   0.0688268), wk =   0.0555556
        k(   12) = (   0.0000000   0.3849002  -0.1032402), wk =   0.0555556
        k(   13) = (   0.0000000  -0.5773503   0.0000000), wk =   0.0277778
        k(   14) = (   0.0000000  -0.5773503   0.0344134), wk =   0.0555556
        k(   15) = (   0.0000000  -0.5773503   0.0688268), wk =   0.0555556
        k(   16) = (   0.0000000  -0.5773503  -0.1032402), wk =   0.0277778
        k(   17) = (   0.1666667   0.2886751   0.0000000), wk =   0.0555556
        k(   18) = (   0.1666667   0.2886751   0.0344134), wk =   0.1111111
        k(   19) = (   0.1666667   0.2886751   0.0688268), wk =   0.1111111
        k(   20) = (   0.1666667   0.2886751  -0.1032402), wk =   0.0555556
        k(   21) = (   0.1666667   0.4811252   0.0000000), wk =   0.1111111
        k(   22) = (   0.1666667   0.4811252   0.0344134), wk =   0.1111111
        k(   23) = (   0.1666667   0.4811252   0.0688268), wk =   0.1111111
        k(   24) = (   0.1666667   0.4811252  -0.1032402), wk =   0.1111111
        k(   25) = (   0.3333333   0.5773503   0.0000000), wk =   0.0185185
        k(   26) = (   0.3333333   0.5773503   0.0344134), wk =   0.0370370
        k(   27) = (   0.3333333   0.5773503   0.0688268), wk =   0.0370370
        k(   28) = (   0.3333333   0.5773503  -0.1032402), wk =   0.0185185
        k(   29) = (   0.0000000  -0.1924501   0.0344134), wk =   0.0555556
        k(   30) = (   0.0000000  -0.1924501   0.0688268), wk =   0.0555556
        k(   31) = (   0.0000000  -0.3849002   0.0344134), wk =   0.0555556
        k(   32) = (   0.0000000  -0.3849002   0.0688268), wk =   0.0555556
        k(   33) = (  -0.1666667  -0.4811252   0.0344134), wk =   0.1111111
        k(   34) = (  -0.1666667  -0.4811252   0.0688268), wk =   0.1111111

                       cryst. coord.
        k(    1) = (   0.0000000   0.0000000   0.0000000), wk =   0.0092593
        k(    2) = (   0.0000000   0.0000000   0.1666667), wk =   0.0185185
        k(    3) = (   0.0000000   0.0000000   0.3333333), wk =   0.0185185
        k(    4) = (   0.0000000   0.0000000  -0.5000000), wk =   0.0092593
        k(    5) = (   0.0000000   0.1666667   0.0000000), wk =   0.0555556
        k(    6) = (   0.0000000   0.1666667   0.1666667), wk =   0.0555556
        k(    7) = (   0.0000000   0.1666667   0.3333333), wk =   0.0555556
        k(    8) = (   0.0000000   0.1666667  -0.5000000), wk =   0.0555556
        k(    9) = (   0.0000000   0.3333333   0.0000000), wk =   0.0555556
        k(   10) = (   0.0000000   0.3333333   0.1666667), wk =   0.0555556
        k(   11) = (   0.0000000   0.3333333   0.3333333), wk =   0.0555556
        k(   12) = (   0.0000000   0.3333333  -0.5000000), wk =   0.0555556
        k(   13) = (   0.0000000  -0.5000000   0.0000000), wk =   0.0277778
        k(   14) = (   0.0000000  -0.5000000   0.1666667), wk =   0.0555556
        k(   15) = (   0.0000000  -0.5000000   0.3333333), wk =   0.0555556
        k(   16) = (   0.0000000  -0.5000000  -0.5000000), wk =   0.0277778
        k(   17) = (   0.1666667   0.1666667   0.0000000), wk =   0.0555556
        k(   18) = (   0.1666667   0.1666667   0.1666667), wk =   0.1111111
        k(   19) = (   0.1666667   0.1666667   0.3333333), wk =   0.1111111
        k(   20) = (   0.1666667   0.1666667  -0.5000000), wk =   0.0555556
        k(   21) = (   0.1666667   0.3333333   0.0000000), wk =   0.1111111
        k(   22) = (   0.1666667   0.3333333   0.1666667), wk =   0.1111111
        k(   23) = (   0.1666667   0.3333333   0.3333333), wk =   0.1111111
        k(   24) = (   0.1666667   0.3333333  -0.5000000), wk =   0.1111111
        k(   25) = (   0.3333333   0.3333333   0.0000000), wk =   0.0185185
        k(   26) = (   0.3333333   0.3333333   0.1666667), wk =   0.0370370
        k(   27) = (   0.3333333   0.3333333   0.3333333), wk =   0.0370370
        k(   28) = (   0.3333333   0.3333333  -0.5000000), wk =   0.0185185
        k(   29) = (   0.0000000  -0.1666667   0.1666667), wk =   0.0555556
        k(   30) = (   0.0000000  -0.1666667   0.3333333), wk =   0.0555556
        k(   31) = (   0.0000000  -0.3333333   0.1666667), wk =   0.0555556
        k(   32) = (   0.0000000  -0.3333333   0.3333333), wk =   0.0555556
        k(   33) = (  -0.1666667  -0.3333333   0.1666667), wk =   0.1111111
        k(   34) = (  -0.1666667  -0.3333333   0.3333333), wk =   0.1111111

     Check: negative core charge=   -0.000002

     Initial potential from superposition of free atoms

     starting charge     107.9776, renormalised to     108.0000
     Starting wfcs are   78 randomized atomic wfcs

     Self-consistent Calculation

     iteration #  1     ecut=    50.00 Ry     beta= 0.30
     Davidson diagonalization with overlap

     ethr =  1.00E-02,  avg # of iterations =  2.0

     total energy              =   -1084.43868720 Ry
     estimated scf accuracy    <       2.03109257 Ry

[...]

     c_bands:  1 eigenvalues not converged
     ethr =  3.58E-08,  avg # of iterations = 15.1

[...]

     c_bands:  1 eigenvalues not converged
     ethr =  8.11E-09,  avg # of iterations = 11.8

[...]

     total energy              =   -1084.88811967 Ry
     estimated scf accuracy    <       0.00000003 Ry

     iteration # 28     ecut=    50.00 Ry     beta= 0.30
     Davidson diagonalization with overlap

     ethr =  3.08E-11,  avg # of iterations =  7.2

     End of self-consistent calculation

          k = 0.0000 0.0000 0.0000 (  5539 PWs)   bands (ev):

   -10.5734 -10.3887 -10.3887 -10.0023 -10.0023  -9.8000   1.6753   1.6753
     1.7933   1.7933   1.8838   1.9364   1.9364   1.9680   1.9680   1.9680
     1.9680   1.9849   2.0690   2.0690   2.0690   2.0690   2.1413   2.1413
     3.2336   3.2336   3.3068   3.3068   3.3068   3.3068   3.4222   3.4222
     3.4222   3.4222   3.4617   3.4617   3.7473   4.7270   4.7270   6.3584
     6.3584   6.9759   6.9759   7.1870   7.1870   7.1870   7.1870   7.6035
     7.6035   7.6036   7.6036   7.7057   7.8082   7.8082

     occupation numbers
     1.0000   1.0000   1.0000   1.0000   1.0000   1.0000   1.0000   1.0000
     1.0000   1.0000   1.0000   1.0000   1.0000   1.0000   1.0000   1.0000
     1.0000   1.0000   1.0000   1.0000   1.0000   1.0000   1.0000   1.0000
     1.0000   1.0000   1.0000   1.0000   1.0000   1.0000   1.0000   1.0000
     1.0000   1.0000   1.0000   1.0000   1.0000   1.0000   1.0000   1.0000
     1.0000   1.0000   1.0000   1.0000   1.0000   1.0000   1.0000   1.0000
     1.0000   1.0000   1.0000   1.0000   1.0000   1.0000

[...]

          k = 0.0000-0.3849 0.0688 (  5553 PWs)   bands (ev):

[...]

          k =-0.1667-0.4811 0.0344 (  5556 PWs)   bands (ev):

[...]

          k =-0.1667-0.4811 0.0688 (  5566 PWs)   bands (ev):

    -9.8359  -9.8115  -9.7320  -9.6883  -9.6193  -9.6005   1.5960   1.6230
     1.6942   1.7484   1.8536   1.9709   2.1898   2.1936   2.2612   2.3162
     2.3892   2.4161   2.5377   2.5468   2.6201   2.6795   2.6946   2.7621
     3.1943   3.2404   3.3286   3.3572   3.3778   3.3859   3.5213   3.5233
     3.5610   3.6097   3.7184   3.7254   3.8603   3.9287   4.1788   4.3011
     4.4953   4.5084   4.8616   5.0260   5.2597   5.5111   5.5595   5.8264
     6.3108   6.3502   6.4292   6.5575   6.6217   6.6503

     occupation numbers
     1.0000   1.0000   1.0000   1.0000   1.0000   1.0000   1.0000   1.0000
     1.0000   1.0000   1.0000   1.0000   1.0000   1.0000   1.0000   1.0000
     1.0000   1.0000   1.0000   1.0000   1.0000   1.0000   1.0000   1.0000
     1.0000   1.0000   1.0000   1.0000   1.0000   1.0000   1.0000   1.0000
     1.0000   1.0000   1.0000   1.0000   1.0000   1.0000   1.0000   1.0000
     1.0000   1.0000   1.0000   1.0000   1.0000   1.0000   1.0000   1.0000
     1.0000   1.0000   1.0000   1.0000   1.0000   1.0000

     highest occupied level (ev):     7.8082

!    total energy              =   -1084.88811970 Ry
     estimated scf accuracy    <          6.4E-09 Ry

     The total energy is the sum of the following terms:
     one-electron contribution =    -442.53682993 Ry
     hartree contribution      =     347.44781312 Ry
     xc contribution           =    -329.02274617 Ry
     ewald contribution        =    -660.77635672 Ry

     convergence has been achieved in  28 iterations

     Forces acting on atoms (cartesian axes, Ry/au):

     atom    1 type  1   force =     0.00000000    0.00000000    0.00022667
     atom    2 type  1   force =     0.00000000   -0.00000000    0.00023423
     atom    3 type  2   force =     0.00000000    0.00000000   -0.00022604
     atom    4 type  2   force =     0.00000000   -0.00000000   -0.00022647
     atom    5 type  1   force =     0.00000000   -0.00000000    0.00021117
     atom    6 type  1   force =     0.00000000    0.00000000    0.00022811
     atom    7 type  2   force =     0.00000000   -0.00000000   -0.00022586
     atom    8 type  2   force =     0.00000000    0.00000000   -0.00022319
     atom    9 type  1   force =     0.00000000    0.00000000    0.00023055
     atom   10 type  1   force =     0.00000000    0.00000000    0.00022100
     atom   11 type  2   force =     0.00000000    0.00000000   -0.00022487
     atom   12 type  2   force =     0.00000000   -0.00000000   -0.00022531
     The non-local contrib.  to forces
     atom    1 type  1   force =     0.00000000   -0.00000000   -0.00506939
     atom    2 type  1   force =    -0.00000000    0.00000000   -0.00506686
     atom    3 type  2   force =     0.00000000    0.00000000    0.00501562
     atom    4 type  2   force =     0.00000000    0.00000000    0.00501389
     atom    5 type  1   force =     0.00000000   -0.00000000   -0.00508337
     atom    6 type  1   force =    -0.00000000    0.00000000   -0.00506889
     atom    7 type  2   force =     0.00000000    0.00000000    0.00502031
     atom    8 type  2   force =     0.00000000    0.00000000    0.00502455
     atom    9 type  1   force =     0.00000000    0.00000000   -0.00507213
     atom   10 type  1   force =     0.00000000    0.00000000   -0.00507296
     atom   11 type  2   force =     0.00000000    0.00000000    0.00501768
     atom   12 type  2   force =     0.00000000    0.00000000    0.00501549
     The ionic contribution  to forces
     atom    1 type  1   force =    -0.00000000    0.00000000    0.06530280
     atom    2 type  1   force =     0.00000000   -0.00000000    0.06530284
     atom    3 type  2   force =    -0.00000000    0.00000000   -0.06530281
     atom    4 type  2   force =     0.00000000   -0.00000000   -0.06530282
     atom    5 type  1   force =    -0.00000000    0.00000000    0.06530284
     atom    6 type  1   force =     0.00000000   -0.00000000    0.06530280
     atom    7 type  2   force =    -0.00000000    0.00000000   -0.06530282
     atom    8 type  2   force =     0.00000000   -0.00000000   -0.06530280
     atom    9 type  1   force =    -0.00000000    0.00000000    0.06530280
     atom   10 type  1   force =     0.00000000   -0.00000000    0.06530280
     atom   11 type  2   force =    -0.00000000    0.00000000   -0.06530280
     atom   12 type  2   force =     0.00000000   -0.00000000   -0.06530281
     The local contribution  to forces
     atom    1 type  1   force =    -0.00000004    0.00000002   -0.06055441
     atom    2 type  1   force =     0.00000004   -0.00000002   -0.06056514
     atom    3 type  2   force =    -0.00000001    0.00000001    0.06011633
     atom    4 type  2   force =     0.00000001   -0.00000001    0.06011868
     atom    5 type  1   force =    -0.00000004    0.00000002   -0.06052431
     atom    6 type  1   force =     0.00000004   -0.00000002   -0.06055757
     atom    7 type  2   force =    -0.00000001    0.00000001    0.06012716
     atom    8 type  2   force =     0.00000001   -0.00000001    0.06013103
     atom    9 type  1   force =    -0.00000004    0.00000002   -0.06055167
     atom   10 type  1   force =     0.00000004   -0.00000002   -0.06054847
     atom   11 type  2   force =    -0.00000001    0.00000001    0.06011024
     atom   12 type  2   force =     0.00000001   -0.00000001    0.06011988
     The core correction contribution to forces
     atom    1 type  1   force =    -0.00000001    0.00000000    0.00054315
     atom    2 type  1   force =     0.00000001   -0.00000000    0.00054339
     atom    3 type  2   force =     0.00000000   -0.00000000   -0.00005780
     atom    4 type  2   force =    -0.00000000    0.00000000   -0.00005777
     atom    5 type  1   force =    -0.00000001    0.00000000    0.00054292
     atom    6 type  1   force =     0.00000001   -0.00000000    0.00054321
     atom    7 type  2   force =     0.00000000   -0.00000000   -0.00005785
     atom    8 type  2   force =    -0.00000000    0.00000000   -0.00005788
     atom    9 type  1   force =    -0.00000001    0.00000000    0.00054302
     atom   10 type  1   force =     0.00000001   -0.00000000    0.00054340
     atom   11 type  2   force =     0.00000000   -0.00000000   -0.00005785
     atom   12 type  2   force =    -0.00000000    0.00000000   -0.00005780
     The Hubbard contrib.    to forces
     atom    1 type  1   force =     0.00000000    0.00000000    0.00000000
     atom    2 type  1   force =     0.00000000    0.00000000    0.00000000
     atom    3 type  2   force =     0.00000000    0.00000000    0.00000000
     atom    4 type  2   force =     0.00000000    0.00000000    0.00000000
     atom    5 type  1   force =     0.00000000    0.00000000    0.00000000
     atom    6 type  1   force =     0.00000000    0.00000000    0.00000000
     atom    7 type  2   force =     0.00000000    0.00000000    0.00000000
     atom    8 type  2   force =     0.00000000    0.00000000    0.00000000
     atom    9 type  1   force =     0.00000000    0.00000000    0.00000000
     atom   10 type  1   force =     0.00000000    0.00000000    0.00000000
     atom   11 type  2   force =     0.00000000    0.00000000    0.00000000
     atom   12 type  2   force =     0.00000000    0.00000000    0.00000000
     The SCF correction term to forces
     atom    1 type  1   force =    -0.00000000    0.00000000    0.00000520
     atom    2 type  1   force =     0.00000000   -0.00000000    0.00002068
     atom    3 type  2   force =    -0.00000000    0.00000000    0.00000330
     atom    4 type  2   force =     0.00000000   -0.00000000    0.00000224
     atom    5 type  1   force =    -0.00000000    0.00000000   -0.00002623
     atom    6 type  1   force =     0.00000000   -0.00000000    0.00000924
     atom    7 type  2   force =    -0.00000000    0.00000000   -0.00001198
     atom    8 type  2   force =     0.00000000   -0.00000000   -0.00001742
     atom    9 type  1   force =    -0.00000000    0.00000000    0.00000921
     atom   10 type  1   force =     0.00000000   -0.00000000   -0.00000309
     atom   11 type  2   force =    -0.00000000    0.00000000    0.00000854
     atom   12 type  2   force =     0.00000000   -0.00000000    0.00000061

     Total force =     0.000781     Total SCF correction =     0.000043

     General routines

     Parallel routines

   This run was terminated on:  15: 2: 9  27Aug2025

   JOB DONE.