     Program PWSCF v.7.0 starts on 27Aug2025 at 15:18:41

     K-points division:     npool     =      17

     Reading input from /home/jvc/QEspresso7.2/ZnO_database/scripts/cell113.in/ZnO-3.20-1.74-113.in
Warning: card &CELL ignored
Warning: card / ignored
Warning: card &FCP ignored
Warning: card / ignored
Warning: card &RISM ignored
Warning: card / ignored

     Current dimensions of program PWSCF are:
     Max number of different atomic species (ntypx) = 10
     Max number of k-points (npk) =  40000
     Max angular momentum in pseudopotentials (lmaxx) =  4
     file Zn.upf: wavefunction(s)  3D renormalized
     Found identity + (  0.0000  0.0000  0.3333) symmetry
     This is a supercell, fractional translations are disabled
     Message from routine setup:
     using ibrav=0 with symmetry is DISCOURAGED, use correct ibrav instead

     Subspace diagonalization in iterative solution of the eigenvalue problem:
     a serial algorithm will be used

     Using Slab Decomposition

     bravais-lattice index     =            0
     lattice parameter (alat)  =       6.0553  a.u.
     unit-cell volume          =    1005.7212 (a.u.)^3
     number of atoms/cell      =           12
     number of atomic types    =            2
     number of electrons       =       108.00
     number of Kohn-Sham states=           54
     kinetic-energy cutoff     =      50.0000  Ry
     charge density cutoff     =     400.0000  Ry
     scf convergence threshold =      1.0E-08
     mixing beta               =       0.3000
     number of iterations used =            8  plain     mixing
     Exchange-correlation= PBE
                           (   1   4   3   4   0   0   0)

     celldm(1)=   6.055277  celldm(2)=   0.000000  celldm(3)=   0.000000
     celldm(4)=   0.000000  celldm(5)=   0.000000  celldm(6)=   0.000000

     crystal axes: (cart. coord. in units of alat)
               a(1) = (   1.000000   0.000000   0.000000 )
               a(2) = (  -0.500000   0.866025   0.000000 )
               a(3) = (   0.000000   0.000000   5.230521 )

     reciprocal axes: (cart. coord. in units 2 pi/alat)
               b(1) = (  1.000000  0.577350 -0.000000 )
               b(2) = (  0.000000  1.154701  0.000000 )
               b(3) = (  0.000000 -0.000000  0.191186 )

     PseudoPot. # 1 for Zn read from file:
     /home/jvc/QEspresso7.2/ZnO_database/pseudos/Zn.upf
     MD5 check sum: 7f56cabf9682ed8c977c2f7d0c5985c5
     Pseudo is Ultrasoft + core correction, Zval = 12.0
     Generated using &quot;atomic&quot; code by A. Dal Corso  v.6.2.2
     Using radial grid of 1201 points,  6 beta functions with:
                l(1) =   0
                l(2) =   0
                l(3) =   1
                l(4) =   1
                l(5) =   2
                l(6) =   2
     Q(r) pseudized with 0 coefficients

     PseudoPot. # 2 for O  read from file:
     /home/jvc/QEspresso7.2/ZnO_database/pseudos/O.upf
     MD5 check sum: 91400c9766925bcf19f520983a725ff0
     Pseudo is Ultrasoft + core correction, Zval =  6.0
     Generated using &quot;atomic&quot; code by A. Dal Corso  v.6.3MaX
     Using radial grid of 1095 points,  4 beta functions with:
                l(1) =   0
                l(2) =   0
                l(3) =   1
                l(4) =   1
     Q(r) pseudized with 0 coefficients

     atomic species   valence    mass     pseudopotential
        Zn            12.00    65.38000     Zn( 1.00)
        O              6.00    15.99900     O ( 1.00)

      6 Sym. Ops. (no inversion) found

                                    s                        frac. trans.

      isym =  1     identity

 cryst.   s( 1) = (     1          0          0      )
                  (     0          1          0      )
                  (     0          0          1      )

 cart.    s( 1) = (  1.0000000  0.0000000  0.0000000 )
                  (  0.0000000  1.0000000  0.0000000 )
                  (  0.0000000  0.0000000  1.0000000 )

      isym =  2     120 deg rotation - cryst. axis [0,0,1]

[...]

      isym =  3     120 deg rotation - cryst. axis [0,0,-1]

[...]

      isym =  4     inv. 180 deg rotation - cart. axis [1,0,0]

[...]

      isym =  5     inv. 180 deg rotation - cryst. axis [0,1,0]

[...]

      isym =  6     inv. 180 deg rotation - cryst. axis [1,1,0]

 cryst.   s( 6) = (     0         -1          0      )
                  (    -1          0          0      )
                  (     0          0          1      )

 cart.    s( 6) = (  0.5000000 -0.8660254  0.0000000 )
                  ( -0.8660254 -0.5000000  0.0000000 )
                  (  0.0000000  0.0000000  1.0000000 )

   Cartesian axes

     site n.     atom                  positions (alat units)
         1           Zn  tau(   1) = (   0.5000000   0.2886751   0.8728582  )
         2           Zn  tau(   2) = (  -0.0000000   0.5773503   0.0011047  )
         3           O   tau(   3) = (   0.5000000   0.2886751   1.5337220  )
         4           O   tau(   4) = (  -0.0000000   0.5773503   0.6619685  )
         5           Zn  tau(   5) = (   0.5000000   0.2886751   2.6163652  )
         6           Zn  tau(   6) = (  -0.0000000   0.5773503   1.7446117  )
         7           O   tau(   7) = (   0.5000000   0.2886751   3.2772290  )
         8           O   tau(   8) = (  -0.0000000   0.5773503   2.4054755  )
         9           Zn  tau(   9) = (   0.5000000   0.2886751   4.3598722  )
        10           Zn  tau(  10) = (  -0.0000000   0.5773503   3.4881187  )
        11           O   tau(  11) = (   0.5000000   0.2886751   5.0207361  )
        12           O   tau(  12) = (  -0.0000000   0.5773503   4.1489825  )

   Crystallographic axes

     site n.     atom                  positions (cryst. coord.)
         1           Zn  tau(   1) = (  0.6666667  0.3333333  0.1668779  )
         2           Zn  tau(   2) = (  0.3333333  0.6666667  0.0002112  )
         3           O   tau(   3) = (  0.6666667  0.3333333  0.2932255  )
         4           O   tau(   4) = (  0.3333333  0.6666667  0.1265588  )
         5           Zn  tau(   5) = (  0.6666667  0.3333333  0.5002112  )
         6           Zn  tau(   6) = (  0.3333333  0.6666667  0.3335445  )
         7           O   tau(   7) = (  0.6666667  0.3333333  0.6265588  )
         8           O   tau(   8) = (  0.3333333  0.6666667  0.4598921  )
         9           Zn  tau(   9) = (  0.6666667  0.3333333  0.8335445  )
        10           Zn  tau(  10) = (  0.3333333  0.6666667  0.6668779  )
        11           O   tau(  11) = (  0.6666667  0.3333333  0.9598921  )
        12           O   tau(  12) = (  0.3333333  0.6666667  0.7932255  )

     number of k points=    34
                       cart. coord. in units 2pi/alat
        k(    1) = (   0.0000000   0.0000000   0.0000000), wk =   0.0092593
        k(    2) = (   0.0000000   0.0000000   0.0318643), wk =   0.0185185
        k(    3) = (   0.0000000   0.0000000   0.0637285), wk =   0.0185185
        k(    4) = (   0.0000000   0.0000000  -0.0955928), wk =   0.0092593
        k(    5) = (   0.0000000   0.1924501   0.0000000), wk =   0.0555556
        k(    6) = (   0.0000000   0.1924501   0.0318643), wk =   0.0555556
        k(    7) = (   0.0000000   0.1924501   0.0637285), wk =   0.0555556
        k(    8) = (   0.0000000   0.1924501  -0.0955928), wk =   0.0555556
        k(    9) = (   0.0000000   0.3849002   0.0000000), wk =   0.0555556
        k(   10) = (   0.0000000   0.3849002   0.0318643), wk =   0.0555556
        k(   11) = (   0.0000000   0.3849002   0.0637285), wk =   0.0555556
        k(   12) = (   0.0000000   0.3849002  -0.0955928), wk =   0.0555556
        k(   13) = (   0.0000000  -0.5773503   0.0000000), wk =   0.0277778
        k(   14) = (   0.0000000  -0.5773503   0.0318643), wk =   0.0555556
        k(   15) = (   0.0000000  -0.5773503   0.0637285), wk =   0.0555556
        k(   16) = (   0.0000000  -0.5773503  -0.0955928), wk =   0.0277778
        k(   17) = (   0.1666667   0.2886751   0.0000000), wk =   0.0555556
        k(   18) = (   0.1666667   0.2886751   0.0318643), wk =   0.1111111
        k(   19) = (   0.1666667   0.2886751   0.0637285), wk =   0.1111111
        k(   20) = (   0.1666667   0.2886751  -0.0955928), wk =   0.0555556
        k(   21) = (   0.1666667   0.4811252   0.0000000), wk =   0.1111111
        k(   22) = (   0.1666667   0.4811252   0.0318643), wk =   0.1111111
        k(   23) = (   0.1666667   0.4811252   0.0637285), wk =   0.1111111
        k(   24) = (   0.1666667   0.4811252  -0.0955928), wk =   0.1111111
        k(   25) = (   0.3333333   0.5773503   0.0000000), wk =   0.0185185
        k(   26) = (   0.3333333   0.5773503   0.0318643), wk =   0.0370370
        k(   27) = (   0.3333333   0.5773503   0.0637285), wk =   0.0370370
        k(   28) = (   0.3333333   0.5773503  -0.0955928), wk =   0.0185185
        k(   29) = (   0.0000000  -0.1924501   0.0318643), wk =   0.0555556
        k(   30) = (   0.0000000  -0.1924501   0.0637285), wk =   0.0555556
        k(   31) = (   0.0000000  -0.3849002   0.0318643), wk =   0.0555556
        k(   32) = (   0.0000000  -0.3849002   0.0637285), wk =   0.0555556
        k(   33) = (  -0.1666667  -0.4811252   0.0318643), wk =   0.1111111
        k(   34) = (  -0.1666667  -0.4811252   0.0637285), wk =   0.1111111

                       cryst. coord.
        k(    1) = (   0.0000000   0.0000000   0.0000000), wk =   0.0092593
        k(    2) = (   0.0000000   0.0000000   0.1666667), wk =   0.0185185
        k(    3) = (   0.0000000   0.0000000   0.3333333), wk =   0.0185185
        k(    4) = (   0.0000000   0.0000000  -0.5000000), wk =   0.0092593
        k(    5) = (   0.0000000   0.1666667   0.0000000), wk =   0.0555556
        k(    6) = (   0.0000000   0.1666667   0.1666667), wk =   0.0555556
        k(    7) = (   0.0000000   0.1666667   0.3333333), wk =   0.0555556
        k(    8) = (   0.0000000   0.1666667  -0.5000000), wk =   0.0555556
        k(    9) = (   0.0000000   0.3333333   0.0000000), wk =   0.0555556
        k(   10) = (   0.0000000   0.3333333   0.1666667), wk =   0.0555556
        k(   11) = (   0.0000000   0.3333333   0.3333333), wk =   0.0555556
        k(   12) = (   0.0000000   0.3333333  -0.5000000), wk =   0.0555556
        k(   13) = (   0.0000000  -0.5000000   0.0000000), wk =   0.0277778
        k(   14) = (   0.0000000  -0.5000000   0.1666667), wk =   0.0555556
        k(   15) = (   0.0000000  -0.5000000   0.3333333), wk =   0.0555556
        k(   16) = (   0.0000000  -0.5000000  -0.5000000), wk =   0.0277778
        k(   17) = (   0.1666667   0.1666667   0.0000000), wk =   0.0555556
        k(   18) = (   0.1666667   0.1666667   0.1666667), wk =   0.1111111
        k(   19) = (   0.1666667   0.1666667   0.3333333), wk =   0.1111111
        k(   20) = (   0.1666667   0.1666667  -0.5000000), wk =   0.0555556
        k(   21) = (   0.1666667   0.3333333   0.0000000), wk =   0.1111111
        k(   22) = (   0.1666667   0.3333333   0.1666667), wk =   0.1111111
        k(   23) = (   0.1666667   0.3333333   0.3333333), wk =   0.1111111
        k(   24) = (   0.1666667   0.3333333  -0.5000000), wk =   0.1111111
        k(   25) = (   0.3333333   0.3333333   0.0000000), wk =   0.0185185
        k(   26) = (   0.3333333   0.3333333   0.1666667), wk =   0.0370370
        k(   27) = (   0.3333333   0.3333333   0.3333333), wk =   0.0370370
        k(   28) = (   0.3333333   0.3333333  -0.5000000), wk =   0.0185185
        k(   29) = (   0.0000000  -0.1666667   0.1666667), wk =   0.0555556
        k(   30) = (   0.0000000  -0.1666667   0.3333333), wk =   0.0555556
        k(   31) = (   0.0000000  -0.3333333   0.1666667), wk =   0.0555556
        k(   32) = (   0.0000000  -0.3333333   0.3333333), wk =   0.0555556
        k(   33) = (  -0.1666667  -0.3333333   0.1666667), wk =   0.1111111
        k(   34) = (  -0.1666667  -0.3333333   0.3333333), wk =   0.1111111

     Check: negative core charge=   -0.000002

     Initial potential from superposition of free atoms

     starting charge     107.9776, renormalised to     108.0000
     Starting wfcs are   78 randomized atomic wfcs

     Self-consistent Calculation

     iteration #  1     ecut=    50.00 Ry     beta= 0.30
     Davidson diagonalization with overlap

     ethr =  1.00E-02,  avg # of iterations =  1.8

     total energy              =   -1084.40315503 Ry
     estimated scf accuracy    <       2.11042235 Ry

[...]

     c_bands:  1 eigenvalues not converged
     ethr =  1.54E-06,  avg # of iterations =  7.4

[...]

     total energy              =   -1084.88568257 Ry
     estimated scf accuracy    <       0.00000023 Ry

     iteration # 30     ecut=    50.00 Ry     beta= 0.30
     Davidson diagonalization with overlap

     ethr =  2.09E-10,  avg # of iterations =  4.8

     End of self-consistent calculation

          k = 0.0000 0.0000 0.0000 (  5975 PWs)   bands (ev):

   -11.1329 -11.0026 -11.0025 -10.7305 -10.7305 -10.5882   1.0064   1.0064
     1.0569   1.0570   1.0916   1.0916   1.1193   1.1193   1.1193   1.1193
     1.1490   1.1602   1.1900   1.1900   1.1900   1.1900   1.2336   1.2336
     2.2262   2.2262   2.2688   2.2688   2.2688   2.2688   2.3404   2.3404
     2.3405   2.3405   2.3692   2.3692   2.7283   3.5301   3.5301   5.0558
     5.0558   6.1550   6.1550   6.3000   6.3000   6.3001   6.3001   6.4323
     6.5887   6.5887   6.5888   6.5888   6.7323   6.7323

     occupation numbers
     1.0000   1.0000   1.0000   1.0000   1.0000   1.0000   1.0000   1.0000
     1.0000   1.0000   1.0000   1.0000   1.0000   1.0000   1.0000   1.0000
     1.0000   1.0000   1.0000   1.0000   1.0000   1.0000   1.0000   1.0000
     1.0000   1.0000   1.0000   1.0000   1.0000   1.0000   1.0000   1.0000
     1.0000   1.0000   1.0000   1.0000   1.0000   1.0000   1.0000   1.0000
     1.0000   1.0000   1.0000   1.0000   1.0000   1.0000   1.0000   1.0000
     1.0000   1.0000   1.0000   1.0000   1.0000   1.0000

[...]

          k = 0.0000-0.3849 0.0637 (  6011 PWs)   bands (ev):

[...]

          k =-0.1667-0.4811 0.0319 (  6008 PWs)   bands (ev):

[...]

          k =-0.1667-0.4811 0.0637 (  6005 PWs)   bands (ev):

   -10.4691 -10.4531 -10.3998 -10.3696 -10.3201 -10.3060   0.9593   0.9817
     0.9894   0.9989   1.1360   1.2038   1.3830   1.3863   1.4494   1.5103
     1.6347   1.6608   1.6886   1.7024   1.7260   1.7718   1.7742   1.8289
     2.1697   2.2060   2.2984   2.3097   2.3319   2.3392   2.4516   2.4523
     2.4779   2.5152   2.6177   2.6547   2.8825   2.9422   3.1365   3.2423
     3.4132   3.4379   4.0483   4.2061   4.3829   4.5447   4.6435   4.8283
     5.1917   5.2811   5.3440   5.3814   5.5401   5.5508

     occupation numbers
     1.0000   1.0000   1.0000   1.0000   1.0000   1.0000   1.0000   1.0000
     1.0000   1.0000   1.0000   1.0000   1.0000   1.0000   1.0000   1.0000
     1.0000   1.0000   1.0000   1.0000   1.0000   1.0000   1.0000   1.0000
     1.0000   1.0000   1.0000   1.0000   1.0000   1.0000   1.0000   1.0000
     1.0000   1.0000   1.0000   1.0000   1.0000   1.0000   1.0000   1.0000
     1.0000   1.0000   1.0000   1.0000   1.0000   1.0000   1.0000   1.0000
     1.0000   1.0000   1.0000   1.0000   1.0000   1.0000

     highest occupied level (ev):     6.7323

!    total energy              =   -1084.88568264 Ry
     estimated scf accuracy    <          7.7E-09 Ry

     The total energy is the sum of the following terms:
     one-electron contribution =    -470.35475829 Ry
     hartree contribution      =     357.39614335 Ry
     xc contribution           =    -328.55312357 Ry
     ewald contribution        =    -643.37394413 Ry

     convergence has been achieved in  30 iterations

     Forces acting on atoms (cartesian axes, Ry/au):

     atom    1 type  1   force =     0.00000000    0.00000000    0.01499023
     atom    2 type  1   force =     0.00000000    0.00000000    0.01501425
     atom    3 type  2   force =     0.00000000    0.00000000   -0.01502158
     atom    4 type  2   force =     0.00000000    0.00000000   -0.01501895
     atom    5 type  1   force =     0.00000000   -0.00000000    0.01495975
     atom    6 type  1   force =     0.00000000   -0.00000000    0.01495838
     atom    7 type  2   force =     0.00000000    0.00000000   -0.01503383
     atom    8 type  2   force =     0.00000000    0.00000000   -0.01501635
     atom    9 type  1   force =     0.00000000   -0.00000000    0.01513123
     atom   10 type  1   force =     0.00000000    0.00000000    0.01510575
     atom   11 type  2   force =     0.00000000    0.00000000   -0.01502439
     atom   12 type  2   force =     0.00000000    0.00000000   -0.01504449
     The non-local contrib.  to forces
     atom    1 type  1   force =     0.00000000   -0.00000000    0.20631885
     atom    2 type  1   force =     0.00000000   -0.00000000    0.20636028
     atom    3 type  2   force =     0.00000000    0.00000000    0.19811632
     atom    4 type  2   force =     0.00000000    0.00000000    0.19811476
     atom    5 type  1   force =     0.00000000    0.00000000    0.20628294
     atom    6 type  1   force =     0.00000000    0.00000000    0.20631214
     atom    7 type  2   force =     0.00000000   -0.00000000    0.19806388
     atom    8 type  2   force =     0.00000000    0.00000000    0.19812955
     atom    9 type  1   force =     0.00000000    0.00000000    0.20645563
     atom   10 type  1   force =     0.00000000    0.00000000    0.20641310
     atom   11 type  2   force =     0.00000000    0.00000000    0.19806665
     atom   12 type  2   force =     0.00000000    0.00000000    0.19800463
     The ionic contribution  to forces
     atom    1 type  1   force =    -0.00000000    0.00000000    1.63795037
     atom    2 type  1   force =     0.00000000   -0.00000000    1.63795041
     atom    3 type  2   force =    -0.00000000    0.00000000   -1.63795039
     atom    4 type  2   force =     0.00000000   -0.00000000   -1.63795040
     atom    5 type  1   force =    -0.00000000    0.00000000    1.63795041
     atom    6 type  1   force =     0.00000000   -0.00000000    1.63795037
     atom    7 type  2   force =    -0.00000000    0.00000000   -1.63795040
     atom    8 type  2   force =     0.00000000   -0.00000000   -1.63795037
     atom    9 type  1   force =    -0.00000000    0.00000000    1.63795037
     atom   10 type  1   force =     0.00000000   -0.00000000    1.63795037
     atom   11 type  2   force =    -0.00000000    0.00000000   -1.63795037
     atom   12 type  2   force =     0.00000000   -0.00000000   -1.63795039
     The local contribution  to forces
     atom    1 type  1   force =    -0.00000004    0.00000002   -1.81460498
     atom    2 type  1   force =     0.00000004   -0.00000002   -1.81468282
     atom    3 type  2   force =    -0.00000001    0.00000001    1.42648760
     atom    4 type  2   force =     0.00000001   -0.00000001    1.42645650
     atom    5 type  1   force =    -0.00000004    0.00000002   -1.81453969
     atom    6 type  1   force =     0.00000004   -0.00000002   -1.81458433
     atom    7 type  2   force =    -0.00000001    0.00000001    1.42640985
     atom    8 type  2   force =     0.00000001   -0.00000001    1.42649272
     atom    9 type  1   force =    -0.00000004    0.00000002   -1.81489526
     atom   10 type  1   force =     0.00000004   -0.00000002   -1.81484234
     atom   11 type  2   force =    -0.00000001    0.00000001    1.42645587
     atom   12 type  2   force =     0.00000001   -0.00000001    1.42639220
     The core correction contribution to forces
     atom    1 type  1   force =    -0.00000001    0.00000000   -0.01454498
     atom    2 type  1   force =     0.00000001   -0.00000000   -0.01454460
     atom    3 type  2   force =     0.00000000   -0.00000000   -0.00162728
     atom    4 type  2   force =    -0.00000000    0.00000000   -0.00162729
     atom    5 type  1   force =    -0.00000001    0.00000000   -0.01454528
     atom    6 type  1   force =     0.00000001   -0.00000000   -0.01454460
     atom    7 type  2   force =     0.00000000   -0.00000000   -0.00162666
     atom    8 type  2   force =    -0.00000000    0.00000000   -0.00162746
     atom    9 type  1   force =    -0.00000001    0.00000000   -0.01454324
     atom   10 type  1   force =     0.00000001   -0.00000000   -0.01454134
     atom   11 type  2   force =     0.00000000   -0.00000000   -0.00162656
     atom   12 type  2   force =    -0.00000000    0.00000000   -0.00162580
     The Hubbard contrib.    to forces
     atom    1 type  1   force =     0.00000000    0.00000000    0.00000000
     atom    2 type  1   force =     0.00000000    0.00000000    0.00000000
     atom    3 type  2   force =     0.00000000    0.00000000    0.00000000
     atom    4 type  2   force =     0.00000000    0.00000000    0.00000000
     atom    5 type  1   force =     0.00000000    0.00000000    0.00000000
     atom    6 type  1   force =     0.00000000    0.00000000    0.00000000
     atom    7 type  2   force =     0.00000000    0.00000000    0.00000000
     atom    8 type  2   force =     0.00000000    0.00000000    0.00000000
     atom    9 type  1   force =     0.00000000    0.00000000    0.00000000
     atom   10 type  1   force =     0.00000000    0.00000000    0.00000000
     atom   11 type  2   force =     0.00000000    0.00000000    0.00000000
     atom   12 type  2   force =     0.00000000    0.00000000    0.00000000
     The SCF correction term to forces
     atom    1 type  1   force =    -0.00000000    0.00000000   -0.00015528
     atom    2 type  1   force =     0.00000000   -0.00000000   -0.00009527
     atom    3 type  2   force =    -0.00000000    0.00000000   -0.00007408
     atom    4 type  2   force =     0.00000000   -0.00000000   -0.00003877
     atom    5 type  1   force =    -0.00000000    0.00000000   -0.00021489
     atom    6 type  1   force =     0.00000000   -0.00000000   -0.00020146
     atom    7 type  2   force =    -0.00000000    0.00000000    0.00004325
     atom    8 type  2   force =     0.00000000   -0.00000000   -0.00008704
     atom    9 type  1   force =    -0.00000000    0.00000000    0.00013747
     atom   10 type  1   force =     0.00000000   -0.00000000    0.00009970
     atom   11 type  2   force =    -0.00000000    0.00000000    0.00000377
     atom   12 type  2   force =     0.00000000   -0.00000000    0.00010861

     Total force =     0.052054     Total SCF correction =     0.000421

     General routines

     Parallel routines

   This run was terminated on:  15:24:24  27Aug2025

   JOB DONE.