     Program PWSCF v.7.0 starts on 27Aug2025 at 17:26:54

     K-points division:     npool     =      17

     Reading input from /home/jvc/QEspresso7.2/ZnO_database/scripts/cell113.in/ZnO-3.34-1.78-113.in
Warning: card &CELL ignored
Warning: card / ignored
Warning: card &FCP ignored
Warning: card / ignored
Warning: card &RISM ignored
Warning: card / ignored

     Current dimensions of program PWSCF are:
     Max number of different atomic species (ntypx) = 10
     Max number of k-points (npk) =  40000
     Max angular momentum in pseudopotentials (lmaxx) =  4
     file Zn.upf: wavefunction(s)  3D renormalized
     Found identity + (  0.0000  0.0000  0.3333) symmetry
     This is a supercell, fractional translations are disabled
     Message from routine setup:
     using ibrav=0 with symmetry is DISCOURAGED, use correct ibrav instead

     Subspace diagonalization in iterative solution of the eigenvalue problem:
     a serial algorithm will be used

     Using Slab Decomposition

     bravais-lattice index     =            0
     lattice parameter (alat)  =       6.3024  a.u.
     unit-cell volume          =    1154.9650 (a.u.)^3
     number of atoms/cell      =           12
     number of atomic types    =            2
     number of electrons       =       108.00
     number of Kohn-Sham states=           54
     kinetic-energy cutoff     =      50.0000  Ry
     charge density cutoff     =     400.0000  Ry
     scf convergence threshold =      1.0E-08
     mixing beta               =       0.3000
     number of iterations used =            8  plain     mixing
     Exchange-correlation= PBE
                           (   1   4   3   4   0   0   0)

     celldm(1)=   6.302431  celldm(2)=   0.000000  celldm(3)=   0.000000
     celldm(4)=   0.000000  celldm(5)=   0.000000  celldm(6)=   0.000000

     crystal axes: (cart. coord. in units of alat)
               a(1) = (   1.000000   0.000000   0.000000 )
               a(2) = (  -0.500000   0.866025   0.000000 )
               a(3) = (   0.000000   0.000000   5.327383 )

     reciprocal axes: (cart. coord. in units 2 pi/alat)
               b(1) = (  1.000000  0.577350 -0.000000 )
               b(2) = (  0.000000  1.154701  0.000000 )
               b(3) = (  0.000000 -0.000000  0.187709 )

     PseudoPot. # 1 for Zn read from file:
     /home/jvc/QEspresso7.2/ZnO_database/pseudos/Zn.upf
     MD5 check sum: 7f56cabf9682ed8c977c2f7d0c5985c5
     Pseudo is Ultrasoft + core correction, Zval = 12.0
     Generated using &quot;atomic&quot; code by A. Dal Corso  v.6.2.2
     Using radial grid of 1201 points,  6 beta functions with:
                l(1) =   0
                l(2) =   0
                l(3) =   1
                l(4) =   1
                l(5) =   2
                l(6) =   2
     Q(r) pseudized with 0 coefficients

     PseudoPot. # 2 for O  read from file:
     /home/jvc/QEspresso7.2/ZnO_database/pseudos/O.upf
     MD5 check sum: 91400c9766925bcf19f520983a725ff0
     Pseudo is Ultrasoft + core correction, Zval =  6.0
     Generated using &quot;atomic&quot; code by A. Dal Corso  v.6.3MaX
     Using radial grid of 1095 points,  4 beta functions with:
                l(1) =   0
                l(2) =   0
                l(3) =   1
                l(4) =   1
     Q(r) pseudized with 0 coefficients

     atomic species   valence    mass     pseudopotential
        Zn            12.00    65.38000     Zn( 1.00)
        O              6.00    15.99900     O ( 1.00)

      6 Sym. Ops. (no inversion) found

                                    s                        frac. trans.

      isym =  1     identity

 cryst.   s( 1) = (     1          0          0      )
                  (     0          1          0      )
                  (     0          0          1      )

 cart.    s( 1) = (  1.0000000  0.0000000  0.0000000 )
                  (  0.0000000  1.0000000  0.0000000 )
                  (  0.0000000  0.0000000  1.0000000 )

      isym =  2     120 deg rotation - cryst. axis [0,0,1]

[...]

      isym =  3     120 deg rotation - cryst. axis [0,0,-1]

[...]

      isym =  4     inv. 180 deg rotation - cart. axis [1,0,0]

[...]

      isym =  5     inv. 180 deg rotation - cryst. axis [0,1,0]

[...]

      isym =  6     inv. 180 deg rotation - cryst. axis [1,1,0]

 cryst.   s( 6) = (     0         -1          0      )
                  (    -1          0          0      )
                  (     0          0          1      )

 cart.    s( 6) = (  0.5000000 -0.8660254  0.0000000 )
                  ( -0.8660254 -0.5000000  0.0000000 )
                  (  0.0000000  0.0000000  1.0000000 )

   Cartesian axes

     site n.     atom                  positions (alat units)
         1           Zn  tau(   1) = (   0.5000000   0.2886751   0.8890222  )
         2           Zn  tau(   2) = (  -0.0000000   0.5773503   0.0011251  )
         3           O   tau(   3) = (   0.5000000   0.2886751   1.5621243  )
         4           O   tau(   4) = (  -0.0000000   0.5773503   0.6742272  )
         5           Zn  tau(   5) = (   0.5000000   0.2886751   2.6648164  )
         6           Zn  tau(   6) = (  -0.0000000   0.5773503   1.7769193  )
         7           O   tau(   7) = (   0.5000000   0.2886751   3.3379185  )
         8           O   tau(   8) = (  -0.0000000   0.5773503   2.4500214  )
         9           Zn  tau(   9) = (   0.5000000   0.2886751   4.4406106  )
        10           Zn  tau(  10) = (  -0.0000000   0.5773503   3.5527135  )
        11           O   tau(  11) = (   0.5000000   0.2886751   5.1137127  )
        12           O   tau(  12) = (  -0.0000000   0.5773503   4.2258156  )

   Crystallographic axes

     site n.     atom                  positions (cryst. coord.)
         1           Zn  tau(   1) = (  0.6666667  0.3333333  0.1668779  )
         2           Zn  tau(   2) = (  0.3333333  0.6666667  0.0002112  )
         3           O   tau(   3) = (  0.6666667  0.3333333  0.2932255  )
         4           O   tau(   4) = (  0.3333333  0.6666667  0.1265588  )
         5           Zn  tau(   5) = (  0.6666667  0.3333333  0.5002112  )
         6           Zn  tau(   6) = (  0.3333333  0.6666667  0.3335445  )
         7           O   tau(   7) = (  0.6666667  0.3333333  0.6265588  )
         8           O   tau(   8) = (  0.3333333  0.6666667  0.4598921  )
         9           Zn  tau(   9) = (  0.6666667  0.3333333  0.8335445  )
        10           Zn  tau(  10) = (  0.3333333  0.6666667  0.6668779  )
        11           O   tau(  11) = (  0.6666667  0.3333333  0.9598921  )
        12           O   tau(  12) = (  0.3333333  0.6666667  0.7932255  )

     number of k points=    34
                       cart. coord. in units 2pi/alat
        k(    1) = (   0.0000000   0.0000000   0.0000000), wk =   0.0092593
        k(    2) = (   0.0000000   0.0000000   0.0312849), wk =   0.0185185
        k(    3) = (   0.0000000   0.0000000   0.0625698), wk =   0.0185185
        k(    4) = (   0.0000000   0.0000000  -0.0938547), wk =   0.0092593
        k(    5) = (   0.0000000   0.1924501   0.0000000), wk =   0.0555556
        k(    6) = (   0.0000000   0.1924501   0.0312849), wk =   0.0555556
        k(    7) = (   0.0000000   0.1924501   0.0625698), wk =   0.0555556
        k(    8) = (   0.0000000   0.1924501  -0.0938547), wk =   0.0555556
        k(    9) = (   0.0000000   0.3849002   0.0000000), wk =   0.0555556
        k(   10) = (   0.0000000   0.3849002   0.0312849), wk =   0.0555556
        k(   11) = (   0.0000000   0.3849002   0.0625698), wk =   0.0555556
        k(   12) = (   0.0000000   0.3849002  -0.0938547), wk =   0.0555556
        k(   13) = (   0.0000000  -0.5773503   0.0000000), wk =   0.0277778
        k(   14) = (   0.0000000  -0.5773503   0.0312849), wk =   0.0555556
        k(   15) = (   0.0000000  -0.5773503   0.0625698), wk =   0.0555556
        k(   16) = (   0.0000000  -0.5773503  -0.0938547), wk =   0.0277778
        k(   17) = (   0.1666667   0.2886751   0.0000000), wk =   0.0555556
        k(   18) = (   0.1666667   0.2886751   0.0312849), wk =   0.1111111
        k(   19) = (   0.1666667   0.2886751   0.0625698), wk =   0.1111111
        k(   20) = (   0.1666667   0.2886751  -0.0938547), wk =   0.0555556
        k(   21) = (   0.1666667   0.4811252   0.0000000), wk =   0.1111111
        k(   22) = (   0.1666667   0.4811252   0.0312849), wk =   0.1111111
        k(   23) = (   0.1666667   0.4811252   0.0625698), wk =   0.1111111
        k(   24) = (   0.1666667   0.4811252  -0.0938547), wk =   0.1111111
        k(   25) = (   0.3333333   0.5773503   0.0000000), wk =   0.0185185
        k(   26) = (   0.3333333   0.5773503   0.0312849), wk =   0.0370370
        k(   27) = (   0.3333333   0.5773503   0.0625698), wk =   0.0370370
        k(   28) = (   0.3333333   0.5773503  -0.0938547), wk =   0.0185185
        k(   29) = (   0.0000000  -0.1924501   0.0312849), wk =   0.0555556
        k(   30) = (   0.0000000  -0.1924501   0.0625698), wk =   0.0555556
        k(   31) = (   0.0000000  -0.3849002   0.0312849), wk =   0.0555556
        k(   32) = (   0.0000000  -0.3849002   0.0625698), wk =   0.0555556
        k(   33) = (  -0.1666667  -0.4811252   0.0312849), wk =   0.1111111
        k(   34) = (  -0.1666667  -0.4811252   0.0625698), wk =   0.1111111

                       cryst. coord.
        k(    1) = (   0.0000000   0.0000000   0.0000000), wk =   0.0092593
        k(    2) = (   0.0000000   0.0000000   0.1666667), wk =   0.0185185
        k(    3) = (   0.0000000   0.0000000   0.3333333), wk =   0.0185185
        k(    4) = (   0.0000000   0.0000000  -0.5000000), wk =   0.0092593
        k(    5) = (   0.0000000   0.1666667   0.0000000), wk =   0.0555556
        k(    6) = (   0.0000000   0.1666667   0.1666667), wk =   0.0555556
        k(    7) = (   0.0000000   0.1666667   0.3333333), wk =   0.0555556
        k(    8) = (   0.0000000   0.1666667  -0.5000000), wk =   0.0555556
        k(    9) = (   0.0000000   0.3333333   0.0000000), wk =   0.0555556
        k(   10) = (   0.0000000   0.3333333   0.1666667), wk =   0.0555556
        k(   11) = (   0.0000000   0.3333333   0.3333333), wk =   0.0555556
        k(   12) = (   0.0000000   0.3333333  -0.5000000), wk =   0.0555556
        k(   13) = (   0.0000000  -0.5000000   0.0000000), wk =   0.0277778
        k(   14) = (   0.0000000  -0.5000000   0.1666667), wk =   0.0555556
        k(   15) = (   0.0000000  -0.5000000   0.3333333), wk =   0.0555556
        k(   16) = (   0.0000000  -0.5000000  -0.5000000), wk =   0.0277778
        k(   17) = (   0.1666667   0.1666667   0.0000000), wk =   0.0555556
        k(   18) = (   0.1666667   0.1666667   0.1666667), wk =   0.1111111
        k(   19) = (   0.1666667   0.1666667   0.3333333), wk =   0.1111111
        k(   20) = (   0.1666667   0.1666667  -0.5000000), wk =   0.0555556
        k(   21) = (   0.1666667   0.3333333   0.0000000), wk =   0.1111111
        k(   22) = (   0.1666667   0.3333333   0.1666667), wk =   0.1111111
        k(   23) = (   0.1666667   0.3333333   0.3333333), wk =   0.1111111
        k(   24) = (   0.1666667   0.3333333  -0.5000000), wk =   0.1111111
        k(   25) = (   0.3333333   0.3333333   0.0000000), wk =   0.0185185
        k(   26) = (   0.3333333   0.3333333   0.1666667), wk =   0.0370370
        k(   27) = (   0.3333333   0.3333333   0.3333333), wk =   0.0370370
        k(   28) = (   0.3333333   0.3333333  -0.5000000), wk =   0.0185185
        k(   29) = (   0.0000000  -0.1666667   0.1666667), wk =   0.0555556
        k(   30) = (   0.0000000  -0.1666667   0.3333333), wk =   0.0555556
        k(   31) = (   0.0000000  -0.3333333   0.1666667), wk =   0.0555556
        k(   32) = (   0.0000000  -0.3333333   0.3333333), wk =   0.0555556
        k(   33) = (  -0.1666667  -0.3333333   0.1666667), wk =   0.1111111
        k(   34) = (  -0.1666667  -0.3333333   0.3333333), wk =   0.1111111

     Check: negative core charge=   -0.000002

     Initial potential from superposition of free atoms

     starting charge     107.9776, renormalised to     108.0000
     Starting wfcs are   78 randomized atomic wfcs

     Self-consistent Calculation

     iteration #  1     ecut=    50.00 Ry     beta= 0.30
     Davidson diagonalization with overlap

     ethr =  1.00E-02,  avg # of iterations =  1.4

     total energy              =   -1084.25659520 Ry
     estimated scf accuracy    <       2.31307629 Ry

[...]

     total energy              =   -1084.80478858 Ry
     estimated scf accuracy    <       0.00000002 Ry

     iteration # 31     ecut=    50.00 Ry     beta= 0.30
     Davidson diagonalization with overlap

     ethr =  1.51E-11,  avg # of iterations =  2.4

     End of self-consistent calculation

          k = 0.0000 0.0000 0.0000 (  6885 PWs)   bands (ev):

   -12.0336 -11.9429 -11.9429 -11.7556 -11.7555 -11.6587  -0.2703  -0.2703
    -0.2500  -0.2500  -0.2500  -0.2500  -0.2416  -0.2416  -0.2127  -0.1997
    -0.1997  -0.1997  -0.1997  -0.1696  -0.1696  -0.1541  -0.1541   0.0995
     0.5117   0.5117   0.5389   0.5389   0.5389   0.5389   0.5866   0.5866
     0.5866   0.5866   0.6064   0.6064   1.0815   1.8671   1.8671   3.2755
     3.2755   4.4754   4.4754   4.5836   4.5836   4.5836   4.5836   4.5997
     4.7989   4.7989   4.7989   4.7989   4.9062   4.9062

     occupation numbers
     1.0000   1.0000   1.0000   1.0000   1.0000   1.0000   1.0000   1.0000
     1.0000   1.0000   1.0000   1.0000   1.0000   1.0000   1.0000   1.0000
     1.0000   1.0000   1.0000   1.0000   1.0000   1.0000   1.0000   1.0000
     1.0000   1.0000   1.0000   1.0000   1.0000   1.0000   1.0000   1.0000
     1.0000   1.0000   1.0000   1.0000   1.0000   1.0000   1.0000   1.0000
     1.0000   1.0000   1.0000   1.0000   1.0000   1.0000   1.0000   1.0000
     1.0000   1.0000   1.0000   1.0000   1.0000   1.0000

[...]

          k = 0.0000-0.3849 0.0626 (  6894 PWs)   bands (ev):

[...]

          k =-0.1667-0.4811 0.0313 (  6915 PWs)   bands (ev):

[...]

          k =-0.1667-0.4811 0.0626 (  6914 PWs)   bands (ev):

   -11.5381 -11.5273 -11.4913 -11.4707 -11.4364 -11.4266  -0.2578  -0.2548
    -0.2351  -0.2039  -0.1010  -0.0590  -0.0083  -0.0072   0.0380   0.0878
     0.1929   0.2068   0.2205   0.2316   0.2325   0.2599   0.2814   0.3186
     0.4810   0.5055   0.5744   0.5765   0.5922   0.5965   0.6806   0.6823
     0.7016   0.7269   0.7927   0.8161   1.4486   1.4622   1.5706   1.6528
     1.8117   1.8541   2.6688   2.8109   2.9842   3.1129   3.1656   3.3218
     3.6221   3.6763   3.7410   3.7867   3.9173   3.9191

     occupation numbers
     1.0000   1.0000   1.0000   1.0000   1.0000   1.0000   1.0000   1.0000
     1.0000   1.0000   1.0000   1.0000   1.0000   1.0000   1.0000   1.0000
     1.0000   1.0000   1.0000   1.0000   1.0000   1.0000   1.0000   1.0000
     1.0000   1.0000   1.0000   1.0000   1.0000   1.0000   1.0000   1.0000
     1.0000   1.0000   1.0000   1.0000   1.0000   1.0000   1.0000   1.0000
     1.0000   1.0000   1.0000   1.0000   1.0000   1.0000   1.0000   1.0000
     1.0000   1.0000   1.0000   1.0000   1.0000   1.0000

     highest occupied level (ev):     4.9062

!    total energy              =   -1084.80478857 Ry
     estimated scf accuracy    <          6.0E-09 Ry

     The total energy is the sum of the following terms:
     one-electron contribution =    -517.71822224 Ry
     hartree contribution      =     374.63892407 Ry
     xc contribution           =    -327.78963914 Ry
     ewald contribution        =    -613.93585126 Ry

     convergence has been achieved in  31 iterations

     Forces acting on atoms (cartesian axes, Ry/au):

     atom    1 type  1   force =     0.00000000    0.00000000   -0.00155783
     atom    2 type  1   force =     0.00000000    0.00000000   -0.00158051
     atom    3 type  2   force =     0.00000000    0.00000000    0.00156762
     atom    4 type  2   force =     0.00000000    0.00000000    0.00156916
     atom    5 type  1   force =     0.00000000    0.00000000   -0.00157573
     atom    6 type  1   force =     0.00000000    0.00000000   -0.00155092
     atom    7 type  2   force =     0.00000000    0.00000000    0.00157558
     atom    8 type  2   force =     0.00000000    0.00000000    0.00157485
     atom    9 type  1   force =     0.00000000    0.00000000   -0.00158404
     atom   10 type  1   force =     0.00000000   -0.00000000   -0.00158626
     atom   11 type  2   force =     0.00000000   -0.00000000    0.00157175
     atom   12 type  2   force =     0.00000000    0.00000000    0.00157633
     The non-local contrib.  to forces
     atom    1 type  1   force =     0.00000000   -0.00000000    0.23586737
     atom    2 type  1   force =     0.00000000    0.00000000    0.23585012
     atom    3 type  2   force =     0.00000000    0.00000000    0.25339392
     atom    4 type  2   force =     0.00000000    0.00000000    0.25339586
     atom    5 type  1   force =     0.00000000   -0.00000000    0.23585226
     atom    6 type  1   force =     0.00000000    0.00000000    0.23587310
     atom    7 type  2   force =     0.00000000    0.00000000    0.25340860
     atom    8 type  2   force =     0.00000000   -0.00000000    0.25340284
     atom    9 type  1   force =     0.00000000    0.00000000    0.23584296
     atom   10 type  1   force =     0.00000000   -0.00000000    0.23584265
     atom   11 type  2   force =     0.00000000    0.00000000    0.25340337
     atom   12 type  2   force =     0.00000000   -0.00000000    0.25340881
     The ionic contribution  to forces
     atom    1 type  1   force =    -0.00000000    0.00000000    1.83888418
     atom    2 type  1   force =     0.00000000   -0.00000000    1.83888421
     atom    3 type  2   force =    -0.00000000    0.00000000   -1.83888419
     atom    4 type  2   force =     0.00000000   -0.00000000   -1.83888420
     atom    5 type  1   force =    -0.00000000    0.00000000    1.83888421
     atom    6 type  1   force =     0.00000000   -0.00000000    1.83888418
     atom    7 type  2   force =    -0.00000000    0.00000000   -1.83888420
     atom    8 type  2   force =     0.00000000   -0.00000000   -1.83888418
     atom    9 type  1   force =    -0.00000000    0.00000000    1.83888418
     atom   10 type  1   force =     0.00000000   -0.00000000    1.83888418
     atom   11 type  2   force =    -0.00000000    0.00000000   -1.83888418
     atom   12 type  2   force =     0.00000000   -0.00000000   -1.83888419
     The local contribution  to forces
     atom    1 type  1   force =    -0.00000004    0.00000003   -2.06153946
     atom    2 type  1   force =     0.00000004   -0.00000003   -2.06150040
     atom    3 type  2   force =    -0.00000001    0.00000001    1.58927898
     atom    4 type  2   force =     0.00000001   -0.00000001    1.58929287
     atom    5 type  1   force =    -0.00000004    0.00000003   -2.06150145
     atom    6 type  1   force =     0.00000004   -0.00000003   -2.06155018
     atom    7 type  2   force =    -0.00000001    0.00000001    1.58931104
     atom    8 type  2   force =     0.00000001   -0.00000001    1.58930007
     atom    9 type  1   force =    -0.00000004    0.00000003   -2.06148595
     atom   10 type  1   force =     0.00000004   -0.00000003   -2.06148173
     atom   11 type  2   force =    -0.00000001    0.00000001    1.58930775
     atom   12 type  2   force =     0.00000001   -0.00000001    1.58931245
     The core correction contribution to forces
     atom    1 type  1   force =    -0.00000001    0.00000000   -0.01479204
     atom    2 type  1   force =     0.00000001   -0.00000000   -0.01479216
     atom    3 type  2   force =     0.00000000   -0.00000000   -0.00224634
     atom    4 type  2   force =    -0.00000000    0.00000000   -0.00224632
     atom    5 type  1   force =    -0.00000001    0.00000000   -0.01479244
     atom    6 type  1   force =     0.00000001   -0.00000000   -0.01479210
     atom    7 type  2   force =     0.00000000   -0.00000000   -0.00224648
     atom    8 type  2   force =    -0.00000000    0.00000000   -0.00224642
     atom    9 type  1   force =    -0.00000001    0.00000000   -0.01479234
     atom   10 type  1   force =     0.00000001   -0.00000000   -0.01479252
     atom   11 type  2   force =     0.00000000   -0.00000000   -0.00224641
     atom   12 type  2   force =    -0.00000000    0.00000000   -0.00224648
     The Hubbard contrib.    to forces
     atom    1 type  1   force =     0.00000000    0.00000000    0.00000000
     atom    2 type  1   force =     0.00000000    0.00000000    0.00000000
     atom    3 type  2   force =     0.00000000    0.00000000    0.00000000
     atom    4 type  2   force =     0.00000000    0.00000000    0.00000000
     atom    5 type  1   force =     0.00000000    0.00000000    0.00000000
     atom    6 type  1   force =     0.00000000    0.00000000    0.00000000
     atom    7 type  2   force =     0.00000000    0.00000000    0.00000000
     atom    8 type  2   force =     0.00000000    0.00000000    0.00000000
     atom    9 type  1   force =     0.00000000    0.00000000    0.00000000
     atom   10 type  1   force =     0.00000000    0.00000000    0.00000000
     atom   11 type  2   force =     0.00000000    0.00000000    0.00000000
     atom   12 type  2   force =     0.00000000    0.00000000    0.00000000
     The SCF correction term to forces
     atom    1 type  1   force =    -0.00000000    0.00000000    0.00002010
     atom    2 type  1   force =     0.00000000   -0.00000000   -0.00002432
     atom    3 type  2   force =    -0.00000000    0.00000000    0.00002321
     atom    4 type  2   force =     0.00000000   -0.00000000    0.00000892
     atom    5 type  1   force =    -0.00000000    0.00000000   -0.00002034
     atom    6 type  1   force =     0.00000000   -0.00000000    0.00003206
     atom    7 type  2   force =    -0.00000000    0.00000000   -0.00001541
     atom    8 type  2   force =     0.00000000   -0.00000000    0.00000051
     atom    9 type  1   force =    -0.00000000    0.00000000   -0.00003492
     atom   10 type  1   force =     0.00000000   -0.00000000   -0.00004087
     atom   11 type  2   force =    -0.00000000    0.00000000   -0.00001081
     atom   12 type  2   force =     0.00000000   -0.00000000   -0.00001629

     Total force =     0.005448     Total SCF correction =     0.000081

     General routines

     Parallel routines

   This run was terminated on:  17:33: 1  27Aug2025

   JOB DONE.