     Program PWSCF v.7.0 starts on 27Aug2025 at 15:30: 0

     K-points division:     npool     =      17

     Reading input from /home/jvc/QEspresso7.2/ZnO_database/scripts/cell113.in/ZnO-3.27-1.45-113.in
Warning: card &CELL ignored
Warning: card / ignored
Warning: card &FCP ignored
Warning: card / ignored
Warning: card &RISM ignored
Warning: card / ignored

     Current dimensions of program PWSCF are:
     Max number of different atomic species (ntypx) = 10
     Max number of k-points (npk) =  40000
     Max angular momentum in pseudopotentials (lmaxx) =  4
     file Zn.upf: wavefunction(s)  3D renormalized
     Found identity + (  0.0000  0.0000  0.3333) symmetry
     This is a supercell, fractional translations are disabled
     Message from routine setup:
     using ibrav=0 with symmetry is DISCOURAGED, use correct ibrav instead

     Subspace diagonalization in iterative solution of the eigenvalue problem:
     a serial algorithm will be used

     Using Slab Decomposition

     bravais-lattice index     =            0
     lattice parameter (alat)  =       6.1789  a.u.
     unit-cell volume          =     890.4676 (a.u.)^3
     number of atoms/cell      =           12
     number of atomic types    =            2
     number of electrons       =       108.00
     number of Kohn-Sham states=           54
     kinetic-energy cutoff     =      50.0000  Ry
     charge density cutoff     =     400.0000  Ry
     scf convergence threshold =      1.0E-08
     mixing beta               =       0.3000
     number of iterations used =            8  plain     mixing
     Exchange-correlation= PBE
                           (   1   4   3   4   0   0   0)

     celldm(1)=   6.178854  celldm(2)=   0.000000  celldm(3)=   0.000000
     celldm(4)=   0.000000  celldm(5)=   0.000000  celldm(6)=   0.000000

     crystal axes: (cart. coord. in units of alat)
               a(1) = (   1.000000   0.000000   0.000000 )
               a(2) = (  -0.500000   0.866025   0.000000 )
               a(3) = (   0.000000   0.000000   4.358768 )

     reciprocal axes: (cart. coord. in units 2 pi/alat)
               b(1) = (  1.000000  0.577350 -0.000000 )
               b(2) = (  0.000000  1.154701  0.000000 )
               b(3) = (  0.000000 -0.000000  0.229423 )

     PseudoPot. # 1 for Zn read from file:
     /home/jvc/QEspresso7.2/ZnO_database/pseudos/Zn.upf
     MD5 check sum: 7f56cabf9682ed8c977c2f7d0c5985c5
     Pseudo is Ultrasoft + core correction, Zval = 12.0
     Generated using &quot;atomic&quot; code by A. Dal Corso  v.6.2.2
     Using radial grid of 1201 points,  6 beta functions with:
                l(1) =   0
                l(2) =   0
                l(3) =   1
                l(4) =   1
                l(5) =   2
                l(6) =   2
     Q(r) pseudized with 0 coefficients

     PseudoPot. # 2 for O  read from file:
     /home/jvc/QEspresso7.2/ZnO_database/pseudos/O.upf
     MD5 check sum: 91400c9766925bcf19f520983a725ff0
     Pseudo is Ultrasoft + core correction, Zval =  6.0
     Generated using &quot;atomic&quot; code by A. Dal Corso  v.6.3MaX
     Using radial grid of 1095 points,  4 beta functions with:
                l(1) =   0
                l(2) =   0
                l(3) =   1
                l(4) =   1
     Q(r) pseudized with 0 coefficients

     atomic species   valence    mass     pseudopotential
        Zn            12.00    65.38000     Zn( 1.00)
        O              6.00    15.99900     O ( 1.00)

      6 Sym. Ops. (no inversion) found

                                    s                        frac. trans.

      isym =  1     identity

 cryst.   s( 1) = (     1          0          0      )
                  (     0          1          0      )
                  (     0          0          1      )

 cart.    s( 1) = (  1.0000000  0.0000000  0.0000000 )
                  (  0.0000000  1.0000000  0.0000000 )
                  (  0.0000000  0.0000000  1.0000000 )

      isym =  2     120 deg rotation - cryst. axis [0,0,1]

[...]

      isym =  3     120 deg rotation - cryst. axis [0,0,-1]

[...]

      isym =  4     inv. 180 deg rotation - cart. axis [1,0,0]

[...]

      isym =  5     inv. 180 deg rotation - cryst. axis [0,1,0]

[...]

      isym =  6     inv. 180 deg rotation - cryst. axis [1,1,0]

 cryst.   s( 6) = (     0         -1          0      )
                  (    -1          0          0      )
                  (     0          0          1      )

 cart.    s( 6) = (  0.5000000 -0.8660254  0.0000000 )
                  ( -0.8660254 -0.5000000  0.0000000 )
                  (  0.0000000  0.0000000  1.0000000 )

   Cartesian axes

     site n.     atom                  positions (alat units)
         1           Zn  tau(   1) = (   0.5000000   0.2886751   0.7273818  )
         2           Zn  tau(   2) = (  -0.0000000   0.5773503   0.0009206  )
         3           O   tau(   3) = (   0.5000000   0.2886751   1.2781017  )
         4           O   tau(   4) = (  -0.0000000   0.5773503   0.5516404  )
         5           Zn  tau(   5) = (   0.5000000   0.2886751   2.1803043  )
         6           Zn  tau(   6) = (  -0.0000000   0.5773503   1.4538431  )
         7           O   tau(   7) = (   0.5000000   0.2886751   2.7310242  )
         8           O   tau(   8) = (  -0.0000000   0.5773503   2.0045629  )
         9           Zn  tau(   9) = (   0.5000000   0.2886751   3.6332269  )
        10           Zn  tau(  10) = (  -0.0000000   0.5773503   2.9067656  )
        11           O   tau(  11) = (   0.5000000   0.2886751   4.1839467  )
        12           O   tau(  12) = (  -0.0000000   0.5773503   3.4574855  )

   Crystallographic axes

     site n.     atom                  positions (cryst. coord.)
         1           Zn  tau(   1) = (  0.6666667  0.3333333  0.1668779  )
         2           Zn  tau(   2) = (  0.3333333  0.6666667  0.0002112  )
         3           O   tau(   3) = (  0.6666667  0.3333333  0.2932255  )
         4           O   tau(   4) = (  0.3333333  0.6666667  0.1265588  )
         5           Zn  tau(   5) = (  0.6666667  0.3333333  0.5002112  )
         6           Zn  tau(   6) = (  0.3333333  0.6666667  0.3335445  )
         7           O   tau(   7) = (  0.6666667  0.3333333  0.6265588  )
         8           O   tau(   8) = (  0.3333333  0.6666667  0.4598921  )
         9           Zn  tau(   9) = (  0.6666667  0.3333333  0.8335445  )
        10           Zn  tau(  10) = (  0.3333333  0.6666667  0.6668779  )
        11           O   tau(  11) = (  0.6666667  0.3333333  0.9598921  )
        12           O   tau(  12) = (  0.3333333  0.6666667  0.7932255  )

     number of k points=    34
                       cart. coord. in units 2pi/alat
        k(    1) = (   0.0000000   0.0000000   0.0000000), wk =   0.0092593
        k(    2) = (   0.0000000   0.0000000   0.0382371), wk =   0.0185185
        k(    3) = (   0.0000000   0.0000000   0.0764742), wk =   0.0185185
        k(    4) = (   0.0000000   0.0000000  -0.1147113), wk =   0.0092593
        k(    5) = (   0.0000000   0.1924501   0.0000000), wk =   0.0555556
        k(    6) = (   0.0000000   0.1924501   0.0382371), wk =   0.0555556
        k(    7) = (   0.0000000   0.1924501   0.0764742), wk =   0.0555556
        k(    8) = (   0.0000000   0.1924501  -0.1147113), wk =   0.0555556
        k(    9) = (   0.0000000   0.3849002   0.0000000), wk =   0.0555556
        k(   10) = (   0.0000000   0.3849002   0.0382371), wk =   0.0555556
        k(   11) = (   0.0000000   0.3849002   0.0764742), wk =   0.0555556
        k(   12) = (   0.0000000   0.3849002  -0.1147113), wk =   0.0555556
        k(   13) = (   0.0000000  -0.5773503   0.0000000), wk =   0.0277778
        k(   14) = (   0.0000000  -0.5773503   0.0382371), wk =   0.0555556
        k(   15) = (   0.0000000  -0.5773503   0.0764742), wk =   0.0555556
        k(   16) = (   0.0000000  -0.5773503  -0.1147113), wk =   0.0277778
        k(   17) = (   0.1666667   0.2886751   0.0000000), wk =   0.0555556
        k(   18) = (   0.1666667   0.2886751   0.0382371), wk =   0.1111111
        k(   19) = (   0.1666667   0.2886751   0.0764742), wk =   0.1111111
        k(   20) = (   0.1666667   0.2886751  -0.1147113), wk =   0.0555556
        k(   21) = (   0.1666667   0.4811252   0.0000000), wk =   0.1111111
        k(   22) = (   0.1666667   0.4811252   0.0382371), wk =   0.1111111
        k(   23) = (   0.1666667   0.4811252   0.0764742), wk =   0.1111111
        k(   24) = (   0.1666667   0.4811252  -0.1147113), wk =   0.1111111
        k(   25) = (   0.3333333   0.5773503   0.0000000), wk =   0.0185185
        k(   26) = (   0.3333333   0.5773503   0.0382371), wk =   0.0370370
        k(   27) = (   0.3333333   0.5773503   0.0764742), wk =   0.0370370
        k(   28) = (   0.3333333   0.5773503  -0.1147113), wk =   0.0185185
        k(   29) = (   0.0000000  -0.1924501   0.0382371), wk =   0.0555556
        k(   30) = (   0.0000000  -0.1924501   0.0764742), wk =   0.0555556
        k(   31) = (   0.0000000  -0.3849002   0.0382371), wk =   0.0555556
        k(   32) = (   0.0000000  -0.3849002   0.0764742), wk =   0.0555556
        k(   33) = (  -0.1666667  -0.4811252   0.0382371), wk =   0.1111111
        k(   34) = (  -0.1666667  -0.4811252   0.0764742), wk =   0.1111111

                       cryst. coord.
        k(    1) = (   0.0000000   0.0000000   0.0000000), wk =   0.0092593
        k(    2) = (   0.0000000   0.0000000   0.1666667), wk =   0.0185185
        k(    3) = (   0.0000000   0.0000000   0.3333333), wk =   0.0185185
        k(    4) = (   0.0000000   0.0000000  -0.5000000), wk =   0.0092593
        k(    5) = (   0.0000000   0.1666667   0.0000000), wk =   0.0555556
        k(    6) = (   0.0000000   0.1666667   0.1666667), wk =   0.0555556
        k(    7) = (   0.0000000   0.1666667   0.3333333), wk =   0.0555556
        k(    8) = (   0.0000000   0.1666667  -0.5000000), wk =   0.0555556
        k(    9) = (   0.0000000   0.3333333   0.0000000), wk =   0.0555556
        k(   10) = (   0.0000000   0.3333333   0.1666667), wk =   0.0555556
        k(   11) = (   0.0000000   0.3333333   0.3333333), wk =   0.0555556
        k(   12) = (   0.0000000   0.3333333  -0.5000000), wk =   0.0555556
        k(   13) = (   0.0000000  -0.5000000   0.0000000), wk =   0.0277778
        k(   14) = (   0.0000000  -0.5000000   0.1666667), wk =   0.0555556
        k(   15) = (   0.0000000  -0.5000000   0.3333333), wk =   0.0555556
        k(   16) = (   0.0000000  -0.5000000  -0.5000000), wk =   0.0277778
        k(   17) = (   0.1666667   0.1666667   0.0000000), wk =   0.0555556
        k(   18) = (   0.1666667   0.1666667   0.1666667), wk =   0.1111111
        k(   19) = (   0.1666667   0.1666667   0.3333333), wk =   0.1111111
        k(   20) = (   0.1666667   0.1666667  -0.5000000), wk =   0.0555556
        k(   21) = (   0.1666667   0.3333333   0.0000000), wk =   0.1111111
        k(   22) = (   0.1666667   0.3333333   0.1666667), wk =   0.1111111
        k(   23) = (   0.1666667   0.3333333   0.3333333), wk =   0.1111111
        k(   24) = (   0.1666667   0.3333333  -0.5000000), wk =   0.1111111
        k(   25) = (   0.3333333   0.3333333   0.0000000), wk =   0.0185185
        k(   26) = (   0.3333333   0.3333333   0.1666667), wk =   0.0370370
        k(   27) = (   0.3333333   0.3333333   0.3333333), wk =   0.0370370
        k(   28) = (   0.3333333   0.3333333  -0.5000000), wk =   0.0185185
        k(   29) = (   0.0000000  -0.1666667   0.1666667), wk =   0.0555556
        k(   30) = (   0.0000000  -0.1666667   0.3333333), wk =   0.0555556
        k(   31) = (   0.0000000  -0.3333333   0.1666667), wk =   0.0555556
        k(   32) = (   0.0000000  -0.3333333   0.3333333), wk =   0.0555556
        k(   33) = (  -0.1666667  -0.3333333   0.1666667), wk =   0.1111111
        k(   34) = (  -0.1666667  -0.3333333   0.3333333), wk =   0.1111111

     Check: negative core charge=   -0.000002

     Initial potential from superposition of free atoms

     starting charge     107.9776, renormalised to     108.0000
     Starting wfcs are   78 randomized atomic wfcs

     Self-consistent Calculation

     iteration #  1     ecut=    50.00 Ry     beta= 0.30
     Davidson diagonalization with overlap

     ethr =  1.00E-02,  avg # of iterations =  2.0

     total energy              =   -1084.32461362 Ry
     estimated scf accuracy    <       2.07323657 Ry

[...]

     c_bands:  1 eigenvalues not converged
     ethr =  1.10E-08,  avg # of iterations = 12.9

[...]

     total energy              =   -1084.77311515 Ry
     estimated scf accuracy    <       0.00000003 Ry

     iteration # 26     ecut=    50.00 Ry     beta= 0.30
     Davidson diagonalization with overlap

     ethr =  1.80E-11,  avg # of iterations =  3.3

     End of self-consistent calculation

          k = 0.0000 0.0000 0.0000 (  5239 PWs)   bands (ev):

   -10.2870 -10.0355 -10.0354  -9.5181  -9.5180  -9.2546   1.9975   1.9976
     2.1262   2.1262   2.4330   2.4428   2.4428   2.4573   2.4630   2.4630
     2.4630   2.4630   2.6015   2.6015   2.6016   2.6016   2.7296   2.7296
     3.7738   3.7738   3.9030   3.9030   3.9030   3.9030   4.0744   4.0744
     4.0744   4.0744   4.1042   4.1042   4.3484   5.6292   5.6292   7.2509
     7.2509   7.2704   7.2704   7.5580   7.5580   7.5580   7.5580   8.1500
     8.1500   8.1500   8.1500   8.4295   8.4295   8.5216

     occupation numbers
     1.0000   1.0000   1.0000   1.0000   1.0000   1.0000   1.0000   1.0000
     1.0000   1.0000   1.0000   1.0000   1.0000   1.0000   1.0000   1.0000
     1.0000   1.0000   1.0000   1.0000   1.0000   1.0000   1.0000   1.0000
     1.0000   1.0000   1.0000   1.0000   1.0000   1.0000   1.0000   1.0000
     1.0000   1.0000   1.0000   1.0000   1.0000   1.0000   1.0000   1.0000
     1.0000   1.0000   1.0000   1.0000   1.0000   1.0000   1.0000   1.0000
     1.0000   1.0000   1.0000   1.0000   1.0000   1.0000

[...]

          k = 0.0000-0.3849 0.0765 (  5327 PWs)   bands (ev):

[...]

          k =-0.1667-0.4811 0.0382 (  5340 PWs)   bands (ev):

[...]

          k =-0.1667-0.4811 0.0765 (  5330 PWs)   bands (ev):

    -9.5330  -9.4960  -9.3803  -9.3208  -9.2353  -9.2143   1.8274   1.8464
     2.0358   2.1438   2.1896   2.3805   2.6039   2.6193   2.6762   2.7160
     2.7687   2.7962   2.9560   2.9944   3.0629   3.1811   3.2284   3.3587
     3.7849   3.8366   3.9314   3.9512   3.9803   3.9818   4.1590   4.1675
     4.2073   4.2513   4.3062   4.3264   4.4986   4.5965   4.8786   5.0045
     5.0644   5.1814   5.4006   5.4642   5.9332   6.1178   6.3151   6.4799
     7.1069   7.2190   7.2906   7.3638   7.4962   7.5694

     occupation numbers
     1.0000   1.0000   1.0000   1.0000   1.0000   1.0000   1.0000   1.0000
     1.0000   1.0000   1.0000   1.0000   1.0000   1.0000   1.0000   1.0000
     1.0000   1.0000   1.0000   1.0000   1.0000   1.0000   1.0000   1.0000
     1.0000   1.0000   1.0000   1.0000   1.0000   1.0000   1.0000   1.0000
     1.0000   1.0000   1.0000   1.0000   1.0000   1.0000   1.0000   1.0000
     1.0000   1.0000   1.0000   1.0000   1.0000   1.0000   1.0000   1.0000
     1.0000   1.0000   1.0000   1.0000   1.0000   1.0000

     highest occupied level (ev):     8.5216

!    total energy              =   -1084.77311515 Ry
     estimated scf accuracy    <          5.6E-09 Ry

     The total energy is the sum of the following terms:
     one-electron contribution =    -431.39206720 Ry
     hartree contribution      =     344.28234287 Ry
     xc contribution           =    -329.38740956 Ry
     ewald contribution        =    -668.27598126 Ry

     convergence has been achieved in  26 iterations

     Forces acting on atoms (cartesian axes, Ry/au):

     atom    1 type  1   force =     0.00000000    0.00000000   -0.07691241
     atom    2 type  1   force =     0.00000000   -0.00000000   -0.07692894
     atom    3 type  2   force =     0.00000000   -0.00000000    0.07692885
     atom    4 type  2   force =     0.00000000    0.00000000    0.07692817
     atom    5 type  1   force =     0.00000000    0.00000000   -0.07696426
     atom    6 type  1   force =     0.00000000   -0.00000000   -0.07689245
     atom    7 type  2   force =     0.00000000    0.00000000    0.07693763
     atom    8 type  2   force =     0.00000000    0.00000000    0.07693361
     atom    9 type  1   force =     0.00000000   -0.00000000   -0.07693482
     atom   10 type  1   force =     0.00000000    0.00000000   -0.07695941
     atom   11 type  2   force =     0.00000000    0.00000000    0.07693123
     atom   12 type  2   force =     0.00000000    0.00000000    0.07693279
     The non-local contrib.  to forces
     atom    1 type  1   force =    -0.00000000    0.00000000   -0.32968402
     atom    2 type  1   force =     0.00000000    0.00000000   -0.32969336
     atom    3 type  2   force =     0.00000000   -0.00000000   -0.22276026
     atom    4 type  2   force =     0.00000000    0.00000000   -0.22275607
     atom    5 type  1   force =     0.00000000    0.00000000   -0.32971566
     atom    6 type  1   force =     0.00000000    0.00000000   -0.32967123
     atom    7 type  2   force =     0.00000000   -0.00000000   -0.22272719
     atom    8 type  2   force =     0.00000000    0.00000000   -0.22273750
     atom    9 type  1   force =     0.00000000    0.00000000   -0.32969881
     atom   10 type  1   force =     0.00000000    0.00000000   -0.32971942
     atom   11 type  2   force =     0.00000000    0.00000000   -0.22274797
     atom   12 type  2   force =     0.00000000   -0.00000000   -0.22274437
     The ionic contribution  to forces
     atom    1 type  1   force =    -0.00000000    0.00000000   -2.26018998
     atom    2 type  1   force =     0.00000000   -0.00000000   -2.26018994
     atom    3 type  2   force =    -0.00000000    0.00000000    2.26018997
     atom    4 type  2   force =     0.00000000   -0.00000000    2.26018996
     atom    5 type  1   force =    -0.00000000    0.00000000   -2.26018994
     atom    6 type  1   force =     0.00000000   -0.00000000   -2.26018998
     atom    7 type  2   force =    -0.00000000    0.00000000    2.26018996
     atom    8 type  2   force =     0.00000000   -0.00000000    2.26018998
     atom    9 type  1   force =    -0.00000000    0.00000000   -2.26018998
     atom   10 type  1   force =     0.00000000   -0.00000000   -2.26018998
     atom   11 type  2   force =    -0.00000000    0.00000000    2.26018998
     atom   12 type  2   force =     0.00000000   -0.00000000    2.26018997
     The local contribution  to forces
     atom    1 type  1   force =    -0.00000004    0.00000002    2.48525095
     atom    2 type  1   force =     0.00000004   -0.00000002    2.48527635
     atom    3 type  2   force =    -0.00000001    0.00000001   -1.96197857
     atom    4 type  2   force =     0.00000001   -0.00000001   -1.96196986
     atom    5 type  1   force =    -0.00000004    0.00000002    2.48534271
     atom    6 type  1   force =     0.00000004   -0.00000002    2.48521769
     atom    7 type  2   force =    -0.00000001    0.00000001   -1.96194418
     atom    8 type  2   force =     0.00000001   -0.00000001   -1.96195258
     atom    9 type  1   force =    -0.00000004    0.00000002    2.48528932
     atom   10 type  1   force =     0.00000004   -0.00000002    2.48533121
     atom   11 type  2   force =    -0.00000001    0.00000001   -1.96196324
     atom   12 type  2   force =     0.00000001   -0.00000001   -1.96195681
     The core correction contribution to forces
     atom    1 type  1   force =    -0.00000001    0.00000000    0.02767842
     atom    2 type  1   force =     0.00000001   -0.00000000    0.02767823
     atom    3 type  2   force =     0.00000000   -0.00000000    0.00145125
     atom    4 type  2   force =    -0.00000000    0.00000000    0.00145121
     atom    5 type  1   force =    -0.00000001    0.00000000    0.02767689
     atom    6 type  1   force =     0.00000001   -0.00000000    0.02767843
     atom    7 type  2   force =     0.00000000   -0.00000000    0.00145083
     atom    8 type  2   force =    -0.00000000    0.00000000    0.00145096
     atom    9 type  1   force =    -0.00000001    0.00000000    0.02767811
     atom   10 type  1   force =     0.00000001   -0.00000000    0.02767825
     atom   11 type  2   force =     0.00000000   -0.00000000    0.00145110
     atom   12 type  2   force =    -0.00000000    0.00000000    0.00145106
     The Hubbard contrib.    to forces
     atom    1 type  1   force =     0.00000000    0.00000000    0.00000000
     atom    2 type  1   force =     0.00000000    0.00000000    0.00000000
     atom    3 type  2   force =     0.00000000    0.00000000    0.00000000
     atom    4 type  2   force =     0.00000000    0.00000000    0.00000000
     atom    5 type  1   force =     0.00000000    0.00000000    0.00000000
     atom    6 type  1   force =     0.00000000    0.00000000    0.00000000
     atom    7 type  2   force =     0.00000000    0.00000000    0.00000000
     atom    8 type  2   force =     0.00000000    0.00000000    0.00000000
     atom    9 type  1   force =     0.00000000    0.00000000    0.00000000
     atom   10 type  1   force =     0.00000000    0.00000000    0.00000000
     atom   11 type  2   force =     0.00000000    0.00000000    0.00000000
     atom   12 type  2   force =     0.00000000    0.00000000    0.00000000
     The SCF correction term to forces
     atom    1 type  1   force =     0.00000000   -0.00000000    0.00003400
     atom    2 type  1   force =    -0.00000000    0.00000000    0.00000156
     atom    3 type  2   force =     0.00000000   -0.00000000    0.00002825
     atom    4 type  2   force =    -0.00000000    0.00000000    0.00001471
     atom    5 type  1   force =     0.00000000   -0.00000000   -0.00007648
     atom    6 type  1   force =    -0.00000000    0.00000000    0.00007443
     atom    7 type  2   force =     0.00000000   -0.00000000   -0.00003001
     atom    8 type  2   force =    -0.00000000    0.00000000   -0.00001547
     atom    9 type  1   force =     0.00000000   -0.00000000   -0.00001168
     atom   10 type  1   force =    -0.00000000    0.00000000   -0.00005769
     atom   11 type  2   force =     0.00000000   -0.00000000    0.00000313
     atom   12 type  2   force =    -0.00000000    0.00000000   -0.00000528

     Total force =     0.266500     Total SCF correction =     0.000135

     General routines

     Parallel routines

   This run was terminated on:  15:34: 1  27Aug2025

   JOB DONE.