     Program PWSCF v.7.0 starts on 27Aug2025 at 19: 3:27

     K-points division:     npool     =      17

     Reading input from /home/jvc/QEspresso7.2/ZnO_database/scripts/cell113.in/ZnO-3.47-1.55-113.in
Warning: card &CELL ignored
Warning: card / ignored
Warning: card &FCP ignored
Warning: card / ignored
Warning: card &RISM ignored
Warning: card / ignored

     Current dimensions of program PWSCF are:
     Max number of different atomic species (ntypx) = 10
     Max number of k-points (npk) =  40000
     Max angular momentum in pseudopotentials (lmaxx) =  4
     file Zn.upf: wavefunction(s)  3D renormalized
     Found identity + (  0.0000  0.0000  0.3333) symmetry
     This is a supercell, fractional translations are disabled
     Message from routine setup:
     using ibrav=0 with symmetry is DISCOURAGED, use correct ibrav instead

     Subspace diagonalization in iterative solution of the eigenvalue problem:
     a serial algorithm will be used

     Using Slab Decomposition

     bravais-lattice index     =            0
     lattice parameter (alat)  =       6.5496  a.u.
     unit-cell volume          =    1131.2653 (a.u.)^3
     number of atoms/cell      =           12
     number of atomic types    =            2
     number of electrons       =       108.00
     number of Kohn-Sham states=           54
     kinetic-energy cutoff     =      50.0000  Ry
     charge density cutoff     =     400.0000  Ry
     scf convergence threshold =      1.0E-08
     mixing beta               =       0.3000
     number of iterations used =            8  plain     mixing
     Exchange-correlation= PBE
                           (   1   4   3   4   0   0   0)

     celldm(1)=   6.549585  celldm(2)=   0.000000  celldm(3)=   0.000000
     celldm(4)=   0.000000  celldm(5)=   0.000000  celldm(6)=   0.000000

     crystal axes: (cart. coord. in units of alat)
               a(1) = (   1.000000   0.000000   0.000000 )
               a(2) = (  -0.500000   0.866025   0.000000 )
               a(3) = (   0.000000   0.000000   4.649352 )

     reciprocal axes: (cart. coord. in units 2 pi/alat)
               b(1) = (  1.000000  0.577350 -0.000000 )
               b(2) = (  0.000000  1.154701  0.000000 )
               b(3) = (  0.000000 -0.000000  0.215084 )

     PseudoPot. # 1 for Zn read from file:
     /home/jvc/QEspresso7.2/ZnO_database/pseudos/Zn.upf
     MD5 check sum: 7f56cabf9682ed8c977c2f7d0c5985c5
     Pseudo is Ultrasoft + core correction, Zval = 12.0
     Generated using &quot;atomic&quot; code by A. Dal Corso  v.6.2.2
     Using radial grid of 1201 points,  6 beta functions with:
                l(1) =   0
                l(2) =   0
                l(3) =   1
                l(4) =   1
                l(5) =   2
                l(6) =   2
     Q(r) pseudized with 0 coefficients

     PseudoPot. # 2 for O  read from file:
     /home/jvc/QEspresso7.2/ZnO_database/pseudos/O.upf
     MD5 check sum: 91400c9766925bcf19f520983a725ff0
     Pseudo is Ultrasoft + core correction, Zval =  6.0
     Generated using &quot;atomic&quot; code by A. Dal Corso  v.6.3MaX
     Using radial grid of 1095 points,  4 beta functions with:
                l(1) =   0
                l(2) =   0
                l(3) =   1
                l(4) =   1
     Q(r) pseudized with 0 coefficients

     atomic species   valence    mass     pseudopotential
        Zn            12.00    65.38000     Zn( 1.00)
        O              6.00    15.99900     O ( 1.00)

      6 Sym. Ops. (no inversion) found

                                    s                        frac. trans.

      isym =  1     identity

 cryst.   s( 1) = (     1          0          0      )
                  (     0          1          0      )
                  (     0          0          1      )

 cart.    s( 1) = (  1.0000000  0.0000000  0.0000000 )
                  (  0.0000000  1.0000000  0.0000000 )
                  (  0.0000000  0.0000000  1.0000000 )

      isym =  2     120 deg rotation - cryst. axis [0,0,1]

[...]

      isym =  3     120 deg rotation - cryst. axis [0,0,-1]

[...]

      isym =  4     inv. 180 deg rotation - cart. axis [1,0,0]

[...]

      isym =  5     inv. 180 deg rotation - cryst. axis [0,1,0]

[...]

      isym =  6     inv. 180 deg rotation - cryst. axis [1,1,0]

 cryst.   s( 6) = (     0         -1          0      )
                  (    -1          0          0      )
                  (     0          0          1      )

 cart.    s( 6) = (  0.5000000 -0.8660254  0.0000000 )
                  ( -0.8660254 -0.5000000  0.0000000 )
                  (  0.0000000  0.0000000  1.0000000 )

   Cartesian axes

     site n.     atom                  positions (alat units)
         1           Zn  tau(   1) = (   0.5000000   0.2886751   0.7758739  )
         2           Zn  tau(   2) = (  -0.0000000   0.5773503   0.0009819  )
         3           O   tau(   3) = (   0.5000000   0.2886751   1.3633085  )
         4           O   tau(   4) = (  -0.0000000   0.5773503   0.5884164  )
         5           Zn  tau(   5) = (   0.5000000   0.2886751   2.3256580  )
         6           Zn  tau(   6) = (  -0.0000000   0.5773503   1.5507659  )
         7           O   tau(   7) = (   0.5000000   0.2886751   2.9130925  )
         8           O   tau(   8) = (  -0.0000000   0.5773503   2.1382005  )
         9           Zn  tau(   9) = (   0.5000000   0.2886751   3.8754420  )
        10           Zn  tau(  10) = (  -0.0000000   0.5773503   3.1005500  )
        11           O   tau(  11) = (   0.5000000   0.2886751   4.4628765  )
        12           O   tau(  12) = (  -0.0000000   0.5773503   3.6879845  )

   Crystallographic axes

     site n.     atom                  positions (cryst. coord.)
         1           Zn  tau(   1) = (  0.6666667  0.3333333  0.1668779  )
         2           Zn  tau(   2) = (  0.3333333  0.6666667  0.0002112  )
         3           O   tau(   3) = (  0.6666667  0.3333333  0.2932255  )
         4           O   tau(   4) = (  0.3333333  0.6666667  0.1265588  )
         5           Zn  tau(   5) = (  0.6666667  0.3333333  0.5002112  )
         6           Zn  tau(   6) = (  0.3333333  0.6666667  0.3335445  )
         7           O   tau(   7) = (  0.6666667  0.3333333  0.6265588  )
         8           O   tau(   8) = (  0.3333333  0.6666667  0.4598921  )
         9           Zn  tau(   9) = (  0.6666667  0.3333333  0.8335445  )
        10           Zn  tau(  10) = (  0.3333333  0.6666667  0.6668779  )
        11           O   tau(  11) = (  0.6666667  0.3333333  0.9598921  )
        12           O   tau(  12) = (  0.3333333  0.6666667  0.7932255  )

     number of k points=    34
                       cart. coord. in units 2pi/alat
        k(    1) = (   0.0000000   0.0000000   0.0000000), wk =   0.0092593
        k(    2) = (   0.0000000   0.0000000   0.0358473), wk =   0.0185185
        k(    3) = (   0.0000000   0.0000000   0.0716946), wk =   0.0185185
        k(    4) = (   0.0000000   0.0000000  -0.1075419), wk =   0.0092593
        k(    5) = (   0.0000000   0.1924501   0.0000000), wk =   0.0555556
        k(    6) = (   0.0000000   0.1924501   0.0358473), wk =   0.0555556
        k(    7) = (   0.0000000   0.1924501   0.0716946), wk =   0.0555556
        k(    8) = (   0.0000000   0.1924501  -0.1075419), wk =   0.0555556
        k(    9) = (   0.0000000   0.3849002   0.0000000), wk =   0.0555556
        k(   10) = (   0.0000000   0.3849002   0.0358473), wk =   0.0555556
        k(   11) = (   0.0000000   0.3849002   0.0716946), wk =   0.0555556
        k(   12) = (   0.0000000   0.3849002  -0.1075419), wk =   0.0555556
        k(   13) = (   0.0000000  -0.5773503   0.0000000), wk =   0.0277778
        k(   14) = (   0.0000000  -0.5773503   0.0358473), wk =   0.0555556
        k(   15) = (   0.0000000  -0.5773503   0.0716946), wk =   0.0555556
        k(   16) = (   0.0000000  -0.5773503  -0.1075419), wk =   0.0277778
        k(   17) = (   0.1666667   0.2886751   0.0000000), wk =   0.0555556
        k(   18) = (   0.1666667   0.2886751   0.0358473), wk =   0.1111111
        k(   19) = (   0.1666667   0.2886751   0.0716946), wk =   0.1111111
        k(   20) = (   0.1666667   0.2886751  -0.1075419), wk =   0.0555556
        k(   21) = (   0.1666667   0.4811252   0.0000000), wk =   0.1111111
        k(   22) = (   0.1666667   0.4811252   0.0358473), wk =   0.1111111
        k(   23) = (   0.1666667   0.4811252   0.0716946), wk =   0.1111111
        k(   24) = (   0.1666667   0.4811252  -0.1075419), wk =   0.1111111
        k(   25) = (   0.3333333   0.5773503   0.0000000), wk =   0.0185185
        k(   26) = (   0.3333333   0.5773503   0.0358473), wk =   0.0370370
        k(   27) = (   0.3333333   0.5773503   0.0716946), wk =   0.0370370
        k(   28) = (   0.3333333   0.5773503  -0.1075419), wk =   0.0185185
        k(   29) = (   0.0000000  -0.1924501   0.0358473), wk =   0.0555556
        k(   30) = (   0.0000000  -0.1924501   0.0716946), wk =   0.0555556
        k(   31) = (   0.0000000  -0.3849002   0.0358473), wk =   0.0555556
        k(   32) = (   0.0000000  -0.3849002   0.0716946), wk =   0.0555556
        k(   33) = (  -0.1666667  -0.4811252   0.0358473), wk =   0.1111111
        k(   34) = (  -0.1666667  -0.4811252   0.0716946), wk =   0.1111111

                       cryst. coord.
        k(    1) = (   0.0000000   0.0000000   0.0000000), wk =   0.0092593
        k(    2) = (   0.0000000   0.0000000   0.1666667), wk =   0.0185185
        k(    3) = (   0.0000000   0.0000000   0.3333333), wk =   0.0185185
        k(    4) = (   0.0000000   0.0000000  -0.5000000), wk =   0.0092593
        k(    5) = (   0.0000000   0.1666667   0.0000000), wk =   0.0555556
        k(    6) = (   0.0000000   0.1666667   0.1666667), wk =   0.0555556
        k(    7) = (   0.0000000   0.1666667   0.3333333), wk =   0.0555556
        k(    8) = (   0.0000000   0.1666667  -0.5000000), wk =   0.0555556
        k(    9) = (   0.0000000   0.3333333   0.0000000), wk =   0.0555556
        k(   10) = (   0.0000000   0.3333333   0.1666667), wk =   0.0555556
        k(   11) = (   0.0000000   0.3333333   0.3333333), wk =   0.0555556
        k(   12) = (   0.0000000   0.3333333  -0.5000000), wk =   0.0555556
        k(   13) = (   0.0000000  -0.5000000   0.0000000), wk =   0.0277778
        k(   14) = (   0.0000000  -0.5000000   0.1666667), wk =   0.0555556
        k(   15) = (   0.0000000  -0.5000000   0.3333333), wk =   0.0555556
        k(   16) = (   0.0000000  -0.5000000  -0.5000000), wk =   0.0277778
        k(   17) = (   0.1666667   0.1666667   0.0000000), wk =   0.0555556
        k(   18) = (   0.1666667   0.1666667   0.1666667), wk =   0.1111111
        k(   19) = (   0.1666667   0.1666667   0.3333333), wk =   0.1111111
        k(   20) = (   0.1666667   0.1666667  -0.5000000), wk =   0.0555556
        k(   21) = (   0.1666667   0.3333333   0.0000000), wk =   0.1111111
        k(   22) = (   0.1666667   0.3333333   0.1666667), wk =   0.1111111
        k(   23) = (   0.1666667   0.3333333   0.3333333), wk =   0.1111111
        k(   24) = (   0.1666667   0.3333333  -0.5000000), wk =   0.1111111
        k(   25) = (   0.3333333   0.3333333   0.0000000), wk =   0.0185185
        k(   26) = (   0.3333333   0.3333333   0.1666667), wk =   0.0370370
        k(   27) = (   0.3333333   0.3333333   0.3333333), wk =   0.0370370
        k(   28) = (   0.3333333   0.3333333  -0.5000000), wk =   0.0185185
        k(   29) = (   0.0000000  -0.1666667   0.1666667), wk =   0.0555556
        k(   30) = (   0.0000000  -0.1666667   0.3333333), wk =   0.0555556
        k(   31) = (   0.0000000  -0.3333333   0.1666667), wk =   0.0555556
        k(   32) = (   0.0000000  -0.3333333   0.3333333), wk =   0.0555556
        k(   33) = (  -0.1666667  -0.3333333   0.1666667), wk =   0.1111111
        k(   34) = (  -0.1666667  -0.3333333   0.3333333), wk =   0.1111111

     Check: negative core charge=   -0.000002

     Initial potential from superposition of free atoms

     starting charge     107.9776, renormalised to     108.0000
     Starting wfcs are   78 randomized atomic wfcs

     Self-consistent Calculation

     iteration #  1     ecut=    50.00 Ry     beta= 0.30
     Davidson diagonalization with overlap

     ethr =  1.00E-02,  avg # of iterations =  1.6

     total energy              =   -1084.31133094 Ry
     estimated scf accuracy    <       2.25416798 Ry

[...]

     c_bands:  1 eigenvalues not converged
     ethr =  3.99E-08,  avg # of iterations = 14.4

[...]

     c_bands:  1 eigenvalues not converged
     ethr =  3.99E-08,  avg # of iterations = 10.8

[...]

     total energy              =   -1084.84408574 Ry
     estimated scf accuracy    <       0.00000018 Ry

     iteration # 32     ecut=    50.00 Ry     beta= 0.30
     Davidson diagonalization with overlap

     ethr =  1.66E-10,  avg # of iterations =  4.5

     End of self-consistent calculation

          k = 0.0000 0.0000 0.0000 (  6819 PWs)   bands (ev):

   -11.8780 -11.7435 -11.7434 -11.4675 -11.4674 -11.3262  -0.0805  -0.0805
     0.0068   0.0068   0.0105   0.0205   0.0206   0.0282   0.0282   0.0282
     0.0282   0.1070   0.1070   0.1070   0.1070   0.1672   0.1672   0.5937
     0.7383   0.7383   0.7941   0.7941   0.7941   0.7941   0.8769   0.8769
     0.8769   0.8769   0.9019   0.9019   1.1247   2.2712   2.2712   3.7346
     3.7347   4.3411   4.3411   4.5232   4.5232   4.5232   4.5232   4.8768
     4.8768   4.8769   4.8769   5.0480   5.0480   5.0661

     occupation numbers
     1.0000   1.0000   1.0000   1.0000   1.0000   1.0000   1.0000   1.0000
     1.0000   1.0000   1.0000   1.0000   1.0000   1.0000   1.0000   1.0000
     1.0000   1.0000   1.0000   1.0000   1.0000   1.0000   1.0000   1.0000
     1.0000   1.0000   1.0000   1.0000   1.0000   1.0000   1.0000   1.0000
     1.0000   1.0000   1.0000   1.0000   1.0000   1.0000   1.0000   1.0000
     1.0000   1.0000   1.0000   1.0000   1.0000   1.0000   1.0000   1.0000
     1.0000   1.0000   1.0000   1.0000   1.0000   1.0000

[...]

          k = 0.0000-0.3849 0.0717 (  6762 PWs)   bands (ev):

[...]

          k =-0.1667-0.4811 0.0358 (  6742 PWs)   bands (ev):

[...]

          k =-0.1667-0.4811 0.0717 (  6742 PWs)   bands (ev):

   -11.4097 -11.3922 -11.3354 -11.3042 -11.2549 -11.2415  -0.0924  -0.0606
    -0.0443  -0.0210   0.1083   0.1387   0.2171   0.2663   0.2846   0.3262
     0.3717   0.3832   0.4082   0.4112   0.4885   0.5372   0.5501   0.5988
     0.7500   0.7755   0.8203   0.8339   0.8423   0.8467   0.9398   0.9406
     0.9749   1.0050   1.0613   1.0764   1.6540   1.6700   1.8092   1.9091
     2.1132   2.1642   2.7301   2.8623   3.0732   3.3093   3.3441   3.5581
     3.9969   4.0362   4.0782   4.1787   4.2460   4.2491

     occupation numbers
     1.0000   1.0000   1.0000   1.0000   1.0000   1.0000   1.0000   1.0000
     1.0000   1.0000   1.0000   1.0000   1.0000   1.0000   1.0000   1.0000
     1.0000   1.0000   1.0000   1.0000   1.0000   1.0000   1.0000   1.0000
     1.0000   1.0000   1.0000   1.0000   1.0000   1.0000   1.0000   1.0000
     1.0000   1.0000   1.0000   1.0000   1.0000   1.0000   1.0000   1.0000
     1.0000   1.0000   1.0000   1.0000   1.0000   1.0000   1.0000   1.0000
     1.0000   1.0000   1.0000   1.0000   1.0000   1.0000

     highest occupied level (ev):     5.0661

!    total energy              =   -1084.84408578 Ry
     estimated scf accuracy    <          1.7E-09 Ry

     The total energy is the sum of the following terms:
     one-electron contribution =    -509.76839077 Ry
     hartree contribution      =     371.63957640 Ry
     xc contribution           =    -327.88381141 Ry
     ewald contribution        =    -618.83146000 Ry

     convergence has been achieved in  32 iterations

     Forces acting on atoms (cartesian axes, Ry/au):

     atom    1 type  1   force =     0.00000000    0.00000000   -0.00505017
     atom    2 type  1   force =     0.00000000    0.00000000   -0.00503118
     atom    3 type  2   force =     0.00000000    0.00000000    0.00502122
     atom    4 type  2   force =     0.00000000    0.00000000    0.00502434
     atom    5 type  1   force =     0.00000000    0.00000000   -0.00500481
     atom    6 type  1   force =     0.00000000    0.00000000   -0.00502374
     atom    7 type  2   force =     0.00000000   -0.00000000    0.00502038
     atom    8 type  2   force =     0.00000000    0.00000000    0.00502135
     atom    9 type  1   force =     0.00000000    0.00000000   -0.00499741
     atom   10 type  1   force =     0.00000000   -0.00000000   -0.00501696
     atom   11 type  2   force =     0.00000000    0.00000000    0.00502018
     atom   12 type  2   force =     0.00000000    0.00000000    0.00501680
     The non-local contrib.  to forces
     atom    1 type  1   force =     0.00000000   -0.00000000   -0.11435143
     atom    2 type  1   force =     0.00000000    0.00000000   -0.11433118
     atom    3 type  2   force =    -0.00000000   -0.00000000   -0.09515234
     atom    4 type  2   force =     0.00000000    0.00000000   -0.09514107
     atom    5 type  1   force =     0.00000000    0.00000000   -0.11432237
     atom    6 type  1   force =     0.00000000    0.00000000   -0.11434739
     atom    7 type  2   force =     0.00000000    0.00000000   -0.09516108
     atom    8 type  2   force =     0.00000000    0.00000000   -0.09515797
     atom    9 type  1   force =     0.00000000   -0.00000000   -0.11432789
     atom   10 type  1   force =     0.00000000    0.00000000   -0.11432600
     atom   11 type  2   force =    -0.00000000   -0.00000000   -0.09515265
     atom   12 type  2   force =     0.00000000    0.00000000   -0.09516785
     The ionic contribution  to forces
     atom    1 type  1   force =    -0.00000000    0.00000000   -0.71135626
     atom    2 type  1   force =     0.00000000   -0.00000000   -0.71135623
     atom    3 type  2   force =    -0.00000000    0.00000000    0.71135625
     atom    4 type  2   force =     0.00000000   -0.00000000    0.71135624
     atom    5 type  1   force =    -0.00000000    0.00000000   -0.71135623
     atom    6 type  1   force =     0.00000000   -0.00000000   -0.71135626
     atom    7 type  2   force =    -0.00000000    0.00000000    0.71135624
     atom    8 type  2   force =     0.00000000   -0.00000000    0.71135626
     atom    9 type  1   force =    -0.00000000    0.00000000   -0.71135626
     atom   10 type  1   force =     0.00000000   -0.00000000   -0.71135626
     atom   11 type  2   force =    -0.00000000    0.00000000    0.71135626
     atom   12 type  2   force =     0.00000000   -0.00000000    0.71135625
     The local contribution  to forces
     atom    1 type  1   force =    -0.00000005    0.00000003    0.81317917
     atom    2 type  1   force =     0.00000005   -0.00000003    0.81315414
     atom    3 type  2   force =    -0.00000001    0.00000001   -0.61194837
     atom    4 type  2   force =     0.00000001   -0.00000001   -0.61194760
     atom    5 type  1   force =    -0.00000005    0.00000003    0.81311977
     atom    6 type  1   force =     0.00000005   -0.00000003    0.81315592
     atom    7 type  2   force =    -0.00000001    0.00000001   -0.61197182
     atom    8 type  2   force =     0.00000001   -0.00000001   -0.61196423
     atom    9 type  1   force =    -0.00000005    0.00000003    0.81310419
     atom   10 type  1   force =     0.00000005   -0.00000003    0.81312318
     atom   11 type  2   force =    -0.00000001    0.00000001   -0.61195680
     atom   12 type  2   force =     0.00000001   -0.00000001   -0.61196442
     The core correction contribution to forces
     atom    1 type  1   force =    -0.00000001    0.00000000    0.00753092
     atom    2 type  1   force =     0.00000001   -0.00000000    0.00753053
     atom    3 type  2   force =     0.00000000   -0.00000000    0.00078276
     atom    4 type  2   force =    -0.00000000    0.00000000    0.00078308
     atom    5 type  1   force =    -0.00000001    0.00000000    0.00753127
     atom    6 type  1   force =     0.00000001   -0.00000000    0.00753347
     atom    7 type  2   force =     0.00000000   -0.00000000    0.00078332
     atom    8 type  2   force =    -0.00000000    0.00000000    0.00078123
     atom    9 type  1   force =    -0.00000001    0.00000000    0.00753406
     atom   10 type  1   force =     0.00000001   -0.00000000    0.00753115
     atom   11 type  2   force =     0.00000000   -0.00000000    0.00078114
     atom   12 type  2   force =    -0.00000000    0.00000000    0.00078295
     The Hubbard contrib.    to forces
     atom    1 type  1   force =     0.00000000    0.00000000    0.00000000
     atom    2 type  1   force =     0.00000000    0.00000000    0.00000000
     atom    3 type  2   force =     0.00000000    0.00000000    0.00000000
     atom    4 type  2   force =     0.00000000    0.00000000    0.00000000
     atom    5 type  1   force =     0.00000000    0.00000000    0.00000000
     atom    6 type  1   force =     0.00000000    0.00000000    0.00000000
     atom    7 type  2   force =     0.00000000    0.00000000    0.00000000
     atom    8 type  2   force =     0.00000000    0.00000000    0.00000000
     atom    9 type  1   force =     0.00000000    0.00000000    0.00000000
     atom   10 type  1   force =     0.00000000    0.00000000    0.00000000
     atom   11 type  2   force =     0.00000000    0.00000000    0.00000000
     atom   12 type  2   force =     0.00000000    0.00000000    0.00000000
     The SCF correction term to forces
     atom    1 type  1   force =    -0.00000000    0.00000000   -0.00005035
     atom    2 type  1   force =     0.00000000   -0.00000000   -0.00002622
     atom    3 type  2   force =    -0.00000000    0.00000000   -0.00001486
     atom    4 type  2   force =     0.00000000   -0.00000000   -0.00002409
     atom    5 type  1   force =    -0.00000000    0.00000000    0.00002496
     atom    6 type  1   force =     0.00000000   -0.00000000   -0.00000726
     atom    7 type  2   force =    -0.00000000    0.00000000    0.00001593
     atom    8 type  2   force =     0.00000000   -0.00000000    0.00000827
     atom    9 type  1   force =    -0.00000000    0.00000000    0.00005072
     atom   10 type  1   force =     0.00000000   -0.00000000    0.00001320
     atom   11 type  2   force =    -0.00000000    0.00000000   -0.00000557
     atom   12 type  2   force =    -0.00000000    0.00000000    0.00001208

     Total force =     0.017392     Total SCF correction =     0.000089

     General routines

     Parallel routines

   This run was terminated on:  19:10:13  27Aug2025

   JOB DONE.