     Program PWSCF v.7.0 starts on 27Aug2025 at 13: 0:49

     K-points division:     npool     =      17

     Reading input from /home/jvc/QEspresso7.2/ZnO_database/scripts/cell113.in/ZnO-3.01-1.74-113.in
Warning: card &CELL ignored
Warning: card / ignored
Warning: card &FCP ignored
Warning: card / ignored
Warning: card &RISM ignored
Warning: card / ignored

     Current dimensions of program PWSCF are:
     Max number of different atomic species (ntypx) = 10
     Max number of k-points (npk) =  40000
     Max angular momentum in pseudopotentials (lmaxx) =  4
     file Zn.upf: wavefunction(s)  3D renormalized
     Found identity + (  0.0000  0.0000  0.3333) symmetry
     This is a supercell, fractional translations are disabled
     Message from routine setup:
     using ibrav=0 with symmetry is DISCOURAGED, use correct ibrav instead

     Subspace diagonalization in iterative solution of the eigenvalue problem:
     a serial algorithm will be used

     Using Slab Decomposition

     bravais-lattice index     =            0
     lattice parameter (alat)  =       5.6845  a.u.
     unit-cell volume          =     832.0757 (a.u.)^3
     number of atoms/cell      =           12
     number of atomic types    =            2
     number of electrons       =       108.00
     number of Kohn-Sham states=           54
     kinetic-energy cutoff     =      50.0000  Ry
     charge density cutoff     =     400.0000  Ry
     scf convergence threshold =      1.0E-08
     mixing beta               =       0.3000
     number of iterations used =            8  plain     mixing
     Exchange-correlation= PBE
                           (   1   4   3   4   0   0   0)

     celldm(1)=   5.684546  celldm(2)=   0.000000  celldm(3)=   0.000000
     celldm(4)=   0.000000  celldm(5)=   0.000000  celldm(6)=   0.000000

     crystal axes: (cart. coord. in units of alat)
               a(1) = (   1.000000   0.000000   0.000000 )
               a(2) = (  -0.500000   0.866025   0.000000 )
               a(3) = (   0.000000   0.000000   5.230521 )

     reciprocal axes: (cart. coord. in units 2 pi/alat)
               b(1) = (  1.000000  0.577350 -0.000000 )
               b(2) = (  0.000000  1.154701  0.000000 )
               b(3) = (  0.000000 -0.000000  0.191186 )

     PseudoPot. # 1 for Zn read from file:
     /home/jvc/QEspresso7.2/ZnO_database/pseudos/Zn.upf
     MD5 check sum: 7f56cabf9682ed8c977c2f7d0c5985c5
     Pseudo is Ultrasoft + core correction, Zval = 12.0
     Generated using &quot;atomic&quot; code by A. Dal Corso  v.6.2.2
     Using radial grid of 1201 points,  6 beta functions with:
                l(1) =   0
                l(2) =   0
                l(3) =   1
                l(4) =   1
                l(5) =   2
                l(6) =   2
     Q(r) pseudized with 0 coefficients

     PseudoPot. # 2 for O  read from file:
     /home/jvc/QEspresso7.2/ZnO_database/pseudos/O.upf
     MD5 check sum: 91400c9766925bcf19f520983a725ff0
     Pseudo is Ultrasoft + core correction, Zval =  6.0
     Generated using &quot;atomic&quot; code by A. Dal Corso  v.6.3MaX
     Using radial grid of 1095 points,  4 beta functions with:
                l(1) =   0
                l(2) =   0
                l(3) =   1
                l(4) =   1
     Q(r) pseudized with 0 coefficients

     atomic species   valence    mass     pseudopotential
        Zn            12.00    65.38000     Zn( 1.00)
        O              6.00    15.99900     O ( 1.00)

      6 Sym. Ops. (no inversion) found

                                    s                        frac. trans.

      isym =  1     identity

 cryst.   s( 1) = (     1          0          0      )
                  (     0          1          0      )
                  (     0          0          1      )

 cart.    s( 1) = (  1.0000000  0.0000000  0.0000000 )
                  (  0.0000000  1.0000000  0.0000000 )
                  (  0.0000000  0.0000000  1.0000000 )

      isym =  2     120 deg rotation - cryst. axis [0,0,1]

[...]

      isym =  3     120 deg rotation - cryst. axis [0,0,-1]

[...]

      isym =  4     inv. 180 deg rotation - cart. axis [1,0,0]

[...]

      isym =  5     inv. 180 deg rotation - cryst. axis [0,1,0]

[...]

      isym =  6     inv. 180 deg rotation - cryst. axis [1,1,0]

 cryst.   s( 6) = (     0         -1          0      )
                  (    -1          0          0      )
                  (     0          0          1      )

 cart.    s( 6) = (  0.5000000 -0.8660254  0.0000000 )
                  ( -0.8660254 -0.5000000  0.0000000 )
                  (  0.0000000  0.0000000  1.0000000 )

   Cartesian axes

     site n.     atom                  positions (alat units)
         1           Zn  tau(   1) = (   0.5000000   0.2886751   0.8728582  )
         2           Zn  tau(   2) = (  -0.0000000   0.5773503   0.0011047  )
         3           O   tau(   3) = (   0.5000000   0.2886751   1.5337220  )
         4           O   tau(   4) = (  -0.0000000   0.5773503   0.6619685  )
         5           Zn  tau(   5) = (   0.5000000   0.2886751   2.6163652  )
         6           Zn  tau(   6) = (  -0.0000000   0.5773503   1.7446117  )
         7           O   tau(   7) = (   0.5000000   0.2886751   3.2772290  )
         8           O   tau(   8) = (  -0.0000000   0.5773503   2.4054755  )
         9           Zn  tau(   9) = (   0.5000000   0.2886751   4.3598722  )
        10           Zn  tau(  10) = (  -0.0000000   0.5773503   3.4881187  )
        11           O   tau(  11) = (   0.5000000   0.2886751   5.0207361  )
        12           O   tau(  12) = (  -0.0000000   0.5773503   4.1489825  )

   Crystallographic axes

     site n.     atom                  positions (cryst. coord.)
         1           Zn  tau(   1) = (  0.6666667  0.3333333  0.1668779  )
         2           Zn  tau(   2) = (  0.3333333  0.6666667  0.0002112  )
         3           O   tau(   3) = (  0.6666667  0.3333333  0.2932255  )
         4           O   tau(   4) = (  0.3333333  0.6666667  0.1265588  )
         5           Zn  tau(   5) = (  0.6666667  0.3333333  0.5002112  )
         6           Zn  tau(   6) = (  0.3333333  0.6666667  0.3335445  )
         7           O   tau(   7) = (  0.6666667  0.3333333  0.6265588  )
         8           O   tau(   8) = (  0.3333333  0.6666667  0.4598921  )
         9           Zn  tau(   9) = (  0.6666667  0.3333333  0.8335445  )
        10           Zn  tau(  10) = (  0.3333333  0.6666667  0.6668779  )
        11           O   tau(  11) = (  0.6666667  0.3333333  0.9598921  )
        12           O   tau(  12) = (  0.3333333  0.6666667  0.7932255  )

     number of k points=    34
                       cart. coord. in units 2pi/alat
        k(    1) = (   0.0000000   0.0000000   0.0000000), wk =   0.0092593
        k(    2) = (   0.0000000   0.0000000   0.0318643), wk =   0.0185185
        k(    3) = (   0.0000000   0.0000000   0.0637285), wk =   0.0185185
        k(    4) = (   0.0000000   0.0000000  -0.0955928), wk =   0.0092593
        k(    5) = (   0.0000000   0.1924501   0.0000000), wk =   0.0555556
        k(    6) = (   0.0000000   0.1924501   0.0318643), wk =   0.0555556
        k(    7) = (   0.0000000   0.1924501   0.0637285), wk =   0.0555556
        k(    8) = (   0.0000000   0.1924501  -0.0955928), wk =   0.0555556
        k(    9) = (   0.0000000   0.3849002   0.0000000), wk =   0.0555556
        k(   10) = (   0.0000000   0.3849002   0.0318643), wk =   0.0555556
        k(   11) = (   0.0000000   0.3849002   0.0637285), wk =   0.0555556
        k(   12) = (   0.0000000   0.3849002  -0.0955928), wk =   0.0555556
        k(   13) = (   0.0000000  -0.5773503   0.0000000), wk =   0.0277778
        k(   14) = (   0.0000000  -0.5773503   0.0318643), wk =   0.0555556
        k(   15) = (   0.0000000  -0.5773503   0.0637285), wk =   0.0555556
        k(   16) = (   0.0000000  -0.5773503  -0.0955928), wk =   0.0277778
        k(   17) = (   0.1666667   0.2886751   0.0000000), wk =   0.0555556
        k(   18) = (   0.1666667   0.2886751   0.0318643), wk =   0.1111111
        k(   19) = (   0.1666667   0.2886751   0.0637285), wk =   0.1111111
        k(   20) = (   0.1666667   0.2886751  -0.0955928), wk =   0.0555556
        k(   21) = (   0.1666667   0.4811252   0.0000000), wk =   0.1111111
        k(   22) = (   0.1666667   0.4811252   0.0318643), wk =   0.1111111
        k(   23) = (   0.1666667   0.4811252   0.0637285), wk =   0.1111111
        k(   24) = (   0.1666667   0.4811252  -0.0955928), wk =   0.1111111
        k(   25) = (   0.3333333   0.5773503   0.0000000), wk =   0.0185185
        k(   26) = (   0.3333333   0.5773503   0.0318643), wk =   0.0370370
        k(   27) = (   0.3333333   0.5773503   0.0637285), wk =   0.0370370
        k(   28) = (   0.3333333   0.5773503  -0.0955928), wk =   0.0185185
        k(   29) = (   0.0000000  -0.1924501   0.0318643), wk =   0.0555556
        k(   30) = (   0.0000000  -0.1924501   0.0637285), wk =   0.0555556
        k(   31) = (   0.0000000  -0.3849002   0.0318643), wk =   0.0555556
        k(   32) = (   0.0000000  -0.3849002   0.0637285), wk =   0.0555556
        k(   33) = (  -0.1666667  -0.4811252   0.0318643), wk =   0.1111111
        k(   34) = (  -0.1666667  -0.4811252   0.0637285), wk =   0.1111111

                       cryst. coord.
        k(    1) = (   0.0000000   0.0000000   0.0000000), wk =   0.0092593
        k(    2) = (   0.0000000   0.0000000   0.1666667), wk =   0.0185185
        k(    3) = (   0.0000000   0.0000000   0.3333333), wk =   0.0185185
        k(    4) = (   0.0000000   0.0000000  -0.5000000), wk =   0.0092593
        k(    5) = (   0.0000000   0.1666667   0.0000000), wk =   0.0555556
        k(    6) = (   0.0000000   0.1666667   0.1666667), wk =   0.0555556
        k(    7) = (   0.0000000   0.1666667   0.3333333), wk =   0.0555556
        k(    8) = (   0.0000000   0.1666667  -0.5000000), wk =   0.0555556
        k(    9) = (   0.0000000   0.3333333   0.0000000), wk =   0.0555556
        k(   10) = (   0.0000000   0.3333333   0.1666667), wk =   0.0555556
        k(   11) = (   0.0000000   0.3333333   0.3333333), wk =   0.0555556
        k(   12) = (   0.0000000   0.3333333  -0.5000000), wk =   0.0555556
        k(   13) = (   0.0000000  -0.5000000   0.0000000), wk =   0.0277778
        k(   14) = (   0.0000000  -0.5000000   0.1666667), wk =   0.0555556
        k(   15) = (   0.0000000  -0.5000000   0.3333333), wk =   0.0555556
        k(   16) = (   0.0000000  -0.5000000  -0.5000000), wk =   0.0277778
        k(   17) = (   0.1666667   0.1666667   0.0000000), wk =   0.0555556
        k(   18) = (   0.1666667   0.1666667   0.1666667), wk =   0.1111111
        k(   19) = (   0.1666667   0.1666667   0.3333333), wk =   0.1111111
        k(   20) = (   0.1666667   0.1666667  -0.5000000), wk =   0.0555556
        k(   21) = (   0.1666667   0.3333333   0.0000000), wk =   0.1111111
        k(   22) = (   0.1666667   0.3333333   0.1666667), wk =   0.1111111
        k(   23) = (   0.1666667   0.3333333   0.3333333), wk =   0.1111111
        k(   24) = (   0.1666667   0.3333333  -0.5000000), wk =   0.1111111
        k(   25) = (   0.3333333   0.3333333   0.0000000), wk =   0.0185185
        k(   26) = (   0.3333333   0.3333333   0.1666667), wk =   0.0370370
        k(   27) = (   0.3333333   0.3333333   0.3333333), wk =   0.0370370
        k(   28) = (   0.3333333   0.3333333  -0.5000000), wk =   0.0185185
        k(   29) = (   0.0000000  -0.1666667   0.1666667), wk =   0.0555556
        k(   30) = (   0.0000000  -0.1666667   0.3333333), wk =   0.0555556
        k(   31) = (   0.0000000  -0.3333333   0.1666667), wk =   0.0555556
        k(   32) = (   0.0000000  -0.3333333   0.3333333), wk =   0.0555556
        k(   33) = (  -0.1666667  -0.3333333   0.1666667), wk =   0.1111111
        k(   34) = (  -0.1666667  -0.3333333   0.3333333), wk =   0.1111111

     Check: negative core charge=   -0.000002

     Initial potential from superposition of free atoms

     starting charge     107.9776, renormalised to     108.0000
     Starting wfcs are   78 randomized atomic wfcs

     Self-consistent Calculation

     iteration #  1     ecut=    50.00 Ry     beta= 0.30
     Davidson diagonalization with overlap

     ethr =  1.00E-02,  avg # of iterations =  2.0

     total energy              =   -1084.28021485 Ry
     estimated scf accuracy    <       2.02701452 Ry

[...]

     c_bands:  1 eigenvalues not converged
     ethr =  2.07E-08,  avg # of iterations = 14.1

[...]

     total energy              =   -1084.69818923 Ry
     estimated scf accuracy    <       0.00000022 Ry

     iteration # 21     ecut=    50.00 Ry     beta= 0.30
     Davidson diagonalization with overlap

     ethr =  2.04E-10,  avg # of iterations =  4.9

     End of self-consistent calculation

          k = 0.0000 0.0000 0.0000 (  4951 PWs)   bands (ev):

    -9.7489  -9.5575  -9.5575  -9.1513  -9.1513  -8.9349   2.5949   2.6309
     2.6309   2.9208   2.9209   3.0643   3.0643   3.1014   3.1014   3.1014
     3.1014   3.1424   3.1977   3.1977   3.1977   3.1977   3.2583   3.2583
     4.8333   4.8333   4.8997   4.8997   4.8997   4.8997   5.0128   5.0128
     5.0128   5.0128   5.0589   5.0589   5.4781   6.2998   6.2998   7.9760
     7.9761   9.0354   9.0354   9.2275   9.2275   9.2275   9.2275   9.3992
     9.6128   9.6128   9.6128   9.6128   9.8055   9.8055

     occupation numbers
     1.0000   1.0000   1.0000   1.0000   1.0000   1.0000   1.0000   1.0000
     1.0000   1.0000   1.0000   1.0000   1.0000   1.0000   1.0000   1.0000
     1.0000   1.0000   1.0000   1.0000   1.0000   1.0000   1.0000   1.0000
     1.0000   1.0000   1.0000   1.0000   1.0000   1.0000   1.0000   1.0000
     1.0000   1.0000   1.0000   1.0000   1.0000   1.0000   1.0000   1.0000
     1.0000   1.0000   1.0000   1.0000   1.0000   1.0000   1.0000   1.0000
     1.0000   1.0000   1.0000   1.0000   1.0000   1.0000

[...]

          k = 0.0000-0.3849 0.0637 (  4977 PWs)   bands (ev):

[...]

          k =-0.1667-0.4811 0.0319 (  4953 PWs)   bands (ev):

[...]

          k =-0.1667-0.4811 0.0637 (  4950 PWs)   bands (ev):

    -8.7752  -8.7507  -8.6696  -8.6242  -8.5507  -8.5301   2.6218   2.6507
     2.6886   2.7315   2.8401   2.9328   3.3993   3.4028   3.4577   3.5147
     3.6375   3.6903   3.8598   3.8675   3.9084   3.9394   3.9575   3.9796
     4.7110   4.7700   4.9151   4.9382   4.9835   4.9923   5.1651   5.1670
     5.1930   5.2429   5.3637   5.4053   5.4803   5.4843   5.7825   5.9183
     6.0839   6.0979   6.4522   6.6226   6.8984   7.0533   7.1684   7.3662
     7.8450   7.9657   8.0183   8.0449   8.2706   8.3158

     occupation numbers
     1.0000   1.0000   1.0000   1.0000   1.0000   1.0000   1.0000   1.0000
     1.0000   1.0000   1.0000   1.0000   1.0000   1.0000   1.0000   1.0000
     1.0000   1.0000   1.0000   1.0000   1.0000   1.0000   1.0000   1.0000
     1.0000   1.0000   1.0000   1.0000   1.0000   1.0000   1.0000   1.0000
     1.0000   1.0000   1.0000   1.0000   1.0000   1.0000   1.0000   1.0000
     1.0000   1.0000   1.0000   1.0000   1.0000   1.0000   1.0000   1.0000
     1.0000   1.0000   1.0000   1.0000   1.0000   1.0000

     highest occupied level (ev):     9.8055

!    total energy              =   -1084.69818931 Ry
     estimated scf accuracy    <          5.8E-09 Ry

     The total energy is the sum of the following terms:
     one-electron contribution =    -403.68203606 Ry
     hartree contribution      =     334.14710713 Ry
     xc contribution           =    -329.83014598 Ry
     ewald contribution        =    -685.33311440 Ry

     convergence has been achieved in  21 iterations

     Forces acting on atoms (cartesian axes, Ry/au):

     atom    1 type  1   force =     0.00000000    0.00000000    0.04827070
     atom    2 type  1   force =     0.00000000    0.00000000    0.04827289
     atom    3 type  2   force =     0.00000000   -0.00000000   -0.04826532
     atom    4 type  2   force =     0.00000000   -0.00000000   -0.04826513
     atom    5 type  1   force =     0.00000000   -0.00000000    0.04825878
     atom    6 type  1   force =     0.00000000   -0.00000000    0.04826847
     atom    7 type  2   force =     0.00000000    0.00000000   -0.04826484
     atom    8 type  2   force =     0.00000000    0.00000000   -0.04826683
     atom    9 type  1   force =     0.00000000   -0.00000000    0.04826153
     atom   10 type  1   force =     0.00000000    0.00000000    0.04826107
     atom   11 type  2   force =     0.00000000    0.00000000   -0.04826557
     atom   12 type  2   force =     0.00000000    0.00000000   -0.04826574
     The non-local contrib.  to forces
     atom    1 type  1   force =     0.00000000    0.00000000    0.22739196
     atom    2 type  1   force =     0.00000000    0.00000000    0.22739351
     atom    3 type  2   force =     0.00000000   -0.00000000    0.18204916
     atom    4 type  2   force =     0.00000000   -0.00000000    0.18204949
     atom    5 type  1   force =     0.00000000    0.00000000    0.22738802
     atom    6 type  1   force =     0.00000000    0.00000000    0.22739323
     atom    7 type  2   force =     0.00000000   -0.00000000    0.18205454
     atom    8 type  2   force =     0.00000000   -0.00000000    0.18204952
     atom    9 type  1   force =     0.00000000    0.00000000    0.22739118
     atom   10 type  1   force =     0.00000000   -0.00000000    0.22738747
     atom   11 type  2   force =     0.00000000    0.00000000    0.18204930
     atom   12 type  2   force =     0.00000000    0.00000000    0.18204964
     The ionic contribution  to forces
     atom    1 type  1   force =    -0.00000000    0.00000000    1.85856278
     atom    2 type  1   force =     0.00000000   -0.00000000    1.85856283
     atom    3 type  2   force =    -0.00000000    0.00000000   -1.85856280
     atom    4 type  2   force =     0.00000000   -0.00000000   -1.85856281
     atom    5 type  1   force =    -0.00000000    0.00000000    1.85856283
     atom    6 type  1   force =     0.00000000   -0.00000000    1.85856278
     atom    7 type  2   force =    -0.00000000    0.00000000   -1.85856281
     atom    8 type  2   force =     0.00000000   -0.00000000   -1.85856278
     atom    9 type  1   force =    -0.00000000    0.00000000    1.85856278
     atom   10 type  1   force =     0.00000000   -0.00000000    1.85856278
     atom   11 type  2   force =    -0.00000000    0.00000000   -1.85856278
     atom   12 type  2   force =     0.00000000   -0.00000000   -1.85856280
     The local contribution  to forces
     atom    1 type  1   force =    -0.00000004    0.00000002   -2.01886376
     atom    2 type  1   force =     0.00000004   -0.00000002   -2.01886939
     atom    3 type  2   force =    -0.00000001    0.00000001    1.62950567
     atom    4 type  2   force =     0.00000001   -0.00000001    1.62950575
     atom    5 type  1   force =    -0.00000004    0.00000002   -2.01884785
     atom    6 type  1   force =     0.00000004   -0.00000002   -2.01886639
     atom    7 type  2   force =    -0.00000001    0.00000001    1.62951052
     atom    8 type  2   force =     0.00000001   -0.00000001    1.62950714
     atom    9 type  1   force =    -0.00000004    0.00000002   -2.01885743
     atom   10 type  1   force =     0.00000004   -0.00000002   -2.01885344
     atom   11 type  2   force =    -0.00000001    0.00000001    1.62949932
     atom   12 type  2   force =     0.00000001   -0.00000001    1.62950377
     The core correction contribution to forces
     atom    1 type  1   force =    -0.00000001    0.00000000   -0.01880950
     atom    2 type  1   force =     0.00000001   -0.00000000   -0.01880937
     atom    3 type  2   force =     0.00000000   -0.00000000   -0.00127851
     atom    4 type  2   force =    -0.00000000    0.00000000   -0.00127851
     atom    5 type  1   force =    -0.00000001    0.00000000   -0.01880974
     atom    6 type  1   force =     0.00000001   -0.00000000   -0.01880938
     atom    7 type  2   force =     0.00000000   -0.00000000   -0.00127857
     atom    8 type  2   force =    -0.00000000    0.00000000   -0.00127852
     atom    9 type  1   force =    -0.00000001    0.00000000   -0.01880952
     atom   10 type  1   force =     0.00000001   -0.00000000   -0.01880942
     atom   11 type  2   force =     0.00000000   -0.00000000   -0.00127852
     atom   12 type  2   force =    -0.00000000    0.00000000   -0.00127853
     The Hubbard contrib.    to forces
     atom    1 type  1   force =     0.00000000    0.00000000    0.00000000
     atom    2 type  1   force =     0.00000000    0.00000000    0.00000000
     atom    3 type  2   force =     0.00000000    0.00000000    0.00000000
     atom    4 type  2   force =     0.00000000    0.00000000    0.00000000
     atom    5 type  1   force =     0.00000000    0.00000000    0.00000000
     atom    6 type  1   force =     0.00000000    0.00000000    0.00000000
     atom    7 type  2   force =     0.00000000    0.00000000    0.00000000
     atom    8 type  2   force =     0.00000000    0.00000000    0.00000000
     atom    9 type  1   force =     0.00000000    0.00000000    0.00000000
     atom   10 type  1   force =     0.00000000    0.00000000    0.00000000
     atom   11 type  2   force =     0.00000000    0.00000000    0.00000000
     atom   12 type  2   force =     0.00000000    0.00000000    0.00000000
     The SCF correction term to forces
     atom    1 type  1   force =     0.00000000   -0.00000000   -0.00002095
     atom    2 type  1   force =    -0.00000000    0.00000000   -0.00001485
     atom    3 type  2   force =     0.00000000   -0.00000000    0.00001098
     atom    4 type  2   force =    -0.00000000    0.00000000    0.00001078
     atom    5 type  1   force =     0.00000000   -0.00000000   -0.00004464
     atom    6 type  1   force =    -0.00000000    0.00000000   -0.00002194
     atom    7 type  2   force =     0.00000000   -0.00000000    0.00000132
     atom    8 type  2   force =    -0.00000000    0.00000000    0.00000765
     atom    9 type  1   force =     0.00000000   -0.00000000   -0.00003564
     atom   10 type  1   force =    -0.00000000    0.00000000   -0.00003648
     atom   11 type  2   force =     0.00000000   -0.00000000    0.00001695
     atom   12 type  2   force =    -0.00000000    0.00000000    0.00001203

     Total force =     0.167197     Total SCF correction =     0.000080

     General routines

     Parallel routines

   This run was terminated on:  13: 4: 6  27Aug2025

   JOB DONE.