     Program PWSCF v.7.0 starts on 27Aug2025 at 14: 6:38

     K-points division:     npool     =      17

     Reading input from /home/jvc/QEspresso7.2/ZnO_database/scripts/cell113.in/ZnO-3.14-1.58-113.in
Warning: card &CELL ignored
Warning: card / ignored
Warning: card &FCP ignored
Warning: card / ignored
Warning: card &RISM ignored
Warning: card / ignored

     Current dimensions of program PWSCF are:
     Max number of different atomic species (ntypx) = 10
     Max number of k-points (npk) =  40000
     Max angular momentum in pseudopotentials (lmaxx) =  4
     file Zn.upf: wavefunction(s)  3D renormalized
     Found identity + (  0.0000  0.0000  0.3333) symmetry
     This is a supercell, fractional translations are disabled
     Message from routine setup:
     using ibrav=0 with symmetry is DISCOURAGED, use correct ibrav instead

     Subspace diagonalization in iterative solution of the eigenvalue problem:
     a serial algorithm will be used

     Using Slab Decomposition

     bravais-lattice index     =            0
     lattice parameter (alat)  =       5.9317  a.u.
     unit-cell volume          =     857.8580 (a.u.)^3
     number of atoms/cell      =           12
     number of atomic types    =            2
     number of electrons       =       108.00
     number of Kohn-Sham states=           54
     kinetic-energy cutoff     =      50.0000  Ry
     charge density cutoff     =     400.0000  Ry
     scf convergence threshold =      1.0E-08
     mixing beta               =       0.3000
     number of iterations used =            8  plain     mixing
     Exchange-correlation= PBE
                           (   1   4   3   4   0   0   0)

     celldm(1)=   5.931700  celldm(2)=   0.000000  celldm(3)=   0.000000
     celldm(4)=   0.000000  celldm(5)=   0.000000  celldm(6)=   0.000000

     crystal axes: (cart. coord. in units of alat)
               a(1) = (   1.000000   0.000000   0.000000 )
               a(2) = (  -0.500000   0.866025   0.000000 )
               a(3) = (   0.000000   0.000000   4.746214 )

     reciprocal axes: (cart. coord. in units 2 pi/alat)
               b(1) = (  1.000000  0.577350 -0.000000 )
               b(2) = (  0.000000  1.154701  0.000000 )
               b(3) = (  0.000000 -0.000000  0.210694 )

     PseudoPot. # 1 for Zn read from file:
     /home/jvc/QEspresso7.2/ZnO_database/pseudos/Zn.upf
     MD5 check sum: 7f56cabf9682ed8c977c2f7d0c5985c5
     Pseudo is Ultrasoft + core correction, Zval = 12.0
     Generated using &quot;atomic&quot; code by A. Dal Corso  v.6.2.2
     Using radial grid of 1201 points,  6 beta functions with:
                l(1) =   0
                l(2) =   0
                l(3) =   1
                l(4) =   1
                l(5) =   2
                l(6) =   2
     Q(r) pseudized with 0 coefficients

     PseudoPot. # 2 for O  read from file:
     /home/jvc/QEspresso7.2/ZnO_database/pseudos/O.upf
     MD5 check sum: 91400c9766925bcf19f520983a725ff0
     Pseudo is Ultrasoft + core correction, Zval =  6.0
     Generated using &quot;atomic&quot; code by A. Dal Corso  v.6.3MaX
     Using radial grid of 1095 points,  4 beta functions with:
                l(1) =   0
                l(2) =   0
                l(3) =   1
                l(4) =   1
     Q(r) pseudized with 0 coefficients

     atomic species   valence    mass     pseudopotential
        Zn            12.00    65.38000     Zn( 1.00)
        O              6.00    15.99900     O ( 1.00)

      6 Sym. Ops. (no inversion) found

                                    s                        frac. trans.

      isym =  1     identity

 cryst.   s( 1) = (     1          0          0      )
                  (     0          1          0      )
                  (     0          0          1      )

 cart.    s( 1) = (  1.0000000  0.0000000  0.0000000 )
                  (  0.0000000  1.0000000  0.0000000 )
                  (  0.0000000  0.0000000  1.0000000 )

      isym =  2     120 deg rotation - cryst. axis [0,0,1]

[...]

      isym =  3     120 deg rotation - cryst. axis [0,0,-1]

[...]

      isym =  4     inv. 180 deg rotation - cart. axis [1,0,0]

[...]

      isym =  5     inv. 180 deg rotation - cryst. axis [0,1,0]

[...]

      isym =  6     inv. 180 deg rotation - cryst. axis [1,1,0]

 cryst.   s( 6) = (     0         -1          0      )
                  (    -1          0          0      )
                  (     0          0          1      )

 cart.    s( 6) = (  0.5000000 -0.8660254  0.0000000 )
                  ( -0.8660254 -0.5000000  0.0000000 )
                  (  0.0000000  0.0000000  1.0000000 )

   Cartesian axes

     site n.     atom                  positions (alat units)
         1           Zn  tau(   1) = (   0.5000000   0.2886751   0.7920380  )
         2           Zn  tau(   2) = (  -0.0000000   0.5773503   0.0010024  )
         3           O   tau(   3) = (   0.5000000   0.2886751   1.3917107  )
         4           O   tau(   4) = (  -0.0000000   0.5773503   0.6006751  )
         5           Zn  tau(   5) = (   0.5000000   0.2886751   2.3741092  )
         6           Zn  tau(   6) = (  -0.0000000   0.5773503   1.5830736  )
         7           O   tau(   7) = (   0.5000000   0.2886751   2.9737819  )
         8           O   tau(   8) = (  -0.0000000   0.5773503   2.1827463  )
         9           Zn  tau(   9) = (   0.5000000   0.2886751   3.9561803  )
        10           Zn  tau(  10) = (  -0.0000000   0.5773503   3.1651448  )
        11           O   tau(  11) = (   0.5000000   0.2886751   4.5558531  )
        12           O   tau(  12) = (  -0.0000000   0.5773503   3.7648175  )

   Crystallographic axes

     site n.     atom                  positions (cryst. coord.)
         1           Zn  tau(   1) = (  0.6666667  0.3333333  0.1668779  )
         2           Zn  tau(   2) = (  0.3333333  0.6666667  0.0002112  )
         3           O   tau(   3) = (  0.6666667  0.3333333  0.2932255  )
         4           O   tau(   4) = (  0.3333333  0.6666667  0.1265588  )
         5           Zn  tau(   5) = (  0.6666667  0.3333333  0.5002112  )
         6           Zn  tau(   6) = (  0.3333333  0.6666667  0.3335445  )
         7           O   tau(   7) = (  0.6666667  0.3333333  0.6265588  )
         8           O   tau(   8) = (  0.3333333  0.6666667  0.4598921  )
         9           Zn  tau(   9) = (  0.6666667  0.3333333  0.8335445  )
        10           Zn  tau(  10) = (  0.3333333  0.6666667  0.6668779  )
        11           O   tau(  11) = (  0.6666667  0.3333333  0.9598921  )
        12           O   tau(  12) = (  0.3333333  0.6666667  0.7932255  )

     number of k points=    34
                       cart. coord. in units 2pi/alat
        k(    1) = (   0.0000000   0.0000000   0.0000000), wk =   0.0092593
        k(    2) = (   0.0000000   0.0000000   0.0351157), wk =   0.0185185
        k(    3) = (   0.0000000   0.0000000   0.0702314), wk =   0.0185185
        k(    4) = (   0.0000000   0.0000000  -0.1053471), wk =   0.0092593
        k(    5) = (   0.0000000   0.1924501   0.0000000), wk =   0.0555556
        k(    6) = (   0.0000000   0.1924501   0.0351157), wk =   0.0555556
        k(    7) = (   0.0000000   0.1924501   0.0702314), wk =   0.0555556
        k(    8) = (   0.0000000   0.1924501  -0.1053471), wk =   0.0555556
        k(    9) = (   0.0000000   0.3849002   0.0000000), wk =   0.0555556
        k(   10) = (   0.0000000   0.3849002   0.0351157), wk =   0.0555556
        k(   11) = (   0.0000000   0.3849002   0.0702314), wk =   0.0555556
        k(   12) = (   0.0000000   0.3849002  -0.1053471), wk =   0.0555556
        k(   13) = (   0.0000000  -0.5773503   0.0000000), wk =   0.0277778
        k(   14) = (   0.0000000  -0.5773503   0.0351157), wk =   0.0555556
        k(   15) = (   0.0000000  -0.5773503   0.0702314), wk =   0.0555556
        k(   16) = (   0.0000000  -0.5773503  -0.1053471), wk =   0.0277778
        k(   17) = (   0.1666667   0.2886751   0.0000000), wk =   0.0555556
        k(   18) = (   0.1666667   0.2886751   0.0351157), wk =   0.1111111
        k(   19) = (   0.1666667   0.2886751   0.0702314), wk =   0.1111111
        k(   20) = (   0.1666667   0.2886751  -0.1053471), wk =   0.0555556
        k(   21) = (   0.1666667   0.4811252   0.0000000), wk =   0.1111111
        k(   22) = (   0.1666667   0.4811252   0.0351157), wk =   0.1111111
        k(   23) = (   0.1666667   0.4811252   0.0702314), wk =   0.1111111
        k(   24) = (   0.1666667   0.4811252  -0.1053471), wk =   0.1111111
        k(   25) = (   0.3333333   0.5773503   0.0000000), wk =   0.0185185
        k(   26) = (   0.3333333   0.5773503   0.0351157), wk =   0.0370370
        k(   27) = (   0.3333333   0.5773503   0.0702314), wk =   0.0370370
        k(   28) = (   0.3333333   0.5773503  -0.1053471), wk =   0.0185185
        k(   29) = (   0.0000000  -0.1924501   0.0351157), wk =   0.0555556
        k(   30) = (   0.0000000  -0.1924501   0.0702314), wk =   0.0555556
        k(   31) = (   0.0000000  -0.3849002   0.0351157), wk =   0.0555556
        k(   32) = (   0.0000000  -0.3849002   0.0702314), wk =   0.0555556
        k(   33) = (  -0.1666667  -0.4811252   0.0351157), wk =   0.1111111
        k(   34) = (  -0.1666667  -0.4811252   0.0702314), wk =   0.1111111

                       cryst. coord.
        k(    1) = (   0.0000000   0.0000000   0.0000000), wk =   0.0092593
        k(    2) = (   0.0000000   0.0000000   0.1666667), wk =   0.0185185
        k(    3) = (   0.0000000   0.0000000   0.3333333), wk =   0.0185185
        k(    4) = (   0.0000000   0.0000000  -0.5000000), wk =   0.0092593
        k(    5) = (   0.0000000   0.1666667   0.0000000), wk =   0.0555556
        k(    6) = (   0.0000000   0.1666667   0.1666667), wk =   0.0555556
        k(    7) = (   0.0000000   0.1666667   0.3333333), wk =   0.0555556
        k(    8) = (   0.0000000   0.1666667  -0.5000000), wk =   0.0555556
        k(    9) = (   0.0000000   0.3333333   0.0000000), wk =   0.0555556
        k(   10) = (   0.0000000   0.3333333   0.1666667), wk =   0.0555556
        k(   11) = (   0.0000000   0.3333333   0.3333333), wk =   0.0555556
        k(   12) = (   0.0000000   0.3333333  -0.5000000), wk =   0.0555556
        k(   13) = (   0.0000000  -0.5000000   0.0000000), wk =   0.0277778
        k(   14) = (   0.0000000  -0.5000000   0.1666667), wk =   0.0555556
        k(   15) = (   0.0000000  -0.5000000   0.3333333), wk =   0.0555556
        k(   16) = (   0.0000000  -0.5000000  -0.5000000), wk =   0.0277778
        k(   17) = (   0.1666667   0.1666667   0.0000000), wk =   0.0555556
        k(   18) = (   0.1666667   0.1666667   0.1666667), wk =   0.1111111
        k(   19) = (   0.1666667   0.1666667   0.3333333), wk =   0.1111111
        k(   20) = (   0.1666667   0.1666667  -0.5000000), wk =   0.0555556
        k(   21) = (   0.1666667   0.3333333   0.0000000), wk =   0.1111111
        k(   22) = (   0.1666667   0.3333333   0.1666667), wk =   0.1111111
        k(   23) = (   0.1666667   0.3333333   0.3333333), wk =   0.1111111
        k(   24) = (   0.1666667   0.3333333  -0.5000000), wk =   0.1111111
        k(   25) = (   0.3333333   0.3333333   0.0000000), wk =   0.0185185
        k(   26) = (   0.3333333   0.3333333   0.1666667), wk =   0.0370370
        k(   27) = (   0.3333333   0.3333333   0.3333333), wk =   0.0370370
        k(   28) = (   0.3333333   0.3333333  -0.5000000), wk =   0.0185185
        k(   29) = (   0.0000000  -0.1666667   0.1666667), wk =   0.0555556
        k(   30) = (   0.0000000  -0.1666667   0.3333333), wk =   0.0555556
        k(   31) = (   0.0000000  -0.3333333   0.1666667), wk =   0.0555556
        k(   32) = (   0.0000000  -0.3333333   0.3333333), wk =   0.0555556
        k(   33) = (  -0.1666667  -0.3333333   0.1666667), wk =   0.1111111
        k(   34) = (  -0.1666667  -0.3333333   0.3333333), wk =   0.1111111

     Check: negative core charge=   -0.000002

     Initial potential from superposition of free atoms

     starting charge     107.9776, renormalised to     108.0000
     Starting wfcs are   78 randomized atomic wfcs

     Self-consistent Calculation

     iteration #  1     ecut=    50.00 Ry     beta= 0.30
     Davidson diagonalization with overlap

     ethr =  1.00E-02,  avg # of iterations =  2.0

     total energy              =   -1084.36560433 Ry
     estimated scf accuracy    <       2.01459885 Ry

[...]

     total energy              =   -1084.79273763 Ry
     estimated scf accuracy    <       0.00000001 Ry

     iteration # 16     ecut=    50.00 Ry     beta= 0.30
     Davidson diagonalization with overlap

     ethr =  9.93E-12,  avg # of iterations =  7.6

     End of self-consistent calculation

          k = 0.0000 0.0000 0.0000 (  5151 PWs)   bands (ev):

    -9.9641  -9.7378  -9.7377  -9.2620  -9.2619  -9.0121   2.3947   2.3947
     2.5733   2.6045   2.6045   2.8159   2.8159   2.8503   2.8503   2.8503
     2.8503   2.8665   2.9709   2.9709   2.9709   2.9709   3.0615   3.0615
     4.3638   4.3638   4.4618   4.4618   4.4618   4.4618   4.6111   4.6111
     4.6111   4.6111   4.6557   4.6557   4.9636   6.0191   6.0191   7.7338
     7.7338   8.1501   8.1501   8.4007   8.4007   8.4007   8.4007   8.8967
     8.8967   8.8967   8.8967   9.0596   9.1397   9.1397

     occupation numbers
     1.0000   1.0000   1.0000   1.0000   1.0000   1.0000   1.0000   1.0000
     1.0000   1.0000   1.0000   1.0000   1.0000   1.0000   1.0000   1.0000
     1.0000   1.0000   1.0000   1.0000   1.0000   1.0000   1.0000   1.0000
     1.0000   1.0000   1.0000   1.0000   1.0000   1.0000   1.0000   1.0000
     1.0000   1.0000   1.0000   1.0000   1.0000   1.0000   1.0000   1.0000
     1.0000   1.0000   1.0000   1.0000   1.0000   1.0000   1.0000   1.0000
     1.0000   1.0000   1.0000   1.0000   1.0000   1.0000

[...]

          k = 0.0000-0.3849 0.0702 (  5100 PWs)   bands (ev):

[...]

          k =-0.1667-0.4811 0.0351 (  5127 PWs)   bands (ev):

[...]

          k =-0.1667-0.4811 0.0702 (  5119 PWs)   bands (ev):

    -9.1058  -9.0747  -8.9744  -8.9202  -8.8366  -8.8144   2.2962   2.3199
     2.4395   2.5180   2.5920   2.7406   3.0600   3.0643   3.1291   3.1776
     3.2442   3.2732   3.4730   3.4928   3.5547   3.6369   3.6558   3.7498
     4.3169   4.3741   4.4782   4.5158   4.5451   4.5521   4.7178   4.7228
     4.7626   4.8184   4.8843   4.9371   5.0408   5.0747   5.3715   5.5065
     5.6938   5.7067   5.9154   6.0814   6.3925   6.6635   6.6790   6.9798
     7.5491   7.5638   7.6504   7.8217   7.8641   7.9036

     occupation numbers
     1.0000   1.0000   1.0000   1.0000   1.0000   1.0000   1.0000   1.0000
     1.0000   1.0000   1.0000   1.0000   1.0000   1.0000   1.0000   1.0000
     1.0000   1.0000   1.0000   1.0000   1.0000   1.0000   1.0000   1.0000
     1.0000   1.0000   1.0000   1.0000   1.0000   1.0000   1.0000   1.0000
     1.0000   1.0000   1.0000   1.0000   1.0000   1.0000   1.0000   1.0000
     1.0000   1.0000   1.0000   1.0000   1.0000   1.0000   1.0000   1.0000
     1.0000   1.0000   1.0000   1.0000   1.0000   1.0000

     highest occupied level (ev):     9.1397

!    total energy              =   -1084.79273765 Ry
     estimated scf accuracy    <          1.9E-09 Ry

     The total energy is the sum of the following terms:
     one-electron contribution =    -413.82534995 Ry
     hartree contribution      =     337.55914099 Ry
     xc contribution           =    -329.59340280 Ry
     ewald contribution        =    -678.93312589 Ry

     convergence has been achieved in  16 iterations

     Forces acting on atoms (cartesian axes, Ry/au):

     atom    1 type  1   force =     0.00000000    0.00000000   -0.01311687
     atom    2 type  1   force =     0.00000000   -0.00000000   -0.01310009
     atom    3 type  2   force =     0.00000000    0.00000000    0.01312567
     atom    4 type  2   force =     0.00000000    0.00000000    0.01312400
     atom    5 type  1   force =     0.00000000    0.00000000   -0.01311250
     atom    6 type  1   force =     0.00000000   -0.00000000   -0.01313151
     atom    7 type  2   force =     0.00000000    0.00000000    0.01312630
     atom    8 type  2   force =     0.00000000    0.00000000    0.01312369
     atom    9 type  1   force =     0.00000000   -0.00000000   -0.01313162
     atom   10 type  1   force =     0.00000000    0.00000000   -0.01315533
     atom   11 type  2   force =     0.00000000    0.00000000    0.01312325
     atom   12 type  2   force =     0.00000000    0.00000000    0.01312501
     The non-local contrib.  to forces
     atom    1 type  1   force =     0.00000000    0.00000000   -0.06774955
     atom    2 type  1   force =     0.00000000   -0.00000000   -0.06774311
     atom    3 type  2   force =     0.00000000    0.00000000   -0.04160902
     atom    4 type  2   force =     0.00000000    0.00000000   -0.04162143
     atom    5 type  1   force =     0.00000000    0.00000000   -0.06775000
     atom    6 type  1   force =     0.00000000   -0.00000000   -0.06776207
     atom    7 type  2   force =     0.00000000    0.00000000   -0.04160662
     atom    8 type  2   force =     0.00000000    0.00000000   -0.04161667
     atom    9 type  1   force =     0.00000000   -0.00000000   -0.06776230
     atom   10 type  1   force =     0.00000000   -0.00000000   -0.06776989
     atom   11 type  2   force =     0.00000000    0.00000000   -0.04162242
     atom   12 type  2   force =     0.00000000    0.00000000   -0.04160908
     The ionic contribution  to forces
     atom    1 type  1   force =    -0.00000000    0.00000000   -0.38870530
     atom    2 type  1   force =     0.00000000   -0.00000000   -0.38870526
     atom    3 type  2   force =    -0.00000000    0.00000000    0.38870528
     atom    4 type  2   force =     0.00000000   -0.00000000    0.38870527
     atom    5 type  1   force =    -0.00000000    0.00000000   -0.38870526
     atom    6 type  1   force =     0.00000000   -0.00000000   -0.38870530
     atom    7 type  2   force =    -0.00000000    0.00000000    0.38870527
     atom    8 type  2   force =     0.00000000   -0.00000000    0.38870530
     atom    9 type  1   force =    -0.00000000    0.00000000   -0.38870530
     atom   10 type  1   force =     0.00000000   -0.00000000   -0.38870530
     atom   11 type  2   force =    -0.00000000    0.00000000    0.38870530
     atom   12 type  2   force =     0.00000000   -0.00000000    0.38870528
     The local contribution  to forces
     atom    1 type  1   force =    -0.00000004    0.00000002    0.43744158
     atom    2 type  1   force =     0.00000004   -0.00000002    0.43741583
     atom    3 type  2   force =    -0.00000001    0.00000001   -0.33422298
     atom    4 type  2   force =     0.00000001   -0.00000001   -0.33422899
     atom    5 type  1   force =    -0.00000004    0.00000002    0.43743446
     atom    6 type  1   force =     0.00000004   -0.00000002    0.43747069
     atom    7 type  2   force =    -0.00000001    0.00000001   -0.33421116
     atom    8 type  2   force =     0.00000001   -0.00000001   -0.33422130
     atom    9 type  1   force =    -0.00000004    0.00000002    0.43746690
     atom   10 type  1   force =     0.00000004   -0.00000002    0.43749364
     atom   11 type  2   force =    -0.00000001    0.00000001   -0.33423168
     atom   12 type  2   force =     0.00000001   -0.00000001   -0.33421496
     The core correction contribution to forces
     atom    1 type  1   force =    -0.00000001    0.00000000    0.00588360
     atom    2 type  1   force =     0.00000001   -0.00000000    0.00588412
     atom    3 type  2   force =     0.00000000   -0.00000000    0.00026276
     atom    4 type  2   force =    -0.00000000    0.00000000    0.00026293
     atom    5 type  1   force =    -0.00000001    0.00000000    0.00588402
     atom    6 type  1   force =     0.00000001   -0.00000000    0.00588356
     atom    7 type  2   force =     0.00000000   -0.00000000    0.00026273
     atom    8 type  2   force =    -0.00000000    0.00000000    0.00026288
     atom    9 type  1   force =    -0.00000001    0.00000000    0.00588384
     atom   10 type  1   force =     0.00000001   -0.00000000    0.00588358
     atom   11 type  2   force =     0.00000000   -0.00000000    0.00026293
     atom   12 type  2   force =    -0.00000000    0.00000000    0.00026279
     The Hubbard contrib.    to forces
     atom    1 type  1   force =     0.00000000    0.00000000    0.00000000
     atom    2 type  1   force =     0.00000000    0.00000000    0.00000000
     atom    3 type  2   force =     0.00000000    0.00000000    0.00000000
     atom    4 type  2   force =     0.00000000    0.00000000    0.00000000
     atom    5 type  1   force =     0.00000000    0.00000000    0.00000000
     atom    6 type  1   force =     0.00000000    0.00000000    0.00000000
     atom    7 type  2   force =     0.00000000    0.00000000    0.00000000
     atom    8 type  2   force =     0.00000000    0.00000000    0.00000000
     atom    9 type  1   force =     0.00000000    0.00000000    0.00000000
     atom   10 type  1   force =     0.00000000    0.00000000    0.00000000
     atom   11 type  2   force =     0.00000000    0.00000000    0.00000000
     atom   12 type  2   force =     0.00000000    0.00000000    0.00000000
     The SCF correction term to forces
     atom    1 type  1   force =    -0.00000000    0.00000000    0.00001348
     atom    2 type  1   force =     0.00000000   -0.00000000    0.00004901
     atom    3 type  2   force =    -0.00000000    0.00000000   -0.00000969
     atom    4 type  2   force =     0.00000000   -0.00000000    0.00000692
     atom    5 type  1   force =    -0.00000000    0.00000000    0.00002497
     atom    6 type  1   force =     0.00000000   -0.00000000   -0.00001770
     atom    7 type  2   force =    -0.00000000    0.00000000   -0.00002324
     atom    8 type  2   force =     0.00000000   -0.00000000   -0.00000582
     atom    9 type  1   force =    -0.00000000    0.00000000   -0.00001408
     atom   10 type  1   force =     0.00000000   -0.00000000   -0.00005666
     atom   11 type  2   force =    -0.00000000    0.00000000    0.00000980
     atom   12 type  2   force =     0.00000000   -0.00000000   -0.00001833

     Total force =     0.045465     Total SCF correction =     0.000090

     General routines

     Parallel routines

   This run was terminated on:  14: 9:18  27Aug2025

   JOB DONE.