     Program PWSCF v.7.0 starts on 27Aug2025 at 15: 2:10

     K-points division:     npool     =      17

     Reading input from /home/jvc/QEspresso7.2/ZnO_database/scripts/cell113.in/ZnO-3.20-1.65-113.in
Warning: card &CELL ignored
Warning: card / ignored
Warning: card &FCP ignored
Warning: card / ignored
Warning: card &RISM ignored
Warning: card / ignored

     Current dimensions of program PWSCF are:
     Max number of different atomic species (ntypx) = 10
     Max number of k-points (npk) =  40000
     Max angular momentum in pseudopotentials (lmaxx) =  4
     file Zn.upf: wavefunction(s)  3D renormalized
     Found identity + (  0.0000  0.0000  0.3333) symmetry
     This is a supercell, fractional translations are disabled
     Message from routine setup:
     using ibrav=0 with symmetry is DISCOURAGED, use correct ibrav instead

     Subspace diagonalization in iterative solution of the eigenvalue problem:
     a serial algorithm will be used

     Using Slab Decomposition

     bravais-lattice index     =            0
     lattice parameter (alat)  =       6.0553  a.u.
     unit-cell volume          =     949.8478 (a.u.)^3
     number of atoms/cell      =           12
     number of atomic types    =            2
     number of electrons       =       108.00
     number of Kohn-Sham states=           54
     kinetic-energy cutoff     =      50.0000  Ry
     charge density cutoff     =     400.0000  Ry
     scf convergence threshold =      1.0E-08
     mixing beta               =       0.3000
     number of iterations used =            8  plain     mixing
     Exchange-correlation= PBE
                           (   1   4   3   4   0   0   0)

     celldm(1)=   6.055277  celldm(2)=   0.000000  celldm(3)=   0.000000
     celldm(4)=   0.000000  celldm(5)=   0.000000  celldm(6)=   0.000000

     crystal axes: (cart. coord. in units of alat)
               a(1) = (   1.000000   0.000000   0.000000 )
               a(2) = (  -0.500000   0.866025   0.000000 )
               a(3) = (   0.000000   0.000000   4.939937 )

     reciprocal axes: (cart. coord. in units 2 pi/alat)
               b(1) = (  1.000000  0.577350 -0.000000 )
               b(2) = (  0.000000  1.154701  0.000000 )
               b(3) = (  0.000000 -0.000000  0.202432 )

     PseudoPot. # 1 for Zn read from file:
     /home/jvc/QEspresso7.2/ZnO_database/pseudos/Zn.upf
     MD5 check sum: 7f56cabf9682ed8c977c2f7d0c5985c5
     Pseudo is Ultrasoft + core correction, Zval = 12.0
     Generated using &quot;atomic&quot; code by A. Dal Corso  v.6.2.2
     Using radial grid of 1201 points,  6 beta functions with:
                l(1) =   0
                l(2) =   0
                l(3) =   1
                l(4) =   1
                l(5) =   2
                l(6) =   2
     Q(r) pseudized with 0 coefficients

     PseudoPot. # 2 for O  read from file:
     /home/jvc/QEspresso7.2/ZnO_database/pseudos/O.upf
     MD5 check sum: 91400c9766925bcf19f520983a725ff0
     Pseudo is Ultrasoft + core correction, Zval =  6.0
     Generated using &quot;atomic&quot; code by A. Dal Corso  v.6.3MaX
     Using radial grid of 1095 points,  4 beta functions with:
                l(1) =   0
                l(2) =   0
                l(3) =   1
                l(4) =   1
     Q(r) pseudized with 0 coefficients

     atomic species   valence    mass     pseudopotential
        Zn            12.00    65.38000     Zn( 1.00)
        O              6.00    15.99900     O ( 1.00)

      6 Sym. Ops. (no inversion) found

                                    s                        frac. trans.

      isym =  1     identity

 cryst.   s( 1) = (     1          0          0      )
                  (     0          1          0      )
                  (     0          0          1      )

 cart.    s( 1) = (  1.0000000  0.0000000  0.0000000 )
                  (  0.0000000  1.0000000  0.0000000 )
                  (  0.0000000  0.0000000  1.0000000 )

      isym =  2     120 deg rotation - cryst. axis [0,0,1]

[...]

      isym =  3     120 deg rotation - cryst. axis [0,0,-1]

[...]

      isym =  4     inv. 180 deg rotation - cart. axis [1,0,0]

[...]

      isym =  5     inv. 180 deg rotation - cryst. axis [0,1,0]

[...]

      isym =  6     inv. 180 deg rotation - cryst. axis [1,1,0]

 cryst.   s( 6) = (     0         -1          0      )
                  (    -1          0          0      )
                  (     0          0          1      )

 cart.    s( 6) = (  0.5000000 -0.8660254  0.0000000 )
                  ( -0.8660254 -0.5000000  0.0000000 )
                  (  0.0000000  0.0000000  1.0000000 )

   Cartesian axes

     site n.     atom                  positions (alat units)
         1           Zn  tau(   1) = (   0.5000000   0.2886751   0.8243661  )
         2           Zn  tau(   2) = (  -0.0000000   0.5773503   0.0010433  )
         3           O   tau(   3) = (   0.5000000   0.2886751   1.4485152  )
         4           O   tau(   4) = (  -0.0000000   0.5773503   0.6251925  )
         5           Zn  tau(   5) = (   0.5000000   0.2886751   2.4710116  )
         6           Zn  tau(   6) = (  -0.0000000   0.5773503   1.6476888  )
         7           O   tau(   7) = (   0.5000000   0.2886751   3.0951608  )
         8           O   tau(   8) = (  -0.0000000   0.5773503   2.2718380  )
         9           Zn  tau(   9) = (   0.5000000   0.2886751   4.1176571  )
        10           Zn  tau(  10) = (  -0.0000000   0.5773503   3.2943343  )
        11           O   tau(  11) = (   0.5000000   0.2886751   4.7418063  )
        12           O   tau(  12) = (  -0.0000000   0.5773503   3.9184835  )

   Crystallographic axes

     site n.     atom                  positions (cryst. coord.)
         1           Zn  tau(   1) = (  0.6666667  0.3333333  0.1668779  )
         2           Zn  tau(   2) = (  0.3333333  0.6666667  0.0002112  )
         3           O   tau(   3) = (  0.6666667  0.3333333  0.2932255  )
         4           O   tau(   4) = (  0.3333333  0.6666667  0.1265588  )
         5           Zn  tau(   5) = (  0.6666667  0.3333333  0.5002112  )
         6           Zn  tau(   6) = (  0.3333333  0.6666667  0.3335445  )
         7           O   tau(   7) = (  0.6666667  0.3333333  0.6265588  )
         8           O   tau(   8) = (  0.3333333  0.6666667  0.4598921  )
         9           Zn  tau(   9) = (  0.6666667  0.3333333  0.8335445  )
        10           Zn  tau(  10) = (  0.3333333  0.6666667  0.6668779  )
        11           O   tau(  11) = (  0.6666667  0.3333333  0.9598921  )
        12           O   tau(  12) = (  0.3333333  0.6666667  0.7932255  )

     number of k points=    34
                       cart. coord. in units 2pi/alat
        k(    1) = (   0.0000000   0.0000000   0.0000000), wk =   0.0092593
        k(    2) = (   0.0000000   0.0000000   0.0337386), wk =   0.0185185
        k(    3) = (   0.0000000   0.0000000   0.0674772), wk =   0.0185185
        k(    4) = (   0.0000000   0.0000000  -0.1012159), wk =   0.0092593
        k(    5) = (   0.0000000   0.1924501   0.0000000), wk =   0.0555556
        k(    6) = (   0.0000000   0.1924501   0.0337386), wk =   0.0555556
        k(    7) = (   0.0000000   0.1924501   0.0674772), wk =   0.0555556
        k(    8) = (   0.0000000   0.1924501  -0.1012159), wk =   0.0555556
        k(    9) = (   0.0000000   0.3849002   0.0000000), wk =   0.0555556
        k(   10) = (   0.0000000   0.3849002   0.0337386), wk =   0.0555556
        k(   11) = (   0.0000000   0.3849002   0.0674772), wk =   0.0555556
        k(   12) = (   0.0000000   0.3849002  -0.1012159), wk =   0.0555556
        k(   13) = (   0.0000000  -0.5773503   0.0000000), wk =   0.0277778
        k(   14) = (   0.0000000  -0.5773503   0.0337386), wk =   0.0555556
        k(   15) = (   0.0000000  -0.5773503   0.0674772), wk =   0.0555556
        k(   16) = (   0.0000000  -0.5773503  -0.1012159), wk =   0.0277778
        k(   17) = (   0.1666667   0.2886751   0.0000000), wk =   0.0555556
        k(   18) = (   0.1666667   0.2886751   0.0337386), wk =   0.1111111
        k(   19) = (   0.1666667   0.2886751   0.0674772), wk =   0.1111111
        k(   20) = (   0.1666667   0.2886751  -0.1012159), wk =   0.0555556
        k(   21) = (   0.1666667   0.4811252   0.0000000), wk =   0.1111111
        k(   22) = (   0.1666667   0.4811252   0.0337386), wk =   0.1111111
        k(   23) = (   0.1666667   0.4811252   0.0674772), wk =   0.1111111
        k(   24) = (   0.1666667   0.4811252  -0.1012159), wk =   0.1111111
        k(   25) = (   0.3333333   0.5773503   0.0000000), wk =   0.0185185
        k(   26) = (   0.3333333   0.5773503   0.0337386), wk =   0.0370370
        k(   27) = (   0.3333333   0.5773503   0.0674772), wk =   0.0370370
        k(   28) = (   0.3333333   0.5773503  -0.1012159), wk =   0.0185185
        k(   29) = (   0.0000000  -0.1924501   0.0337386), wk =   0.0555556
        k(   30) = (   0.0000000  -0.1924501   0.0674772), wk =   0.0555556
        k(   31) = (   0.0000000  -0.3849002   0.0337386), wk =   0.0555556
        k(   32) = (   0.0000000  -0.3849002   0.0674772), wk =   0.0555556
        k(   33) = (  -0.1666667  -0.4811252   0.0337386), wk =   0.1111111
        k(   34) = (  -0.1666667  -0.4811252   0.0674772), wk =   0.1111111

                       cryst. coord.
        k(    1) = (   0.0000000   0.0000000   0.0000000), wk =   0.0092593
        k(    2) = (   0.0000000   0.0000000   0.1666667), wk =   0.0185185
        k(    3) = (   0.0000000   0.0000000   0.3333333), wk =   0.0185185
        k(    4) = (   0.0000000   0.0000000  -0.5000000), wk =   0.0092593
        k(    5) = (   0.0000000   0.1666667   0.0000000), wk =   0.0555556
        k(    6) = (   0.0000000   0.1666667   0.1666667), wk =   0.0555556
        k(    7) = (   0.0000000   0.1666667   0.3333333), wk =   0.0555556
        k(    8) = (   0.0000000   0.1666667  -0.5000000), wk =   0.0555556
        k(    9) = (   0.0000000   0.3333333   0.0000000), wk =   0.0555556
        k(   10) = (   0.0000000   0.3333333   0.1666667), wk =   0.0555556
        k(   11) = (   0.0000000   0.3333333   0.3333333), wk =   0.0555556
        k(   12) = (   0.0000000   0.3333333  -0.5000000), wk =   0.0555556
        k(   13) = (   0.0000000  -0.5000000   0.0000000), wk =   0.0277778
        k(   14) = (   0.0000000  -0.5000000   0.1666667), wk =   0.0555556
        k(   15) = (   0.0000000  -0.5000000   0.3333333), wk =   0.0555556
        k(   16) = (   0.0000000  -0.5000000  -0.5000000), wk =   0.0277778
        k(   17) = (   0.1666667   0.1666667   0.0000000), wk =   0.0555556
        k(   18) = (   0.1666667   0.1666667   0.1666667), wk =   0.1111111
        k(   19) = (   0.1666667   0.1666667   0.3333333), wk =   0.1111111
        k(   20) = (   0.1666667   0.1666667  -0.5000000), wk =   0.0555556
        k(   21) = (   0.1666667   0.3333333   0.0000000), wk =   0.1111111
        k(   22) = (   0.1666667   0.3333333   0.1666667), wk =   0.1111111
        k(   23) = (   0.1666667   0.3333333   0.3333333), wk =   0.1111111
        k(   24) = (   0.1666667   0.3333333  -0.5000000), wk =   0.1111111
        k(   25) = (   0.3333333   0.3333333   0.0000000), wk =   0.0185185
        k(   26) = (   0.3333333   0.3333333   0.1666667), wk =   0.0370370
        k(   27) = (   0.3333333   0.3333333   0.3333333), wk =   0.0370370
        k(   28) = (   0.3333333   0.3333333  -0.5000000), wk =   0.0185185
        k(   29) = (   0.0000000  -0.1666667   0.1666667), wk =   0.0555556
        k(   30) = (   0.0000000  -0.1666667   0.3333333), wk =   0.0555556
        k(   31) = (   0.0000000  -0.3333333   0.1666667), wk =   0.0555556
        k(   32) = (   0.0000000  -0.3333333   0.3333333), wk =   0.0555556
        k(   33) = (  -0.1666667  -0.3333333   0.1666667), wk =   0.1111111
        k(   34) = (  -0.1666667  -0.3333333   0.3333333), wk =   0.1111111

     Check: negative core charge=   -0.000002

     Initial potential from superposition of free atoms

     starting charge     107.9776, renormalised to     108.0000
     Starting wfcs are   78 randomized atomic wfcs

     Self-consistent Calculation

     iteration #  1     ecut=    50.00 Ry     beta= 0.30
     Davidson diagonalization with overlap

     ethr =  1.00E-02,  avg # of iterations =  2.0

     total energy              =   -1084.44033328 Ry
     estimated scf accuracy    <       2.04570049 Ry

[...]

     c_bands:  1 eigenvalues not converged
     ethr =  1.75E-04,  avg # of iterations = 11.1

[...]

     c_bands:  1 eigenvalues not converged
     c_bands:  1 eigenvalues not converged
     ethr =  2.53E-10,  avg # of iterations = 13.8

[...]

     total energy              =   -1084.89732134 Ry
     estimated scf accuracy    <       0.00000015 Ry

     iteration # 33     ecut=    50.00 Ry     beta= 0.30
     Davidson diagonalization with overlap

     ethr =  1.41E-10,  avg # of iterations =  5.2

     End of self-consistent calculation

          k = 0.0000 0.0000 0.0000 (  5647 PWs)   bands (ev):

   -10.7165 -10.5470 -10.5470 -10.1924 -10.1924 -10.0068   1.5061   1.5061
     1.6070   1.6071   1.6929   1.7180   1.7180   1.7493   1.7493   1.7493
     1.7493   1.7725   1.8420   1.8420   1.8420   1.8420   1.9056   1.9056
     2.9732   2.9732   3.0370   3.0370   3.0370   3.0370   3.1399   3.1399
     3.1399   3.1399   3.1759   3.1759   3.4751   4.4055   4.4055   6.0129
     6.0130   6.7605   6.7605   6.9529   6.9529   6.9529   6.9529   7.3336
     7.3336   7.3336   7.3336   7.3736   7.5214   7.5214

     occupation numbers
     1.0000   1.0000   1.0000   1.0000   1.0000   1.0000   1.0000   1.0000
     1.0000   1.0000   1.0000   1.0000   1.0000   1.0000   1.0000   1.0000
     1.0000   1.0000   1.0000   1.0000   1.0000   1.0000   1.0000   1.0000
     1.0000   1.0000   1.0000   1.0000   1.0000   1.0000   1.0000   1.0000
     1.0000   1.0000   1.0000   1.0000   1.0000   1.0000   1.0000   1.0000
     1.0000   1.0000   1.0000   1.0000   1.0000   1.0000   1.0000   1.0000
     1.0000   1.0000   1.0000   1.0000   1.0000   1.0000

[...]

          k = 0.0000-0.3849 0.0675 (  5678 PWs)   bands (ev):

[...]

          k =-0.1667-0.4811 0.0337 (  5672 PWs)   bands (ev):

[...]

          k =-0.1667-0.4811 0.0675 (  5673 PWs)   bands (ev):

    -9.9989  -9.9769  -9.9050  -9.8651  -9.8012  -9.7836   1.4391   1.4675
     1.5152   1.5582   1.6744   1.7766   1.9848   1.9865   2.0547   2.1127
     2.1972   2.2253   2.3205   2.3264   2.4013   2.4344   2.4681   2.5101
     2.9280   2.9717   3.0599   3.0853   3.1052   3.1139   3.2414   3.2423
     3.2778   3.3243   3.4340   3.4543   3.5928   3.6628   3.8997   4.0185
     4.2081   4.2258   4.6459   4.8094   5.0138   5.2415   5.3151   5.5605
     6.0015   6.0632   6.1372   6.2350   6.3336   6.3494

     occupation numbers
     1.0000   1.0000   1.0000   1.0000   1.0000   1.0000   1.0000   1.0000
     1.0000   1.0000   1.0000   1.0000   1.0000   1.0000   1.0000   1.0000
     1.0000   1.0000   1.0000   1.0000   1.0000   1.0000   1.0000   1.0000
     1.0000   1.0000   1.0000   1.0000   1.0000   1.0000   1.0000   1.0000
     1.0000   1.0000   1.0000   1.0000   1.0000   1.0000   1.0000   1.0000
     1.0000   1.0000   1.0000   1.0000   1.0000   1.0000   1.0000   1.0000
     1.0000   1.0000   1.0000   1.0000   1.0000   1.0000

     highest occupied level (ev):     7.5214

!    total energy              =   -1084.89732139 Ry
     estimated scf accuracy    <          3.9E-09 Ry

     The total energy is the sum of the following terms:
     one-electron contribution =    -449.38222327 Ry
     hartree contribution      =     349.82957048 Ry
     xc contribution           =    -328.89379096 Ry
     ewald contribution        =    -656.45087765 Ry

     convergence has been achieved in  33 iterations

     Forces acting on atoms (cartesian axes, Ry/au):

     atom    1 type  1   force =     0.00000000   -0.00000000    0.00745049
     atom    2 type  1   force =     0.00000000    0.00000000    0.00748793
     atom    3 type  2   force =     0.00000000    0.00000000   -0.00738145
     atom    4 type  2   force =     0.00000000    0.00000000   -0.00737851
     atom    5 type  1   force =     0.00000000    0.00000000    0.00730447
     atom    6 type  1   force =     0.00000000    0.00000000    0.00737144
     atom    7 type  2   force =     0.00000000    0.00000000   -0.00738718
     atom    8 type  2   force =     0.00000000    0.00000000   -0.00739078
     atom    9 type  1   force =     0.00000000    0.00000000    0.00737800
     atom   10 type  1   force =     0.00000000    0.00000000    0.00728935
     atom   11 type  2   force =     0.00000000    0.00000000   -0.00737146
     atom   12 type  2   force =     0.00000000    0.00000000   -0.00737230
     The non-local contrib.  to forces
     atom    1 type  1   force =     0.00000000    0.00000000    0.05224990
     atom    2 type  1   force =     0.00000000    0.00000000    0.05226550
     atom    3 type  2   force =     0.00000000   -0.00000000    0.05283334
     atom    4 type  2   force =     0.00000000    0.00000000    0.05280772
     atom    5 type  1   force =     0.00000000   -0.00000000    0.05216041
     atom    6 type  1   force =     0.00000000   -0.00000000    0.05220263
     atom    7 type  2   force =     0.00000000    0.00000000    0.05287168
     atom    8 type  2   force =     0.00000000    0.00000000    0.05286262
     atom    9 type  1   force =     0.00000000    0.00000000    0.05219549
     atom   10 type  1   force =     0.00000000   -0.00000000    0.05215015
     atom   11 type  2   force =     0.00000000    0.00000000    0.05280510
     atom   12 type  2   force =     0.00000000    0.00000000    0.05284773
     The ionic contribution  to forces
     atom    1 type  1   force =    -0.00000000    0.00000000    0.48421522
     atom    2 type  1   force =     0.00000000   -0.00000000    0.48421526
     atom    3 type  2   force =    -0.00000000    0.00000000   -0.48421523
     atom    4 type  2   force =     0.00000000   -0.00000000   -0.48421524
     atom    5 type  1   force =    -0.00000000    0.00000000    0.48421526
     atom    6 type  1   force =     0.00000000   -0.00000000    0.48421522
     atom    7 type  2   force =    -0.00000000    0.00000000   -0.48421524
     atom    8 type  2   force =     0.00000000   -0.00000000   -0.48421522
     atom    9 type  1   force =    -0.00000000    0.00000000    0.48421522
     atom   10 type  1   force =     0.00000000   -0.00000000    0.48421522
     atom   11 type  2   force =    -0.00000000    0.00000000   -0.48421522
     atom   12 type  2   force =     0.00000000   -0.00000000   -0.48421523
     The local contribution  to forces
     atom    1 type  1   force =    -0.00000004    0.00000002   -0.52534737
     atom    2 type  1   force =     0.00000004   -0.00000002   -0.52540442
     atom    3 type  2   force =    -0.00000001    0.00000001    0.42441723
     atom    4 type  2   force =     0.00000001   -0.00000001    0.42436113
     atom    5 type  1   force =    -0.00000004    0.00000002   -0.52512563
     atom    6 type  1   force =     0.00000004   -0.00000002   -0.52522859
     atom    7 type  2   force =    -0.00000001    0.00000001    0.42448022
     atom    8 type  2   force =     0.00000001   -0.00000001    0.42447148
     atom    9 type  1   force =    -0.00000004    0.00000002   -0.52523539
     atom   10 type  1   force =     0.00000004   -0.00000002   -0.52510538
     atom   11 type  2   force =    -0.00000001    0.00000001    0.42433213
     atom   12 type  2   force =     0.00000001   -0.00000001    0.42441493
     The core correction contribution to forces
     atom    1 type  1   force =    -0.00000001    0.00000000   -0.00380048
     atom    2 type  1   force =     0.00000001   -0.00000000   -0.00379955
     atom    3 type  2   force =     0.00000000   -0.00000000   -0.00042352
     atom    4 type  2   force =    -0.00000000    0.00000000   -0.00042326
     atom    5 type  1   force =    -0.00000001    0.00000000   -0.00380141
     atom    6 type  1   force =     0.00000001   -0.00000000   -0.00380113
     atom    7 type  2   force =     0.00000000   -0.00000000   -0.00042393
     atom    8 type  2   force =    -0.00000000    0.00000000   -0.00042384
     atom    9 type  1   force =    -0.00000001    0.00000000   -0.00380005
     atom   10 type  1   force =     0.00000001   -0.00000000   -0.00380119
     atom   11 type  2   force =     0.00000000   -0.00000000   -0.00042328
     atom   12 type  2   force =    -0.00000000    0.00000000   -0.00042372
     The Hubbard contrib.    to forces
     atom    1 type  1   force =     0.00000000    0.00000000    0.00000000
     atom    2 type  1   force =     0.00000000    0.00000000    0.00000000
     atom    3 type  2   force =     0.00000000    0.00000000    0.00000000
     atom    4 type  2   force =     0.00000000    0.00000000    0.00000000
     atom    5 type  1   force =     0.00000000    0.00000000    0.00000000
     atom    6 type  1   force =     0.00000000    0.00000000    0.00000000
     atom    7 type  2   force =     0.00000000    0.00000000    0.00000000
     atom    8 type  2   force =     0.00000000    0.00000000    0.00000000
     atom    9 type  1   force =     0.00000000    0.00000000    0.00000000
     atom   10 type  1   force =     0.00000000    0.00000000    0.00000000
     atom   11 type  2   force =     0.00000000    0.00000000    0.00000000
     atom   12 type  2   force =     0.00000000    0.00000000    0.00000000
     The SCF correction term to forces
     atom    1 type  1   force =     0.00000000   -0.00000000    0.00012972
     atom    2 type  1   force =    -0.00000000    0.00000000    0.00020764
     atom    3 type  2   force =     0.00000000   -0.00000000    0.00000324
     atom    4 type  2   force =    -0.00000000    0.00000000    0.00008765
     atom    5 type  1   force =     0.00000000   -0.00000000   -0.00014766
     atom    6 type  1   force =    -0.00000000    0.00000000   -0.00002018
     atom    7 type  2   force =     0.00000000   -0.00000000   -0.00010340
     atom    8 type  2   force =    -0.00000000    0.00000000   -0.00008931
     atom    9 type  1   force =     0.00000000   -0.00000000   -0.00000076
     atom   10 type  1   force =    -0.00000000    0.00000000   -0.00017295
     atom   11 type  2   force =     0.00000000   -0.00000000    0.00012631
     atom   12 type  2   force =    -0.00000000    0.00000000    0.00000049

     Total force =     0.025567     Total SCF correction =     0.000393

     General routines

     Parallel routines

   This run was terminated on:  15: 7:20  27Aug2025

   JOB DONE.