     Program PWSCF v.7.0 starts on 28Aug2025 at 19: 9: 8

     K-points division:     npool     =       8
     R & G space division:  proc/nbgrp/npool/nimage =       4

     Reading input from /home/jvc/QEspresso7.2/ZnO_database/scripts/cell122.in/ZnO-2.94-1.61-122.in
Warning: card &CELL ignored
Warning: card / ignored
Warning: card &FCP ignored
Warning: card / ignored
Warning: card &RISM ignored
Warning: card / ignored

     Current dimensions of program PWSCF are:
     Max number of different atomic species (ntypx) = 10
     Max number of k-points (npk) =  40000
     Max angular momentum in pseudopotentials (lmaxx) =  4
     file Zn.upf: wavefunction(s)  3D renormalized
     Found identity + (  0.0000  0.0000 -0.5000) symmetry
     This is a supercell, fractional translations are disabled
     Message from routine setup:
     using ibrav=0 with symmetry is DISCOURAGED, use correct ibrav instead

     Using Slab Decomposition

     bravais-lattice index     =            0
     lattice parameter (alat)  =       5.5610  a.u.
     unit-cell volume          =     961.7050 (a.u.)^3
     number of atoms/cell      =           16
     number of atomic types    =            2
     number of electrons       =       144.00
     number of Kohn-Sham states=           72
     kinetic-energy cutoff     =      50.0000  Ry
     charge density cutoff     =     400.0000  Ry
     scf convergence threshold =      1.0E-08
     mixing beta               =       0.3000
     number of iterations used =            8  plain     mixing
     Exchange-correlation= PBE
                           (   1   4   3   4   0   0   0)

     celldm(1)=   5.560969  celldm(2)=   0.000000  celldm(3)=   0.000000
     celldm(4)=   0.000000  celldm(5)=   0.000000  celldm(6)=   0.000000

     crystal axes: (cart. coord. in units of alat)
               a(1) = (   1.000000   0.000000   0.000000 )
               a(2) = (  -1.000000   1.732051   0.000000 )
               a(3) = (   0.000000   0.000000   3.228717 )

     reciprocal axes: (cart. coord. in units 2 pi/alat)
               b(1) = (  1.000000  0.577350 -0.000000 )
               b(2) = (  0.000000  0.577350  0.000000 )
               b(3) = (  0.000000 -0.000000  0.309721 )

     PseudoPot. # 1 for Zn read from file:
     /home/jvc/QEspresso7.2/ZnO_database/pseudos/Zn.upf
     MD5 check sum: 7f56cabf9682ed8c977c2f7d0c5985c5
     Pseudo is Ultrasoft + core correction, Zval = 12.0
     Generated using &quot;atomic&quot; code by A. Dal Corso  v.6.2.2
     Using radial grid of 1201 points,  6 beta functions with:
                l(1) =   0
                l(2) =   0
                l(3) =   1
                l(4) =   1
                l(5) =   2
                l(6) =   2
     Q(r) pseudized with 0 coefficients

     PseudoPot. # 2 for O  read from file:
     /home/jvc/QEspresso7.2/ZnO_database/pseudos/O.upf
     MD5 check sum: 91400c9766925bcf19f520983a725ff0
     Pseudo is Ultrasoft + core correction, Zval =  6.0
     Generated using &quot;atomic&quot; code by A. Dal Corso  v.6.3MaX
     Using radial grid of 1095 points,  4 beta functions with:
                l(1) =   0
                l(2) =   0
                l(3) =   1
                l(4) =   1
     Q(r) pseudized with 0 coefficients

     atomic species   valence    mass     pseudopotential
        Zn            12.00    65.38000     Zn( 1.00)
        O              6.00    15.99900     O ( 1.00)

      2 Sym. Ops. (no inversion) found

                                    s                        frac. trans.

      isym =  1     identity

 cryst.   s( 1) = (     1          0          0      )
                  (     0          1          0      )
                  (     0          0          1      )

 cart.    s( 1) = (  1.0000000  0.0000000  0.0000000 )
                  (  0.0000000  1.0000000  0.0000000 )
                  (  0.0000000  0.0000000  1.0000000 )

      isym =  2     inv. 180 deg rotation - cart. axis [1,0,0]

 cryst.   s( 2) = (    -1          0          0      )
                  (     2          1          0      )
                  (     0          0          1      )

 cart.    s( 2) = ( -1.0000000  0.0000000  0.0000000 )
                  (  0.0000000  1.0000000  0.0000000 )
                  (  0.0000000  0.0000000  1.0000000 )

   Cartesian axes

     site n.     atom                  positions (alat units)
         1           Zn  tau(   1) = (   0.5000000   0.2886751   0.8082020  )
         2           Zn  tau(   2) = (   0.0000000   0.5773503   0.0010228  )
         3           O   tau(   3) = (   0.5000000   0.2886751   1.4201130  )
         4           O   tau(   4) = (   0.0000000   0.5773503   0.6129338  )
         5           Zn  tau(   5) = (   0.5000000   0.2886751   2.4225604  )
         6           Zn  tau(   6) = (   0.0000000   0.5773503   1.6153812  )
         7           O   tau(   7) = (   0.5000000   0.2886751   3.0344713  )
         8           O   tau(   8) = (   0.0000000   0.5773503   2.2272921  )
         9           Zn  tau(   9) = (   0.0000000   1.1547005   0.8082020  )
        10           Zn  tau(  10) = (  -0.5000000   1.4433757   0.0010228  )
        11           O   tau(  11) = (   0.0000000   1.1547005   1.4201130  )
        12           O   tau(  12) = (  -0.5000000   1.4433757   0.6129338  )
        13           Zn  tau(  13) = (   0.0000000   1.1547005   2.4225604  )
        14           Zn  tau(  14) = (  -0.5000000   1.4433757   1.6153812  )
        15           O   tau(  15) = (   0.0000000   1.1547005   3.0344713  )
        16           O   tau(  16) = (  -0.5000000   1.4433757   2.2272921  )

   Crystallographic axes

     site n.     atom                  positions (cryst. coord.)
         1           Zn  tau(   1) = (  0.6666667  0.1666667  0.2503168  )
         2           Zn  tau(   2) = (  0.3333333  0.3333333  0.0003168  )
         3           O   tau(   3) = (  0.6666667  0.1666667  0.4398382  )
         4           O   tau(   4) = (  0.3333333  0.3333333  0.1898382  )
         5           Zn  tau(   5) = (  0.6666667  0.1666667  0.7503168  )
         6           Zn  tau(   6) = (  0.3333333  0.3333333  0.5003168  )
         7           O   tau(   7) = (  0.6666667  0.1666667  0.9398382  )
         8           O   tau(   8) = (  0.3333333  0.3333333  0.6898382  )
         9           Zn  tau(   9) = (  0.6666667  0.6666667  0.2503168  )
        10           Zn  tau(  10) = (  0.3333333  0.8333333  0.0003168  )
        11           O   tau(  11) = (  0.6666667  0.6666667  0.4398382  )
        12           O   tau(  12) = (  0.3333333  0.8333333  0.1898382  )
        13           Zn  tau(  13) = (  0.6666667  0.6666667  0.7503168  )
        14           Zn  tau(  14) = (  0.3333333  0.8333333  0.5003168  )
        15           O   tau(  15) = (  0.6666667  0.6666667  0.9398382  )
        16           O   tau(  16) = (  0.3333333  0.8333333  0.6898382  )

     number of k points=    80
                       cart. coord. in units 2pi/alat
        k(    1) = (   0.0000000   0.0000000   0.0000000), wk =   0.0092593
        k(    2) = (   0.0000000   0.0000000   0.0516201), wk =   0.0185185
        k(    3) = (   0.0000000   0.0000000   0.1032402), wk =   0.0185185
        k(    4) = (   0.0000000   0.0000000  -0.1548603), wk =   0.0092593
        k(    5) = (   0.0000000   0.0962250   0.0000000), wk =   0.0185185
        k(    6) = (   0.0000000   0.0962250   0.0516201), wk =   0.0185185
        k(    7) = (   0.0000000   0.0962250   0.1032402), wk =   0.0185185
        k(    8) = (   0.0000000   0.0962250  -0.1548603), wk =   0.0185185
        k(    9) = (   0.0000000   0.1924501   0.0000000), wk =   0.0185185
        k(   10) = (   0.0000000   0.1924501   0.0516201), wk =   0.0185185
        k(   11) = (   0.0000000   0.1924501   0.1032402), wk =   0.0185185
        k(   12) = (   0.0000000   0.1924501  -0.1548603), wk =   0.0185185
        k(   13) = (   0.0000000  -0.2886751   0.0000000), wk =   0.0092593
        k(   14) = (   0.0000000  -0.2886751   0.0516201), wk =   0.0185185
        k(   15) = (   0.0000000  -0.2886751   0.1032402), wk =   0.0185185
        k(   16) = (   0.0000000  -0.2886751  -0.1548603), wk =   0.0092593
        k(   17) = (   0.1666667   0.0962250   0.0000000), wk =   0.0370370
        k(   18) = (   0.1666667   0.0962250   0.0516201), wk =   0.0370370
        k(   19) = (   0.1666667   0.0962250   0.1032402), wk =   0.0370370
        k(   20) = (   0.1666667   0.0962250  -0.1548603), wk =   0.0370370
        k(   21) = (   0.1666667   0.1924501   0.0000000), wk =   0.0370370
        k(   22) = (   0.1666667   0.1924501   0.0516201), wk =   0.0370370
        k(   23) = (   0.1666667   0.1924501   0.1032402), wk =   0.0370370
        k(   24) = (   0.1666667   0.1924501  -0.1548603), wk =   0.0370370
        k(   25) = (   0.1666667   0.2886751   0.0000000), wk =   0.0185185
        k(   26) = (   0.1666667   0.2886751   0.0516201), wk =   0.0370370
        k(   27) = (   0.1666667   0.2886751   0.1032402), wk =   0.0370370
        k(   28) = (   0.1666667   0.2886751  -0.1548603), wk =   0.0185185
        k(   29) = (   0.1666667   0.0000000   0.0000000), wk =   0.0185185
        k(   30) = (   0.1666667   0.0000000   0.0516201), wk =   0.0370370
        k(   31) = (   0.1666667   0.0000000   0.1032402), wk =   0.0370370
        k(   32) = (   0.1666667   0.0000000  -0.1548603), wk =   0.0185185
        k(   33) = (   0.3333333   0.1924501   0.0000000), wk =   0.0370370
        k(   34) = (   0.3333333   0.1924501   0.0516201), wk =   0.0370370
        k(   35) = (   0.3333333   0.1924501   0.1032402), wk =   0.0370370
        k(   36) = (   0.3333333   0.1924501  -0.1548603), wk =   0.0370370
        k(   37) = (   0.3333333   0.2886751   0.0000000), wk =   0.0185185
        k(   38) = (   0.3333333   0.2886751   0.0516201), wk =   0.0370370
        k(   39) = (   0.3333333   0.2886751   0.1032402), wk =   0.0370370
        k(   40) = (   0.3333333   0.2886751  -0.1548603), wk =   0.0185185
        k(   41) = (   0.3333333  -0.0962250   0.0000000), wk =   0.0370370
        k(   42) = (   0.3333333  -0.0962250   0.0516201), wk =   0.0370370
        k(   43) = (   0.3333333  -0.0962250   0.1032402), wk =   0.0370370
        k(   44) = (   0.3333333  -0.0962250  -0.1548603), wk =   0.0370370
        k(   45) = (   0.3333333  -0.0000000   0.0000000), wk =   0.0185185
        k(   46) = (   0.3333333  -0.0000000   0.0516201), wk =   0.0370370
        k(   47) = (   0.3333333  -0.0000000   0.1032402), wk =   0.0370370
        k(   48) = (   0.3333333  -0.0000000  -0.1548603), wk =   0.0185185
        k(   49) = (  -0.5000000  -0.2886751   0.0000000), wk =   0.0092593
        k(   50) = (  -0.5000000  -0.2886751   0.0516201), wk =   0.0185185
        k(   51) = (  -0.5000000  -0.2886751   0.1032402), wk =   0.0185185
        k(   52) = (  -0.5000000  -0.2886751  -0.1548603), wk =   0.0092593
        k(   53) = (  -0.5000000  -0.1924501   0.0000000), wk =   0.0185185
        k(   54) = (  -0.5000000  -0.1924501   0.0516201), wk =   0.0185185
        k(   55) = (  -0.5000000  -0.1924501   0.1032402), wk =   0.0185185
[...]
        k(   79) = (   0.5000000  -0.6666667  -0.1666667), wk =   0.0185185
        k(   80) = (   0.5000000  -0.6666667  -0.3333333), wk =   0.0185185

     Check: negative core charge=   -0.000001

     Initial potential from superposition of free atoms

     starting charge     143.9702, renormalised to     144.0000
     Starting wfcs are  104 randomized atomic wfcs

     Self-consistent Calculation

     iteration #  1     ecut=    50.00 Ry     beta= 0.30
     Davidson diagonalization with overlap

     ethr =  1.00E-02,  avg # of iterations =  2.3

     total energy              =   -1445.22519085 Ry
     estimated scf accuracy    <       2.73318868 Ry

[...]

     c_bands:  1 eigenvalues not converged
     c_bands:  1 eigenvalues not converged
     c_bands:  1 eigenvalues not converged
     c_bands:  1 eigenvalues not converged
     ethr =  6.61E-09,  avg # of iterations = 13.1

[...]

     total energy              =   -1445.73221206 Ry
     estimated scf accuracy    <       0.00000002 Ry

     iteration # 26     ecut=    50.00 Ry     beta= 0.30
     Davidson diagonalization with overlap

     ethr =  1.06E-11,  avg # of iterations =  4.1

     End of self-consistent calculation

          k = 0.0000 0.0000 0.0000 (  5777 PWs)   bands (ev):

    -8.5232  -7.9199  -7.9199  -7.3178  -7.2594  -7.1020  -7.1019  -6.9327
     3.7449   3.7449   4.0767   4.1455   4.1518   4.2153   4.2153   4.7630
     4.7632   4.8493   4.8701   4.8701   4.8702   4.8702   5.0599   5.0600
     5.1605   5.3599   5.4426   5.4426   5.4977   5.4977   5.7726   5.9803
     6.9938   6.9938   7.0128   7.2368   7.2368   7.2368   7.2368   7.3212
     7.3685   7.3685   7.3922   7.3922   7.4635   7.4635   7.4870   7.5766
     7.7272   7.8436   7.9424   7.9424   8.2203   8.7182   9.1346   9.9401
     9.9401  10.2499  10.2499  10.4740  10.4740  10.6631  11.1860  11.2814
    11.2816  11.8712  11.8712  11.8714  11.8714  12.2426  12.4631  12.4634

     occupation numbers
     1.0000   1.0000   1.0000   1.0000   1.0000   1.0000   1.0000   1.0000
     1.0000   1.0000   1.0000   1.0000   1.0000   1.0000   1.0000   1.0000
     1.0000   1.0000   1.0000   1.0000   1.0000   1.0000   1.0000   1.0000
     1.0000   1.0000   1.0000   1.0000   1.0000   1.0000   1.0000   1.0000
     1.0000   1.0000   1.0000   1.0000   1.0000   1.0000   1.0000   1.0000
     1.0000   1.0000   1.0000   1.0000   1.0000   1.0000   1.0000   1.0000
     1.0000   1.0000   1.0000   1.0000   1.0000   1.0000   1.0000   1.0000
     1.0000   1.0000   1.0000   1.0000   1.0000   1.0000   1.0000   1.0000
     1.0000   1.0000   1.0000   1.0000   1.0000   1.0000   1.0000   1.0000

[...]

          k =-0.5000-0.2887 0.0000 (  5784 PWs)   bands (ev):

[...]

          k =-0.3333-0.0962-0.1032 (  5729 PWs)   bands (ev):

[...]

          k = 0.5000-0.0962-0.1032 (  5746 PWs)   bands (ev):

    -7.3037  -7.3036  -7.2173  -7.2173  -7.0096  -7.0096  -6.9457  -6.9457
     4.0305   4.0305   4.1129   4.1129   4.1879   4.1879   4.3817   4.3817
     5.0462   5.0462   5.0593   5.0593   5.1798   5.1798   5.2432   5.2433
     5.6468   5.6468   5.7250   5.7250   5.7285   5.7285   5.8630   5.8631
     6.9068   6.9068   7.0728   7.0728   7.1875   7.1875   7.2643   7.2643
     7.4832   7.4832   7.4886   7.4886   7.6351   7.6351   7.6879   7.6879
     7.8384   7.8384   7.9651   7.9651   8.4621   8.4621   8.4993   8.4993
     8.6972   8.6972   9.1171   9.1171   9.3059   9.3059   9.7619   9.7620
    10.2875  10.2875  10.5252  10.5252  10.8422  10.8422  10.8491  10.8491

     occupation numbers
     1.0000   1.0000   1.0000   1.0000   1.0000   1.0000   1.0000   1.0000
     1.0000   1.0000   1.0000   1.0000   1.0000   1.0000   1.0000   1.0000
     1.0000   1.0000   1.0000   1.0000   1.0000   1.0000   1.0000   1.0000
     1.0000   1.0000   1.0000   1.0000   1.0000   1.0000   1.0000   1.0000
     1.0000   1.0000   1.0000   1.0000   1.0000   1.0000   1.0000   1.0000
     1.0000   1.0000   1.0000   1.0000   1.0000   1.0000   1.0000   1.0000
     1.0000   1.0000   1.0000   1.0000   1.0000   1.0000   1.0000   1.0000
     1.0000   1.0000   1.0000   1.0000   1.0000   1.0000   1.0000   1.0000
     1.0000   1.0000   1.0000   1.0000   1.0000   1.0000   1.0000   1.0000

     highest occupied level (ev):    12.4634

!    total energy              =   -1445.73221206 Ry
     estimated scf accuracy    <          7.1E-09 Ry

     The total energy is the sum of the following terms:
     one-electron contribution =    -466.52166215 Ry
     hartree contribution      =     421.45361111 Ry
     xc contribution           =    -441.31478386 Ry
     ewald contribution        =    -959.34937716 Ry

     convergence has been achieved in  26 iterations

     Forces acting on atoms (cartesian axes, Ry/au):

     atom    1 type  1   force =     0.00000000   -0.00001680    0.00180511
     atom    2 type  1   force =     0.00000000    0.00002132    0.00182945
     atom    3 type  2   force =     0.00000000    0.00000169   -0.00182247
     atom    4 type  2   force =     0.00000000   -0.00000165   -0.00182462
     atom    5 type  1   force =     0.00000000   -0.00001136    0.00182064
     atom    6 type  1   force =     0.00000000    0.00001715    0.00184003
     atom    7 type  2   force =     0.00000000    0.00000257   -0.00182346
     atom    8 type  2   force =     0.00000000   -0.00000159   -0.00182487
     atom    9 type  1   force =     0.00000000   -0.00001522    0.00180725
     atom   10 type  1   force =     0.00000000    0.00001118    0.00182919
     atom   11 type  2   force =     0.00000000    0.00000180   -0.00182239
     atom   12 type  2   force =     0.00000000   -0.00000172   -0.00182479
     atom   13 type  1   force =     0.00000000   -0.00002180    0.00182709
     atom   14 type  1   force =     0.00000000    0.00001553    0.00183251
     atom   15 type  2   force =     0.00000000    0.00000108   -0.00182341
     atom   16 type  2   force =     0.00000000   -0.00000215   -0.00182525
     The non-local contrib.  to forces
     atom    1 type  1   force =     0.00000000    0.00003512   -0.00728607
     atom    2 type  1   force =     0.00000000   -0.00003426   -0.00727588
     atom    3 type  2   force =     0.00000000    0.00016953   -0.00092801
     atom    4 type  2   force =     0.00000000   -0.00016897   -0.00092383
     atom    5 type  1   force =     0.00000000    0.00003701   -0.00727619
     atom    6 type  1   force =     0.00000000   -0.00003510   -0.00727190
     atom    7 type  2   force =     0.00000000    0.00016956   -0.00092622
     atom    8 type  2   force =     0.00000000   -0.00016925   -0.00092935
     atom    9 type  1   force =     0.00000000    0.00003576   -0.00728577
     atom   10 type  1   force =     0.00000000   -0.00003680   -0.00727561
     atom   11 type  2   force =     0.00000000    0.00016921   -0.00092704
     atom   12 type  2   force =     0.00000000   -0.00016946   -0.00092428
     atom   13 type  1   force =     0.00000000    0.00003371   -0.00727525
     atom   14 type  1   force =     0.00000000   -0.00003599   -0.00727407
     atom   15 type  2   force =     0.00000000    0.00016966   -0.00092729
     atom   16 type  2   force =     0.00000000   -0.00016941   -0.00092936
     The ionic contribution  to forces
     atom    1 type  1   force =    -0.00000000    0.00000001    0.07742818
     atom    2 type  1   force =     0.00000000    0.00000001    0.07742817
     atom    3 type  2   force =    -0.00000000    0.00000001   -0.07742818
     atom    4 type  2   force =     0.00000000    0.00000000   -0.07742817
     atom    5 type  1   force =    -0.00000000    0.00000001    0.07742818
     atom    6 type  1   force =     0.00000000    0.00000001    0.07742817
     atom    7 type  2   force =    -0.00000000    0.00000001   -0.07742818
     atom    8 type  2   force =     0.00000000    0.00000000   -0.07742817
     atom    9 type  1   force =    -0.00000001   -0.00000000    0.07742817
     atom   10 type  1   force =     0.00000001   -0.00000002    0.07742817
     atom   11 type  2   force =    -0.00000001    0.00000000   -0.07742817
     atom   12 type  2   force =     0.00000001   -0.00000001   -0.07742817
     atom   13 type  1   force =    -0.00000001   -0.00000000    0.07742817
     atom   14 type  1   force =     0.00000001   -0.00000002    0.07742817
     atom   15 type  2   force =    -0.00000001    0.00000000   -0.07742817
     atom   16 type  2   force =     0.00000001   -0.00000001   -0.07742817
     The local contribution  to forces
     atom    1 type  1   force =    -0.00000007   -0.00005669   -0.06941829
     atom    2 type  1   force =     0.00000000    0.00005163   -0.06944911
     atom    3 type  2   force =    -0.00000002   -0.00016535    0.07652168
     atom    4 type  2   force =     0.00000000    0.00016696    0.07653795
     atom    5 type  1   force =    -0.00000007   -0.00006389   -0.06944107
     atom    6 type  1   force =    -0.00000000    0.00005500   -0.06946314
     atom    7 type  2   force =    -0.00000002   -0.00016768    0.07652452
     atom    8 type  2   force =     0.00000000    0.00016672    0.07652370
     atom    9 type  1   force =    -0.00000007   -0.00005803   -0.06942106
     atom   10 type  1   force =     0.00000007    0.00006283   -0.06944896
     atom   11 type  2   force =    -0.00000002   -0.00016846    0.07652121
     atom   12 type  2   force =     0.00000002    0.00016730    0.07653898
     atom   13 type  1   force =    -0.00000007   -0.00005032   -0.06944725
     atom   14 type  1   force =     0.00000007    0.00005962   -0.06945444
     atom   15 type  2   force =    -0.00000002   -0.00016648    0.07652476
     atom   16 type  2   force =     0.00000002    0.00016731    0.07652433
     The core correction contribution to forces
     atom    1 type  1   force =    -0.00000001    0.00000414    0.00111244
     atom    2 type  1   force =    -0.00000000   -0.00000409    0.00111255
     atom    3 type  2   force =     0.00000000   -0.00000190    0.00000601
     atom    4 type  2   force =    -0.00000000    0.00000190    0.00000597
     atom    5 type  1   force =    -0.00000001    0.00000422    0.00111241
     atom    6 type  1   force =    -0.00000000   -0.00000405    0.00111272
     atom    7 type  2   force =     0.00000000   -0.00000191    0.00000599
     atom    8 type  2   force =    -0.00000000    0.00000191    0.00000602
     atom    9 type  1   force =    -0.00000001    0.00000412    0.00111249
     atom   10 type  1   force =     0.00000001   -0.00000417    0.00111253
     atom   11 type  2   force =     0.00000000   -0.00000191    0.00000599
     atom   12 type  2   force =    -0.00000000    0.00000191    0.00000598
     atom   13 type  1   force =    -0.00000001    0.00000405    0.00111249
     atom   14 type  1   force =     0.00000001   -0.00000420    0.00111263
     atom   15 type  2   force =     0.00000000   -0.00000191    0.00000600
     atom   16 type  2   force =    -0.00000000    0.00000191    0.00000602
     The Hubbard contrib.    to forces
     atom    1 type  1   force =     0.00000000    0.00000000    0.00000000
     atom    2 type  1   force =     0.00000000    0.00000000    0.00000000
     atom    3 type  2   force =     0.00000000    0.00000000    0.00000000
     atom    4 type  2   force =     0.00000000    0.00000000    0.00000000
     atom    5 type  1   force =     0.00000000    0.00000000    0.00000000
     atom    6 type  1   force =     0.00000000    0.00000000    0.00000000
     atom    7 type  2   force =     0.00000000    0.00000000    0.00000000
     atom    8 type  2   force =     0.00000000    0.00000000    0.00000000
     atom    9 type  1   force =     0.00000000    0.00000000    0.00000000
     atom   10 type  1   force =     0.00000000    0.00000000    0.00000000
     atom   11 type  2   force =     0.00000000    0.00000000    0.00000000
     atom   12 type  2   force =     0.00000000    0.00000000    0.00000000
     atom   13 type  1   force =     0.00000000    0.00000000    0.00000000
     atom   14 type  1   force =     0.00000000    0.00000000    0.00000000
     atom   15 type  2   force =     0.00000000    0.00000000    0.00000000
     atom   16 type  2   force =     0.00000000    0.00000000    0.00000000
     The SCF correction term to forces
     atom    1 type  1   force =    -0.00000000    0.00000062   -0.00003131
     atom    2 type  1   force =     0.00000000    0.00000802    0.00001354
     atom    3 type  2   force =    -0.00000000   -0.00000058    0.00000585
     atom    4 type  2   force =     0.00000000   -0.00000154   -0.00001671
     atom    5 type  1   force =    -0.00000000    0.00001128   -0.00000286
     atom    6 type  1   force =     0.00000000    0.00000129    0.00003400
     atom    7 type  2   force =    -0.00000000    0.00000259    0.00000025
     atom    8 type  2   force =     0.00000000   -0.00000096    0.00000276
     atom    9 type  1   force =    -0.00000000    0.00000294   -0.00002677
     atom   10 type  1   force =     0.00000000   -0.00001066    0.00001288
     atom   11 type  2   force =    -0.00000000    0.00000297    0.00000545
     atom   12 type  2   force =     0.00000000   -0.00000145   -0.00001748
     atom   13 type  1   force =    -0.00000000   -0.00000924    0.00000875
     atom   14 type  1   force =     0.00000000   -0.00000389    0.00002003
     atom   15 type  2   force =    -0.00000000   -0.00000018    0.00000111
     atom   16 type  2   force =     0.00000000   -0.00000194    0.00000175

     Total force =     0.007296     Total SCF correction =     0.000069

     General routines

     Parallel routines

   This run was terminated on:  19:18: 0  28Aug2025

   JOB DONE.
Note: The following floating-point exceptions are signalling: IEEE_UNDERFLOW_FLAG IEEE_DENORMAL
Note: The following floating-point exceptions are signalling: IEEE_UNDERFLOW_FLAG IEEE_DENORMAL
Note: The following floating-point exceptions are signalling: IEEE_UNDERFLOW_FLAG IEEE_DENORMAL
Note: The following floating-point exceptions are signalling: IEEE_UNDERFLOW_FLAG IEEE_DENORMAL
Note: The following floating-point exceptions are signalling: IEEE_UNDERFLOW_FLAG IEEE_DENORMAL
Note: The following floating-point exceptions are signalling: IEEE_UNDERFLOW_FLAG IEEE_DENORMAL
Note: The following floating-point exceptions are signalling: IEEE_UNDERFLOW_FLAG IEEE_DENORMAL
Note: The following floating-point exceptions are signalling: IEEE_UNDERFLOW_FLAG IEEE_DENORMAL
Note: The following floating-point exceptions are signalling: IEEE_UNDERFLOW_FLAG IEEE_DENORMAL
Note: The following floating-point exceptions are signalling: IEEE_UNDERFLOW_FLAG IEEE_DENORMAL
Note: The following floating-point exceptions are signalling: IEEE_UNDERFLOW_FLAG IEEE_DENORMAL
Note: The following floating-point exceptions are signalling: IEEE_UNDERFLOW_FLAG IEEE_DENORMAL
Note: The following floating-point exceptions are signalling: IEEE_UNDERFLOW_FLAG IEEE_DENORMAL
Note: The following floating-point exceptions are signalling: IEEE_UNDERFLOW_FLAG IEEE_DENORMAL
Note: The following floating-point exceptions are signalling: IEEE_UNDERFLOW_FLAG IEEE_DENORMAL
Note: The following floating-point exceptions are signalling: IEEE_UNDERFLOW_FLAG IEEE_DENORMAL
Note: The following floating-point exceptions are signalling: IEEE_UNDERFLOW_FLAG IEEE_DENORMAL
Note: The following floating-point exceptions are signalling: IEEE_UNDERFLOW_FLAG IEEE_DENORMAL
Note: The following floating-point exceptions are signalling: IEEE_UNDERFLOW_FLAG IEEE_DENORMAL
Note: The following floating-point exceptions are signalling: IEEE_UNDERFLOW_FLAG IEEE_DENORMAL
Note: The following floating-point exceptions are signalling: IEEE_UNDERFLOW_FLAG IEEE_DENORMAL
Note: The following floating-point exceptions are signalling: IEEE_UNDERFLOW_FLAG IEEE_DENORMAL
Note: The following floating-point exceptions are signalling: IEEE_UNDERFLOW_FLAG IEEE_DENORMAL
Note: The following floating-point exceptions are signalling: IEEE_UNDERFLOW_FLAG IEEE_DENORMAL
Note: The following floating-point exceptions are signalling: IEEE_UNDERFLOW_FLAG IEEE_DENORMAL
Note: The following floating-point exceptions are signalling: IEEE_UNDERFLOW_FLAG IEEE_DENORMAL
Note: The following floating-point exceptions are signalling: IEEE_UNDERFLOW_FLAG IEEE_DENORMAL
Note: The following floating-point exceptions are signalling: IEEE_UNDERFLOW_FLAG IEEE_DENORMAL
Note: The following floating-point exceptions are signalling: IEEE_UNDERFLOW_FLAG IEEE_DENORMAL
Note: The following floating-point exceptions are signalling: IEEE_UNDERFLOW_FLAG IEEE_DENORMAL
Note: The following floating-point exceptions are signalling: IEEE_UNDERFLOW_FLAG IEEE_DENORMAL
Note: The following floating-point exceptions are signalling: IEEE_UNDERFLOW_FLAG IEEE_DENORMAL