     Program PWSCF v.7.0 starts on 29Aug2025 at  9:45:15

     K-points division:     npool     =       8
     R & G space division:  proc/nbgrp/npool/nimage =       4

     Reading input from /home/jvc/QEspresso7.2/ZnO_database/scripts/cell122.in/ZnO-3.40-1.61-122.in
Warning: card &CELL ignored
Warning: card / ignored
Warning: card &FCP ignored
Warning: card / ignored
Warning: card &RISM ignored
Warning: card / ignored

     Current dimensions of program PWSCF are:
     Max number of different atomic species (ntypx) = 10
     Max number of k-points (npk) =  40000
     Max angular momentum in pseudopotentials (lmaxx) =  4
     file Zn.upf: wavefunction(s)  3D renormalized
     Found identity + (  0.0000  0.0000  0.5000) symmetry
     This is a supercell, fractional translations are disabled
     Message from routine setup:
     using ibrav=0 with symmetry is DISCOURAGED, use correct ibrav instead

     Using Slab Decomposition

     bravais-lattice index     =            0
     lattice parameter (alat)  =       6.4260  a.u.
     unit-cell volume          =    1483.9333 (a.u.)^3
     number of atoms/cell      =           16
     number of atomic types    =            2
     number of electrons       =       144.00
     number of Kohn-Sham states=           72
     kinetic-energy cutoff     =      50.0000  Ry
     charge density cutoff     =     400.0000  Ry
     scf convergence threshold =      1.0E-08
     mixing beta               =       0.3000
     number of iterations used =            8  plain     mixing
     Exchange-correlation= PBE
                           (   1   4   3   4   0   0   0)

     celldm(1)=   6.426008  celldm(2)=   0.000000  celldm(3)=   0.000000
     celldm(4)=   0.000000  celldm(5)=   0.000000  celldm(6)=   0.000000

     crystal axes: (cart. coord. in units of alat)
               a(1) = (   1.000000   0.000000   0.000000 )
               a(2) = (  -1.000000   1.732051   0.000000 )
               a(3) = (   0.000000   0.000000   3.228717 )

     reciprocal axes: (cart. coord. in units 2 pi/alat)
               b(1) = (  1.000000  0.577350 -0.000000 )
               b(2) = (  0.000000  0.577350  0.000000 )
               b(3) = (  0.000000 -0.000000  0.309721 )

     PseudoPot. # 1 for Zn read from file:
     /home/jvc/QEspresso7.2/ZnO_database/pseudos/Zn.upf
     MD5 check sum: 7f56cabf9682ed8c977c2f7d0c5985c5
     Pseudo is Ultrasoft + core correction, Zval = 12.0
     Generated using &quot;atomic&quot; code by A. Dal Corso  v.6.2.2
     Using radial grid of 1201 points,  6 beta functions with:
                l(1) =   0
                l(2) =   0
                l(3) =   1
                l(4) =   1
                l(5) =   2
                l(6) =   2
     Q(r) pseudized with 0 coefficients

     PseudoPot. # 2 for O  read from file:
     /home/jvc/QEspresso7.2/ZnO_database/pseudos/O.upf
     MD5 check sum: 91400c9766925bcf19f520983a725ff0
     Pseudo is Ultrasoft + core correction, Zval =  6.0
     Generated using &quot;atomic&quot; code by A. Dal Corso  v.6.3MaX
     Using radial grid of 1095 points,  4 beta functions with:
                l(1) =   0
                l(2) =   0
                l(3) =   1
                l(4) =   1
     Q(r) pseudized with 0 coefficients

     atomic species   valence    mass     pseudopotential
        Zn            12.00    65.38000     Zn( 1.00)
        O              6.00    15.99900     O ( 1.00)

      2 Sym. Ops. (no inversion) found

                                    s                        frac. trans.

      isym =  1     identity

 cryst.   s( 1) = (     1          0          0      )
                  (     0          1          0      )
                  (     0          0          1      )

 cart.    s( 1) = (  1.0000000  0.0000000  0.0000000 )
                  (  0.0000000  1.0000000  0.0000000 )
                  (  0.0000000  0.0000000  1.0000000 )

      isym =  2     inv. 180 deg rotation - cart. axis [1,0,0]

 cryst.   s( 2) = (    -1          0          0      )
                  (     2          1          0      )
                  (     0          0          1      )

 cart.    s( 2) = ( -1.0000000  0.0000000  0.0000000 )
                  (  0.0000000  1.0000000  0.0000000 )
                  (  0.0000000  0.0000000  1.0000000 )

   Cartesian axes

     site n.     atom                  positions (alat units)
         1           Zn  tau(   1) = (   0.5000000   0.2886751   0.8082020  )
         2           Zn  tau(   2) = (   0.0000000   0.5773503   0.0010228  )
         3           O   tau(   3) = (   0.5000000   0.2886751   1.4201130  )
         4           O   tau(   4) = (   0.0000000   0.5773503   0.6129338  )
         5           Zn  tau(   5) = (   0.5000000   0.2886751   2.4225604  )
         6           Zn  tau(   6) = (   0.0000000   0.5773503   1.6153812  )
         7           O   tau(   7) = (   0.5000000   0.2886751   3.0344713  )
         8           O   tau(   8) = (   0.0000000   0.5773503   2.2272921  )
         9           Zn  tau(   9) = (   0.0000000   1.1547005   0.8082020  )
        10           Zn  tau(  10) = (  -0.5000000   1.4433757   0.0010228  )
        11           O   tau(  11) = (   0.0000000   1.1547005   1.4201130  )
        12           O   tau(  12) = (  -0.5000000   1.4433757   0.6129338  )
        13           Zn  tau(  13) = (   0.0000000   1.1547005   2.4225604  )
        14           Zn  tau(  14) = (  -0.5000000   1.4433757   1.6153812  )
        15           O   tau(  15) = (   0.0000000   1.1547005   3.0344713  )
        16           O   tau(  16) = (  -0.5000000   1.4433757   2.2272921  )

   Crystallographic axes

     site n.     atom                  positions (cryst. coord.)
         1           Zn  tau(   1) = (  0.6666667  0.1666667  0.2503168  )
         2           Zn  tau(   2) = (  0.3333333  0.3333333  0.0003168  )
         3           O   tau(   3) = (  0.6666667  0.1666667  0.4398382  )
         4           O   tau(   4) = (  0.3333333  0.3333333  0.1898382  )
         5           Zn  tau(   5) = (  0.6666667  0.1666667  0.7503168  )
         6           Zn  tau(   6) = (  0.3333333  0.3333333  0.5003168  )
         7           O   tau(   7) = (  0.6666667  0.1666667  0.9398382  )
         8           O   tau(   8) = (  0.3333333  0.3333333  0.6898382  )
         9           Zn  tau(   9) = (  0.6666667  0.6666667  0.2503168  )
        10           Zn  tau(  10) = (  0.3333333  0.8333333  0.0003168  )
        11           O   tau(  11) = (  0.6666667  0.6666667  0.4398382  )
        12           O   tau(  12) = (  0.3333333  0.8333333  0.1898382  )
        13           Zn  tau(  13) = (  0.6666667  0.6666667  0.7503168  )
        14           Zn  tau(  14) = (  0.3333333  0.8333333  0.5003168  )
        15           O   tau(  15) = (  0.6666667  0.6666667  0.9398382  )
        16           O   tau(  16) = (  0.3333333  0.8333333  0.6898382  )

     number of k points=    80
                       cart. coord. in units 2pi/alat
        k(    1) = (   0.0000000   0.0000000   0.0000000), wk =   0.0092593
        k(    2) = (   0.0000000   0.0000000   0.0516201), wk =   0.0185185
        k(    3) = (   0.0000000   0.0000000   0.1032402), wk =   0.0185185
        k(    4) = (   0.0000000   0.0000000  -0.1548603), wk =   0.0092593
        k(    5) = (   0.0000000   0.0962250   0.0000000), wk =   0.0185185
        k(    6) = (   0.0000000   0.0962250   0.0516201), wk =   0.0185185
        k(    7) = (   0.0000000   0.0962250   0.1032402), wk =   0.0185185
        k(    8) = (   0.0000000   0.0962250  -0.1548603), wk =   0.0185185
        k(    9) = (   0.0000000   0.1924501   0.0000000), wk =   0.0185185
        k(   10) = (   0.0000000   0.1924501   0.0516201), wk =   0.0185185
        k(   11) = (   0.0000000   0.1924501   0.1032402), wk =   0.0185185
        k(   12) = (   0.0000000   0.1924501  -0.1548603), wk =   0.0185185
        k(   13) = (   0.0000000  -0.2886751   0.0000000), wk =   0.0092593
        k(   14) = (   0.0000000  -0.2886751   0.0516201), wk =   0.0185185
        k(   15) = (   0.0000000  -0.2886751   0.1032402), wk =   0.0185185
        k(   16) = (   0.0000000  -0.2886751  -0.1548603), wk =   0.0092593
        k(   17) = (   0.1666667   0.0962250   0.0000000), wk =   0.0370370
        k(   18) = (   0.1666667   0.0962250   0.0516201), wk =   0.0370370
        k(   19) = (   0.1666667   0.0962250   0.1032402), wk =   0.0370370
        k(   20) = (   0.1666667   0.0962250  -0.1548603), wk =   0.0370370
        k(   21) = (   0.1666667   0.1924501   0.0000000), wk =   0.0370370
        k(   22) = (   0.1666667   0.1924501   0.0516201), wk =   0.0370370
        k(   23) = (   0.1666667   0.1924501   0.1032402), wk =   0.0370370
        k(   24) = (   0.1666667   0.1924501  -0.1548603), wk =   0.0370370
        k(   25) = (   0.1666667   0.2886751   0.0000000), wk =   0.0185185
        k(   26) = (   0.1666667   0.2886751   0.0516201), wk =   0.0370370
        k(   27) = (   0.1666667   0.2886751   0.1032402), wk =   0.0370370
        k(   28) = (   0.1666667   0.2886751  -0.1548603), wk =   0.0185185
        k(   29) = (   0.1666667   0.0000000   0.0000000), wk =   0.0185185
        k(   30) = (   0.1666667   0.0000000   0.0516201), wk =   0.0370370
        k(   31) = (   0.1666667   0.0000000   0.1032402), wk =   0.0370370
        k(   32) = (   0.1666667   0.0000000  -0.1548603), wk =   0.0185185
        k(   33) = (   0.3333333   0.1924501   0.0000000), wk =   0.0370370
        k(   34) = (   0.3333333   0.1924501   0.0516201), wk =   0.0370370
        k(   35) = (   0.3333333   0.1924501   0.1032402), wk =   0.0370370
        k(   36) = (   0.3333333   0.1924501  -0.1548603), wk =   0.0370370
        k(   37) = (   0.3333333   0.2886751   0.0000000), wk =   0.0185185
        k(   38) = (   0.3333333   0.2886751   0.0516201), wk =   0.0370370
        k(   39) = (   0.3333333   0.2886751   0.1032402), wk =   0.0370370
        k(   40) = (   0.3333333   0.2886751  -0.1548603), wk =   0.0185185
        k(   41) = (   0.3333333  -0.0962250   0.0000000), wk =   0.0370370
        k(   42) = (   0.3333333  -0.0962250   0.0516201), wk =   0.0370370
        k(   43) = (   0.3333333  -0.0962250   0.1032402), wk =   0.0370370
        k(   44) = (   0.3333333  -0.0962250  -0.1548603), wk =   0.0370370
        k(   45) = (   0.3333333  -0.0000000   0.0000000), wk =   0.0185185
        k(   46) = (   0.3333333  -0.0000000   0.0516201), wk =   0.0370370
        k(   47) = (   0.3333333  -0.0000000   0.1032402), wk =   0.0370370
        k(   48) = (   0.3333333  -0.0000000  -0.1548603), wk =   0.0185185
        k(   49) = (  -0.5000000  -0.2886751   0.0000000), wk =   0.0092593
        k(   50) = (  -0.5000000  -0.2886751   0.0516201), wk =   0.0185185
        k(   51) = (  -0.5000000  -0.2886751   0.1032402), wk =   0.0185185
        k(   52) = (  -0.5000000  -0.2886751  -0.1548603), wk =   0.0092593
        k(   53) = (  -0.5000000  -0.1924501   0.0000000), wk =   0.0185185
        k(   54) = (  -0.5000000  -0.1924501   0.0516201), wk =   0.0185185
        k(   55) = (  -0.5000000  -0.1924501   0.1032402), wk =   0.0185185
[...]
        k(   77) = (   0.5000000  -0.8333333  -0.1666667), wk =   0.0185185
        k(   78) = (   0.5000000  -0.8333333  -0.3333333), wk =   0.0185185
        k(   79) = (   0.5000000  -0.6666667  -0.1666667), wk =   0.0185185
        k(   80) = (   0.5000000  -0.6666667  -0.3333333), wk =   0.0185185

     Check: negative core charge=   -0.000002

     Initial potential from superposition of free atoms

     starting charge     143.9702, renormalised to     144.0000
     Starting wfcs are  104 randomized atomic wfcs

     Self-consistent Calculation

     iteration #  1     ecut=    50.00 Ry     beta= 0.30
     Davidson diagonalization with overlap

     ethr =  1.00E-02,  avg # of iterations =  1.8

     total energy              =   -1445.78784949 Ry
     estimated scf accuracy    <       2.96250034 Ry

[...]

     total energy              =   -1446.48585446 Ry
     estimated scf accuracy    <       0.00000001 Ry

     iteration # 39     ecut=    50.00 Ry     beta= 0.30
     Davidson diagonalization with overlap

     ethr =  9.67E-12,  avg # of iterations =  7.2

     End of self-consistent calculation

          k = 0.0000 0.0000 0.0000 (  8869 PWs)   bands (ev):

   -11.7735 -11.5174 -11.5174 -11.2742 -11.2505 -11.1887 -11.1887 -11.1133
    -0.0082  -0.0082   0.0634   0.0821   0.0821   0.1475   0.1477   0.1748
     0.2032   0.2032   0.2034   0.2034   0.2957   0.2959   0.3352   0.3406
     0.5204   0.5204   0.6120   0.6355   0.6355   0.6393   0.7430   0.7596
     0.9478   0.9479   1.0048   1.0371   1.0371   1.0371   1.0371   1.0717
     1.0882   1.0882   1.0967   1.0967   1.1306   1.1603   1.1603   1.1869
     1.3730   1.7363   1.8007   1.8007   2.1770   2.8845   3.1320   3.1320
     3.4753   4.0686   4.0686   4.1501   4.1501   4.2186   4.6153   4.6414
     4.6418   4.9643   4.9643   4.9648   4.9648   5.2292   5.2788   5.2793

     occupation numbers
     1.0000   1.0000   1.0000   1.0000   1.0000   1.0000   1.0000   1.0000
     1.0000   1.0000   1.0000   1.0000   1.0000   1.0000   1.0000   1.0000
     1.0000   1.0000   1.0000   1.0000   1.0000   1.0000   1.0000   1.0000
     1.0000   1.0000   1.0000   1.0000   1.0000   1.0000   1.0000   1.0000
     1.0000   1.0000   1.0000   1.0000   1.0000   1.0000   1.0000   1.0000
     1.0000   1.0000   1.0000   1.0000   1.0000   1.0000   1.0000   1.0000
     1.0000   1.0000   1.0000   1.0000   1.0000   1.0000   1.0000   1.0000
     1.0000   1.0000   1.0000   1.0000   1.0000   1.0000   1.0000   1.0000
     1.0000   1.0000   1.0000   1.0000   1.0000   1.0000   1.0000   1.0000

[...]

          k =-0.5000-0.2887 0.0000 (  8848 PWs)   bands (ev):

[...]

          k =-0.3333-0.0962-0.1032 (  8861 PWs)   bands (ev):

[...]

          k = 0.5000-0.0962-0.1032 (  8860 PWs)   bands (ev):

   -11.2667 -11.2667 -11.2334 -11.2334 -11.1489 -11.1489 -11.1206 -11.1205
     0.0867   0.0867   0.1194   0.1194   0.1852   0.1852   0.2956   0.2956
     0.3887   0.3887   0.3990   0.3990   0.5433   0.5433   0.5697   0.5697
     0.6170   0.6170   0.6297   0.6297   0.6995   0.6995   0.7206   0.7206
     0.9528   0.9528   1.0085   1.0085   1.0368   1.0368   1.0559   1.0559
     1.1433   1.1433   1.1548   1.1548   1.2459   1.2459   1.2885   1.2885
     1.8094   1.8094   1.8849   1.8849   2.1718   2.1718   2.2917   2.2917
     2.9830   2.9830   3.2611   3.2611   3.3423   3.3423   3.7670   3.7671
     3.9868   3.9869   4.1888   4.1888   4.3589   4.3589   4.4171   4.4171

     occupation numbers
     1.0000   1.0000   1.0000   1.0000   1.0000   1.0000   1.0000   1.0000
     1.0000   1.0000   1.0000   1.0000   1.0000   1.0000   1.0000   1.0000
     1.0000   1.0000   1.0000   1.0000   1.0000   1.0000   1.0000   1.0000
     1.0000   1.0000   1.0000   1.0000   1.0000   1.0000   1.0000   1.0000
     1.0000   1.0000   1.0000   1.0000   1.0000   1.0000   1.0000   1.0000
     1.0000   1.0000   1.0000   1.0000   1.0000   1.0000   1.0000   1.0000
     1.0000   1.0000   1.0000   1.0000   1.0000   1.0000   1.0000   1.0000
     1.0000   1.0000   1.0000   1.0000   1.0000   1.0000   1.0000   1.0000
     1.0000   1.0000   1.0000   1.0000   1.0000   1.0000   1.0000   1.0000

     highest occupied level (ev):     5.2793

!    total energy              =   -1446.48585447 Ry
     estimated scf accuracy    <          9.0E-09 Ry

     The total energy is the sum of the following terms:
     one-electron contribution =    -671.26887799 Ry
     hartree contribution      =     492.27149168 Ry
     xc contribution           =    -437.28227638 Ry
     ewald contribution        =    -830.20619177 Ry

     convergence has been achieved in  39 iterations

     Forces acting on atoms (cartesian axes, Ry/au):

     atom    1 type  1   force =     0.00000000   -0.00000286   -0.00008191
     atom    2 type  1   force =     0.00000000   -0.00000140   -0.00009756
     atom    3 type  2   force =     0.00000000    0.00000307    0.00009484
     atom    4 type  2   force =     0.00000000   -0.00000387    0.00009335
     atom    5 type  1   force =     0.00000000   -0.00000892   -0.00009887
     atom    6 type  1   force =     0.00000000   -0.00000669   -0.00009348
     atom    7 type  2   force =     0.00000000    0.00000338    0.00009217
     atom    8 type  2   force =     0.00000000   -0.00000372    0.00009362
     atom    9 type  1   force =     0.00000000    0.00000057   -0.00008740
     atom   10 type  1   force =     0.00000000    0.00000309   -0.00009957
     atom   11 type  2   force =     0.00000000    0.00000378    0.00009502
     atom   12 type  2   force =     0.00000000   -0.00000347    0.00009332
     atom   13 type  1   force =     0.00000000    0.00000563   -0.00009943
     atom   14 type  1   force =     0.00000000    0.00001123   -0.00008930
     atom   15 type  2   force =     0.00000000    0.00000354    0.00009171
     atom   16 type  2   force =     0.00000000   -0.00000335    0.00009346
     The non-local contrib.  to forces
     atom    1 type  1   force =     0.00000000    0.00000714   -0.00453289
     atom    2 type  1   force =     0.00000000   -0.00001012   -0.00453461
     atom    3 type  2   force =     0.00000000    0.00021536    0.00622611
     atom    4 type  2   force =     0.00000000   -0.00021525    0.00622515
     atom    5 type  1   force =     0.00000000    0.00000530   -0.00453743
     atom    6 type  1   force =     0.00000000   -0.00001207   -0.00453883
     atom    7 type  2   force =     0.00000000    0.00021552    0.00622690
     atom    8 type  2   force =     0.00000000   -0.00021419    0.00622731
     atom    9 type  1   force =     0.00000000    0.00000984   -0.00453476
     atom   10 type  1   force =     0.00000000   -0.00000715   -0.00453564
     atom   11 type  2   force =     0.00000000    0.00021519    0.00622666
     atom   12 type  2   force =     0.00000000   -0.00021536    0.00622576
     atom   13 type  1   force =     0.00000000    0.00001173   -0.00453676
     atom   14 type  1   force =     0.00000000   -0.00000485   -0.00453764
     atom   15 type  2   force =     0.00000000    0.00021435    0.00622666
     atom   16 type  2   force =     0.00000000   -0.00021521    0.00622662
     The ionic contribution  to forces
     atom    1 type  1   force =    -0.00000000    0.00000000    0.05798523
     atom    2 type  1   force =     0.00000000   -0.00000000    0.05798523
     atom    3 type  2   force =    -0.00000000    0.00000000   -0.05798523
     atom    4 type  2   force =     0.00000000   -0.00000000   -0.05798523
     atom    5 type  1   force =    -0.00000000    0.00000000    0.05798523
     atom    6 type  1   force =     0.00000000   -0.00000000    0.05798523
     atom    7 type  2   force =    -0.00000000    0.00000000   -0.05798523
     atom    8 type  2   force =     0.00000000   -0.00000000   -0.05798523
     atom    9 type  1   force =    -0.00000000    0.00000000    0.05798523
     atom   10 type  1   force =     0.00000000   -0.00000000    0.05798523
     atom   11 type  2   force =    -0.00000000    0.00000000   -0.05798523
     atom   12 type  2   force =     0.00000000   -0.00000000   -0.05798523
     atom   13 type  1   force =    -0.00000000    0.00000000    0.05798523
     atom   14 type  1   force =     0.00000000   -0.00000000    0.05798523
     atom   15 type  2   force =    -0.00000000    0.00000000   -0.05798523
     atom   16 type  2   force =     0.00000000   -0.00000000   -0.05798523
     The local contribution  to forces
     atom    1 type  1   force =    -0.00000009   -0.00001457   -0.05390385
     atom    2 type  1   force =     0.00000000    0.00002104   -0.05388578
     atom    3 type  2   force =    -0.00000002   -0.00020752    0.05191937
     atom    4 type  2   force =     0.00000000    0.00021192    0.05191810
     atom    5 type  1   force =    -0.00000009   -0.00000754   -0.05388721
     atom    6 type  1   force =     0.00000000    0.00002942   -0.05389073
     atom    7 type  2   force =    -0.00000002   -0.00020614    0.05192844
     atom    8 type  2   force =     0.00000000    0.00021136    0.05192734
     atom    9 type  1   force =    -0.00000009   -0.00002039   -0.05389550
     atom   10 type  1   force =    -0.00000000    0.00001440   -0.05388394
     atom   11 type  2   force =    -0.00000002   -0.00021112    0.05191910
     atom   12 type  2   force =    -0.00000000    0.00020699    0.05191805
     atom   13 type  1   force =    -0.00000009   -0.00002727   -0.05388720
     atom   14 type  1   force =     0.00000000    0.00000472   -0.05389753
     atom   15 type  2   force =    -0.00000002   -0.00021146    0.05192762
     atom   16 type  2   force =    -0.00000000    0.00020542    0.05192432
     The core correction contribution to forces
     atom    1 type  1   force =    -0.00000005    0.00000621    0.00035120
     atom    2 type  1   force =     0.00000000   -0.00000602    0.00034789
     atom    3 type  2   force =    -0.00000000   -0.00000244   -0.00006982
     atom    4 type  2   force =    -0.00000000    0.00000245   -0.00007030
     atom    5 type  1   force =    -0.00000005    0.00000612    0.00034764
     atom    6 type  1   force =    -0.00000001   -0.00000623    0.00035068
     atom    7 type  2   force =    -0.00000000   -0.00000244   -0.00007182
     atom    8 type  2   force =    -0.00000000    0.00000243   -0.00007131
     atom    9 type  1   force =    -0.00000001    0.00000603    0.00035102
     atom   10 type  1   force =     0.00000004   -0.00000620    0.00034791
     atom   11 type  2   force =     0.00000000   -0.00000244   -0.00006981
     atom   12 type  2   force =     0.00000000    0.00000243   -0.00007032
     atom   13 type  1   force =    -0.00000001    0.00000614    0.00034761
     atom   14 type  1   force =     0.00000004   -0.00000606    0.00035087
     atom   15 type  2   force =     0.00000000   -0.00000243   -0.00007181
     atom   16 type  2   force =     0.00000000    0.00000243   -0.00007133
     The Hubbard contrib.    to forces
     atom    1 type  1   force =     0.00000000    0.00000000    0.00000000
     atom    2 type  1   force =     0.00000000    0.00000000    0.00000000
     atom    3 type  2   force =     0.00000000    0.00000000    0.00000000
     atom    4 type  2   force =     0.00000000    0.00000000    0.00000000
     atom    5 type  1   force =     0.00000000    0.00000000    0.00000000
     atom    6 type  1   force =     0.00000000    0.00000000    0.00000000
     atom    7 type  2   force =     0.00000000    0.00000000    0.00000000
     atom    8 type  2   force =     0.00000000    0.00000000    0.00000000
     atom    9 type  1   force =     0.00000000    0.00000000    0.00000000
     atom   10 type  1   force =     0.00000000    0.00000000    0.00000000
     atom   11 type  2   force =     0.00000000    0.00000000    0.00000000
     atom   12 type  2   force =     0.00000000    0.00000000    0.00000000
     atom   13 type  1   force =     0.00000000    0.00000000    0.00000000
     atom   14 type  1   force =     0.00000000    0.00000000    0.00000000
     atom   15 type  2   force =     0.00000000    0.00000000    0.00000000
     atom   16 type  2   force =     0.00000000    0.00000000    0.00000000
     The SCF correction term to forces
     atom    1 type  1   force =    -0.00000000   -0.00000155    0.00001780
     atom    2 type  1   force =    -0.00000000   -0.00000620   -0.00001090
     atom    3 type  2   force =     0.00000000   -0.00000223    0.00000380
     atom    4 type  2   force =     0.00000000   -0.00000288    0.00000501
     atom    5 type  1   force =    -0.00000000   -0.00001269   -0.00000771
     atom    6 type  1   force =    -0.00000000   -0.00001772   -0.00000043
     atom    7 type  2   force =     0.00000000   -0.00000347   -0.00000673
     atom    8 type  2   force =     0.00000000   -0.00000321   -0.00000510
     atom    9 type  1   force =     0.00000000    0.00000519    0.00000601
     atom   10 type  1   force =     0.00000000    0.00000214   -0.00001373
     atom   11 type  2   force =    -0.00000000    0.00000225    0.00000370
     atom   12 type  2   force =    -0.00000000    0.00000257    0.00000445
     atom   13 type  1   force =     0.00000000    0.00001513   -0.00000892
     atom   14 type  1   force =     0.00000000    0.00001751    0.00000917
     atom   15 type  2   force =    -0.00000000    0.00000318   -0.00000614
     atom   16 type  2   force =    -0.00000000    0.00000410   -0.00000154

     Total force =     0.000375     Total SCF correction =     0.000047
     SCF correction compared to forces is large: reduce conv_thr to get better values

     General routines

     Parallel routines

   This run was terminated on:  10: 3:11  29Aug2025

   JOB DONE.
Note: The following floating-point exceptions are signalling: IEEE_UNDERFLOW_FLAG IEEE_DENORMAL
Note: The following floating-point exceptions are signalling: IEEE_UNDERFLOW_FLAG IEEE_DENORMAL
Note: The following floating-point exceptions are signalling: IEEE_UNDERFLOW_FLAG IEEE_DENORMAL
Note: The following floating-point exceptions are signalling: IEEE_UNDERFLOW_FLAG IEEE_DENORMAL
Note: The following floating-point exceptions are signalling: IEEE_UNDERFLOW_FLAG IEEE_DENORMAL
Note: The following floating-point exceptions are signalling: IEEE_UNDERFLOW_FLAG IEEE_DENORMAL
Note: The following floating-point exceptions are signalling: IEEE_UNDERFLOW_FLAG IEEE_DENORMAL
Note: The following floating-point exceptions are signalling: IEEE_UNDERFLOW_FLAG IEEE_DENORMAL
Note: The following floating-point exceptions are signalling: IEEE_UNDERFLOW_FLAG IEEE_DENORMAL
Note: The following floating-point exceptions are signalling: IEEE_UNDERFLOW_FLAG IEEE_DENORMAL
Note: The following floating-point exceptions are signalling: IEEE_UNDERFLOW_FLAG IEEE_DENORMAL
Note: The following floating-point exceptions are signalling: IEEE_UNDERFLOW_FLAG IEEE_DENORMAL
Note: The following floating-point exceptions are signalling: IEEE_UNDERFLOW_FLAG IEEE_DENORMAL
Note: The following floating-point exceptions are signalling: IEEE_UNDERFLOW_FLAG IEEE_DENORMAL
Note: The following floating-point exceptions are signalling: IEEE_UNDERFLOW_FLAG IEEE_DENORMAL
Note: The following floating-point exceptions are signalling: IEEE_UNDERFLOW_FLAG IEEE_DENORMAL
Note: The following floating-point exceptions are signalling: IEEE_UNDERFLOW_FLAG IEEE_DENORMAL
Note: The following floating-point exceptions are signalling: IEEE_UNDERFLOW_FLAG IEEE_DENORMAL
Note: The following floating-point exceptions are signalling: IEEE_UNDERFLOW_FLAG IEEE_DENORMAL
Note: The following floating-point exceptions are signalling: IEEE_UNDERFLOW_FLAG IEEE_DENORMAL
Note: The following floating-point exceptions are signalling: IEEE_UNDERFLOW_FLAG IEEE_DENORMAL
Note: The following floating-point exceptions are signalling: IEEE_UNDERFLOW_FLAG IEEE_DENORMAL
Note: The following floating-point exceptions are signalling: IEEE_UNDERFLOW_FLAG IEEE_DENORMAL
Note: The following floating-point exceptions are signalling: IEEE_UNDERFLOW_FLAG IEEE_DENORMAL
Note: The following floating-point exceptions are signalling: IEEE_UNDERFLOW_FLAG IEEE_DENORMAL
Note: The following floating-point exceptions are signalling: IEEE_UNDERFLOW_FLAG IEEE_DENORMAL
Note: The following floating-point exceptions are signalling: IEEE_UNDERFLOW_FLAG IEEE_DENORMAL
Note: The following floating-point exceptions are signalling: IEEE_UNDERFLOW_FLAG IEEE_DENORMAL
Note: The following floating-point exceptions are signalling: IEEE_UNDERFLOW_FLAG IEEE_DENORMAL
Note: The following floating-point exceptions are signalling: IEEE_UNDERFLOW_FLAG IEEE_DENORMAL
Note: The following floating-point exceptions are signalling: IEEE_UNDERFLOW_FLAG IEEE_DENORMAL
Note: The following floating-point exceptions are signalling: IEEE_UNDERFLOW_FLAG IEEE_DENORMAL