     Program PWSCF v.7.0 starts on 29Aug2025 at 17:51:36

     K-points division:     npool     =       8
     R & G space division:  proc/nbgrp/npool/nimage =       4

     Reading input from /home/jvc/QEspresso7.2/ZnO_database/scripts/cell122.in/ZnO-3.60-1.45-122.in
Warning: card &CELL ignored
Warning: card / ignored
Warning: card &FCP ignored
Warning: card / ignored
Warning: card &RISM ignored
Warning: card / ignored

     Current dimensions of program PWSCF are:
     Max number of different atomic species (ntypx) = 10
     Max number of k-points (npk) =  40000
     Max angular momentum in pseudopotentials (lmaxx) =  4
     file Zn.upf: wavefunction(s)  3D renormalized
     Found identity + (  0.0000  0.0000 -0.5000) symmetry
     This is a supercell, fractional translations are disabled
     Message from routine setup:
     using ibrav=0 with symmetry is DISCOURAGED, use correct ibrav instead

     Using Slab Decomposition

     bravais-lattice index     =            0
     lattice parameter (alat)  =       6.7967  a.u.
     unit-cell volume          =    1580.2832 (a.u.)^3
     number of atoms/cell      =           16
     number of atomic types    =            2
     number of electrons       =       144.00
     number of Kohn-Sham states=           72
     kinetic-energy cutoff     =      50.0000  Ry
     charge density cutoff     =     400.0000  Ry
     scf convergence threshold =      1.0E-08
     mixing beta               =       0.3000
     number of iterations used =            8  plain     mixing
     Exchange-correlation= PBE
                           (   1   4   3   4   0   0   0)

     celldm(1)=   6.796739  celldm(2)=   0.000000  celldm(3)=   0.000000
     celldm(4)=   0.000000  celldm(5)=   0.000000  celldm(6)=   0.000000

     crystal axes: (cart. coord. in units of alat)
               a(1) = (   1.000000   0.000000   0.000000 )
               a(2) = (  -1.000000   1.732051   0.000000 )
               a(3) = (   0.000000   0.000000   2.905845 )

     reciprocal axes: (cart. coord. in units 2 pi/alat)
               b(1) = (  1.000000  0.577350 -0.000000 )
               b(2) = (  0.000000  0.577350  0.000000 )
               b(3) = (  0.000000 -0.000000  0.344134 )

     PseudoPot. # 1 for Zn read from file:
     /home/jvc/QEspresso7.2/ZnO_database/pseudos/Zn.upf
     MD5 check sum: 7f56cabf9682ed8c977c2f7d0c5985c5
     Pseudo is Ultrasoft + core correction, Zval = 12.0
     Generated using &quot;atomic&quot; code by A. Dal Corso  v.6.2.2
     Using radial grid of 1201 points,  6 beta functions with:
                l(1) =   0
                l(2) =   0
                l(3) =   1
                l(4) =   1
                l(5) =   2
                l(6) =   2
     Q(r) pseudized with 0 coefficients

     PseudoPot. # 2 for O  read from file:
     /home/jvc/QEspresso7.2/ZnO_database/pseudos/O.upf
     MD5 check sum: 91400c9766925bcf19f520983a725ff0
     Pseudo is Ultrasoft + core correction, Zval =  6.0
     Generated using &quot;atomic&quot; code by A. Dal Corso  v.6.3MaX
     Using radial grid of 1095 points,  4 beta functions with:
                l(1) =   0
                l(2) =   0
                l(3) =   1
                l(4) =   1
     Q(r) pseudized with 0 coefficients

     atomic species   valence    mass     pseudopotential
        Zn            12.00    65.38000     Zn( 1.00)
        O              6.00    15.99900     O ( 1.00)

      2 Sym. Ops. (no inversion) found

                                    s                        frac. trans.

      isym =  1     identity

 cryst.   s( 1) = (     1          0          0      )
                  (     0          1          0      )
                  (     0          0          1      )

 cart.    s( 1) = (  1.0000000  0.0000000  0.0000000 )
                  (  0.0000000  1.0000000  0.0000000 )
                  (  0.0000000  0.0000000  1.0000000 )

      isym =  2     inv. 180 deg rotation - cart. axis [1,0,0]

 cryst.   s( 2) = (    -1          0          0      )
                  (     2          1          0      )
                  (     0          0          1      )

 cart.    s( 2) = ( -1.0000000  0.0000000  0.0000000 )
                  (  0.0000000  1.0000000  0.0000000 )
                  (  0.0000000  0.0000000  1.0000000 )

   Cartesian axes

     site n.     atom                  positions (alat units)
         1           Zn  tau(   1) = (   0.5000000   0.2886751   0.7273818  )
         2           Zn  tau(   2) = (   0.0000000   0.5773503   0.0009206  )
         3           O   tau(   3) = (   0.5000000   0.2886751   1.2781017  )
         4           O   tau(   4) = (   0.0000000   0.5773503   0.5516404  )
         5           Zn  tau(   5) = (   0.5000000   0.2886751   2.1803043  )
         6           Zn  tau(   6) = (   0.0000000   0.5773503   1.4538431  )
         7           O   tau(   7) = (   0.5000000   0.2886751   2.7310242  )
         8           O   tau(   8) = (   0.0000000   0.5773503   2.0045629  )
         9           Zn  tau(   9) = (   0.0000000   1.1547005   0.7273818  )
        10           Zn  tau(  10) = (  -0.5000000   1.4433757   0.0009206  )
        11           O   tau(  11) = (   0.0000000   1.1547005   1.2781017  )
        12           O   tau(  12) = (  -0.5000000   1.4433757   0.5516404  )
        13           Zn  tau(  13) = (   0.0000000   1.1547005   2.1803043  )
        14           Zn  tau(  14) = (  -0.5000000   1.4433757   1.4538431  )
        15           O   tau(  15) = (   0.0000000   1.1547005   2.7310242  )
        16           O   tau(  16) = (  -0.5000000   1.4433757   2.0045629  )

   Crystallographic axes

     site n.     atom                  positions (cryst. coord.)
         1           Zn  tau(   1) = (  0.6666667  0.1666667  0.2503168  )
         2           Zn  tau(   2) = (  0.3333333  0.3333333  0.0003168  )
         3           O   tau(   3) = (  0.6666667  0.1666667  0.4398382  )
         4           O   tau(   4) = (  0.3333333  0.3333333  0.1898382  )
         5           Zn  tau(   5) = (  0.6666667  0.1666667  0.7503168  )
         6           Zn  tau(   6) = (  0.3333333  0.3333333  0.5003168  )
         7           O   tau(   7) = (  0.6666667  0.1666667  0.9398382  )
         8           O   tau(   8) = (  0.3333333  0.3333333  0.6898382  )
         9           Zn  tau(   9) = (  0.6666667  0.6666667  0.2503168  )
        10           Zn  tau(  10) = (  0.3333333  0.8333333  0.0003168  )
        11           O   tau(  11) = (  0.6666667  0.6666667  0.4398382  )
        12           O   tau(  12) = (  0.3333333  0.8333333  0.1898382  )
        13           Zn  tau(  13) = (  0.6666667  0.6666667  0.7503168  )
        14           Zn  tau(  14) = (  0.3333333  0.8333333  0.5003168  )
        15           O   tau(  15) = (  0.6666667  0.6666667  0.9398382  )
        16           O   tau(  16) = (  0.3333333  0.8333333  0.6898382  )

     number of k points=    80
                       cart. coord. in units 2pi/alat
        k(    1) = (   0.0000000   0.0000000   0.0000000), wk =   0.0092593
        k(    2) = (   0.0000000   0.0000000   0.0573557), wk =   0.0185185
        k(    3) = (   0.0000000   0.0000000   0.1147113), wk =   0.0185185
        k(    4) = (   0.0000000   0.0000000  -0.1720670), wk =   0.0092593
        k(    5) = (   0.0000000   0.0962250   0.0000000), wk =   0.0185185
        k(    6) = (   0.0000000   0.0962250   0.0573557), wk =   0.0185185
        k(    7) = (   0.0000000   0.0962250   0.1147113), wk =   0.0185185
        k(    8) = (   0.0000000   0.0962250  -0.1720670), wk =   0.0185185
        k(    9) = (   0.0000000   0.1924501   0.0000000), wk =   0.0185185
        k(   10) = (   0.0000000   0.1924501   0.0573557), wk =   0.0185185
        k(   11) = (   0.0000000   0.1924501   0.1147113), wk =   0.0185185
        k(   12) = (   0.0000000   0.1924501  -0.1720670), wk =   0.0185185
        k(   13) = (   0.0000000  -0.2886751   0.0000000), wk =   0.0092593
        k(   14) = (   0.0000000  -0.2886751   0.0573557), wk =   0.0185185
        k(   15) = (   0.0000000  -0.2886751   0.1147113), wk =   0.0185185
        k(   16) = (   0.0000000  -0.2886751  -0.1720670), wk =   0.0092593
        k(   17) = (   0.1666667   0.0962250   0.0000000), wk =   0.0370370
        k(   18) = (   0.1666667   0.0962250   0.0573557), wk =   0.0370370
        k(   19) = (   0.1666667   0.0962250   0.1147113), wk =   0.0370370
        k(   20) = (   0.1666667   0.0962250  -0.1720670), wk =   0.0370370
        k(   21) = (   0.1666667   0.1924501   0.0000000), wk =   0.0370370
        k(   22) = (   0.1666667   0.1924501   0.0573557), wk =   0.0370370
        k(   23) = (   0.1666667   0.1924501   0.1147113), wk =   0.0370370
        k(   24) = (   0.1666667   0.1924501  -0.1720670), wk =   0.0370370
        k(   25) = (   0.1666667   0.2886751   0.0000000), wk =   0.0185185
        k(   26) = (   0.1666667   0.2886751   0.0573557), wk =   0.0370370
        k(   27) = (   0.1666667   0.2886751   0.1147113), wk =   0.0370370
        k(   28) = (   0.1666667   0.2886751  -0.1720670), wk =   0.0185185
        k(   29) = (   0.1666667   0.0000000   0.0000000), wk =   0.0185185
        k(   30) = (   0.1666667   0.0000000   0.0573557), wk =   0.0370370
        k(   31) = (   0.1666667   0.0000000   0.1147113), wk =   0.0370370
        k(   32) = (   0.1666667   0.0000000  -0.1720670), wk =   0.0185185
        k(   33) = (   0.3333333   0.1924501   0.0000000), wk =   0.0370370
        k(   34) = (   0.3333333   0.1924501   0.0573557), wk =   0.0370370
        k(   35) = (   0.3333333   0.1924501   0.1147113), wk =   0.0370370
        k(   36) = (   0.3333333   0.1924501  -0.1720670), wk =   0.0370370
        k(   37) = (   0.3333333   0.2886751   0.0000000), wk =   0.0185185
        k(   38) = (   0.3333333   0.2886751   0.0573557), wk =   0.0370370
        k(   39) = (   0.3333333   0.2886751   0.1147113), wk =   0.0370370
        k(   40) = (   0.3333333   0.2886751  -0.1720670), wk =   0.0185185
        k(   41) = (   0.3333333  -0.0962250   0.0000000), wk =   0.0370370
        k(   42) = (   0.3333333  -0.0962250   0.0573557), wk =   0.0370370
        k(   43) = (   0.3333333  -0.0962250   0.1147113), wk =   0.0370370
        k(   44) = (   0.3333333  -0.0962250  -0.1720670), wk =   0.0370370
        k(   45) = (   0.3333333  -0.0000000   0.0000000), wk =   0.0185185
        k(   46) = (   0.3333333  -0.0000000   0.0573557), wk =   0.0370370
        k(   47) = (   0.3333333  -0.0000000   0.1147113), wk =   0.0370370
        k(   48) = (   0.3333333  -0.0000000  -0.1720670), wk =   0.0185185
        k(   49) = (  -0.5000000  -0.2886751   0.0000000), wk =   0.0092593
        k(   50) = (  -0.5000000  -0.2886751   0.0573557), wk =   0.0185185
        k(   51) = (  -0.5000000  -0.2886751   0.1147113), wk =   0.0185185
        k(   52) = (  -0.5000000  -0.2886751  -0.1720670), wk =   0.0092593
        k(   53) = (  -0.5000000  -0.1924501   0.0000000), wk =   0.0185185
        k(   54) = (  -0.5000000  -0.1924501   0.0573557), wk =   0.0185185
        k(   55) = (  -0.5000000  -0.1924501   0.1147113), wk =   0.0185185
[...]

     Initial potential from superposition of free atoms

     starting charge     143.9702, renormalised to     144.0000
     Starting wfcs are  104 randomized atomic wfcs

     Self-consistent Calculation

     iteration #  1     ecut=    50.00 Ry     beta= 0.30
     Davidson diagonalization with overlap

     ethr =  1.00E-02,  avg # of iterations =  1.7

     total energy              =   -1445.60289939 Ry
     estimated scf accuracy    <       3.15684607 Ry

[...]

     c_bands:  1 eigenvalues not converged
     c_bands:  1 eigenvalues not converged
     c_bands:  1 eigenvalues not converged
     c_bands:  1 eigenvalues not converged
     ethr =  2.72E-07,  avg # of iterations = 12.8

[...]

     c_bands:  1 eigenvalues not converged
     c_bands:  1 eigenvalues not converged
     c_bands:  1 eigenvalues not converged
     ethr =  2.72E-07,  avg # of iterations = 14.8

[...]

     total energy              =   -1446.35564153 Ry
     estimated scf accuracy    <       0.00000045 Ry

     iteration # 32     ecut=    50.00 Ry     beta= 0.30
     Davidson diagonalization with overlap

     ethr =  3.15E-10,  avg # of iterations =  5.7

     End of self-consistent calculation

          k = 0.0000 0.0000 0.0000 (  9449 PWs)   bands (ev):

   -12.1926 -11.9121 -11.9121 -11.7922 -11.6931 -11.6931 -11.6290 -11.6146
    -0.6196  -0.6196  -0.5810  -0.5810  -0.5147  -0.4681  -0.4340  -0.4339
    -0.3870  -0.3870  -0.3869  -0.3869  -0.3222  -0.2620  -0.2619  -0.1416
    -0.1416  -0.1338  -0.1186  -0.1186  -0.0864   0.0057   0.0893   0.1598
     0.1598   0.2226   0.2761   0.2785   0.2785   0.2785   0.2785   0.2972
     0.2972   0.3342   0.3342   0.3682   0.3712   0.3712   0.3869   0.4022
     0.5049   1.1658   1.2566   1.2566   1.7966   2.2740   2.5542   2.5542
     2.6390   3.3633   3.3634   3.5579   3.6665   3.6669   3.7176   3.7176
     4.0103   4.0788   4.0789   4.0793   4.0793   4.4623   4.4627   4.5163

     occupation numbers
     1.0000   1.0000   1.0000   1.0000   1.0000   1.0000   1.0000   1.0000
     1.0000   1.0000   1.0000   1.0000   1.0000   1.0000   1.0000   1.0000
     1.0000   1.0000   1.0000   1.0000   1.0000   1.0000   1.0000   1.0000
     1.0000   1.0000   1.0000   1.0000   1.0000   1.0000   1.0000   1.0000
     1.0000   1.0000   1.0000   1.0000   1.0000   1.0000   1.0000   1.0000
     1.0000   1.0000   1.0000   1.0000   1.0000   1.0000   1.0000   1.0000
     1.0000   1.0000   1.0000   1.0000   1.0000   1.0000   1.0000   1.0000
     1.0000   1.0000   1.0000   1.0000   1.0000   1.0000   1.0000   1.0000
     1.0000   1.0000   1.0000   1.0000   1.0000   1.0000   1.0000   1.0000

[...]

          k =-0.5000-0.2887 0.0000 (  9388 PWs)   bands (ev):

[...]

          k =-0.3333-0.0962-0.1147 (  9429 PWs)   bands (ev):

[...]

          k = 0.5000-0.0962-0.1147 (  9432 PWs)   bands (ev):

   -11.7811 -11.7810 -11.7424 -11.7423 -11.6502 -11.6500 -11.6217 -11.6216
    -0.5505  -0.5505  -0.4837  -0.4837  -0.4575  -0.4575  -0.3575  -0.3575
    -0.2771  -0.2770  -0.2351  -0.2351  -0.1552  -0.1552  -0.1301  -0.1301
    -0.0839  -0.0839  -0.0330  -0.0330   0.0027   0.0027   0.0845   0.0845
     0.2060   0.2060   0.2410   0.2410   0.2599   0.2599   0.2711   0.2711
     0.3644   0.3644   0.3750   0.3750   0.4374   0.4374   0.4608   0.4608
     1.2431   1.2431   1.2869   1.2869   1.5735   1.5735   1.7282   1.7282
     2.3067   2.3068   2.5915   2.5916   2.7906   2.7906   3.3256   3.3257
     3.4138   3.4138   3.6557   3.6557   3.7437   3.7438   3.9287   3.9287

     occupation numbers
     1.0000   1.0000   1.0000   1.0000   1.0000   1.0000   1.0000   1.0000
     1.0000   1.0000   1.0000   1.0000   1.0000   1.0000   1.0000   1.0000
     1.0000   1.0000   1.0000   1.0000   1.0000   1.0000   1.0000   1.0000
     1.0000   1.0000   1.0000   1.0000   1.0000   1.0000   1.0000   1.0000
     1.0000   1.0000   1.0000   1.0000   1.0000   1.0000   1.0000   1.0000
     1.0000   1.0000   1.0000   1.0000   1.0000   1.0000   1.0000   1.0000
     1.0000   1.0000   1.0000   1.0000   1.0000   1.0000   1.0000   1.0000
     1.0000   1.0000   1.0000   1.0000   1.0000   1.0000   1.0000   1.0000
     1.0000   1.0000   1.0000   1.0000   1.0000   1.0000   1.0000   1.0000

     highest occupied level (ev):     4.5163

!    total energy              =   -1446.35564166 Ry
     estimated scf accuracy    <          5.9E-09 Ry

     The total energy is the sum of the following terms:
     one-electron contribution =    -704.71858390 Ry
     hartree contribution      =     505.29857647 Ry
     xc contribution           =    -436.90414179 Ry
     ewald contribution        =    -810.03149244 Ry

     convergence has been achieved in  32 iterations

     Forces acting on atoms (cartesian axes, Ry/au):

     atom    1 type  1   force =     0.00000000    0.00000526   -0.01343363
     atom    2 type  1   force =     0.00000000    0.00002337   -0.01335923
     atom    3 type  2   force =     0.00000000    0.00000268    0.01340222
     atom    4 type  2   force =     0.00000000    0.00000044    0.01339874
     atom    5 type  1   force =     0.00000000    0.00000543   -0.01339294
     atom    6 type  1   force =     0.00000000    0.00001278   -0.01343995
     atom    7 type  2   force =     0.00000000    0.00000281    0.01340604
     atom    8 type  2   force =     0.00000000   -0.00000004    0.01340995
     atom    9 type  1   force =     0.00000000   -0.00001134   -0.01343316
     atom   10 type  1   force =     0.00000000   -0.00002184   -0.01336025
     atom   11 type  2   force =     0.00000000    0.00000222    0.01340158
     atom   12 type  2   force =     0.00000000   -0.00000027    0.01339962
     atom   13 type  1   force =     0.00000000   -0.00001520   -0.01336927
     atom   14 type  1   force =     0.00000000   -0.00000687   -0.01344502
     atom   15 type  2   force =     0.00000000    0.00000112    0.01340558
     atom   16 type  2   force =     0.00000000   -0.00000057    0.01340971
     The non-local contrib.  to forces
     atom    1 type  1   force =     0.00000000   -0.00000778   -0.28585824
     atom    2 type  1   force =     0.00000000    0.00002391   -0.28582276
     atom    3 type  2   force =     0.00000000    0.00019172   -0.25021928
     atom    4 type  2   force =     0.00000000   -0.00019718   -0.25023453
     atom    5 type  1   force =     0.00000000   -0.00000864   -0.28583554
     atom    6 type  1   force =     0.00000000    0.00001826   -0.28586092
     atom    7 type  2   force =     0.00000000    0.00019239   -0.25024676
     atom    8 type  2   force =     0.00000000   -0.00019549   -0.25023248
     atom    9 type  1   force =     0.00000000   -0.00001819   -0.28586231
     atom   10 type  1   force =     0.00000000    0.00000210   -0.28582031
     atom   11 type  2   force =     0.00000000    0.00019448   -0.25022564
     atom   12 type  2   force =     0.00000000   -0.00018677   -0.25023125
     atom   13 type  1   force =     0.00000000   -0.00001947   -0.28583002
     atom   14 type  1   force =     0.00000000    0.00000776   -0.28586412
     atom   15 type  2   force =     0.00000000    0.00019330   -0.25024709
     atom   16 type  2   force =     0.00000000   -0.00019315   -0.25023196
     The ionic contribution  to forces
     atom    1 type  1   force =    -0.00000000    0.00000002   -1.86792559
     atom    2 type  1   force =     0.00000000    0.00000001   -1.86792560
     atom    3 type  2   force =    -0.00000000    0.00000001    1.86792559
     atom    4 type  2   force =     0.00000000    0.00000001    1.86792560
     atom    5 type  1   force =    -0.00000000    0.00000002   -1.86792559
     atom    6 type  1   force =     0.00000000    0.00000001   -1.86792560
     atom    7 type  2   force =    -0.00000000    0.00000001    1.86792559
     atom    8 type  2   force =     0.00000000    0.00000001    1.86792560
     atom    9 type  1   force =    -0.00000000   -0.00000001   -1.86792560
     atom   10 type  1   force =     0.00000000   -0.00000002   -1.86792559
     atom   11 type  2   force =    -0.00000000   -0.00000001    1.86792560
     atom   12 type  2   force =     0.00000000   -0.00000001    1.86792559
     atom   13 type  1   force =    -0.00000000   -0.00000001   -1.86792560
     atom   14 type  1   force =     0.00000000   -0.00000002   -1.86792559
     atom   15 type  2   force =    -0.00000000   -0.00000001    1.86792560
     atom   16 type  2   force =     0.00000000   -0.00000001    1.86792559
     The local contribution  to forces
     atom    1 type  1   force =    -0.00000010   -0.00000484    2.12201088
     atom    2 type  1   force =    -0.00000000   -0.00004057    2.12191065
     atom    3 type  2   force =    -0.00000003   -0.00019316   -1.60634595
     atom    4 type  2   force =    -0.00000000    0.00018106   -1.60635817
     atom    5 type  1   force =    -0.00000010   -0.00000910    2.12196690
     atom    6 type  1   force =     0.00000000   -0.00002328    2.12203131
     atom    7 type  2   force =    -0.00000003   -0.00019905   -1.60639999
     atom    8 type  2   force =    -0.00000000    0.00018673   -1.60637339
     atom    9 type  1   force =    -0.00000000    0.00002077    2.12201091
     atom   10 type  1   force =     0.00000010    0.00002848    2.12191148
     atom   11 type  2   force =     0.00000000   -0.00018808   -1.60633829
     atom   12 type  2   force =     0.00000003    0.00019484   -1.60635875
     atom   13 type  1   force =     0.00000000    0.00002792    2.12193598
     atom   14 type  1   force =     0.00000010    0.00000914    2.12204777
     atom   15 type  2   force =     0.00000000   -0.00018225   -1.60640475
     atom   16 type  2   force =     0.00000003    0.00019615   -1.60637241
     The core correction contribution to forces
     atom    1 type  1   force =    -0.00000001    0.00000388    0.01838915
     atom    2 type  1   force =    -0.00000000   -0.00000316    0.01838917
     atom    3 type  2   force =     0.00000000   -0.00000218    0.00208989
     atom    4 type  2   force =     0.00000000    0.00000223    0.00209251
     atom    5 type  1   force =    -0.00000001    0.00000435    0.01838605
     atom    6 type  1   force =    -0.00000000   -0.00000350    0.01838650
     atom    7 type  2   force =     0.00000000   -0.00000220    0.00209010
     atom    8 type  2   force =     0.00000000    0.00000222    0.00208752
     atom    9 type  1   force =     0.00000000    0.00000378    0.01838955
     atom   10 type  1   force =     0.00000001   -0.00000433    0.01838884
     atom   11 type  2   force =    -0.00000000   -0.00000222    0.00208998
     atom   12 type  2   force =    -0.00000000    0.00000211    0.00209247
     atom   13 type  1   force =     0.00000000    0.00000348    0.01838684
     atom   14 type  1   force =     0.00000001   -0.00000409    0.01838590
     atom   15 type  2   force =    -0.00000000   -0.00000219    0.00209010
     atom   16 type  2   force =    -0.00000000    0.00000221    0.00208752
     The Hubbard contrib.    to forces
     atom    1 type  1   force =     0.00000000    0.00000000    0.00000000
     atom    2 type  1   force =     0.00000000    0.00000000    0.00000000
     atom    3 type  2   force =     0.00000000    0.00000000    0.00000000
     atom    4 type  2   force =     0.00000000    0.00000000    0.00000000
     atom    5 type  1   force =     0.00000000    0.00000000    0.00000000
     atom    6 type  1   force =     0.00000000    0.00000000    0.00000000
     atom    7 type  2   force =     0.00000000    0.00000000    0.00000000
     atom    8 type  2   force =     0.00000000    0.00000000    0.00000000
     atom    9 type  1   force =     0.00000000    0.00000000    0.00000000
     atom   10 type  1   force =     0.00000000    0.00000000    0.00000000
     atom   11 type  2   force =     0.00000000    0.00000000    0.00000000
     atom   12 type  2   force =     0.00000000    0.00000000    0.00000000
     atom   13 type  1   force =     0.00000000    0.00000000    0.00000000
     atom   14 type  1   force =     0.00000000    0.00000000    0.00000000
     atom   15 type  2   force =     0.00000000    0.00000000    0.00000000
     atom   16 type  2   force =     0.00000000    0.00000000    0.00000000
     The SCF correction term to forces
     atom    1 type  1   force =    -0.00000000    0.00001273   -0.00004647
     atom    2 type  1   force =     0.00000000    0.00004193    0.00009266
     atom    3 type  2   force =    -0.00000000    0.00000504   -0.00004468
     atom    4 type  2   force =     0.00000000    0.00001306   -0.00002331
     atom    5 type  1   force =    -0.00000000    0.00001755    0.00001859
     atom    6 type  1   force =     0.00000000    0.00002003   -0.00006788
     atom    7 type  2   force =    -0.00000000    0.00001041    0.00004046
     atom    8 type  2   force =     0.00000000    0.00000523    0.00000606
     atom    9 type  1   force =    -0.00000000   -0.00001894   -0.00004235
     atom   10 type  1   force =     0.00000000   -0.00004933    0.00008869
     atom   11 type  2   force =    -0.00000000   -0.00000321   -0.00004669
     atom   12 type  2   force =     0.00000000   -0.00001169   -0.00002508
     atom   13 type  1   force =    -0.00000000   -0.00002837    0.00006689
     atom   14 type  1   force =     0.00000000   -0.00002091   -0.00008562
     atom   15 type  2   force =    -0.00000000   -0.00000898    0.00004509
     atom   16 type  2   force =     0.00000000   -0.00000702    0.00000432

     Total force =     0.053617     Total SCF correction =     0.000231

     General routines

     Parallel routines

   This run was terminated on:  18: 6:29  29Aug2025

   JOB DONE.
Note: The following floating-point exceptions are signalling: IEEE_UNDERFLOW_FLAG IEEE_DENORMAL
Note: The following floating-point exceptions are signalling: IEEE_UNDERFLOW_FLAG IEEE_DENORMAL
Note: The following floating-point exceptions are signalling: IEEE_UNDERFLOW_FLAG IEEE_DENORMAL
Note: The following floating-point exceptions are signalling: IEEE_UNDERFLOW_FLAG IEEE_DENORMAL
Note: The following floating-point exceptions are signalling: IEEE_UNDERFLOW_FLAG IEEE_DENORMAL
Note: The following floating-point exceptions are signalling: IEEE_UNDERFLOW_FLAG IEEE_DENORMAL
Note: The following floating-point exceptions are signalling: IEEE_UNDERFLOW_FLAG IEEE_DENORMAL
Note: The following floating-point exceptions are signalling: IEEE_UNDERFLOW_FLAG IEEE_DENORMAL
Note: The following floating-point exceptions are signalling: IEEE_UNDERFLOW_FLAG IEEE_DENORMAL
Note: The following floating-point exceptions are signalling: IEEE_UNDERFLOW_FLAG IEEE_DENORMAL
Note: The following floating-point exceptions are signalling: IEEE_UNDERFLOW_FLAG IEEE_DENORMAL
Note: The following floating-point exceptions are signalling: IEEE_UNDERFLOW_FLAG IEEE_DENORMAL
Note: The following floating-point exceptions are signalling: IEEE_UNDERFLOW_FLAG IEEE_DENORMAL
Note: The following floating-point exceptions are signalling: IEEE_UNDERFLOW_FLAG IEEE_DENORMAL
Note: The following floating-point exceptions are signalling: IEEE_UNDERFLOW_FLAG IEEE_DENORMAL
Note: The following floating-point exceptions are signalling: IEEE_UNDERFLOW_FLAG IEEE_DENORMAL
Note: The following floating-point exceptions are signalling: IEEE_UNDERFLOW_FLAG IEEE_DENORMAL
Note: The following floating-point exceptions are signalling: IEEE_UNDERFLOW_FLAG IEEE_DENORMAL
Note: The following floating-point exceptions are signalling: IEEE_UNDERFLOW_FLAG IEEE_DENORMAL
Note: The following floating-point exceptions are signalling: IEEE_UNDERFLOW_FLAG IEEE_DENORMAL
Note: The following floating-point exceptions are signalling: IEEE_UNDERFLOW_FLAG IEEE_DENORMAL
Note: The following floating-point exceptions are signalling: IEEE_UNDERFLOW_FLAG IEEE_DENORMAL
Note: The following floating-point exceptions are signalling: IEEE_UNDERFLOW_FLAG IEEE_DENORMAL
Note: The following floating-point exceptions are signalling: IEEE_UNDERFLOW_FLAG IEEE_DENORMAL
Note: The following floating-point exceptions are signalling: IEEE_UNDERFLOW_FLAG IEEE_DENORMAL
Note: The following floating-point exceptions are signalling: IEEE_UNDERFLOW_FLAG IEEE_DENORMAL
Note: The following floating-point exceptions are signalling: IEEE_UNDERFLOW_FLAG IEEE_DENORMAL
Note: The following floating-point exceptions are signalling: IEEE_UNDERFLOW_FLAG IEEE_DENORMAL
Note: The following floating-point exceptions are signalling: IEEE_UNDERFLOW_FLAG IEEE_DENORMAL
Note: The following floating-point exceptions are signalling: IEEE_UNDERFLOW_FLAG IEEE_DENORMAL
Note: The following floating-point exceptions are signalling: IEEE_UNDERFLOW_FLAG IEEE_DENORMAL
Note: The following floating-point exceptions are signalling: IEEE_UNDERFLOW_FLAG IEEE_DENORMAL