     Program PWSCF v.7.0 starts on 28Aug2025 at 18:35:29

     K-points division:     npool     =       8
     R & G space division:  proc/nbgrp/npool/nimage =       4

     Reading input from /home/jvc/QEspresso7.2/ZnO_database/scripts/cell122.in/ZnO-2.94-1.45-122.in
Warning: card &CELL ignored
Warning: card / ignored
Warning: card &FCP ignored
Warning: card / ignored
Warning: card &RISM ignored
Warning: card / ignored

     Current dimensions of program PWSCF are:
     Max number of different atomic species (ntypx) = 10
     Max number of k-points (npk) =  40000
     Max angular momentum in pseudopotentials (lmaxx) =  4
     file Zn.upf: wavefunction(s)  3D renormalized
     Found identity + (  0.0000  0.0000 -0.5000) symmetry
     This is a supercell, fractional translations are disabled
     Message from routine setup:
     using ibrav=0 with symmetry is DISCOURAGED, use correct ibrav instead

     Using Slab Decomposition

     bravais-lattice index     =            0
     lattice parameter (alat)  =       5.5610  a.u.
     unit-cell volume          =     865.5345 (a.u.)^3
     number of atoms/cell      =           16
     number of atomic types    =            2
     number of electrons       =       144.00
     number of Kohn-Sham states=           72
     kinetic-energy cutoff     =      50.0000  Ry
     charge density cutoff     =     400.0000  Ry
     scf convergence threshold =      1.0E-08
     mixing beta               =       0.3000
     number of iterations used =            8  plain     mixing
     Exchange-correlation= PBE
                           (   1   4   3   4   0   0   0)

     celldm(1)=   5.560969  celldm(2)=   0.000000  celldm(3)=   0.000000
     celldm(4)=   0.000000  celldm(5)=   0.000000  celldm(6)=   0.000000

     crystal axes: (cart. coord. in units of alat)
               a(1) = (   1.000000   0.000000   0.000000 )
               a(2) = (  -1.000000   1.732051   0.000000 )
               a(3) = (   0.000000   0.000000   2.905845 )

     reciprocal axes: (cart. coord. in units 2 pi/alat)
               b(1) = (  1.000000  0.577350 -0.000000 )
               b(2) = (  0.000000  0.577350  0.000000 )
               b(3) = (  0.000000 -0.000000  0.344134 )

     PseudoPot. # 1 for Zn read from file:
     /home/jvc/QEspresso7.2/ZnO_database/pseudos/Zn.upf
     MD5 check sum: 7f56cabf9682ed8c977c2f7d0c5985c5
     Pseudo is Ultrasoft + core correction, Zval = 12.0
     Generated using &quot;atomic&quot; code by A. Dal Corso  v.6.2.2
     Using radial grid of 1201 points,  6 beta functions with:
                l(1) =   0
                l(2) =   0
                l(3) =   1
                l(4) =   1
                l(5) =   2
                l(6) =   2
     Q(r) pseudized with 0 coefficients

     PseudoPot. # 2 for O  read from file:
     /home/jvc/QEspresso7.2/ZnO_database/pseudos/O.upf
     MD5 check sum: 91400c9766925bcf19f520983a725ff0
     Pseudo is Ultrasoft + core correction, Zval =  6.0
     Generated using &quot;atomic&quot; code by A. Dal Corso  v.6.3MaX
     Using radial grid of 1095 points,  4 beta functions with:
                l(1) =   0
                l(2) =   0
                l(3) =   1
                l(4) =   1
     Q(r) pseudized with 0 coefficients

     atomic species   valence    mass     pseudopotential
        Zn            12.00    65.38000     Zn( 1.00)
        O              6.00    15.99900     O ( 1.00)

      2 Sym. Ops. (no inversion) found

                                    s                        frac. trans.

      isym =  1     identity

 cryst.   s( 1) = (     1          0          0      )
                  (     0          1          0      )
                  (     0          0          1      )

 cart.    s( 1) = (  1.0000000  0.0000000  0.0000000 )
                  (  0.0000000  1.0000000  0.0000000 )
                  (  0.0000000  0.0000000  1.0000000 )

      isym =  2     inv. 180 deg rotation - cart. axis [1,0,0]

 cryst.   s( 2) = (    -1          0          0      )
                  (     2          1          0      )
                  (     0          0          1      )

 cart.    s( 2) = ( -1.0000000  0.0000000  0.0000000 )
                  (  0.0000000  1.0000000  0.0000000 )
                  (  0.0000000  0.0000000  1.0000000 )

   Cartesian axes

     site n.     atom                  positions (alat units)
         1           Zn  tau(   1) = (   0.5000000   0.2886751   0.7273818  )
         2           Zn  tau(   2) = (   0.0000000   0.5773503   0.0009206  )
         3           O   tau(   3) = (   0.5000000   0.2886751   1.2781017  )
         4           O   tau(   4) = (   0.0000000   0.5773503   0.5516404  )
         5           Zn  tau(   5) = (   0.5000000   0.2886751   2.1803043  )
         6           Zn  tau(   6) = (   0.0000000   0.5773503   1.4538431  )
         7           O   tau(   7) = (   0.5000000   0.2886751   2.7310242  )
         8           O   tau(   8) = (   0.0000000   0.5773503   2.0045629  )
         9           Zn  tau(   9) = (   0.0000000   1.1547005   0.7273818  )
        10           Zn  tau(  10) = (  -0.5000000   1.4433757   0.0009206  )
        11           O   tau(  11) = (   0.0000000   1.1547005   1.2781017  )
        12           O   tau(  12) = (  -0.5000000   1.4433757   0.5516404  )
        13           Zn  tau(  13) = (   0.0000000   1.1547005   2.1803043  )
        14           Zn  tau(  14) = (  -0.5000000   1.4433757   1.4538431  )
        15           O   tau(  15) = (   0.0000000   1.1547005   2.7310242  )
        16           O   tau(  16) = (  -0.5000000   1.4433757   2.0045629  )

   Crystallographic axes

     site n.     atom                  positions (cryst. coord.)
         1           Zn  tau(   1) = (  0.6666667  0.1666667  0.2503168  )
         2           Zn  tau(   2) = (  0.3333333  0.3333333  0.0003168  )
         3           O   tau(   3) = (  0.6666667  0.1666667  0.4398382  )
         4           O   tau(   4) = (  0.3333333  0.3333333  0.1898382  )
         5           Zn  tau(   5) = (  0.6666667  0.1666667  0.7503168  )
         6           Zn  tau(   6) = (  0.3333333  0.3333333  0.5003168  )
         7           O   tau(   7) = (  0.6666667  0.1666667  0.9398382  )
         8           O   tau(   8) = (  0.3333333  0.3333333  0.6898382  )
         9           Zn  tau(   9) = (  0.6666667  0.6666667  0.2503168  )
        10           Zn  tau(  10) = (  0.3333333  0.8333333  0.0003168  )
        11           O   tau(  11) = (  0.6666667  0.6666667  0.4398382  )
        12           O   tau(  12) = (  0.3333333  0.8333333  0.1898382  )
        13           Zn  tau(  13) = (  0.6666667  0.6666667  0.7503168  )
        14           Zn  tau(  14) = (  0.3333333  0.8333333  0.5003168  )
        15           O   tau(  15) = (  0.6666667  0.6666667  0.9398382  )
        16           O   tau(  16) = (  0.3333333  0.8333333  0.6898382  )

     number of k points=    80
                       cart. coord. in units 2pi/alat
        k(    1) = (   0.0000000   0.0000000   0.0000000), wk =   0.0092593
        k(    2) = (   0.0000000   0.0000000   0.0573557), wk =   0.0185185
        k(    3) = (   0.0000000   0.0000000   0.1147113), wk =   0.0185185
        k(    4) = (   0.0000000   0.0000000  -0.1720670), wk =   0.0092593
        k(    5) = (   0.0000000   0.0962250   0.0000000), wk =   0.0185185
        k(    6) = (   0.0000000   0.0962250   0.0573557), wk =   0.0185185
        k(    7) = (   0.0000000   0.0962250   0.1147113), wk =   0.0185185
        k(    8) = (   0.0000000   0.0962250  -0.1720670), wk =   0.0185185
        k(    9) = (   0.0000000   0.1924501   0.0000000), wk =   0.0185185
        k(   10) = (   0.0000000   0.1924501   0.0573557), wk =   0.0185185
        k(   11) = (   0.0000000   0.1924501   0.1147113), wk =   0.0185185
        k(   12) = (   0.0000000   0.1924501  -0.1720670), wk =   0.0185185
        k(   13) = (   0.0000000  -0.2886751   0.0000000), wk =   0.0092593
        k(   14) = (   0.0000000  -0.2886751   0.0573557), wk =   0.0185185
        k(   15) = (   0.0000000  -0.2886751   0.1147113), wk =   0.0185185
        k(   16) = (   0.0000000  -0.2886751  -0.1720670), wk =   0.0092593
        k(   17) = (   0.1666667   0.0962250   0.0000000), wk =   0.0370370
        k(   18) = (   0.1666667   0.0962250   0.0573557), wk =   0.0370370
        k(   19) = (   0.1666667   0.0962250   0.1147113), wk =   0.0370370
        k(   20) = (   0.1666667   0.0962250  -0.1720670), wk =   0.0370370
        k(   21) = (   0.1666667   0.1924501   0.0000000), wk =   0.0370370
        k(   22) = (   0.1666667   0.1924501   0.0573557), wk =   0.0370370
        k(   23) = (   0.1666667   0.1924501   0.1147113), wk =   0.0370370
        k(   24) = (   0.1666667   0.1924501  -0.1720670), wk =   0.0370370
        k(   25) = (   0.1666667   0.2886751   0.0000000), wk =   0.0185185
        k(   26) = (   0.1666667   0.2886751   0.0573557), wk =   0.0370370
        k(   27) = (   0.1666667   0.2886751   0.1147113), wk =   0.0370370
        k(   28) = (   0.1666667   0.2886751  -0.1720670), wk =   0.0185185
        k(   29) = (   0.1666667   0.0000000   0.0000000), wk =   0.0185185
        k(   30) = (   0.1666667   0.0000000   0.0573557), wk =   0.0370370
        k(   31) = (   0.1666667   0.0000000   0.1147113), wk =   0.0370370
        k(   32) = (   0.1666667   0.0000000  -0.1720670), wk =   0.0185185
        k(   33) = (   0.3333333   0.1924501   0.0000000), wk =   0.0370370
        k(   34) = (   0.3333333   0.1924501   0.0573557), wk =   0.0370370
        k(   35) = (   0.3333333   0.1924501   0.1147113), wk =   0.0370370
        k(   36) = (   0.3333333   0.1924501  -0.1720670), wk =   0.0370370
        k(   37) = (   0.3333333   0.2886751   0.0000000), wk =   0.0185185
        k(   38) = (   0.3333333   0.2886751   0.0573557), wk =   0.0370370
        k(   39) = (   0.3333333   0.2886751   0.1147113), wk =   0.0370370
        k(   40) = (   0.3333333   0.2886751  -0.1720670), wk =   0.0185185
        k(   41) = (   0.3333333  -0.0962250   0.0000000), wk =   0.0370370
        k(   42) = (   0.3333333  -0.0962250   0.0573557), wk =   0.0370370
        k(   43) = (   0.3333333  -0.0962250   0.1147113), wk =   0.0370370
        k(   44) = (   0.3333333  -0.0962250  -0.1720670), wk =   0.0370370
        k(   45) = (   0.3333333  -0.0000000   0.0000000), wk =   0.0185185
        k(   46) = (   0.3333333  -0.0000000   0.0573557), wk =   0.0370370
        k(   47) = (   0.3333333  -0.0000000   0.1147113), wk =   0.0370370
        k(   48) = (   0.3333333  -0.0000000  -0.1720670), wk =   0.0185185
        k(   49) = (  -0.5000000  -0.2886751   0.0000000), wk =   0.0092593
        k(   50) = (  -0.5000000  -0.2886751   0.0573557), wk =   0.0185185
        k(   51) = (  -0.5000000  -0.2886751   0.1147113), wk =   0.0185185
        k(   52) = (  -0.5000000  -0.2886751  -0.1720670), wk =   0.0092593
        k(   53) = (  -0.5000000  -0.1924501   0.0000000), wk =   0.0185185
        k(   54) = (  -0.5000000  -0.1924501   0.0573557), wk =   0.0185185
        k(   55) = (  -0.5000000  -0.1924501   0.1147113), wk =   0.0185185
[...]
        k(   76) = (  -0.3333333   0.1666667  -0.3333333), wk =   0.0370370
        k(   77) = (   0.5000000  -0.8333333  -0.1666667), wk =   0.0185185
        k(   78) = (   0.5000000  -0.8333333  -0.3333333), wk =   0.0185185
        k(   79) = (   0.5000000  -0.6666667  -0.1666667), wk =   0.0185185
        k(   80) = (   0.5000000  -0.6666667  -0.3333333), wk =   0.0185185

     Initial potential from superposition of free atoms

     starting charge     143.9702, renormalised to     144.0000
     Starting wfcs are  104 randomized atomic wfcs

     Self-consistent Calculation

     iteration #  1     ecut=    50.00 Ry     beta= 0.30
     Davidson diagonalization with overlap

     ethr =  1.00E-02,  avg # of iterations =  2.6

     total energy              =   -1444.27465045 Ry
     estimated scf accuracy    <       2.96074448 Ry

[...]

     total energy              =   -1444.78338096 Ry
     estimated scf accuracy    <       0.00000001 Ry

     iteration # 19     ecut=    50.00 Ry     beta= 0.30
     Davidson diagonalization with overlap

     ethr =  1.04E-11,  avg # of iterations =  5.1

     End of self-consistent calculation

          k = 0.0000 0.0000 0.0000 (  5157 PWs)   bands (ev):

    -7.5767  -6.7014  -6.7014  -6.2390  -5.8874  -5.8874  -5.7821  -5.6830
     4.6944   4.6944   5.3027   5.3027   5.3292   5.3499   5.5523   6.0970
     6.0971   6.1927   6.1974   6.1974   6.1975   6.1975   6.4349   6.5289
     6.5289   6.5716   6.6031   6.6031   6.8228   6.8228   7.2616   7.5121
     8.6030   8.6030   8.7265   9.0551   9.0551   9.0551   9.0551   9.0754
     9.1558   9.1558   9.2374   9.2375   9.2930   9.2930   9.3880   9.4179
     9.6818   9.7394  10.0104  10.0104  10.1696  10.4294  10.8507  12.1105
    12.1105  12.5352  12.5352  12.8940  12.8941  12.9769  13.1124  13.1124
    13.3541  13.7610  13.7610  13.7611  13.7611  14.6196  14.6197  14.6451

     occupation numbers
     1.0000   1.0000   1.0000   1.0000   1.0000   1.0000   1.0000   1.0000
     1.0000   1.0000   1.0000   1.0000   1.0000   1.0000   1.0000   1.0000
     1.0000   1.0000   1.0000   1.0000   1.0000   1.0000   1.0000   1.0000
     1.0000   1.0000   1.0000   1.0000   1.0000   1.0000   1.0000   1.0000
     1.0000   1.0000   1.0000   1.0000   1.0000   1.0000   1.0000   1.0000
     1.0000   1.0000   1.0000   1.0000   1.0000   1.0000   1.0000   1.0000
     1.0000   1.0000   1.0000   1.0000   1.0000   1.0000   1.0000   1.0000
     1.0000   1.0000   1.0000   1.0000   1.0000   1.0000   1.0000   1.0000
     1.0000   1.0000   1.0000   1.0000   1.0000   1.0000   1.0000   1.0000

[...]

          k =-0.5000-0.2887 0.0000 (  5176 PWs)   bands (ev):

[...]

          k =-0.3333-0.0962-0.1147 (  5153 PWs)   bands (ev):

[...]

          k = 0.5000-0.0962-0.1147 (  5164 PWs)   bands (ev):

    -6.2056  -6.2056  -6.0626  -6.0626  -5.7602  -5.7602  -5.6890  -5.6890
     5.0313   5.0313   5.0952   5.0952   5.3093   5.3093   5.5033   5.5033
     6.2743   6.2743   6.2781   6.2781   6.3611   6.3611   6.4468   6.4468
     6.9589   6.9589   7.0838   7.0838   7.1557   7.1557   7.3231   7.3231
     8.6056   8.6056   8.8013   8.8013   8.9588   8.9588   9.0309   9.0309
     9.3393   9.3393   9.3538   9.3538   9.4468   9.4468   9.5510   9.5510
     9.7149   9.7149   9.9492   9.9492  10.1861  10.1861  10.4796  10.4796
    10.7928  10.7928  10.9492  10.9492  11.4684  11.4684  12.1193  12.1193
    12.4635  12.4635  12.7287  12.7287  13.1568  13.1568  13.3912  13.3912

     occupation numbers
     1.0000   1.0000   1.0000   1.0000   1.0000   1.0000   1.0000   1.0000
     1.0000   1.0000   1.0000   1.0000   1.0000   1.0000   1.0000   1.0000
     1.0000   1.0000   1.0000   1.0000   1.0000   1.0000   1.0000   1.0000
     1.0000   1.0000   1.0000   1.0000   1.0000   1.0000   1.0000   1.0000
     1.0000   1.0000   1.0000   1.0000   1.0000   1.0000   1.0000   1.0000
     1.0000   1.0000   1.0000   1.0000   1.0000   1.0000   1.0000   1.0000
     1.0000   1.0000   1.0000   1.0000   1.0000   1.0000   1.0000   1.0000
     1.0000   1.0000   1.0000   1.0000   1.0000   1.0000   1.0000   1.0000
     1.0000   1.0000   1.0000   1.0000   1.0000   1.0000   1.0000   1.0000

     highest occupied level (ev):    14.6451

!    total energy              =   -1444.78338096 Ry
     estimated scf accuracy    <          1.0E-09 Ry

     The total energy is the sum of the following terms:
     one-electron contribution =    -419.64167512 Ry
     hartree contribution      =     407.67975606 Ry
     xc contribution           =    -442.78297114 Ry
     ewald contribution        =    -990.03849076 Ry

     convergence has been achieved in  19 iterations

     Forces acting on atoms (cartesian axes, Ry/au):

     atom    1 type  1   force =     0.00000000   -0.00001787   -0.21627577
     atom    2 type  1   force =     0.00000000    0.00001734   -0.21627417
     atom    3 type  2   force =     0.00000000    0.00000268    0.21627537
     atom    4 type  2   force =     0.00000000   -0.00000279    0.21627539
     atom    5 type  1   force =     0.00000000   -0.00001771   -0.21627581
     atom    6 type  1   force =     0.00000000    0.00001757   -0.21627665
     atom    7 type  2   force =     0.00000000    0.00000255    0.21627586
     atom    8 type  2   force =     0.00000000   -0.00000296    0.21627534
     atom    9 type  1   force =     0.00000000   -0.00001757   -0.21627502
     atom   10 type  1   force =     0.00000000    0.00001837   -0.21627425
     atom   11 type  2   force =     0.00000000    0.00000267    0.21627497
     atom   12 type  2   force =     0.00000000   -0.00000286    0.21627526
     atom   13 type  1   force =     0.00000000   -0.00001766   -0.21627506
     atom   14 type  1   force =     0.00000000    0.00001798   -0.21627715
     atom   15 type  2   force =     0.00000000    0.00000276    0.21627575
     atom   16 type  2   force =     0.00000000   -0.00000249    0.21627594
     The non-local contrib.  to forces
     atom    1 type  1   force =     0.00000000    0.00002509   -0.38231863
     atom    2 type  1   force =     0.00000000   -0.00002570   -0.38231808
     atom    3 type  2   force =     0.00000000    0.00013943   -0.18138699
     atom    4 type  2   force =     0.00000000   -0.00013925   -0.18138704
     atom    5 type  1   force =     0.00000000    0.00002528   -0.38231907
     atom    6 type  1   force =     0.00000000   -0.00002554   -0.38231933
     atom    7 type  2   force =     0.00000000    0.00013929   -0.18138722
     atom    8 type  2   force =     0.00000000   -0.00013915   -0.18138738
     atom    9 type  1   force =     0.00000000    0.00002542   -0.38231843
     atom   10 type  1   force =     0.00000000   -0.00002534   -0.38231796
     atom   11 type  2   force =     0.00000000    0.00013906   -0.18138690
     atom   12 type  2   force =     0.00000000   -0.00013960   -0.18138726
     atom   13 type  1   force =     0.00000000    0.00002557   -0.38231869
     atom   14 type  1   force =     0.00000000   -0.00002530   -0.38231934
     atom   15 type  2   force =     0.00000000    0.00013936   -0.18138750
     atom   16 type  2   force =     0.00000000   -0.00013931   -0.18138686
     The ionic contribution  to forces
     atom    1 type  1   force =    -0.00000000    0.00000001   -2.79035798
     atom    2 type  1   force =     0.00000000    0.00000001   -2.79035799
     atom    3 type  2   force =    -0.00000000    0.00000001    2.79035798
     atom    4 type  2   force =     0.00000000    0.00000000    2.79035799
     atom    5 type  1   force =    -0.00000000    0.00000001   -2.79035798
     atom    6 type  1   force =     0.00000000    0.00000001   -2.79035799
     atom    7 type  2   force =    -0.00000000    0.00000001    2.79035798
     atom    8 type  2   force =     0.00000000    0.00000000    2.79035799
     atom    9 type  1   force =    -0.00000001   -0.00000000   -2.79035799
     atom   10 type  1   force =     0.00000001   -0.00000002   -2.79035799
     atom   11 type  2   force =    -0.00000001    0.00000000    2.79035799
     atom   12 type  2   force =     0.00000001   -0.00000002    2.79035799
     atom   13 type  1   force =    -0.00000001   -0.00000000   -2.79035799
     atom   14 type  1   force =     0.00000001   -0.00000002   -2.79035799
     atom   15 type  2   force =    -0.00000001    0.00000000    2.79035799
     atom   16 type  2   force =     0.00000001   -0.00000002    2.79035799
     The local contribution  to forces
     atom    1 type  1   force =    -0.00000008   -0.00004544    2.91293445
     atom    2 type  1   force =    -0.00000000    0.00004654    2.91293266
     atom    3 type  2   force =    -0.00000002   -0.00013560   -2.39322389
     atom    4 type  2   force =    -0.00000000    0.00013617   -2.39322680
     atom    5 type  1   force =    -0.00000008   -0.00004584    2.91293486
     atom    6 type  1   force =    -0.00000000    0.00004626    2.91293602
     atom    7 type  2   force =    -0.00000002   -0.00013567   -2.39322692
     atom    8 type  2   force =     0.00000000    0.00013626   -2.39322568
     atom    9 type  1   force =    -0.00000008   -0.00004605    2.91293385
     atom   10 type  1   force =     0.00000008    0.00004531    2.91293242
     atom   11 type  2   force =    -0.00000002   -0.00013542   -2.39322417
     atom   12 type  2   force =     0.00000002    0.00013552   -2.39322647
     atom   13 type  1   force =    -0.00000008   -0.00004600    2.91293428
     atom   14 type  1   force =     0.00000008    0.00004554    2.91293648
     atom   15 type  2   force =    -0.00000002   -0.00013573   -2.39322716
     atom   16 type  2   force =     0.00000002    0.00013499   -2.39322553
     The core correction contribution to forces
     atom    1 type  1   force =    -0.00000001    0.00000124    0.04347026
     atom    2 type  1   force =    -0.00000000   -0.00000123    0.04347027
     atom    3 type  2   force =     0.00000000   -0.00000155    0.00052973
     atom    4 type  2   force =    -0.00000000    0.00000155    0.00052972
     atom    5 type  1   force =    -0.00000001    0.00000124    0.04347029
     atom    6 type  1   force =    -0.00000000   -0.00000124    0.04347027
     atom    7 type  2   force =     0.00000000   -0.00000155    0.00052973
     atom    8 type  2   force =    -0.00000000    0.00000155    0.00052973
     atom    9 type  1   force =    -0.00000001    0.00000124    0.04347025
     atom   10 type  1   force =     0.00000001   -0.00000123    0.04347027
     atom   11 type  2   force =     0.00000000   -0.00000155    0.00052973
     atom   12 type  2   force =    -0.00000000    0.00000156    0.00052973
     atom   13 type  1   force =    -0.00000001    0.00000123    0.04347027
     atom   14 type  1   force =     0.00000001   -0.00000124    0.04347027
     atom   15 type  2   force =     0.00000000   -0.00000155    0.00052973
     atom   16 type  2   force =    -0.00000000    0.00000155    0.00052972
     The Hubbard contrib.    to forces
     atom    1 type  1   force =     0.00000000    0.00000000    0.00000000
     atom    2 type  1   force =     0.00000000    0.00000000    0.00000000
     atom    3 type  2   force =     0.00000000    0.00000000    0.00000000
     atom    4 type  2   force =     0.00000000    0.00000000    0.00000000
     atom    5 type  1   force =     0.00000000    0.00000000    0.00000000
     atom    6 type  1   force =     0.00000000    0.00000000    0.00000000
     atom    7 type  2   force =     0.00000000    0.00000000    0.00000000
     atom    8 type  2   force =     0.00000000    0.00000000    0.00000000
     atom    9 type  1   force =     0.00000000    0.00000000    0.00000000
     atom   10 type  1   force =     0.00000000    0.00000000    0.00000000
     atom   11 type  2   force =     0.00000000    0.00000000    0.00000000
     atom   12 type  2   force =     0.00000000    0.00000000    0.00000000
     atom   13 type  1   force =     0.00000000    0.00000000    0.00000000
     atom   14 type  1   force =     0.00000000    0.00000000    0.00000000
     atom   15 type  2   force =     0.00000000    0.00000000    0.00000000
     atom   16 type  2   force =     0.00000000    0.00000000    0.00000000
     The SCF correction term to forces
     atom    1 type  1   force =    -0.00000000    0.00000128   -0.00000605
     atom    2 type  1   force =     0.00000000   -0.00000222   -0.00000323
     atom    3 type  2   force =     0.00000000    0.00000045   -0.00000365
     atom    4 type  2   force =     0.00000000   -0.00000122   -0.00000066
     atom    5 type  1   force =    -0.00000000    0.00000165   -0.00000609
     atom    6 type  1   force =     0.00000000   -0.00000187   -0.00000781
     atom    7 type  2   force =     0.00000000    0.00000052    0.00000010
     atom    8 type  2   force =     0.00000000   -0.00000157   -0.00000150
     atom    9 type  1   force =    -0.00000000    0.00000188   -0.00000489
     atom   10 type  1   force =     0.00000000   -0.00000028   -0.00000318
     atom   11 type  2   force =     0.00000000    0.00000063   -0.00000385
     atom   12 type  2   force =    -0.00000000   -0.00000027   -0.00000091
     atom   13 type  1   force =    -0.00000000    0.00000160   -0.00000511
     atom   14 type  1   force =     0.00000000   -0.00000093   -0.00000875
     atom   15 type  2   force =     0.00000000    0.00000073    0.00000050
     atom   16 type  2   force =    -0.00000000    0.00000035   -0.00000157

     Total force =     0.865102     Total SCF correction =     0.000018

     General routines

     Parallel routines

   This run was terminated on:  18:41:56  28Aug2025

   JOB DONE.
Note: The following floating-point exceptions are signalling: IEEE_UNDERFLOW_FLAG IEEE_DENORMAL
Note: The following floating-point exceptions are signalling: IEEE_UNDERFLOW_FLAG IEEE_DENORMAL
Note: The following floating-point exceptions are signalling: IEEE_UNDERFLOW_FLAG IEEE_DENORMAL
Note: The following floating-point exceptions are signalling: IEEE_UNDERFLOW_FLAG IEEE_DENORMAL
Note: The following floating-point exceptions are signalling: IEEE_UNDERFLOW_FLAG IEEE_DENORMAL
Note: The following floating-point exceptions are signalling: IEEE_UNDERFLOW_FLAG IEEE_DENORMAL
Note: The following floating-point exceptions are signalling: IEEE_UNDERFLOW_FLAG IEEE_DENORMAL
Note: The following floating-point exceptions are signalling: IEEE_UNDERFLOW_FLAG IEEE_DENORMAL
Note: The following floating-point exceptions are signalling: IEEE_UNDERFLOW_FLAG IEEE_DENORMAL
Note: The following floating-point exceptions are signalling: IEEE_UNDERFLOW_FLAG IEEE_DENORMAL
Note: The following floating-point exceptions are signalling: IEEE_UNDERFLOW_FLAG IEEE_DENORMAL
Note: The following floating-point exceptions are signalling: IEEE_UNDERFLOW_FLAG IEEE_DENORMAL
Note: The following floating-point exceptions are signalling: IEEE_UNDERFLOW_FLAG IEEE_DENORMAL
Note: The following floating-point exceptions are signalling: IEEE_UNDERFLOW_FLAG IEEE_DENORMAL
Note: The following floating-point exceptions are signalling: IEEE_UNDERFLOW_FLAG IEEE_DENORMAL
Note: The following floating-point exceptions are signalling: IEEE_UNDERFLOW_FLAG IEEE_DENORMAL
Note: The following floating-point exceptions are signalling: IEEE_UNDERFLOW_FLAG IEEE_DENORMAL
Note: The following floating-point exceptions are signalling: IEEE_UNDERFLOW_FLAG IEEE_DENORMAL
Note: The following floating-point exceptions are signalling: IEEE_UNDERFLOW_FLAG IEEE_DENORMAL
Note: The following floating-point exceptions are signalling: IEEE_UNDERFLOW_FLAG IEEE_DENORMAL
Note: The following floating-point exceptions are signalling: IEEE_UNDERFLOW_FLAG IEEE_DENORMAL
Note: The following floating-point exceptions are signalling: IEEE_UNDERFLOW_FLAG IEEE_DENORMAL
Note: The following floating-point exceptions are signalling: IEEE_UNDERFLOW_FLAG IEEE_DENORMAL
Note: The following floating-point exceptions are signalling: IEEE_UNDERFLOW_FLAG IEEE_DENORMAL
Note: The following floating-point exceptions are signalling: IEEE_UNDERFLOW_FLAG IEEE_DENORMAL
Note: The following floating-point exceptions are signalling: IEEE_UNDERFLOW_FLAG IEEE_DENORMAL
Note: The following floating-point exceptions are signalling: IEEE_UNDERFLOW_FLAG IEEE_DENORMAL
Note: The following floating-point exceptions are signalling: IEEE_UNDERFLOW_FLAG IEEE_DENORMAL
Note: The following floating-point exceptions are signalling: IEEE_UNDERFLOW_FLAG IEEE_DENORMAL
Note: The following floating-point exceptions are signalling: IEEE_UNDERFLOW_FLAG IEEE_DENORMAL
Note: The following floating-point exceptions are signalling: IEEE_UNDERFLOW_FLAG IEEE_DENORMAL
Note: The following floating-point exceptions are signalling: IEEE_UNDERFLOW_FLAG IEEE_DENORMAL