     Program PWSCF v.7.0 starts on 29Aug2025 at  8: 5:44

     K-points division:     npool     =       8
     R & G space division:  proc/nbgrp/npool/nimage =       4

     Reading input from /home/jvc/QEspresso7.2/ZnO_database/scripts/cell122.in/ZnO-3.34-1.74-122.in
Warning: card &CELL ignored
Warning: card / ignored
Warning: card &FCP ignored
Warning: card / ignored
Warning: card &RISM ignored
Warning: card / ignored

     Current dimensions of program PWSCF are:
     Max number of different atomic species (ntypx) = 10
     Max number of k-points (npk) =  40000
     Max angular momentum in pseudopotentials (lmaxx) =  4
     file Zn.upf: wavefunction(s)  3D renormalized
     Found identity + (  0.0000  0.0000  0.5000) symmetry
     This is a supercell, fractional translations are disabled
     Message from routine setup:
     using ibrav=0 with symmetry is DISCOURAGED, use correct ibrav instead

     Using Slab Decomposition

     bravais-lattice index     =            0
     lattice parameter (alat)  =       6.3024  a.u.
     unit-cell volume          =    1511.9542 (a.u.)^3
     number of atoms/cell      =           16
     number of atomic types    =            2
     number of electrons       =       144.00
     number of Kohn-Sham states=           72
     kinetic-energy cutoff     =      50.0000  Ry
     charge density cutoff     =     400.0000  Ry
     scf convergence threshold =      1.0E-08
     mixing beta               =       0.3000
     number of iterations used =            8  plain     mixing
     Exchange-correlation= PBE
                           (   1   4   3   4   0   0   0)

     celldm(1)=   6.302431  celldm(2)=   0.000000  celldm(3)=   0.000000
     celldm(4)=   0.000000  celldm(5)=   0.000000  celldm(6)=   0.000000

     crystal axes: (cart. coord. in units of alat)
               a(1) = (   1.000000   0.000000   0.000000 )
               a(2) = (  -1.000000   1.732051   0.000000 )
               a(3) = (   0.000000   0.000000   3.487014 )

     reciprocal axes: (cart. coord. in units 2 pi/alat)
               b(1) = (  1.000000  0.577350 -0.000000 )
               b(2) = (  0.000000  0.577350  0.000000 )
               b(3) = (  0.000000 -0.000000  0.286778 )

     PseudoPot. # 1 for Zn read from file:
     /home/jvc/QEspresso7.2/ZnO_database/pseudos/Zn.upf
     MD5 check sum: 7f56cabf9682ed8c977c2f7d0c5985c5
     Pseudo is Ultrasoft + core correction, Zval = 12.0
     Generated using &quot;atomic&quot; code by A. Dal Corso  v.6.2.2
     Using radial grid of 1201 points,  6 beta functions with:
                l(1) =   0
                l(2) =   0
                l(3) =   1
                l(4) =   1
                l(5) =   2
                l(6) =   2
     Q(r) pseudized with 0 coefficients

     PseudoPot. # 2 for O  read from file:
     /home/jvc/QEspresso7.2/ZnO_database/pseudos/O.upf
     MD5 check sum: 91400c9766925bcf19f520983a725ff0
     Pseudo is Ultrasoft + core correction, Zval =  6.0
     Generated using &quot;atomic&quot; code by A. Dal Corso  v.6.3MaX
     Using radial grid of 1095 points,  4 beta functions with:
                l(1) =   0
                l(2) =   0
                l(3) =   1
                l(4) =   1
     Q(r) pseudized with 0 coefficients

     atomic species   valence    mass     pseudopotential
        Zn            12.00    65.38000     Zn( 1.00)
        O              6.00    15.99900     O ( 1.00)

      2 Sym. Ops. (no inversion) found

                                    s                        frac. trans.

      isym =  1     identity

 cryst.   s( 1) = (     1          0          0      )
                  (     0          1          0      )
                  (     0          0          1      )

 cart.    s( 1) = (  1.0000000  0.0000000  0.0000000 )
                  (  0.0000000  1.0000000  0.0000000 )
                  (  0.0000000  0.0000000  1.0000000 )

      isym =  2     inv. 180 deg rotation - cart. axis [1,0,0]

 cryst.   s( 2) = (    -1          0          0      )
                  (     2          1          0      )
                  (     0          0          1      )

 cart.    s( 2) = ( -1.0000000  0.0000000  0.0000000 )
                  (  0.0000000  1.0000000  0.0000000 )
                  (  0.0000000  0.0000000  1.0000000 )

   Cartesian axes

     site n.     atom                  positions (alat units)
         1           Zn  tau(   1) = (   0.5000000   0.2886751   0.8728582  )
         2           Zn  tau(   2) = (   0.0000000   0.5773503   0.0011047  )
         3           O   tau(   3) = (   0.5000000   0.2886751   1.5337220  )
         4           O   tau(   4) = (   0.0000000   0.5773503   0.6619685  )
         5           Zn  tau(   5) = (   0.5000000   0.2886751   2.6163652  )
         6           Zn  tau(   6) = (   0.0000000   0.5773503   1.7446117  )
         7           O   tau(   7) = (   0.5000000   0.2886751   3.2772290  )
         8           O   tau(   8) = (   0.0000000   0.5773503   2.4054755  )
         9           Zn  tau(   9) = (   0.0000000   1.1547005   0.8728582  )
        10           Zn  tau(  10) = (  -0.5000000   1.4433757   0.0011047  )
        11           O   tau(  11) = (   0.0000000   1.1547005   1.5337220  )
        12           O   tau(  12) = (  -0.5000000   1.4433757   0.6619685  )
        13           Zn  tau(  13) = (   0.0000000   1.1547005   2.6163652  )
        14           Zn  tau(  14) = (  -0.5000000   1.4433757   1.7446117  )
        15           O   tau(  15) = (   0.0000000   1.1547005   3.2772290  )
        16           O   tau(  16) = (  -0.5000000   1.4433757   2.4054755  )

   Crystallographic axes

     site n.     atom                  positions (cryst. coord.)
         1           Zn  tau(   1) = (  0.6666667  0.1666667  0.2503168  )
         2           Zn  tau(   2) = (  0.3333333  0.3333333  0.0003168  )
         3           O   tau(   3) = (  0.6666667  0.1666667  0.4398382  )
         4           O   tau(   4) = (  0.3333333  0.3333333  0.1898382  )
         5           Zn  tau(   5) = (  0.6666667  0.1666667  0.7503168  )
         6           Zn  tau(   6) = (  0.3333333  0.3333333  0.5003168  )
         7           O   tau(   7) = (  0.6666667  0.1666667  0.9398382  )
         8           O   tau(   8) = (  0.3333333  0.3333333  0.6898382  )
         9           Zn  tau(   9) = (  0.6666667  0.6666667  0.2503168  )
        10           Zn  tau(  10) = (  0.3333333  0.8333333  0.0003168  )
        11           O   tau(  11) = (  0.6666667  0.6666667  0.4398382  )
        12           O   tau(  12) = (  0.3333333  0.8333333  0.1898382  )
        13           Zn  tau(  13) = (  0.6666667  0.6666667  0.7503168  )
        14           Zn  tau(  14) = (  0.3333333  0.8333333  0.5003168  )
        15           O   tau(  15) = (  0.6666667  0.6666667  0.9398382  )
        16           O   tau(  16) = (  0.3333333  0.8333333  0.6898382  )

     number of k points=    80
                       cart. coord. in units 2pi/alat
        k(    1) = (   0.0000000   0.0000000   0.0000000), wk =   0.0092593
        k(    2) = (   0.0000000   0.0000000   0.0477964), wk =   0.0185185
        k(    3) = (   0.0000000   0.0000000   0.0955928), wk =   0.0185185
        k(    4) = (   0.0000000   0.0000000  -0.1433892), wk =   0.0092593
        k(    5) = (   0.0000000   0.0962250   0.0000000), wk =   0.0185185
        k(    6) = (   0.0000000   0.0962250   0.0477964), wk =   0.0185185
        k(    7) = (   0.0000000   0.0962250   0.0955928), wk =   0.0185185
        k(    8) = (   0.0000000   0.0962250  -0.1433892), wk =   0.0185185
        k(    9) = (   0.0000000   0.1924501   0.0000000), wk =   0.0185185
        k(   10) = (   0.0000000   0.1924501   0.0477964), wk =   0.0185185
        k(   11) = (   0.0000000   0.1924501   0.0955928), wk =   0.0185185
        k(   12) = (   0.0000000   0.1924501  -0.1433892), wk =   0.0185185
        k(   13) = (   0.0000000  -0.2886751   0.0000000), wk =   0.0092593
        k(   14) = (   0.0000000  -0.2886751   0.0477964), wk =   0.0185185
        k(   15) = (   0.0000000  -0.2886751   0.0955928), wk =   0.0185185
        k(   16) = (   0.0000000  -0.2886751  -0.1433892), wk =   0.0092593
        k(   17) = (   0.1666667   0.0962250   0.0000000), wk =   0.0370370
        k(   18) = (   0.1666667   0.0962250   0.0477964), wk =   0.0370370
        k(   19) = (   0.1666667   0.0962250   0.0955928), wk =   0.0370370
        k(   20) = (   0.1666667   0.0962250  -0.1433892), wk =   0.0370370
        k(   21) = (   0.1666667   0.1924501   0.0000000), wk =   0.0370370
        k(   22) = (   0.1666667   0.1924501   0.0477964), wk =   0.0370370
        k(   23) = (   0.1666667   0.1924501   0.0955928), wk =   0.0370370
        k(   24) = (   0.1666667   0.1924501  -0.1433892), wk =   0.0370370
        k(   25) = (   0.1666667   0.2886751   0.0000000), wk =   0.0185185
        k(   26) = (   0.1666667   0.2886751   0.0477964), wk =   0.0370370
        k(   27) = (   0.1666667   0.2886751   0.0955928), wk =   0.0370370
        k(   28) = (   0.1666667   0.2886751  -0.1433892), wk =   0.0185185
        k(   29) = (   0.1666667   0.0000000   0.0000000), wk =   0.0185185
        k(   30) = (   0.1666667   0.0000000   0.0477964), wk =   0.0370370
        k(   31) = (   0.1666667   0.0000000   0.0955928), wk =   0.0370370
        k(   32) = (   0.1666667   0.0000000  -0.1433892), wk =   0.0185185
        k(   33) = (   0.3333333   0.1924501   0.0000000), wk =   0.0370370
        k(   34) = (   0.3333333   0.1924501   0.0477964), wk =   0.0370370
        k(   35) = (   0.3333333   0.1924501   0.0955928), wk =   0.0370370
        k(   36) = (   0.3333333   0.1924501  -0.1433892), wk =   0.0370370
        k(   37) = (   0.3333333   0.2886751   0.0000000), wk =   0.0185185
        k(   38) = (   0.3333333   0.2886751   0.0477964), wk =   0.0370370
        k(   39) = (   0.3333333   0.2886751   0.0955928), wk =   0.0370370
        k(   40) = (   0.3333333   0.2886751  -0.1433892), wk =   0.0185185
        k(   41) = (   0.3333333  -0.0962250   0.0000000), wk =   0.0370370
        k(   42) = (   0.3333333  -0.0962250   0.0477964), wk =   0.0370370
        k(   43) = (   0.3333333  -0.0962250   0.0955928), wk =   0.0370370
        k(   44) = (   0.3333333  -0.0962250  -0.1433892), wk =   0.0370370
        k(   45) = (   0.3333333  -0.0000000   0.0000000), wk =   0.0185185
        k(   46) = (   0.3333333  -0.0000000   0.0477964), wk =   0.0370370
        k(   47) = (   0.3333333  -0.0000000   0.0955928), wk =   0.0370370
        k(   48) = (   0.3333333  -0.0000000  -0.1433892), wk =   0.0185185
        k(   49) = (  -0.5000000  -0.2886751   0.0000000), wk =   0.0092593
        k(   50) = (  -0.5000000  -0.2886751   0.0477964), wk =   0.0185185
        k(   51) = (  -0.5000000  -0.2886751   0.0955928), wk =   0.0185185
        k(   52) = (  -0.5000000  -0.2886751  -0.1433892), wk =   0.0092593
        k(   53) = (  -0.5000000  -0.1924501   0.0000000), wk =   0.0185185
        k(   54) = (  -0.5000000  -0.1924501   0.0477964), wk =   0.0185185
        k(   55) = (  -0.5000000  -0.1924501   0.0955928), wk =   0.0185185
[...]
        k(   76) = (  -0.3333333   0.1666667  -0.3333333), wk =   0.0370370
        k(   77) = (   0.5000000  -0.8333333  -0.1666667), wk =   0.0185185
        k(   78) = (   0.5000000  -0.8333333  -0.3333333), wk =   0.0185185
        k(   79) = (   0.5000000  -0.6666667  -0.1666667), wk =   0.0185185
        k(   80) = (   0.5000000  -0.6666667  -0.3333333), wk =   0.0185185

     Check: negative core charge=   -0.000002

     Initial potential from superposition of free atoms

     starting charge     143.9702, renormalised to     144.0000
     Starting wfcs are  104 randomized atomic wfcs

     Self-consistent Calculation

     iteration #  1     ecut=    50.00 Ry     beta= 0.30
     Davidson diagonalization with overlap

     ethr =  1.00E-02,  avg # of iterations =  1.7

     total energy              =   -1445.72694470 Ry
     estimated scf accuracy    <       3.02653582 Ry

[...]

     total energy              =   -1446.44111224 Ry
     estimated scf accuracy    <       0.00000002 Ry

     iteration # 32     ecut=    50.00 Ry     beta= 0.30
     Davidson diagonalization with overlap

     ethr =  1.12E-11,  avg # of iterations =  5.3

     End of self-consistent calculation

          k = 0.0000 0.0000 0.0000 (  9023 PWs)   bands (ev):

   -11.9122 -11.7107 -11.7107 -11.5001 -11.4030 -11.3387 -11.3387 -11.2788
    -0.1661  -0.1661  -0.1402  -0.0826  -0.0823  -0.0654  -0.0654  -0.0348
    -0.0348  -0.0346  -0.0345  -0.0269   0.0291   0.0293   0.0512   0.1383
     0.2842   0.2842   0.2849   0.4480   0.4551   0.5014   0.5014   0.6402
     0.7303   0.7304   0.7908   0.7908   0.7908   0.7908   0.8119   0.8375
     0.8375   0.8508   0.8615   0.8615   0.8837   0.9139   0.9139   0.9471
     1.2569   1.4423   1.5422   1.5422   1.8708   2.7725   2.7762   2.7762
     3.5057   3.8057   3.8057   3.9500   3.9500   3.9897   4.3747   4.6370
     4.6376   4.8644   4.8757   4.8757   4.8763   4.8763   5.1122   5.1128

     occupation numbers
     1.0000   1.0000   1.0000   1.0000   1.0000   1.0000   1.0000   1.0000
     1.0000   1.0000   1.0000   1.0000   1.0000   1.0000   1.0000   1.0000
     1.0000   1.0000   1.0000   1.0000   1.0000   1.0000   1.0000   1.0000
     1.0000   1.0000   1.0000   1.0000   1.0000   1.0000   1.0000   1.0000
     1.0000   1.0000   1.0000   1.0000   1.0000   1.0000   1.0000   1.0000
     1.0000   1.0000   1.0000   1.0000   1.0000   1.0000   1.0000   1.0000
     1.0000   1.0000   1.0000   1.0000   1.0000   1.0000   1.0000   1.0000
     1.0000   1.0000   1.0000   1.0000   1.0000   1.0000   1.0000   1.0000
     1.0000   1.0000   1.0000   1.0000   1.0000   1.0000   1.0000   1.0000

[...]

          k =-0.5000-0.2887 0.0000 (  9008 PWs)   bands (ev):

[...]

          k =-0.3333-0.0962-0.0956 (  9036 PWs)   bands (ev):

[...]

          k = 0.5000-0.0962-0.0956 (  9052 PWs)   bands (ev):

   -11.3986 -11.3986 -11.3736 -11.3736 -11.3080 -11.3080 -11.2851 -11.2851
    -0.0801  -0.0801  -0.0800  -0.0800   0.0155   0.0155   0.1025   0.1025
     0.1801   0.1801   0.1927   0.1927   0.3500   0.3500   0.4031   0.4031
     0.4045   0.4045   0.4433   0.4433   0.4450   0.4450   0.4989   0.4989
     0.7121   0.7121   0.7671   0.7671   0.8063   0.8063   0.8249   0.8249
     0.9072   0.9072   0.9148   0.9148   0.9950   0.9950   1.0434   1.0434
     1.6231   1.6231   1.6843   1.6843   1.9359   1.9359   2.0387   2.0387
     2.8844   2.8844   3.1470   3.1470   3.1937   3.1937   3.4865   3.4865
     3.7688   3.7688   3.9202   3.9202   4.1018   4.1018   4.1200   4.1200

     occupation numbers
     1.0000   1.0000   1.0000   1.0000   1.0000   1.0000   1.0000   1.0000
     1.0000   1.0000   1.0000   1.0000   1.0000   1.0000   1.0000   1.0000
     1.0000   1.0000   1.0000   1.0000   1.0000   1.0000   1.0000   1.0000
     1.0000   1.0000   1.0000   1.0000   1.0000   1.0000   1.0000   1.0000
     1.0000   1.0000   1.0000   1.0000   1.0000   1.0000   1.0000   1.0000
     1.0000   1.0000   1.0000   1.0000   1.0000   1.0000   1.0000   1.0000
     1.0000   1.0000   1.0000   1.0000   1.0000   1.0000   1.0000   1.0000
     1.0000   1.0000   1.0000   1.0000   1.0000   1.0000   1.0000   1.0000
     1.0000   1.0000   1.0000   1.0000   1.0000   1.0000   1.0000   1.0000

     highest occupied level (ev):     5.1128

!    total energy              =   -1446.44111225 Ry
     estimated scf accuracy    <          7.1E-09 Ry

     The total energy is the sum of the following terms:
     one-electron contribution =    -681.09336780 Ry
     hartree contribution      =     496.01166791 Ry
     xc contribution           =    -437.16795452 Ry
     ewald contribution        =    -824.19145784 Ry

     convergence has been achieved in  32 iterations

     Forces acting on atoms (cartesian axes, Ry/au):

     atom    1 type  1   force =     0.00000000    0.00000292    0.00129019
     atom    2 type  1   force =     0.00000000   -0.00000353    0.00128336
     atom    3 type  2   force =     0.00000000    0.00000636   -0.00128412
     atom    4 type  2   force =     0.00000000   -0.00000669   -0.00128438
     atom    5 type  1   force =     0.00000000    0.00000330    0.00127968
     atom    6 type  1   force =     0.00000000   -0.00000579    0.00128444
     atom    7 type  2   force =     0.00000000    0.00000637   -0.00128443
     atom    8 type  2   force =     0.00000000   -0.00000661   -0.00128413
     atom    9 type  1   force =     0.00000000    0.00000470    0.00128965
     atom   10 type  1   force =     0.00000000   -0.00000273    0.00128305
     atom   11 type  2   force =     0.00000000    0.00000661   -0.00128432
     atom   12 type  2   force =     0.00000000   -0.00000678   -0.00128481
     atom   13 type  1   force =     0.00000000    0.00000473    0.00128029
     atom   14 type  1   force =     0.00000000   -0.00000270    0.00128419
     atom   15 type  2   force =     0.00000000    0.00000668   -0.00128445
     atom   16 type  2   force =     0.00000000   -0.00000684   -0.00128422
     The non-local contrib.  to forces
     atom    1 type  1   force =     0.00000000    0.00000918    0.19308629
     atom    2 type  1   force =     0.00000000   -0.00000956    0.19308223
     atom    3 type  2   force =     0.00000000    0.00022496    0.20386087
     atom    4 type  2   force =     0.00000000   -0.00022518    0.20386062
     atom    5 type  1   force =     0.00000000    0.00000883    0.19307992
     atom    6 type  1   force =     0.00000000   -0.00000984    0.19308420
     atom    7 type  2   force =     0.00000000    0.00022517    0.20386311
     atom    8 type  2   force =     0.00000000   -0.00022486    0.20386403
     atom    9 type  1   force =     0.00000000    0.00000876    0.19308653
     atom   10 type  1   force =     0.00000000   -0.00000840    0.19308155
     atom   11 type  2   force =     0.00000000    0.00022574    0.20386046
     atom   12 type  2   force =     0.00000000   -0.00022622    0.20385962
     atom   13 type  1   force =     0.00000000    0.00000900    0.19308024
     atom   14 type  1   force =     0.00000000   -0.00000835    0.19308385
     atom   15 type  2   force =     0.00000000    0.00022614    0.20386338
     atom   16 type  2   force =     0.00000000   -0.00022639    0.20386393
     The ionic contribution  to forces
     atom    1 type  1   force =    -0.00000000    0.00000000    1.51200264
     atom    2 type  1   force =     0.00000000   -0.00000000    1.51200264
     atom    3 type  2   force =    -0.00000000    0.00000000   -1.51200264
     atom    4 type  2   force =     0.00000000   -0.00000000   -1.51200264
     atom    5 type  1   force =    -0.00000000    0.00000000    1.51200264
     atom    6 type  1   force =     0.00000000   -0.00000000    1.51200264
     atom    7 type  2   force =    -0.00000000    0.00000000   -1.51200264
     atom    8 type  2   force =     0.00000000   -0.00000000   -1.51200264
     atom    9 type  1   force =    -0.00000000    0.00000000    1.51200264
     atom   10 type  1   force =     0.00000000   -0.00000000    1.51200264
     atom   11 type  2   force =    -0.00000000    0.00000000   -1.51200264
     atom   12 type  2   force =     0.00000000   -0.00000000   -1.51200264
     atom   13 type  1   force =    -0.00000000    0.00000000    1.51200264
     atom   14 type  1   force =     0.00000000   -0.00000000    1.51200264
     atom   15 type  2   force =    -0.00000000    0.00000000   -1.51200264
     atom   16 type  2   force =     0.00000000   -0.00000000   -1.51200264
     The local contribution  to forces
     atom    1 type  1   force =    -0.00000009   -0.00001663   -1.69150858
     atom    2 type  1   force =     0.00000000    0.00001719   -1.69149745
     atom    3 type  2   force =    -0.00000002   -0.00021647    1.30863820
     atom    4 type  2   force =    -0.00000000    0.00021767    1.30863740
     atom    5 type  1   force =    -0.00000009   -0.00001635   -1.69149118
     atom    6 type  1   force =     0.00000000    0.00001924   -1.69150008
     atom    7 type  2   force =    -0.00000002   -0.00021588    1.30864170
     atom    8 type  2   force =    -0.00000000    0.00021735    1.30864140
     atom    9 type  1   force =    -0.00000009   -0.00001629   -1.69150806
     atom   10 type  1   force =     0.00000000    0.00001510   -1.69149624
     atom   11 type  2   force =    -0.00000002   -0.00021804    1.30863853
     atom   12 type  2   force =     0.00000000    0.00021725    1.30863922
     atom   13 type  1   force =    -0.00000009   -0.00001660   -1.69149225
     atom   14 type  1   force =     0.00000000    0.00001415   -1.69149959
     atom   15 type  2   force =    -0.00000002   -0.00021900    1.30864106
     atom   16 type  2   force =     0.00000000    0.00021729    1.30864101
     The core correction contribution to forces
     atom    1 type  1   force =     0.00000002    0.00000885   -0.01230957
     atom    2 type  1   force =     0.00000004   -0.00000872   -0.01230964
     atom    3 type  2   force =    -0.00000000   -0.00000253   -0.00178486
     atom    4 type  2   force =     0.00000000    0.00000257   -0.00178485
     atom    5 type  1   force =     0.00000002    0.00000884   -0.01230976
     atom    6 type  1   force =     0.00000004   -0.00000875   -0.01230970
     atom    7 type  2   force =    -0.00000000   -0.00000253   -0.00178489
     atom    8 type  2   force =     0.00000000    0.00000256   -0.00178489
     atom    9 type  1   force =    -0.00000005    0.00000864   -0.01230958
     atom   10 type  1   force =    -0.00000003   -0.00000879   -0.01230970
     atom   11 type  2   force =     0.00000000   -0.00000257   -0.00178485
     atom   12 type  2   force =     0.00000000    0.00000255   -0.00178484
     atom   13 type  1   force =    -0.00000005    0.00000865   -0.01230976
     atom   14 type  1   force =    -0.00000003   -0.00000875   -0.01230973
     atom   15 type  2   force =     0.00000000   -0.00000258   -0.00178489
     atom   16 type  2   force =     0.00000000    0.00000255   -0.00178490
     The Hubbard contrib.    to forces
     atom    1 type  1   force =     0.00000000    0.00000000    0.00000000
     atom    2 type  1   force =     0.00000000    0.00000000    0.00000000
     atom    3 type  2   force =     0.00000000    0.00000000    0.00000000
     atom    4 type  2   force =     0.00000000    0.00000000    0.00000000
     atom    5 type  1   force =     0.00000000    0.00000000    0.00000000
     atom    6 type  1   force =     0.00000000    0.00000000    0.00000000
     atom    7 type  2   force =     0.00000000    0.00000000    0.00000000
     atom    8 type  2   force =     0.00000000    0.00000000    0.00000000
     atom    9 type  1   force =     0.00000000    0.00000000    0.00000000
     atom   10 type  1   force =     0.00000000    0.00000000    0.00000000
     atom   11 type  2   force =     0.00000000    0.00000000    0.00000000
     atom   12 type  2   force =     0.00000000    0.00000000    0.00000000
     atom   13 type  1   force =     0.00000000    0.00000000    0.00000000
     atom   14 type  1   force =     0.00000000    0.00000000    0.00000000
     atom   15 type  2   force =     0.00000000    0.00000000    0.00000000
     atom   16 type  2   force =     0.00000000    0.00000000    0.00000000
     The SCF correction term to forces
     atom    1 type  1   force =    -0.00000000    0.00000162    0.00002050
     atom    2 type  1   force =    -0.00000000   -0.00000233    0.00000668
     atom    3 type  2   force =     0.00000000    0.00000050    0.00000541
     atom    4 type  2   force =    -0.00000000   -0.00000165    0.00000620
     atom    5 type  1   force =    -0.00000000    0.00000207   -0.00000085
     atom    6 type  1   force =    -0.00000000   -0.00000634    0.00000847
     atom    7 type  2   force =     0.00000000   -0.00000029   -0.00000061
     atom    8 type  2   force =    -0.00000000   -0.00000155   -0.00000093
     atom    9 type  1   force =     0.00000000    0.00000369    0.00001921
     atom   10 type  1   force =     0.00000000   -0.00000053    0.00000589
     atom   11 type  2   force =     0.00000000    0.00000158    0.00000529
     atom   12 type  2   force =    -0.00000000   -0.00000024    0.00000493
     atom   13 type  1   force =     0.00000000    0.00000378    0.00000051
     atom   14 type  1   force =    -0.00000000    0.00000035    0.00000812
     atom   15 type  2   force =     0.00000000    0.00000222   -0.00000026
     atom   16 type  2   force =    -0.00000000   -0.00000018   -0.00000052

     Total force =     0.005137     Total SCF correction =     0.000035

     General routines

     Parallel routines

   This run was terminated on:   8:19:34  29Aug2025

   JOB DONE.
Note: The following floating-point exceptions are signalling: IEEE_UNDERFLOW_FLAG IEEE_DENORMAL
Note: The following floating-point exceptions are signalling: IEEE_UNDERFLOW_FLAG IEEE_DENORMAL
Note: The following floating-point exceptions are signalling: IEEE_UNDERFLOW_FLAG IEEE_DENORMAL
Note: The following floating-point exceptions are signalling: IEEE_UNDERFLOW_FLAG IEEE_DENORMAL
Note: The following floating-point exceptions are signalling: IEEE_UNDERFLOW_FLAG IEEE_DENORMAL
Note: The following floating-point exceptions are signalling: IEEE_UNDERFLOW_FLAG IEEE_DENORMAL
Note: The following floating-point exceptions are signalling: IEEE_UNDERFLOW_FLAG IEEE_DENORMAL
Note: The following floating-point exceptions are signalling: IEEE_UNDERFLOW_FLAG IEEE_DENORMAL
Note: The following floating-point exceptions are signalling: IEEE_UNDERFLOW_FLAG IEEE_DENORMAL
Note: The following floating-point exceptions are signalling: IEEE_UNDERFLOW_FLAG IEEE_DENORMAL
Note: The following floating-point exceptions are signalling: IEEE_UNDERFLOW_FLAG IEEE_DENORMAL
Note: The following floating-point exceptions are signalling: IEEE_UNDERFLOW_FLAG IEEE_DENORMAL
Note: The following floating-point exceptions are signalling: IEEE_UNDERFLOW_FLAG IEEE_DENORMAL
Note: The following floating-point exceptions are signalling: IEEE_UNDERFLOW_FLAG IEEE_DENORMAL
Note: The following floating-point exceptions are signalling: IEEE_UNDERFLOW_FLAG IEEE_DENORMAL
Note: The following floating-point exceptions are signalling: IEEE_UNDERFLOW_FLAG IEEE_DENORMAL
Note: The following floating-point exceptions are signalling: IEEE_UNDERFLOW_FLAG IEEE_DENORMAL
Note: The following floating-point exceptions are signalling: IEEE_UNDERFLOW_FLAG IEEE_DENORMAL
Note: The following floating-point exceptions are signalling: IEEE_UNDERFLOW_FLAG IEEE_DENORMAL
Note: The following floating-point exceptions are signalling: IEEE_UNDERFLOW_FLAG IEEE_DENORMAL
Note: The following floating-point exceptions are signalling: IEEE_UNDERFLOW_FLAG IEEE_DENORMAL
Note: The following floating-point exceptions are signalling: IEEE_UNDERFLOW_FLAG IEEE_DENORMAL
Note: The following floating-point exceptions are signalling: IEEE_UNDERFLOW_FLAG IEEE_DENORMAL
Note: The following floating-point exceptions are signalling: IEEE_UNDERFLOW_FLAG IEEE_DENORMAL
Note: The following floating-point exceptions are signalling: IEEE_UNDERFLOW_FLAG IEEE_DENORMAL
Note: The following floating-point exceptions are signalling: IEEE_UNDERFLOW_FLAG IEEE_DENORMAL
Note: The following floating-point exceptions are signalling: IEEE_UNDERFLOW_FLAG IEEE_DENORMAL
Note: The following floating-point exceptions are signalling: IEEE_UNDERFLOW_FLAG IEEE_DENORMAL
Note: The following floating-point exceptions are signalling: IEEE_UNDERFLOW_FLAG IEEE_DENORMAL
Note: The following floating-point exceptions are signalling: IEEE_UNDERFLOW_FLAG IEEE_DENORMAL
Note: The following floating-point exceptions are signalling: IEEE_UNDERFLOW_FLAG IEEE_DENORMAL
Note: The following floating-point exceptions are signalling: IEEE_UNDERFLOW_FLAG IEEE_DENORMAL