     Program PWSCF v.7.0 starts on 28Aug2025 at 22: 6:13

     K-points division:     npool     =       8
     R & G space division:  proc/nbgrp/npool/nimage =       4

     Reading input from /home/jvc/QEspresso7.2/ZnO_database/scripts/cell122.in/ZnO-3.07-1.58-122.in
Warning: card &CELL ignored
Warning: card / ignored
Warning: card &FCP ignored
Warning: card / ignored
Warning: card &RISM ignored
Warning: card / ignored

     Current dimensions of program PWSCF are:
     Max number of different atomic species (ntypx) = 10
     Max number of k-points (npk) =  40000
     Max angular momentum in pseudopotentials (lmaxx) =  4
     file Zn.upf: wavefunction(s)  3D renormalized
     Found identity + (  0.0000  0.0000  0.5000) symmetry
     This is a supercell, fractional translations are disabled
     Message from routine setup:
     using ibrav=0 with symmetry is DISCOURAGED, use correct ibrav instead

     Using Slab Decomposition

     bravais-lattice index     =            0
     lattice parameter (alat)  =       5.8081  a.u.
     unit-cell volume          =    1073.8015 (a.u.)^3
     number of atoms/cell      =           16
     number of atomic types    =            2
     number of electrons       =       144.00
     number of Kohn-Sham states=           72
     kinetic-energy cutoff     =      50.0000  Ry
     charge density cutoff     =     400.0000  Ry
     scf convergence threshold =      1.0E-08
     mixing beta               =       0.3000
     number of iterations used =            8  plain     mixing
     Exchange-correlation= PBE
                           (   1   4   3   4   0   0   0)

     celldm(1)=   5.808123  celldm(2)=   0.000000  celldm(3)=   0.000000
     celldm(4)=   0.000000  celldm(5)=   0.000000  celldm(6)=   0.000000

     crystal axes: (cart. coord. in units of alat)
               a(1) = (   1.000000   0.000000   0.000000 )
               a(2) = (  -1.000000   1.732051   0.000000 )
               a(3) = (   0.000000   0.000000   3.164142 )

     reciprocal axes: (cart. coord. in units 2 pi/alat)
               b(1) = (  1.000000  0.577350 -0.000000 )
               b(2) = (  0.000000  0.577350  0.000000 )
               b(3) = (  0.000000 -0.000000  0.316041 )

     PseudoPot. # 1 for Zn read from file:
     /home/jvc/QEspresso7.2/ZnO_database/pseudos/Zn.upf
     MD5 check sum: 7f56cabf9682ed8c977c2f7d0c5985c5
     Pseudo is Ultrasoft + core correction, Zval = 12.0
     Generated using &quot;atomic&quot; code by A. Dal Corso  v.6.2.2
     Using radial grid of 1201 points,  6 beta functions with:
                l(1) =   0
                l(2) =   0
                l(3) =   1
                l(4) =   1
                l(5) =   2
                l(6) =   2
     Q(r) pseudized with 0 coefficients

     PseudoPot. # 2 for O  read from file:
     /home/jvc/QEspresso7.2/ZnO_database/pseudos/O.upf
     MD5 check sum: 91400c9766925bcf19f520983a725ff0
     Pseudo is Ultrasoft + core correction, Zval =  6.0
     Generated using &quot;atomic&quot; code by A. Dal Corso  v.6.3MaX
     Using radial grid of 1095 points,  4 beta functions with:
                l(1) =   0
                l(2) =   0
                l(3) =   1
                l(4) =   1
     Q(r) pseudized with 0 coefficients

     atomic species   valence    mass     pseudopotential
        Zn            12.00    65.38000     Zn( 1.00)
        O              6.00    15.99900     O ( 1.00)

      2 Sym. Ops. (no inversion) found

                                    s                        frac. trans.

      isym =  1     identity

 cryst.   s( 1) = (     1          0          0      )
                  (     0          1          0      )
                  (     0          0          1      )

 cart.    s( 1) = (  1.0000000  0.0000000  0.0000000 )
                  (  0.0000000  1.0000000  0.0000000 )
                  (  0.0000000  0.0000000  1.0000000 )

      isym =  2     inv. 180 deg rotation - cart. axis [1,0,0]

 cryst.   s( 2) = (    -1          0          0      )
                  (     2          1          0      )
                  (     0          0          1      )

 cart.    s( 2) = ( -1.0000000  0.0000000  0.0000000 )
                  (  0.0000000  1.0000000  0.0000000 )
                  (  0.0000000  0.0000000  1.0000000 )

   Cartesian axes

     site n.     atom                  positions (alat units)
         1           Zn  tau(   1) = (   0.5000000   0.2886751   0.7920380  )
         2           Zn  tau(   2) = (   0.0000000   0.5773503   0.0010024  )
         3           O   tau(   3) = (   0.5000000   0.2886751   1.3917107  )
         4           O   tau(   4) = (   0.0000000   0.5773503   0.6006751  )
         5           Zn  tau(   5) = (   0.5000000   0.2886751   2.3741092  )
         6           Zn  tau(   6) = (   0.0000000   0.5773503   1.5830736  )
         7           O   tau(   7) = (   0.5000000   0.2886751   2.9737819  )
         8           O   tau(   8) = (   0.0000000   0.5773503   2.1827463  )
         9           Zn  tau(   9) = (   0.0000000   1.1547005   0.7920380  )
        10           Zn  tau(  10) = (  -0.5000000   1.4433757   0.0010024  )
        11           O   tau(  11) = (   0.0000000   1.1547005   1.3917107  )
        12           O   tau(  12) = (  -0.5000000   1.4433757   0.6006751  )
        13           Zn  tau(  13) = (   0.0000000   1.1547005   2.3741092  )
        14           Zn  tau(  14) = (  -0.5000000   1.4433757   1.5830736  )
        15           O   tau(  15) = (   0.0000000   1.1547005   2.9737819  )
        16           O   tau(  16) = (  -0.5000000   1.4433757   2.1827463  )

   Crystallographic axes

     site n.     atom                  positions (cryst. coord.)
         1           Zn  tau(   1) = (  0.6666667  0.1666667  0.2503168  )
         2           Zn  tau(   2) = (  0.3333333  0.3333333  0.0003168  )
         3           O   tau(   3) = (  0.6666667  0.1666667  0.4398382  )
         4           O   tau(   4) = (  0.3333333  0.3333333  0.1898382  )
         5           Zn  tau(   5) = (  0.6666667  0.1666667  0.7503168  )
         6           Zn  tau(   6) = (  0.3333333  0.3333333  0.5003168  )
         7           O   tau(   7) = (  0.6666667  0.1666667  0.9398382  )
         8           O   tau(   8) = (  0.3333333  0.3333333  0.6898382  )
         9           Zn  tau(   9) = (  0.6666667  0.6666667  0.2503168  )
        10           Zn  tau(  10) = (  0.3333333  0.8333333  0.0003168  )
        11           O   tau(  11) = (  0.6666667  0.6666667  0.4398382  )
        12           O   tau(  12) = (  0.3333333  0.8333333  0.1898382  )
        13           Zn  tau(  13) = (  0.6666667  0.6666667  0.7503168  )
        14           Zn  tau(  14) = (  0.3333333  0.8333333  0.5003168  )
        15           O   tau(  15) = (  0.6666667  0.6666667  0.9398382  )
        16           O   tau(  16) = (  0.3333333  0.8333333  0.6898382  )

     number of k points=    80
                       cart. coord. in units 2pi/alat
        k(    1) = (   0.0000000   0.0000000   0.0000000), wk =   0.0092593
        k(    2) = (   0.0000000   0.0000000   0.0526736), wk =   0.0185185
        k(    3) = (   0.0000000   0.0000000   0.1053471), wk =   0.0185185
        k(    4) = (   0.0000000   0.0000000  -0.1580207), wk =   0.0092593
        k(    5) = (   0.0000000   0.0962250   0.0000000), wk =   0.0185185
        k(    6) = (   0.0000000   0.0962250   0.0526736), wk =   0.0185185
        k(    7) = (   0.0000000   0.0962250   0.1053471), wk =   0.0185185
        k(    8) = (   0.0000000   0.0962250  -0.1580207), wk =   0.0185185
        k(    9) = (   0.0000000   0.1924501   0.0000000), wk =   0.0185185
        k(   10) = (   0.0000000   0.1924501   0.0526736), wk =   0.0185185
        k(   11) = (   0.0000000   0.1924501   0.1053471), wk =   0.0185185
        k(   12) = (   0.0000000   0.1924501  -0.1580207), wk =   0.0185185
        k(   13) = (   0.0000000  -0.2886751   0.0000000), wk =   0.0092593
        k(   14) = (   0.0000000  -0.2886751   0.0526736), wk =   0.0185185
        k(   15) = (   0.0000000  -0.2886751   0.1053471), wk =   0.0185185
        k(   16) = (   0.0000000  -0.2886751  -0.1580207), wk =   0.0092593
        k(   17) = (   0.1666667   0.0962250   0.0000000), wk =   0.0370370
        k(   18) = (   0.1666667   0.0962250   0.0526736), wk =   0.0370370
        k(   19) = (   0.1666667   0.0962250   0.1053471), wk =   0.0370370
        k(   20) = (   0.1666667   0.0962250  -0.1580207), wk =   0.0370370
        k(   21) = (   0.1666667   0.1924501   0.0000000), wk =   0.0370370
        k(   22) = (   0.1666667   0.1924501   0.0526736), wk =   0.0370370
        k(   23) = (   0.1666667   0.1924501   0.1053471), wk =   0.0370370
        k(   24) = (   0.1666667   0.1924501  -0.1580207), wk =   0.0370370
        k(   25) = (   0.1666667   0.2886751   0.0000000), wk =   0.0185185
        k(   26) = (   0.1666667   0.2886751   0.0526736), wk =   0.0370370
        k(   27) = (   0.1666667   0.2886751   0.1053471), wk =   0.0370370
        k(   28) = (   0.1666667   0.2886751  -0.1580207), wk =   0.0185185
        k(   29) = (   0.1666667   0.0000000   0.0000000), wk =   0.0185185
        k(   30) = (   0.1666667   0.0000000   0.0526736), wk =   0.0370370
        k(   31) = (   0.1666667   0.0000000   0.1053471), wk =   0.0370370
        k(   32) = (   0.1666667   0.0000000  -0.1580207), wk =   0.0185185
        k(   33) = (   0.3333333   0.1924501   0.0000000), wk =   0.0370370
        k(   34) = (   0.3333333   0.1924501   0.0526736), wk =   0.0370370
        k(   35) = (   0.3333333   0.1924501   0.1053471), wk =   0.0370370
        k(   36) = (   0.3333333   0.1924501  -0.1580207), wk =   0.0370370
        k(   37) = (   0.3333333   0.2886751   0.0000000), wk =   0.0185185
        k(   38) = (   0.3333333   0.2886751   0.0526736), wk =   0.0370370
        k(   39) = (   0.3333333   0.2886751   0.1053471), wk =   0.0370370
        k(   40) = (   0.3333333   0.2886751  -0.1580207), wk =   0.0185185
        k(   41) = (   0.3333333  -0.0962250   0.0000000), wk =   0.0370370
        k(   42) = (   0.3333333  -0.0962250   0.0526736), wk =   0.0370370
        k(   43) = (   0.3333333  -0.0962250   0.1053471), wk =   0.0370370
        k(   44) = (   0.3333333  -0.0962250  -0.1580207), wk =   0.0370370
        k(   45) = (   0.3333333  -0.0000000   0.0000000), wk =   0.0185185
        k(   46) = (   0.3333333  -0.0000000   0.0526736), wk =   0.0370370
        k(   47) = (   0.3333333  -0.0000000   0.1053471), wk =   0.0370370
        k(   48) = (   0.3333333  -0.0000000  -0.1580207), wk =   0.0185185
        k(   49) = (  -0.5000000  -0.2886751   0.0000000), wk =   0.0092593
        k(   50) = (  -0.5000000  -0.2886751   0.0526736), wk =   0.0185185
        k(   51) = (  -0.5000000  -0.2886751   0.1053471), wk =   0.0185185
        k(   52) = (  -0.5000000  -0.2886751  -0.1580207), wk =   0.0092593
        k(   53) = (  -0.5000000  -0.1924501   0.0000000), wk =   0.0185185
        k(   54) = (  -0.5000000  -0.1924501   0.0526736), wk =   0.0185185
        k(   55) = (  -0.5000000  -0.1924501   0.1053471), wk =   0.0185185
[...]

     Initial potential from superposition of free atoms

     starting charge     143.9702, renormalised to     144.0000
     Starting wfcs are  104 randomized atomic wfcs

     Self-consistent Calculation

     iteration #  1     ecut=    50.00 Ry     beta= 0.30
     Davidson diagonalization with overlap

     ethr =  1.00E-02,  avg # of iterations =  2.0

     total energy              =   -1445.67000267 Ry
     estimated scf accuracy    <       2.70277346 Ry

[...]

     c_bands:  1 eigenvalues not converged
     c_bands:  1 eigenvalues not converged
     c_bands:  1 eigenvalues not converged
     c_bands:  1 eigenvalues not converged
     c_bands:  1 eigenvalues not converged
     ethr =  1.81E-08,  avg # of iterations = 14.4

[...]

     c_bands:  1 eigenvalues not converged
     c_bands:  1 eigenvalues not converged
     ethr =  9.20E-12,  avg # of iterations = 12.2

[...]

     total energy              =   -1446.21889752 Ry
     estimated scf accuracy    <       0.00000021 Ry

     iteration # 20     ecut=    50.00 Ry     beta= 0.30
     Davidson diagonalization with overlap

     ethr =  9.20E-12,  avg # of iterations =  8.6

     End of self-consistent calculation

          k = 0.0000 0.0000 0.0000 (  6443 PWs)   bands (ev):

    -9.4660  -8.9482  -8.9482  -8.4956  -8.3912  -8.3115  -8.3115  -8.1660
     2.6882   2.6882   3.0407   3.0573   3.0573   3.1087   3.1193   3.5073
     3.5075   3.5696   3.6000   3.6000   3.6001   3.6001   3.7756   3.7757
     3.8325   4.0748   4.0935   4.0935   4.1340   4.1340   4.3585   4.5736
     5.2818   5.2818   5.3151   5.4899   5.4899   5.4899   5.4899   5.5470
     5.5866   5.5866   5.6175   5.6176   5.6904   5.6904   5.6906   5.7774
     5.9647   6.1033   6.1521   6.1521   6.3335   6.9252   7.3104   7.9623
     7.9623   8.3438   8.3438   8.6339   8.6339   8.7247   9.1903   9.1906
     9.2081   9.7329   9.7329   9.7331   9.7331  10.1637  10.2679  10.2682

     occupation numbers
     1.0000   1.0000   1.0000   1.0000   1.0000   1.0000   1.0000   1.0000
     1.0000   1.0000   1.0000   1.0000   1.0000   1.0000   1.0000   1.0000
     1.0000   1.0000   1.0000   1.0000   1.0000   1.0000   1.0000   1.0000
     1.0000   1.0000   1.0000   1.0000   1.0000   1.0000   1.0000   1.0000
     1.0000   1.0000   1.0000   1.0000   1.0000   1.0000   1.0000   1.0000
     1.0000   1.0000   1.0000   1.0000   1.0000   1.0000   1.0000   1.0000
     1.0000   1.0000   1.0000   1.0000   1.0000   1.0000   1.0000   1.0000
     1.0000   1.0000   1.0000   1.0000   1.0000   1.0000   1.0000   1.0000
     1.0000   1.0000   1.0000   1.0000   1.0000   1.0000   1.0000   1.0000

[...]

          k =-0.5000-0.2887 0.0000 (  6372 PWs)   bands (ev):

[...]

          k =-0.3333-0.0962-0.1053 (  6408 PWs)   bands (ev):

[...]

          k = 0.5000-0.0962-0.1053 (  6392 PWs)   bands (ev):

    -8.4814  -8.4814  -8.4082  -8.4082  -8.2318  -8.2318  -8.1772  -8.1772
     2.9324   2.9324   3.0095   3.0095   3.0842   3.0842   3.2725   3.2725
     3.7563   3.7563   3.7781   3.7781   3.9027   3.9027   3.9522   3.9522
     4.2488   4.2488   4.3219   4.3219   4.3452   4.3452   4.4705   4.4705
     5.2442   5.2442   5.3744   5.3744   5.4563   5.4563   5.5089   5.5090
     5.6875   5.6875   5.6958   5.6958   5.8672   5.8672   5.8787   5.8787
     6.0049   6.0049   6.1792   6.1792   6.6130   6.6130   6.6921   6.6921
     6.8934   6.8934   7.2978   7.2978   7.4614   7.4614   7.9804   7.9804
     8.3809   8.3809   8.6279   8.6279   8.9008   8.9008   8.9520   8.9520

     occupation numbers
     1.0000   1.0000   1.0000   1.0000   1.0000   1.0000   1.0000   1.0000
     1.0000   1.0000   1.0000   1.0000   1.0000   1.0000   1.0000   1.0000
     1.0000   1.0000   1.0000   1.0000   1.0000   1.0000   1.0000   1.0000
     1.0000   1.0000   1.0000   1.0000   1.0000   1.0000   1.0000   1.0000
     1.0000   1.0000   1.0000   1.0000   1.0000   1.0000   1.0000   1.0000
     1.0000   1.0000   1.0000   1.0000   1.0000   1.0000   1.0000   1.0000
     1.0000   1.0000   1.0000   1.0000   1.0000   1.0000   1.0000   1.0000
     1.0000   1.0000   1.0000   1.0000   1.0000   1.0000   1.0000   1.0000
     1.0000   1.0000   1.0000   1.0000   1.0000   1.0000   1.0000   1.0000

     highest occupied level (ev):    10.2682

!    total energy              =   -1446.21889755 Ry
     estimated scf accuracy    <          2.3E-09 Ry

     The total energy is the sum of the following terms:
     one-electron contribution =    -521.35980035 Ry
     hartree contribution      =     439.73675438 Ry
     xc contribution           =    -440.09116951 Ry
     ewald contribution        =    -924.50468206 Ry

     convergence has been achieved in  20 iterations

     Forces acting on atoms (cartesian axes, Ry/au):

     atom    1 type  1   force =     0.00000000   -0.00001439   -0.01673201
     atom    2 type  1   force =     0.00000000    0.00001507   -0.01672913
     atom    3 type  2   force =     0.00000000    0.00000204    0.01673147
     atom    4 type  2   force =     0.00000000   -0.00000220    0.01673128
     atom    5 type  1   force =     0.00000000   -0.00001495   -0.01673226
     atom    6 type  1   force =     0.00000000    0.00001379   -0.01673108
     atom    7 type  2   force =     0.00000000    0.00000212    0.01673141
     atom    8 type  2   force =     0.00000000   -0.00000217    0.01673147
     atom    9 type  1   force =     0.00000000   -0.00001350   -0.01673268
     atom   10 type  1   force =     0.00000000    0.00001306   -0.01673031
     atom   11 type  2   force =     0.00000000    0.00000249    0.01673171
     atom   12 type  2   force =     0.00000000   -0.00000231    0.01673119
     atom   13 type  1   force =     0.00000000   -0.00001374   -0.01673209
     atom   14 type  1   force =     0.00000000    0.00001447   -0.01673160
     atom   15 type  2   force =     0.00000000    0.00000237    0.01673129
     atom   16 type  2   force =     0.00000000   -0.00000215    0.01673134
     The non-local contrib.  to forces
     atom    1 type  1   force =     0.00000000    0.00003203   -0.07016252
     atom    2 type  1   force =     0.00000000   -0.00003194   -0.07016074
     atom    3 type  2   force =     0.00000000    0.00018100   -0.04137308
     atom    4 type  2   force =     0.00000000   -0.00018093   -0.04137345
     atom    5 type  1   force =     0.00000000    0.00003220   -0.07016279
     atom    6 type  1   force =     0.00000000   -0.00003244   -0.07016206
     atom    7 type  2   force =     0.00000000    0.00018080   -0.04137410
     atom    8 type  2   force =     0.00000000   -0.00018106   -0.04137297
     atom    9 type  1   force =     0.00000000    0.00003286   -0.07016253
     atom   10 type  1   force =     0.00000000   -0.00003301   -0.07016130
     atom   11 type  2   force =     0.00000000    0.00018062   -0.04137346
     atom   12 type  2   force =     0.00000000   -0.00018071   -0.04137349
     atom   13 type  1   force =     0.00000000    0.00003286   -0.07016243
     atom   14 type  1   force =     0.00000000   -0.00003234   -0.07016232
     atom   15 type  2   force =     0.00000000    0.00018091   -0.04137398
     atom   16 type  2   force =     0.00000000   -0.00018065   -0.04137317
     The ionic contribution  to forces
     atom    1 type  1   force =    -0.00000000    0.00000001   -0.40542190
     atom    2 type  1   force =     0.00000001    0.00000001   -0.40542190
     atom    3 type  2   force =    -0.00000000    0.00000001    0.40542190
     atom    4 type  2   force =     0.00000000    0.00000001    0.40542190
     atom    5 type  1   force =    -0.00000000    0.00000001   -0.40542190
     atom    6 type  1   force =     0.00000001    0.00000001   -0.40542190
     atom    7 type  2   force =    -0.00000000    0.00000001    0.40542190
     atom    8 type  2   force =     0.00000000    0.00000001    0.40542190
     atom    9 type  1   force =     0.00000000   -0.00000002   -0.40542190
     atom   10 type  1   force =    -0.00000000   -0.00000001   -0.40542190
     atom   11 type  2   force =     0.00000000   -0.00000001    0.40542190
     atom   12 type  2   force =    -0.00000000   -0.00000000    0.40542190
     atom   13 type  1   force =     0.00000000   -0.00000002   -0.40542190
     atom   14 type  1   force =    -0.00000000   -0.00000001   -0.40542190
     atom   15 type  2   force =     0.00000000   -0.00000001    0.40542190
     atom   16 type  2   force =    -0.00000000   -0.00000000    0.40542190
     The local contribution  to forces
     atom    1 type  1   force =    -0.00000008   -0.00004934    0.45234802
     atom    2 type  1   force =    -0.00000000    0.00004745    0.45234304
     atom    3 type  2   force =    -0.00000002   -0.00017416   -0.34755771
     atom    4 type  2   force =    -0.00000000    0.00017655   -0.34755730
     atom    5 type  1   force =    -0.00000008   -0.00004894    0.45234861
     atom    6 type  1   force =     0.00000000    0.00004950    0.45234658
     atom    7 type  2   force =    -0.00000002   -0.00017554   -0.34755924
     atom    8 type  2   force =    -0.00000000    0.00017525   -0.34755755
     atom    9 type  1   force =     0.00000000   -0.00005031    0.45234816
     atom   10 type  1   force =    -0.00000000    0.00005207    0.45234476
     atom   11 type  2   force =     0.00000000   -0.00017660   -0.34755901
     atom   12 type  2   force =    -0.00000000    0.00017481   -0.34755782
     atom   13 type  1   force =    -0.00000000   -0.00005043    0.45234703
     atom   14 type  1   force =    -0.00000000    0.00004982    0.45234685
     atom   15 type  2   force =     0.00000000   -0.00017565   -0.34755930
     atom   16 type  2   force =     0.00000000    0.00017553   -0.34755736
     The core correction contribution to forces
     atom    1 type  1   force =    -0.00000007    0.00000406    0.00650544
     atom    2 type  1   force =    -0.00000003   -0.00000385    0.00650548
     atom    3 type  2   force =    -0.00000000   -0.00000203    0.00024425
     atom    4 type  2   force =     0.00000000    0.00000207    0.00024425
     atom    5 type  1   force =    -0.00000007    0.00000404    0.00650544
     atom    6 type  1   force =    -0.00000003   -0.00000390    0.00650544
     atom    7 type  2   force =    -0.00000000   -0.00000203    0.00024426
     atom    8 type  2   force =     0.00000000    0.00000207    0.00024424
     atom    9 type  1   force =     0.00000003    0.00000389    0.00650546
     atom   10 type  1   force =     0.00000006   -0.00000410    0.00650548
     atom   11 type  2   force =    -0.00000000   -0.00000207    0.00024424
     atom   12 type  2   force =     0.00000000    0.00000203    0.00024425
     atom   13 type  1   force =     0.00000003    0.00000391    0.00650550
     atom   14 type  1   force =     0.00000006   -0.00000406    0.00650548
     atom   15 type  2   force =    -0.00000000   -0.00000207    0.00024425
     atom   16 type  2   force =     0.00000000    0.00000203    0.00024425
     The Hubbard contrib.    to forces
     atom    1 type  1   force =     0.00000000    0.00000000    0.00000000
     atom    2 type  1   force =     0.00000000    0.00000000    0.00000000
     atom    3 type  2   force =     0.00000000    0.00000000    0.00000000
     atom    4 type  2   force =     0.00000000    0.00000000    0.00000000
     atom    5 type  1   force =     0.00000000    0.00000000    0.00000000
     atom    6 type  1   force =     0.00000000    0.00000000    0.00000000
     atom    7 type  2   force =     0.00000000    0.00000000    0.00000000
     atom    8 type  2   force =     0.00000000    0.00000000    0.00000000
     atom    9 type  1   force =     0.00000000    0.00000000    0.00000000
     atom   10 type  1   force =     0.00000000    0.00000000    0.00000000
     atom   11 type  2   force =     0.00000000    0.00000000    0.00000000
     atom   12 type  2   force =     0.00000000    0.00000000    0.00000000
     atom   13 type  1   force =     0.00000000    0.00000000    0.00000000
     atom   14 type  1   force =     0.00000000    0.00000000    0.00000000
     atom   15 type  2   force =     0.00000000    0.00000000    0.00000000
     atom   16 type  2   force =     0.00000000    0.00000000    0.00000000
     The SCF correction term to forces
     atom    1 type  1   force =     0.00000000   -0.00000115   -0.00000123
     atom    2 type  1   force =     0.00000000    0.00000341    0.00000482
     atom    3 type  2   force =     0.00000000   -0.00000277   -0.00000406
     atom    4 type  2   force =     0.00000000    0.00000011   -0.00000429
     atom    5 type  1   force =     0.00000000   -0.00000226   -0.00000179
     atom    6 type  1   force =     0.00000000    0.00000062    0.00000068
     atom    7 type  2   force =     0.00000000   -0.00000111   -0.00000158
     atom    8 type  2   force =     0.00000000    0.00000157   -0.00000434
     atom    9 type  1   force =    -0.00000000    0.00000008   -0.00000204
     atom   10 type  1   force =    -0.00000000   -0.00000190    0.00000247
     atom   11 type  2   force =    -0.00000000    0.00000055   -0.00000214
     atom   12 type  2   force =    -0.00000000    0.00000157   -0.00000382
     atom   13 type  1   force =    -0.00000000   -0.00000005   -0.00000047
     atom   14 type  1   force =    -0.00000000    0.00000106    0.00000011
     atom   15 type  2   force =    -0.00000000   -0.00000081   -0.00000175
     atom   16 type  2   force =    -0.00000000    0.00000096   -0.00000445

     Total force =     0.066926     Total SCF correction =     0.000013

     General routines

     Parallel routines

   This run was terminated on:  22:15:21  28Aug2025

   JOB DONE.
Note: The following floating-point exceptions are signalling: IEEE_UNDERFLOW_FLAG IEEE_DENORMAL
Note: The following floating-point exceptions are signalling: IEEE_UNDERFLOW_FLAG IEEE_DENORMAL
Note: The following floating-point exceptions are signalling: IEEE_UNDERFLOW_FLAG IEEE_DENORMAL
Note: The following floating-point exceptions are signalling: IEEE_UNDERFLOW_FLAG IEEE_DENORMAL
Note: The following floating-point exceptions are signalling: IEEE_UNDERFLOW_FLAG IEEE_DENORMAL
Note: The following floating-point exceptions are signalling: IEEE_UNDERFLOW_FLAG IEEE_DENORMAL
Note: The following floating-point exceptions are signalling: IEEE_UNDERFLOW_FLAG IEEE_DENORMAL
Note: The following floating-point exceptions are signalling: IEEE_UNDERFLOW_FLAG IEEE_DENORMAL
Note: The following floating-point exceptions are signalling: IEEE_UNDERFLOW_FLAG IEEE_DENORMAL
Note: The following floating-point exceptions are signalling: IEEE_UNDERFLOW_FLAG IEEE_DENORMAL
Note: The following floating-point exceptions are signalling: IEEE_UNDERFLOW_FLAG IEEE_DENORMAL
Note: The following floating-point exceptions are signalling: IEEE_UNDERFLOW_FLAG IEEE_DENORMAL
Note: The following floating-point exceptions are signalling: IEEE_UNDERFLOW_FLAG IEEE_DENORMAL
Note: The following floating-point exceptions are signalling: IEEE_UNDERFLOW_FLAG IEEE_DENORMAL
Note: The following floating-point exceptions are signalling: IEEE_UNDERFLOW_FLAG IEEE_DENORMAL
Note: The following floating-point exceptions are signalling: IEEE_UNDERFLOW_FLAG IEEE_DENORMAL
Note: The following floating-point exceptions are signalling: IEEE_UNDERFLOW_FLAG IEEE_DENORMAL
Note: The following floating-point exceptions are signalling: IEEE_UNDERFLOW_FLAG IEEE_DENORMAL
Note: The following floating-point exceptions are signalling: IEEE_UNDERFLOW_FLAG IEEE_DENORMAL
Note: The following floating-point exceptions are signalling: IEEE_UNDERFLOW_FLAG IEEE_DENORMAL
Note: The following floating-point exceptions are signalling: IEEE_UNDERFLOW_FLAG IEEE_DENORMAL
Note: The following floating-point exceptions are signalling: IEEE_UNDERFLOW_FLAG IEEE_DENORMAL
Note: The following floating-point exceptions are signalling: IEEE_UNDERFLOW_FLAG IEEE_DENORMAL
Note: The following floating-point exceptions are signalling: IEEE_UNDERFLOW_FLAG IEEE_DENORMAL
Note: The following floating-point exceptions are signalling: IEEE_UNDERFLOW_FLAG IEEE_DENORMAL
Note: The following floating-point exceptions are signalling: IEEE_UNDERFLOW_FLAG IEEE_DENORMAL
Note: The following floating-point exceptions are signalling: IEEE_UNDERFLOW_FLAG IEEE_DENORMAL
Note: The following floating-point exceptions are signalling: IEEE_UNDERFLOW_FLAG IEEE_DENORMAL
Note: The following floating-point exceptions are signalling: IEEE_UNDERFLOW_FLAG IEEE_DENORMAL
Note: The following floating-point exceptions are signalling: IEEE_UNDERFLOW_FLAG IEEE_DENORMAL
Note: The following floating-point exceptions are signalling: IEEE_UNDERFLOW_FLAG IEEE_DENORMAL
Note: The following floating-point exceptions are signalling: IEEE_UNDERFLOW_FLAG IEEE_DENORMAL