     Program PWSCF v.7.0 starts on 29Aug2025 at  2:17:46

     K-points division:     npool     =       8
     R & G space division:  proc/nbgrp/npool/nimage =       4

     Reading input from /home/jvc/QEspresso7.2/ZnO_database/scripts/cell122.in/ZnO-3.20-1.61-122.in
Warning: card &CELL ignored
Warning: card / ignored
Warning: card &FCP ignored
Warning: card / ignored
Warning: card &RISM ignored
Warning: card / ignored

     Current dimensions of program PWSCF are:
     Max number of different atomic species (ntypx) = 10
     Max number of k-points (npk) =  40000
     Max angular momentum in pseudopotentials (lmaxx) =  4
     file Zn.upf: wavefunction(s)  3D renormalized
     Found identity + (  0.0000  0.0000  0.5000) symmetry
     This is a supercell, fractional translations are disabled
     Message from routine setup:
     using ibrav=0 with symmetry is DISCOURAGED, use correct ibrav instead

     Using Slab Decomposition

     bravais-lattice index     =            0
     lattice parameter (alat)  =       6.0553  a.u.
     unit-cell volume          =    1241.6311 (a.u.)^3
     number of atoms/cell      =           16
     number of atomic types    =            2
     number of electrons       =       144.00
     number of Kohn-Sham states=           72
     kinetic-energy cutoff     =      50.0000  Ry
     charge density cutoff     =     400.0000  Ry
     scf convergence threshold =      1.0E-08
     mixing beta               =       0.3000
     number of iterations used =            8  plain     mixing
     Exchange-correlation= PBE
                           (   1   4   3   4   0   0   0)

     celldm(1)=   6.055277  celldm(2)=   0.000000  celldm(3)=   0.000000
     celldm(4)=   0.000000  celldm(5)=   0.000000  celldm(6)=   0.000000

     crystal axes: (cart. coord. in units of alat)
               a(1) = (   1.000000   0.000000   0.000000 )
               a(2) = (  -1.000000   1.732051   0.000000 )
               a(3) = (   0.000000   0.000000   3.228717 )

     reciprocal axes: (cart. coord. in units 2 pi/alat)
               b(1) = (  1.000000  0.577350 -0.000000 )
               b(2) = (  0.000000  0.577350  0.000000 )
               b(3) = (  0.000000 -0.000000  0.309721 )

     PseudoPot. # 1 for Zn read from file:
     /home/jvc/QEspresso7.2/ZnO_database/pseudos/Zn.upf
     MD5 check sum: 7f56cabf9682ed8c977c2f7d0c5985c5
     Pseudo is Ultrasoft + core correction, Zval = 12.0
     Generated using &quot;atomic&quot; code by A. Dal Corso  v.6.2.2
     Using radial grid of 1201 points,  6 beta functions with:
                l(1) =   0
                l(2) =   0
                l(3) =   1
                l(4) =   1
                l(5) =   2
                l(6) =   2
     Q(r) pseudized with 0 coefficients

     PseudoPot. # 2 for O  read from file:
     /home/jvc/QEspresso7.2/ZnO_database/pseudos/O.upf
     MD5 check sum: 91400c9766925bcf19f520983a725ff0
     Pseudo is Ultrasoft + core correction, Zval =  6.0
     Generated using &quot;atomic&quot; code by A. Dal Corso  v.6.3MaX
     Using radial grid of 1095 points,  4 beta functions with:
                l(1) =   0
                l(2) =   0
                l(3) =   1
                l(4) =   1
     Q(r) pseudized with 0 coefficients

     atomic species   valence    mass     pseudopotential
        Zn            12.00    65.38000     Zn( 1.00)
        O              6.00    15.99900     O ( 1.00)

      2 Sym. Ops. (no inversion) found

                                    s                        frac. trans.

      isym =  1     identity

 cryst.   s( 1) = (     1          0          0      )
                  (     0          1          0      )
                  (     0          0          1      )

 cart.    s( 1) = (  1.0000000  0.0000000  0.0000000 )
                  (  0.0000000  1.0000000  0.0000000 )
                  (  0.0000000  0.0000000  1.0000000 )

      isym =  2     inv. 180 deg rotation - cart. axis [1,0,0]

 cryst.   s( 2) = (    -1          0          0      )
                  (     2          1          0      )
                  (     0          0          1      )

 cart.    s( 2) = ( -1.0000000  0.0000000  0.0000000 )
                  (  0.0000000  1.0000000  0.0000000 )
                  (  0.0000000  0.0000000  1.0000000 )

   Cartesian axes

     site n.     atom                  positions (alat units)
         1           Zn  tau(   1) = (   0.5000000   0.2886751   0.8082020  )
         2           Zn  tau(   2) = (  -0.0000000   0.5773503   0.0010228  )
         3           O   tau(   3) = (   0.5000000   0.2886751   1.4201130  )
         4           O   tau(   4) = (  -0.0000000   0.5773503   0.6129338  )
         5           Zn  tau(   5) = (   0.5000000   0.2886751   2.4225604  )
         6           Zn  tau(   6) = (  -0.0000000   0.5773503   1.6153812  )
         7           O   tau(   7) = (   0.5000000   0.2886751   3.0344713  )
         8           O   tau(   8) = (  -0.0000000   0.5773503   2.2272921  )
         9           Zn  tau(   9) = (   0.0000000   1.1547005   0.8082020  )
        10           Zn  tau(  10) = (  -0.5000000   1.4433757   0.0010228  )
        11           O   tau(  11) = (   0.0000000   1.1547005   1.4201130  )
        12           O   tau(  12) = (  -0.5000000   1.4433757   0.6129338  )
        13           Zn  tau(  13) = (   0.0000000   1.1547005   2.4225604  )
        14           Zn  tau(  14) = (  -0.5000000   1.4433757   1.6153812  )
        15           O   tau(  15) = (   0.0000000   1.1547005   3.0344713  )
        16           O   tau(  16) = (  -0.5000000   1.4433757   2.2272921  )

   Crystallographic axes

     site n.     atom                  positions (cryst. coord.)
         1           Zn  tau(   1) = (  0.6666667  0.1666667  0.2503168  )
         2           Zn  tau(   2) = (  0.3333333  0.3333333  0.0003168  )
         3           O   tau(   3) = (  0.6666667  0.1666667  0.4398382  )
         4           O   tau(   4) = (  0.3333333  0.3333333  0.1898382  )
         5           Zn  tau(   5) = (  0.6666667  0.1666667  0.7503168  )
         6           Zn  tau(   6) = (  0.3333333  0.3333333  0.5003168  )
         7           O   tau(   7) = (  0.6666667  0.1666667  0.9398382  )
         8           O   tau(   8) = (  0.3333333  0.3333333  0.6898382  )
         9           Zn  tau(   9) = (  0.6666667  0.6666667  0.2503168  )
        10           Zn  tau(  10) = (  0.3333333  0.8333333  0.0003168  )
        11           O   tau(  11) = (  0.6666667  0.6666667  0.4398382  )
        12           O   tau(  12) = (  0.3333333  0.8333333  0.1898382  )
        13           Zn  tau(  13) = (  0.6666667  0.6666667  0.7503168  )
        14           Zn  tau(  14) = (  0.3333333  0.8333333  0.5003168  )
        15           O   tau(  15) = (  0.6666667  0.6666667  0.9398382  )
        16           O   tau(  16) = (  0.3333333  0.8333333  0.6898382  )

     number of k points=    80
                       cart. coord. in units 2pi/alat
        k(    1) = (   0.0000000   0.0000000   0.0000000), wk =   0.0092593
        k(    2) = (   0.0000000   0.0000000   0.0516201), wk =   0.0185185
        k(    3) = (   0.0000000   0.0000000   0.1032402), wk =   0.0185185
        k(    4) = (   0.0000000   0.0000000  -0.1548603), wk =   0.0092593
        k(    5) = (   0.0000000   0.0962250   0.0000000), wk =   0.0185185
        k(    6) = (   0.0000000   0.0962250   0.0516201), wk =   0.0185185
        k(    7) = (   0.0000000   0.0962250   0.1032402), wk =   0.0185185
        k(    8) = (   0.0000000   0.0962250  -0.1548603), wk =   0.0185185
        k(    9) = (   0.0000000   0.1924501   0.0000000), wk =   0.0185185
        k(   10) = (   0.0000000   0.1924501   0.0516201), wk =   0.0185185
        k(   11) = (   0.0000000   0.1924501   0.1032402), wk =   0.0185185
        k(   12) = (   0.0000000   0.1924501  -0.1548603), wk =   0.0185185
        k(   13) = (   0.0000000  -0.2886751   0.0000000), wk =   0.0092593
        k(   14) = (   0.0000000  -0.2886751   0.0516201), wk =   0.0185185
        k(   15) = (   0.0000000  -0.2886751   0.1032402), wk =   0.0185185
        k(   16) = (   0.0000000  -0.2886751  -0.1548603), wk =   0.0092593
        k(   17) = (   0.1666667   0.0962250   0.0000000), wk =   0.0370370
        k(   18) = (   0.1666667   0.0962250   0.0516201), wk =   0.0370370
        k(   19) = (   0.1666667   0.0962250   0.1032402), wk =   0.0370370
        k(   20) = (   0.1666667   0.0962250  -0.1548603), wk =   0.0370370
        k(   21) = (   0.1666667   0.1924501   0.0000000), wk =   0.0370370
        k(   22) = (   0.1666667   0.1924501   0.0516201), wk =   0.0370370
        k(   23) = (   0.1666667   0.1924501   0.1032402), wk =   0.0370370
        k(   24) = (   0.1666667   0.1924501  -0.1548603), wk =   0.0370370
        k(   25) = (   0.1666667   0.2886751   0.0000000), wk =   0.0185185
        k(   26) = (   0.1666667   0.2886751   0.0516201), wk =   0.0370370
        k(   27) = (   0.1666667   0.2886751   0.1032402), wk =   0.0370370
        k(   28) = (   0.1666667   0.2886751  -0.1548603), wk =   0.0185185
        k(   29) = (   0.1666667   0.0000000   0.0000000), wk =   0.0185185
        k(   30) = (   0.1666667   0.0000000   0.0516201), wk =   0.0370370
        k(   31) = (   0.1666667   0.0000000   0.1032402), wk =   0.0370370
        k(   32) = (   0.1666667   0.0000000  -0.1548603), wk =   0.0185185
        k(   33) = (   0.3333333   0.1924501   0.0000000), wk =   0.0370370
        k(   34) = (   0.3333333   0.1924501   0.0516201), wk =   0.0370370
        k(   35) = (   0.3333333   0.1924501   0.1032402), wk =   0.0370370
        k(   36) = (   0.3333333   0.1924501  -0.1548603), wk =   0.0370370
        k(   37) = (   0.3333333   0.2886751   0.0000000), wk =   0.0185185
        k(   38) = (   0.3333333   0.2886751   0.0516201), wk =   0.0370370
        k(   39) = (   0.3333333   0.2886751   0.1032402), wk =   0.0370370
        k(   40) = (   0.3333333   0.2886751  -0.1548603), wk =   0.0185185
        k(   41) = (   0.3333333  -0.0962250   0.0000000), wk =   0.0370370
        k(   42) = (   0.3333333  -0.0962250   0.0516201), wk =   0.0370370
        k(   43) = (   0.3333333  -0.0962250   0.1032402), wk =   0.0370370
        k(   44) = (   0.3333333  -0.0962250  -0.1548603), wk =   0.0370370
        k(   45) = (   0.3333333  -0.0000000   0.0000000), wk =   0.0185185
        k(   46) = (   0.3333333  -0.0000000   0.0516201), wk =   0.0370370
        k(   47) = (   0.3333333  -0.0000000   0.1032402), wk =   0.0370370
        k(   48) = (   0.3333333  -0.0000000  -0.1548603), wk =   0.0185185
        k(   49) = (  -0.5000000  -0.2886751   0.0000000), wk =   0.0092593
        k(   50) = (  -0.5000000  -0.2886751   0.0516201), wk =   0.0185185
        k(   51) = (  -0.5000000  -0.2886751   0.1032402), wk =   0.0185185
        k(   52) = (  -0.5000000  -0.2886751  -0.1548603), wk =   0.0092593
        k(   53) = (  -0.5000000  -0.1924501   0.0000000), wk =   0.0185185
        k(   54) = (  -0.5000000  -0.1924501   0.0516201), wk =   0.0185185
        k(   55) = (  -0.5000000  -0.1924501   0.1032402), wk =   0.0185185
[...]
        k(   77) = (   0.5000000  -0.8333333  -0.1666667), wk =   0.0185185
        k(   78) = (   0.5000000  -0.8333333  -0.3333333), wk =   0.0185185
        k(   79) = (   0.5000000  -0.6666667  -0.1666667), wk =   0.0185185
        k(   80) = (   0.5000000  -0.6666667  -0.3333333), wk =   0.0185185

     Check: negative core charge=   -0.000002

     Initial potential from superposition of free atoms

     starting charge     143.9702, renormalised to     144.0000
     Starting wfcs are  104 randomized atomic wfcs

     Self-consistent Calculation

     iteration #  1     ecut=    50.00 Ry     beta= 0.30
     Davidson diagonalization with overlap

     ethr =  1.00E-02,  avg # of iterations =  2.0

     total energy              =   -1445.91766044 Ry
     estimated scf accuracy    <       2.70955333 Ry

[...]

     c_bands:  1 eigenvalues not converged
     ethr =  3.61E-08,  avg # of iterations = 12.0

[...]

     total energy              =   -1446.51785462 Ry
     estimated scf accuracy    <       0.00000014 Ry

     iteration # 39     ecut=    50.00 Ry     beta= 0.30
     Davidson diagonalization with overlap

     ethr =  6.44E-11,  avg # of iterations =  5.5

     End of self-consistent calculation

          k = 0.0000 0.0000 0.0000 (  7363 PWs)   bands (ev):

   -10.5741 -10.1992 -10.1992  -9.8364  -9.8009  -9.7082  -9.7082  -9.5997
     1.4495   1.4495   1.6609   1.6803   1.6803   1.8242   1.8834   1.9356
     1.9358   1.9844   2.0112   2.0112   2.0114   2.0114   2.1405   2.1406
     2.2080   2.4514   2.4514   2.5033   2.5033   2.5715   2.6304   2.7812
     3.2330   3.2330   3.2636   3.3698   3.3698   3.3698   3.3698   3.4197
     3.4466   3.4466   3.4611   3.4611   3.5124   3.5357   3.5357   3.5910
     3.7468   3.9893   3.9893   4.0546   4.1442   4.8817   5.4323   5.5377
     5.5377   6.2277   6.2278   6.3623   6.3623   6.4614   6.9241   6.9749
     6.9752   7.3953   7.3953   7.3956   7.3956   7.7052   7.8071   7.8074

     occupation numbers
     1.0000   1.0000   1.0000   1.0000   1.0000   1.0000   1.0000   1.0000
     1.0000   1.0000   1.0000   1.0000   1.0000   1.0000   1.0000   1.0000
     1.0000   1.0000   1.0000   1.0000   1.0000   1.0000   1.0000   1.0000
     1.0000   1.0000   1.0000   1.0000   1.0000   1.0000   1.0000   1.0000
     1.0000   1.0000   1.0000   1.0000   1.0000   1.0000   1.0000   1.0000
     1.0000   1.0000   1.0000   1.0000   1.0000   1.0000   1.0000   1.0000
     1.0000   1.0000   1.0000   1.0000   1.0000   1.0000   1.0000   1.0000
     1.0000   1.0000   1.0000   1.0000   1.0000   1.0000   1.0000   1.0000
     1.0000   1.0000   1.0000   1.0000   1.0000   1.0000   1.0000   1.0000

[...]

          k =-0.5000-0.2887 0.0000 (  7388 PWs)   bands (ev):

[...]

          k =-0.3333-0.0962-0.1032 (  7423 PWs)   bands (ev):

[...]

          k = 0.5000-0.0962-0.1032 (  7428 PWs)   bands (ev):

    -9.8263  -9.8263  -9.7759  -9.7759  -9.6502  -9.6502  -9.6092  -9.6092
     1.6294   1.6294   1.7170   1.7170   1.7241   1.7241   1.9184   1.9184
     2.1884   2.1884   2.2126   2.2126   2.3580   2.3580   2.4028   2.4028
     2.5636   2.5636   2.5982   2.5982   2.6568   2.6568   2.7209   2.7209
     3.2118   3.2118   3.3043   3.3043   3.3576   3.3576   3.3925   3.3925
     3.5208   3.5208   3.5308   3.5308   3.6667   3.6667   3.7303   3.7303
     3.8819   3.8819   4.0503   4.0503   4.4114   4.4114   4.5128   4.5128
     4.9264   4.9264   5.2783   5.2783   5.3661   5.3661   5.8424   5.8424
     6.1858   6.1858   6.4065   6.4065   6.6278   6.6278   6.6655   6.6655

     occupation numbers
     1.0000   1.0000   1.0000   1.0000   1.0000   1.0000   1.0000   1.0000
     1.0000   1.0000   1.0000   1.0000   1.0000   1.0000   1.0000   1.0000
     1.0000   1.0000   1.0000   1.0000   1.0000   1.0000   1.0000   1.0000
     1.0000   1.0000   1.0000   1.0000   1.0000   1.0000   1.0000   1.0000
     1.0000   1.0000   1.0000   1.0000   1.0000   1.0000   1.0000   1.0000
     1.0000   1.0000   1.0000   1.0000   1.0000   1.0000   1.0000   1.0000
     1.0000   1.0000   1.0000   1.0000   1.0000   1.0000   1.0000   1.0000
     1.0000   1.0000   1.0000   1.0000   1.0000   1.0000   1.0000   1.0000
     1.0000   1.0000   1.0000   1.0000   1.0000   1.0000   1.0000   1.0000

     highest occupied level (ev):     7.8074

!    total energy              =   -1446.51785464 Ry
     estimated scf accuracy    <          9.5E-09 Ry

     The total energy is the sum of the following terms:
     one-electron contribution =    -590.04362254 Ry
     hartree contribution      =     463.25638002 Ry
     xc contribution           =    -438.69546982 Ry
     ewald contribution        =    -881.03514229 Ry

     convergence has been achieved in  39 iterations

     Forces acting on atoms (cartesian axes, Ry/au):

     atom    1 type  1   force =     0.00000000   -0.00000827    0.00021092
     atom    2 type  1   force =     0.00000000    0.00000800    0.00020067
     atom    3 type  2   force =     0.00000000    0.00000231   -0.00021084
     atom    4 type  2   force =     0.00000000   -0.00000295   -0.00020999
     atom    5 type  1   force =     0.00000000   -0.00000543    0.00020365
     atom    6 type  1   force =     0.00000000    0.00000990    0.00021854
     atom    7 type  2   force =     0.00000000    0.00000228   -0.00020656
     atom    8 type  2   force =     0.00000000   -0.00000256   -0.00020678
     atom    9 type  1   force =     0.00000000   -0.00000896    0.00021365
     atom   10 type  1   force =     0.00000000    0.00000948    0.00020152
     atom   11 type  2   force =     0.00000000    0.00000356   -0.00021041
     atom   12 type  2   force =     0.00000000   -0.00000223   -0.00020996
     atom   13 type  1   force =     0.00000000   -0.00001237    0.00020601
     atom   14 type  1   force =     0.00000000    0.00000648    0.00021307
     atom   15 type  2   force =     0.00000000    0.00000358   -0.00020685
     atom   16 type  2   force =     0.00000000   -0.00000283   -0.00020664
     The non-local contrib.  to forces
     atom    1 type  1   force =     0.00000000    0.00002738   -0.00501432
     atom    2 type  1   force =     0.00000000   -0.00002570   -0.00501714
     atom    3 type  2   force =     0.00000000    0.00019804    0.00488640
     atom    4 type  2   force =     0.00000000   -0.00019946    0.00488785
     atom    5 type  1   force =     0.00000000    0.00002948   -0.00500678
     atom    6 type  1   force =     0.00000000   -0.00002576   -0.00499970
     atom    7 type  2   force =     0.00000000    0.00019858    0.00489757
     atom    8 type  2   force =     0.00000000   -0.00019895    0.00489603
     atom    9 type  1   force =     0.00000000    0.00002467   -0.00501394
     atom   10 type  1   force =     0.00000000   -0.00002648   -0.00501741
     atom   11 type  2   force =     0.00000000    0.00019994    0.00488775
     atom   12 type  2   force =     0.00000000   -0.00019831    0.00488830
     atom   13 type  1   force =     0.00000000    0.00002239   -0.00500469
     atom   14 type  1   force =     0.00000000   -0.00002662   -0.00500306
     atom   15 type  2   force =     0.00000000    0.00019984    0.00489650
     atom   16 type  2   force =     0.00000000   -0.00019910    0.00489576
     The ionic contribution  to forces
     atom    1 type  1   force =    -0.00000000   -0.00000002    0.06530281
     atom    2 type  1   force =     0.00000000   -0.00000002    0.06530281
     atom    3 type  2   force =    -0.00000000   -0.00000001   -0.06530281
     atom    4 type  2   force =     0.00000000   -0.00000001   -0.06530281
     atom    5 type  1   force =    -0.00000000   -0.00000002    0.06530281
     atom    6 type  1   force =     0.00000000   -0.00000002    0.06530281
     atom    7 type  2   force =    -0.00000000   -0.00000001   -0.06530281
     atom    8 type  2   force =     0.00000000   -0.00000001   -0.06530281
     atom    9 type  1   force =    -0.00000000    0.00000002    0.06530281
     atom   10 type  1   force =     0.00000000    0.00000002    0.06530281
     atom   11 type  2   force =    -0.00000000    0.00000001   -0.06530281
     atom   12 type  2   force =     0.00000000    0.00000001   -0.06530281
     atom   13 type  1   force =    -0.00000000    0.00000002    0.06530281
     atom   14 type  1   force =     0.00000000    0.00000002    0.06530281
     atom   15 type  2   force =    -0.00000000    0.00000001   -0.06530281
     atom   16 type  2   force =     0.00000000    0.00000001   -0.06530281
     The local contribution  to forces
     atom    1 type  1   force =    -0.00000000   -0.00004216   -0.06063411
     atom    2 type  1   force =     0.00000008    0.00004088   -0.06063035
     atom    3 type  2   force =    -0.00000000   -0.00019455    0.06025890
     atom    4 type  2   force =     0.00000002    0.00019343    0.06025178
     atom    5 type  1   force =    -0.00000000   -0.00004947   -0.06062795
     atom    6 type  1   force =     0.00000008    0.00003793   -0.06064420
     atom    7 type  2   force =     0.00000000   -0.00019320    0.06025829
     atom    8 type  2   force =     0.00000002    0.00019498    0.06026156
     atom    9 type  1   force =    -0.00000008   -0.00003914   -0.06063765
     atom   10 type  1   force =     0.00000000    0.00004086   -0.06063136
     atom   11 type  2   force =    -0.00000002   -0.00019423    0.06025937
     atom   12 type  2   force =    -0.00000000    0.00019451    0.06025262
     atom   13 type  1   force =    -0.00000008   -0.00003153   -0.06063242
     atom   14 type  1   force =     0.00000000    0.00004444   -0.06063364
     atom   15 type  2   force =    -0.00000002   -0.00019562    0.06025926
     atom   16 type  2   force =     0.00000000    0.00019301    0.06026108
     The core correction contribution to forces
     atom    1 type  1   force =    -0.00000000    0.00000531    0.00055098
     atom    2 type  1   force =     0.00000001   -0.00000536    0.00055133
     atom    3 type  2   force =     0.00000000   -0.00000226   -0.00005620
     atom    4 type  2   force =    -0.00000000    0.00000228   -0.00005482
     atom    5 type  1   force =     0.00000000    0.00000554    0.00054729
     atom    6 type  1   force =     0.00000001   -0.00000520    0.00054726
     atom    7 type  2   force =     0.00000000   -0.00000227   -0.00005739
     atom    8 type  2   force =    -0.00000000    0.00000228   -0.00005878
     atom    9 type  1   force =    -0.00000001    0.00000542    0.00055108
     atom   10 type  1   force =     0.00000000   -0.00000534    0.00055139
     atom   11 type  2   force =     0.00000000   -0.00000229   -0.00005621
     atom   12 type  2   force =    -0.00000000    0.00000227   -0.00005482
     atom   13 type  1   force =    -0.00000001    0.00000520    0.00054731
     atom   14 type  1   force =     0.00000000   -0.00000550    0.00054704
     atom   15 type  2   force =     0.00000000   -0.00000229   -0.00005737
     atom   16 type  2   force =    -0.00000000    0.00000227   -0.00005878
     The Hubbard contrib.    to forces
     atom    1 type  1   force =     0.00000000    0.00000000    0.00000000
     atom    2 type  1   force =     0.00000000    0.00000000    0.00000000
     atom    3 type  2   force =     0.00000000    0.00000000    0.00000000
     atom    4 type  2   force =     0.00000000    0.00000000    0.00000000
     atom    5 type  1   force =     0.00000000    0.00000000    0.00000000
     atom    6 type  1   force =     0.00000000    0.00000000    0.00000000
     atom    7 type  2   force =     0.00000000    0.00000000    0.00000000
     atom    8 type  2   force =     0.00000000    0.00000000    0.00000000
     atom    9 type  1   force =     0.00000000    0.00000000    0.00000000
     atom   10 type  1   force =     0.00000000    0.00000000    0.00000000
     atom   11 type  2   force =     0.00000000    0.00000000    0.00000000
     atom   12 type  2   force =     0.00000000    0.00000000    0.00000000
     atom   13 type  1   force =     0.00000000    0.00000000    0.00000000
     atom   14 type  1   force =     0.00000000    0.00000000    0.00000000
     atom   15 type  2   force =     0.00000000    0.00000000    0.00000000
     atom   16 type  2   force =     0.00000000    0.00000000    0.00000000
     The SCF correction term to forces
     atom    1 type  1   force =     0.00000000    0.00000108    0.00000567
     atom    2 type  1   force =    -0.00000000   -0.00000192   -0.00000587
     atom    3 type  2   force =     0.00000000    0.00000098    0.00000299
     atom    4 type  2   force =    -0.00000000    0.00000069    0.00000812
     atom    5 type  1   force =     0.00000000    0.00000891   -0.00001161
     atom    6 type  1   force =    -0.00000000    0.00000283    0.00001249
     atom    7 type  2   force =     0.00000000   -0.00000095   -0.00000211
     atom    8 type  2   force =    -0.00000000   -0.00000098   -0.00000266
     atom    9 type  1   force =     0.00000000   -0.00000005    0.00001145
     atom   10 type  1   force =    -0.00000000    0.00000030   -0.00000380
     atom   11 type  2   force =     0.00000000    0.00000001    0.00000163
     atom   12 type  2   force =    -0.00000000   -0.00000084    0.00000686
     atom   13 type  1   force =     0.00000000   -0.00000857   -0.00000689
     atom   14 type  1   force =    -0.00000000   -0.00000597    0.00000004
     atom   15 type  2   force =     0.00000000    0.00000152   -0.00000230
     atom   16 type  2   force =    -0.00000000    0.00000085   -0.00000178

     Total force =     0.000835     Total SCF correction =     0.000030

     General routines

     Parallel routines

   This run was terminated on:   2:33: 1  29Aug2025

   JOB DONE.
Note: The following floating-point exceptions are signalling: IEEE_UNDERFLOW_FLAG IEEE_DENORMAL
Note: The following floating-point exceptions are signalling: IEEE_UNDERFLOW_FLAG IEEE_DENORMAL
Note: The following floating-point exceptions are signalling: IEEE_UNDERFLOW_FLAG IEEE_DENORMAL
Note: The following floating-point exceptions are signalling: IEEE_UNDERFLOW_FLAG IEEE_DENORMAL
Note: The following floating-point exceptions are signalling: IEEE_UNDERFLOW_FLAG IEEE_DENORMAL
Note: The following floating-point exceptions are signalling: IEEE_UNDERFLOW_FLAG IEEE_DENORMAL
Note: The following floating-point exceptions are signalling: IEEE_UNDERFLOW_FLAG IEEE_DENORMAL
Note: The following floating-point exceptions are signalling: IEEE_UNDERFLOW_FLAG IEEE_DENORMAL
Note: The following floating-point exceptions are signalling: IEEE_UNDERFLOW_FLAG IEEE_DENORMAL
Note: The following floating-point exceptions are signalling: IEEE_UNDERFLOW_FLAG IEEE_DENORMAL
Note: The following floating-point exceptions are signalling: IEEE_UNDERFLOW_FLAG IEEE_DENORMAL
Note: The following floating-point exceptions are signalling: IEEE_UNDERFLOW_FLAG IEEE_DENORMAL
Note: The following floating-point exceptions are signalling: IEEE_UNDERFLOW_FLAG IEEE_DENORMAL
Note: The following floating-point exceptions are signalling: IEEE_UNDERFLOW_FLAG IEEE_DENORMAL
Note: The following floating-point exceptions are signalling: IEEE_UNDERFLOW_FLAG IEEE_DENORMAL
Note: The following floating-point exceptions are signalling: IEEE_UNDERFLOW_FLAG IEEE_DENORMAL
Note: The following floating-point exceptions are signalling: IEEE_UNDERFLOW_FLAG IEEE_DENORMAL
Note: The following floating-point exceptions are signalling: IEEE_UNDERFLOW_FLAG IEEE_DENORMAL
Note: The following floating-point exceptions are signalling: IEEE_UNDERFLOW_FLAG IEEE_DENORMAL
Note: The following floating-point exceptions are signalling: IEEE_UNDERFLOW_FLAG IEEE_DENORMAL
Note: The following floating-point exceptions are signalling: IEEE_UNDERFLOW_FLAG IEEE_DENORMAL
Note: The following floating-point exceptions are signalling: IEEE_UNDERFLOW_FLAG IEEE_DENORMAL
Note: The following floating-point exceptions are signalling: IEEE_UNDERFLOW_FLAG IEEE_DENORMAL
Note: The following floating-point exceptions are signalling: IEEE_UNDERFLOW_FLAG IEEE_DENORMAL
Note: The following floating-point exceptions are signalling: IEEE_UNDERFLOW_FLAG IEEE_DENORMAL
Note: The following floating-point exceptions are signalling: IEEE_UNDERFLOW_FLAG IEEE_DENORMAL
Note: The following floating-point exceptions are signalling: IEEE_UNDERFLOW_FLAG IEEE_DENORMAL
Note: The following floating-point exceptions are signalling: IEEE_UNDERFLOW_FLAG IEEE_DENORMAL
Note: The following floating-point exceptions are signalling: IEEE_UNDERFLOW_FLAG IEEE_DENORMAL
Note: The following floating-point exceptions are signalling: IEEE_UNDERFLOW_FLAG IEEE_DENORMAL
Note: The following floating-point exceptions are signalling: IEEE_UNDERFLOW_FLAG IEEE_DENORMAL
Note: The following floating-point exceptions are signalling: IEEE_UNDERFLOW_FLAG IEEE_DENORMAL