     Program PWSCF v.7.0 starts on 29Aug2025 at  4:37:10

     K-points division:     npool     =       8
     R & G space division:  proc/nbgrp/npool/nimage =       4

     Reading input from /home/jvc/QEspresso7.2/ZnO_database/scripts/cell122.in/ZnO-3.27-1.61-122.in
Warning: card &CELL ignored
Warning: card / ignored
Warning: card &FCP ignored
Warning: card / ignored
Warning: card &RISM ignored
Warning: card / ignored

     Current dimensions of program PWSCF are:
     Max number of different atomic species (ntypx) = 10
     Max number of k-points (npk) =  40000
     Max angular momentum in pseudopotentials (lmaxx) =  4
     file Zn.upf: wavefunction(s)  3D renormalized
     Found identity + (  0.0000  0.0000 -0.5000) symmetry
     This is a supercell, fractional translations are disabled
     Message from routine setup:
     using ibrav=0 with symmetry is DISCOURAGED, use correct ibrav instead

     Using Slab Decomposition

     bravais-lattice index     =            0
     lattice parameter (alat)  =       6.1789  a.u.
     unit-cell volume          =    1319.2113 (a.u.)^3
     number of atoms/cell      =           16
     number of atomic types    =            2
     number of electrons       =       144.00
     number of Kohn-Sham states=           72
     kinetic-energy cutoff     =      50.0000  Ry
     charge density cutoff     =     400.0000  Ry
     scf convergence threshold =      1.0E-08
     mixing beta               =       0.3000
     number of iterations used =            8  plain     mixing
     Exchange-correlation= PBE
                           (   1   4   3   4   0   0   0)

     celldm(1)=   6.178854  celldm(2)=   0.000000  celldm(3)=   0.000000
     celldm(4)=   0.000000  celldm(5)=   0.000000  celldm(6)=   0.000000

     crystal axes: (cart. coord. in units of alat)
               a(1) = (   1.000000   0.000000   0.000000 )
               a(2) = (  -1.000000   1.732051   0.000000 )
               a(3) = (   0.000000   0.000000   3.228717 )

     reciprocal axes: (cart. coord. in units 2 pi/alat)
               b(1) = (  1.000000  0.577350 -0.000000 )
               b(2) = (  0.000000  0.577350  0.000000 )
               b(3) = (  0.000000 -0.000000  0.309721 )

     PseudoPot. # 1 for Zn read from file:
     /home/jvc/QEspresso7.2/ZnO_database/pseudos/Zn.upf
     MD5 check sum: 7f56cabf9682ed8c977c2f7d0c5985c5
     Pseudo is Ultrasoft + core correction, Zval = 12.0
     Generated using &quot;atomic&quot; code by A. Dal Corso  v.6.2.2
     Using radial grid of 1201 points,  6 beta functions with:
                l(1) =   0
                l(2) =   0
                l(3) =   1
                l(4) =   1
                l(5) =   2
                l(6) =   2
     Q(r) pseudized with 0 coefficients

     PseudoPot. # 2 for O  read from file:
     /home/jvc/QEspresso7.2/ZnO_database/pseudos/O.upf
     MD5 check sum: 91400c9766925bcf19f520983a725ff0
     Pseudo is Ultrasoft + core correction, Zval =  6.0
     Generated using &quot;atomic&quot; code by A. Dal Corso  v.6.3MaX
     Using radial grid of 1095 points,  4 beta functions with:
                l(1) =   0
                l(2) =   0
                l(3) =   1
                l(4) =   1
     Q(r) pseudized with 0 coefficients

     atomic species   valence    mass     pseudopotential
        Zn            12.00    65.38000     Zn( 1.00)
        O              6.00    15.99900     O ( 1.00)

      2 Sym. Ops. (no inversion) found

                                    s                        frac. trans.

      isym =  1     identity

 cryst.   s( 1) = (     1          0          0      )
                  (     0          1          0      )
                  (     0          0          1      )

 cart.    s( 1) = (  1.0000000  0.0000000  0.0000000 )
                  (  0.0000000  1.0000000  0.0000000 )
                  (  0.0000000  0.0000000  1.0000000 )

      isym =  2     inv. 180 deg rotation - cart. axis [1,0,0]

 cryst.   s( 2) = (    -1          0          0      )
                  (     2          1          0      )
                  (     0          0          1      )

 cart.    s( 2) = ( -1.0000000  0.0000000  0.0000000 )
                  (  0.0000000  1.0000000  0.0000000 )
                  (  0.0000000  0.0000000  1.0000000 )

   Cartesian axes

     site n.     atom                  positions (alat units)
         1           Zn  tau(   1) = (   0.5000000   0.2886751   0.8082020  )
         2           Zn  tau(   2) = (   0.0000000   0.5773503   0.0010228  )
         3           O   tau(   3) = (   0.5000000   0.2886751   1.4201130  )
         4           O   tau(   4) = (   0.0000000   0.5773503   0.6129338  )
         5           Zn  tau(   5) = (   0.5000000   0.2886751   2.4225604  )
         6           Zn  tau(   6) = (   0.0000000   0.5773503   1.6153812  )
         7           O   tau(   7) = (   0.5000000   0.2886751   3.0344713  )
         8           O   tau(   8) = (   0.0000000   0.5773503   2.2272921  )
         9           Zn  tau(   9) = (   0.0000000   1.1547005   0.8082020  )
        10           Zn  tau(  10) = (  -0.5000000   1.4433757   0.0010228  )
        11           O   tau(  11) = (   0.0000000   1.1547005   1.4201130  )
        12           O   tau(  12) = (  -0.5000000   1.4433757   0.6129338  )
        13           Zn  tau(  13) = (   0.0000000   1.1547005   2.4225604  )
        14           Zn  tau(  14) = (  -0.5000000   1.4433757   1.6153812  )
        15           O   tau(  15) = (   0.0000000   1.1547005   3.0344713  )
        16           O   tau(  16) = (  -0.5000000   1.4433757   2.2272921  )

   Crystallographic axes

     site n.     atom                  positions (cryst. coord.)
         1           Zn  tau(   1) = (  0.6666667  0.1666667  0.2503168  )
         2           Zn  tau(   2) = (  0.3333333  0.3333333  0.0003168  )
         3           O   tau(   3) = (  0.6666667  0.1666667  0.4398382  )
         4           O   tau(   4) = (  0.3333333  0.3333333  0.1898382  )
         5           Zn  tau(   5) = (  0.6666667  0.1666667  0.7503168  )
         6           Zn  tau(   6) = (  0.3333333  0.3333333  0.5003168  )
         7           O   tau(   7) = (  0.6666667  0.1666667  0.9398382  )
         8           O   tau(   8) = (  0.3333333  0.3333333  0.6898382  )
         9           Zn  tau(   9) = (  0.6666667  0.6666667  0.2503168  )
        10           Zn  tau(  10) = (  0.3333333  0.8333333  0.0003168  )
        11           O   tau(  11) = (  0.6666667  0.6666667  0.4398382  )
        12           O   tau(  12) = (  0.3333333  0.8333333  0.1898382  )
        13           Zn  tau(  13) = (  0.6666667  0.6666667  0.7503168  )
        14           Zn  tau(  14) = (  0.3333333  0.8333333  0.5003168  )
        15           O   tau(  15) = (  0.6666667  0.6666667  0.9398382  )
        16           O   tau(  16) = (  0.3333333  0.8333333  0.6898382  )

     number of k points=    80
                       cart. coord. in units 2pi/alat
        k(    1) = (   0.0000000   0.0000000   0.0000000), wk =   0.0092593
        k(    2) = (   0.0000000   0.0000000   0.0516201), wk =   0.0185185
        k(    3) = (   0.0000000   0.0000000   0.1032402), wk =   0.0185185
        k(    4) = (   0.0000000   0.0000000  -0.1548603), wk =   0.0092593
        k(    5) = (   0.0000000   0.0962250   0.0000000), wk =   0.0185185
        k(    6) = (   0.0000000   0.0962250   0.0516201), wk =   0.0185185
        k(    7) = (   0.0000000   0.0962250   0.1032402), wk =   0.0185185
        k(    8) = (   0.0000000   0.0962250  -0.1548603), wk =   0.0185185
        k(    9) = (   0.0000000   0.1924501   0.0000000), wk =   0.0185185
        k(   10) = (   0.0000000   0.1924501   0.0516201), wk =   0.0185185
        k(   11) = (   0.0000000   0.1924501   0.1032402), wk =   0.0185185
        k(   12) = (   0.0000000   0.1924501  -0.1548603), wk =   0.0185185
        k(   13) = (   0.0000000  -0.2886751   0.0000000), wk =   0.0092593
        k(   14) = (   0.0000000  -0.2886751   0.0516201), wk =   0.0185185
        k(   15) = (   0.0000000  -0.2886751   0.1032402), wk =   0.0185185
        k(   16) = (   0.0000000  -0.2886751  -0.1548603), wk =   0.0092593
        k(   17) = (   0.1666667   0.0962250   0.0000000), wk =   0.0370370
        k(   18) = (   0.1666667   0.0962250   0.0516201), wk =   0.0370370
        k(   19) = (   0.1666667   0.0962250   0.1032402), wk =   0.0370370
        k(   20) = (   0.1666667   0.0962250  -0.1548603), wk =   0.0370370
        k(   21) = (   0.1666667   0.1924501   0.0000000), wk =   0.0370370
        k(   22) = (   0.1666667   0.1924501   0.0516201), wk =   0.0370370
        k(   23) = (   0.1666667   0.1924501   0.1032402), wk =   0.0370370
        k(   24) = (   0.1666667   0.1924501  -0.1548603), wk =   0.0370370
        k(   25) = (   0.1666667   0.2886751   0.0000000), wk =   0.0185185
        k(   26) = (   0.1666667   0.2886751   0.0516201), wk =   0.0370370
        k(   27) = (   0.1666667   0.2886751   0.1032402), wk =   0.0370370
        k(   28) = (   0.1666667   0.2886751  -0.1548603), wk =   0.0185185
        k(   29) = (   0.1666667   0.0000000   0.0000000), wk =   0.0185185
        k(   30) = (   0.1666667   0.0000000   0.0516201), wk =   0.0370370
        k(   31) = (   0.1666667   0.0000000   0.1032402), wk =   0.0370370
        k(   32) = (   0.1666667   0.0000000  -0.1548603), wk =   0.0185185
        k(   33) = (   0.3333333   0.1924501   0.0000000), wk =   0.0370370
        k(   34) = (   0.3333333   0.1924501   0.0516201), wk =   0.0370370
        k(   35) = (   0.3333333   0.1924501   0.1032402), wk =   0.0370370
        k(   36) = (   0.3333333   0.1924501  -0.1548603), wk =   0.0370370
        k(   37) = (   0.3333333   0.2886751   0.0000000), wk =   0.0185185
        k(   38) = (   0.3333333   0.2886751   0.0516201), wk =   0.0370370
        k(   39) = (   0.3333333   0.2886751   0.1032402), wk =   0.0370370
        k(   40) = (   0.3333333   0.2886751  -0.1548603), wk =   0.0185185
        k(   41) = (   0.3333333  -0.0962250   0.0000000), wk =   0.0370370
        k(   42) = (   0.3333333  -0.0962250   0.0516201), wk =   0.0370370
        k(   43) = (   0.3333333  -0.0962250   0.1032402), wk =   0.0370370
        k(   44) = (   0.3333333  -0.0962250  -0.1548603), wk =   0.0370370
        k(   45) = (   0.3333333  -0.0000000   0.0000000), wk =   0.0185185
        k(   46) = (   0.3333333  -0.0000000   0.0516201), wk =   0.0370370
        k(   47) = (   0.3333333  -0.0000000   0.1032402), wk =   0.0370370
        k(   48) = (   0.3333333  -0.0000000  -0.1548603), wk =   0.0185185
        k(   49) = (  -0.5000000  -0.2886751   0.0000000), wk =   0.0092593
        k(   50) = (  -0.5000000  -0.2886751   0.0516201), wk =   0.0185185
        k(   51) = (  -0.5000000  -0.2886751   0.1032402), wk =   0.0185185
        k(   52) = (  -0.5000000  -0.2886751  -0.1548603), wk =   0.0092593
        k(   53) = (  -0.5000000  -0.1924501   0.0000000), wk =   0.0185185
        k(   54) = (  -0.5000000  -0.1924501   0.0516201), wk =   0.0185185
        k(   55) = (  -0.5000000  -0.1924501   0.1032402), wk =   0.0185185
[...]
        k(   79) = (   0.5000000  -0.6666667  -0.1666667), wk =   0.0185185
        k(   80) = (   0.5000000  -0.6666667  -0.3333333), wk =   0.0185185

     Check: negative core charge=   -0.000002

     Initial potential from superposition of free atoms

     starting charge     143.9702, renormalised to     144.0000
     Starting wfcs are  104 randomized atomic wfcs

     Self-consistent Calculation

     iteration #  1     ecut=    50.00 Ry     beta= 0.30
     Davidson diagonalization with overlap

     ethr =  1.00E-02,  avg # of iterations =  1.9

     total energy              =   -1445.91815315 Ry
     estimated scf accuracy    <       2.76571431 Ry

[...]

     c_bands:  1 eigenvalues not converged
     c_bands:  1 eigenvalues not converged
     ethr =  2.71E-08,  avg # of iterations = 12.5

[...]

     total energy              =   -1446.54795892 Ry
     estimated scf accuracy    <       0.00000004 Ry

     iteration # 28     ecut=    50.00 Ry     beta= 0.30
     Davidson diagonalization with overlap

     ethr =  2.06E-11,  avg # of iterations =  4.0

     End of self-consistent calculation

          k = 0.0000 0.0000 0.0000 (  7805 PWs)   bands (ev):

   -10.9998 -10.6688 -10.6688 -10.3507 -10.3197 -10.2386 -10.2386 -10.1422
     0.9517   0.9517   1.1131   1.1289   1.1289   1.3148   1.3150   1.3219
     1.3557   1.3841   1.3841   1.3843   1.3843   1.4384   1.5002   1.5004
     1.5600   1.7811   1.7811   1.8577   1.8577   1.9403   1.9528   2.0743
     2.4273   2.4273   2.4633   2.5459   2.5459   2.5459   2.5459   2.5899
     2.6123   2.6123   2.6239   2.6239   2.6696   2.6968   2.6968   2.7407
     2.8909   3.1867   3.1867   3.2036   3.4257   4.1396   4.6591   4.6591
     4.7128   5.4373   5.4373   5.5527   5.5527   5.6391   6.0817   6.1234
     6.1237   6.5091   6.5091   6.5094   6.5095   6.8037   6.8855   6.8859

     occupation numbers
     1.0000   1.0000   1.0000   1.0000   1.0000   1.0000   1.0000   1.0000
     1.0000   1.0000   1.0000   1.0000   1.0000   1.0000   1.0000   1.0000
     1.0000   1.0000   1.0000   1.0000   1.0000   1.0000   1.0000   1.0000
     1.0000   1.0000   1.0000   1.0000   1.0000   1.0000   1.0000   1.0000
     1.0000   1.0000   1.0000   1.0000   1.0000   1.0000   1.0000   1.0000
     1.0000   1.0000   1.0000   1.0000   1.0000   1.0000   1.0000   1.0000
     1.0000   1.0000   1.0000   1.0000   1.0000   1.0000   1.0000   1.0000
     1.0000   1.0000   1.0000   1.0000   1.0000   1.0000   1.0000   1.0000
     1.0000   1.0000   1.0000   1.0000   1.0000   1.0000   1.0000   1.0000

[...]

          k =-0.5000-0.2887 0.0000 (  7852 PWs)   bands (ev):

[...]

          k =-0.3333-0.0962-0.1032 (  7891 PWs)   bands (ev):

[...]

          k = 0.5000-0.0962-0.1032 (  7914 PWs)   bands (ev):

   -10.3416 -10.3416 -10.2976 -10.2976 -10.1874 -10.1874 -10.1510 -10.1510
     1.1029   1.1029   1.1771   1.1771   1.1959   1.1959   1.3753   1.3753
     1.5626   1.5626   1.5829   1.5829   1.7329   1.7329   1.7720   1.7720
     1.8894   1.8894   1.9123   1.9123   1.9815   1.9815   2.0279   2.0279
     2.4162   2.4162   2.4948   2.4948   2.5384   2.5384   2.5667   2.5667
     2.6795   2.6795   2.6904   2.6904   2.8107   2.8107   2.8687   2.8687
     3.1144   3.1144   3.2557   3.2557   3.5905   3.5905   3.6960   3.6960
     4.2079   4.2079   4.5337   4.5337   4.6156   4.6156   5.0805   5.0805
     5.3800   5.3800   5.5958   5.5958   5.7974   5.7974   5.8435   5.8435

     occupation numbers
     1.0000   1.0000   1.0000   1.0000   1.0000   1.0000   1.0000   1.0000
     1.0000   1.0000   1.0000   1.0000   1.0000   1.0000   1.0000   1.0000
     1.0000   1.0000   1.0000   1.0000   1.0000   1.0000   1.0000   1.0000
     1.0000   1.0000   1.0000   1.0000   1.0000   1.0000   1.0000   1.0000
     1.0000   1.0000   1.0000   1.0000   1.0000   1.0000   1.0000   1.0000
     1.0000   1.0000   1.0000   1.0000   1.0000   1.0000   1.0000   1.0000
     1.0000   1.0000   1.0000   1.0000   1.0000   1.0000   1.0000   1.0000
     1.0000   1.0000   1.0000   1.0000   1.0000   1.0000   1.0000   1.0000
     1.0000   1.0000   1.0000   1.0000   1.0000   1.0000   1.0000   1.0000

     highest occupied level (ev):     6.8859

!    total energy              =   -1446.54795892 Ry
     estimated scf accuracy    <          8.7E-09 Ry

     The total energy is the sum of the following terms:
     one-electron contribution =    -618.09957872 Ry
     hartree contribution      =     473.14780775 Ry
     xc contribution           =    -438.18174850 Ry
     ewald contribution        =    -863.41443944 Ry

     convergence has been achieved in  28 iterations

     Forces acting on atoms (cartesian axes, Ry/au):

     atom    1 type  1   force =     0.00000000   -0.00000679    0.00005468
     atom    2 type  1   force =     0.00000000    0.00000483    0.00005202
     atom    3 type  2   force =     0.00000000    0.00000175   -0.00005240
     atom    4 type  2   force =     0.00000000   -0.00000186   -0.00005394
     atom    5 type  1   force =     0.00000000    0.00000005    0.00005376
     atom    6 type  1   force =     0.00000000    0.00000534    0.00005177
     atom    7 type  2   force =     0.00000000    0.00000119   -0.00005336
     atom    8 type  2   force =     0.00000000   -0.00000226   -0.00005350
     atom    9 type  1   force =     0.00000000   -0.00000329    0.00005402
     atom   10 type  1   force =     0.00000000    0.00000341    0.00005537
     atom   11 type  2   force =     0.00000000    0.00000176   -0.00005224
     atom   12 type  2   force =     0.00000000   -0.00000174   -0.00005343
     atom   13 type  1   force =     0.00000000   -0.00000813    0.00005504
     atom   14 type  1   force =     0.00000000    0.00000493    0.00004837
     atom   15 type  2   force =     0.00000000    0.00000220   -0.00005339
     atom   16 type  2   force =     0.00000000   -0.00000139   -0.00005279
     The non-local contrib.  to forces
     atom    1 type  1   force =     0.00000000    0.00002120   -0.00477310
     atom    2 type  1   force =     0.00000000   -0.00002130   -0.00477521
     atom    3 type  2   force =     0.00000000    0.00020383    0.00552749
     atom    4 type  2   force =     0.00000000   -0.00020355    0.00552657
     atom    5 type  1   force =     0.00000000    0.00002411   -0.00477508
     atom    6 type  1   force =     0.00000000   -0.00002133   -0.00477554
     atom    7 type  2   force =     0.00000000    0.00020326    0.00552766
     atom    8 type  2   force =     0.00000000   -0.00020383    0.00552763
     atom    9 type  1   force =     0.00000000    0.00002246   -0.00477293
     atom   10 type  1   force =     0.00000000   -0.00002235   -0.00477276
     atom   11 type  2   force =     0.00000000    0.00020411    0.00552834
     atom   12 type  2   force =     0.00000000   -0.00020338    0.00552687
     atom   13 type  1   force =     0.00000000    0.00001951   -0.00477514
     atom   14 type  1   force =     0.00000000   -0.00002202   -0.00477723
     atom   15 type  2   force =     0.00000000    0.00020420    0.00552651
     atom   16 type  2   force =     0.00000000   -0.00020333    0.00552827
     The ionic contribution  to forces
     atom    1 type  1   force =    -0.00000000    0.00000000    0.06271682
     atom    2 type  1   force =     0.00000000   -0.00000000    0.06271682
     atom    3 type  2   force =    -0.00000000    0.00000000   -0.06271682
     atom    4 type  2   force =     0.00000000   -0.00000000   -0.06271682
     atom    5 type  1   force =    -0.00000000    0.00000000    0.06271682
     atom    6 type  1   force =     0.00000000   -0.00000000    0.06271682
     atom    7 type  2   force =    -0.00000000    0.00000000   -0.06271682
     atom    8 type  2   force =     0.00000000   -0.00000000   -0.06271682
     atom    9 type  1   force =    -0.00000000    0.00000000    0.06271682
     atom   10 type  1   force =     0.00000000   -0.00000000    0.06271682
     atom   11 type  2   force =    -0.00000000    0.00000000   -0.06271682
     atom   12 type  2   force =     0.00000000   -0.00000000   -0.06271682
     atom   13 type  1   force =    -0.00000000    0.00000000    0.06271682
     atom   14 type  1   force =     0.00000000   -0.00000000    0.06271682
     atom   15 type  2   force =    -0.00000000    0.00000000   -0.06271682
     atom   16 type  2   force =     0.00000000   -0.00000000   -0.06271682
     The local contribution  to forces
     atom    1 type  1   force =    -0.00000009   -0.00003357   -0.05835957
     atom    2 type  1   force =    -0.00000000    0.00003511   -0.05835472
     atom    3 type  2   force =    -0.00000002   -0.00020087    0.05719729
     atom    4 type  2   force =    -0.00000000    0.00020038    0.05719421
     atom    5 type  1   force =    -0.00000009   -0.00004237   -0.05835620
     atom    6 type  1   force =    -0.00000000    0.00003489   -0.05835442
     atom    7 type  2   force =    -0.00000002   -0.00020186    0.05719451
     atom    8 type  2   force =     0.00000000    0.00019965    0.05719504
     atom    9 type  1   force =    -0.00000009   -0.00003818   -0.05835934
     atom   10 type  1   force =     0.00000000    0.00003714   -0.05836025
     atom   11 type  2   force =    -0.00000002   -0.00020135    0.05719729
     atom   12 type  2   force =    -0.00000000    0.00020155    0.05719445
     atom   13 type  1   force =    -0.00000009   -0.00003011   -0.05835690
     atom   14 type  1   force =     0.00000000    0.00003636   -0.05834937
     atom   15 type  2   force =    -0.00000002   -0.00020033    0.05719458
     atom   16 type  2   force =     0.00000000    0.00020230    0.05719616
     The core correction contribution to forces
     atom    1 type  1   force =    -0.00000001    0.00000557    0.00046941
     atom    2 type  1   force =     0.00000000   -0.00000563    0.00046937
     atom    3 type  2   force =     0.00000000   -0.00000232   -0.00006242
     atom    4 type  2   force =     0.00000000    0.00000232   -0.00006242
     atom    5 type  1   force =    -0.00000001    0.00000569    0.00046940
     atom    6 type  1   force =     0.00000000   -0.00000562    0.00046940
     atom    7 type  2   force =     0.00000000   -0.00000232   -0.00006243
     atom    8 type  2   force =     0.00000000    0.00000232   -0.00006243
     atom    9 type  1   force =    -0.00000001    0.00000567    0.00046940
     atom   10 type  1   force =     0.00000000   -0.00000561    0.00046940
     atom   11 type  2   force =     0.00000000   -0.00000233   -0.00006243
     atom   12 type  2   force =     0.00000000    0.00000232   -0.00006242
     atom   13 type  1   force =    -0.00000001    0.00000554    0.00046942
     atom   14 type  1   force =     0.00000000   -0.00000565    0.00046930
     atom   15 type  2   force =     0.00000000   -0.00000233   -0.00006241
     atom   16 type  2   force =     0.00000000    0.00000232   -0.00006243
     The Hubbard contrib.    to forces
     atom    1 type  1   force =     0.00000000    0.00000000    0.00000000
     atom    2 type  1   force =     0.00000000    0.00000000    0.00000000
     atom    3 type  2   force =     0.00000000    0.00000000    0.00000000
     atom    4 type  2   force =     0.00000000    0.00000000    0.00000000
     atom    5 type  1   force =     0.00000000    0.00000000    0.00000000
     atom    6 type  1   force =     0.00000000    0.00000000    0.00000000
     atom    7 type  2   force =     0.00000000    0.00000000    0.00000000
     atom    8 type  2   force =     0.00000000    0.00000000    0.00000000
     atom    9 type  1   force =     0.00000000    0.00000000    0.00000000
     atom   10 type  1   force =     0.00000000    0.00000000    0.00000000
     atom   11 type  2   force =     0.00000000    0.00000000    0.00000000
     atom   12 type  2   force =     0.00000000    0.00000000    0.00000000
     atom   13 type  1   force =     0.00000000    0.00000000    0.00000000
     atom   14 type  1   force =     0.00000000    0.00000000    0.00000000
     atom   15 type  2   force =     0.00000000    0.00000000    0.00000000
     atom   16 type  2   force =     0.00000000    0.00000000    0.00000000
     The SCF correction term to forces
     atom    1 type  1   force =     0.00000000    0.00000014   -0.00000184
     atom    2 type  1   force =    -0.00000000   -0.00000321   -0.00000721
     atom    3 type  2   force =     0.00000000    0.00000125   -0.00000091
     atom    4 type  2   force =    -0.00000000   -0.00000087    0.00000155
     atom    5 type  1   force =     0.00000000    0.00001275   -0.00000414
     atom    6 type  1   force =    -0.00000000   -0.00000247   -0.00000745
     atom    7 type  2   force =     0.00000000    0.00000224    0.00000076
     atom    8 type  2   force =    -0.00000000   -0.00000027    0.00000012
     atom    9 type  1   force =     0.00000000    0.00000688   -0.00000290
     atom   10 type  1   force =    -0.00000000   -0.00000564   -0.00000081
     atom   11 type  2   force =     0.00000000    0.00000146   -0.00000159
     atom   12 type  2   force =    -0.00000000   -0.00000210    0.00000151
     atom   13 type  1   force =     0.00000000   -0.00000293   -0.00000213
     atom   14 type  1   force =    -0.00000000   -0.00000362   -0.00001412
     atom   15 type  2   force =     0.00000000    0.00000079    0.00000179
     atom   16 type  2   force =    -0.00000000   -0.00000255   -0.00000094

     Total force =     0.000213     Total SCF correction =     0.000026
     SCF correction compared to forces is large: reduce conv_thr to get better values

     General routines

     Parallel routines

   This run was terminated on:   4:49:27  29Aug2025

   JOB DONE.
Note: The following floating-point exceptions are signalling: IEEE_UNDERFLOW_FLAG IEEE_DENORMAL
Note: The following floating-point exceptions are signalling: IEEE_UNDERFLOW_FLAG IEEE_DENORMAL
Note: The following floating-point exceptions are signalling: IEEE_UNDERFLOW_FLAG IEEE_DENORMAL
Note: The following floating-point exceptions are signalling: IEEE_UNDERFLOW_FLAG IEEE_DENORMAL
Note: The following floating-point exceptions are signalling: IEEE_UNDERFLOW_FLAG IEEE_DENORMAL
Note: The following floating-point exceptions are signalling: IEEE_UNDERFLOW_FLAG IEEE_DENORMAL
Note: The following floating-point exceptions are signalling: IEEE_UNDERFLOW_FLAG IEEE_DENORMAL
Note: The following floating-point exceptions are signalling: IEEE_UNDERFLOW_FLAG IEEE_DENORMAL
Note: The following floating-point exceptions are signalling: IEEE_UNDERFLOW_FLAG IEEE_DENORMAL
Note: The following floating-point exceptions are signalling: IEEE_UNDERFLOW_FLAG IEEE_DENORMAL
Note: The following floating-point exceptions are signalling: IEEE_UNDERFLOW_FLAG IEEE_DENORMAL
Note: The following floating-point exceptions are signalling: IEEE_UNDERFLOW_FLAG IEEE_DENORMAL
Note: The following floating-point exceptions are signalling: IEEE_UNDERFLOW_FLAG IEEE_DENORMAL
Note: The following floating-point exceptions are signalling: IEEE_UNDERFLOW_FLAG IEEE_DENORMAL
Note: The following floating-point exceptions are signalling: IEEE_UNDERFLOW_FLAG IEEE_DENORMAL
Note: The following floating-point exceptions are signalling: IEEE_UNDERFLOW_FLAG IEEE_DENORMAL
Note: The following floating-point exceptions are signalling: IEEE_UNDERFLOW_FLAG IEEE_DENORMAL
Note: The following floating-point exceptions are signalling: IEEE_UNDERFLOW_FLAG IEEE_DENORMAL
Note: The following floating-point exceptions are signalling: IEEE_UNDERFLOW_FLAG IEEE_DENORMAL
Note: The following floating-point exceptions are signalling: IEEE_UNDERFLOW_FLAG IEEE_DENORMAL
Note: The following floating-point exceptions are signalling: IEEE_UNDERFLOW_FLAG IEEE_DENORMAL
Note: The following floating-point exceptions are signalling: IEEE_UNDERFLOW_FLAG IEEE_DENORMAL
Note: The following floating-point exceptions are signalling: IEEE_UNDERFLOW_FLAG IEEE_DENORMAL
Note: The following floating-point exceptions are signalling: IEEE_UNDERFLOW_FLAG IEEE_DENORMAL
Note: The following floating-point exceptions are signalling: IEEE_UNDERFLOW_FLAG IEEE_DENORMAL
Note: The following floating-point exceptions are signalling: IEEE_UNDERFLOW_FLAG IEEE_DENORMAL
Note: The following floating-point exceptions are signalling: IEEE_UNDERFLOW_FLAG IEEE_DENORMAL
Note: The following floating-point exceptions are signalling: IEEE_UNDERFLOW_FLAG IEEE_DENORMAL
Note: The following floating-point exceptions are signalling: IEEE_UNDERFLOW_FLAG IEEE_DENORMAL
Note: The following floating-point exceptions are signalling: IEEE_UNDERFLOW_FLAG IEEE_DENORMAL
Note: The following floating-point exceptions are signalling: IEEE_UNDERFLOW_FLAG IEEE_DENORMAL
Note: The following floating-point exceptions are signalling: IEEE_UNDERFLOW_FLAG IEEE_DENORMAL