     Program PWSCF v.7.0 starts on 29Aug2025 at 16:27: 5

     K-points division:     npool     =       8
     R & G space division:  proc/nbgrp/npool/nimage =       4

     Reading input from /home/jvc/QEspresso7.2/ZnO_database/scripts/cell122.in/ZnO-3.53-1.65-122.in
Warning: card &CELL ignored
Warning: card / ignored
Warning: card &FCP ignored
Warning: card / ignored
Warning: card &RISM ignored
Warning: card / ignored

     Current dimensions of program PWSCF are:
     Max number of different atomic species (ntypx) = 10
     Max number of k-points (npk) =  40000
     Max angular momentum in pseudopotentials (lmaxx) =  4
     file Zn.upf: wavefunction(s)  3D renormalized
     Found identity + (  0.0000  0.0000  0.5000) symmetry
     This is a supercell, fractional translations are disabled
     Message from routine setup:
     using ibrav=0 with symmetry is DISCOURAGED, use correct ibrav instead

     Using Slab Decomposition

     bravais-lattice index     =            0
     lattice parameter (alat)  =       6.6732  a.u.
     unit-cell volume          =    1695.0628 (a.u.)^3
     number of atoms/cell      =           16
     number of atomic types    =            2
     number of electrons       =       144.00
     number of Kohn-Sham states=           72
     kinetic-energy cutoff     =      50.0000  Ry
     charge density cutoff     =     400.0000  Ry
     scf convergence threshold =      1.0E-08
     mixing beta               =       0.3000
     number of iterations used =            8  plain     mixing
     Exchange-correlation= PBE
                           (   1   4   3   4   0   0   0)

     celldm(1)=   6.673162  celldm(2)=   0.000000  celldm(3)=   0.000000
     celldm(4)=   0.000000  celldm(5)=   0.000000  celldm(6)=   0.000000

     crystal axes: (cart. coord. in units of alat)
               a(1) = (   1.000000   0.000000   0.000000 )
               a(2) = (  -1.000000   1.732051   0.000000 )
               a(3) = (   0.000000   0.000000   3.293291 )

     reciprocal axes: (cart. coord. in units 2 pi/alat)
               b(1) = (  1.000000  0.577350 -0.000000 )
               b(2) = (  0.000000  0.577350  0.000000 )
               b(3) = (  0.000000 -0.000000  0.303648 )

     PseudoPot. # 1 for Zn read from file:
     /home/jvc/QEspresso7.2/ZnO_database/pseudos/Zn.upf
     MD5 check sum: 7f56cabf9682ed8c977c2f7d0c5985c5
     Pseudo is Ultrasoft + core correction, Zval = 12.0
     Generated using &quot;atomic&quot; code by A. Dal Corso  v.6.2.2
     Using radial grid of 1201 points,  6 beta functions with:
                l(1) =   0
                l(2) =   0
                l(3) =   1
                l(4) =   1
                l(5) =   2
                l(6) =   2
     Q(r) pseudized with 0 coefficients

     PseudoPot. # 2 for O  read from file:
     /home/jvc/QEspresso7.2/ZnO_database/pseudos/O.upf
     MD5 check sum: 91400c9766925bcf19f520983a725ff0
     Pseudo is Ultrasoft + core correction, Zval =  6.0
     Generated using &quot;atomic&quot; code by A. Dal Corso  v.6.3MaX
     Using radial grid of 1095 points,  4 beta functions with:
                l(1) =   0
                l(2) =   0
                l(3) =   1
                l(4) =   1
     Q(r) pseudized with 0 coefficients

     atomic species   valence    mass     pseudopotential
        Zn            12.00    65.38000     Zn( 1.00)
        O              6.00    15.99900     O ( 1.00)

      2 Sym. Ops. (no inversion) found

                                    s                        frac. trans.

      isym =  1     identity

 cryst.   s( 1) = (     1          0          0      )
                  (     0          1          0      )
                  (     0          0          1      )

 cart.    s( 1) = (  1.0000000  0.0000000  0.0000000 )
                  (  0.0000000  1.0000000  0.0000000 )
                  (  0.0000000  0.0000000  1.0000000 )

      isym =  2     inv. 180 deg rotation - cart. axis [1,0,0]

 cryst.   s( 2) = (    -1          0          0      )
                  (     2          1          0      )
                  (     0          0          1      )

 cart.    s( 2) = ( -1.0000000  0.0000000  0.0000000 )
                  (  0.0000000  1.0000000  0.0000000 )
                  (  0.0000000  0.0000000  1.0000000 )

   Cartesian axes

     site n.     atom                  positions (alat units)
         1           Zn  tau(   1) = (   0.5000000   0.2886751   0.8243661  )
         2           Zn  tau(   2) = (   0.0000000   0.5773503   0.0010433  )
         3           O   tau(   3) = (   0.5000000   0.2886751   1.4485152  )
         4           O   tau(   4) = (   0.0000000   0.5773503   0.6251925  )
         5           Zn  tau(   5) = (   0.5000000   0.2886751   2.4710116  )
         6           Zn  tau(   6) = (   0.0000000   0.5773503   1.6476888  )
         7           O   tau(   7) = (   0.5000000   0.2886751   3.0951608  )
         8           O   tau(   8) = (   0.0000000   0.5773503   2.2718380  )
         9           Zn  tau(   9) = (   0.0000000   1.1547005   0.8243661  )
        10           Zn  tau(  10) = (  -0.5000000   1.4433757   0.0010433  )
        11           O   tau(  11) = (   0.0000000   1.1547005   1.4485152  )
        12           O   tau(  12) = (  -0.5000000   1.4433757   0.6251925  )
        13           Zn  tau(  13) = (   0.0000000   1.1547005   2.4710116  )
        14           Zn  tau(  14) = (  -0.5000000   1.4433757   1.6476888  )
        15           O   tau(  15) = (   0.0000000   1.1547005   3.0951608  )
        16           O   tau(  16) = (  -0.5000000   1.4433757   2.2718380  )

   Crystallographic axes

     site n.     atom                  positions (cryst. coord.)
         1           Zn  tau(   1) = (  0.6666667  0.1666667  0.2503168  )
         2           Zn  tau(   2) = (  0.3333333  0.3333333  0.0003168  )
         3           O   tau(   3) = (  0.6666667  0.1666667  0.4398382  )
         4           O   tau(   4) = (  0.3333333  0.3333333  0.1898382  )
         5           Zn  tau(   5) = (  0.6666667  0.1666667  0.7503168  )
         6           Zn  tau(   6) = (  0.3333333  0.3333333  0.5003168  )
         7           O   tau(   7) = (  0.6666667  0.1666667  0.9398382  )
         8           O   tau(   8) = (  0.3333333  0.3333333  0.6898382  )
         9           Zn  tau(   9) = (  0.6666667  0.6666667  0.2503168  )
        10           Zn  tau(  10) = (  0.3333333  0.8333333  0.0003168  )
        11           O   tau(  11) = (  0.6666667  0.6666667  0.4398382  )
        12           O   tau(  12) = (  0.3333333  0.8333333  0.1898382  )
        13           Zn  tau(  13) = (  0.6666667  0.6666667  0.7503168  )
        14           Zn  tau(  14) = (  0.3333333  0.8333333  0.5003168  )
        15           O   tau(  15) = (  0.6666667  0.6666667  0.9398382  )
        16           O   tau(  16) = (  0.3333333  0.8333333  0.6898382  )

     number of k points=    80
                       cart. coord. in units 2pi/alat
        k(    1) = (   0.0000000   0.0000000   0.0000000), wk =   0.0092593
        k(    2) = (   0.0000000   0.0000000   0.0506079), wk =   0.0185185
        k(    3) = (   0.0000000   0.0000000   0.1012159), wk =   0.0185185
        k(    4) = (   0.0000000   0.0000000  -0.1518238), wk =   0.0092593
        k(    5) = (   0.0000000   0.0962250   0.0000000), wk =   0.0185185
        k(    6) = (   0.0000000   0.0962250   0.0506079), wk =   0.0185185
        k(    7) = (   0.0000000   0.0962250   0.1012159), wk =   0.0185185
        k(    8) = (   0.0000000   0.0962250  -0.1518238), wk =   0.0185185
        k(    9) = (   0.0000000   0.1924501   0.0000000), wk =   0.0185185
        k(   10) = (   0.0000000   0.1924501   0.0506079), wk =   0.0185185
        k(   11) = (   0.0000000   0.1924501   0.1012159), wk =   0.0185185
        k(   12) = (   0.0000000   0.1924501  -0.1518238), wk =   0.0185185
        k(   13) = (   0.0000000  -0.2886751   0.0000000), wk =   0.0092593
        k(   14) = (   0.0000000  -0.2886751   0.0506079), wk =   0.0185185
        k(   15) = (   0.0000000  -0.2886751   0.1012159), wk =   0.0185185
        k(   16) = (   0.0000000  -0.2886751  -0.1518238), wk =   0.0092593
        k(   17) = (   0.1666667   0.0962250   0.0000000), wk =   0.0370370
        k(   18) = (   0.1666667   0.0962250   0.0506079), wk =   0.0370370
        k(   19) = (   0.1666667   0.0962250   0.1012159), wk =   0.0370370
        k(   20) = (   0.1666667   0.0962250  -0.1518238), wk =   0.0370370
        k(   21) = (   0.1666667   0.1924501   0.0000000), wk =   0.0370370
        k(   22) = (   0.1666667   0.1924501   0.0506079), wk =   0.0370370
        k(   23) = (   0.1666667   0.1924501   0.1012159), wk =   0.0370370
        k(   24) = (   0.1666667   0.1924501  -0.1518238), wk =   0.0370370
        k(   25) = (   0.1666667   0.2886751   0.0000000), wk =   0.0185185
        k(   26) = (   0.1666667   0.2886751   0.0506079), wk =   0.0370370
        k(   27) = (   0.1666667   0.2886751   0.1012159), wk =   0.0370370
        k(   28) = (   0.1666667   0.2886751  -0.1518238), wk =   0.0185185
        k(   29) = (   0.1666667   0.0000000   0.0000000), wk =   0.0185185
        k(   30) = (   0.1666667   0.0000000   0.0506079), wk =   0.0370370
        k(   31) = (   0.1666667   0.0000000   0.1012159), wk =   0.0370370
        k(   32) = (   0.1666667   0.0000000  -0.1518238), wk =   0.0185185
        k(   33) = (   0.3333333   0.1924501   0.0000000), wk =   0.0370370
        k(   34) = (   0.3333333   0.1924501   0.0506079), wk =   0.0370370
        k(   35) = (   0.3333333   0.1924501   0.1012159), wk =   0.0370370
        k(   36) = (   0.3333333   0.1924501  -0.1518238), wk =   0.0370370
        k(   37) = (   0.3333333   0.2886751   0.0000000), wk =   0.0185185
        k(   38) = (   0.3333333   0.2886751   0.0506079), wk =   0.0370370
        k(   39) = (   0.3333333   0.2886751   0.1012159), wk =   0.0370370
        k(   40) = (   0.3333333   0.2886751  -0.1518238), wk =   0.0185185
        k(   41) = (   0.3333333  -0.0962250   0.0000000), wk =   0.0370370
        k(   42) = (   0.3333333  -0.0962250   0.0506079), wk =   0.0370370
        k(   43) = (   0.3333333  -0.0962250   0.1012159), wk =   0.0370370
        k(   44) = (   0.3333333  -0.0962250  -0.1518238), wk =   0.0370370
        k(   45) = (   0.3333333  -0.0000000   0.0000000), wk =   0.0185185
        k(   46) = (   0.3333333  -0.0000000   0.0506079), wk =   0.0370370
        k(   47) = (   0.3333333  -0.0000000   0.1012159), wk =   0.0370370
        k(   48) = (   0.3333333  -0.0000000  -0.1518238), wk =   0.0185185
        k(   49) = (  -0.5000000  -0.2886751   0.0000000), wk =   0.0092593
        k(   50) = (  -0.5000000  -0.2886751   0.0506079), wk =   0.0185185
        k(   51) = (  -0.5000000  -0.2886751   0.1012159), wk =   0.0185185
        k(   52) = (  -0.5000000  -0.2886751  -0.1518238), wk =   0.0092593
        k(   53) = (  -0.5000000  -0.1924501   0.0000000), wk =   0.0185185
        k(   54) = (  -0.5000000  -0.1924501   0.0506079), wk =   0.0185185
        k(   55) = (  -0.5000000  -0.1924501   0.1012159), wk =   0.0185185
[...]

     Self-consistent Calculation

     iteration #  1     ecut=    50.00 Ry     beta= 0.30
     Davidson diagonalization with overlap

     ethr =  1.00E-02,  avg # of iterations =  1.4

     total energy              =   -1445.47600357 Ry
     estimated scf accuracy    <       3.28933123 Ry

[...]

     c_bands:  1 eigenvalues not converged
     c_bands:  1 eigenvalues not converged
     c_bands:  1 eigenvalues not converged
     c_bands:  1 eigenvalues not converged
     c_bands:  1 eigenvalues not converged
     c_bands:  1 eigenvalues not converged
     ethr =  1.24E-10,  avg # of iterations = 13.4

[...]

     c_bands:  1 eigenvalues not converged
     c_bands:  1 eigenvalues not converged
     c_bands:  1 eigenvalues not converged
     c_bands:  1 eigenvalues not converged
     c_bands:  1 eigenvalues not converged
     ethr =  1.24E-10,  avg # of iterations = 14.8

[...]

     total energy              =   -1446.26784456 Ry
     estimated scf accuracy    <       0.00000002 Ry

     iteration # 44     ecut=    50.00 Ry     beta= 0.30
     Davidson diagonalization with overlap

     ethr =  1.35E-11,  avg # of iterations =  2.5

     End of self-consistent calculation

          k = 0.0000 0.0000 0.0000 ( 10049 PWs)   bands (ev):

   -12.5784 -12.4005 -12.4005 -12.2171 -12.2100 -12.1520 -12.1520 -12.0989
    -1.1297  -1.1297  -1.1295  -1.1293  -1.1272  -1.1066  -1.0884  -1.0884
    -1.0882  -1.0882  -1.0837  -1.0837  -1.0267  -1.0266  -0.9824  -0.8924
    -0.8537  -0.8537  -0.7677  -0.7110  -0.7110  -0.7090  -0.6293  -0.5929
    -0.5928  -0.5578  -0.5338  -0.5338  -0.5338  -0.5338  -0.5019  -0.4925
    -0.4925  -0.4913  -0.4913  -0.4877  -0.4673  -0.4374  -0.4374  -0.4214
     0.1349   0.4596   0.5394   0.5394   0.9626   1.6669   1.6670   1.7489
     2.3405   2.7748   2.7748   2.7811   2.7812   2.8682   3.1937   3.2625
     3.2631   3.5048   3.5048   3.5054   3.5054   3.6828   3.7423   3.7429

     occupation numbers
     1.0000   1.0000   1.0000   1.0000   1.0000   1.0000   1.0000   1.0000
     1.0000   1.0000   1.0000   1.0000   1.0000   1.0000   1.0000   1.0000
     1.0000   1.0000   1.0000   1.0000   1.0000   1.0000   1.0000   1.0000
     1.0000   1.0000   1.0000   1.0000   1.0000   1.0000   1.0000   1.0000
     1.0000   1.0000   1.0000   1.0000   1.0000   1.0000   1.0000   1.0000
     1.0000   1.0000   1.0000   1.0000   1.0000   1.0000   1.0000   1.0000
     1.0000   1.0000   1.0000   1.0000   1.0000   1.0000   1.0000   1.0000
     1.0000   1.0000   1.0000   1.0000   1.0000   1.0000   1.0000   1.0000
     1.0000   1.0000   1.0000   1.0000   1.0000   1.0000   1.0000   1.0000

[...]

          k =-0.5000-0.2887 0.0000 ( 10052 PWs)   bands (ev):

[...]

          k =-0.3333-0.0962-0.1012 ( 10104 PWs)   bands (ev):

[...]

          k = 0.5000-0.0962-0.1012 ( 10082 PWs)   bands (ev):

   -12.2048 -12.2048 -12.1824 -12.1824 -12.1243 -12.1243 -12.1043 -12.1043
    -1.0918  -1.0918  -1.0856  -1.0856  -1.0049  -1.0049  -0.9770  -0.9770
    -0.9238  -0.9238  -0.8812  -0.8812  -0.7976  -0.7976  -0.7721  -0.7721
    -0.7653  -0.7653  -0.7448  -0.7448  -0.7146  -0.7146  -0.7026  -0.7026
    -0.5807  -0.5807  -0.5450  -0.5450  -0.5261  -0.5261  -0.5137  -0.5137
    -0.4491  -0.4491  -0.4390  -0.4390  -0.3771  -0.3771  -0.3481  -0.3481
     0.6403   0.6403   0.6467   0.6467   0.8655   0.8655   0.9948   0.9948
     1.8581   1.8581   2.0846   2.0846   2.1596   2.1596   2.4951   2.4951
     2.6552   2.6552   2.8229   2.8229   2.9806   2.9806   3.0252   3.0252

     occupation numbers
     1.0000   1.0000   1.0000   1.0000   1.0000   1.0000   1.0000   1.0000
     1.0000   1.0000   1.0000   1.0000   1.0000   1.0000   1.0000   1.0000
     1.0000   1.0000   1.0000   1.0000   1.0000   1.0000   1.0000   1.0000
     1.0000   1.0000   1.0000   1.0000   1.0000   1.0000   1.0000   1.0000
     1.0000   1.0000   1.0000   1.0000   1.0000   1.0000   1.0000   1.0000
     1.0000   1.0000   1.0000   1.0000   1.0000   1.0000   1.0000   1.0000
     1.0000   1.0000   1.0000   1.0000   1.0000   1.0000   1.0000   1.0000
     1.0000   1.0000   1.0000   1.0000   1.0000   1.0000   1.0000   1.0000
     1.0000   1.0000   1.0000   1.0000   1.0000   1.0000   1.0000   1.0000

     highest occupied level (ev):     3.7429

!    total energy              =   -1446.26784455 Ry
     estimated scf accuracy    <          6.1E-09 Ry

     The total energy is the sum of the following terms:
     one-electron contribution =    -729.31284203 Ry
     hartree contribution      =     513.66700213 Ry
     xc contribution           =    -436.39748602 Ry
     ewald contribution        =    -794.22451863 Ry

     convergence has been achieved in  44 iterations

     Forces acting on atoms (cartesian axes, Ry/au):

     atom    1 type  1   force =     0.00000000    0.00001421   -0.00151124
     atom    2 type  1   force =     0.00000000   -0.00000626   -0.00151521
     atom    3 type  2   force =     0.00000000    0.00000704    0.00150093
     atom    4 type  2   force =     0.00000000   -0.00000831    0.00150746
     atom    5 type  1   force =     0.00000000    0.00000515   -0.00149704
     atom    6 type  1   force =     0.00000000   -0.00001651   -0.00149632
     atom    7 type  2   force =     0.00000000    0.00000683    0.00150989
     atom    8 type  2   force =     0.00000000   -0.00000578    0.00150116
     atom    9 type  1   force =     0.00000000   -0.00000062   -0.00151652
     atom   10 type  1   force =     0.00000000   -0.00000687   -0.00152195
     atom   11 type  2   force =     0.00000000    0.00000755    0.00150315
     atom   12 type  2   force =     0.00000000   -0.00000687    0.00150805
     atom   13 type  1   force =     0.00000000    0.00000750   -0.00149315
     atom   14 type  1   force =     0.00000000    0.00000339   -0.00149191
     atom   15 type  2   force =     0.00000000    0.00000770    0.00151102
     atom   16 type  2   force =     0.00000000   -0.00000814    0.00150167
     The non-local contrib.  to forces
     atom    1 type  1   force =     0.00000000   -0.00000406    0.04428122
     atom    2 type  1   force =     0.00000000    0.00001136    0.04427524
     atom    3 type  2   force =     0.00000000    0.00022619    0.05791537
     atom    4 type  2   force =     0.00000000   -0.00022580    0.05792725
     atom    5 type  1   force =     0.00000000   -0.00001211    0.04429712
     atom    6 type  1   force =     0.00000000    0.00000133    0.04429617
     atom    7 type  2   force =     0.00000000    0.00022597    0.05792304
     atom    8 type  2   force =     0.00000000   -0.00022672    0.05791169
     atom    9 type  1   force =     0.00000000   -0.00001575    0.04427714
     atom   10 type  1   force =     0.00000000    0.00001022    0.04427038
     atom   11 type  2   force =     0.00000000    0.00023158    0.05791321
     atom   12 type  2   force =     0.00000000   -0.00023203    0.05792632
     atom   13 type  1   force =     0.00000000   -0.00000931    0.04430134
     atom   14 type  1   force =     0.00000000    0.00001952    0.04430068
     atom   15 type  2   force =     0.00000000    0.00023197    0.05792600
     atom   16 type  2   force =     0.00000000   -0.00023087    0.05790794
     The ionic contribution  to forces
     atom    1 type  1   force =    -0.00000000    0.00000001    0.39869711
     atom    2 type  1   force =     0.00000000    0.00000001    0.39869711
     atom    3 type  2   force =    -0.00000000    0.00000000   -0.39869711
     atom    4 type  2   force =     0.00000000    0.00000000   -0.39869711
     atom    5 type  1   force =    -0.00000000    0.00000001    0.39869711
     atom    6 type  1   force =     0.00000000    0.00000001    0.39869711
     atom    7 type  2   force =    -0.00000000    0.00000000   -0.39869711
     atom    8 type  2   force =     0.00000000    0.00000000   -0.39869711
     atom    9 type  1   force =     0.00000000   -0.00000001    0.39869711
     atom   10 type  1   force =    -0.00000000   -0.00000000    0.39869711
     atom   11 type  2   force =     0.00000000   -0.00000001   -0.39869711
     atom   12 type  2   force =    -0.00000000   -0.00000000   -0.39869711
     atom   13 type  1   force =     0.00000000   -0.00000001    0.39869711
     atom   14 type  1   force =    -0.00000000   -0.00000000    0.39869711
     atom   15 type  2   force =     0.00000000   -0.00000001   -0.39869711
     atom   16 type  2   force =    -0.00000000   -0.00000000   -0.39869711
     The local contribution  to forces
     atom    1 type  1   force =    -0.00000009   -0.00001118   -0.44188512
     atom    2 type  1   force =    -0.00000000   -0.00000980   -0.44187000
     atom    3 type  2   force =    -0.00000002   -0.00021744    0.34280932
     atom    4 type  2   force =     0.00000000    0.00021494    0.34282455
     atom    5 type  1   force =    -0.00000009    0.00001192   -0.44191428
     atom    6 type  1   force =     0.00000000    0.00001753   -0.44191359
     atom    7 type  2   force =    -0.00000002   -0.00021787    0.34283096
     atom    8 type  2   force =    -0.00000000    0.00022186    0.34281159
     atom    9 type  1   force =     0.00000000    0.00002639   -0.44187077
     atom   10 type  1   force =    -0.00000000   -0.00000763   -0.44185367
     atom   11 type  2   force =    -0.00000000   -0.00022218    0.34281544
     atom   12 type  2   force =    -0.00000000    0.00022303    0.34282827
     atom   13 type  1   force =    -0.00000000    0.00000543   -0.44192204
     atom   14 type  1   force =     0.00000000   -0.00003395   -0.44192583
     atom   15 type  2   force =     0.00000000   -0.00022150    0.34282994
     atom   16 type  2   force =    -0.00000000    0.00021745    0.34281525
     The core correction contribution to forces
     atom    1 type  1   force =    -0.00000001    0.00000773   -0.00259398
     atom    2 type  1   force =     0.00000000   -0.00000715   -0.00259443
     atom    3 type  2   force =     0.00000000   -0.00000255   -0.00053828
     atom    4 type  2   force =    -0.00000000    0.00000254   -0.00053842
     atom    5 type  1   force =    -0.00000001    0.00000710   -0.00259414
     atom    6 type  1   force =     0.00000000   -0.00000786   -0.00259406
     atom    7 type  2   force =     0.00000000   -0.00000254   -0.00053836
     atom    8 type  2   force =    -0.00000000    0.00000256   -0.00053822
     atom    9 type  1   force =     0.00000000    0.00000652   -0.00259452
     atom   10 type  1   force =    -0.00000000   -0.00000717   -0.00259505
     atom   11 type  2   force =     0.00000000   -0.00000262   -0.00053824
     atom   12 type  2   force =    -0.00000000    0.00000263   -0.00053841
     atom   13 type  1   force =     0.00000000    0.00000721   -0.00259417
     atom   14 type  1   force =    -0.00000000   -0.00000645   -0.00259374
     atom   15 type  2   force =     0.00000000   -0.00000263   -0.00053840
     atom   16 type  2   force =    -0.00000000    0.00000261   -0.00053817
     The Hubbard contrib.    to forces
     atom    1 type  1   force =     0.00000000    0.00000000    0.00000000
     atom    2 type  1   force =     0.00000000    0.00000000    0.00000000
     atom    3 type  2   force =     0.00000000    0.00000000    0.00000000
     atom    4 type  2   force =     0.00000000    0.00000000    0.00000000
     atom    5 type  1   force =     0.00000000    0.00000000    0.00000000
     atom    6 type  1   force =     0.00000000    0.00000000    0.00000000
     atom    7 type  2   force =     0.00000000    0.00000000    0.00000000
     atom    8 type  2   force =     0.00000000    0.00000000    0.00000000
     atom    9 type  1   force =     0.00000000    0.00000000    0.00000000
     atom   10 type  1   force =     0.00000000    0.00000000    0.00000000
     atom   11 type  2   force =     0.00000000    0.00000000    0.00000000
     atom   12 type  2   force =     0.00000000    0.00000000    0.00000000
     atom   13 type  1   force =     0.00000000    0.00000000    0.00000000
     atom   14 type  1   force =     0.00000000    0.00000000    0.00000000
     atom   15 type  2   force =     0.00000000    0.00000000    0.00000000
     atom   16 type  2   force =     0.00000000    0.00000000    0.00000000
     The SCF correction term to forces
     atom    1 type  1   force =     0.00000000    0.00002164   -0.00001165
     atom    2 type  1   force =    -0.00000000   -0.00000074   -0.00002430
     atom    3 type  2   force =    -0.00000000    0.00000075    0.00001044
     atom    4 type  2   force =    -0.00000000   -0.00000006   -0.00000999
     atom    5 type  1   force =     0.00000000   -0.00000184    0.00001597
     atom    6 type  1   force =    -0.00000000   -0.00002758    0.00001687
     atom    7 type  2   force =    -0.00000000    0.00000120   -0.00000982
     atom    8 type  2   force =    -0.00000000   -0.00000356    0.00001202
     atom    9 type  1   force =    -0.00000000   -0.00001784   -0.00002666
     atom   10 type  1   force =     0.00000000   -0.00000237   -0.00004191
     atom   11 type  2   force =    -0.00000000    0.00000070    0.00000867
     atom   12 type  2   force =     0.00000000   -0.00000057   -0.00001220
     atom   13 type  1   force =    -0.00000000    0.00000412    0.00002343
     atom   14 type  1   force =     0.00000000    0.00002420    0.00002869
     atom   15 type  2   force =    -0.00000000   -0.00000021   -0.00001060
     atom   16 type  2   force =     0.00000000    0.00000260    0.00001258

     Total force =     0.006022     Total SCF correction =     0.000091

     General routines

     Parallel routines

   This run was terminated on:  16:46:19  29Aug2025

   JOB DONE.
Note: The following floating-point exceptions are signalling: IEEE_UNDERFLOW_FLAG IEEE_DENORMAL
Note: The following floating-point exceptions are signalling: IEEE_UNDERFLOW_FLAG IEEE_DENORMAL
Note: The following floating-point exceptions are signalling: IEEE_UNDERFLOW_FLAG IEEE_DENORMAL
Note: The following floating-point exceptions are signalling: IEEE_UNDERFLOW_FLAG IEEE_DENORMAL
Note: The following floating-point exceptions are signalling: IEEE_UNDERFLOW_FLAG IEEE_DENORMAL
Note: The following floating-point exceptions are signalling: IEEE_UNDERFLOW_FLAG IEEE_DENORMAL
Note: The following floating-point exceptions are signalling: IEEE_UNDERFLOW_FLAG IEEE_DENORMAL
Note: The following floating-point exceptions are signalling: IEEE_UNDERFLOW_FLAG IEEE_DENORMAL
Note: The following floating-point exceptions are signalling: IEEE_UNDERFLOW_FLAG IEEE_DENORMAL
Note: The following floating-point exceptions are signalling: IEEE_UNDERFLOW_FLAG IEEE_DENORMAL
Note: The following floating-point exceptions are signalling: IEEE_UNDERFLOW_FLAG IEEE_DENORMAL
Note: The following floating-point exceptions are signalling: IEEE_UNDERFLOW_FLAG IEEE_DENORMAL
Note: The following floating-point exceptions are signalling: IEEE_UNDERFLOW_FLAG IEEE_DENORMAL
Note: The following floating-point exceptions are signalling: IEEE_UNDERFLOW_FLAG IEEE_DENORMAL
Note: The following floating-point exceptions are signalling: IEEE_UNDERFLOW_FLAG IEEE_DENORMAL
Note: The following floating-point exceptions are signalling: IEEE_UNDERFLOW_FLAG IEEE_DENORMAL
Note: The following floating-point exceptions are signalling: IEEE_UNDERFLOW_FLAG IEEE_DENORMAL
Note: The following floating-point exceptions are signalling: IEEE_UNDERFLOW_FLAG IEEE_DENORMAL
Note: The following floating-point exceptions are signalling: IEEE_UNDERFLOW_FLAG IEEE_DENORMAL
Note: The following floating-point exceptions are signalling: IEEE_UNDERFLOW_FLAG IEEE_DENORMAL
Note: The following floating-point exceptions are signalling: IEEE_UNDERFLOW_FLAG IEEE_DENORMAL
Note: The following floating-point exceptions are signalling: IEEE_UNDERFLOW_FLAG IEEE_DENORMAL
Note: The following floating-point exceptions are signalling: IEEE_UNDERFLOW_FLAG IEEE_DENORMAL
Note: The following floating-point exceptions are signalling: IEEE_UNDERFLOW_FLAG IEEE_DENORMAL
Note: The following floating-point exceptions are signalling: IEEE_UNDERFLOW_FLAG IEEE_DENORMAL
Note: The following floating-point exceptions are signalling: IEEE_UNDERFLOW_FLAG IEEE_DENORMAL
Note: The following floating-point exceptions are signalling: IEEE_UNDERFLOW_FLAG IEEE_DENORMAL
Note: The following floating-point exceptions are signalling: IEEE_UNDERFLOW_FLAG IEEE_DENORMAL
Note: The following floating-point exceptions are signalling: IEEE_UNDERFLOW_FLAG IEEE_DENORMAL
Note: The following floating-point exceptions are signalling: IEEE_UNDERFLOW_FLAG IEEE_DENORMAL
Note: The following floating-point exceptions are signalling: IEEE_UNDERFLOW_FLAG IEEE_DENORMAL
Note: The following floating-point exceptions are signalling: IEEE_UNDERFLOW_FLAG IEEE_DENORMAL