     Program PWSCF v.7.0 starts on 29Aug2025 at 15:52:34

     K-points division:     npool     =       8
     R & G space division:  proc/nbgrp/npool/nimage =       4

     Reading input from /home/jvc/QEspresso7.2/ZnO_database/scripts/cell122.in/ZnO-3.53-1.58-122.in
Warning: card &CELL ignored
Warning: card / ignored
Warning: card &FCP ignored
Warning: card / ignored
Warning: card &RISM ignored
Warning: card / ignored

     Current dimensions of program PWSCF are:
     Max number of different atomic species (ntypx) = 10
     Max number of k-points (npk) =  40000
     Max angular momentum in pseudopotentials (lmaxx) =  4
     file Zn.upf: wavefunction(s)  3D renormalized
     Found identity + (  0.0000  0.0000  0.5000) symmetry
     This is a supercell, fractional translations are disabled
     Message from routine setup:
     using ibrav=0 with symmetry is DISCOURAGED, use correct ibrav instead

     Using Slab Decomposition

     bravais-lattice index     =            0
     lattice parameter (alat)  =       6.6732  a.u.
     unit-cell volume          =    1628.5898 (a.u.)^3
     number of atoms/cell      =           16
     number of atomic types    =            2
     number of electrons       =       144.00
     number of Kohn-Sham states=           72
     kinetic-energy cutoff     =      50.0000  Ry
     charge density cutoff     =     400.0000  Ry
     scf convergence threshold =      1.0E-08
     mixing beta               =       0.3000
     number of iterations used =            8  plain     mixing
     Exchange-correlation= PBE
                           (   1   4   3   4   0   0   0)

     celldm(1)=   6.673162  celldm(2)=   0.000000  celldm(3)=   0.000000
     celldm(4)=   0.000000  celldm(5)=   0.000000  celldm(6)=   0.000000

     crystal axes: (cart. coord. in units of alat)
               a(1) = (   1.000000   0.000000   0.000000 )
               a(2) = (  -1.000000   1.732051   0.000000 )
               a(3) = (   0.000000   0.000000   3.164142 )

     reciprocal axes: (cart. coord. in units 2 pi/alat)
               b(1) = (  1.000000  0.577350 -0.000000 )
               b(2) = (  0.000000  0.577350  0.000000 )
               b(3) = (  0.000000 -0.000000  0.316041 )

     PseudoPot. # 1 for Zn read from file:
     /home/jvc/QEspresso7.2/ZnO_database/pseudos/Zn.upf
     MD5 check sum: 7f56cabf9682ed8c977c2f7d0c5985c5
     Pseudo is Ultrasoft + core correction, Zval = 12.0
     Generated using &quot;atomic&quot; code by A. Dal Corso  v.6.2.2
     Using radial grid of 1201 points,  6 beta functions with:
                l(1) =   0
                l(2) =   0
                l(3) =   1
                l(4) =   1
                l(5) =   2
                l(6) =   2
     Q(r) pseudized with 0 coefficients

     PseudoPot. # 2 for O  read from file:
     /home/jvc/QEspresso7.2/ZnO_database/pseudos/O.upf
     MD5 check sum: 91400c9766925bcf19f520983a725ff0
     Pseudo is Ultrasoft + core correction, Zval =  6.0
     Generated using &quot;atomic&quot; code by A. Dal Corso  v.6.3MaX
     Using radial grid of 1095 points,  4 beta functions with:
                l(1) =   0
                l(2) =   0
                l(3) =   1
                l(4) =   1
     Q(r) pseudized with 0 coefficients

     atomic species   valence    mass     pseudopotential
        Zn            12.00    65.38000     Zn( 1.00)
        O              6.00    15.99900     O ( 1.00)

      2 Sym. Ops. (no inversion) found

                                    s                        frac. trans.

      isym =  1     identity

 cryst.   s( 1) = (     1          0          0      )
                  (     0          1          0      )
                  (     0          0          1      )

 cart.    s( 1) = (  1.0000000  0.0000000  0.0000000 )
                  (  0.0000000  1.0000000  0.0000000 )
                  (  0.0000000  0.0000000  1.0000000 )

      isym =  2     inv. 180 deg rotation - cart. axis [1,0,0]

 cryst.   s( 2) = (    -1          0          0      )
                  (     2          1          0      )
                  (     0          0          1      )

 cart.    s( 2) = ( -1.0000000  0.0000000  0.0000000 )
                  (  0.0000000  1.0000000  0.0000000 )
                  (  0.0000000  0.0000000  1.0000000 )

   Cartesian axes

     site n.     atom                  positions (alat units)
         1           Zn  tau(   1) = (   0.5000000   0.2886751   0.7920380  )
         2           Zn  tau(   2) = (   0.0000000   0.5773503   0.0010024  )
         3           O   tau(   3) = (   0.5000000   0.2886751   1.3917107  )
         4           O   tau(   4) = (   0.0000000   0.5773503   0.6006751  )
         5           Zn  tau(   5) = (   0.5000000   0.2886751   2.3741092  )
         6           Zn  tau(   6) = (   0.0000000   0.5773503   1.5830736  )
         7           O   tau(   7) = (   0.5000000   0.2886751   2.9737819  )
         8           O   tau(   8) = (   0.0000000   0.5773503   2.1827463  )
         9           Zn  tau(   9) = (   0.0000000   1.1547005   0.7920380  )
        10           Zn  tau(  10) = (  -0.5000000   1.4433757   0.0010024  )
        11           O   tau(  11) = (   0.0000000   1.1547005   1.3917107  )
        12           O   tau(  12) = (  -0.5000000   1.4433757   0.6006751  )
        13           Zn  tau(  13) = (   0.0000000   1.1547005   2.3741092  )
        14           Zn  tau(  14) = (  -0.5000000   1.4433757   1.5830736  )
        15           O   tau(  15) = (   0.0000000   1.1547005   2.9737819  )
        16           O   tau(  16) = (  -0.5000000   1.4433757   2.1827463  )

   Crystallographic axes

     site n.     atom                  positions (cryst. coord.)
         1           Zn  tau(   1) = (  0.6666667  0.1666667  0.2503168  )
         2           Zn  tau(   2) = (  0.3333333  0.3333333  0.0003168  )
         3           O   tau(   3) = (  0.6666667  0.1666667  0.4398382  )
         4           O   tau(   4) = (  0.3333333  0.3333333  0.1898382  )
         5           Zn  tau(   5) = (  0.6666667  0.1666667  0.7503168  )
         6           Zn  tau(   6) = (  0.3333333  0.3333333  0.5003168  )
         7           O   tau(   7) = (  0.6666667  0.1666667  0.9398382  )
         8           O   tau(   8) = (  0.3333333  0.3333333  0.6898382  )
         9           Zn  tau(   9) = (  0.6666667  0.6666667  0.2503168  )
        10           Zn  tau(  10) = (  0.3333333  0.8333333  0.0003168  )
        11           O   tau(  11) = (  0.6666667  0.6666667  0.4398382  )
        12           O   tau(  12) = (  0.3333333  0.8333333  0.1898382  )
        13           Zn  tau(  13) = (  0.6666667  0.6666667  0.7503168  )
        14           Zn  tau(  14) = (  0.3333333  0.8333333  0.5003168  )
        15           O   tau(  15) = (  0.6666667  0.6666667  0.9398382  )
        16           O   tau(  16) = (  0.3333333  0.8333333  0.6898382  )

     number of k points=    80
                       cart. coord. in units 2pi/alat
        k(    1) = (   0.0000000   0.0000000   0.0000000), wk =   0.0092593
        k(    2) = (   0.0000000   0.0000000   0.0526736), wk =   0.0185185
        k(    3) = (   0.0000000   0.0000000   0.1053471), wk =   0.0185185
        k(    4) = (   0.0000000   0.0000000  -0.1580207), wk =   0.0092593
        k(    5) = (   0.0000000   0.0962250   0.0000000), wk =   0.0185185
        k(    6) = (   0.0000000   0.0962250   0.0526736), wk =   0.0185185
        k(    7) = (   0.0000000   0.0962250   0.1053471), wk =   0.0185185
        k(    8) = (   0.0000000   0.0962250  -0.1580207), wk =   0.0185185
        k(    9) = (   0.0000000   0.1924501   0.0000000), wk =   0.0185185
        k(   10) = (   0.0000000   0.1924501   0.0526736), wk =   0.0185185
        k(   11) = (   0.0000000   0.1924501   0.1053471), wk =   0.0185185
        k(   12) = (   0.0000000   0.1924501  -0.1580207), wk =   0.0185185
        k(   13) = (   0.0000000  -0.2886751   0.0000000), wk =   0.0092593
        k(   14) = (   0.0000000  -0.2886751   0.0526736), wk =   0.0185185
        k(   15) = (   0.0000000  -0.2886751   0.1053471), wk =   0.0185185
        k(   16) = (   0.0000000  -0.2886751  -0.1580207), wk =   0.0092593
        k(   17) = (   0.1666667   0.0962250   0.0000000), wk =   0.0370370
        k(   18) = (   0.1666667   0.0962250   0.0526736), wk =   0.0370370
        k(   19) = (   0.1666667   0.0962250   0.1053471), wk =   0.0370370
        k(   20) = (   0.1666667   0.0962250  -0.1580207), wk =   0.0370370
        k(   21) = (   0.1666667   0.1924501   0.0000000), wk =   0.0370370
        k(   22) = (   0.1666667   0.1924501   0.0526736), wk =   0.0370370
        k(   23) = (   0.1666667   0.1924501   0.1053471), wk =   0.0370370
        k(   24) = (   0.1666667   0.1924501  -0.1580207), wk =   0.0370370
        k(   25) = (   0.1666667   0.2886751   0.0000000), wk =   0.0185185
        k(   26) = (   0.1666667   0.2886751   0.0526736), wk =   0.0370370
        k(   27) = (   0.1666667   0.2886751   0.1053471), wk =   0.0370370
        k(   28) = (   0.1666667   0.2886751  -0.1580207), wk =   0.0185185
        k(   29) = (   0.1666667   0.0000000   0.0000000), wk =   0.0185185
        k(   30) = (   0.1666667   0.0000000   0.0526736), wk =   0.0370370
        k(   31) = (   0.1666667   0.0000000   0.1053471), wk =   0.0370370
        k(   32) = (   0.1666667   0.0000000  -0.1580207), wk =   0.0185185
        k(   33) = (   0.3333333   0.1924501   0.0000000), wk =   0.0370370
        k(   34) = (   0.3333333   0.1924501   0.0526736), wk =   0.0370370
        k(   35) = (   0.3333333   0.1924501   0.1053471), wk =   0.0370370
        k(   36) = (   0.3333333   0.1924501  -0.1580207), wk =   0.0370370
        k(   37) = (   0.3333333   0.2886751   0.0000000), wk =   0.0185185
        k(   38) = (   0.3333333   0.2886751   0.0526736), wk =   0.0370370
        k(   39) = (   0.3333333   0.2886751   0.1053471), wk =   0.0370370
        k(   40) = (   0.3333333   0.2886751  -0.1580207), wk =   0.0185185
        k(   41) = (   0.3333333  -0.0962250   0.0000000), wk =   0.0370370
        k(   42) = (   0.3333333  -0.0962250   0.0526736), wk =   0.0370370
        k(   43) = (   0.3333333  -0.0962250   0.1053471), wk =   0.0370370
        k(   44) = (   0.3333333  -0.0962250  -0.1580207), wk =   0.0370370
        k(   45) = (   0.3333333  -0.0000000   0.0000000), wk =   0.0185185
        k(   46) = (   0.3333333  -0.0000000   0.0526736), wk =   0.0370370
        k(   47) = (   0.3333333  -0.0000000   0.1053471), wk =   0.0370370
        k(   48) = (   0.3333333  -0.0000000  -0.1580207), wk =   0.0185185
        k(   49) = (  -0.5000000  -0.2886751   0.0000000), wk =   0.0092593
        k(   50) = (  -0.5000000  -0.2886751   0.0526736), wk =   0.0185185
        k(   51) = (  -0.5000000  -0.2886751   0.1053471), wk =   0.0185185
        k(   52) = (  -0.5000000  -0.2886751  -0.1580207), wk =   0.0092593
        k(   53) = (  -0.5000000  -0.1924501   0.0000000), wk =   0.0185185
        k(   54) = (  -0.5000000  -0.1924501   0.0526736), wk =   0.0185185
        k(   55) = (  -0.5000000  -0.1924501   0.1053471), wk =   0.0185185
[...]
        k(   80) = (   0.5000000  -0.6666667  -0.3333333), wk =   0.0185185

     Check: negative core charge=   -0.000002

     Initial potential from superposition of free atoms

     starting charge     143.9702, renormalised to     144.0000
     Starting wfcs are  104 randomized atomic wfcs

     Self-consistent Calculation

     iteration #  1     ecut=    50.00 Ry     beta= 0.30
     Davidson diagonalization with overlap

     ethr =  1.00E-02,  avg # of iterations =  1.5

     total energy              =   -1445.58474464 Ry
     estimated scf accuracy    <       3.17828358 Ry

[...]

     c_bands:  1 eigenvalues not converged
     ethr =  2.53E-04,  avg # of iterations = 10.7

[...]

     c_bands:  1 eigenvalues not converged
     ethr =  6.13E-08,  avg # of iterations = 10.7

[...]

     total energy              =   -1446.34571954 Ry
     estimated scf accuracy    <       0.00000001 Ry

     iteration # 32     ecut=    50.00 Ry     beta= 0.30
     Davidson diagonalization with overlap

     ethr =  8.94E-12,  avg # of iterations =  5.1

     End of self-consistent calculation

          k = 0.0000 0.0000 0.0000 (  9683 PWs)   bands (ev):

   -12.3420 -12.1254 -12.1253 -11.9477 -11.9023 -11.8752 -11.8752 -11.8114
    -0.7958  -0.7958  -0.7643  -0.7498  -0.7498  -0.7372  -0.7370  -0.7274
    -0.6906  -0.6906  -0.6904  -0.6904  -0.6095  -0.6094  -0.5916  -0.4787
    -0.4393  -0.4393  -0.3609  -0.3310  -0.3310  -0.2600  -0.2217  -0.1506
    -0.1506  -0.0840  -0.0729  -0.0729  -0.0729  -0.0729  -0.0687  -0.0504
    -0.0362  -0.0362  -0.0229  -0.0229   0.0021   0.0283   0.0283   0.0441
     0.3878   0.8225   0.9037   0.9037   1.3630   2.0404   2.1200   2.1200
     2.5836   3.1159   3.1160   3.2263   3.2263   3.2490   3.5699   3.5704
     3.6170   3.8679   3.8679   3.8684   3.8684   4.1564   4.1568   4.1569

     occupation numbers
     1.0000   1.0000   1.0000   1.0000   1.0000   1.0000   1.0000   1.0000
     1.0000   1.0000   1.0000   1.0000   1.0000   1.0000   1.0000   1.0000
     1.0000   1.0000   1.0000   1.0000   1.0000   1.0000   1.0000   1.0000
     1.0000   1.0000   1.0000   1.0000   1.0000   1.0000   1.0000   1.0000
     1.0000   1.0000   1.0000   1.0000   1.0000   1.0000   1.0000   1.0000
     1.0000   1.0000   1.0000   1.0000   1.0000   1.0000   1.0000   1.0000
     1.0000   1.0000   1.0000   1.0000   1.0000   1.0000   1.0000   1.0000
     1.0000   1.0000   1.0000   1.0000   1.0000   1.0000   1.0000   1.0000
     1.0000   1.0000   1.0000   1.0000   1.0000   1.0000   1.0000   1.0000

[...]

          k =-0.5000-0.2887 0.0000 (  9660 PWs)   bands (ev):

[...]

          k =-0.3333-0.0962-0.1053 (  9714 PWs)   bands (ev):

[...]

          k = 0.5000-0.0962-0.1053 (  9682 PWs)   bands (ev):

   -11.9407 -11.9407 -11.9126 -11.9126 -11.8415 -11.8415 -11.8176 -11.8176
    -0.7386  -0.7386  -0.7242  -0.7242  -0.6500  -0.6500  -0.6021  -0.6021
    -0.5367  -0.5367  -0.4903  -0.4903  -0.3980  -0.3980  -0.3801  -0.3801
    -0.3547  -0.3547  -0.3438  -0.3438  -0.2921  -0.2921  -0.2650  -0.2649
    -0.1303  -0.1303  -0.0914  -0.0914  -0.0733  -0.0733  -0.0598  -0.0598
     0.0134   0.0134   0.0251   0.0251   0.0945   0.0945   0.1244   0.1244
     0.9626   0.9626   0.9856   0.9856   1.2382   1.2382   1.3778   1.3778
     2.1409   2.1409   2.3883   2.3883   2.4858   2.4858   2.8963   2.8964
     3.0463   3.0464   3.2436   3.2436   3.3815   3.3815   3.4657   3.4657

     occupation numbers
     1.0000   1.0000   1.0000   1.0000   1.0000   1.0000   1.0000   1.0000
     1.0000   1.0000   1.0000   1.0000   1.0000   1.0000   1.0000   1.0000
     1.0000   1.0000   1.0000   1.0000   1.0000   1.0000   1.0000   1.0000
     1.0000   1.0000   1.0000   1.0000   1.0000   1.0000   1.0000   1.0000
     1.0000   1.0000   1.0000   1.0000   1.0000   1.0000   1.0000   1.0000
     1.0000   1.0000   1.0000   1.0000   1.0000   1.0000   1.0000   1.0000
     1.0000   1.0000   1.0000   1.0000   1.0000   1.0000   1.0000   1.0000
     1.0000   1.0000   1.0000   1.0000   1.0000   1.0000   1.0000   1.0000
     1.0000   1.0000   1.0000   1.0000   1.0000   1.0000   1.0000   1.0000

     highest occupied level (ev):     4.1569

!    total energy              =   -1446.34571954 Ry
     estimated scf accuracy    <          4.9E-09 Ry

     The total energy is the sum of the following terms:
     one-electron contribution =    -712.52310404 Ry
     hartree contribution      =     507.49139150 Ry
     xc contribution           =    -436.65252447 Ry
     ewald contribution        =    -804.66148254 Ry

     convergence has been achieved in  32 iterations

     Forces acting on atoms (cartesian axes, Ry/au):

     atom    1 type  1   force =     0.00000000    0.00001297   -0.00011293
     atom    2 type  1   force =     0.00000000   -0.00000784   -0.00010839
     atom    3 type  2   force =     0.00000000    0.00000519    0.00012979
     atom    4 type  2   force =     0.00000000   -0.00000395    0.00012834
     atom    5 type  1   force =     0.00000000    0.00000417   -0.00013866
     atom    6 type  1   force =     0.00000000   -0.00000018   -0.00015541
     atom    7 type  2   force =     0.00000000    0.00000451    0.00012718
     atom    8 type  2   force =     0.00000000   -0.00000418    0.00012901
     atom    9 type  1   force =     0.00000000   -0.00000323   -0.00010682
     atom   10 type  1   force =     0.00000000   -0.00000332   -0.00011233
     atom   11 type  2   force =     0.00000000    0.00000482    0.00012979
     atom   12 type  2   force =     0.00000000   -0.00000446    0.00012842
     atom   13 type  1   force =     0.00000000    0.00000308   -0.00014322
     atom   14 type  1   force =     0.00000000   -0.00000845   -0.00015223
     atom   15 type  2   force =     0.00000000    0.00000563    0.00012769
     atom   16 type  2   force =     0.00000000   -0.00000475    0.00012977
     The non-local contrib.  to forces
     atom    1 type  1   force =     0.00000000   -0.00000338   -0.05626028
     atom    2 type  1   force =     0.00000000    0.00000608   -0.05625559
     atom    3 type  2   force =     0.00000000    0.00021914   -0.04517037
     atom    4 type  2   force =     0.00000000   -0.00021889   -0.04518385
     atom    5 type  1   force =     0.00000000   -0.00000739   -0.05627334
     atom    6 type  1   force =     0.00000000    0.00000962   -0.05628706
     atom    7 type  2   force =     0.00000000    0.00021712   -0.04518524
     atom    8 type  2   force =     0.00000000   -0.00021821   -0.04516962
     atom    9 type  1   force =     0.00000000   -0.00001091   -0.05625780
     atom   10 type  1   force =     0.00000000    0.00000839   -0.05625792
     atom   11 type  2   force =     0.00000000    0.00021854   -0.04517117
     atom   12 type  2   force =     0.00000000   -0.00021898   -0.04518672
     atom   13 type  1   force =     0.00000000   -0.00000690   -0.05627594
     atom   14 type  1   force =     0.00000000    0.00000512   -0.05628467
     atom   15 type  2   force =     0.00000000    0.00022067   -0.04518414
     atom   16 type  2   force =     0.00000000   -0.00021970   -0.04516625
     The ionic contribution  to forces
     atom    1 type  1   force =    -0.00000000    0.00000001   -0.30712516
     atom    2 type  1   force =     0.00000000    0.00000001   -0.30712516
     atom    3 type  2   force =    -0.00000000    0.00000000    0.30712516
     atom    4 type  2   force =     0.00000000    0.00000000    0.30712516
     atom    5 type  1   force =    -0.00000000    0.00000001   -0.30712516
     atom    6 type  1   force =     0.00000000    0.00000001   -0.30712516
     atom    7 type  2   force =    -0.00000000    0.00000000    0.30712516
     atom    8 type  2   force =     0.00000000    0.00000000    0.30712516
     atom    9 type  1   force =     0.00000000   -0.00000001   -0.30712516
     atom   10 type  1   force =    -0.00000000   -0.00000000   -0.30712516
     atom   11 type  2   force =     0.00000000   -0.00000001    0.30712516
     atom   12 type  2   force =    -0.00000000   -0.00000000    0.30712516
     atom   13 type  1   force =     0.00000000   -0.00000001   -0.30712516
     atom   14 type  1   force =    -0.00000000   -0.00000000   -0.30712516
     atom   15 type  2   force =     0.00000000   -0.00000001    0.30712516
     atom   16 type  2   force =    -0.00000000   -0.00000000    0.30712516
     The local contribution  to forces
     atom    1 type  1   force =    -0.00000009   -0.00001201    0.35978247
     atom    2 type  1   force =    -0.00000000    0.00000430    0.35977496
     atom    3 type  2   force =    -0.00000002   -0.00021399   -0.26218170
     atom    4 type  2   force =     0.00000000    0.00021149   -0.26220868
     atom    5 type  1   force =    -0.00000009    0.00000298    0.35981715
     atom    6 type  1   force =     0.00000000   -0.00000947    0.35985370
     atom    7 type  2   force =    -0.00000002   -0.00021340   -0.26220536
     atom    8 type  2   force =    -0.00000000    0.00020962   -0.26218401
     atom    9 type  1   force =    -0.00000000    0.00001575    0.35977125
     atom   10 type  1   force =    -0.00000000   -0.00000732    0.35978519
     atom   11 type  2   force =    -0.00000000   -0.00020949   -0.26218313
     atom   12 type  2   force =     0.00000000    0.00021331   -0.26220807
     atom   13 type  1   force =    -0.00000000    0.00000173    0.35982669
     atom   14 type  1   force =    -0.00000000    0.00000584    0.35984868
     atom   15 type  2   force =    -0.00000000   -0.00021041   -0.26220548
     atom   16 type  2   force =     0.00000000    0.00021248   -0.26218577
     The core correction contribution to forces
     atom    1 type  1   force =    -0.00000001    0.00000620    0.00345061
     atom    2 type  1   force =    -0.00000000   -0.00000607    0.00344964
     atom    3 type  2   force =     0.00000000   -0.00000248    0.00038313
     atom    4 type  2   force =    -0.00000000    0.00000248    0.00038182
     atom    5 type  1   force =    -0.00000001    0.00000583    0.00344695
     atom    6 type  1   force =    -0.00000000   -0.00000569    0.00344726
     atom    7 type  2   force =     0.00000000   -0.00000246    0.00038073
     atom    8 type  2   force =    -0.00000000    0.00000246    0.00038200
     atom    9 type  1   force =    -0.00000000    0.00000555    0.00345092
     atom   10 type  1   force =    -0.00000000   -0.00000563    0.00344928
     atom   11 type  2   force =     0.00000000   -0.00000246    0.00038313
     atom   12 type  2   force =     0.00000000    0.00000248    0.00038186
     atom   13 type  1   force =     0.00000000    0.00000595    0.00344669
     atom   14 type  1   force =    -0.00000000   -0.00000601    0.00344723
     atom   15 type  2   force =     0.00000000   -0.00000249    0.00038072
     atom   16 type  2   force =     0.00000000    0.00000248    0.00038196
     The Hubbard contrib.    to forces
     atom    1 type  1   force =     0.00000000    0.00000000    0.00000000
     atom    2 type  1   force =     0.00000000    0.00000000    0.00000000
     atom    3 type  2   force =     0.00000000    0.00000000    0.00000000
     atom    4 type  2   force =     0.00000000    0.00000000    0.00000000
     atom    5 type  1   force =     0.00000000    0.00000000    0.00000000
     atom    6 type  1   force =     0.00000000    0.00000000    0.00000000
     atom    7 type  2   force =     0.00000000    0.00000000    0.00000000
     atom    8 type  2   force =     0.00000000    0.00000000    0.00000000
     atom    9 type  1   force =     0.00000000    0.00000000    0.00000000
     atom   10 type  1   force =     0.00000000    0.00000000    0.00000000
     atom   11 type  2   force =     0.00000000    0.00000000    0.00000000
     atom   12 type  2   force =     0.00000000    0.00000000    0.00000000
     atom   13 type  1   force =     0.00000000    0.00000000    0.00000000
     atom   14 type  1   force =     0.00000000    0.00000000    0.00000000
     atom   15 type  2   force =     0.00000000    0.00000000    0.00000000
     atom   16 type  2   force =     0.00000000    0.00000000    0.00000000
     The SCF correction term to forces
     atom    1 type  1   force =    -0.00000000    0.00002165    0.00004480
     atom    2 type  1   force =     0.00000000   -0.00001266    0.00005315
     atom    3 type  2   force =    -0.00000000    0.00000201   -0.00002106
     atom    4 type  2   force =     0.00000000    0.00000046    0.00001926
     atom    5 type  1   force =    -0.00000000    0.00000223    0.00000113
     atom    6 type  1   force =     0.00000000    0.00000484   -0.00003876
     atom    7 type  2   force =    -0.00000000    0.00000275    0.00001727
     atom    8 type  2   force =     0.00000000    0.00000145   -0.00001916
     atom    9 type  1   force =     0.00000000   -0.00001411    0.00005935
     atom   10 type  1   force =    -0.00000000    0.00000075    0.00004166
     atom   11 type  2   force =     0.00000000   -0.00000227   -0.00001883
     atom   12 type  2   force =    -0.00000000   -0.00000177    0.00002158
     atom   13 type  1   force =     0.00000000    0.00000181   -0.00001011
     atom   14 type  1   force =    -0.00000000   -0.00001390   -0.00003292
     atom   15 type  2   force =     0.00000000   -0.00000264    0.00001682
     atom   16 type  2   force =    -0.00000000   -0.00000051   -0.00001994

     Total force =     0.000518     Total SCF correction =     0.000130
     SCF correction compared to forces is large: reduce conv_thr to get better values

     General routines

     Parallel routines

   This run was terminated on:  16: 9: 6  29Aug2025

   JOB DONE.
Note: The following floating-point exceptions are signalling: IEEE_UNDERFLOW_FLAG IEEE_DENORMAL
Note: The following floating-point exceptions are signalling: IEEE_UNDERFLOW_FLAG IEEE_DENORMAL
Note: The following floating-point exceptions are signalling: IEEE_UNDERFLOW_FLAG IEEE_DENORMAL
Note: The following floating-point exceptions are signalling: IEEE_UNDERFLOW_FLAG IEEE_DENORMAL
Note: The following floating-point exceptions are signalling: IEEE_UNDERFLOW_FLAG IEEE_DENORMAL
Note: The following floating-point exceptions are signalling: IEEE_UNDERFLOW_FLAG IEEE_DENORMAL
Note: The following floating-point exceptions are signalling: IEEE_UNDERFLOW_FLAG IEEE_DENORMAL
Note: The following floating-point exceptions are signalling: IEEE_UNDERFLOW_FLAG IEEE_DENORMAL
Note: The following floating-point exceptions are signalling: IEEE_UNDERFLOW_FLAG IEEE_DENORMAL
Note: The following floating-point exceptions are signalling: IEEE_UNDERFLOW_FLAG IEEE_DENORMAL
Note: The following floating-point exceptions are signalling: IEEE_UNDERFLOW_FLAG IEEE_DENORMAL
Note: The following floating-point exceptions are signalling: IEEE_UNDERFLOW_FLAG IEEE_DENORMAL
Note: The following floating-point exceptions are signalling: IEEE_UNDERFLOW_FLAG IEEE_DENORMAL
Note: The following floating-point exceptions are signalling: IEEE_UNDERFLOW_FLAG IEEE_DENORMAL
Note: The following floating-point exceptions are signalling: IEEE_UNDERFLOW_FLAG IEEE_DENORMAL
Note: The following floating-point exceptions are signalling: IEEE_UNDERFLOW_FLAG IEEE_DENORMAL
Note: The following floating-point exceptions are signalling: IEEE_UNDERFLOW_FLAG IEEE_DENORMAL
Note: The following floating-point exceptions are signalling: IEEE_UNDERFLOW_FLAG IEEE_DENORMAL
Note: The following floating-point exceptions are signalling: IEEE_UNDERFLOW_FLAG IEEE_DENORMAL
Note: The following floating-point exceptions are signalling: IEEE_UNDERFLOW_FLAG IEEE_DENORMAL
Note: The following floating-point exceptions are signalling: IEEE_UNDERFLOW_FLAG IEEE_DENORMAL
Note: The following floating-point exceptions are signalling: IEEE_UNDERFLOW_FLAG IEEE_DENORMAL
Note: The following floating-point exceptions are signalling: IEEE_UNDERFLOW_FLAG IEEE_DENORMAL
Note: The following floating-point exceptions are signalling: IEEE_UNDERFLOW_FLAG IEEE_DENORMAL
Note: The following floating-point exceptions are signalling: IEEE_UNDERFLOW_FLAG IEEE_DENORMAL
Note: The following floating-point exceptions are signalling: IEEE_UNDERFLOW_FLAG IEEE_DENORMAL
Note: The following floating-point exceptions are signalling: IEEE_UNDERFLOW_FLAG IEEE_DENORMAL
Note: The following floating-point exceptions are signalling: IEEE_UNDERFLOW_FLAG IEEE_DENORMAL
Note: The following floating-point exceptions are signalling: IEEE_UNDERFLOW_FLAG IEEE_DENORMAL
Note: The following floating-point exceptions are signalling: IEEE_UNDERFLOW_FLAG IEEE_DENORMAL
Note: The following floating-point exceptions are signalling: IEEE_UNDERFLOW_FLAG IEEE_DENORMAL
Note: The following floating-point exceptions are signalling: IEEE_UNDERFLOW_FLAG IEEE_DENORMAL