     Program PWSCF v.7.0 starts on 29Aug2025 at  8:35:31

     K-points division:     npool     =       8
     R & G space division:  proc/nbgrp/npool/nimage =       4

     Reading input from /home/jvc/QEspresso7.2/ZnO_database/scripts/cell122.in/ZnO-3.40-1.45-122.in
Warning: card &CELL ignored
Warning: card / ignored
Warning: card &FCP ignored
Warning: card / ignored
Warning: card &RISM ignored
Warning: card / ignored

     Current dimensions of program PWSCF are:
     Max number of different atomic species (ntypx) = 10
     Max number of k-points (npk) =  40000
     Max angular momentum in pseudopotentials (lmaxx) =  4
     file Zn.upf: wavefunction(s)  3D renormalized
     Found identity + (  0.0000  0.0000 -0.5000) symmetry
     This is a supercell, fractional translations are disabled
     Message from routine setup:
     using ibrav=0 with symmetry is DISCOURAGED, use correct ibrav instead

     Using Slab Decomposition

     bravais-lattice index     =            0
     lattice parameter (alat)  =       6.4260  a.u.
     unit-cell volume          =    1335.5400 (a.u.)^3
     number of atoms/cell      =           16
     number of atomic types    =            2
     number of electrons       =       144.00
     number of Kohn-Sham states=           72
     kinetic-energy cutoff     =      50.0000  Ry
     charge density cutoff     =     400.0000  Ry
     scf convergence threshold =      1.0E-08
     mixing beta               =       0.3000
     number of iterations used =            8  plain     mixing
     Exchange-correlation= PBE
                           (   1   4   3   4   0   0   0)

     celldm(1)=   6.426008  celldm(2)=   0.000000  celldm(3)=   0.000000
     celldm(4)=   0.000000  celldm(5)=   0.000000  celldm(6)=   0.000000

     crystal axes: (cart. coord. in units of alat)
               a(1) = (   1.000000   0.000000   0.000000 )
               a(2) = (  -1.000000   1.732051   0.000000 )
               a(3) = (   0.000000   0.000000   2.905845 )

     reciprocal axes: (cart. coord. in units 2 pi/alat)
               b(1) = (  1.000000  0.577350 -0.000000 )
               b(2) = (  0.000000  0.577350  0.000000 )
               b(3) = (  0.000000 -0.000000  0.344134 )

     PseudoPot. # 1 for Zn read from file:
     /home/jvc/QEspresso7.2/ZnO_database/pseudos/Zn.upf
     MD5 check sum: 7f56cabf9682ed8c977c2f7d0c5985c5
     Pseudo is Ultrasoft + core correction, Zval = 12.0
     Generated using &quot;atomic&quot; code by A. Dal Corso  v.6.2.2
     Using radial grid of 1201 points,  6 beta functions with:
                l(1) =   0
                l(2) =   0
                l(3) =   1
                l(4) =   1
                l(5) =   2
                l(6) =   2
     Q(r) pseudized with 0 coefficients

     PseudoPot. # 2 for O  read from file:
     /home/jvc/QEspresso7.2/ZnO_database/pseudos/O.upf
     MD5 check sum: 91400c9766925bcf19f520983a725ff0
     Pseudo is Ultrasoft + core correction, Zval =  6.0
     Generated using &quot;atomic&quot; code by A. Dal Corso  v.6.3MaX
     Using radial grid of 1095 points,  4 beta functions with:
                l(1) =   0
                l(2) =   0
                l(3) =   1
                l(4) =   1
     Q(r) pseudized with 0 coefficients

     atomic species   valence    mass     pseudopotential
        Zn            12.00    65.38000     Zn( 1.00)
        O              6.00    15.99900     O ( 1.00)

      2 Sym. Ops. (no inversion) found

                                    s                        frac. trans.

      isym =  1     identity

 cryst.   s( 1) = (     1          0          0      )
                  (     0          1          0      )
                  (     0          0          1      )

 cart.    s( 1) = (  1.0000000  0.0000000  0.0000000 )
                  (  0.0000000  1.0000000  0.0000000 )
                  (  0.0000000  0.0000000  1.0000000 )

      isym =  2     inv. 180 deg rotation - cart. axis [1,0,0]

 cryst.   s( 2) = (    -1          0          0      )
                  (     2          1          0      )
                  (     0          0          1      )

 cart.    s( 2) = ( -1.0000000  0.0000000  0.0000000 )
                  (  0.0000000  1.0000000  0.0000000 )
                  (  0.0000000  0.0000000  1.0000000 )

   Cartesian axes

     site n.     atom                  positions (alat units)
         1           Zn  tau(   1) = (   0.5000000   0.2886751   0.7273818  )
         2           Zn  tau(   2) = (   0.0000000   0.5773503   0.0009206  )
         3           O   tau(   3) = (   0.5000000   0.2886751   1.2781017  )
         4           O   tau(   4) = (   0.0000000   0.5773503   0.5516404  )
         5           Zn  tau(   5) = (   0.5000000   0.2886751   2.1803043  )
         6           Zn  tau(   6) = (   0.0000000   0.5773503   1.4538431  )
         7           O   tau(   7) = (   0.5000000   0.2886751   2.7310242  )
         8           O   tau(   8) = (   0.0000000   0.5773503   2.0045629  )
         9           Zn  tau(   9) = (   0.0000000   1.1547005   0.7273818  )
        10           Zn  tau(  10) = (  -0.5000000   1.4433757   0.0009206  )
        11           O   tau(  11) = (   0.0000000   1.1547005   1.2781017  )
        12           O   tau(  12) = (  -0.5000000   1.4433757   0.5516404  )
        13           Zn  tau(  13) = (   0.0000000   1.1547005   2.1803043  )
        14           Zn  tau(  14) = (  -0.5000000   1.4433757   1.4538431  )
        15           O   tau(  15) = (   0.0000000   1.1547005   2.7310242  )
        16           O   tau(  16) = (  -0.5000000   1.4433757   2.0045629  )

   Crystallographic axes

     site n.     atom                  positions (cryst. coord.)
         1           Zn  tau(   1) = (  0.6666667  0.1666667  0.2503168  )
         2           Zn  tau(   2) = (  0.3333333  0.3333333  0.0003168  )
         3           O   tau(   3) = (  0.6666667  0.1666667  0.4398382  )
         4           O   tau(   4) = (  0.3333333  0.3333333  0.1898382  )
         5           Zn  tau(   5) = (  0.6666667  0.1666667  0.7503168  )
         6           Zn  tau(   6) = (  0.3333333  0.3333333  0.5003168  )
         7           O   tau(   7) = (  0.6666667  0.1666667  0.9398382  )
         8           O   tau(   8) = (  0.3333333  0.3333333  0.6898382  )
         9           Zn  tau(   9) = (  0.6666667  0.6666667  0.2503168  )
        10           Zn  tau(  10) = (  0.3333333  0.8333333  0.0003168  )
        11           O   tau(  11) = (  0.6666667  0.6666667  0.4398382  )
        12           O   tau(  12) = (  0.3333333  0.8333333  0.1898382  )
        13           Zn  tau(  13) = (  0.6666667  0.6666667  0.7503168  )
        14           Zn  tau(  14) = (  0.3333333  0.8333333  0.5003168  )
        15           O   tau(  15) = (  0.6666667  0.6666667  0.9398382  )
        16           O   tau(  16) = (  0.3333333  0.8333333  0.6898382  )

     number of k points=    80
                       cart. coord. in units 2pi/alat
        k(    1) = (   0.0000000   0.0000000   0.0000000), wk =   0.0092593
        k(    2) = (   0.0000000   0.0000000   0.0573557), wk =   0.0185185
        k(    3) = (   0.0000000   0.0000000   0.1147113), wk =   0.0185185
        k(    4) = (   0.0000000   0.0000000  -0.1720670), wk =   0.0092593
        k(    5) = (   0.0000000   0.0962250   0.0000000), wk =   0.0185185
        k(    6) = (   0.0000000   0.0962250   0.0573557), wk =   0.0185185
        k(    7) = (   0.0000000   0.0962250   0.1147113), wk =   0.0185185
        k(    8) = (   0.0000000   0.0962250  -0.1720670), wk =   0.0185185
        k(    9) = (   0.0000000   0.1924501   0.0000000), wk =   0.0185185
        k(   10) = (   0.0000000   0.1924501   0.0573557), wk =   0.0185185
        k(   11) = (   0.0000000   0.1924501   0.1147113), wk =   0.0185185
        k(   12) = (   0.0000000   0.1924501  -0.1720670), wk =   0.0185185
        k(   13) = (   0.0000000  -0.2886751   0.0000000), wk =   0.0092593
        k(   14) = (   0.0000000  -0.2886751   0.0573557), wk =   0.0185185
        k(   15) = (   0.0000000  -0.2886751   0.1147113), wk =   0.0185185
        k(   16) = (   0.0000000  -0.2886751  -0.1720670), wk =   0.0092593
        k(   17) = (   0.1666667   0.0962250   0.0000000), wk =   0.0370370
        k(   18) = (   0.1666667   0.0962250   0.0573557), wk =   0.0370370
        k(   19) = (   0.1666667   0.0962250   0.1147113), wk =   0.0370370
        k(   20) = (   0.1666667   0.0962250  -0.1720670), wk =   0.0370370
        k(   21) = (   0.1666667   0.1924501   0.0000000), wk =   0.0370370
        k(   22) = (   0.1666667   0.1924501   0.0573557), wk =   0.0370370
        k(   23) = (   0.1666667   0.1924501   0.1147113), wk =   0.0370370
        k(   24) = (   0.1666667   0.1924501  -0.1720670), wk =   0.0370370
        k(   25) = (   0.1666667   0.2886751   0.0000000), wk =   0.0185185
        k(   26) = (   0.1666667   0.2886751   0.0573557), wk =   0.0370370
        k(   27) = (   0.1666667   0.2886751   0.1147113), wk =   0.0370370
        k(   28) = (   0.1666667   0.2886751  -0.1720670), wk =   0.0185185
        k(   29) = (   0.1666667   0.0000000   0.0000000), wk =   0.0185185
        k(   30) = (   0.1666667   0.0000000   0.0573557), wk =   0.0370370
        k(   31) = (   0.1666667   0.0000000   0.1147113), wk =   0.0370370
        k(   32) = (   0.1666667   0.0000000  -0.1720670), wk =   0.0185185
        k(   33) = (   0.3333333   0.1924501   0.0000000), wk =   0.0370370
        k(   34) = (   0.3333333   0.1924501   0.0573557), wk =   0.0370370
        k(   35) = (   0.3333333   0.1924501   0.1147113), wk =   0.0370370
        k(   36) = (   0.3333333   0.1924501  -0.1720670), wk =   0.0370370
        k(   37) = (   0.3333333   0.2886751   0.0000000), wk =   0.0185185
        k(   38) = (   0.3333333   0.2886751   0.0573557), wk =   0.0370370
        k(   39) = (   0.3333333   0.2886751   0.1147113), wk =   0.0370370
        k(   40) = (   0.3333333   0.2886751  -0.1720670), wk =   0.0185185
        k(   41) = (   0.3333333  -0.0962250   0.0000000), wk =   0.0370370
        k(   42) = (   0.3333333  -0.0962250   0.0573557), wk =   0.0370370
        k(   43) = (   0.3333333  -0.0962250   0.1147113), wk =   0.0370370
        k(   44) = (   0.3333333  -0.0962250  -0.1720670), wk =   0.0370370
        k(   45) = (   0.3333333  -0.0000000   0.0000000), wk =   0.0185185
        k(   46) = (   0.3333333  -0.0000000   0.0573557), wk =   0.0370370
        k(   47) = (   0.3333333  -0.0000000   0.1147113), wk =   0.0370370
        k(   48) = (   0.3333333  -0.0000000  -0.1720670), wk =   0.0185185
        k(   49) = (  -0.5000000  -0.2886751   0.0000000), wk =   0.0092593
        k(   50) = (  -0.5000000  -0.2886751   0.0573557), wk =   0.0185185
        k(   51) = (  -0.5000000  -0.2886751   0.1147113), wk =   0.0185185
        k(   52) = (  -0.5000000  -0.2886751  -0.1720670), wk =   0.0092593
        k(   53) = (  -0.5000000  -0.1924501   0.0000000), wk =   0.0185185
        k(   54) = (  -0.5000000  -0.1924501   0.0573557), wk =   0.0185185
        k(   55) = (  -0.5000000  -0.1924501   0.1147113), wk =   0.0185185
[...]
        k(   79) = (   0.5000000  -0.6666667  -0.1666667), wk =   0.0185185
        k(   80) = (   0.5000000  -0.6666667  -0.3333333), wk =   0.0185185

     Check: negative core charge=   -0.000002

     Initial potential from superposition of free atoms

     starting charge     143.9702, renormalised to     144.0000
     Starting wfcs are  104 randomized atomic wfcs

     Self-consistent Calculation

     iteration #  1     ecut=    50.00 Ry     beta= 0.30
     Davidson diagonalization with overlap

     ethr =  1.00E-02,  avg # of iterations =  2.0

     total energy              =   -1445.82013549 Ry
     estimated scf accuracy    <       2.86424231 Ry

[...]

     c_bands:  1 eigenvalues not converged
     ethr =  9.88E-09,  avg # of iterations = 11.3

[...]

     c_bands:  1 eigenvalues not converged
     ethr =  5.60E-11,  avg # of iterations =  9.2

[...]

     total energy              =   -1446.47572810 Ry
     estimated scf accuracy    <       0.00000004 Ry

     iteration # 43     ecut=    50.00 Ry     beta= 0.30
     Davidson diagonalization with overlap

     ethr =  1.55E-11,  avg # of iterations =  6.3

     End of self-consistent calculation

          k = 0.0000 0.0000 0.0000 (  8037 PWs)   bands (ev):

   -11.1212 -10.7181 -10.7181 -10.5342 -10.3877 -10.3877 -10.3060 -10.2785
     0.7399   0.7399   0.8876   0.8876   0.9960   1.1963   1.2239   1.2240
     1.2862   1.2862   1.2864   1.2864   1.3584   1.3911   1.4637   1.4638
     1.5557   1.5801   1.5801   1.6323   1.6323   1.6373   1.7472   2.0009
     2.2079   2.2079   2.2709   2.3837   2.3837   2.3837   2.3837   2.3855
     2.4170   2.4170   2.4629   2.4629   2.5135   2.5135   2.5169   2.5503
     2.6476   3.1125   3.1525   3.1525   3.5003   4.0075   4.2274   4.7057
     4.7057   5.2008   5.2009   5.5412   5.6143   5.6146   5.7129   5.7129
     6.0049   6.1383   6.1383   6.1386   6.1386   6.6259   6.6262   6.7140

     occupation numbers
     1.0000   1.0000   1.0000   1.0000   1.0000   1.0000   1.0000   1.0000
     1.0000   1.0000   1.0000   1.0000   1.0000   1.0000   1.0000   1.0000
     1.0000   1.0000   1.0000   1.0000   1.0000   1.0000   1.0000   1.0000
     1.0000   1.0000   1.0000   1.0000   1.0000   1.0000   1.0000   1.0000
     1.0000   1.0000   1.0000   1.0000   1.0000   1.0000   1.0000   1.0000
     1.0000   1.0000   1.0000   1.0000   1.0000   1.0000   1.0000   1.0000
     1.0000   1.0000   1.0000   1.0000   1.0000   1.0000   1.0000   1.0000
     1.0000   1.0000   1.0000   1.0000   1.0000   1.0000   1.0000   1.0000
     1.0000   1.0000   1.0000   1.0000   1.0000   1.0000   1.0000   1.0000

[...]

          k =-0.5000-0.2887 0.0000 (  7984 PWs)   bands (ev):

[...]

          k =-0.3333-0.0962-0.1147 (  7969 PWs)   bands (ev):

[...]

          k = 0.5000-0.0962-0.1147 (  7976 PWs)   bands (ev):

   -10.5185 -10.5184 -10.4606 -10.4606 -10.3264 -10.3264 -10.2870 -10.2869
     0.8857   0.8857   0.9730   0.9730   1.0259   1.0259   1.2313   1.2313
     1.3954   1.3954   1.4076   1.4076   1.5281   1.5281   1.5583   1.5583
     1.6787   1.6787   1.7740   1.7741   1.8011   1.8011   1.9474   1.9474
     2.2465   2.2465   2.3152   2.3152   2.3553   2.3553   2.3741   2.3741
     2.5075   2.5075   2.5200   2.5200   2.6154   2.6154   2.6472   2.6472
     3.0100   3.0100   3.1581   3.1581   3.4936   3.4936   3.5832   3.5832
     3.9423   3.9423   4.2889   4.2889   4.5700   4.5700   5.1776   5.1776
     5.3150   5.3150   5.5830   5.5830   5.7379   5.7379   5.9440   5.9440

     occupation numbers
     1.0000   1.0000   1.0000   1.0000   1.0000   1.0000   1.0000   1.0000
     1.0000   1.0000   1.0000   1.0000   1.0000   1.0000   1.0000   1.0000
     1.0000   1.0000   1.0000   1.0000   1.0000   1.0000   1.0000   1.0000
     1.0000   1.0000   1.0000   1.0000   1.0000   1.0000   1.0000   1.0000
     1.0000   1.0000   1.0000   1.0000   1.0000   1.0000   1.0000   1.0000
     1.0000   1.0000   1.0000   1.0000   1.0000   1.0000   1.0000   1.0000
     1.0000   1.0000   1.0000   1.0000   1.0000   1.0000   1.0000   1.0000
     1.0000   1.0000   1.0000   1.0000   1.0000   1.0000   1.0000   1.0000
     1.0000   1.0000   1.0000   1.0000   1.0000   1.0000   1.0000   1.0000

     highest occupied level (ev):     6.7140

!    total energy              =   -1446.47572811 Ry
     estimated scf accuracy    <          3.3E-09 Ry

     The total energy is the sum of the following terms:
     one-electron contribution =    -629.71019986 Ry
     hartree contribution      =     478.15196570 Ry
     xc contribution           =    -438.15341541 Ry
     ewald contribution        =    -856.76407854 Ry

     convergence has been achieved in  43 iterations

     Forces acting on atoms (cartesian axes, Ry/au):

     atom    1 type  1   force =     0.00000000   -0.00000383   -0.04545235
     atom    2 type  1   force =     0.00000000    0.00000942   -0.04544368
     atom    3 type  2   force =     0.00000000    0.00000030    0.04544711
     atom    4 type  2   force =     0.00000000   -0.00000040    0.04544693
     atom    5 type  1   force =     0.00000000    0.00000060   -0.04544540
     atom    6 type  1   force =     0.00000000    0.00001971   -0.04544661
     atom    7 type  2   force =     0.00000000    0.00000025    0.04544607
     atom    8 type  2   force =     0.00000000    0.00000003    0.04544686
     atom    9 type  1   force =     0.00000000   -0.00001189   -0.04544281
     atom   10 type  1   force =     0.00000000    0.00000536   -0.04544019
     atom   11 type  2   force =     0.00000000   -0.00000010    0.04544760
     atom   12 type  2   force =     0.00000000    0.00000004    0.04544679
     atom   13 type  1   force =     0.00000000   -0.00001697   -0.04544997
     atom   14 type  1   force =     0.00000000   -0.00000287   -0.04545308
     atom   15 type  2   force =     0.00000000    0.00000033    0.04544609
     atom   16 type  2   force =     0.00000000    0.00000002    0.04544664
     The non-local contrib.  to forces
     atom    1 type  1   force =     0.00000000    0.00000638   -0.31116638
     atom    2 type  1   force =     0.00000000   -0.00000278   -0.31116392
     atom    3 type  2   force =     0.00000000    0.00017910   -0.23529881
     atom    4 type  2   force =     0.00000000   -0.00018246   -0.23530130
     atom    5 type  1   force =     0.00000000    0.00000827   -0.31116472
     atom    6 type  1   force =     0.00000000    0.00000087   -0.31116620
     atom    7 type  2   force =     0.00000000    0.00017924   -0.23530271
     atom    8 type  2   force =     0.00000000   -0.00018187   -0.23529969
     atom    9 type  1   force =     0.00000000    0.00000209   -0.31116281
     atom   10 type  1   force =     0.00000000   -0.00000552   -0.31116198
     atom   11 type  2   force =     0.00000000    0.00018172   -0.23529714
     atom   12 type  2   force =     0.00000000   -0.00017827   -0.23530171
     atom   13 type  1   force =     0.00000000   -0.00000005   -0.31116779
     atom   14 type  1   force =     0.00000000   -0.00000931   -0.31116826
     atom   15 type  2   force =     0.00000000    0.00018145   -0.23530336
     atom   16 type  2   force =     0.00000000   -0.00017904   -0.23530005
     The ionic contribution  to forces
     atom    1 type  1   force =    -0.00000000    0.00000000   -2.08967268
     atom    2 type  1   force =     0.00000000   -0.00000000   -2.08967268
     atom    3 type  2   force =    -0.00000000    0.00000000    2.08967268
     atom    4 type  2   force =     0.00000000   -0.00000000    2.08967268
     atom    5 type  1   force =    -0.00000000    0.00000000   -2.08967268
     atom    6 type  1   force =     0.00000000   -0.00000000   -2.08967268
     atom    7 type  2   force =    -0.00000000    0.00000000    2.08967268
     atom    8 type  2   force =     0.00000000   -0.00000000    2.08967268
     atom    9 type  1   force =    -0.00000000    0.00000000   -2.08967268
     atom   10 type  1   force =     0.00000000   -0.00000000   -2.08967268
     atom   11 type  2   force =    -0.00000000    0.00000000    2.08967268
     atom   12 type  2   force =     0.00000000   -0.00000000    2.08967268
     atom   13 type  1   force =    -0.00000000    0.00000000   -2.08967268
     atom   14 type  1   force =     0.00000000   -0.00000000   -2.08967268
     atom   15 type  2   force =    -0.00000000    0.00000000    2.08967268
     atom   16 type  2   force =     0.00000000   -0.00000000    2.08967268
     The local contribution  to forces
     atom    1 type  1   force =    -0.00000009   -0.00002109    2.33203064
     atom    2 type  1   force =     0.00000000    0.00001291    2.33201504
     atom    3 type  2   force =    -0.00000002   -0.00018221   -1.81066187
     atom    4 type  2   force =     0.00000000    0.00017606   -1.81067055
     atom    5 type  1   force =    -0.00000009   -0.00003052    2.33202037
     atom    6 type  1   force =     0.00000000   -0.00000341    2.33201606
     atom    7 type  2   force =    -0.00000002   -0.00018004   -1.81066765
     atom    8 type  2   force =     0.00000000    0.00017464   -1.81066961
     atom    9 type  1   force =    -0.00000009   -0.00001053    2.33201285
     atom   10 type  1   force =     0.00000000    0.00001879    2.33201044
     atom   11 type  2   force =    -0.00000002   -0.00017418   -1.81066790
     atom   12 type  2   force =    -0.00000000    0.00017938   -1.81067076
     atom   13 type  1   force =    -0.00000009   -0.00000075    2.33202575
     atom   14 type  1   force =     0.00000000    0.00003435    2.33203058
     atom   15 type  2   force =    -0.00000002   -0.00017667   -1.81066741
     atom   16 type  2   force =    -0.00000000    0.00018156   -1.81066308
     The core correction contribution to forces
     atom    1 type  1   force =    -0.00000008    0.00000315    0.02337906
     atom    2 type  1   force =    -0.00000003   -0.00000312    0.02337961
     atom    3 type  2   force =    -0.00000000   -0.00000207    0.00173724
     atom    4 type  2   force =    -0.00000001    0.00000203    0.00173726
     atom    5 type  1   force =    -0.00000008    0.00000348    0.02337939
     atom    6 type  1   force =    -0.00000003   -0.00000272    0.02337986
     atom    7 type  2   force =    -0.00000000   -0.00000207    0.00173728
     atom    8 type  2   force =    -0.00000001    0.00000202    0.00173723
     atom    9 type  1   force =     0.00000002    0.00000311    0.02337956
     atom   10 type  1   force =     0.00000006   -0.00000315    0.02337958
     atom   11 type  2   force =     0.00000001   -0.00000202    0.00173720
     atom   12 type  2   force =     0.00000000    0.00000206    0.00173725
     atom   13 type  1   force =     0.00000002    0.00000280    0.02337953
     atom   14 type  1   force =     0.00000006   -0.00000357    0.02337930
     atom   15 type  2   force =     0.00000001   -0.00000202    0.00173730
     atom   16 type  2   force =     0.00000000    0.00000207    0.00173726
     The Hubbard contrib.    to forces
     atom    1 type  1   force =     0.00000000    0.00000000    0.00000000
     atom    2 type  1   force =     0.00000000    0.00000000    0.00000000
     atom    3 type  2   force =     0.00000000    0.00000000    0.00000000
     atom    4 type  2   force =     0.00000000    0.00000000    0.00000000
     atom    5 type  1   force =     0.00000000    0.00000000    0.00000000
     atom    6 type  1   force =     0.00000000    0.00000000    0.00000000
     atom    7 type  2   force =     0.00000000    0.00000000    0.00000000
     atom    8 type  2   force =     0.00000000    0.00000000    0.00000000
     atom    9 type  1   force =     0.00000000    0.00000000    0.00000000
     atom   10 type  1   force =     0.00000000    0.00000000    0.00000000
     atom   11 type  2   force =     0.00000000    0.00000000    0.00000000
     atom   12 type  2   force =     0.00000000    0.00000000    0.00000000
     atom   13 type  1   force =     0.00000000    0.00000000    0.00000000
     atom   14 type  1   force =     0.00000000    0.00000000    0.00000000
     atom   15 type  2   force =     0.00000000    0.00000000    0.00000000
     atom   16 type  2   force =     0.00000000    0.00000000    0.00000000
     The SCF correction term to forces
     atom    1 type  1   force =     0.00000000    0.00000775   -0.00002362
     atom    2 type  1   force =    -0.00000000    0.00000243   -0.00000236
     atom    3 type  2   force =     0.00000000    0.00000549   -0.00000276
     atom    4 type  2   force =     0.00000000    0.00000398    0.00000821
     atom    5 type  1   force =     0.00000000    0.00001938   -0.00000839
     atom    6 type  1   force =    -0.00000000    0.00002499   -0.00000428
     atom    7 type  2   force =     0.00000000    0.00000313    0.00000583
     atom    8 type  2   force =     0.00000000    0.00000526    0.00000562
     atom    9 type  1   force =     0.00000000   -0.00000655   -0.00000037
     atom   10 type  1   force =     0.00000000   -0.00000475    0.00000382
     atom   11 type  2   force =    -0.00000000   -0.00000561    0.00000214
     atom   12 type  2   force =     0.00000000   -0.00000311    0.00000869
     atom   13 type  1   force =     0.00000000   -0.00001896   -0.00001541
     atom   14 type  1   force =     0.00000000   -0.00002432   -0.00002265
     atom   15 type  2   force =     0.00000000   -0.00000242    0.00000625
     atom   16 type  2   force =     0.00000000   -0.00000456   -0.00000080

     Total force =     0.181787     Total SCF correction =     0.000063

     General routines

     Parallel routines

   This run was terminated on:   8:51:25  29Aug2025

   JOB DONE.
Note: The following floating-point exceptions are signalling: IEEE_UNDERFLOW_FLAG IEEE_DENORMAL
Note: The following floating-point exceptions are signalling: IEEE_UNDERFLOW_FLAG IEEE_DENORMAL
Note: The following floating-point exceptions are signalling: IEEE_UNDERFLOW_FLAG IEEE_DENORMAL
Note: The following floating-point exceptions are signalling: IEEE_UNDERFLOW_FLAG IEEE_DENORMAL
Note: The following floating-point exceptions are signalling: IEEE_UNDERFLOW_FLAG IEEE_DENORMAL
Note: The following floating-point exceptions are signalling: IEEE_UNDERFLOW_FLAG IEEE_DENORMAL
Note: The following floating-point exceptions are signalling: IEEE_UNDERFLOW_FLAG IEEE_DENORMAL
Note: The following floating-point exceptions are signalling: IEEE_UNDERFLOW_FLAG IEEE_DENORMAL
Note: The following floating-point exceptions are signalling: IEEE_UNDERFLOW_FLAG IEEE_DENORMAL
Note: The following floating-point exceptions are signalling: IEEE_UNDERFLOW_FLAG IEEE_DENORMAL
Note: The following floating-point exceptions are signalling: IEEE_UNDERFLOW_FLAG IEEE_DENORMAL
Note: The following floating-point exceptions are signalling: IEEE_UNDERFLOW_FLAG IEEE_DENORMAL
Note: The following floating-point exceptions are signalling: IEEE_UNDERFLOW_FLAG IEEE_DENORMAL
Note: The following floating-point exceptions are signalling: IEEE_UNDERFLOW_FLAG IEEE_DENORMAL
Note: The following floating-point exceptions are signalling: IEEE_UNDERFLOW_FLAG IEEE_DENORMAL
Note: The following floating-point exceptions are signalling: IEEE_UNDERFLOW_FLAG IEEE_DENORMAL
Note: The following floating-point exceptions are signalling: IEEE_UNDERFLOW_FLAG IEEE_DENORMAL
Note: The following floating-point exceptions are signalling: IEEE_UNDERFLOW_FLAG IEEE_DENORMAL
Note: The following floating-point exceptions are signalling: IEEE_UNDERFLOW_FLAG IEEE_DENORMAL
Note: The following floating-point exceptions are signalling: IEEE_UNDERFLOW_FLAG IEEE_DENORMAL
Note: The following floating-point exceptions are signalling: IEEE_UNDERFLOW_FLAG IEEE_DENORMAL
Note: The following floating-point exceptions are signalling: IEEE_UNDERFLOW_FLAG IEEE_DENORMAL
Note: The following floating-point exceptions are signalling: IEEE_UNDERFLOW_FLAG IEEE_DENORMAL
Note: The following floating-point exceptions are signalling: IEEE_UNDERFLOW_FLAG IEEE_DENORMAL
Note: The following floating-point exceptions are signalling: IEEE_UNDERFLOW_FLAG IEEE_DENORMAL
Note: The following floating-point exceptions are signalling: IEEE_UNDERFLOW_FLAG IEEE_DENORMAL
Note: The following floating-point exceptions are signalling: IEEE_UNDERFLOW_FLAG IEEE_DENORMAL
Note: The following floating-point exceptions are signalling: IEEE_UNDERFLOW_FLAG IEEE_DENORMAL
Note: The following floating-point exceptions are signalling: IEEE_UNDERFLOW_FLAG IEEE_DENORMAL
Note: The following floating-point exceptions are signalling: IEEE_UNDERFLOW_FLAG IEEE_DENORMAL
Note: The following floating-point exceptions are signalling: IEEE_UNDERFLOW_FLAG IEEE_DENORMAL
Note: The following floating-point exceptions are signalling: IEEE_UNDERFLOW_FLAG IEEE_DENORMAL