     Program PWSCF v.7.0 starts on 28Aug2025 at 19:18: 1

     K-points division:     npool     =       8
     R & G space division:  proc/nbgrp/npool/nimage =       4

     Reading input from /home/jvc/QEspresso7.2/ZnO_database/scripts/cell122.in/ZnO-2.94-1.65-122.in
Warning: card &CELL ignored
Warning: card / ignored
Warning: card &FCP ignored
Warning: card / ignored
Warning: card &RISM ignored
Warning: card / ignored

     Current dimensions of program PWSCF are:
     Max number of different atomic species (ntypx) = 10
     Max number of k-points (npk) =  40000
     Max angular momentum in pseudopotentials (lmaxx) =  4
     file Zn.upf: wavefunction(s)  3D renormalized
     Found identity + (  0.0000  0.0000  0.5000) symmetry
     This is a supercell, fractional translations are disabled
     Message from routine setup:
     using ibrav=0 with symmetry is DISCOURAGED, use correct ibrav instead

     Using Slab Decomposition

     bravais-lattice index     =            0
     lattice parameter (alat)  =       5.5610  a.u.
     unit-cell volume          =     980.9391 (a.u.)^3
     number of atoms/cell      =           16
     number of atomic types    =            2
     number of electrons       =       144.00
     number of Kohn-Sham states=           72
     kinetic-energy cutoff     =      50.0000  Ry
     charge density cutoff     =     400.0000  Ry
     scf convergence threshold =      1.0E-08
     mixing beta               =       0.3000
     number of iterations used =            8  plain     mixing
     Exchange-correlation= PBE
                           (   1   4   3   4   0   0   0)

     celldm(1)=   5.560969  celldm(2)=   0.000000  celldm(3)=   0.000000
     celldm(4)=   0.000000  celldm(5)=   0.000000  celldm(6)=   0.000000

     crystal axes: (cart. coord. in units of alat)
               a(1) = (   1.000000   0.000000   0.000000 )
               a(2) = (  -1.000000   1.732051   0.000000 )
               a(3) = (   0.000000   0.000000   3.293291 )

     reciprocal axes: (cart. coord. in units 2 pi/alat)
               b(1) = (  1.000000  0.577350 -0.000000 )
               b(2) = (  0.000000  0.577350  0.000000 )
               b(3) = (  0.000000 -0.000000  0.303648 )

     PseudoPot. # 1 for Zn read from file:
     /home/jvc/QEspresso7.2/ZnO_database/pseudos/Zn.upf
     MD5 check sum: 7f56cabf9682ed8c977c2f7d0c5985c5
     Pseudo is Ultrasoft + core correction, Zval = 12.0
     Generated using &quot;atomic&quot; code by A. Dal Corso  v.6.2.2
     Using radial grid of 1201 points,  6 beta functions with:
                l(1) =   0
                l(2) =   0
                l(3) =   1
                l(4) =   1
                l(5) =   2
                l(6) =   2
     Q(r) pseudized with 0 coefficients

     PseudoPot. # 2 for O  read from file:
     /home/jvc/QEspresso7.2/ZnO_database/pseudos/O.upf
     MD5 check sum: 91400c9766925bcf19f520983a725ff0
     Pseudo is Ultrasoft + core correction, Zval =  6.0
     Generated using &quot;atomic&quot; code by A. Dal Corso  v.6.3MaX
     Using radial grid of 1095 points,  4 beta functions with:
                l(1) =   0
                l(2) =   0
                l(3) =   1
                l(4) =   1
     Q(r) pseudized with 0 coefficients

     atomic species   valence    mass     pseudopotential
        Zn            12.00    65.38000     Zn( 1.00)
        O              6.00    15.99900     O ( 1.00)

      2 Sym. Ops. (no inversion) found

                                    s                        frac. trans.

      isym =  1     identity

 cryst.   s( 1) = (     1          0          0      )
                  (     0          1          0      )
                  (     0          0          1      )

 cart.    s( 1) = (  1.0000000  0.0000000  0.0000000 )
                  (  0.0000000  1.0000000  0.0000000 )
                  (  0.0000000  0.0000000  1.0000000 )

      isym =  2     inv. 180 deg rotation - cart. axis [1,0,0]

 cryst.   s( 2) = (    -1          0          0      )
                  (     2          1          0      )
                  (     0          0          1      )

 cart.    s( 2) = ( -1.0000000  0.0000000  0.0000000 )
                  (  0.0000000  1.0000000  0.0000000 )
                  (  0.0000000  0.0000000  1.0000000 )

   Cartesian axes

     site n.     atom                  positions (alat units)
         1           Zn  tau(   1) = (   0.5000000   0.2886751   0.8243661  )
         2           Zn  tau(   2) = (   0.0000000   0.5773503   0.0010433  )
         3           O   tau(   3) = (   0.5000000   0.2886751   1.4485152  )
         4           O   tau(   4) = (   0.0000000   0.5773503   0.6251925  )
         5           Zn  tau(   5) = (   0.5000000   0.2886751   2.4710116  )
         6           Zn  tau(   6) = (   0.0000000   0.5773503   1.6476888  )
         7           O   tau(   7) = (   0.5000000   0.2886751   3.0951608  )
         8           O   tau(   8) = (   0.0000000   0.5773503   2.2718380  )
         9           Zn  tau(   9) = (   0.0000000   1.1547005   0.8243661  )
        10           Zn  tau(  10) = (  -0.5000000   1.4433757   0.0010433  )
        11           O   tau(  11) = (   0.0000000   1.1547005   1.4485152  )
        12           O   tau(  12) = (  -0.5000000   1.4433757   0.6251925  )
        13           Zn  tau(  13) = (   0.0000000   1.1547005   2.4710116  )
        14           Zn  tau(  14) = (  -0.5000000   1.4433757   1.6476888  )
        15           O   tau(  15) = (   0.0000000   1.1547005   3.0951608  )
        16           O   tau(  16) = (  -0.5000000   1.4433757   2.2718380  )

   Crystallographic axes

     site n.     atom                  positions (cryst. coord.)
         1           Zn  tau(   1) = (  0.6666667  0.1666667  0.2503168  )
         2           Zn  tau(   2) = (  0.3333333  0.3333333  0.0003168  )
         3           O   tau(   3) = (  0.6666667  0.1666667  0.4398382  )
         4           O   tau(   4) = (  0.3333333  0.3333333  0.1898382  )
         5           Zn  tau(   5) = (  0.6666667  0.1666667  0.7503168  )
         6           Zn  tau(   6) = (  0.3333333  0.3333333  0.5003168  )
         7           O   tau(   7) = (  0.6666667  0.1666667  0.9398382  )
         8           O   tau(   8) = (  0.3333333  0.3333333  0.6898382  )
         9           Zn  tau(   9) = (  0.6666667  0.6666667  0.2503168  )
        10           Zn  tau(  10) = (  0.3333333  0.8333333  0.0003168  )
        11           O   tau(  11) = (  0.6666667  0.6666667  0.4398382  )
        12           O   tau(  12) = (  0.3333333  0.8333333  0.1898382  )
        13           Zn  tau(  13) = (  0.6666667  0.6666667  0.7503168  )
        14           Zn  tau(  14) = (  0.3333333  0.8333333  0.5003168  )
        15           O   tau(  15) = (  0.6666667  0.6666667  0.9398382  )
        16           O   tau(  16) = (  0.3333333  0.8333333  0.6898382  )

     number of k points=    80
                       cart. coord. in units 2pi/alat
        k(    1) = (   0.0000000   0.0000000   0.0000000), wk =   0.0092593
        k(    2) = (   0.0000000   0.0000000   0.0506079), wk =   0.0185185
        k(    3) = (   0.0000000   0.0000000   0.1012159), wk =   0.0185185
        k(    4) = (   0.0000000   0.0000000  -0.1518238), wk =   0.0092593
        k(    5) = (   0.0000000   0.0962250   0.0000000), wk =   0.0185185
        k(    6) = (   0.0000000   0.0962250   0.0506079), wk =   0.0185185
        k(    7) = (   0.0000000   0.0962250   0.1012159), wk =   0.0185185
        k(    8) = (   0.0000000   0.0962250  -0.1518238), wk =   0.0185185
        k(    9) = (   0.0000000   0.1924501   0.0000000), wk =   0.0185185
        k(   10) = (   0.0000000   0.1924501   0.0506079), wk =   0.0185185
        k(   11) = (   0.0000000   0.1924501   0.1012159), wk =   0.0185185
        k(   12) = (   0.0000000   0.1924501  -0.1518238), wk =   0.0185185
        k(   13) = (   0.0000000  -0.2886751   0.0000000), wk =   0.0092593
        k(   14) = (   0.0000000  -0.2886751   0.0506079), wk =   0.0185185
        k(   15) = (   0.0000000  -0.2886751   0.1012159), wk =   0.0185185
        k(   16) = (   0.0000000  -0.2886751  -0.1518238), wk =   0.0092593
        k(   17) = (   0.1666667   0.0962250   0.0000000), wk =   0.0370370
        k(   18) = (   0.1666667   0.0962250   0.0506079), wk =   0.0370370
        k(   19) = (   0.1666667   0.0962250   0.1012159), wk =   0.0370370
        k(   20) = (   0.1666667   0.0962250  -0.1518238), wk =   0.0370370
        k(   21) = (   0.1666667   0.1924501   0.0000000), wk =   0.0370370
        k(   22) = (   0.1666667   0.1924501   0.0506079), wk =   0.0370370
        k(   23) = (   0.1666667   0.1924501   0.1012159), wk =   0.0370370
        k(   24) = (   0.1666667   0.1924501  -0.1518238), wk =   0.0370370
        k(   25) = (   0.1666667   0.2886751   0.0000000), wk =   0.0185185
        k(   26) = (   0.1666667   0.2886751   0.0506079), wk =   0.0370370
        k(   27) = (   0.1666667   0.2886751   0.1012159), wk =   0.0370370
        k(   28) = (   0.1666667   0.2886751  -0.1518238), wk =   0.0185185
        k(   29) = (   0.1666667   0.0000000   0.0000000), wk =   0.0185185
        k(   30) = (   0.1666667   0.0000000   0.0506079), wk =   0.0370370
        k(   31) = (   0.1666667   0.0000000   0.1012159), wk =   0.0370370
        k(   32) = (   0.1666667   0.0000000  -0.1518238), wk =   0.0185185
        k(   33) = (   0.3333333   0.1924501   0.0000000), wk =   0.0370370
        k(   34) = (   0.3333333   0.1924501   0.0506079), wk =   0.0370370
        k(   35) = (   0.3333333   0.1924501   0.1012159), wk =   0.0370370
        k(   36) = (   0.3333333   0.1924501  -0.1518238), wk =   0.0370370
        k(   37) = (   0.3333333   0.2886751   0.0000000), wk =   0.0185185
        k(   38) = (   0.3333333   0.2886751   0.0506079), wk =   0.0370370
        k(   39) = (   0.3333333   0.2886751   0.1012159), wk =   0.0370370
        k(   40) = (   0.3333333   0.2886751  -0.1518238), wk =   0.0185185
        k(   41) = (   0.3333333  -0.0962250   0.0000000), wk =   0.0370370
        k(   42) = (   0.3333333  -0.0962250   0.0506079), wk =   0.0370370
        k(   43) = (   0.3333333  -0.0962250   0.1012159), wk =   0.0370370
        k(   44) = (   0.3333333  -0.0962250  -0.1518238), wk =   0.0370370
        k(   45) = (   0.3333333  -0.0000000   0.0000000), wk =   0.0185185
        k(   46) = (   0.3333333  -0.0000000   0.0506079), wk =   0.0370370
        k(   47) = (   0.3333333  -0.0000000   0.1012159), wk =   0.0370370
        k(   48) = (   0.3333333  -0.0000000  -0.1518238), wk =   0.0185185
        k(   49) = (  -0.5000000  -0.2886751   0.0000000), wk =   0.0092593
        k(   50) = (  -0.5000000  -0.2886751   0.0506079), wk =   0.0185185
        k(   51) = (  -0.5000000  -0.2886751   0.1012159), wk =   0.0185185
        k(   52) = (  -0.5000000  -0.2886751  -0.1518238), wk =   0.0092593
        k(   53) = (  -0.5000000  -0.1924501   0.0000000), wk =   0.0185185
        k(   54) = (  -0.5000000  -0.1924501   0.0506079), wk =   0.0185185
        k(   55) = (  -0.5000000  -0.1924501   0.1012159), wk =   0.0185185
[...]
        k(   76) = (  -0.3333333   0.1666667  -0.3333333), wk =   0.0370370
        k(   77) = (   0.5000000  -0.8333333  -0.1666667), wk =   0.0185185
        k(   78) = (   0.5000000  -0.8333333  -0.3333333), wk =   0.0185185
        k(   79) = (   0.5000000  -0.6666667  -0.1666667), wk =   0.0185185
        k(   80) = (   0.5000000  -0.6666667  -0.3333333), wk =   0.0185185

     Check: negative core charge=   -0.000001

     Initial potential from superposition of free atoms

     starting charge     143.9702, renormalised to     144.0000
     Starting wfcs are  104 randomized atomic wfcs

     Self-consistent Calculation

     iteration #  1     ecut=    50.00 Ry     beta= 0.30
     Davidson diagonalization with overlap

     ethr =  1.00E-02,  avg # of iterations =  2.1

     total energy              =   -1445.32082003 Ry
     estimated scf accuracy    <       2.71753684 Ry

[...]

     total energy              =   -1445.83490896 Ry
     estimated scf accuracy    <       0.00000010 Ry

     iteration # 29     ecut=    50.00 Ry     beta= 0.30
     Davidson diagonalization with overlap

     ethr =  6.99E-11,  avg # of iterations =  3.8

     End of self-consistent calculation

          k = 0.0000 0.0000 0.0000 (  5865 PWs)   bands (ev):

    -8.7011  -8.1423  -8.1423  -7.5294  -7.5214  -7.3252  -7.3252  -7.1660
     3.5608   3.5608   3.8297   3.9200   3.9227   4.0058   4.0058   4.5127
     4.5129   4.5969   4.6158   4.6158   4.6160   4.6160   4.7868   4.7869
     4.9164   5.1583   5.2250   5.2250   5.2382   5.2382   5.5070   5.6840
     6.6913   6.6913   6.6981   6.9048   6.9048   6.9048   6.9048   6.9995
     7.0420   7.0420   7.0509   7.0510   7.1259   7.1259   7.1436   7.2435
     7.3828   7.5020   7.5751   7.5751   7.8311   8.3834   8.9062   9.4855
     9.4855   9.9314   9.9314  10.0326  10.0326  10.2613  10.8092  10.9942
    10.9945  11.5377  11.5378  11.5380  11.5380  11.8086  12.0841  12.0843

     occupation numbers
     1.0000   1.0000   1.0000   1.0000   1.0000   1.0000   1.0000   1.0000
     1.0000   1.0000   1.0000   1.0000   1.0000   1.0000   1.0000   1.0000
     1.0000   1.0000   1.0000   1.0000   1.0000   1.0000   1.0000   1.0000
     1.0000   1.0000   1.0000   1.0000   1.0000   1.0000   1.0000   1.0000
     1.0000   1.0000   1.0000   1.0000   1.0000   1.0000   1.0000   1.0000
     1.0000   1.0000   1.0000   1.0000   1.0000   1.0000   1.0000   1.0000
     1.0000   1.0000   1.0000   1.0000   1.0000   1.0000   1.0000   1.0000
     1.0000   1.0000   1.0000   1.0000   1.0000   1.0000   1.0000   1.0000
     1.0000   1.0000   1.0000   1.0000   1.0000   1.0000   1.0000   1.0000

[...]

          k =-0.5000-0.2887 0.0000 (  5840 PWs)   bands (ev):

[...]

          k =-0.3333-0.0962-0.1012 (  5845 PWs)   bands (ev):

[...]

          k = 0.5000-0.0962-0.1012 (  5850 PWs)   bands (ev):

    -7.5097  -7.5097  -7.4314  -7.4314  -7.2398  -7.2398  -7.1792  -7.1792
     3.8364   3.8364   3.9222   3.9222   3.9723   3.9723   4.1653   4.1653
     4.8142   4.8142   4.8273   4.8273   4.9571   4.9571   5.0256   5.0256
     5.3974   5.3974   5.4617   5.4617   5.4673   5.4673   5.5816   5.5816
     6.5915   6.5915   6.7515   6.7515   6.8646   6.8646   6.9398   6.9398
     7.1467   7.1467   7.1516   7.1516   7.3116   7.3116   7.3444   7.3444
     7.4945   7.4945   7.6168   7.6168   8.1013   8.1013   8.1750   8.1750
     8.3446   8.3446   8.7934   8.7934   8.9524   8.9524   9.3632   9.3632
     9.9234   9.9234  10.1392  10.1392  10.4179  10.4179  10.4598  10.4598

     occupation numbers
     1.0000   1.0000   1.0000   1.0000   1.0000   1.0000   1.0000   1.0000
     1.0000   1.0000   1.0000   1.0000   1.0000   1.0000   1.0000   1.0000
     1.0000   1.0000   1.0000   1.0000   1.0000   1.0000   1.0000   1.0000
     1.0000   1.0000   1.0000   1.0000   1.0000   1.0000   1.0000   1.0000
     1.0000   1.0000   1.0000   1.0000   1.0000   1.0000   1.0000   1.0000
     1.0000   1.0000   1.0000   1.0000   1.0000   1.0000   1.0000   1.0000
     1.0000   1.0000   1.0000   1.0000   1.0000   1.0000   1.0000   1.0000
     1.0000   1.0000   1.0000   1.0000   1.0000   1.0000   1.0000   1.0000
     1.0000   1.0000   1.0000   1.0000   1.0000   1.0000   1.0000   1.0000

     highest occupied level (ev):    12.0843

!    total energy              =   -1445.83490898 Ry
     estimated scf accuracy    <          4.2E-09 Ry

     The total energy is the sum of the following terms:
     one-electron contribution =    -476.29467076 Ry
     hartree contribution      =     424.60851838 Ry
     xc contribution           =    -441.07933423 Ry
     ewald contribution        =    -953.06942236 Ry

     convergence has been achieved in  29 iterations

     Forces acting on atoms (cartesian axes, Ry/au):

     atom    1 type  1   force =     0.00000000   -0.00001257    0.02380178
     atom    2 type  1   force =     0.00000000    0.00001166    0.02380523
     atom    3 type  2   force =     0.00000000    0.00000381   -0.02380193
     atom    4 type  2   force =     0.00000000   -0.00000291   -0.02380335
     atom    5 type  1   force =     0.00000000   -0.00001382    0.02380319
     atom    6 type  1   force =     0.00000000    0.00001190    0.02380480
     atom    7 type  2   force =     0.00000000    0.00000074   -0.02380527
     atom    8 type  2   force =     0.00000000   -0.00000149   -0.02380329
     atom    9 type  1   force =     0.00000000   -0.00001657    0.02380173
     atom   10 type  1   force =     0.00000000    0.00001872    0.02380302
     atom   11 type  2   force =     0.00000000    0.00000071   -0.02380211
     atom   12 type  2   force =     0.00000000   -0.00000176   -0.02380458
     atom   13 type  1   force =     0.00000000   -0.00001578    0.02380197
     atom   14 type  1   force =     0.00000000    0.00001443    0.02380537
     atom   15 type  2   force =     0.00000000    0.00000484   -0.02380555
     atom   16 type  2   force =     0.00000000   -0.00000190   -0.02380099
     The non-local contrib.  to forces
     atom    1 type  1   force =     0.00000000    0.00003579    0.05796503
     atom    2 type  1   force =     0.00000000   -0.00003586    0.05796552
     atom    3 type  2   force =     0.00000000    0.00017487    0.04127830
     atom    4 type  2   force =     0.00000000   -0.00017404    0.04127651
     atom    5 type  1   force =     0.00000000    0.00003639    0.05796344
     atom    6 type  1   force =     0.00000000   -0.00003678    0.05796281
     atom    7 type  2   force =     0.00000000    0.00017213    0.04127650
     atom    8 type  2   force =     0.00000000   -0.00017202    0.04127699
     atom    9 type  1   force =     0.00000000    0.00003602    0.05796468
     atom   10 type  1   force =     0.00000000   -0.00003556    0.05796652
     atom   11 type  2   force =     0.00000000    0.00017059    0.04127715
     atom   12 type  2   force =     0.00000000   -0.00017324    0.04127701
     atom   13 type  1   force =     0.00000000    0.00003560    0.05796312
     atom   14 type  1   force =     0.00000000   -0.00003546    0.05796243
     atom   15 type  2   force =     0.00000000    0.00017487    0.04127610
     atom   16 type  2   force =     0.00000000   -0.00017329    0.04127921
     The ionic contribution  to forces
     atom    1 type  1   force =    -0.00000000    0.00000001    0.57412384
     atom    2 type  1   force =     0.00000000    0.00000001    0.57412384
     atom    3 type  2   force =    -0.00000000    0.00000001   -0.57412384
     atom    4 type  2   force =     0.00000000    0.00000000   -0.57412384
     atom    5 type  1   force =    -0.00000000    0.00000001    0.57412384
     atom    6 type  1   force =     0.00000000    0.00000001    0.57412384
     atom    7 type  2   force =    -0.00000000    0.00000001   -0.57412384
     atom    8 type  2   force =     0.00000000    0.00000000   -0.57412384
     atom    9 type  1   force =    -0.00000001   -0.00000000    0.57412384
     atom   10 type  1   force =     0.00000001   -0.00000002    0.57412384
     atom   11 type  2   force =    -0.00000001    0.00000000   -0.57412384
     atom   12 type  2   force =     0.00000001   -0.00000001   -0.57412384
     atom   13 type  1   force =    -0.00000001   -0.00000000    0.57412384
     atom   14 type  1   force =     0.00000001   -0.00000002    0.57412384
     atom   15 type  2   force =    -0.00000001    0.00000000   -0.57412384
     atom   16 type  2   force =     0.00000001   -0.00000001   -0.57412384
     The local contribution  to forces
     atom    1 type  1   force =    -0.00000007   -0.00005849   -0.60316432
     atom    2 type  1   force =     0.00000000    0.00005925   -0.60316627
     atom    3 type  2   force =    -0.00000002   -0.00017048    0.50928258
     atom    4 type  2   force =     0.00000000    0.00016972    0.50927965
     atom    5 type  1   force =    -0.00000007   -0.00005935   -0.60316190
     atom    6 type  1   force =    -0.00000000    0.00005995   -0.60316171
     atom    7 type  2   force =    -0.00000002   -0.00016770    0.50927666
     atom    8 type  2   force =     0.00000000    0.00016775    0.50928430
     atom    9 type  1   force =    -0.00000007   -0.00005773   -0.60316361
     atom   10 type  1   force =     0.00000007    0.00005641   -0.60316708
     atom   11 type  2   force =    -0.00000002   -0.00016754    0.50928287
     atom   12 type  2   force =     0.00000002    0.00016902    0.50928055
     atom   13 type  1   force =    -0.00000007   -0.00005635   -0.60316116
     atom   14 type  1   force =     0.00000007    0.00005716   -0.60316055
     atom   15 type  2   force =    -0.00000002   -0.00017183    0.50927664
     atom   16 type  2   force =     0.00000002    0.00016848    0.50928352
     The core correction contribution to forces
     atom    1 type  1   force =    -0.00000001    0.00000485   -0.00511918
     atom    2 type  1   force =     0.00000000   -0.00000487   -0.00511923
     atom    3 type  2   force =     0.00000000   -0.00000197   -0.00023429
     atom    4 type  2   force =     0.00000000    0.00000196   -0.00023428
     atom    5 type  1   force =    -0.00000001    0.00000489   -0.00511919
     atom    6 type  1   force =     0.00000000   -0.00000481   -0.00511923
     atom    7 type  2   force =     0.00000000   -0.00000192   -0.00023428
     atom    8 type  2   force =     0.00000000    0.00000192   -0.00023427
     atom    9 type  1   force =    -0.00000001    0.00000492   -0.00511918
     atom   10 type  1   force =     0.00000001   -0.00000492   -0.00511921
     atom   11 type  2   force =     0.00000000   -0.00000190   -0.00023428
     atom   12 type  2   force =    -0.00000000    0.00000194   -0.00023428
     atom   13 type  1   force =    -0.00000001    0.00000486   -0.00511913
     atom   14 type  1   force =     0.00000001   -0.00000490   -0.00511929
     atom   15 type  2   force =     0.00000000   -0.00000198   -0.00023427
     atom   16 type  2   force =    -0.00000000    0.00000195   -0.00023430
     The Hubbard contrib.    to forces
     atom    1 type  1   force =     0.00000000    0.00000000    0.00000000
     atom    2 type  1   force =     0.00000000    0.00000000    0.00000000
     atom    3 type  2   force =     0.00000000    0.00000000    0.00000000
     atom    4 type  2   force =     0.00000000    0.00000000    0.00000000
     atom    5 type  1   force =     0.00000000    0.00000000    0.00000000
     atom    6 type  1   force =     0.00000000    0.00000000    0.00000000
     atom    7 type  2   force =     0.00000000    0.00000000    0.00000000
     atom    8 type  2   force =     0.00000000    0.00000000    0.00000000
     atom    9 type  1   force =     0.00000000    0.00000000    0.00000000
     atom   10 type  1   force =     0.00000000    0.00000000    0.00000000
     atom   11 type  2   force =     0.00000000    0.00000000    0.00000000
     atom   12 type  2   force =     0.00000000    0.00000000    0.00000000
     atom   13 type  1   force =     0.00000000    0.00000000    0.00000000
     atom   14 type  1   force =     0.00000000    0.00000000    0.00000000
     atom   15 type  2   force =     0.00000000    0.00000000    0.00000000
     atom   16 type  2   force =     0.00000000    0.00000000    0.00000000
     The SCF correction term to forces
     atom    1 type  1   force =     0.00000000    0.00000488   -0.00000400
     atom    2 type  1   force =    -0.00000000   -0.00000726    0.00000096
     atom    3 type  2   force =     0.00000000    0.00000100   -0.00000507
     atom    4 type  2   force =    -0.00000000   -0.00000094   -0.00000179
     atom    5 type  1   force =     0.00000000    0.00000384   -0.00000341
     atom    6 type  1   force =    -0.00000000   -0.00000686   -0.00000131
     atom    7 type  2   force =     0.00000000   -0.00000217   -0.00000071
     atom    8 type  2   force =    -0.00000000    0.00000046   -0.00000688
     atom    9 type  1   force =     0.00000000   -0.00000016   -0.00000440
     atom   10 type  1   force =    -0.00000000    0.00000242   -0.00000145
     atom   11 type  2   force =     0.00000000   -0.00000083   -0.00000443
     atom   12 type  2   force =    -0.00000000    0.00000014   -0.00000443
     atom   13 type  1   force =     0.00000000   -0.00000028   -0.00000509
     atom   14 type  1   force =    -0.00000000   -0.00000275   -0.00000146
     atom   15 type  2   force =     0.00000000    0.00000339   -0.00000058
     atom   16 type  2   force =    -0.00000000    0.00000059   -0.00000597

     Total force =     0.095214     Total SCF correction =     0.000020

     General routines

     Parallel routines

   This run was terminated on:  19:26: 0  28Aug2025

   JOB DONE.
Note: The following floating-point exceptions are signalling: IEEE_UNDERFLOW_FLAG IEEE_DENORMAL
Note: The following floating-point exceptions are signalling: IEEE_UNDERFLOW_FLAG IEEE_DENORMAL
Note: The following floating-point exceptions are signalling: IEEE_UNDERFLOW_FLAG IEEE_DENORMAL
Note: The following floating-point exceptions are signalling: IEEE_UNDERFLOW_FLAG IEEE_DENORMAL
Note: The following floating-point exceptions are signalling: IEEE_UNDERFLOW_FLAG IEEE_DENORMAL
Note: The following floating-point exceptions are signalling: IEEE_UNDERFLOW_FLAG IEEE_DENORMAL
Note: The following floating-point exceptions are signalling: IEEE_UNDERFLOW_FLAG IEEE_DENORMAL
Note: The following floating-point exceptions are signalling: IEEE_UNDERFLOW_FLAG IEEE_DENORMAL
Note: The following floating-point exceptions are signalling: IEEE_UNDERFLOW_FLAG IEEE_DENORMAL
Note: The following floating-point exceptions are signalling: IEEE_UNDERFLOW_FLAG IEEE_DENORMAL
Note: The following floating-point exceptions are signalling: IEEE_UNDERFLOW_FLAG IEEE_DENORMAL
Note: The following floating-point exceptions are signalling: IEEE_UNDERFLOW_FLAG IEEE_DENORMAL
Note: The following floating-point exceptions are signalling: IEEE_UNDERFLOW_FLAG IEEE_DENORMAL
Note: The following floating-point exceptions are signalling: IEEE_UNDERFLOW_FLAG IEEE_DENORMAL
Note: The following floating-point exceptions are signalling: IEEE_UNDERFLOW_FLAG IEEE_DENORMAL
Note: The following floating-point exceptions are signalling: IEEE_UNDERFLOW_FLAG IEEE_DENORMAL
Note: The following floating-point exceptions are signalling: IEEE_UNDERFLOW_FLAG IEEE_DENORMAL
Note: The following floating-point exceptions are signalling: IEEE_UNDERFLOW_FLAG IEEE_DENORMAL
Note: The following floating-point exceptions are signalling: IEEE_UNDERFLOW_FLAG IEEE_DENORMAL
Note: The following floating-point exceptions are signalling: IEEE_UNDERFLOW_FLAG IEEE_DENORMAL
Note: The following floating-point exceptions are signalling: IEEE_UNDERFLOW_FLAG IEEE_DENORMAL
Note: The following floating-point exceptions are signalling: IEEE_UNDERFLOW_FLAG IEEE_DENORMAL
Note: The following floating-point exceptions are signalling: IEEE_UNDERFLOW_FLAG IEEE_DENORMAL
Note: The following floating-point exceptions are signalling: IEEE_UNDERFLOW_FLAG IEEE_DENORMAL
Note: The following floating-point exceptions are signalling: IEEE_UNDERFLOW_FLAG IEEE_DENORMAL
Note: The following floating-point exceptions are signalling: IEEE_UNDERFLOW_FLAG IEEE_DENORMAL
Note: The following floating-point exceptions are signalling: IEEE_UNDERFLOW_FLAG IEEE_DENORMAL
Note: The following floating-point exceptions are signalling: IEEE_UNDERFLOW_FLAG IEEE_DENORMAL
Note: The following floating-point exceptions are signalling: IEEE_UNDERFLOW_FLAG IEEE_DENORMAL
Note: The following floating-point exceptions are signalling: IEEE_UNDERFLOW_FLAG IEEE_DENORMAL
Note: The following floating-point exceptions are signalling: IEEE_UNDERFLOW_FLAG IEEE_DENORMAL
Note: The following floating-point exceptions are signalling: IEEE_UNDERFLOW_FLAG IEEE_DENORMAL