     Program PWSCF v.7.0 starts on 28Aug2025 at 19:42: 8

     K-points division:     npool     =       8
     R & G space division:  proc/nbgrp/npool/nimage =       4

     Reading input from /home/jvc/QEspresso7.2/ZnO_database/scripts/cell122.in/ZnO-2.94-1.74-122.in
Warning: card &CELL ignored
Warning: card / ignored
Warning: card &FCP ignored
Warning: card / ignored
Warning: card &RISM ignored
Warning: card / ignored

     Current dimensions of program PWSCF are:
     Max number of different atomic species (ntypx) = 10
     Max number of k-points (npk) =  40000
     Max angular momentum in pseudopotentials (lmaxx) =  4
     file Zn.upf: wavefunction(s)  3D renormalized
     Found identity + (  0.0000  0.0000  0.5000) symmetry
     This is a supercell, fractional translations are disabled
     Message from routine setup:
     using ibrav=0 with symmetry is DISCOURAGED, use correct ibrav instead

     Using Slab Decomposition

     bravais-lattice index     =            0
     lattice parameter (alat)  =       5.5610  a.u.
     unit-cell volume          =    1038.6414 (a.u.)^3
     number of atoms/cell      =           16
     number of atomic types    =            2
     number of electrons       =       144.00
     number of Kohn-Sham states=           72
     kinetic-energy cutoff     =      50.0000  Ry
     charge density cutoff     =     400.0000  Ry
     scf convergence threshold =      1.0E-08
     mixing beta               =       0.3000
     number of iterations used =            8  plain     mixing
     Exchange-correlation= PBE
                           (   1   4   3   4   0   0   0)

     celldm(1)=   5.560969  celldm(2)=   0.000000  celldm(3)=   0.000000
     celldm(4)=   0.000000  celldm(5)=   0.000000  celldm(6)=   0.000000

     crystal axes: (cart. coord. in units of alat)
               a(1) = (   1.000000   0.000000   0.000000 )
               a(2) = (  -1.000000   1.732051   0.000000 )
               a(3) = (   0.000000   0.000000   3.487014 )

     reciprocal axes: (cart. coord. in units 2 pi/alat)
               b(1) = (  1.000000  0.577350 -0.000000 )
               b(2) = (  0.000000  0.577350  0.000000 )
               b(3) = (  0.000000 -0.000000  0.286778 )

     PseudoPot. # 1 for Zn read from file:
     /home/jvc/QEspresso7.2/ZnO_database/pseudos/Zn.upf
     MD5 check sum: 7f56cabf9682ed8c977c2f7d0c5985c5
     Pseudo is Ultrasoft + core correction, Zval = 12.0
     Generated using &quot;atomic&quot; code by A. Dal Corso  v.6.2.2
     Using radial grid of 1201 points,  6 beta functions with:
                l(1) =   0
                l(2) =   0
                l(3) =   1
                l(4) =   1
                l(5) =   2
                l(6) =   2
     Q(r) pseudized with 0 coefficients

     PseudoPot. # 2 for O  read from file:
     /home/jvc/QEspresso7.2/ZnO_database/pseudos/O.upf
     MD5 check sum: 91400c9766925bcf19f520983a725ff0
     Pseudo is Ultrasoft + core correction, Zval =  6.0
     Generated using &quot;atomic&quot; code by A. Dal Corso  v.6.3MaX
     Using radial grid of 1095 points,  4 beta functions with:
                l(1) =   0
                l(2) =   0
                l(3) =   1
                l(4) =   1
     Q(r) pseudized with 0 coefficients

     atomic species   valence    mass     pseudopotential
        Zn            12.00    65.38000     Zn( 1.00)
        O              6.00    15.99900     O ( 1.00)

      2 Sym. Ops. (no inversion) found

                                    s                        frac. trans.

      isym =  1     identity

 cryst.   s( 1) = (     1          0          0      )
                  (     0          1          0      )
                  (     0          0          1      )

 cart.    s( 1) = (  1.0000000  0.0000000  0.0000000 )
                  (  0.0000000  1.0000000  0.0000000 )
                  (  0.0000000  0.0000000  1.0000000 )

      isym =  2     inv. 180 deg rotation - cart. axis [1,0,0]

 cryst.   s( 2) = (    -1          0          0      )
                  (     2          1          0      )
                  (     0          0          1      )

 cart.    s( 2) = ( -1.0000000  0.0000000  0.0000000 )
                  (  0.0000000  1.0000000  0.0000000 )
                  (  0.0000000  0.0000000  1.0000000 )

   Cartesian axes

     site n.     atom                  positions (alat units)
         1           Zn  tau(   1) = (   0.5000000   0.2886751   0.8728582  )
         2           Zn  tau(   2) = (   0.0000000   0.5773503   0.0011047  )
         3           O   tau(   3) = (   0.5000000   0.2886751   1.5337220  )
         4           O   tau(   4) = (   0.0000000   0.5773503   0.6619685  )
         5           Zn  tau(   5) = (   0.5000000   0.2886751   2.6163652  )
         6           Zn  tau(   6) = (   0.0000000   0.5773503   1.7446117  )
         7           O   tau(   7) = (   0.5000000   0.2886751   3.2772290  )
         8           O   tau(   8) = (   0.0000000   0.5773503   2.4054755  )
         9           Zn  tau(   9) = (   0.0000000   1.1547005   0.8728582  )
        10           Zn  tau(  10) = (  -0.5000000   1.4433757   0.0011047  )
        11           O   tau(  11) = (   0.0000000   1.1547005   1.5337220  )
        12           O   tau(  12) = (  -0.5000000   1.4433757   0.6619685  )
        13           Zn  tau(  13) = (   0.0000000   1.1547005   2.6163652  )
        14           Zn  tau(  14) = (  -0.5000000   1.4433757   1.7446117  )
        15           O   tau(  15) = (   0.0000000   1.1547005   3.2772290  )
        16           O   tau(  16) = (  -0.5000000   1.4433757   2.4054755  )

   Crystallographic axes

     site n.     atom                  positions (cryst. coord.)
         1           Zn  tau(   1) = (  0.6666667  0.1666667  0.2503168  )
         2           Zn  tau(   2) = (  0.3333333  0.3333333  0.0003168  )
         3           O   tau(   3) = (  0.6666667  0.1666667  0.4398382  )
         4           O   tau(   4) = (  0.3333333  0.3333333  0.1898382  )
         5           Zn  tau(   5) = (  0.6666667  0.1666667  0.7503168  )
         6           Zn  tau(   6) = (  0.3333333  0.3333333  0.5003168  )
         7           O   tau(   7) = (  0.6666667  0.1666667  0.9398382  )
         8           O   tau(   8) = (  0.3333333  0.3333333  0.6898382  )
         9           Zn  tau(   9) = (  0.6666667  0.6666667  0.2503168  )
        10           Zn  tau(  10) = (  0.3333333  0.8333333  0.0003168  )
        11           O   tau(  11) = (  0.6666667  0.6666667  0.4398382  )
        12           O   tau(  12) = (  0.3333333  0.8333333  0.1898382  )
        13           Zn  tau(  13) = (  0.6666667  0.6666667  0.7503168  )
        14           Zn  tau(  14) = (  0.3333333  0.8333333  0.5003168  )
        15           O   tau(  15) = (  0.6666667  0.6666667  0.9398382  )
        16           O   tau(  16) = (  0.3333333  0.8333333  0.6898382  )

     number of k points=    80
                       cart. coord. in units 2pi/alat
        k(    1) = (   0.0000000   0.0000000   0.0000000), wk =   0.0092593
        k(    2) = (   0.0000000   0.0000000   0.0477964), wk =   0.0185185
        k(    3) = (   0.0000000   0.0000000   0.0955928), wk =   0.0185185
        k(    4) = (   0.0000000   0.0000000  -0.1433892), wk =   0.0092593
        k(    5) = (   0.0000000   0.0962250   0.0000000), wk =   0.0185185
        k(    6) = (   0.0000000   0.0962250   0.0477964), wk =   0.0185185
        k(    7) = (   0.0000000   0.0962250   0.0955928), wk =   0.0185185
        k(    8) = (   0.0000000   0.0962250  -0.1433892), wk =   0.0185185
        k(    9) = (   0.0000000   0.1924501   0.0000000), wk =   0.0185185
        k(   10) = (   0.0000000   0.1924501   0.0477964), wk =   0.0185185
        k(   11) = (   0.0000000   0.1924501   0.0955928), wk =   0.0185185
        k(   12) = (   0.0000000   0.1924501  -0.1433892), wk =   0.0185185
        k(   13) = (   0.0000000  -0.2886751   0.0000000), wk =   0.0092593
        k(   14) = (   0.0000000  -0.2886751   0.0477964), wk =   0.0185185
        k(   15) = (   0.0000000  -0.2886751   0.0955928), wk =   0.0185185
        k(   16) = (   0.0000000  -0.2886751  -0.1433892), wk =   0.0092593
        k(   17) = (   0.1666667   0.0962250   0.0000000), wk =   0.0370370
        k(   18) = (   0.1666667   0.0962250   0.0477964), wk =   0.0370370
        k(   19) = (   0.1666667   0.0962250   0.0955928), wk =   0.0370370
        k(   20) = (   0.1666667   0.0962250  -0.1433892), wk =   0.0370370
        k(   21) = (   0.1666667   0.1924501   0.0000000), wk =   0.0370370
        k(   22) = (   0.1666667   0.1924501   0.0477964), wk =   0.0370370
        k(   23) = (   0.1666667   0.1924501   0.0955928), wk =   0.0370370
        k(   24) = (   0.1666667   0.1924501  -0.1433892), wk =   0.0370370
        k(   25) = (   0.1666667   0.2886751   0.0000000), wk =   0.0185185
        k(   26) = (   0.1666667   0.2886751   0.0477964), wk =   0.0370370
        k(   27) = (   0.1666667   0.2886751   0.0955928), wk =   0.0370370
        k(   28) = (   0.1666667   0.2886751  -0.1433892), wk =   0.0185185
        k(   29) = (   0.1666667   0.0000000   0.0000000), wk =   0.0185185
        k(   30) = (   0.1666667   0.0000000   0.0477964), wk =   0.0370370
        k(   31) = (   0.1666667   0.0000000   0.0955928), wk =   0.0370370
        k(   32) = (   0.1666667   0.0000000  -0.1433892), wk =   0.0185185
        k(   33) = (   0.3333333   0.1924501   0.0000000), wk =   0.0370370
        k(   34) = (   0.3333333   0.1924501   0.0477964), wk =   0.0370370
        k(   35) = (   0.3333333   0.1924501   0.0955928), wk =   0.0370370
        k(   36) = (   0.3333333   0.1924501  -0.1433892), wk =   0.0370370
        k(   37) = (   0.3333333   0.2886751   0.0000000), wk =   0.0185185
        k(   38) = (   0.3333333   0.2886751   0.0477964), wk =   0.0370370
        k(   39) = (   0.3333333   0.2886751   0.0955928), wk =   0.0370370
        k(   40) = (   0.3333333   0.2886751  -0.1433892), wk =   0.0185185
        k(   41) = (   0.3333333  -0.0962250   0.0000000), wk =   0.0370370
        k(   42) = (   0.3333333  -0.0962250   0.0477964), wk =   0.0370370
        k(   43) = (   0.3333333  -0.0962250   0.0955928), wk =   0.0370370
        k(   44) = (   0.3333333  -0.0962250  -0.1433892), wk =   0.0370370
        k(   45) = (   0.3333333  -0.0000000   0.0000000), wk =   0.0185185
        k(   46) = (   0.3333333  -0.0000000   0.0477964), wk =   0.0370370
        k(   47) = (   0.3333333  -0.0000000   0.0955928), wk =   0.0370370
        k(   48) = (   0.3333333  -0.0000000  -0.1433892), wk =   0.0185185
        k(   49) = (  -0.5000000  -0.2886751   0.0000000), wk =   0.0092593
        k(   50) = (  -0.5000000  -0.2886751   0.0477964), wk =   0.0185185
        k(   51) = (  -0.5000000  -0.2886751   0.0955928), wk =   0.0185185
        k(   52) = (  -0.5000000  -0.2886751  -0.1433892), wk =   0.0092593
        k(   53) = (  -0.5000000  -0.1924501   0.0000000), wk =   0.0185185
        k(   54) = (  -0.5000000  -0.1924501   0.0477964), wk =   0.0185185
        k(   55) = (  -0.5000000  -0.1924501   0.0955928), wk =   0.0185185
[...]
        k(   76) = (  -0.3333333   0.1666667  -0.3333333), wk =   0.0370370
        k(   77) = (   0.5000000  -0.8333333  -0.1666667), wk =   0.0185185
        k(   78) = (   0.5000000  -0.8333333  -0.3333333), wk =   0.0185185
        k(   79) = (   0.5000000  -0.6666667  -0.1666667), wk =   0.0185185
        k(   80) = (   0.5000000  -0.6666667  -0.3333333), wk =   0.0185185

     Check: negative core charge=   -0.000001

     Initial potential from superposition of free atoms

     starting charge     143.9702, renormalised to     144.0000
     Starting wfcs are  104 randomized atomic wfcs

     Self-consistent Calculation

     iteration #  1     ecut=    50.00 Ry     beta= 0.30
     Davidson diagonalization with overlap

     ethr =  1.00E-02,  avg # of iterations =  2.0

     total energy              =   -1445.50454634 Ry
     estimated scf accuracy    <       2.71393873 Ry

[...]

     total energy              =   -1446.03704979 Ry
     estimated scf accuracy    <       0.00000001 Ry

     iteration # 23     ecut=    50.00 Ry     beta= 0.30
     Davidson diagonalization with overlap

     ethr =  7.15E-12,  avg # of iterations =  4.8

     End of self-consistent calculation

          k = 0.0000 0.0000 0.0000 (  6219 PWs)   bands (ev):

    -9.2144  -8.7722  -8.7722  -8.2881  -8.1072  -7.9599  -7.9599  -7.8306
     3.0175   3.0175   3.1563   3.2655   3.2675   3.3973   3.3973   3.7947
     3.7950   3.8724   3.8847   3.8847   3.8849   3.8849   4.0091   4.0093
     4.2092   4.4806   4.4806   4.6005   4.6009   4.6009   4.7614   4.8289
     5.8051   5.8168   5.8169   5.9650   5.9650   5.9650   5.9650   6.0776
     6.0776   6.0838   6.1136   6.1136   6.1662   6.1662   6.1765   6.2972
     6.4285   6.5405   6.5448   6.5448   6.7061   7.4947   8.2313   8.2313
     8.2634   8.8474   8.8474   9.0580   9.0580   9.1556   9.7737  10.1866
    10.1869  10.5841  10.6091  10.6091  10.6094  10.6094  11.0343  11.0346

     occupation numbers
     1.0000   1.0000   1.0000   1.0000   1.0000   1.0000   1.0000   1.0000
     1.0000   1.0000   1.0000   1.0000   1.0000   1.0000   1.0000   1.0000
     1.0000   1.0000   1.0000   1.0000   1.0000   1.0000   1.0000   1.0000
     1.0000   1.0000   1.0000   1.0000   1.0000   1.0000   1.0000   1.0000
     1.0000   1.0000   1.0000   1.0000   1.0000   1.0000   1.0000   1.0000
     1.0000   1.0000   1.0000   1.0000   1.0000   1.0000   1.0000   1.0000
     1.0000   1.0000   1.0000   1.0000   1.0000   1.0000   1.0000   1.0000
     1.0000   1.0000   1.0000   1.0000   1.0000   1.0000   1.0000   1.0000
     1.0000   1.0000   1.0000   1.0000   1.0000   1.0000   1.0000   1.0000

[...]

          k =-0.5000-0.2887 0.0000 (  6208 PWs)   bands (ev):

[...]

          k =-0.3333-0.0962-0.0956 (  6187 PWs)   bands (ev):

[...]

          k = 0.5000-0.0962-0.0956 (  6204 PWs)   bands (ev):

    -8.1010  -8.1010  -8.0425  -8.0425  -7.8934  -7.8934  -7.8434  -7.8433
     3.2649   3.2649   3.3457   3.3457   3.3567   3.3567   3.5314   3.5314
     4.1450   4.1450   4.1570   4.1570   4.3120   4.3120   4.4045   4.4045
     4.6767   4.6767   4.7057   4.7057   4.7241   4.7241   4.7746   4.7746
     5.6929   5.6929   5.8320   5.8320   5.9494   5.9494   6.0148   6.0148
     6.1968   6.1968   6.2005   6.2005   6.3623   6.3623   6.4054   6.4054
     6.5116   6.5116   6.6518   6.6518   7.0867   7.0867   7.1521   7.1521
     7.4840   7.4840   7.8889   7.8889   8.0055   8.0055   8.3067   8.3067
     8.9229   8.9229   9.0787   9.0787   9.2860   9.2860   9.4020   9.4020

     occupation numbers
     1.0000   1.0000   1.0000   1.0000   1.0000   1.0000   1.0000   1.0000
     1.0000   1.0000   1.0000   1.0000   1.0000   1.0000   1.0000   1.0000
     1.0000   1.0000   1.0000   1.0000   1.0000   1.0000   1.0000   1.0000
     1.0000   1.0000   1.0000   1.0000   1.0000   1.0000   1.0000   1.0000
     1.0000   1.0000   1.0000   1.0000   1.0000   1.0000   1.0000   1.0000
     1.0000   1.0000   1.0000   1.0000   1.0000   1.0000   1.0000   1.0000
     1.0000   1.0000   1.0000   1.0000   1.0000   1.0000   1.0000   1.0000
     1.0000   1.0000   1.0000   1.0000   1.0000   1.0000   1.0000   1.0000
     1.0000   1.0000   1.0000   1.0000   1.0000   1.0000   1.0000   1.0000

     highest occupied level (ev):    11.0346

!    total energy              =   -1446.03704979 Ry
     estimated scf accuracy    <          1.2E-09 Ry

     The total energy is the sum of the following terms:
     one-electron contribution =    -506.20909152 Ry
     hartree contribution      =     434.71578544 Ry
     xc contribution           =    -440.46009149 Ry
     ewald contribution        =    -934.08365222 Ry

     convergence has been achieved in  23 iterations

     Forces acting on atoms (cartesian axes, Ry/au):

     atom    1 type  1   force =     0.00000000   -0.00001372    0.06402477
     atom    2 type  1   force =     0.00000000    0.00001568    0.06402179
     atom    3 type  2   force =     0.00000000    0.00000216   -0.06402564
     atom    4 type  2   force =     0.00000000   -0.00000207   -0.06402742
     atom    5 type  1   force =     0.00000000   -0.00001319    0.06402529
     atom    6 type  1   force =     0.00000000    0.00001475    0.06402830
     atom    7 type  2   force =     0.00000000    0.00000214   -0.06402494
     atom    8 type  2   force =     0.00000000   -0.00000207   -0.06402249
     atom    9 type  1   force =     0.00000000   -0.00001446    0.06402498
     atom   10 type  1   force =     0.00000000    0.00001261    0.06402137
     atom   11 type  2   force =     0.00000000    0.00000200   -0.06402559
     atom   12 type  2   force =     0.00000000   -0.00000218   -0.06402739
     atom   13 type  1   force =     0.00000000   -0.00001470    0.06402619
     atom   14 type  1   force =     0.00000000    0.00001306    0.06402790
     atom   15 type  2   force =     0.00000000    0.00000207   -0.06402460
     atom   16 type  2   force =     0.00000000   -0.00000210   -0.06402251
     The non-local contrib.  to forces
     atom    1 type  1   force =     0.00000000    0.00003179    0.23470382
     atom    2 type  1   force =     0.00000000   -0.00003104    0.23470141
     atom    3 type  2   force =     0.00000000    0.00018606    0.17435703
     atom    4 type  2   force =     0.00000000   -0.00018621    0.17435584
     atom    5 type  1   force =     0.00000000    0.00003199    0.23471092
     atom    6 type  1   force =     0.00000000   -0.00003151    0.23471301
     atom    7 type  2   force =     0.00000000    0.00018605    0.17436137
     atom    8 type  2   force =     0.00000000   -0.00018652    0.17436269
     atom    9 type  1   force =     0.00000000    0.00003161    0.23470379
     atom   10 type  1   force =     0.00000000   -0.00003210    0.23470130
     atom   11 type  2   force =     0.00000000    0.00018590    0.17435713
     atom   12 type  2   force =     0.00000000   -0.00018617    0.17435590
     atom   13 type  1   force =     0.00000000    0.00003145    0.23471111
     atom   14 type  1   force =     0.00000000   -0.00003202    0.23471287
     atom   15 type  2   force =     0.00000000    0.00018613    0.17436177
     atom   16 type  2   force =     0.00000000   -0.00018602    0.17436269
     The ionic contribution  to forces
     atom    1 type  1   force =    -0.00000000    0.00000001    1.94208340
     atom    2 type  1   force =     0.00000000    0.00000001    1.94208340
     atom    3 type  2   force =    -0.00000000    0.00000001   -1.94208340
     atom    4 type  2   force =     0.00000000    0.00000000   -1.94208340
     atom    5 type  1   force =    -0.00000000    0.00000001    1.94208340
     atom    6 type  1   force =     0.00000000    0.00000001    1.94208340
     atom    7 type  2   force =    -0.00000000    0.00000001   -1.94208340
     atom    8 type  2   force =     0.00000000    0.00000000   -1.94208340
     atom    9 type  1   force =    -0.00000001   -0.00000000    1.94208339
     atom   10 type  1   force =     0.00000001   -0.00000002    1.94208340
     atom   11 type  2   force =    -0.00000001    0.00000000   -1.94208339
     atom   12 type  2   force =     0.00000001   -0.00000001   -1.94208340
     atom   13 type  1   force =    -0.00000001   -0.00000000    1.94208339
     atom   14 type  1   force =     0.00000001   -0.00000002    1.94208340
     atom   15 type  2   force =    -0.00000001    0.00000000   -1.94208339
     atom   16 type  2   force =     0.00000001   -0.00000001   -1.94208340
     The local contribution  to forces
     atom    1 type  1   force =    -0.00000007   -0.00005339   -2.09223185
     atom    2 type  1   force =    -0.00000000    0.00005046   -2.09223707
     atom    3 type  2   force =    -0.00000002   -0.00018157    1.70483153
     atom    4 type  2   force =    -0.00000000    0.00018115    1.70482896
     atom    5 type  1   force =    -0.00000007   -0.00005409   -2.09223759
     atom    6 type  1   force =     0.00000000    0.00005191   -2.09223321
     atom    7 type  2   force =    -0.00000002   -0.00018177    1.70482711
     atom    8 type  2   force =    -0.00000000    0.00018144    1.70482850
     atom    9 type  1   force =    -0.00000007   -0.00005268   -2.09223223
     atom   10 type  1   force =     0.00000007    0.00005537   -2.09223636
     atom   11 type  2   force =    -0.00000002   -0.00018145    1.70483126
     atom   12 type  2   force =     0.00000002    0.00018218    1.70482895
     atom   13 type  1   force =    -0.00000007   -0.00005219   -2.09223918
     atom   14 type  1   force =     0.00000007    0.00005443   -2.09223253
     atom   15 type  2   force =    -0.00000002   -0.00018131    1.70482724
     atom   16 type  2   force =     0.00000002    0.00018204    1.70482872
     The core correction contribution to forces
     atom    1 type  1   force =    -0.00000001    0.00000765   -0.02053365
     atom    2 type  1   force =     0.00000000   -0.00000760   -0.02053257
     atom    3 type  2   force =     0.00000000   -0.00000210   -0.00112720
     atom    4 type  2   force =     0.00000000    0.00000210   -0.00112621
     atom    5 type  1   force =    -0.00000001    0.00000765   -0.02053686
     atom    6 type  1   force =     0.00000000   -0.00000763   -0.02053785
     atom    7 type  2   force =     0.00000000   -0.00000209   -0.00112852
     atom    8 type  2   force =     0.00000000    0.00000210   -0.00112952
     atom    9 type  1   force =    -0.00000001    0.00000765   -0.02053363
     atom   10 type  1   force =     0.00000001   -0.00000770   -0.02053259
     atom   11 type  2   force =     0.00000000   -0.00000209   -0.00112720
     atom   12 type  2   force =    -0.00000000    0.00000210   -0.00112621
     atom   13 type  1   force =    -0.00000001    0.00000764   -0.02053681
     atom   14 type  1   force =     0.00000001   -0.00000766   -0.02053787
     atom   15 type  2   force =     0.00000000   -0.00000210   -0.00112853
     atom   16 type  2   force =    -0.00000000    0.00000210   -0.00112952
     The Hubbard contrib.    to forces
     atom    1 type  1   force =     0.00000000    0.00000000    0.00000000
     atom    2 type  1   force =     0.00000000    0.00000000    0.00000000
     atom    3 type  2   force =     0.00000000    0.00000000    0.00000000
     atom    4 type  2   force =     0.00000000    0.00000000    0.00000000
     atom    5 type  1   force =     0.00000000    0.00000000    0.00000000
     atom    6 type  1   force =     0.00000000    0.00000000    0.00000000
     atom    7 type  2   force =     0.00000000    0.00000000    0.00000000
     atom    8 type  2   force =     0.00000000    0.00000000    0.00000000
     atom    9 type  1   force =     0.00000000    0.00000000    0.00000000
     atom   10 type  1   force =     0.00000000    0.00000000    0.00000000
     atom   11 type  2   force =     0.00000000    0.00000000    0.00000000
     atom   12 type  2   force =     0.00000000    0.00000000    0.00000000
     atom   13 type  1   force =     0.00000000    0.00000000    0.00000000
     atom   14 type  1   force =     0.00000000    0.00000000    0.00000000
     atom   15 type  2   force =     0.00000000    0.00000000    0.00000000
     atom   16 type  2   force =     0.00000000    0.00000000    0.00000000
     The SCF correction term to forces
     atom    1 type  1   force =    -0.00000000    0.00000024    0.00000579
     atom    2 type  1   force =     0.00000000    0.00000387    0.00000937
     atom    3 type  2   force =     0.00000000   -0.00000022   -0.00000086
     atom    4 type  2   force =     0.00000000    0.00000091    0.00000012
     atom    5 type  1   force =    -0.00000000    0.00000126    0.00000816
     atom    6 type  1   force =     0.00000000    0.00000198    0.00000569
     atom    7 type  2   force =     0.00000000   -0.00000004    0.00000124
     atom    8 type  2   force =     0.00000000    0.00000093    0.00000197
     atom    9 type  1   force =    -0.00000000   -0.00000102    0.00000640
     atom   10 type  1   force =     0.00000000   -0.00000291    0.00000837
     atom   11 type  2   force =    -0.00000000   -0.00000033   -0.00000065
     atom   12 type  2   force =     0.00000000   -0.00000026    0.00000010
     atom   13 type  1   force =    -0.00000000   -0.00000157    0.00001041
     atom   14 type  1   force =     0.00000000   -0.00000164    0.00000478
     atom   15 type  2   force =    -0.00000000   -0.00000063    0.00000106
     atom   16 type  2   force =     0.00000000   -0.00000019    0.00000173

     Total force =     0.256100     Total SCF correction =     0.000023

     General routines

     Parallel routines

   This run was terminated on:  19:50:22  28Aug2025

   JOB DONE.
Note: The following floating-point exceptions are signalling: IEEE_UNDERFLOW_FLAG IEEE_DENORMAL
Note: The following floating-point exceptions are signalling: IEEE_UNDERFLOW_FLAG IEEE_DENORMAL
Note: The following floating-point exceptions are signalling: IEEE_UNDERFLOW_FLAG IEEE_DENORMAL
Note: The following floating-point exceptions are signalling: IEEE_UNDERFLOW_FLAG IEEE_DENORMAL
Note: The following floating-point exceptions are signalling: IEEE_UNDERFLOW_FLAG IEEE_DENORMAL
Note: The following floating-point exceptions are signalling: IEEE_UNDERFLOW_FLAG IEEE_DENORMAL
Note: The following floating-point exceptions are signalling: IEEE_UNDERFLOW_FLAG IEEE_DENORMAL
Note: The following floating-point exceptions are signalling: IEEE_UNDERFLOW_FLAG IEEE_DENORMAL
Note: The following floating-point exceptions are signalling: IEEE_UNDERFLOW_FLAG IEEE_DENORMAL
Note: The following floating-point exceptions are signalling: IEEE_UNDERFLOW_FLAG IEEE_DENORMAL
Note: The following floating-point exceptions are signalling: IEEE_UNDERFLOW_FLAG IEEE_DENORMAL
Note: The following floating-point exceptions are signalling: IEEE_UNDERFLOW_FLAG IEEE_DENORMAL
Note: The following floating-point exceptions are signalling: IEEE_UNDERFLOW_FLAG IEEE_DENORMAL
Note: The following floating-point exceptions are signalling: IEEE_UNDERFLOW_FLAG IEEE_DENORMAL
Note: The following floating-point exceptions are signalling: IEEE_UNDERFLOW_FLAG IEEE_DENORMAL
Note: The following floating-point exceptions are signalling: IEEE_UNDERFLOW_FLAG IEEE_DENORMAL
Note: The following floating-point exceptions are signalling: IEEE_UNDERFLOW_FLAG IEEE_DENORMAL
Note: The following floating-point exceptions are signalling: IEEE_UNDERFLOW_FLAG IEEE_DENORMAL
Note: The following floating-point exceptions are signalling: IEEE_UNDERFLOW_FLAG IEEE_DENORMAL
Note: The following floating-point exceptions are signalling: IEEE_UNDERFLOW_FLAG IEEE_DENORMAL
Note: The following floating-point exceptions are signalling: IEEE_UNDERFLOW_FLAG IEEE_DENORMAL
Note: The following floating-point exceptions are signalling: IEEE_UNDERFLOW_FLAG IEEE_DENORMAL
Note: The following floating-point exceptions are signalling: IEEE_UNDERFLOW_FLAG IEEE_DENORMAL
Note: The following floating-point exceptions are signalling: IEEE_UNDERFLOW_FLAG IEEE_DENORMAL
Note: The following floating-point exceptions are signalling: IEEE_UNDERFLOW_FLAG IEEE_DENORMAL
Note: The following floating-point exceptions are signalling: IEEE_UNDERFLOW_FLAG IEEE_DENORMAL
Note: The following floating-point exceptions are signalling: IEEE_UNDERFLOW_FLAG IEEE_DENORMAL
Note: The following floating-point exceptions are signalling: IEEE_UNDERFLOW_FLAG IEEE_DENORMAL
Note: The following floating-point exceptions are signalling: IEEE_UNDERFLOW_FLAG IEEE_DENORMAL
Note: The following floating-point exceptions are signalling: IEEE_UNDERFLOW_FLAG IEEE_DENORMAL
Note: The following floating-point exceptions are signalling: IEEE_UNDERFLOW_FLAG IEEE_DENORMAL
Note: The following floating-point exceptions are signalling: IEEE_UNDERFLOW_FLAG IEEE_DENORMAL