     Program PWSCF v.7.0 starts on 28Aug2025 at 21:57:10

     K-points division:     npool     =       8
     R & G space division:  proc/nbgrp/npool/nimage =       4

     Reading input from /home/jvc/QEspresso7.2/ZnO_database/scripts/cell122.in/ZnO-3.07-1.55-122.in
Warning: card &CELL ignored
Warning: card / ignored
Warning: card &FCP ignored
Warning: card / ignored
Warning: card &RISM ignored
Warning: card / ignored

     Current dimensions of program PWSCF are:
     Max number of different atomic species (ntypx) = 10
     Max number of k-points (npk) =  40000
     Max angular momentum in pseudopotentials (lmaxx) =  4
     file Zn.upf: wavefunction(s)  3D renormalized
     Found identity + (  0.0000  0.0000  0.5000) symmetry
     This is a supercell, fractional translations are disabled
     Message from routine setup:
     using ibrav=0 with symmetry is DISCOURAGED, use correct ibrav instead

     Using Slab Decomposition

     bravais-lattice index     =            0
     lattice parameter (alat)  =       5.8081  a.u.
     unit-cell volume          =    1051.8872 (a.u.)^3
     number of atoms/cell      =           16
     number of atomic types    =            2
     number of electrons       =       144.00
     number of Kohn-Sham states=           72
     kinetic-energy cutoff     =      50.0000  Ry
     charge density cutoff     =     400.0000  Ry
     scf convergence threshold =      1.0E-08
     mixing beta               =       0.3000
     number of iterations used =            8  plain     mixing
     Exchange-correlation= PBE
                           (   1   4   3   4   0   0   0)

     celldm(1)=   5.808123  celldm(2)=   0.000000  celldm(3)=   0.000000
     celldm(4)=   0.000000  celldm(5)=   0.000000  celldm(6)=   0.000000

     crystal axes: (cart. coord. in units of alat)
               a(1) = (   1.000000   0.000000   0.000000 )
               a(2) = (  -1.000000   1.732051   0.000000 )
               a(3) = (   0.000000   0.000000   3.099568 )

     reciprocal axes: (cart. coord. in units 2 pi/alat)
               b(1) = (  1.000000  0.577350 -0.000000 )
               b(2) = (  0.000000  0.577350  0.000000 )
               b(3) = (  0.000000 -0.000000  0.322626 )

     PseudoPot. # 1 for Zn read from file:
     /home/jvc/QEspresso7.2/ZnO_database/pseudos/Zn.upf
     MD5 check sum: 7f56cabf9682ed8c977c2f7d0c5985c5
     Pseudo is Ultrasoft + core correction, Zval = 12.0
     Generated using &quot;atomic&quot; code by A. Dal Corso  v.6.2.2
     Using radial grid of 1201 points,  6 beta functions with:
                l(1) =   0
                l(2) =   0
                l(3) =   1
                l(4) =   1
                l(5) =   2
                l(6) =   2
     Q(r) pseudized with 0 coefficients

     PseudoPot. # 2 for O  read from file:
     /home/jvc/QEspresso7.2/ZnO_database/pseudos/O.upf
     MD5 check sum: 91400c9766925bcf19f520983a725ff0
     Pseudo is Ultrasoft + core correction, Zval =  6.0
     Generated using &quot;atomic&quot; code by A. Dal Corso  v.6.3MaX
     Using radial grid of 1095 points,  4 beta functions with:
                l(1) =   0
                l(2) =   0
                l(3) =   1
                l(4) =   1
     Q(r) pseudized with 0 coefficients

     atomic species   valence    mass     pseudopotential
        Zn            12.00    65.38000     Zn( 1.00)
        O              6.00    15.99900     O ( 1.00)

      2 Sym. Ops. (no inversion) found

                                    s                        frac. trans.

      isym =  1     identity

 cryst.   s( 1) = (     1          0          0      )
                  (     0          1          0      )
                  (     0          0          1      )

 cart.    s( 1) = (  1.0000000  0.0000000  0.0000000 )
                  (  0.0000000  1.0000000  0.0000000 )
                  (  0.0000000  0.0000000  1.0000000 )

      isym =  2     inv. 180 deg rotation - cart. axis [1,0,0]

 cryst.   s( 2) = (    -1          0          0      )
                  (     2          1          0      )
                  (     0          0          1      )

 cart.    s( 2) = ( -1.0000000  0.0000000  0.0000000 )
                  (  0.0000000  1.0000000  0.0000000 )
                  (  0.0000000  0.0000000  1.0000000 )

   Cartesian axes

     site n.     atom                  positions (alat units)
         1           Zn  tau(   1) = (   0.5000000   0.2886751   0.7758739  )
         2           Zn  tau(   2) = (   0.0000000   0.5773503   0.0009819  )
         3           O   tau(   3) = (   0.5000000   0.2886751   1.3633085  )
         4           O   tau(   4) = (   0.0000000   0.5773503   0.5884164  )
         5           Zn  tau(   5) = (   0.5000000   0.2886751   2.3256580  )
         6           Zn  tau(   6) = (   0.0000000   0.5773503   1.5507659  )
         7           O   tau(   7) = (   0.5000000   0.2886751   2.9130925  )
         8           O   tau(   8) = (   0.0000000   0.5773503   2.1382005  )
         9           Zn  tau(   9) = (   0.0000000   1.1547005   0.7758739  )
        10           Zn  tau(  10) = (  -0.5000000   1.4433757   0.0009819  )
        11           O   tau(  11) = (   0.0000000   1.1547005   1.3633085  )
        12           O   tau(  12) = (  -0.5000000   1.4433757   0.5884164  )
        13           Zn  tau(  13) = (   0.0000000   1.1547005   2.3256580  )
        14           Zn  tau(  14) = (  -0.5000000   1.4433757   1.5507659  )
        15           O   tau(  15) = (   0.0000000   1.1547005   2.9130925  )
        16           O   tau(  16) = (  -0.5000000   1.4433757   2.1382005  )

   Crystallographic axes

     site n.     atom                  positions (cryst. coord.)
         1           Zn  tau(   1) = (  0.6666667  0.1666667  0.2503168  )
         2           Zn  tau(   2) = (  0.3333333  0.3333333  0.0003168  )
         3           O   tau(   3) = (  0.6666667  0.1666667  0.4398382  )
         4           O   tau(   4) = (  0.3333333  0.3333333  0.1898382  )
         5           Zn  tau(   5) = (  0.6666667  0.1666667  0.7503168  )
         6           Zn  tau(   6) = (  0.3333333  0.3333333  0.5003168  )
         7           O   tau(   7) = (  0.6666667  0.1666667  0.9398382  )
         8           O   tau(   8) = (  0.3333333  0.3333333  0.6898382  )
         9           Zn  tau(   9) = (  0.6666667  0.6666667  0.2503168  )
        10           Zn  tau(  10) = (  0.3333333  0.8333333  0.0003168  )
        11           O   tau(  11) = (  0.6666667  0.6666667  0.4398382  )
        12           O   tau(  12) = (  0.3333333  0.8333333  0.1898382  )
        13           Zn  tau(  13) = (  0.6666667  0.6666667  0.7503168  )
        14           Zn  tau(  14) = (  0.3333333  0.8333333  0.5003168  )
        15           O   tau(  15) = (  0.6666667  0.6666667  0.9398382  )
        16           O   tau(  16) = (  0.3333333  0.8333333  0.6898382  )

     number of k points=    80
                       cart. coord. in units 2pi/alat
        k(    1) = (   0.0000000   0.0000000   0.0000000), wk =   0.0092593
        k(    2) = (   0.0000000   0.0000000   0.0537709), wk =   0.0185185
        k(    3) = (   0.0000000   0.0000000   0.1075419), wk =   0.0185185
        k(    4) = (   0.0000000   0.0000000  -0.1613128), wk =   0.0092593
        k(    5) = (   0.0000000   0.0962250   0.0000000), wk =   0.0185185
        k(    6) = (   0.0000000   0.0962250   0.0537709), wk =   0.0185185
        k(    7) = (   0.0000000   0.0962250   0.1075419), wk =   0.0185185
        k(    8) = (   0.0000000   0.0962250  -0.1613128), wk =   0.0185185
        k(    9) = (   0.0000000   0.1924501   0.0000000), wk =   0.0185185
        k(   10) = (   0.0000000   0.1924501   0.0537709), wk =   0.0185185
        k(   11) = (   0.0000000   0.1924501   0.1075419), wk =   0.0185185
        k(   12) = (   0.0000000   0.1924501  -0.1613128), wk =   0.0185185
        k(   13) = (   0.0000000  -0.2886751   0.0000000), wk =   0.0092593
        k(   14) = (   0.0000000  -0.2886751   0.0537709), wk =   0.0185185
        k(   15) = (   0.0000000  -0.2886751   0.1075419), wk =   0.0185185
        k(   16) = (   0.0000000  -0.2886751  -0.1613128), wk =   0.0092593
        k(   17) = (   0.1666667   0.0962250   0.0000000), wk =   0.0370370
        k(   18) = (   0.1666667   0.0962250   0.0537709), wk =   0.0370370
        k(   19) = (   0.1666667   0.0962250   0.1075419), wk =   0.0370370
        k(   20) = (   0.1666667   0.0962250  -0.1613128), wk =   0.0370370
        k(   21) = (   0.1666667   0.1924501   0.0000000), wk =   0.0370370
        k(   22) = (   0.1666667   0.1924501   0.0537709), wk =   0.0370370
        k(   23) = (   0.1666667   0.1924501   0.1075419), wk =   0.0370370
        k(   24) = (   0.1666667   0.1924501  -0.1613128), wk =   0.0370370
        k(   25) = (   0.1666667   0.2886751   0.0000000), wk =   0.0185185
        k(   26) = (   0.1666667   0.2886751   0.0537709), wk =   0.0370370
        k(   27) = (   0.1666667   0.2886751   0.1075419), wk =   0.0370370
        k(   28) = (   0.1666667   0.2886751  -0.1613128), wk =   0.0185185
        k(   29) = (   0.1666667   0.0000000   0.0000000), wk =   0.0185185
        k(   30) = (   0.1666667   0.0000000   0.0537709), wk =   0.0370370
        k(   31) = (   0.1666667   0.0000000   0.1075419), wk =   0.0370370
        k(   32) = (   0.1666667   0.0000000  -0.1613128), wk =   0.0185185
        k(   33) = (   0.3333333   0.1924501   0.0000000), wk =   0.0370370
        k(   34) = (   0.3333333   0.1924501   0.0537709), wk =   0.0370370
        k(   35) = (   0.3333333   0.1924501   0.1075419), wk =   0.0370370
        k(   36) = (   0.3333333   0.1924501  -0.1613128), wk =   0.0370370
        k(   37) = (   0.3333333   0.2886751   0.0000000), wk =   0.0185185
        k(   38) = (   0.3333333   0.2886751   0.0537709), wk =   0.0370370
        k(   39) = (   0.3333333   0.2886751   0.1075419), wk =   0.0370370
        k(   40) = (   0.3333333   0.2886751  -0.1613128), wk =   0.0185185
        k(   41) = (   0.3333333  -0.0962250   0.0000000), wk =   0.0370370
        k(   42) = (   0.3333333  -0.0962250   0.0537709), wk =   0.0370370
        k(   43) = (   0.3333333  -0.0962250   0.1075419), wk =   0.0370370
        k(   44) = (   0.3333333  -0.0962250  -0.1613128), wk =   0.0370370
        k(   45) = (   0.3333333  -0.0000000   0.0000000), wk =   0.0185185
        k(   46) = (   0.3333333  -0.0000000   0.0537709), wk =   0.0370370
        k(   47) = (   0.3333333  -0.0000000   0.1075419), wk =   0.0370370
        k(   48) = (   0.3333333  -0.0000000  -0.1613128), wk =   0.0185185
        k(   49) = (  -0.5000000  -0.2886751   0.0000000), wk =   0.0092593
        k(   50) = (  -0.5000000  -0.2886751   0.0537709), wk =   0.0185185
        k(   51) = (  -0.5000000  -0.2886751   0.1075419), wk =   0.0185185
        k(   52) = (  -0.5000000  -0.2886751  -0.1613128), wk =   0.0092593
        k(   53) = (  -0.5000000  -0.1924501   0.0000000), wk =   0.0185185
        k(   54) = (  -0.5000000  -0.1924501   0.0537709), wk =   0.0185185
        k(   55) = (  -0.5000000  -0.1924501   0.1075419), wk =   0.0185185
[...]
        k(   76) = (  -0.3333333   0.1666667  -0.3333333), wk =   0.0370370
        k(   77) = (   0.5000000  -0.8333333  -0.1666667), wk =   0.0185185
        k(   78) = (   0.5000000  -0.8333333  -0.3333333), wk =   0.0185185
        k(   79) = (   0.5000000  -0.6666667  -0.1666667), wk =   0.0185185
        k(   80) = (   0.5000000  -0.6666667  -0.3333333), wk =   0.0185185

     Check: negative core charge=   -0.000001

     Initial potential from superposition of free atoms

     starting charge     143.9702, renormalised to     144.0000
     Starting wfcs are  104 randomized atomic wfcs

     Self-consistent Calculation

     iteration #  1     ecut=    50.00 Ry     beta= 0.30
     Davidson diagonalization with overlap

     ethr =  1.00E-02,  avg # of iterations =  2.0

     total energy              =   -1445.58855139 Ry
     estimated scf accuracy    <       2.71152667 Ry

[...]

     total energy              =   -1446.13252587 Ry
     estimated scf accuracy    <       0.00000004 Ry

     iteration # 29     ecut=    50.00 Ry     beta= 0.30
     Davidson diagonalization with overlap

     ethr =  2.76E-11,  avg # of iterations =  4.1

     End of self-consistent calculation

          k = 0.0000 0.0000 0.0000 (  6255 PWs)   bands (ev):

    -9.3018  -8.7412  -8.7411  -8.3075  -8.1403  -8.1042  -8.1042  -7.9499
     2.8563   2.8564   3.2476   3.2476   3.2530   3.3358   3.3448   3.7501
     3.7503   3.8084   3.8439   3.8439   3.8441   3.8441   4.0407   4.0408
     4.0673   4.2714   4.3018   4.3018   4.3808   4.3808   4.6146   4.8573
     5.5750   5.5751   5.6195   5.8107   5.8107   5.8107   5.8107   5.8586
     5.9028   5.9028   5.9449   5.9450   6.0147   6.0147   6.0240   6.1038
     6.2929   6.4379   6.5070   6.5070   6.6926   7.2561   7.5227   8.3948
     8.3948   8.6503   8.6503   9.0629   9.0629   9.1031   9.4584   9.4586
     9.5721  10.0484  10.0485  10.0486  10.0487  10.5702  10.6280  10.6283

     occupation numbers
     1.0000   1.0000   1.0000   1.0000   1.0000   1.0000   1.0000   1.0000
     1.0000   1.0000   1.0000   1.0000   1.0000   1.0000   1.0000   1.0000
     1.0000   1.0000   1.0000   1.0000   1.0000   1.0000   1.0000   1.0000
     1.0000   1.0000   1.0000   1.0000   1.0000   1.0000   1.0000   1.0000
     1.0000   1.0000   1.0000   1.0000   1.0000   1.0000   1.0000   1.0000
     1.0000   1.0000   1.0000   1.0000   1.0000   1.0000   1.0000   1.0000
     1.0000   1.0000   1.0000   1.0000   1.0000   1.0000   1.0000   1.0000
     1.0000   1.0000   1.0000   1.0000   1.0000   1.0000   1.0000   1.0000
     1.0000   1.0000   1.0000   1.0000   1.0000   1.0000   1.0000   1.0000

[...]

          k =-0.5000-0.2887 0.0000 (  6188 PWs)   bands (ev):

[...]

          k =-0.3333-0.0962-0.1075 (  6278 PWs)   bands (ev):

[...]

          k = 0.5000-0.0962-0.1075 (  6268 PWs)   bands (ev):

    -8.2909  -8.2908  -8.2098  -8.2097  -8.0183  -8.0182  -7.9609  -7.9609
     3.1104   3.1104   3.1831   3.1831   3.2851   3.2851   3.4732   3.4732
     3.9801   3.9802   4.0014   4.0014   4.1171   4.1172   4.1645   4.1645
     4.4858   4.4858   4.5738   4.5738   4.5939   4.5939   4.7401   4.7401
     5.5484   5.5484   5.6834   5.6834   5.7694   5.7694   5.8220   5.8220
     6.0140   6.0140   6.0230   6.0230   6.1916   6.1916   6.1963   6.1963
     6.3365   6.3365   6.5174   6.5174   6.9606   6.9606   7.0040   7.0040
     7.2121   7.2121   7.5951   7.5951   7.8123   7.8123   8.3717   8.3717
     8.7337   8.7338   8.9976   8.9976   9.2781   9.2781   9.3675   9.3675

     occupation numbers
     1.0000   1.0000   1.0000   1.0000   1.0000   1.0000   1.0000   1.0000
     1.0000   1.0000   1.0000   1.0000   1.0000   1.0000   1.0000   1.0000
     1.0000   1.0000   1.0000   1.0000   1.0000   1.0000   1.0000   1.0000
     1.0000   1.0000   1.0000   1.0000   1.0000   1.0000   1.0000   1.0000
     1.0000   1.0000   1.0000   1.0000   1.0000   1.0000   1.0000   1.0000
     1.0000   1.0000   1.0000   1.0000   1.0000   1.0000   1.0000   1.0000
     1.0000   1.0000   1.0000   1.0000   1.0000   1.0000   1.0000   1.0000
     1.0000   1.0000   1.0000   1.0000   1.0000   1.0000   1.0000   1.0000
     1.0000   1.0000   1.0000   1.0000   1.0000   1.0000   1.0000   1.0000

     highest occupied level (ev):    10.6283

!    total energy              =   -1446.13252588 Ry
     estimated scf accuracy    <          2.9E-09 Ry

     The total energy is the sum of the following terms:
     one-electron contribution =    -512.16786331 Ry
     hartree contribution      =     436.79854564 Ry
     xc contribution           =    -440.32158041 Ry
     ewald contribution        =    -930.44162780 Ry

     convergence has been achieved in  29 iterations

     Forces acting on atoms (cartesian axes, Ry/au):

     atom    1 type  1   force =     0.00000000   -0.00003572   -0.03923560
     atom    2 type  1   force =     0.00000000   -0.00000864   -0.03925523
     atom    3 type  2   force =     0.00000000    0.00000166    0.03922772
     atom    4 type  2   force =     0.00000000   -0.00000301    0.03922234
     atom    5 type  1   force =     0.00000000   -0.00001916   -0.03921231
     atom    6 type  1   force =     0.00000000    0.00001188   -0.03919293
     atom    7 type  2   force =     0.00000000    0.00000133    0.03922277
     atom    8 type  2   force =     0.00000000   -0.00000292    0.03922342
     atom    9 type  1   force =     0.00000000    0.00000511   -0.03923076
     atom   10 type  1   force =     0.00000000    0.00003961   -0.03923501
     atom   11 type  2   force =     0.00000000    0.00000343    0.03922746
     atom   12 type  2   force =     0.00000000   -0.00000162    0.03922284
     atom   13 type  1   force =     0.00000000   -0.00001022   -0.03923518
     atom   14 type  1   force =     0.00000000    0.00001797   -0.03919611
     atom   15 type  2   force =     0.00000000    0.00000293    0.03922307
     atom   16 type  2   force =     0.00000000   -0.00000260    0.03922352
     The non-local contrib.  to forces
     atom    1 type  1   force =     0.00000000    0.00002239   -0.13775245
     atom    2 type  1   force =     0.00000000   -0.00003968   -0.13775960
     atom    3 type  2   force =     0.00000000    0.00017771   -0.08402290
     atom    4 type  2   force =     0.00000000   -0.00017383   -0.08401320
     atom    5 type  1   force =     0.00000000    0.00002789   -0.13774095
     atom    6 type  1   force =     0.00000000   -0.00003350   -0.13773580
     atom    7 type  2   force =     0.00000000    0.00017838   -0.08400737
     atom    8 type  2   force =     0.00000000   -0.00017395   -0.08402182
     atom    9 type  1   force =     0.00000000    0.00003924   -0.13774905
     atom   10 type  1   force =     0.00000000   -0.00002272   -0.13775438
     atom   11 type  2   force =     0.00000000    0.00017418   -0.08402186
     atom   12 type  2   force =     0.00000000   -0.00017913   -0.08401471
     atom   13 type  1   force =     0.00000000    0.00003379   -0.13774683
     atom   14 type  1   force =     0.00000000   -0.00002842   -0.13773707
     atom   15 type  2   force =     0.00000000    0.00017371   -0.08401123
     atom   16 type  2   force =     0.00000000   -0.00017927   -0.08401894
     The ionic contribution  to forces
     atom    1 type  1   force =    -0.00000000    0.00000001   -0.90457207
     atom    2 type  1   force =     0.00000001    0.00000001   -0.90457208
     atom    3 type  2   force =    -0.00000000    0.00000001    0.90457207
     atom    4 type  2   force =     0.00000000    0.00000001    0.90457208
     atom    5 type  1   force =    -0.00000000    0.00000001   -0.90457207
     atom    6 type  1   force =     0.00000001    0.00000001   -0.90457208
     atom    7 type  2   force =    -0.00000000    0.00000001    0.90457207
     atom    8 type  2   force =     0.00000000    0.00000001    0.90457208
     atom    9 type  1   force =     0.00000000   -0.00000002   -0.90457207
     atom   10 type  1   force =    -0.00000000   -0.00000001   -0.90457207
     atom   11 type  2   force =     0.00000000   -0.00000001    0.90457207
     atom   12 type  2   force =    -0.00000000   -0.00000000    0.90457207
     atom   13 type  1   force =     0.00000000   -0.00000002   -0.90457207
     atom   14 type  1   force =    -0.00000000   -0.00000001   -0.90457207
     atom   15 type  2   force =     0.00000000   -0.00000001    0.90457207
     atom   16 type  2   force =    -0.00000000   -0.00000000    0.90457207
     The local contribution  to forces
     atom    1 type  1   force =    -0.00000008   -0.00001876    0.99027340
     atom    2 type  1   force =     0.00000000    0.00008265    0.99030456
     atom    3 type  2   force =    -0.00000002   -0.00016841   -0.78183144
     atom    4 type  2   force =    -0.00000000    0.00017793   -0.78181148
     atom    5 type  1   force =    -0.00000008   -0.00004158    0.99024459
     atom    6 type  1   force =     0.00000000    0.00005277    0.99022296
     atom    7 type  2   force =    -0.00000002   -0.00016946   -0.78180866
     atom    8 type  2   force =    -0.00000000    0.00017548   -0.78182643
     atom    9 type  1   force =    -0.00000000   -0.00007758    0.99026863
     atom   10 type  1   force =     0.00000000    0.00001417    0.99027449
     atom   11 type  2   force =    -0.00000000   -0.00017523   -0.78183033
     atom   12 type  2   force =    -0.00000000    0.00016853   -0.78181484
     atom   13 type  1   force =    -0.00000000   -0.00005497    0.99027616
     atom   14 type  1   force =     0.00000000    0.00004397    0.99022688
     atom   15 type  2   force =     0.00000000   -0.00017515   -0.78180515
     atom   16 type  2   force =    -0.00000000    0.00016932   -0.78182475
     The core correction contribution to forces
     atom    1 type  1   force =    -0.00000006    0.00000304    0.01283518
     atom    2 type  1   force =    -0.00000004   -0.00000390    0.01283452
     atom    3 type  2   force =    -0.00000000   -0.00000201    0.00048569
     atom    4 type  2   force =     0.00000000    0.00000200    0.00048561
     atom    5 type  1   force =    -0.00000006    0.00000345    0.01283504
     atom    6 type  1   force =    -0.00000004   -0.00000329    0.01283536
     atom    7 type  2   force =    -0.00000000   -0.00000202    0.00048552
     atom    8 type  2   force =     0.00000000    0.00000200    0.00048568
     atom    9 type  1   force =     0.00000004    0.00000373    0.01283501
     atom   10 type  1   force =     0.00000005   -0.00000285    0.01283520
     atom   11 type  2   force =    -0.00000000   -0.00000200    0.00048570
     atom   12 type  2   force =     0.00000000    0.00000203    0.00048560
     atom   13 type  1   force =     0.00000004    0.00000333    0.01283443
     atom   14 type  1   force =     0.00000005   -0.00000347    0.01283531
     atom   15 type  2   force =    -0.00000000   -0.00000199    0.00048559
     atom   16 type  2   force =     0.00000000    0.00000203    0.00048564
     The Hubbard contrib.    to forces
     atom    1 type  1   force =     0.00000000    0.00000000    0.00000000
     atom    2 type  1   force =     0.00000000    0.00000000    0.00000000
     atom    3 type  2   force =     0.00000000    0.00000000    0.00000000
     atom    4 type  2   force =     0.00000000    0.00000000    0.00000000
     atom    5 type  1   force =     0.00000000    0.00000000    0.00000000
     atom    6 type  1   force =     0.00000000    0.00000000    0.00000000
     atom    7 type  2   force =     0.00000000    0.00000000    0.00000000
     atom    8 type  2   force =     0.00000000    0.00000000    0.00000000
     atom    9 type  1   force =     0.00000000    0.00000000    0.00000000
     atom   10 type  1   force =     0.00000000    0.00000000    0.00000000
     atom   11 type  2   force =     0.00000000    0.00000000    0.00000000
     atom   12 type  2   force =     0.00000000    0.00000000    0.00000000
     atom   13 type  1   force =     0.00000000    0.00000000    0.00000000
     atom   14 type  1   force =     0.00000000    0.00000000    0.00000000
     atom   15 type  2   force =     0.00000000    0.00000000    0.00000000
     atom   16 type  2   force =     0.00000000    0.00000000    0.00000000
     The SCF correction term to forces
     atom    1 type  1   force =     0.00000000   -0.00004245   -0.00002059
     atom    2 type  1   force =     0.00000000   -0.00004775   -0.00006356
     atom    3 type  2   force =    -0.00000000   -0.00000568    0.00002337
     atom    4 type  2   force =     0.00000000   -0.00000915   -0.00001160
     atom    5 type  1   force =     0.00000000   -0.00000896    0.00002016
     atom    6 type  1   force =     0.00000000   -0.00000413    0.00005570
     atom    7 type  2   force =     0.00000000   -0.00000560   -0.00001972
     atom    8 type  2   force =     0.00000000   -0.00000649    0.00001299
     atom    9 type  1   force =    -0.00000000    0.00003971   -0.00001420
     atom   10 type  1   force =    -0.00000000    0.00005098   -0.00001917
     atom   11 type  2   force =    -0.00000000    0.00000646    0.00002095
     atom   12 type  2   force =    -0.00000000    0.00000692   -0.00000621
     atom   13 type  1   force =    -0.00000000    0.00000763   -0.00002780
     atom   14 type  1   force =    -0.00000000    0.00000587    0.00004991
     atom   15 type  2   force =    -0.00000000    0.00000634   -0.00001914
     atom   16 type  2   force =    -0.00000000    0.00000529    0.00000857

     Total force =     0.156897     Total SCF correction =     0.000151

     General routines

     Parallel routines

   This run was terminated on:  22: 6:11  28Aug2025

   JOB DONE.
Note: The following floating-point exceptions are signalling: IEEE_UNDERFLOW_FLAG IEEE_DENORMAL
Note: The following floating-point exceptions are signalling: IEEE_UNDERFLOW_FLAG IEEE_DENORMAL
Note: The following floating-point exceptions are signalling: IEEE_UNDERFLOW_FLAG IEEE_DENORMAL
Note: The following floating-point exceptions are signalling: IEEE_UNDERFLOW_FLAG IEEE_DENORMAL
Note: The following floating-point exceptions are signalling: IEEE_UNDERFLOW_FLAG IEEE_DENORMAL
Note: The following floating-point exceptions are signalling: IEEE_UNDERFLOW_FLAG IEEE_DENORMAL
Note: The following floating-point exceptions are signalling: IEEE_UNDERFLOW_FLAG IEEE_DENORMAL
Note: The following floating-point exceptions are signalling: IEEE_UNDERFLOW_FLAG IEEE_DENORMAL
Note: The following floating-point exceptions are signalling: IEEE_UNDERFLOW_FLAG IEEE_DENORMAL
Note: The following floating-point exceptions are signalling: IEEE_UNDERFLOW_FLAG IEEE_DENORMAL
Note: The following floating-point exceptions are signalling: IEEE_UNDERFLOW_FLAG IEEE_DENORMAL
Note: The following floating-point exceptions are signalling: IEEE_UNDERFLOW_FLAG IEEE_DENORMAL
Note: The following floating-point exceptions are signalling: IEEE_UNDERFLOW_FLAG IEEE_DENORMAL
Note: The following floating-point exceptions are signalling: IEEE_UNDERFLOW_FLAG IEEE_DENORMAL
Note: The following floating-point exceptions are signalling: IEEE_UNDERFLOW_FLAG IEEE_DENORMAL
Note: The following floating-point exceptions are signalling: IEEE_UNDERFLOW_FLAG IEEE_DENORMAL
Note: The following floating-point exceptions are signalling: IEEE_UNDERFLOW_FLAG IEEE_DENORMAL
Note: The following floating-point exceptions are signalling: IEEE_UNDERFLOW_FLAG IEEE_DENORMAL
Note: The following floating-point exceptions are signalling: IEEE_UNDERFLOW_FLAG IEEE_DENORMAL
Note: The following floating-point exceptions are signalling: IEEE_UNDERFLOW_FLAG IEEE_DENORMAL
Note: The following floating-point exceptions are signalling: IEEE_UNDERFLOW_FLAG IEEE_DENORMAL
Note: The following floating-point exceptions are signalling: IEEE_UNDERFLOW_FLAG IEEE_DENORMAL
Note: The following floating-point exceptions are signalling: IEEE_UNDERFLOW_FLAG IEEE_DENORMAL
Note: The following floating-point exceptions are signalling: IEEE_UNDERFLOW_FLAG IEEE_DENORMAL
Note: The following floating-point exceptions are signalling: IEEE_UNDERFLOW_FLAG IEEE_DENORMAL
Note: The following floating-point exceptions are signalling: IEEE_UNDERFLOW_FLAG IEEE_DENORMAL
Note: The following floating-point exceptions are signalling: IEEE_UNDERFLOW_FLAG IEEE_DENORMAL
Note: The following floating-point exceptions are signalling: IEEE_UNDERFLOW_FLAG IEEE_DENORMAL
Note: The following floating-point exceptions are signalling: IEEE_UNDERFLOW_FLAG IEEE_DENORMAL
Note: The following floating-point exceptions are signalling: IEEE_UNDERFLOW_FLAG IEEE_DENORMAL
Note: The following floating-point exceptions are signalling: IEEE_UNDERFLOW_FLAG IEEE_DENORMAL
Note: The following floating-point exceptions are signalling: IEEE_UNDERFLOW_FLAG IEEE_DENORMAL