     Program PWSCF v.7.0 starts on 29Aug2025 at  9: 2: 3

     K-points division:     npool     =       8
     R & G space division:  proc/nbgrp/npool/nimage =       4

     Reading input from /home/jvc/QEspresso7.2/ZnO_database/scripts/cell122.in/ZnO-3.40-1.52-122.in
Warning: card &CELL ignored
Warning: card / ignored
Warning: card &FCP ignored
Warning: card / ignored
Warning: card &RISM ignored
Warning: card / ignored

     Current dimensions of program PWSCF are:
     Max number of different atomic species (ntypx) = 10
     Max number of k-points (npk) =  40000
     Max angular momentum in pseudopotentials (lmaxx) =  4
     file Zn.upf: wavefunction(s)  3D renormalized
     Found identity + (  0.0000  0.0000  0.5000) symmetry
     This is a supercell, fractional translations are disabled
     Message from routine setup:
     using ibrav=0 with symmetry is DISCOURAGED, use correct ibrav instead

     Using Slab Decomposition

     bravais-lattice index     =            0
     lattice parameter (alat)  =       6.4260  a.u.
     unit-cell volume          =    1394.8973 (a.u.)^3
     number of atoms/cell      =           16
     number of atomic types    =            2
     number of electrons       =       144.00
     number of Kohn-Sham states=           72
     kinetic-energy cutoff     =      50.0000  Ry
     charge density cutoff     =     400.0000  Ry
     scf convergence threshold =      1.0E-08
     mixing beta               =       0.3000
     number of iterations used =            8  plain     mixing
     Exchange-correlation= PBE
                           (   1   4   3   4   0   0   0)

     celldm(1)=   6.426008  celldm(2)=   0.000000  celldm(3)=   0.000000
     celldm(4)=   0.000000  celldm(5)=   0.000000  celldm(6)=   0.000000

     crystal axes: (cart. coord. in units of alat)
               a(1) = (   1.000000   0.000000   0.000000 )
               a(2) = (  -1.000000   1.732051   0.000000 )
               a(3) = (   0.000000   0.000000   3.034994 )

     reciprocal axes: (cart. coord. in units 2 pi/alat)
               b(1) = (  1.000000  0.577350 -0.000000 )
               b(2) = (  0.000000  0.577350  0.000000 )
               b(3) = (  0.000000 -0.000000  0.329490 )

     PseudoPot. # 1 for Zn read from file:
     /home/jvc/QEspresso7.2/ZnO_database/pseudos/Zn.upf
     MD5 check sum: 7f56cabf9682ed8c977c2f7d0c5985c5
     Pseudo is Ultrasoft + core correction, Zval = 12.0
     Generated using &quot;atomic&quot; code by A. Dal Corso  v.6.2.2
     Using radial grid of 1201 points,  6 beta functions with:
                l(1) =   0
                l(2) =   0
                l(3) =   1
                l(4) =   1
                l(5) =   2
                l(6) =   2
     Q(r) pseudized with 0 coefficients

     PseudoPot. # 2 for O  read from file:
     /home/jvc/QEspresso7.2/ZnO_database/pseudos/O.upf
     MD5 check sum: 91400c9766925bcf19f520983a725ff0
     Pseudo is Ultrasoft + core correction, Zval =  6.0
     Generated using &quot;atomic&quot; code by A. Dal Corso  v.6.3MaX
     Using radial grid of 1095 points,  4 beta functions with:
                l(1) =   0
                l(2) =   0
                l(3) =   1
                l(4) =   1
     Q(r) pseudized with 0 coefficients

     atomic species   valence    mass     pseudopotential
        Zn            12.00    65.38000     Zn( 1.00)
        O              6.00    15.99900     O ( 1.00)

      2 Sym. Ops. (no inversion) found

                                    s                        frac. trans.

      isym =  1     identity

 cryst.   s( 1) = (     1          0          0      )
                  (     0          1          0      )
                  (     0          0          1      )

 cart.    s( 1) = (  1.0000000  0.0000000  0.0000000 )
                  (  0.0000000  1.0000000  0.0000000 )
                  (  0.0000000  0.0000000  1.0000000 )

      isym =  2     inv. 180 deg rotation - cart. axis [1,0,0]

 cryst.   s( 2) = (    -1          0          0      )
                  (     2          1          0      )
                  (     0          0          1      )

 cart.    s( 2) = ( -1.0000000  0.0000000  0.0000000 )
                  (  0.0000000  1.0000000  0.0000000 )
                  (  0.0000000  0.0000000  1.0000000 )

   Cartesian axes

     site n.     atom                  positions (alat units)
         1           Zn  tau(   1) = (   0.5000000   0.2886751   0.7597099  )
         2           Zn  tau(   2) = (   0.0000000   0.5773503   0.0009615  )
         3           O   tau(   3) = (   0.5000000   0.2886751   1.3349062  )
         4           O   tau(   4) = (   0.0000000   0.5773503   0.5761578  )
         5           Zn  tau(   5) = (   0.5000000   0.2886751   2.2772067  )
         6           Zn  tau(   6) = (   0.0000000   0.5773503   1.5184583  )
         7           O   tau(   7) = (   0.5000000   0.2886751   2.8524030  )
         8           O   tau(   8) = (   0.0000000   0.5773503   2.0936546  )
         9           Zn  tau(   9) = (   0.0000000   1.1547005   0.7597099  )
        10           Zn  tau(  10) = (  -0.5000000   1.4433757   0.0009615  )
        11           O   tau(  11) = (   0.0000000   1.1547005   1.3349062  )
        12           O   tau(  12) = (  -0.5000000   1.4433757   0.5761578  )
        13           Zn  tau(  13) = (   0.0000000   1.1547005   2.2772067  )
        14           Zn  tau(  14) = (  -0.5000000   1.4433757   1.5184583  )
        15           O   tau(  15) = (   0.0000000   1.1547005   2.8524030  )
        16           O   tau(  16) = (  -0.5000000   1.4433757   2.0936546  )

   Crystallographic axes

     site n.     atom                  positions (cryst. coord.)
         1           Zn  tau(   1) = (  0.6666667  0.1666667  0.2503168  )
         2           Zn  tau(   2) = (  0.3333333  0.3333333  0.0003168  )
         3           O   tau(   3) = (  0.6666667  0.1666667  0.4398382  )
         4           O   tau(   4) = (  0.3333333  0.3333333  0.1898382  )
         5           Zn  tau(   5) = (  0.6666667  0.1666667  0.7503168  )
         6           Zn  tau(   6) = (  0.3333333  0.3333333  0.5003168  )
         7           O   tau(   7) = (  0.6666667  0.1666667  0.9398382  )
         8           O   tau(   8) = (  0.3333333  0.3333333  0.6898382  )
         9           Zn  tau(   9) = (  0.6666667  0.6666667  0.2503168  )
        10           Zn  tau(  10) = (  0.3333333  0.8333333  0.0003168  )
        11           O   tau(  11) = (  0.6666667  0.6666667  0.4398382  )
        12           O   tau(  12) = (  0.3333333  0.8333333  0.1898382  )
        13           Zn  tau(  13) = (  0.6666667  0.6666667  0.7503168  )
        14           Zn  tau(  14) = (  0.3333333  0.8333333  0.5003168  )
        15           O   tau(  15) = (  0.6666667  0.6666667  0.9398382  )
        16           O   tau(  16) = (  0.3333333  0.8333333  0.6898382  )

     number of k points=    80
                       cart. coord. in units 2pi/alat
        k(    1) = (   0.0000000   0.0000000   0.0000000), wk =   0.0092593
        k(    2) = (   0.0000000   0.0000000   0.0549150), wk =   0.0185185
        k(    3) = (   0.0000000   0.0000000   0.1098300), wk =   0.0185185
        k(    4) = (   0.0000000   0.0000000  -0.1647450), wk =   0.0092593
        k(    5) = (   0.0000000   0.0962250   0.0000000), wk =   0.0185185
        k(    6) = (   0.0000000   0.0962250   0.0549150), wk =   0.0185185
        k(    7) = (   0.0000000   0.0962250   0.1098300), wk =   0.0185185
        k(    8) = (   0.0000000   0.0962250  -0.1647450), wk =   0.0185185
        k(    9) = (   0.0000000   0.1924501   0.0000000), wk =   0.0185185
        k(   10) = (   0.0000000   0.1924501   0.0549150), wk =   0.0185185
        k(   11) = (   0.0000000   0.1924501   0.1098300), wk =   0.0185185
        k(   12) = (   0.0000000   0.1924501  -0.1647450), wk =   0.0185185
        k(   13) = (   0.0000000  -0.2886751   0.0000000), wk =   0.0092593
        k(   14) = (   0.0000000  -0.2886751   0.0549150), wk =   0.0185185
        k(   15) = (   0.0000000  -0.2886751   0.1098300), wk =   0.0185185
        k(   16) = (   0.0000000  -0.2886751  -0.1647450), wk =   0.0092593
        k(   17) = (   0.1666667   0.0962250   0.0000000), wk =   0.0370370
        k(   18) = (   0.1666667   0.0962250   0.0549150), wk =   0.0370370
        k(   19) = (   0.1666667   0.0962250   0.1098300), wk =   0.0370370
        k(   20) = (   0.1666667   0.0962250  -0.1647450), wk =   0.0370370
        k(   21) = (   0.1666667   0.1924501   0.0000000), wk =   0.0370370
        k(   22) = (   0.1666667   0.1924501   0.0549150), wk =   0.0370370
        k(   23) = (   0.1666667   0.1924501   0.1098300), wk =   0.0370370
        k(   24) = (   0.1666667   0.1924501  -0.1647450), wk =   0.0370370
        k(   25) = (   0.1666667   0.2886751   0.0000000), wk =   0.0185185
        k(   26) = (   0.1666667   0.2886751   0.0549150), wk =   0.0370370
        k(   27) = (   0.1666667   0.2886751   0.1098300), wk =   0.0370370
        k(   28) = (   0.1666667   0.2886751  -0.1647450), wk =   0.0185185
        k(   29) = (   0.1666667   0.0000000   0.0000000), wk =   0.0185185
        k(   30) = (   0.1666667   0.0000000   0.0549150), wk =   0.0370370
        k(   31) = (   0.1666667   0.0000000   0.1098300), wk =   0.0370370
        k(   32) = (   0.1666667   0.0000000  -0.1647450), wk =   0.0185185
        k(   33) = (   0.3333333   0.1924501   0.0000000), wk =   0.0370370
        k(   34) = (   0.3333333   0.1924501   0.0549150), wk =   0.0370370
        k(   35) = (   0.3333333   0.1924501   0.1098300), wk =   0.0370370
        k(   36) = (   0.3333333   0.1924501  -0.1647450), wk =   0.0370370
        k(   37) = (   0.3333333   0.2886751   0.0000000), wk =   0.0185185
        k(   38) = (   0.3333333   0.2886751   0.0549150), wk =   0.0370370
        k(   39) = (   0.3333333   0.2886751   0.1098300), wk =   0.0370370
        k(   40) = (   0.3333333   0.2886751  -0.1647450), wk =   0.0185185
        k(   41) = (   0.3333333  -0.0962250   0.0000000), wk =   0.0370370
        k(   42) = (   0.3333333  -0.0962250   0.0549150), wk =   0.0370370
        k(   43) = (   0.3333333  -0.0962250   0.1098300), wk =   0.0370370
        k(   44) = (   0.3333333  -0.0962250  -0.1647450), wk =   0.0370370
        k(   45) = (   0.3333333  -0.0000000   0.0000000), wk =   0.0185185
        k(   46) = (   0.3333333  -0.0000000   0.0549150), wk =   0.0370370
        k(   47) = (   0.3333333  -0.0000000   0.1098300), wk =   0.0370370
        k(   48) = (   0.3333333  -0.0000000  -0.1647450), wk =   0.0185185
        k(   49) = (  -0.5000000  -0.2886751   0.0000000), wk =   0.0092593
        k(   50) = (  -0.5000000  -0.2886751   0.0549150), wk =   0.0185185
        k(   51) = (  -0.5000000  -0.2886751   0.1098300), wk =   0.0185185
        k(   52) = (  -0.5000000  -0.2886751  -0.1647450), wk =   0.0092593
        k(   53) = (  -0.5000000  -0.1924501   0.0000000), wk =   0.0185185
        k(   54) = (  -0.5000000  -0.1924501   0.0549150), wk =   0.0185185
        k(   55) = (  -0.5000000  -0.1924501   0.1098300), wk =   0.0185185
[...]

     Check: negative core charge=   -0.000002

     Initial potential from superposition of free atoms

     starting charge     143.9702, renormalised to     144.0000
     Starting wfcs are  104 randomized atomic wfcs

     Self-consistent Calculation

     iteration #  1     ecut=    50.00 Ry     beta= 0.30
     Davidson diagonalization with overlap

     ethr =  1.00E-02,  avg # of iterations =  1.9

     total energy              =   -1445.84703312 Ry
     estimated scf accuracy    <       2.87251176 Ry

[...]

     c_bands:  1 eigenvalues not converged
     ethr =  1.80E-04,  avg # of iterations = 12.3

[...]

     c_bands:  1 eigenvalues not converged
     c_bands:  1 eigenvalues not converged
     c_bands:  1 eigenvalues not converged
     c_bands:  1 eigenvalues not converged
     ethr =  1.32E-08,  avg # of iterations = 15.1

[...]

     total energy              =   -1446.51492628 Ry
     estimated scf accuracy    <       0.00000011 Ry

     iteration # 31     ecut=    50.00 Ry     beta= 0.30
     Davidson diagonalization with overlap

     ethr =  5.69E-11,  avg # of iterations =  4.3

     End of self-consistent calculation

          k = 0.0000 0.0000 0.0000 (  8337 PWs)   bands (ev):

   -11.3855 -11.0482 -11.0481 -10.8358 -10.7178 -10.7177 -10.6992 -10.6220
     0.4509   0.4509   0.5702   0.5702   0.6198   0.7809   0.7819   0.7821
     0.8444   0.8445   0.8446   0.8446   0.9522   0.9631   0.9805   0.9806
     1.1735   1.1827   1.1828   1.1982   1.1983   1.2800   1.2909   1.4847
     1.6859   1.6859   1.7374   1.8204   1.8204   1.8204   1.8204   1.8366
     1.8610   1.8610   1.8945   1.8945   1.9347   1.9498   1.9498   1.9799
     2.0873   2.5294   2.5652   2.5652   2.9288   3.5007   3.9090   4.0259
     4.0260   4.7087   4.7088   4.9658   5.0245   5.0246   5.2018   5.2021
     5.4037   5.6349   5.6349   5.6352   5.6353   6.0470   6.0473   6.0878

     occupation numbers
     1.0000   1.0000   1.0000   1.0000   1.0000   1.0000   1.0000   1.0000
     1.0000   1.0000   1.0000   1.0000   1.0000   1.0000   1.0000   1.0000
     1.0000   1.0000   1.0000   1.0000   1.0000   1.0000   1.0000   1.0000
     1.0000   1.0000   1.0000   1.0000   1.0000   1.0000   1.0000   1.0000
     1.0000   1.0000   1.0000   1.0000   1.0000   1.0000   1.0000   1.0000
     1.0000   1.0000   1.0000   1.0000   1.0000   1.0000   1.0000   1.0000
     1.0000   1.0000   1.0000   1.0000   1.0000   1.0000   1.0000   1.0000
     1.0000   1.0000   1.0000   1.0000   1.0000   1.0000   1.0000   1.0000
     1.0000   1.0000   1.0000   1.0000   1.0000   1.0000   1.0000   1.0000

[...]

          k =-0.5000-0.2887 0.0000 (  8368 PWs)   bands (ev):

[...]

          k =-0.3333-0.0962-0.1098 (  8328 PWs)   bands (ev):

[...]

          k = 0.5000-0.0962-0.1098 (  8334 PWs)   bands (ev):

   -10.8241 -10.8240 -10.7778 -10.7778 -10.6656 -10.6656 -10.6303 -10.6303
     0.5745   0.5745   0.6665   0.6665   0.6703   0.6703   0.8607   0.8607
     0.9949   0.9949   0.9970   0.9970   1.1270   1.1270   1.1499   1.1499
     1.2524   1.2524   1.3074   1.3074   1.3541   1.3541   1.4473   1.4473
     1.7090   1.7090   1.7720   1.7720   1.8041   1.8041   1.8238   1.8238
     1.9346   1.9346   1.9472   1.9472   2.0453   2.0453   2.0831   2.0831
     2.4833   2.4833   2.6011   2.6011   2.9220   2.9220   3.0364   3.0364
     3.5216   3.5216   3.8419   3.8419   4.0166   4.0166   4.5585   4.5585
     4.7306   4.7306   4.9782   4.9782   5.1358   5.1358   5.2729   5.2729

     occupation numbers
     1.0000   1.0000   1.0000   1.0000   1.0000   1.0000   1.0000   1.0000
     1.0000   1.0000   1.0000   1.0000   1.0000   1.0000   1.0000   1.0000
     1.0000   1.0000   1.0000   1.0000   1.0000   1.0000   1.0000   1.0000
     1.0000   1.0000   1.0000   1.0000   1.0000   1.0000   1.0000   1.0000
     1.0000   1.0000   1.0000   1.0000   1.0000   1.0000   1.0000   1.0000
     1.0000   1.0000   1.0000   1.0000   1.0000   1.0000   1.0000   1.0000
     1.0000   1.0000   1.0000   1.0000   1.0000   1.0000   1.0000   1.0000
     1.0000   1.0000   1.0000   1.0000   1.0000   1.0000   1.0000   1.0000
     1.0000   1.0000   1.0000   1.0000   1.0000   1.0000   1.0000   1.0000

     highest occupied level (ev):     6.0878

!    total energy              =   -1446.51492631 Ry
     estimated scf accuracy    <          2.7E-09 Ry

     The total energy is the sum of the following terms:
     one-electron contribution =    -645.88345006 Ry
     hartree contribution      =     483.43051565 Ry
     xc contribution           =    -437.76540154 Ry
     ewald contribution        =    -846.29659036 Ry

     convergence has been achieved in  31 iterations

     Forces acting on atoms (cartesian axes, Ry/au):

     atom    1 type  1   force =     0.00000000   -0.00001549   -0.01714070
     atom    2 type  1   force =     0.00000000    0.00000484   -0.01713680
     atom    3 type  2   force =     0.00000000    0.00000067    0.01713052
     atom    4 type  2   force =     0.00000000   -0.00000326    0.01712955
     atom    5 type  1   force =     0.00000000    0.00001042   -0.01712835
     atom    6 type  1   force =     0.00000000    0.00000800   -0.01712161
     atom    7 type  2   force =     0.00000000    0.00000205    0.01713387
     atom    8 type  2   force =     0.00000000   -0.00000054    0.01713367
     atom    9 type  1   force =     0.00000000    0.00000388   -0.01713850
     atom   10 type  1   force =     0.00000000    0.00000528   -0.01712599
     atom   11 type  2   force =     0.00000000    0.00000232    0.01713097
     atom   12 type  2   force =     0.00000000   -0.00000105    0.01712960
     atom   13 type  1   force =     0.00000000   -0.00001627   -0.01712828
     atom   14 type  1   force =     0.00000000    0.00000146   -0.01713513
     atom   15 type  2   force =     0.00000000    0.00000107    0.01713295
     atom   16 type  2   force =     0.00000000   -0.00000340    0.01713423
     The non-local contrib.  to forces
     atom    1 type  1   force =     0.00000000    0.00000737   -0.17892372
     atom    2 type  1   force =     0.00000000   -0.00000866   -0.17892378
     atom    3 type  2   force =     0.00000000    0.00019668   -0.14213645
     atom    4 type  2   force =     0.00000000   -0.00019696   -0.14213946
     atom    5 type  1   force =     0.00000000    0.00000983   -0.17891219
     atom    6 type  1   force =     0.00000000   -0.00000785   -0.17891423
     atom    7 type  2   force =     0.00000000    0.00019674   -0.14213340
     atom    8 type  2   force =     0.00000000   -0.00019712   -0.14213181
     atom    9 type  1   force =     0.00000000    0.00000939   -0.17892424
     atom   10 type  1   force =     0.00000000   -0.00000750   -0.17892085
     atom   11 type  2   force =     0.00000000    0.00019799   -0.14213664
     atom   12 type  2   force =     0.00000000   -0.00019791   -0.14213813
     atom   13 type  1   force =     0.00000000    0.00000713   -0.17891215
     atom   14 type  1   force =     0.00000000   -0.00000825   -0.17891682
     atom   15 type  2   force =     0.00000000    0.00019735   -0.14213144
     atom   16 type  2   force =     0.00000000   -0.00019730   -0.14213226
     The ionic contribution  to forces
     atom    1 type  1   force =    -0.00000000    0.00000000   -1.16684464
     atom    2 type  1   force =     0.00000000   -0.00000000   -1.16684464
     atom    3 type  2   force =    -0.00000000    0.00000000    1.16684464
     atom    4 type  2   force =     0.00000000   -0.00000000    1.16684464
     atom    5 type  1   force =    -0.00000000    0.00000000   -1.16684464
     atom    6 type  1   force =     0.00000000   -0.00000000   -1.16684464
     atom    7 type  2   force =    -0.00000000    0.00000000    1.16684464
     atom    8 type  2   force =     0.00000000   -0.00000000    1.16684464
     atom    9 type  1   force =    -0.00000000    0.00000000   -1.16684464
     atom   10 type  1   force =     0.00000000   -0.00000000   -1.16684464
     atom   11 type  2   force =    -0.00000000    0.00000000    1.16684464
     atom   12 type  2   force =     0.00000000   -0.00000000    1.16684464
     atom   13 type  1   force =    -0.00000000    0.00000000   -1.16684464
     atom   14 type  1   force =     0.00000000   -0.00000000   -1.16684464
     atom   15 type  2   force =    -0.00000000    0.00000000    1.16684464
     atom   16 type  2   force =     0.00000000   -0.00000000    1.16684464
     The local contribution  to forces
     atom    1 type  1   force =    -0.00000009   -0.00000708    1.31590292
     atom    2 type  1   force =    -0.00000000    0.00001961    1.31589195
     atom    3 type  2   force =    -0.00000002   -0.00019389   -1.00868147
     atom    4 type  2   force =     0.00000000    0.00019602   -1.00868372
     atom    5 type  1   force =    -0.00000009   -0.00003730    1.31588905
     atom    6 type  1   force =    -0.00000000    0.00001537    1.31587962
     atom    7 type  2   force =    -0.00000002   -0.00019521   -1.00868682
     atom    8 type  2   force =    -0.00000000    0.00019439   -1.00868935
     atom    9 type  1   force =    -0.00000009   -0.00003116    1.31590148
     atom   10 type  1   force =    -0.00000000    0.00001831    1.31587466
     atom   11 type  2   force =    -0.00000002   -0.00019603   -1.00868247
     atom   12 type  2   force =    -0.00000000    0.00019417   -1.00868880
     atom   13 type  1   force =    -0.00000009   -0.00000298    1.31588589
     atom   14 type  1   force =    -0.00000000    0.00002247    1.31590205
     atom   15 type  2   force =    -0.00000002   -0.00019424   -1.00868967
     atom   16 type  2   force =    -0.00000000    0.00019410   -1.00868608
     The core correction contribution to forces
     atom    1 type  1   force =    -0.00000007    0.00000389    0.01275135
     atom    2 type  1   force =    -0.00000001   -0.00000410    0.01275216
     atom    3 type  2   force =    -0.00000000   -0.00000226    0.00110659
     atom    4 type  2   force =    -0.00000000    0.00000222    0.00110762
     atom    5 type  1   force =    -0.00000007    0.00000485    0.01274768
     atom    6 type  1   force =    -0.00000001   -0.00000402    0.01274813
     atom    7 type  2   force =    -0.00000000   -0.00000225    0.00110505
     atom    8 type  2   force =    -0.00000000    0.00000223    0.00110403
     atom    9 type  1   force =    -0.00000000    0.00000451    0.01275137
     atom   10 type  1   force =     0.00000006   -0.00000430    0.01275265
     atom   11 type  2   force =     0.00000000   -0.00000224    0.00110658
     atom   12 type  2   force =     0.00000000    0.00000228    0.00110758
     atom   13 type  1   force =    -0.00000000    0.00000348    0.01274790
     atom   14 type  1   force =     0.00000005   -0.00000440    0.01274735
     atom   15 type  2   force =     0.00000000   -0.00000223    0.00110503
     atom   16 type  2   force =     0.00000000    0.00000225    0.00110405
     The Hubbard contrib.    to forces
     atom    1 type  1   force =     0.00000000    0.00000000    0.00000000
     atom    2 type  1   force =     0.00000000    0.00000000    0.00000000
     atom    3 type  2   force =     0.00000000    0.00000000    0.00000000
     atom    4 type  2   force =     0.00000000    0.00000000    0.00000000
     atom    5 type  1   force =     0.00000000    0.00000000    0.00000000
     atom    6 type  1   force =     0.00000000    0.00000000    0.00000000
     atom    7 type  2   force =     0.00000000    0.00000000    0.00000000
     atom    8 type  2   force =     0.00000000    0.00000000    0.00000000
     atom    9 type  1   force =     0.00000000    0.00000000    0.00000000
     atom   10 type  1   force =     0.00000000    0.00000000    0.00000000
     atom   11 type  2   force =     0.00000000    0.00000000    0.00000000
     atom   12 type  2   force =     0.00000000    0.00000000    0.00000000
     atom   13 type  1   force =     0.00000000    0.00000000    0.00000000
     atom   14 type  1   force =     0.00000000    0.00000000    0.00000000
     atom   15 type  2   force =     0.00000000    0.00000000    0.00000000
     atom   16 type  2   force =     0.00000000    0.00000000    0.00000000
     The SCF correction term to forces
     atom    1 type  1   force =    -0.00000000   -0.00001931   -0.00003087
     atom    2 type  1   force =     0.00000000   -0.00000166   -0.00001674
     atom    3 type  2   force =    -0.00000000    0.00000049   -0.00000706
     atom    4 type  2   force =    -0.00000000   -0.00000418   -0.00000378
     atom    5 type  1   force =    -0.00000000    0.00003339   -0.00001251
     atom    6 type  1   force =     0.00000000    0.00000485    0.00000524
     atom    7 type  2   force =    -0.00000000    0.00000312    0.00000013
     atom    8 type  2   force =    -0.00000000    0.00000031    0.00000190
     atom    9 type  1   force =    -0.00000000    0.00002148   -0.00002673
     atom   10 type  1   force =     0.00000000   -0.00000088    0.00000793
     atom   11 type  2   force =     0.00000000    0.00000295   -0.00000541
     atom   12 type  2   force =     0.00000000    0.00000077    0.00000005
     atom   13 type  1   force =    -0.00000000   -0.00002356   -0.00000954
     atom   14 type  1   force =     0.00000000   -0.00000802   -0.00002734
     atom   15 type  2   force =     0.00000000    0.00000054    0.00000013
     atom   16 type  2   force =     0.00000000   -0.00000210   -0.00000038

     Total force =     0.068528     Total SCF correction =     0.000076

     General routines

     Parallel routines

   This run was terminated on:   9:16:32  29Aug2025

   JOB DONE.
Note: The following floating-point exceptions are signalling: IEEE_UNDERFLOW_FLAG IEEE_DENORMAL
Note: The following floating-point exceptions are signalling: IEEE_UNDERFLOW_FLAG IEEE_DENORMAL
Note: The following floating-point exceptions are signalling: IEEE_UNDERFLOW_FLAG IEEE_DENORMAL
Note: The following floating-point exceptions are signalling: IEEE_UNDERFLOW_FLAG IEEE_DENORMAL
Note: The following floating-point exceptions are signalling: IEEE_UNDERFLOW_FLAG IEEE_DENORMAL
Note: The following floating-point exceptions are signalling: IEEE_UNDERFLOW_FLAG IEEE_DENORMAL
Note: The following floating-point exceptions are signalling: IEEE_UNDERFLOW_FLAG IEEE_DENORMAL
Note: The following floating-point exceptions are signalling: IEEE_UNDERFLOW_FLAG IEEE_DENORMAL
Note: The following floating-point exceptions are signalling: IEEE_UNDERFLOW_FLAG IEEE_DENORMAL
Note: The following floating-point exceptions are signalling: IEEE_UNDERFLOW_FLAG IEEE_DENORMAL
Note: The following floating-point exceptions are signalling: IEEE_UNDERFLOW_FLAG IEEE_DENORMAL
Note: The following floating-point exceptions are signalling: IEEE_UNDERFLOW_FLAG IEEE_DENORMAL
Note: The following floating-point exceptions are signalling: IEEE_UNDERFLOW_FLAG IEEE_DENORMAL
Note: The following floating-point exceptions are signalling: IEEE_UNDERFLOW_FLAG IEEE_DENORMAL
Note: The following floating-point exceptions are signalling: IEEE_UNDERFLOW_FLAG IEEE_DENORMAL
Note: The following floating-point exceptions are signalling: IEEE_UNDERFLOW_FLAG IEEE_DENORMAL
Note: The following floating-point exceptions are signalling: IEEE_UNDERFLOW_FLAG IEEE_DENORMAL
Note: The following floating-point exceptions are signalling: IEEE_UNDERFLOW_FLAG IEEE_DENORMAL
Note: The following floating-point exceptions are signalling: IEEE_UNDERFLOW_FLAG IEEE_DENORMAL
Note: The following floating-point exceptions are signalling: IEEE_UNDERFLOW_FLAG IEEE_DENORMAL
Note: The following floating-point exceptions are signalling: IEEE_UNDERFLOW_FLAG IEEE_DENORMAL
Note: The following floating-point exceptions are signalling: IEEE_UNDERFLOW_FLAG IEEE_DENORMAL
Note: The following floating-point exceptions are signalling: IEEE_UNDERFLOW_FLAG IEEE_DENORMAL
Note: The following floating-point exceptions are signalling: IEEE_UNDERFLOW_FLAG IEEE_DENORMAL
Note: The following floating-point exceptions are signalling: IEEE_UNDERFLOW_FLAG IEEE_DENORMAL
Note: The following floating-point exceptions are signalling: IEEE_UNDERFLOW_FLAG IEEE_DENORMAL
Note: The following floating-point exceptions are signalling: IEEE_UNDERFLOW_FLAG IEEE_DENORMAL
Note: The following floating-point exceptions are signalling: IEEE_UNDERFLOW_FLAG IEEE_DENORMAL
Note: The following floating-point exceptions are signalling: IEEE_UNDERFLOW_FLAG IEEE_DENORMAL
Note: The following floating-point exceptions are signalling: IEEE_UNDERFLOW_FLAG IEEE_DENORMAL
Note: The following floating-point exceptions are signalling: IEEE_UNDERFLOW_FLAG IEEE_DENORMAL
Note: The following floating-point exceptions are signalling: IEEE_UNDERFLOW_FLAG IEEE_DENORMAL