     Program PWSCF v.7.0 starts on 29Aug2025 at 10: 3:12

     K-points division:     npool     =       8
     R & G space division:  proc/nbgrp/npool/nimage =       4

     Reading input from /home/jvc/QEspresso7.2/ZnO_database/scripts/cell122.in/ZnO-3.40-1.65-122.in
Warning: card &CELL ignored
Warning: card / ignored
Warning: card &FCP ignored
Warning: card / ignored
Warning: card &RISM ignored
Warning: card / ignored

     Current dimensions of program PWSCF are:
     Max number of different atomic species (ntypx) = 10
     Max number of k-points (npk) =  40000
     Max angular momentum in pseudopotentials (lmaxx) =  4
     file Zn.upf: wavefunction(s)  3D renormalized
     Found identity + (  0.0000  0.0000  0.5000) symmetry
     This is a supercell, fractional translations are disabled
     Message from routine setup:
     using ibrav=0 with symmetry is DISCOURAGED, use correct ibrav instead

     Using Slab Decomposition

     bravais-lattice index     =            0
     lattice parameter (alat)  =       6.4260  a.u.
     unit-cell volume          =    1513.6120 (a.u.)^3
     number of atoms/cell      =           16
     number of atomic types    =            2
     number of electrons       =       144.00
     number of Kohn-Sham states=           72
     kinetic-energy cutoff     =      50.0000  Ry
     charge density cutoff     =     400.0000  Ry
     scf convergence threshold =      1.0E-08
     mixing beta               =       0.3000
     number of iterations used =            8  plain     mixing
     Exchange-correlation= PBE
                           (   1   4   3   4   0   0   0)

     celldm(1)=   6.426008  celldm(2)=   0.000000  celldm(3)=   0.000000
     celldm(4)=   0.000000  celldm(5)=   0.000000  celldm(6)=   0.000000

     crystal axes: (cart. coord. in units of alat)
               a(1) = (   1.000000   0.000000   0.000000 )
               a(2) = (  -1.000000   1.732051   0.000000 )
               a(3) = (   0.000000   0.000000   3.293291 )

     reciprocal axes: (cart. coord. in units 2 pi/alat)
               b(1) = (  1.000000  0.577350 -0.000000 )
               b(2) = (  0.000000  0.577350  0.000000 )
               b(3) = (  0.000000 -0.000000  0.303648 )

     PseudoPot. # 1 for Zn read from file:
     /home/jvc/QEspresso7.2/ZnO_database/pseudos/Zn.upf
     MD5 check sum: 7f56cabf9682ed8c977c2f7d0c5985c5
     Pseudo is Ultrasoft + core correction, Zval = 12.0
     Generated using &quot;atomic&quot; code by A. Dal Corso  v.6.2.2
     Using radial grid of 1201 points,  6 beta functions with:
                l(1) =   0
                l(2) =   0
                l(3) =   1
                l(4) =   1
                l(5) =   2
                l(6) =   2
     Q(r) pseudized with 0 coefficients

     PseudoPot. # 2 for O  read from file:
     /home/jvc/QEspresso7.2/ZnO_database/pseudos/O.upf
     MD5 check sum: 91400c9766925bcf19f520983a725ff0
     Pseudo is Ultrasoft + core correction, Zval =  6.0
     Generated using &quot;atomic&quot; code by A. Dal Corso  v.6.3MaX
     Using radial grid of 1095 points,  4 beta functions with:
                l(1) =   0
                l(2) =   0
                l(3) =   1
                l(4) =   1
     Q(r) pseudized with 0 coefficients

     atomic species   valence    mass     pseudopotential
        Zn            12.00    65.38000     Zn( 1.00)
        O              6.00    15.99900     O ( 1.00)

      2 Sym. Ops. (no inversion) found

                                    s                        frac. trans.

      isym =  1     identity

 cryst.   s( 1) = (     1          0          0      )
                  (     0          1          0      )
                  (     0          0          1      )

 cart.    s( 1) = (  1.0000000  0.0000000  0.0000000 )
                  (  0.0000000  1.0000000  0.0000000 )
                  (  0.0000000  0.0000000  1.0000000 )

      isym =  2     inv. 180 deg rotation - cart. axis [1,0,0]

 cryst.   s( 2) = (    -1          0          0      )
                  (     2          1          0      )
                  (     0          0          1      )

 cart.    s( 2) = ( -1.0000000  0.0000000  0.0000000 )
                  (  0.0000000  1.0000000  0.0000000 )
                  (  0.0000000  0.0000000  1.0000000 )

   Cartesian axes

     site n.     atom                  positions (alat units)
         1           Zn  tau(   1) = (   0.5000000   0.2886751   0.8243661  )
         2           Zn  tau(   2) = (   0.0000000   0.5773503   0.0010433  )
         3           O   tau(   3) = (   0.5000000   0.2886751   1.4485152  )
         4           O   tau(   4) = (   0.0000000   0.5773503   0.6251925  )
         5           Zn  tau(   5) = (   0.5000000   0.2886751   2.4710116  )
         6           Zn  tau(   6) = (   0.0000000   0.5773503   1.6476888  )
         7           O   tau(   7) = (   0.5000000   0.2886751   3.0951608  )
         8           O   tau(   8) = (   0.0000000   0.5773503   2.2718380  )
         9           Zn  tau(   9) = (   0.0000000   1.1547005   0.8243661  )
        10           Zn  tau(  10) = (  -0.5000000   1.4433757   0.0010433  )
        11           O   tau(  11) = (   0.0000000   1.1547005   1.4485152  )
        12           O   tau(  12) = (  -0.5000000   1.4433757   0.6251925  )
        13           Zn  tau(  13) = (   0.0000000   1.1547005   2.4710116  )
        14           Zn  tau(  14) = (  -0.5000000   1.4433757   1.6476888  )
        15           O   tau(  15) = (   0.0000000   1.1547005   3.0951608  )
        16           O   tau(  16) = (  -0.5000000   1.4433757   2.2718380  )

   Crystallographic axes

     site n.     atom                  positions (cryst. coord.)
         1           Zn  tau(   1) = (  0.6666667  0.1666667  0.2503168  )
         2           Zn  tau(   2) = (  0.3333333  0.3333333  0.0003168  )
         3           O   tau(   3) = (  0.6666667  0.1666667  0.4398382  )
         4           O   tau(   4) = (  0.3333333  0.3333333  0.1898382  )
         5           Zn  tau(   5) = (  0.6666667  0.1666667  0.7503168  )
         6           Zn  tau(   6) = (  0.3333333  0.3333333  0.5003168  )
         7           O   tau(   7) = (  0.6666667  0.1666667  0.9398382  )
         8           O   tau(   8) = (  0.3333333  0.3333333  0.6898382  )
         9           Zn  tau(   9) = (  0.6666667  0.6666667  0.2503168  )
        10           Zn  tau(  10) = (  0.3333333  0.8333333  0.0003168  )
        11           O   tau(  11) = (  0.6666667  0.6666667  0.4398382  )
        12           O   tau(  12) = (  0.3333333  0.8333333  0.1898382  )
        13           Zn  tau(  13) = (  0.6666667  0.6666667  0.7503168  )
        14           Zn  tau(  14) = (  0.3333333  0.8333333  0.5003168  )
        15           O   tau(  15) = (  0.6666667  0.6666667  0.9398382  )
        16           O   tau(  16) = (  0.3333333  0.8333333  0.6898382  )

     number of k points=    80
                       cart. coord. in units 2pi/alat
        k(    1) = (   0.0000000   0.0000000   0.0000000), wk =   0.0092593
        k(    2) = (   0.0000000   0.0000000   0.0506079), wk =   0.0185185
        k(    3) = (   0.0000000   0.0000000   0.1012159), wk =   0.0185185
        k(    4) = (   0.0000000   0.0000000  -0.1518238), wk =   0.0092593
        k(    5) = (   0.0000000   0.0962250   0.0000000), wk =   0.0185185
        k(    6) = (   0.0000000   0.0962250   0.0506079), wk =   0.0185185
        k(    7) = (   0.0000000   0.0962250   0.1012159), wk =   0.0185185
        k(    8) = (   0.0000000   0.0962250  -0.1518238), wk =   0.0185185
        k(    9) = (   0.0000000   0.1924501   0.0000000), wk =   0.0185185
        k(   10) = (   0.0000000   0.1924501   0.0506079), wk =   0.0185185
        k(   11) = (   0.0000000   0.1924501   0.1012159), wk =   0.0185185
        k(   12) = (   0.0000000   0.1924501  -0.1518238), wk =   0.0185185
        k(   13) = (   0.0000000  -0.2886751   0.0000000), wk =   0.0092593
        k(   14) = (   0.0000000  -0.2886751   0.0506079), wk =   0.0185185
        k(   15) = (   0.0000000  -0.2886751   0.1012159), wk =   0.0185185
        k(   16) = (   0.0000000  -0.2886751  -0.1518238), wk =   0.0092593
        k(   17) = (   0.1666667   0.0962250   0.0000000), wk =   0.0370370
        k(   18) = (   0.1666667   0.0962250   0.0506079), wk =   0.0370370
        k(   19) = (   0.1666667   0.0962250   0.1012159), wk =   0.0370370
        k(   20) = (   0.1666667   0.0962250  -0.1518238), wk =   0.0370370
        k(   21) = (   0.1666667   0.1924501   0.0000000), wk =   0.0370370
        k(   22) = (   0.1666667   0.1924501   0.0506079), wk =   0.0370370
        k(   23) = (   0.1666667   0.1924501   0.1012159), wk =   0.0370370
        k(   24) = (   0.1666667   0.1924501  -0.1518238), wk =   0.0370370
        k(   25) = (   0.1666667   0.2886751   0.0000000), wk =   0.0185185
        k(   26) = (   0.1666667   0.2886751   0.0506079), wk =   0.0370370
        k(   27) = (   0.1666667   0.2886751   0.1012159), wk =   0.0370370
        k(   28) = (   0.1666667   0.2886751  -0.1518238), wk =   0.0185185
        k(   29) = (   0.1666667   0.0000000   0.0000000), wk =   0.0185185
        k(   30) = (   0.1666667   0.0000000   0.0506079), wk =   0.0370370
        k(   31) = (   0.1666667   0.0000000   0.1012159), wk =   0.0370370
        k(   32) = (   0.1666667   0.0000000  -0.1518238), wk =   0.0185185
        k(   33) = (   0.3333333   0.1924501   0.0000000), wk =   0.0370370
        k(   34) = (   0.3333333   0.1924501   0.0506079), wk =   0.0370370
        k(   35) = (   0.3333333   0.1924501   0.1012159), wk =   0.0370370
        k(   36) = (   0.3333333   0.1924501  -0.1518238), wk =   0.0370370
        k(   37) = (   0.3333333   0.2886751   0.0000000), wk =   0.0185185
        k(   38) = (   0.3333333   0.2886751   0.0506079), wk =   0.0370370
        k(   39) = (   0.3333333   0.2886751   0.1012159), wk =   0.0370370
        k(   40) = (   0.3333333   0.2886751  -0.1518238), wk =   0.0185185
        k(   41) = (   0.3333333  -0.0962250   0.0000000), wk =   0.0370370
        k(   42) = (   0.3333333  -0.0962250   0.0506079), wk =   0.0370370
        k(   43) = (   0.3333333  -0.0962250   0.1012159), wk =   0.0370370
        k(   44) = (   0.3333333  -0.0962250  -0.1518238), wk =   0.0370370
        k(   45) = (   0.3333333  -0.0000000   0.0000000), wk =   0.0185185
        k(   46) = (   0.3333333  -0.0000000   0.0506079), wk =   0.0370370
        k(   47) = (   0.3333333  -0.0000000   0.1012159), wk =   0.0370370
        k(   48) = (   0.3333333  -0.0000000  -0.1518238), wk =   0.0185185
        k(   49) = (  -0.5000000  -0.2886751   0.0000000), wk =   0.0092593
        k(   50) = (  -0.5000000  -0.2886751   0.0506079), wk =   0.0185185
        k(   51) = (  -0.5000000  -0.2886751   0.1012159), wk =   0.0185185
        k(   52) = (  -0.5000000  -0.2886751  -0.1518238), wk =   0.0092593
        k(   53) = (  -0.5000000  -0.1924501   0.0000000), wk =   0.0185185
        k(   54) = (  -0.5000000  -0.1924501   0.0506079), wk =   0.0185185
        k(   55) = (  -0.5000000  -0.1924501   0.1012159), wk =   0.0185185
[...]

     Check: negative core charge=   -0.000002

     Initial potential from superposition of free atoms

     starting charge     143.9702, renormalised to     144.0000
     Starting wfcs are  104 randomized atomic wfcs

     Self-consistent Calculation

     iteration #  1     ecut=    50.00 Ry     beta= 0.30
     Davidson diagonalization with overlap

     ethr =  1.00E-02,  avg # of iterations =  1.7

     total energy              =   -1445.75003295 Ry
     estimated scf accuracy    <       3.00689451 Ry

[...]

     c_bands:  1 eigenvalues not converged
     c_bands:  1 eigenvalues not converged
     c_bands:  1 eigenvalues not converged
     c_bands:  1 eigenvalues not converged
     ethr =  1.46E-06,  avg # of iterations = 14.3

[...]

     c_bands:  1 eigenvalues not converged
     ethr =  1.58E-09,  avg # of iterations = 13.3

[...]

     total energy              =   -1446.46079039 Ry
     estimated scf accuracy    <       0.00000045 Ry

     iteration # 48     ecut=    50.00 Ry     beta= 0.30
     Davidson diagonalization with overlap

     ethr =  1.41E-11,  avg # of iterations = 12.0

     End of self-consistent calculation

          k = 0.0000 0.0000 0.0000 (  9033 PWs)   bands (ev):

   -11.8996 -11.6664 -11.6664 -11.4233 -11.4154 -11.3386 -11.3386 -11.2695
    -0.1673  -0.1673  -0.1188  -0.0825  -0.0825  -0.0553  -0.0550  -0.0204
    -0.0028  -0.0028  -0.0026  -0.0026   0.0787   0.0788   0.1332   0.1394
     0.3055   0.3056   0.4202   0.4299   0.4495   0.4495   0.5061   0.5781
     0.7133   0.7133   0.7794   0.7915   0.7915   0.7915   0.7915   0.8314
     0.8457   0.8457   0.8463   0.8463   0.8802   0.9117   0.9117   0.9381
     1.1717   1.4988   1.5760   1.5760   1.9514   2.7099   2.8651   2.8651
     3.3397   3.8768   3.8768   3.8952   3.8952   3.9961   4.3792   4.4678
     4.4683   4.7602   4.7602   4.7607   4.7607   4.9599   5.0465   5.0470

     occupation numbers
     1.0000   1.0000   1.0000   1.0000   1.0000   1.0000   1.0000   1.0000
     1.0000   1.0000   1.0000   1.0000   1.0000   1.0000   1.0000   1.0000
     1.0000   1.0000   1.0000   1.0000   1.0000   1.0000   1.0000   1.0000
     1.0000   1.0000   1.0000   1.0000   1.0000   1.0000   1.0000   1.0000
     1.0000   1.0000   1.0000   1.0000   1.0000   1.0000   1.0000   1.0000
     1.0000   1.0000   1.0000   1.0000   1.0000   1.0000   1.0000   1.0000
     1.0000   1.0000   1.0000   1.0000   1.0000   1.0000   1.0000   1.0000
     1.0000   1.0000   1.0000   1.0000   1.0000   1.0000   1.0000   1.0000
     1.0000   1.0000   1.0000   1.0000   1.0000   1.0000   1.0000   1.0000

[...]

          k =-0.5000-0.2887 0.0000 (  9056 PWs)   bands (ev):

[...]

          k =-0.3333-0.0962-0.1012 (  9043 PWs)   bands (ev):

[...]

          k = 0.5000-0.0962-0.1012 (  9034 PWs)   bands (ev):

   -11.4089 -11.4089 -11.3791 -11.3791 -11.3024 -11.3024 -11.2763 -11.2763
    -0.0813  -0.0813  -0.0633  -0.0633   0.0162   0.0162   0.1088   0.1088
     0.1913   0.1913   0.2012   0.2012   0.3524   0.3524   0.3796   0.3796
     0.3976   0.3976   0.4252   0.4252   0.4809   0.4809   0.4947   0.4947
     0.7140   0.7140   0.7673   0.7673   0.7958   0.7958   0.8143   0.8143
     0.8966   0.8966   0.9072   0.9072   0.9936   0.9936   1.0363   1.0363
     1.6132   1.6132   1.6761   1.6761   1.9484   1.9484   2.0664   2.0664
     2.8190   2.8190   3.0863   3.0863   3.1526   3.1526   3.5378   3.5378
     3.7664   3.7664   3.9533   3.9533   4.1289   4.1289   4.1665   4.1665

     occupation numbers
     1.0000   1.0000   1.0000   1.0000   1.0000   1.0000   1.0000   1.0000
     1.0000   1.0000   1.0000   1.0000   1.0000   1.0000   1.0000   1.0000
     1.0000   1.0000   1.0000   1.0000   1.0000   1.0000   1.0000   1.0000
     1.0000   1.0000   1.0000   1.0000   1.0000   1.0000   1.0000   1.0000
     1.0000   1.0000   1.0000   1.0000   1.0000   1.0000   1.0000   1.0000
     1.0000   1.0000   1.0000   1.0000   1.0000   1.0000   1.0000   1.0000
     1.0000   1.0000   1.0000   1.0000   1.0000   1.0000   1.0000   1.0000
     1.0000   1.0000   1.0000   1.0000   1.0000   1.0000   1.0000   1.0000
     1.0000   1.0000   1.0000   1.0000   1.0000   1.0000   1.0000   1.0000

     highest occupied level (ev):     5.0470

!    total energy              =   -1446.46079047 Ry
     estimated scf accuracy    <          3.0E-10 Ry

     The total energy is the sum of the following terms:
     one-electron contribution =    -679.97404695 Ry
     hartree contribution      =     495.42708443 Ry
     xc contribution           =    -437.14221244 Ry
     ewald contribution        =    -824.77161550 Ry

     convergence has been achieved in  48 iterations

     Forces acting on atoms (cartesian axes, Ry/au):

     atom    1 type  1   force =     0.00000000   -0.00000029    0.00106108
     atom    2 type  1   force =     0.00000000    0.00000308    0.00106907
     atom    3 type  2   force =     0.00000000    0.00000402   -0.00106316
     atom    4 type  2   force =     0.00000000   -0.00000403   -0.00106314
     atom    5 type  1   force =     0.00000000   -0.00000565    0.00106436
     atom    6 type  1   force =     0.00000000    0.00000208    0.00105643
     atom    7 type  2   force =     0.00000000    0.00000440   -0.00106479
     atom    8 type  2   force =     0.00000000   -0.00000474   -0.00106446
     atom    9 type  1   force =     0.00000000   -0.00000349    0.00106440
     atom   10 type  1   force =     0.00000000    0.00000142    0.00107085
     atom   11 type  2   force =     0.00000000    0.00000449   -0.00106305
     atom   12 type  2   force =     0.00000000   -0.00000463   -0.00106354
     atom   13 type  1   force =     0.00000000    0.00000076    0.00106551
     atom   14 type  1   force =     0.00000000    0.00000193    0.00105937
     atom   15 type  2   force =     0.00000000    0.00000482   -0.00106467
     atom   16 type  2   force =     0.00000000   -0.00000416   -0.00106426
     The non-local contrib.  to forces
     atom    1 type  1   force =     0.00000000    0.00000741    0.04750167
     atom    2 type  1   force =     0.00000000   -0.00000681    0.04750936
     atom    3 type  2   force =     0.00000000    0.00021954    0.05655576
     atom    4 type  2   force =     0.00000000   -0.00022001    0.05655737
     atom    5 type  1   force =     0.00000000    0.00000725    0.04750913
     atom    6 type  1   force =     0.00000000   -0.00000740    0.04750228
     atom    7 type  2   force =     0.00000000    0.00022024    0.05655348
     atom    8 type  2   force =     0.00000000   -0.00022105    0.05655359
     atom    9 type  1   force =     0.00000000    0.00000714    0.04750299
     atom   10 type  1   force =     0.00000000   -0.00000727    0.04750995
     atom   11 type  2   force =     0.00000000    0.00022069    0.05655745
     atom   12 type  2   force =     0.00000000   -0.00021976    0.05655618
     atom   13 type  1   force =     0.00000000    0.00000720    0.04750950
     atom   14 type  1   force =     0.00000000   -0.00000702    0.04750258
     atom   15 type  2   force =     0.00000000    0.00022179    0.05655356
     atom   16 type  2   force =     0.00000000   -0.00021990    0.05655333
     The ionic contribution  to forces
     atom    1 type  1   force =    -0.00000000    0.00000000    0.42995591
     atom    2 type  1   force =     0.00000000   -0.00000000    0.42995591
     atom    3 type  2   force =    -0.00000000    0.00000000   -0.42995591
     atom    4 type  2   force =     0.00000000   -0.00000000   -0.42995591
     atom    5 type  1   force =    -0.00000000    0.00000000    0.42995591
     atom    6 type  1   force =     0.00000000   -0.00000000    0.42995591
     atom    7 type  2   force =    -0.00000000    0.00000000   -0.42995591
     atom    8 type  2   force =     0.00000000   -0.00000000   -0.42995591
     atom    9 type  1   force =    -0.00000000    0.00000000    0.42995591
     atom   10 type  1   force =     0.00000000   -0.00000000    0.42995591
     atom   11 type  2   force =    -0.00000000    0.00000000   -0.42995591
     atom   12 type  2   force =     0.00000000   -0.00000000   -0.42995591
     atom   13 type  1   force =    -0.00000000    0.00000000    0.42995591
     atom   14 type  1   force =     0.00000000   -0.00000000    0.42995591
     atom   15 type  2   force =    -0.00000000    0.00000000   -0.42995591
     atom   16 type  2   force =     0.00000000   -0.00000000   -0.42995591
     The local contribution  to forces
     atom    1 type  1   force =    -0.00000009   -0.00001482   -0.47336983
     atom    2 type  1   force =    -0.00000000    0.00001277   -0.47338007
     atom    3 type  2   force =    -0.00000002   -0.00021062    0.37283921
     atom    4 type  2   force =    -0.00000000    0.00021069    0.37284155
     atom    5 type  1   force =    -0.00000009   -0.00001349   -0.47337747
     atom    6 type  1   force =     0.00000000    0.00001415   -0.47336834
     atom    7 type  2   force =    -0.00000002   -0.00021312    0.37284082
     atom    8 type  2   force =     0.00000000    0.00021193    0.37283914
     atom    9 type  1   force =    -0.00000009   -0.00001384   -0.47337244
     atom   10 type  1   force =    -0.00000000    0.00001508   -0.47338177
     atom   11 type  2   force =    -0.00000002   -0.00021349    0.37284069
     atom   12 type  2   force =    -0.00000000    0.00021382    0.37284226
     atom   13 type  1   force =    -0.00000009   -0.00001452   -0.47337850
     atom   14 type  1   force =     0.00000000    0.00001419   -0.47336933
     atom   15 type  2   force =    -0.00000002   -0.00021381    0.37284167
     atom   16 type  2   force =     0.00000000    0.00021269    0.37284217
     The core correction contribution to forces
     atom    1 type  1   force =    -0.00000006    0.00000682   -0.00302139
     atom    2 type  1   force =     0.00000000   -0.00000671   -0.00302223
     atom    3 type  2   force =     0.00000000   -0.00000245   -0.00050114
     atom    4 type  2   force =    -0.00000000    0.00000249   -0.00050300
     atom    5 type  1   force =    -0.00000006    0.00000694   -0.00302474
     atom    6 type  1   force =     0.00000001   -0.00000671   -0.00302381
     atom    7 type  2   force =     0.00000000   -0.00000247   -0.00050398
     atom    8 type  2   force =    -0.00000000    0.00000251   -0.00050211
     atom    9 type  1   force =    -0.00000002    0.00000676   -0.00302138
     atom   10 type  1   force =     0.00000005   -0.00000690   -0.00302226
     atom   11 type  2   force =     0.00000000   -0.00000252   -0.00050114
     atom   12 type  2   force =    -0.00000000    0.00000247   -0.00050300
     atom   13 type  1   force =    -0.00000001    0.00000667   -0.00302468
     atom   14 type  1   force =     0.00000005   -0.00000686   -0.00302391
     atom   15 type  2   force =     0.00000000   -0.00000253   -0.00050397
     atom   16 type  2   force =    -0.00000000    0.00000247   -0.00050211
     The Hubbard contrib.    to forces
     atom    1 type  1   force =     0.00000000    0.00000000    0.00000000
     atom    2 type  1   force =     0.00000000    0.00000000    0.00000000
     atom    3 type  2   force =     0.00000000    0.00000000    0.00000000
     atom    4 type  2   force =     0.00000000    0.00000000    0.00000000
     atom    5 type  1   force =     0.00000000    0.00000000    0.00000000
     atom    6 type  1   force =     0.00000000    0.00000000    0.00000000
     atom    7 type  2   force =     0.00000000    0.00000000    0.00000000
     atom    8 type  2   force =     0.00000000    0.00000000    0.00000000
     atom    9 type  1   force =     0.00000000    0.00000000    0.00000000
     atom   10 type  1   force =     0.00000000    0.00000000    0.00000000
     atom   11 type  2   force =     0.00000000    0.00000000    0.00000000
     atom   12 type  2   force =     0.00000000    0.00000000    0.00000000
     atom   13 type  1   force =     0.00000000    0.00000000    0.00000000
     atom   14 type  1   force =     0.00000000    0.00000000    0.00000000
     atom   15 type  2   force =     0.00000000    0.00000000    0.00000000
     atom   16 type  2   force =     0.00000000    0.00000000    0.00000000
     The SCF correction term to forces
     atom    1 type  1   force =     0.00000000    0.00000030   -0.00000575
     atom    2 type  1   force =     0.00000000    0.00000384    0.00000564
     atom    3 type  2   force =     0.00000000   -0.00000245   -0.00000154
     atom    4 type  2   force =     0.00000000    0.00000280   -0.00000361
     atom    5 type  1   force =     0.00000000   -0.00000635    0.00000107
     atom    6 type  1   force =     0.00000000    0.00000205   -0.00001008
     atom    7 type  2   force =     0.00000000   -0.00000025    0.00000034
     atom    8 type  2   force =     0.00000000    0.00000187    0.00000036
     atom    9 type  1   force =    -0.00000000   -0.00000355   -0.00000114
     atom   10 type  1   force =    -0.00000000    0.00000052    0.00000856
     atom   11 type  2   force =    -0.00000000   -0.00000019   -0.00000461
     atom   12 type  2   force =    -0.00000000   -0.00000116   -0.00000354
     atom   13 type  1   force =    -0.00000000    0.00000141    0.00000283
     atom   14 type  1   force =    -0.00000000    0.00000162   -0.00000635
     atom   15 type  2   force =    -0.00000000   -0.00000064   -0.00000049
     atom   16 type  2   force =    -0.00000000    0.00000058   -0.00000221

     Total force =     0.004256     Total SCF correction =     0.000021

     General routines

     Parallel routines

   This run was terminated on:  10:25:48  29Aug2025

   JOB DONE.
Note: The following floating-point exceptions are signalling: IEEE_UNDERFLOW_FLAG IEEE_DENORMAL
Note: The following floating-point exceptions are signalling: IEEE_UNDERFLOW_FLAG IEEE_DENORMAL
Note: The following floating-point exceptions are signalling: IEEE_UNDERFLOW_FLAG IEEE_DENORMAL
Note: The following floating-point exceptions are signalling: IEEE_UNDERFLOW_FLAG IEEE_DENORMAL
Note: The following floating-point exceptions are signalling: IEEE_UNDERFLOW_FLAG IEEE_DENORMAL
Note: The following floating-point exceptions are signalling: IEEE_UNDERFLOW_FLAG IEEE_DENORMAL
Note: The following floating-point exceptions are signalling: IEEE_UNDERFLOW_FLAG IEEE_DENORMAL
Note: The following floating-point exceptions are signalling: IEEE_UNDERFLOW_FLAG IEEE_DENORMAL
Note: The following floating-point exceptions are signalling: IEEE_UNDERFLOW_FLAG IEEE_DENORMAL
Note: The following floating-point exceptions are signalling: IEEE_UNDERFLOW_FLAG IEEE_DENORMAL
Note: The following floating-point exceptions are signalling: IEEE_UNDERFLOW_FLAG IEEE_DENORMAL
Note: The following floating-point exceptions are signalling: IEEE_UNDERFLOW_FLAG IEEE_DENORMAL
Note: The following floating-point exceptions are signalling: IEEE_UNDERFLOW_FLAG IEEE_DENORMAL
Note: The following floating-point exceptions are signalling: IEEE_UNDERFLOW_FLAG IEEE_DENORMAL
Note: The following floating-point exceptions are signalling: IEEE_UNDERFLOW_FLAG IEEE_DENORMAL
Note: The following floating-point exceptions are signalling: IEEE_UNDERFLOW_FLAG IEEE_DENORMAL
Note: The following floating-point exceptions are signalling: IEEE_UNDERFLOW_FLAG IEEE_DENORMAL
Note: The following floating-point exceptions are signalling: IEEE_UNDERFLOW_FLAG IEEE_DENORMAL
Note: The following floating-point exceptions are signalling: IEEE_UNDERFLOW_FLAG IEEE_DENORMAL
Note: The following floating-point exceptions are signalling: IEEE_UNDERFLOW_FLAG IEEE_DENORMAL
Note: The following floating-point exceptions are signalling: IEEE_UNDERFLOW_FLAG IEEE_DENORMAL
Note: The following floating-point exceptions are signalling: IEEE_UNDERFLOW_FLAG IEEE_DENORMAL
Note: The following floating-point exceptions are signalling: IEEE_UNDERFLOW_FLAG IEEE_DENORMAL
Note: The following floating-point exceptions are signalling: IEEE_UNDERFLOW_FLAG IEEE_DENORMAL
Note: The following floating-point exceptions are signalling: IEEE_UNDERFLOW_FLAG IEEE_DENORMAL
Note: The following floating-point exceptions are signalling: IEEE_UNDERFLOW_FLAG IEEE_DENORMAL
Note: The following floating-point exceptions are signalling: IEEE_UNDERFLOW_FLAG IEEE_DENORMAL
Note: The following floating-point exceptions are signalling: IEEE_UNDERFLOW_FLAG IEEE_DENORMAL
Note: The following floating-point exceptions are signalling: IEEE_UNDERFLOW_FLAG IEEE_DENORMAL
Note: The following floating-point exceptions are signalling: IEEE_UNDERFLOW_FLAG IEEE_DENORMAL
Note: The following floating-point exceptions are signalling: IEEE_UNDERFLOW_FLAG IEEE_DENORMAL
Note: The following floating-point exceptions are signalling: IEEE_UNDERFLOW_FLAG IEEE_DENORMAL