     Program PWSCF v.7.0 starts on 28Aug2025 at 19: 0:14

     K-points division:     npool     =       8
     R & G space division:  proc/nbgrp/npool/nimage =       4

     Reading input from /home/jvc/QEspresso7.2/ZnO_database/scripts/cell122.in/ZnO-2.94-1.58-122.in
Warning: card &CELL ignored
Warning: card / ignored
Warning: card &FCP ignored
Warning: card / ignored
Warning: card &RISM ignored
Warning: card / ignored

     Current dimensions of program PWSCF are:
     Max number of different atomic species (ntypx) = 10
     Max number of k-points (npk) =  40000
     Max angular momentum in pseudopotentials (lmaxx) =  4
     file Zn.upf: wavefunction(s)  3D renormalized
     Found identity + (  0.0000  0.0000  0.5000) symmetry
     This is a supercell, fractional translations are disabled
     Message from routine setup:
     using ibrav=0 with symmetry is DISCOURAGED, use correct ibrav instead

     Using Slab Decomposition

     bravais-lattice index     =            0
     lattice parameter (alat)  =       5.5610  a.u.
     unit-cell volume          =     942.4709 (a.u.)^3
     number of atoms/cell      =           16
     number of atomic types    =            2
     number of electrons       =       144.00
     number of Kohn-Sham states=           72
     kinetic-energy cutoff     =      50.0000  Ry
     charge density cutoff     =     400.0000  Ry
     scf convergence threshold =      1.0E-08
     mixing beta               =       0.3000
     number of iterations used =            8  plain     mixing
     Exchange-correlation= PBE
                           (   1   4   3   4   0   0   0)

     celldm(1)=   5.560969  celldm(2)=   0.000000  celldm(3)=   0.000000
     celldm(4)=   0.000000  celldm(5)=   0.000000  celldm(6)=   0.000000

     crystal axes: (cart. coord. in units of alat)
               a(1) = (   1.000000   0.000000   0.000000 )
               a(2) = (  -1.000000   1.732051   0.000000 )
               a(3) = (   0.000000   0.000000   3.164142 )

     reciprocal axes: (cart. coord. in units 2 pi/alat)
               b(1) = (  1.000000  0.577350 -0.000000 )
               b(2) = (  0.000000  0.577350  0.000000 )
               b(3) = (  0.000000 -0.000000  0.316041 )

     PseudoPot. # 1 for Zn read from file:
     /home/jvc/QEspresso7.2/ZnO_database/pseudos/Zn.upf
     MD5 check sum: 7f56cabf9682ed8c977c2f7d0c5985c5
     Pseudo is Ultrasoft + core correction, Zval = 12.0
     Generated using &quot;atomic&quot; code by A. Dal Corso  v.6.2.2
     Using radial grid of 1201 points,  6 beta functions with:
                l(1) =   0
                l(2) =   0
                l(3) =   1
                l(4) =   1
                l(5) =   2
                l(6) =   2
     Q(r) pseudized with 0 coefficients

     PseudoPot. # 2 for O  read from file:
     /home/jvc/QEspresso7.2/ZnO_database/pseudos/O.upf
     MD5 check sum: 91400c9766925bcf19f520983a725ff0
     Pseudo is Ultrasoft + core correction, Zval =  6.0
     Generated using &quot;atomic&quot; code by A. Dal Corso  v.6.3MaX
     Using radial grid of 1095 points,  4 beta functions with:
                l(1) =   0
                l(2) =   0
                l(3) =   1
                l(4) =   1
     Q(r) pseudized with 0 coefficients

     atomic species   valence    mass     pseudopotential
        Zn            12.00    65.38000     Zn( 1.00)
        O              6.00    15.99900     O ( 1.00)

      2 Sym. Ops. (no inversion) found

                                    s                        frac. trans.

      isym =  1     identity

 cryst.   s( 1) = (     1          0          0      )
                  (     0          1          0      )
                  (     0          0          1      )

 cart.    s( 1) = (  1.0000000  0.0000000  0.0000000 )
                  (  0.0000000  1.0000000  0.0000000 )
                  (  0.0000000  0.0000000  1.0000000 )

      isym =  2     inv. 180 deg rotation - cart. axis [1,0,0]

 cryst.   s( 2) = (    -1          0          0      )
                  (     2          1          0      )
                  (     0          0          1      )

 cart.    s( 2) = ( -1.0000000  0.0000000  0.0000000 )
                  (  0.0000000  1.0000000  0.0000000 )
                  (  0.0000000  0.0000000  1.0000000 )

   Cartesian axes

     site n.     atom                  positions (alat units)
         1           Zn  tau(   1) = (   0.5000000   0.2886751   0.7920380  )
         2           Zn  tau(   2) = (   0.0000000   0.5773503   0.0010024  )
         3           O   tau(   3) = (   0.5000000   0.2886751   1.3917107  )
         4           O   tau(   4) = (   0.0000000   0.5773503   0.6006751  )
         5           Zn  tau(   5) = (   0.5000000   0.2886751   2.3741092  )
         6           Zn  tau(   6) = (   0.0000000   0.5773503   1.5830736  )
         7           O   tau(   7) = (   0.5000000   0.2886751   2.9737819  )
         8           O   tau(   8) = (   0.0000000   0.5773503   2.1827463  )
         9           Zn  tau(   9) = (   0.0000000   1.1547005   0.7920380  )
        10           Zn  tau(  10) = (  -0.5000000   1.4433757   0.0010024  )
        11           O   tau(  11) = (   0.0000000   1.1547005   1.3917107  )
        12           O   tau(  12) = (  -0.5000000   1.4433757   0.6006751  )
        13           Zn  tau(  13) = (   0.0000000   1.1547005   2.3741092  )
        14           Zn  tau(  14) = (  -0.5000000   1.4433757   1.5830736  )
        15           O   tau(  15) = (   0.0000000   1.1547005   2.9737819  )
        16           O   tau(  16) = (  -0.5000000   1.4433757   2.1827463  )

   Crystallographic axes

     site n.     atom                  positions (cryst. coord.)
         1           Zn  tau(   1) = (  0.6666667  0.1666667  0.2503168  )
         2           Zn  tau(   2) = (  0.3333333  0.3333333  0.0003168  )
         3           O   tau(   3) = (  0.6666667  0.1666667  0.4398382  )
         4           O   tau(   4) = (  0.3333333  0.3333333  0.1898382  )
         5           Zn  tau(   5) = (  0.6666667  0.1666667  0.7503168  )
         6           Zn  tau(   6) = (  0.3333333  0.3333333  0.5003168  )
         7           O   tau(   7) = (  0.6666667  0.1666667  0.9398382  )
         8           O   tau(   8) = (  0.3333333  0.3333333  0.6898382  )
         9           Zn  tau(   9) = (  0.6666667  0.6666667  0.2503168  )
        10           Zn  tau(  10) = (  0.3333333  0.8333333  0.0003168  )
        11           O   tau(  11) = (  0.6666667  0.6666667  0.4398382  )
        12           O   tau(  12) = (  0.3333333  0.8333333  0.1898382  )
        13           Zn  tau(  13) = (  0.6666667  0.6666667  0.7503168  )
        14           Zn  tau(  14) = (  0.3333333  0.8333333  0.5003168  )
        15           O   tau(  15) = (  0.6666667  0.6666667  0.9398382  )
        16           O   tau(  16) = (  0.3333333  0.8333333  0.6898382  )

     number of k points=    80
                       cart. coord. in units 2pi/alat
        k(    1) = (   0.0000000   0.0000000   0.0000000), wk =   0.0092593
        k(    2) = (   0.0000000   0.0000000   0.0526736), wk =   0.0185185
        k(    3) = (   0.0000000   0.0000000   0.1053471), wk =   0.0185185
        k(    4) = (   0.0000000   0.0000000  -0.1580207), wk =   0.0092593
        k(    5) = (   0.0000000   0.0962250   0.0000000), wk =   0.0185185
        k(    6) = (   0.0000000   0.0962250   0.0526736), wk =   0.0185185
        k(    7) = (   0.0000000   0.0962250   0.1053471), wk =   0.0185185
        k(    8) = (   0.0000000   0.0962250  -0.1580207), wk =   0.0185185
        k(    9) = (   0.0000000   0.1924501   0.0000000), wk =   0.0185185
        k(   10) = (   0.0000000   0.1924501   0.0526736), wk =   0.0185185
        k(   11) = (   0.0000000   0.1924501   0.1053471), wk =   0.0185185
        k(   12) = (   0.0000000   0.1924501  -0.1580207), wk =   0.0185185
        k(   13) = (   0.0000000  -0.2886751   0.0000000), wk =   0.0092593
        k(   14) = (   0.0000000  -0.2886751   0.0526736), wk =   0.0185185
        k(   15) = (   0.0000000  -0.2886751   0.1053471), wk =   0.0185185
        k(   16) = (   0.0000000  -0.2886751  -0.1580207), wk =   0.0092593
        k(   17) = (   0.1666667   0.0962250   0.0000000), wk =   0.0370370
        k(   18) = (   0.1666667   0.0962250   0.0526736), wk =   0.0370370
        k(   19) = (   0.1666667   0.0962250   0.1053471), wk =   0.0370370
        k(   20) = (   0.1666667   0.0962250  -0.1580207), wk =   0.0370370
        k(   21) = (   0.1666667   0.1924501   0.0000000), wk =   0.0370370
        k(   22) = (   0.1666667   0.1924501   0.0526736), wk =   0.0370370
        k(   23) = (   0.1666667   0.1924501   0.1053471), wk =   0.0370370
        k(   24) = (   0.1666667   0.1924501  -0.1580207), wk =   0.0370370
        k(   25) = (   0.1666667   0.2886751   0.0000000), wk =   0.0185185
        k(   26) = (   0.1666667   0.2886751   0.0526736), wk =   0.0370370
        k(   27) = (   0.1666667   0.2886751   0.1053471), wk =   0.0370370
        k(   28) = (   0.1666667   0.2886751  -0.1580207), wk =   0.0185185
        k(   29) = (   0.1666667   0.0000000   0.0000000), wk =   0.0185185
        k(   30) = (   0.1666667   0.0000000   0.0526736), wk =   0.0370370
        k(   31) = (   0.1666667   0.0000000   0.1053471), wk =   0.0370370
        k(   32) = (   0.1666667   0.0000000  -0.1580207), wk =   0.0185185
        k(   33) = (   0.3333333   0.1924501   0.0000000), wk =   0.0370370
        k(   34) = (   0.3333333   0.1924501   0.0526736), wk =   0.0370370
        k(   35) = (   0.3333333   0.1924501   0.1053471), wk =   0.0370370
        k(   36) = (   0.3333333   0.1924501  -0.1580207), wk =   0.0370370
        k(   37) = (   0.3333333   0.2886751   0.0000000), wk =   0.0185185
        k(   38) = (   0.3333333   0.2886751   0.0526736), wk =   0.0370370
        k(   39) = (   0.3333333   0.2886751   0.1053471), wk =   0.0370370
        k(   40) = (   0.3333333   0.2886751  -0.1580207), wk =   0.0185185
        k(   41) = (   0.3333333  -0.0962250   0.0000000), wk =   0.0370370
        k(   42) = (   0.3333333  -0.0962250   0.0526736), wk =   0.0370370
        k(   43) = (   0.3333333  -0.0962250   0.1053471), wk =   0.0370370
        k(   44) = (   0.3333333  -0.0962250  -0.1580207), wk =   0.0370370
        k(   45) = (   0.3333333  -0.0000000   0.0000000), wk =   0.0185185
        k(   46) = (   0.3333333  -0.0000000   0.0526736), wk =   0.0370370
        k(   47) = (   0.3333333  -0.0000000   0.1053471), wk =   0.0370370
        k(   48) = (   0.3333333  -0.0000000  -0.1580207), wk =   0.0185185
        k(   49) = (  -0.5000000  -0.2886751   0.0000000), wk =   0.0092593
        k(   50) = (  -0.5000000  -0.2886751   0.0526736), wk =   0.0185185
        k(   51) = (  -0.5000000  -0.2886751   0.1053471), wk =   0.0185185
        k(   52) = (  -0.5000000  -0.2886751  -0.1580207), wk =   0.0092593
        k(   53) = (  -0.5000000  -0.1924501   0.0000000), wk =   0.0185185
        k(   54) = (  -0.5000000  -0.1924501   0.0526736), wk =   0.0185185
        k(   55) = (  -0.5000000  -0.1924501   0.1053471), wk =   0.0185185
[...]
        k(   77) = (   0.5000000  -0.8333333  -0.1666667), wk =   0.0185185
        k(   78) = (   0.5000000  -0.8333333  -0.3333333), wk =   0.0185185
        k(   79) = (   0.5000000  -0.6666667  -0.1666667), wk =   0.0185185
        k(   80) = (   0.5000000  -0.6666667  -0.3333333), wk =   0.0185185

     Check: negative core charge=   -0.000001

     Initial potential from superposition of free atoms

     starting charge     143.9702, renormalised to     144.0000
     Starting wfcs are  104 randomized atomic wfcs

     Self-consistent Calculation

     iteration #  1     ecut=    50.00 Ry     beta= 0.30
     Davidson diagonalization with overlap

     ethr =  1.00E-02,  avg # of iterations =  2.3

     total energy              =   -1445.10518633 Ry
     estimated scf accuracy    <       2.75395346 Ry

[...]

     c_bands:  1 eigenvalues not converged
     ethr =  3.63E-07,  avg # of iterations = 12.7

[...]

     total energy              =   -1445.60659650 Ry
     estimated scf accuracy    <       0.00000002 Ry

     iteration # 27     ecut=    50.00 Ry     beta= 0.30
     Davidson diagonalization with overlap

     ethr =  1.33E-11,  avg # of iterations =  6.0

     End of self-consistent calculation

          k = 0.0000 0.0000 0.0000 (  5651 PWs)   bands (ev):

    -8.3418  -7.6910  -7.6910  -7.1102  -6.9809  -6.8725  -6.8725  -6.6938
     3.9308   3.9308   4.3373   4.3751   4.3855   4.4281   4.4281   5.0193
     5.0195   5.1072   5.1287   5.1287   5.1289   5.1289   5.3402   5.3403
     5.4086   5.5721   5.6655   5.6655   5.7603   5.7603   6.0485   6.2812
     7.3027   7.3027   7.3363   7.5783   7.5783   7.5783   7.5783   7.6521
     7.7047   7.7047   7.7433   7.7434   7.8110   7.8111   7.8425   7.9205
     8.0858   8.1954   8.3235   8.3235   8.6115   9.0793   9.3714  10.4148
    10.4148  10.5842  10.5842  10.9417  10.9417  11.0837  11.5789  11.5791
    11.5802  12.2180  12.2180  12.2182  12.2182  12.6910  12.8584  12.8586

     occupation numbers
     1.0000   1.0000   1.0000   1.0000   1.0000   1.0000   1.0000   1.0000
     1.0000   1.0000   1.0000   1.0000   1.0000   1.0000   1.0000   1.0000
     1.0000   1.0000   1.0000   1.0000   1.0000   1.0000   1.0000   1.0000
     1.0000   1.0000   1.0000   1.0000   1.0000   1.0000   1.0000   1.0000
     1.0000   1.0000   1.0000   1.0000   1.0000   1.0000   1.0000   1.0000
     1.0000   1.0000   1.0000   1.0000   1.0000   1.0000   1.0000   1.0000
     1.0000   1.0000   1.0000   1.0000   1.0000   1.0000   1.0000   1.0000
     1.0000   1.0000   1.0000   1.0000   1.0000   1.0000   1.0000   1.0000
     1.0000   1.0000   1.0000   1.0000   1.0000   1.0000   1.0000   1.0000

[...]

          k =-0.5000-0.2887 0.0000 (  5656 PWs)   bands (ev):

[...]

          k =-0.3333-0.0962-0.1053 (  5614 PWs)   bands (ev):

[...]

          k = 0.5000-0.0962-0.1053 (  5634 PWs)   bands (ev):

    -7.0933  -7.0932  -6.9980  -6.9979  -6.7732  -6.7731  -6.7063  -6.7062
     4.2264   4.2264   4.3051   4.3051   4.4067   4.4067   4.6005   4.6006
     5.2830   5.2830   5.2956   5.2956   5.4071   5.4072   5.4676   5.4676
     5.9010   5.9010   5.9924   5.9924   5.9973   5.9973   6.1490   6.1490
     7.2300   7.2300   7.4023   7.4023   7.5199   7.5199   7.5977   7.5977
     7.8307   7.8307   7.8367   7.8367   7.9706   7.9706   8.0404   8.0404
     8.1914   8.1914   8.3283   8.3283   8.8159   8.8160   8.8354   8.8355
     9.0831   9.0831   9.4535   9.4535   9.6817   9.6818  10.1860  10.1860
    10.6700  10.6700  10.9285  10.9285  11.2596  11.2596  11.2926  11.2926

     occupation numbers
     1.0000   1.0000   1.0000   1.0000   1.0000   1.0000   1.0000   1.0000
     1.0000   1.0000   1.0000   1.0000   1.0000   1.0000   1.0000   1.0000
     1.0000   1.0000   1.0000   1.0000   1.0000   1.0000   1.0000   1.0000
     1.0000   1.0000   1.0000   1.0000   1.0000   1.0000   1.0000   1.0000
     1.0000   1.0000   1.0000   1.0000   1.0000   1.0000   1.0000   1.0000
     1.0000   1.0000   1.0000   1.0000   1.0000   1.0000   1.0000   1.0000
     1.0000   1.0000   1.0000   1.0000   1.0000   1.0000   1.0000   1.0000
     1.0000   1.0000   1.0000   1.0000   1.0000   1.0000   1.0000   1.0000
     1.0000   1.0000   1.0000   1.0000   1.0000   1.0000   1.0000   1.0000

     highest occupied level (ev):    12.8586

!    total energy              =   -1445.60659651 Ry
     estimated scf accuracy    <          2.9E-09 Ry

     The total energy is the sum of the following terms:
     one-electron contribution =    -456.86356950 Ry
     hartree contribution      =     418.41725550 Ry
     xc contribution           =    -441.56650346 Ry
     ewald contribution        =    -965.59377905 Ry

     convergence has been achieved in  27 iterations

     Forces acting on atoms (cartesian axes, Ry/au):

     atom    1 type  1   force =     0.00000000   -0.00001433   -0.02578913
     atom    2 type  1   force =     0.00000000    0.00002214   -0.02576327
     atom    3 type  2   force =     0.00000000   -0.00000051    0.02579343
     atom    4 type  2   force =     0.00000000   -0.00000084    0.02579636
     atom    5 type  1   force =     0.00000000   -0.00001027   -0.02580671
     atom    6 type  1   force =     0.00000000    0.00003053   -0.02580759
     atom    7 type  2   force =     0.00000000   -0.00000035    0.02579354
     atom    8 type  2   force =     0.00000000   -0.00000047    0.02579165
     atom    9 type  1   force =     0.00000000   -0.00002495   -0.02577425
     atom   10 type  1   force =     0.00000000    0.00002023   -0.02578133
     atom   11 type  2   force =     0.00000000    0.00000096    0.02579366
     atom   12 type  2   force =     0.00000000   -0.00000136    0.02579329
     atom   13 type  1   force =     0.00000000   -0.00003056   -0.02580569
     atom   14 type  1   force =     0.00000000    0.00001129   -0.02581881
     atom   15 type  2   force =     0.00000000    0.00000140    0.02579310
     atom   16 type  2   force =     0.00000000   -0.00000290    0.02579176
     The non-local contrib.  to forces
     atom    1 type  1   force =     0.00000000    0.00003699   -0.07581741
     atom    2 type  1   force =     0.00000000   -0.00003276   -0.07580911
     atom    3 type  2   force =     0.00000000    0.00016424   -0.04153269
     atom    4 type  2   force =     0.00000000   -0.00016372   -0.04154681
     atom    5 type  1   force =     0.00000000    0.00003943   -0.07583399
     atom    6 type  1   force =     0.00000000   -0.00002855   -0.07583247
     atom    7 type  2   force =     0.00000000    0.00016667   -0.04154737
     atom    8 type  2   force =     0.00000000   -0.00016885   -0.04153370
     atom    9 type  1   force =     0.00000000    0.00003098   -0.07581327
     atom   10 type  1   force =     0.00000000   -0.00003515   -0.07581470
     atom   11 type  2   force =     0.00000000    0.00016547   -0.04153542
     atom   12 type  2   force =     0.00000000   -0.00016699   -0.04154740
     atom   13 type  1   force =     0.00000000    0.00002857   -0.07583230
     atom   14 type  1   force =     0.00000000   -0.00003983   -0.07583623
     atom   15 type  2   force =     0.00000000    0.00016488   -0.04154580
     atom   16 type  2   force =     0.00000000   -0.00016267   -0.04153426
     The ionic contribution  to forces
     atom    1 type  1   force =    -0.00000000    0.00000001   -0.44226023
     atom    2 type  1   force =     0.00000000    0.00000001   -0.44226023
     atom    3 type  2   force =    -0.00000000    0.00000001    0.44226023
     atom    4 type  2   force =     0.00000000    0.00000000    0.44226023
     atom    5 type  1   force =    -0.00000000    0.00000001   -0.44226023
     atom    6 type  1   force =     0.00000000    0.00000001   -0.44226023
     atom    7 type  2   force =    -0.00000000    0.00000001    0.44226023
     atom    8 type  2   force =     0.00000000    0.00000000    0.44226023
     atom    9 type  1   force =    -0.00000001   -0.00000000   -0.44226024
     atom   10 type  1   force =     0.00000001   -0.00000002   -0.44226023
     atom   11 type  2   force =    -0.00000001    0.00000000    0.44226024
     atom   12 type  2   force =     0.00000001   -0.00000001    0.44226023
     atom   13 type  1   force =    -0.00000001   -0.00000000   -0.44226024
     atom   14 type  1   force =     0.00000001   -0.00000002   -0.44226023
     atom   15 type  2   force =    -0.00000001    0.00000000    0.44226024
     atom   16 type  2   force =     0.00000001   -0.00000001    0.44226023
     The local contribution  to forces
     atom    1 type  1   force =    -0.00000007   -0.00006822    0.48428542
     atom    2 type  1   force =     0.00000000    0.00004629    0.48424414
     atom    3 type  2   force =    -0.00000002   -0.00015983   -0.37512972
     atom    4 type  2   force =    -0.00000000    0.00016123   -0.37515544
     atom    5 type  1   force =    -0.00000007   -0.00007266    0.48431742
     atom    6 type  1   force =     0.00000000    0.00003632    0.48431741
     atom    7 type  2   force =    -0.00000002   -0.00015527   -0.37515476
     atom    8 type  2   force =     0.00000000    0.00015347   -0.37512001
     atom    9 type  1   force =    -0.00000007   -0.00004135    0.48426592
     atom   10 type  1   force =     0.00000007    0.00006190    0.48426918
     atom   11 type  2   force =    -0.00000002   -0.00016136   -0.37513567
     atom   12 type  2   force =     0.00000002    0.00015999   -0.37515063
     atom   13 type  1   force =    -0.00000007   -0.00003640    0.48430591
     atom   14 type  1   force =     0.00000007    0.00007236    0.48433561
     atom   15 type  2   force =    -0.00000002   -0.00016610   -0.37514671
     atom   16 type  2   force =     0.00000002    0.00017180   -0.37512551
     The core correction contribution to forces
     atom    1 type  1   force =    -0.00000001    0.00000384    0.00799279
     atom    2 type  1   force =     0.00000000   -0.00000317    0.00799379
     atom    3 type  2   force =     0.00000000   -0.00000183    0.00020881
     atom    4 type  2   force =    -0.00000000    0.00000183    0.00020895
     atom    5 type  1   force =    -0.00000001    0.00000374    0.00799312
     atom    6 type  1   force =     0.00000000   -0.00000326    0.00799291
     atom    7 type  2   force =     0.00000000   -0.00000185    0.00020897
     atom    8 type  2   force =    -0.00000000    0.00000189    0.00020887
     atom    9 type  1   force =    -0.00000001    0.00000310    0.00799311
     atom   10 type  1   force =     0.00000001   -0.00000384    0.00799341
     atom   11 type  2   force =     0.00000000   -0.00000186    0.00020883
     atom   12 type  2   force =    -0.00000000    0.00000188    0.00020897
     atom   13 type  1   force =    -0.00000001    0.00000327    0.00799361
     atom   14 type  1   force =     0.00000001   -0.00000374    0.00799256
     atom   15 type  2   force =     0.00000000   -0.00000187    0.00020897
     atom   16 type  2   force =    -0.00000000    0.00000185    0.00020886
     The Hubbard contrib.    to forces
     atom    1 type  1   force =     0.00000000    0.00000000    0.00000000
     atom    2 type  1   force =     0.00000000    0.00000000    0.00000000
     atom    3 type  2   force =     0.00000000    0.00000000    0.00000000
     atom    4 type  2   force =     0.00000000    0.00000000    0.00000000
     atom    5 type  1   force =     0.00000000    0.00000000    0.00000000
     atom    6 type  1   force =     0.00000000    0.00000000    0.00000000
     atom    7 type  2   force =     0.00000000    0.00000000    0.00000000
     atom    8 type  2   force =     0.00000000    0.00000000    0.00000000
     atom    9 type  1   force =     0.00000000    0.00000000    0.00000000
     atom   10 type  1   force =     0.00000000    0.00000000    0.00000000
     atom   11 type  2   force =     0.00000000    0.00000000    0.00000000
     atom   12 type  2   force =     0.00000000    0.00000000    0.00000000
     atom   13 type  1   force =     0.00000000    0.00000000    0.00000000
     atom   14 type  1   force =     0.00000000    0.00000000    0.00000000
     atom   15 type  2   force =     0.00000000    0.00000000    0.00000000
     atom   16 type  2   force =     0.00000000    0.00000000    0.00000000
     The SCF correction term to forces
     atom    1 type  1   force =    -0.00000000    0.00001345    0.00001306
     atom    2 type  1   force =     0.00000000    0.00001217    0.00007091
     atom    3 type  2   force =    -0.00000000   -0.00000270   -0.00001044
     atom    4 type  2   force =     0.00000000    0.00000021    0.00003220
     atom    5 type  1   force =    -0.00000000    0.00001960   -0.00002026
     atom    6 type  1   force =     0.00000000    0.00002641   -0.00002244
     atom    7 type  2   force =    -0.00000000   -0.00000950    0.00002923
     atom    8 type  2   force =     0.00000000    0.00001342   -0.00002098
     atom    9 type  1   force =    -0.00000000   -0.00001728    0.00004299
     atom   10 type  1   force =     0.00000000   -0.00000226    0.00003378
     atom   11 type  2   force =    -0.00000000   -0.00000089   -0.00000156
     atom   12 type  2   force =     0.00000000    0.00000417    0.00002488
     atom   13 type  1   force =    -0.00000000   -0.00002560   -0.00000991
     atom   14 type  1   force =     0.00000000   -0.00001708   -0.00004774
     atom   15 type  2   force =    -0.00000000    0.00000489    0.00001915
     atom   16 type  2   force =     0.00000000   -0.00001347   -0.00001481

     Total force =     0.103173     Total SCF correction =     0.000135

     General routines

     Parallel routines

   This run was terminated on:  19: 9: 7  28Aug2025

   JOB DONE.
Note: The following floating-point exceptions are signalling: IEEE_UNDERFLOW_FLAG IEEE_DENORMAL
Note: The following floating-point exceptions are signalling: IEEE_UNDERFLOW_FLAG IEEE_DENORMAL
Note: The following floating-point exceptions are signalling: IEEE_UNDERFLOW_FLAG IEEE_DENORMAL
Note: The following floating-point exceptions are signalling: IEEE_UNDERFLOW_FLAG IEEE_DENORMAL
Note: The following floating-point exceptions are signalling: IEEE_UNDERFLOW_FLAG IEEE_DENORMAL
Note: The following floating-point exceptions are signalling: IEEE_UNDERFLOW_FLAG IEEE_DENORMAL
Note: The following floating-point exceptions are signalling: IEEE_UNDERFLOW_FLAG IEEE_DENORMAL
Note: The following floating-point exceptions are signalling: IEEE_UNDERFLOW_FLAG IEEE_DENORMAL
Note: The following floating-point exceptions are signalling: IEEE_UNDERFLOW_FLAG IEEE_DENORMAL
Note: The following floating-point exceptions are signalling: IEEE_UNDERFLOW_FLAG IEEE_DENORMAL
Note: The following floating-point exceptions are signalling: IEEE_UNDERFLOW_FLAG IEEE_DENORMAL
Note: The following floating-point exceptions are signalling: IEEE_UNDERFLOW_FLAG IEEE_DENORMAL
Note: The following floating-point exceptions are signalling: IEEE_UNDERFLOW_FLAG IEEE_DENORMAL
Note: The following floating-point exceptions are signalling: IEEE_UNDERFLOW_FLAG IEEE_DENORMAL
Note: The following floating-point exceptions are signalling: IEEE_UNDERFLOW_FLAG IEEE_DENORMAL
Note: The following floating-point exceptions are signalling: IEEE_UNDERFLOW_FLAG IEEE_DENORMAL
Note: The following floating-point exceptions are signalling: IEEE_UNDERFLOW_FLAG IEEE_DENORMAL
Note: The following floating-point exceptions are signalling: IEEE_UNDERFLOW_FLAG IEEE_DENORMAL
Note: The following floating-point exceptions are signalling: IEEE_UNDERFLOW_FLAG IEEE_DENORMAL
Note: The following floating-point exceptions are signalling: IEEE_UNDERFLOW_FLAG IEEE_DENORMAL
Note: The following floating-point exceptions are signalling: IEEE_UNDERFLOW_FLAG IEEE_DENORMAL
Note: The following floating-point exceptions are signalling: IEEE_UNDERFLOW_FLAG IEEE_DENORMAL
Note: The following floating-point exceptions are signalling: IEEE_UNDERFLOW_FLAG IEEE_DENORMAL
Note: The following floating-point exceptions are signalling: IEEE_UNDERFLOW_FLAG IEEE_DENORMAL
Note: The following floating-point exceptions are signalling: IEEE_UNDERFLOW_FLAG IEEE_DENORMAL
Note: The following floating-point exceptions are signalling: IEEE_UNDERFLOW_FLAG IEEE_DENORMAL
Note: The following floating-point exceptions are signalling: IEEE_UNDERFLOW_FLAG IEEE_DENORMAL
Note: The following floating-point exceptions are signalling: IEEE_UNDERFLOW_FLAG IEEE_DENORMAL
Note: The following floating-point exceptions are signalling: IEEE_UNDERFLOW_FLAG IEEE_DENORMAL
Note: The following floating-point exceptions are signalling: IEEE_UNDERFLOW_FLAG IEEE_DENORMAL
Note: The following floating-point exceptions are signalling: IEEE_UNDERFLOW_FLAG IEEE_DENORMAL
Note: The following floating-point exceptions are signalling: IEEE_UNDERFLOW_FLAG IEEE_DENORMAL