     Program PWSCF v.7.0 starts on 28Aug2025 at 18:47:29

     K-points division:     npool     =       8
     R & G space division:  proc/nbgrp/npool/nimage =       4

     Reading input from /home/jvc/QEspresso7.2/ZnO_database/scripts/cell122.in/ZnO-2.94-1.52-122.in
Warning: card &CELL ignored
Warning: card / ignored
Warning: card &FCP ignored
Warning: card / ignored
Warning: card &RISM ignored
Warning: card / ignored

     Current dimensions of program PWSCF are:
     Max number of different atomic species (ntypx) = 10
     Max number of k-points (npk) =  40000
     Max angular momentum in pseudopotentials (lmaxx) =  4
     file Zn.upf: wavefunction(s)  3D renormalized
     Found identity + (  0.0000  0.0000 -0.5000) symmetry
     This is a supercell, fractional translations are disabled
     Message from routine setup:
     using ibrav=0 with symmetry is DISCOURAGED, use correct ibrav instead

     Using Slab Decomposition

     bravais-lattice index     =            0
     lattice parameter (alat)  =       5.5610  a.u.
     unit-cell volume          =     904.0027 (a.u.)^3
     number of atoms/cell      =           16
     number of atomic types    =            2
     number of electrons       =       144.00
     number of Kohn-Sham states=           72
     kinetic-energy cutoff     =      50.0000  Ry
     charge density cutoff     =     400.0000  Ry
     scf convergence threshold =      1.0E-08
     mixing beta               =       0.3000
     number of iterations used =            8  plain     mixing
     Exchange-correlation= PBE
                           (   1   4   3   4   0   0   0)

     celldm(1)=   5.560969  celldm(2)=   0.000000  celldm(3)=   0.000000
     celldm(4)=   0.000000  celldm(5)=   0.000000  celldm(6)=   0.000000

     crystal axes: (cart. coord. in units of alat)
               a(1) = (   1.000000   0.000000   0.000000 )
               a(2) = (  -1.000000   1.732051   0.000000 )
               a(3) = (   0.000000   0.000000   3.034994 )

     reciprocal axes: (cart. coord. in units 2 pi/alat)
               b(1) = (  1.000000  0.577350 -0.000000 )
               b(2) = (  0.000000  0.577350  0.000000 )
               b(3) = (  0.000000 -0.000000  0.329490 )

     PseudoPot. # 1 for Zn read from file:
     /home/jvc/QEspresso7.2/ZnO_database/pseudos/Zn.upf
     MD5 check sum: 7f56cabf9682ed8c977c2f7d0c5985c5
     Pseudo is Ultrasoft + core correction, Zval = 12.0
     Generated using &quot;atomic&quot; code by A. Dal Corso  v.6.2.2
     Using radial grid of 1201 points,  6 beta functions with:
                l(1) =   0
                l(2) =   0
                l(3) =   1
                l(4) =   1
                l(5) =   2
                l(6) =   2
     Q(r) pseudized with 0 coefficients

     PseudoPot. # 2 for O  read from file:
     /home/jvc/QEspresso7.2/ZnO_database/pseudos/O.upf
     MD5 check sum: 91400c9766925bcf19f520983a725ff0
     Pseudo is Ultrasoft + core correction, Zval =  6.0
     Generated using &quot;atomic&quot; code by A. Dal Corso  v.6.3MaX
     Using radial grid of 1095 points,  4 beta functions with:
                l(1) =   0
                l(2) =   0
                l(3) =   1
                l(4) =   1
     Q(r) pseudized with 0 coefficients

     atomic species   valence    mass     pseudopotential
        Zn            12.00    65.38000     Zn( 1.00)
        O              6.00    15.99900     O ( 1.00)

      2 Sym. Ops. (no inversion) found

                                    s                        frac. trans.

      isym =  1     identity

 cryst.   s( 1) = (     1          0          0      )
                  (     0          1          0      )
                  (     0          0          1      )

 cart.    s( 1) = (  1.0000000  0.0000000  0.0000000 )
                  (  0.0000000  1.0000000  0.0000000 )
                  (  0.0000000  0.0000000  1.0000000 )

      isym =  2     inv. 180 deg rotation - cart. axis [1,0,0]

 cryst.   s( 2) = (    -1          0          0      )
                  (     2          1          0      )
                  (     0          0          1      )

 cart.    s( 2) = ( -1.0000000  0.0000000  0.0000000 )
                  (  0.0000000  1.0000000  0.0000000 )
                  (  0.0000000  0.0000000  1.0000000 )

   Cartesian axes

     site n.     atom                  positions (alat units)
         1           Zn  tau(   1) = (   0.5000000   0.2886751   0.7597099  )
         2           Zn  tau(   2) = (   0.0000000   0.5773503   0.0009615  )
         3           O   tau(   3) = (   0.5000000   0.2886751   1.3349062  )
         4           O   tau(   4) = (   0.0000000   0.5773503   0.5761578  )
         5           Zn  tau(   5) = (   0.5000000   0.2886751   2.2772067  )
         6           Zn  tau(   6) = (   0.0000000   0.5773503   1.5184583  )
         7           O   tau(   7) = (   0.5000000   0.2886751   2.8524030  )
         8           O   tau(   8) = (   0.0000000   0.5773503   2.0936546  )
         9           Zn  tau(   9) = (   0.0000000   1.1547005   0.7597099  )
        10           Zn  tau(  10) = (  -0.5000000   1.4433757   0.0009615  )
        11           O   tau(  11) = (   0.0000000   1.1547005   1.3349062  )
        12           O   tau(  12) = (  -0.5000000   1.4433757   0.5761578  )
        13           Zn  tau(  13) = (   0.0000000   1.1547005   2.2772067  )
        14           Zn  tau(  14) = (  -0.5000000   1.4433757   1.5184583  )
        15           O   tau(  15) = (   0.0000000   1.1547005   2.8524030  )
        16           O   tau(  16) = (  -0.5000000   1.4433757   2.0936546  )

   Crystallographic axes

     site n.     atom                  positions (cryst. coord.)
         1           Zn  tau(   1) = (  0.6666667  0.1666667  0.2503168  )
         2           Zn  tau(   2) = (  0.3333333  0.3333333  0.0003168  )
         3           O   tau(   3) = (  0.6666667  0.1666667  0.4398382  )
         4           O   tau(   4) = (  0.3333333  0.3333333  0.1898382  )
         5           Zn  tau(   5) = (  0.6666667  0.1666667  0.7503168  )
         6           Zn  tau(   6) = (  0.3333333  0.3333333  0.5003168  )
         7           O   tau(   7) = (  0.6666667  0.1666667  0.9398382  )
         8           O   tau(   8) = (  0.3333333  0.3333333  0.6898382  )
         9           Zn  tau(   9) = (  0.6666667  0.6666667  0.2503168  )
        10           Zn  tau(  10) = (  0.3333333  0.8333333  0.0003168  )
        11           O   tau(  11) = (  0.6666667  0.6666667  0.4398382  )
        12           O   tau(  12) = (  0.3333333  0.8333333  0.1898382  )
        13           Zn  tau(  13) = (  0.6666667  0.6666667  0.7503168  )
        14           Zn  tau(  14) = (  0.3333333  0.8333333  0.5003168  )
        15           O   tau(  15) = (  0.6666667  0.6666667  0.9398382  )
        16           O   tau(  16) = (  0.3333333  0.8333333  0.6898382  )

     number of k points=    80
                       cart. coord. in units 2pi/alat
        k(    1) = (   0.0000000   0.0000000   0.0000000), wk =   0.0092593
        k(    2) = (   0.0000000   0.0000000   0.0549150), wk =   0.0185185
        k(    3) = (   0.0000000   0.0000000   0.1098300), wk =   0.0185185
        k(    4) = (   0.0000000   0.0000000  -0.1647450), wk =   0.0092593
        k(    5) = (   0.0000000   0.0962250   0.0000000), wk =   0.0185185
        k(    6) = (   0.0000000   0.0962250   0.0549150), wk =   0.0185185
        k(    7) = (   0.0000000   0.0962250   0.1098300), wk =   0.0185185
        k(    8) = (   0.0000000   0.0962250  -0.1647450), wk =   0.0185185
        k(    9) = (   0.0000000   0.1924501   0.0000000), wk =   0.0185185
        k(   10) = (   0.0000000   0.1924501   0.0549150), wk =   0.0185185
        k(   11) = (   0.0000000   0.1924501   0.1098300), wk =   0.0185185
        k(   12) = (   0.0000000   0.1924501  -0.1647450), wk =   0.0185185
        k(   13) = (   0.0000000  -0.2886751   0.0000000), wk =   0.0092593
        k(   14) = (   0.0000000  -0.2886751   0.0549150), wk =   0.0185185
        k(   15) = (   0.0000000  -0.2886751   0.1098300), wk =   0.0185185
        k(   16) = (   0.0000000  -0.2886751  -0.1647450), wk =   0.0092593
        k(   17) = (   0.1666667   0.0962250   0.0000000), wk =   0.0370370
        k(   18) = (   0.1666667   0.0962250   0.0549150), wk =   0.0370370
        k(   19) = (   0.1666667   0.0962250   0.1098300), wk =   0.0370370
        k(   20) = (   0.1666667   0.0962250  -0.1647450), wk =   0.0370370
        k(   21) = (   0.1666667   0.1924501   0.0000000), wk =   0.0370370
        k(   22) = (   0.1666667   0.1924501   0.0549150), wk =   0.0370370
        k(   23) = (   0.1666667   0.1924501   0.1098300), wk =   0.0370370
        k(   24) = (   0.1666667   0.1924501  -0.1647450), wk =   0.0370370
        k(   25) = (   0.1666667   0.2886751   0.0000000), wk =   0.0185185
        k(   26) = (   0.1666667   0.2886751   0.0549150), wk =   0.0370370
        k(   27) = (   0.1666667   0.2886751   0.1098300), wk =   0.0370370
        k(   28) = (   0.1666667   0.2886751  -0.1647450), wk =   0.0185185
        k(   29) = (   0.1666667   0.0000000   0.0000000), wk =   0.0185185
        k(   30) = (   0.1666667   0.0000000   0.0549150), wk =   0.0370370
        k(   31) = (   0.1666667   0.0000000   0.1098300), wk =   0.0370370
        k(   32) = (   0.1666667   0.0000000  -0.1647450), wk =   0.0185185
        k(   33) = (   0.3333333   0.1924501   0.0000000), wk =   0.0370370
        k(   34) = (   0.3333333   0.1924501   0.0549150), wk =   0.0370370
        k(   35) = (   0.3333333   0.1924501   0.1098300), wk =   0.0370370
        k(   36) = (   0.3333333   0.1924501  -0.1647450), wk =   0.0370370
        k(   37) = (   0.3333333   0.2886751   0.0000000), wk =   0.0185185
        k(   38) = (   0.3333333   0.2886751   0.0549150), wk =   0.0370370
        k(   39) = (   0.3333333   0.2886751   0.1098300), wk =   0.0370370
        k(   40) = (   0.3333333   0.2886751  -0.1647450), wk =   0.0185185
        k(   41) = (   0.3333333  -0.0962250   0.0000000), wk =   0.0370370
        k(   42) = (   0.3333333  -0.0962250   0.0549150), wk =   0.0370370
        k(   43) = (   0.3333333  -0.0962250   0.1098300), wk =   0.0370370
        k(   44) = (   0.3333333  -0.0962250  -0.1647450), wk =   0.0370370
        k(   45) = (   0.3333333  -0.0000000   0.0000000), wk =   0.0185185
        k(   46) = (   0.3333333  -0.0000000   0.0549150), wk =   0.0370370
        k(   47) = (   0.3333333  -0.0000000   0.1098300), wk =   0.0370370
        k(   48) = (   0.3333333  -0.0000000  -0.1647450), wk =   0.0185185
        k(   49) = (  -0.5000000  -0.2886751   0.0000000), wk =   0.0092593
        k(   50) = (  -0.5000000  -0.2886751   0.0549150), wk =   0.0185185
        k(   51) = (  -0.5000000  -0.2886751   0.1098300), wk =   0.0185185
        k(   52) = (  -0.5000000  -0.2886751  -0.1647450), wk =   0.0092593
        k(   53) = (  -0.5000000  -0.1924501   0.0000000), wk =   0.0185185
        k(   54) = (  -0.5000000  -0.1924501   0.0549150), wk =   0.0185185
        k(   55) = (  -0.5000000  -0.1924501   0.1098300), wk =   0.0185185
[...]
        k(   77) = (   0.5000000  -0.8333333  -0.1666667), wk =   0.0185185
        k(   78) = (   0.5000000  -0.8333333  -0.3333333), wk =   0.0185185
        k(   79) = (   0.5000000  -0.6666667  -0.1666667), wk =   0.0185185
        k(   80) = (   0.5000000  -0.6666667  -0.3333333), wk =   0.0185185

     Initial potential from superposition of free atoms

     starting charge     143.9702, renormalised to     144.0000
     Starting wfcs are  104 randomized atomic wfcs

     Self-consistent Calculation

     iteration #  1     ecut=    50.00 Ry     beta= 0.30
     Davidson diagonalization with overlap

     ethr =  1.00E-02,  avg # of iterations =  2.4

     total energy              =   -1444.77353225 Ry
     estimated scf accuracy    <       2.82070606 Ry

[...]

     c_bands:  1 eigenvalues not converged
     c_bands:  1 eigenvalues not converged
     ethr =  2.34E-07,  avg # of iterations = 13.8

[...]

     total energy              =   -1445.26977925 Ry
     estimated scf accuracy    <       0.00000095 Ry

     iteration # 20     ecut=    50.00 Ry     beta= 0.30
     Davidson diagonalization with overlap

     ethr =  1.41E-10,  avg # of iterations =  6.4

     End of self-consistent calculation

          k = 0.0000 0.0000 0.0000 (  5429 PWs)   bands (ev):

    -7.9676  -7.2117  -7.2117  -6.6826  -6.3979  -6.3939  -6.3939  -6.1989
     4.3083   4.3083   4.8453   4.8618   4.8618   4.8638   4.9064   5.5479
     5.5480   5.6398   5.6579   5.6579   5.6580   5.6580   5.9161   5.9215
     5.9216   6.0367   6.1263   6.1263   6.2911   6.2911   6.6318   6.8939
     7.9392   7.9392   8.0117   8.2931   8.2931   8.2931   8.2931   8.3428
     8.4079   8.4079   8.4712   8.4713   8.5334   8.5334   8.5900   8.6432
     8.8491   8.9379   9.1316   9.1316   9.3896   9.8752   9.8984  11.3063
    11.3063  11.4287  11.4288  11.9632  11.9633  11.9851  12.2089  12.2091
    12.4255  12.9559  12.9559  12.9560  12.9561  13.6346  13.7008  13.7010

     occupation numbers
     1.0000   1.0000   1.0000   1.0000   1.0000   1.0000   1.0000   1.0000
     1.0000   1.0000   1.0000   1.0000   1.0000   1.0000   1.0000   1.0000
     1.0000   1.0000   1.0000   1.0000   1.0000   1.0000   1.0000   1.0000
     1.0000   1.0000   1.0000   1.0000   1.0000   1.0000   1.0000   1.0000
     1.0000   1.0000   1.0000   1.0000   1.0000   1.0000   1.0000   1.0000
     1.0000   1.0000   1.0000   1.0000   1.0000   1.0000   1.0000   1.0000
     1.0000   1.0000   1.0000   1.0000   1.0000   1.0000   1.0000   1.0000
     1.0000   1.0000   1.0000   1.0000   1.0000   1.0000   1.0000   1.0000
     1.0000   1.0000   1.0000   1.0000   1.0000   1.0000   1.0000   1.0000

[...]

          k =-0.5000-0.2887 0.0000 (  5408 PWs)   bands (ev):

[...]

          k =-0.3333-0.0962-0.1098 (  5378 PWs)   bands (ev):

[...]

          k = 0.5000-0.0962-0.1098 (  5394 PWs)   bands (ev):

    -6.6586  -6.6586  -6.5422  -6.5422  -6.2804  -6.2804  -6.2093  -6.2093
     4.6244   4.6244   4.6952   4.6952   4.8531   4.8531   5.0461   5.0461
     5.7706   5.7706   5.7805   5.7805   5.8757   5.8757   5.9396   5.9396
     6.4231   6.4231   6.5359   6.5359   6.5598   6.5598   6.7316   6.7316
     7.9013   7.9013   8.0853   8.0853   8.2165   8.2165   8.2934   8.2934
     8.5605   8.5605   8.5691   8.5691   8.6805   8.6805   8.7745   8.7745
     8.9289   8.9289   9.1030   9.1030   9.4709   9.4709   9.6245   9.6245
     9.9125   9.9125  10.1687  10.1687  10.5123  10.5123  11.1103  11.1103
    11.5023  11.5023  11.7894  11.7894  12.1530  12.1530  12.2790  12.2790

     occupation numbers
     1.0000   1.0000   1.0000   1.0000   1.0000   1.0000   1.0000   1.0000
     1.0000   1.0000   1.0000   1.0000   1.0000   1.0000   1.0000   1.0000
     1.0000   1.0000   1.0000   1.0000   1.0000   1.0000   1.0000   1.0000
     1.0000   1.0000   1.0000   1.0000   1.0000   1.0000   1.0000   1.0000
     1.0000   1.0000   1.0000   1.0000   1.0000   1.0000   1.0000   1.0000
     1.0000   1.0000   1.0000   1.0000   1.0000   1.0000   1.0000   1.0000
     1.0000   1.0000   1.0000   1.0000   1.0000   1.0000   1.0000   1.0000
     1.0000   1.0000   1.0000   1.0000   1.0000   1.0000   1.0000   1.0000
     1.0000   1.0000   1.0000   1.0000   1.0000   1.0000   1.0000   1.0000

     highest occupied level (ev):    13.7010

!    total energy              =   -1445.26977945 Ry
     estimated scf accuracy    <          1.4E-09 Ry

     The total energy is the sum of the following terms:
     one-electron contribution =    -437.94475330 Ry
     hartree contribution      =     412.74631295 Ry
     xc contribution           =    -442.12861246 Ry
     ewald contribution        =    -977.94272664 Ry

     convergence has been achieved in  20 iterations

     Forces acting on atoms (cartesian axes, Ry/au):

     atom    1 type  1   force =     0.00000000   -0.00001630   -0.10226637
     atom    2 type  1   force =     0.00000000    0.00001680   -0.10227506
     atom    3 type  2   force =     0.00000000    0.00000109    0.10227012
     atom    4 type  2   force =     0.00000000   -0.00000128    0.10227010
     atom    5 type  1   force =     0.00000000   -0.00001388   -0.10227275
     atom    6 type  1   force =     0.00000000    0.00001192   -0.10227259
     atom    7 type  2   force =     0.00000000    0.00000120    0.10227135
     atom    8 type  2   force =     0.00000000   -0.00000203    0.10227067
     atom    9 type  1   force =     0.00000000   -0.00001666   -0.10226490
     atom   10 type  1   force =     0.00000000    0.00001639   -0.10227344
     atom   11 type  2   force =     0.00000000    0.00000229    0.10227027
     atom   12 type  2   force =     0.00000000   -0.00000141    0.10227115
     atom   13 type  1   force =     0.00000000   -0.00001949   -0.10226609
     atom   14 type  1   force =     0.00000000    0.00001923   -0.10227496
     atom   15 type  2   force =     0.00000000    0.00000169    0.10227103
     atom   16 type  2   force =     0.00000000    0.00000045    0.10227147
     The non-local contrib.  to forces
     atom    1 type  1   force =     0.00000000    0.00003125   -0.22285731
     atom    2 type  1   force =     0.00000000   -0.00003048   -0.22286202
     atom    3 type  2   force =     0.00000000    0.00015435   -0.11665381
     atom    4 type  2   force =     0.00000000   -0.00015300   -0.11665376
     atom    5 type  1   force =     0.00000000    0.00003236   -0.22286008
     atom    6 type  1   force =     0.00000000   -0.00003245   -0.22285996
     atom    7 type  2   force =     0.00000000    0.00015319   -0.11665190
     atom    8 type  2   force =     0.00000000   -0.00015417   -0.11665389
     atom    9 type  1   force =     0.00000000    0.00003064   -0.22285803
     atom   10 type  1   force =     0.00000000   -0.00003226   -0.22286145
     atom   11 type  2   force =     0.00000000    0.00015332   -0.11665197
     atom   12 type  2   force =     0.00000000   -0.00015502   -0.11665335
     atom   13 type  1   force =     0.00000000    0.00002935   -0.22285844
     atom   14 type  1   force =     0.00000000   -0.00002941   -0.22286076
     atom   15 type  2   force =     0.00000000    0.00015318   -0.11665157
     atom   16 type  2   force =     0.00000000   -0.00015232   -0.11665284
     The ionic contribution  to forces
     atom    1 type  1   force =    -0.00000000    0.00000001   -1.55809773
     atom    2 type  1   force =     0.00000000    0.00000001   -1.55809773
     atom    3 type  2   force =    -0.00000000    0.00000001    1.55809773
     atom    4 type  2   force =     0.00000000    0.00000000    1.55809773
     atom    5 type  1   force =    -0.00000000    0.00000001   -1.55809773
     atom    6 type  1   force =     0.00000000    0.00000001   -1.55809773
     atom    7 type  2   force =    -0.00000000    0.00000001    1.55809773
     atom    8 type  2   force =     0.00000000    0.00000000    1.55809773
     atom    9 type  1   force =    -0.00000001   -0.00000000   -1.55809773
     atom   10 type  1   force =     0.00000001   -0.00000002   -1.55809773
     atom   11 type  2   force =    -0.00000001    0.00000000    1.55809773
     atom   12 type  2   force =     0.00000001   -0.00000001    1.55809773
     atom   13 type  1   force =    -0.00000001   -0.00000000   -1.55809773
     atom   14 type  1   force =     0.00000001   -0.00000002   -1.55809773
     atom   15 type  2   force =    -0.00000001    0.00000000    1.55809773
     atom   16 type  2   force =     0.00000001   -0.00000001    1.55809773
     The local contribution  to forces
     atom    1 type  1   force =    -0.00000007   -0.00005355    1.65469149
     atom    2 type  1   force =    -0.00000000    0.00005096    1.65470453
     atom    3 type  2   force =    -0.00000002   -0.00014762   -1.33965017
     atom    4 type  2   force =    -0.00000000    0.00014747   -1.33965548
     atom    5 type  1   force =    -0.00000007   -0.00005600    1.65469948
     atom    6 type  1   force =    -0.00000000    0.00005684    1.65470145
     atom    7 type  2   force =    -0.00000002   -0.00015551   -1.33964951
     atom    8 type  2   force =     0.00000000    0.00014677   -1.33964951
     atom    9 type  1   force =    -0.00000007   -0.00005143    1.65469186
     atom   10 type  1   force =     0.00000007    0.00005588    1.65470415
     atom   11 type  2   force =    -0.00000002   -0.00015157   -1.33964819
     atom   12 type  2   force =     0.00000002    0.00015390   -1.33965335
     atom   13 type  1   force =    -0.00000007   -0.00004885    1.65469434
     atom   14 type  1   force =     0.00000007    0.00004905    1.65470397
     atom   15 type  2   force =    -0.00000002   -0.00014692   -1.33964738
     atom   16 type  2   force =     0.00000002    0.00014971   -1.33964984
     The core correction contribution to forces
     atom    1 type  1   force =    -0.00000001    0.00000225    0.02398647
     atom    2 type  1   force =     0.00000000   -0.00000217    0.02398637
     atom    3 type  2   force =     0.00000000   -0.00000173    0.00047843
     atom    4 type  2   force =    -0.00000000    0.00000171    0.00047841
     atom    5 type  1   force =    -0.00000001    0.00000224    0.02398640
     atom    6 type  1   force =     0.00000000   -0.00000219    0.02398634
     atom    7 type  2   force =     0.00000000   -0.00000174    0.00047841
     atom    8 type  2   force =    -0.00000000    0.00000172    0.00047844
     atom    9 type  1   force =    -0.00000001    0.00000224    0.02398640
     atom   10 type  1   force =     0.00000001   -0.00000226    0.02398634
     atom   11 type  2   force =     0.00000000   -0.00000173    0.00047841
     atom   12 type  2   force =    -0.00000000    0.00000176    0.00047842
     atom   13 type  1   force =    -0.00000001    0.00000227    0.02398636
     atom   14 type  1   force =     0.00000001   -0.00000225    0.02398634
     atom   15 type  2   force =     0.00000000   -0.00000171    0.00047841
     atom   16 type  2   force =    -0.00000000    0.00000171    0.00047842
     The Hubbard contrib.    to forces
     atom    1 type  1   force =     0.00000000    0.00000000    0.00000000
     atom    2 type  1   force =     0.00000000    0.00000000    0.00000000
     atom    3 type  2   force =     0.00000000    0.00000000    0.00000000
     atom    4 type  2   force =     0.00000000    0.00000000    0.00000000
     atom    5 type  1   force =     0.00000000    0.00000000    0.00000000
     atom    6 type  1   force =     0.00000000    0.00000000    0.00000000
     atom    7 type  2   force =     0.00000000    0.00000000    0.00000000
     atom    8 type  2   force =     0.00000000    0.00000000    0.00000000
     atom    9 type  1   force =     0.00000000    0.00000000    0.00000000
     atom   10 type  1   force =     0.00000000    0.00000000    0.00000000
     atom   11 type  2   force =     0.00000000    0.00000000    0.00000000
     atom   12 type  2   force =     0.00000000    0.00000000    0.00000000
     atom   13 type  1   force =     0.00000000    0.00000000    0.00000000
     atom   14 type  1   force =     0.00000000    0.00000000    0.00000000
     atom   15 type  2   force =     0.00000000    0.00000000    0.00000000
     atom   16 type  2   force =     0.00000000    0.00000000    0.00000000
     The SCF correction term to forces
     atom    1 type  1   force =    -0.00000000    0.00000346    0.00001476
     atom    2 type  1   force =     0.00000000   -0.00000179   -0.00000216
     atom    3 type  2   force =    -0.00000000   -0.00000421    0.00000200
     atom    4 type  2   force =     0.00000000    0.00000227    0.00000725
     atom    5 type  1   force =    -0.00000000    0.00000724    0.00000323
     atom    6 type  1   force =     0.00000000   -0.00001057    0.00000137
     atom    7 type  2   force =    -0.00000000    0.00000498    0.00000068
     atom    8 type  2   force =     0.00000000    0.00000337    0.00000196
     atom    9 type  1   force =    -0.00000000    0.00000161    0.00001666
     atom   10 type  1   force =     0.00000000   -0.00000522   -0.00000070
     atom   11 type  2   force =    -0.00000000    0.00000199   -0.00000166
     atom   12 type  2   force =     0.00000000   -0.00000230    0.00000576
     atom   13 type  1   force =    -0.00000000   -0.00000253    0.00001344
     atom   14 type  1   force =     0.00000000    0.00000159   -0.00000272
     atom   15 type  2   force =    -0.00000000   -0.00000314   -0.00000210
     atom   16 type  2   force =     0.00000000    0.00000109    0.00000205

     Total force =     0.409083     Total SCF correction =     0.000033

     General routines

     Parallel routines

   This run was terminated on:  18:53:30  28Aug2025

   JOB DONE.
Note: The following floating-point exceptions are signalling: IEEE_UNDERFLOW_FLAG IEEE_DENORMAL
Note: The following floating-point exceptions are signalling: IEEE_UNDERFLOW_FLAG IEEE_DENORMAL
Note: The following floating-point exceptions are signalling: IEEE_UNDERFLOW_FLAG IEEE_DENORMAL
Note: The following floating-point exceptions are signalling: IEEE_UNDERFLOW_FLAG IEEE_DENORMAL
Note: The following floating-point exceptions are signalling: IEEE_UNDERFLOW_FLAG IEEE_DENORMAL
Note: The following floating-point exceptions are signalling: IEEE_UNDERFLOW_FLAG IEEE_DENORMAL
Note: The following floating-point exceptions are signalling: IEEE_UNDERFLOW_FLAG IEEE_DENORMAL
Note: The following floating-point exceptions are signalling: IEEE_UNDERFLOW_FLAG IEEE_DENORMAL
Note: The following floating-point exceptions are signalling: IEEE_UNDERFLOW_FLAG IEEE_DENORMAL
Note: The following floating-point exceptions are signalling: IEEE_UNDERFLOW_FLAG IEEE_DENORMAL
Note: The following floating-point exceptions are signalling: IEEE_UNDERFLOW_FLAG IEEE_DENORMAL
Note: The following floating-point exceptions are signalling: IEEE_UNDERFLOW_FLAG IEEE_DENORMAL
Note: The following floating-point exceptions are signalling: IEEE_UNDERFLOW_FLAG IEEE_DENORMAL
Note: The following floating-point exceptions are signalling: IEEE_UNDERFLOW_FLAG IEEE_DENORMAL
Note: The following floating-point exceptions are signalling: IEEE_UNDERFLOW_FLAG IEEE_DENORMAL
Note: The following floating-point exceptions are signalling: IEEE_UNDERFLOW_FLAG IEEE_DENORMAL
Note: The following floating-point exceptions are signalling: IEEE_UNDERFLOW_FLAG IEEE_DENORMAL
Note: The following floating-point exceptions are signalling: IEEE_UNDERFLOW_FLAG IEEE_DENORMAL
Note: The following floating-point exceptions are signalling: IEEE_UNDERFLOW_FLAG IEEE_DENORMAL
Note: The following floating-point exceptions are signalling: IEEE_UNDERFLOW_FLAG IEEE_DENORMAL
Note: The following floating-point exceptions are signalling: IEEE_UNDERFLOW_FLAG IEEE_DENORMAL
Note: The following floating-point exceptions are signalling: IEEE_UNDERFLOW_FLAG IEEE_DENORMAL
Note: The following floating-point exceptions are signalling: IEEE_UNDERFLOW_FLAG IEEE_DENORMAL
Note: The following floating-point exceptions are signalling: IEEE_UNDERFLOW_FLAG IEEE_DENORMAL
Note: The following floating-point exceptions are signalling: IEEE_UNDERFLOW_FLAG IEEE_DENORMAL
Note: The following floating-point exceptions are signalling: IEEE_UNDERFLOW_FLAG IEEE_DENORMAL
Note: The following floating-point exceptions are signalling: IEEE_UNDERFLOW_FLAG IEEE_DENORMAL
Note: The following floating-point exceptions are signalling: IEEE_UNDERFLOW_FLAG IEEE_DENORMAL
Note: The following floating-point exceptions are signalling: IEEE_UNDERFLOW_FLAG IEEE_DENORMAL
Note: The following floating-point exceptions are signalling: IEEE_UNDERFLOW_FLAG IEEE_DENORMAL
Note: The following floating-point exceptions are signalling: IEEE_UNDERFLOW_FLAG IEEE_DENORMAL
Note: The following floating-point exceptions are signalling: IEEE_UNDERFLOW_FLAG IEEE_DENORMAL