     Program PWSCF v.7.0 starts on 29Aug2025 at  1: 0: 6

     K-points division:     npool     =       8
     R & G space division:  proc/nbgrp/npool/nimage =       4

     Reading input from /home/jvc/QEspresso7.2/ZnO_database/scripts/cell122.in/ZnO-3.14-1.74-122.in
Warning: card &CELL ignored
Warning: card / ignored
Warning: card &FCP ignored
Warning: card / ignored
Warning: card &RISM ignored
Warning: card / ignored

     Current dimensions of program PWSCF are:
     Max number of different atomic species (ntypx) = 10
     Max number of k-points (npk) =  40000
     Max angular momentum in pseudopotentials (lmaxx) =  4
     file Zn.upf: wavefunction(s)  3D renormalized
     Found identity + (  0.0000  0.0000  0.5000) symmetry
     This is a supercell, fractional translations are disabled
     Message from routine setup:
     using ibrav=0 with symmetry is DISCOURAGED, use correct ibrav instead

     Using Slab Decomposition

     bravais-lattice index     =            0
     lattice parameter (alat)  =       5.9317  a.u.
     unit-cell volume          =    1260.5260 (a.u.)^3
     number of atoms/cell      =           16
     number of atomic types    =            2
     number of electrons       =       144.00
     number of Kohn-Sham states=           72
     kinetic-energy cutoff     =      50.0000  Ry
     charge density cutoff     =     400.0000  Ry
     scf convergence threshold =      1.0E-08
     mixing beta               =       0.3000
     number of iterations used =            8  plain     mixing
     Exchange-correlation= PBE
                           (   1   4   3   4   0   0   0)

     celldm(1)=   5.931700  celldm(2)=   0.000000  celldm(3)=   0.000000
     celldm(4)=   0.000000  celldm(5)=   0.000000  celldm(6)=   0.000000

     crystal axes: (cart. coord. in units of alat)
               a(1) = (   1.000000   0.000000   0.000000 )
               a(2) = (  -1.000000   1.732051   0.000000 )
               a(3) = (   0.000000   0.000000   3.487014 )

     reciprocal axes: (cart. coord. in units 2 pi/alat)
               b(1) = (  1.000000  0.577350 -0.000000 )
               b(2) = (  0.000000  0.577350  0.000000 )
               b(3) = (  0.000000 -0.000000  0.286778 )

     PseudoPot. # 1 for Zn read from file:
     /home/jvc/QEspresso7.2/ZnO_database/pseudos/Zn.upf
     MD5 check sum: 7f56cabf9682ed8c977c2f7d0c5985c5
     Pseudo is Ultrasoft + core correction, Zval = 12.0
     Generated using &quot;atomic&quot; code by A. Dal Corso  v.6.2.2
     Using radial grid of 1201 points,  6 beta functions with:
                l(1) =   0
                l(2) =   0
                l(3) =   1
                l(4) =   1
                l(5) =   2
                l(6) =   2
     Q(r) pseudized with 0 coefficients

     PseudoPot. # 2 for O  read from file:
     /home/jvc/QEspresso7.2/ZnO_database/pseudos/O.upf
     MD5 check sum: 91400c9766925bcf19f520983a725ff0
     Pseudo is Ultrasoft + core correction, Zval =  6.0
     Generated using &quot;atomic&quot; code by A. Dal Corso  v.6.3MaX
     Using radial grid of 1095 points,  4 beta functions with:
                l(1) =   0
                l(2) =   0
                l(3) =   1
                l(4) =   1
     Q(r) pseudized with 0 coefficients

     atomic species   valence    mass     pseudopotential
        Zn            12.00    65.38000     Zn( 1.00)
        O              6.00    15.99900     O ( 1.00)

      2 Sym. Ops. (no inversion) found

                                    s                        frac. trans.

      isym =  1     identity

 cryst.   s( 1) = (     1          0          0      )
                  (     0          1          0      )
                  (     0          0          1      )

 cart.    s( 1) = (  1.0000000  0.0000000  0.0000000 )
                  (  0.0000000  1.0000000  0.0000000 )
                  (  0.0000000  0.0000000  1.0000000 )

      isym =  2     inv. 180 deg rotation - cart. axis [1,0,0]

 cryst.   s( 2) = (    -1          0          0      )
                  (     2          1          0      )
                  (     0          0          1      )

 cart.    s( 2) = ( -1.0000000  0.0000000  0.0000000 )
                  (  0.0000000  1.0000000  0.0000000 )
                  (  0.0000000  0.0000000  1.0000000 )

   Cartesian axes

     site n.     atom                  positions (alat units)
         1           Zn  tau(   1) = (   0.5000000   0.2886751   0.8728582  )
         2           Zn  tau(   2) = (   0.0000000   0.5773503   0.0011047  )
         3           O   tau(   3) = (   0.5000000   0.2886751   1.5337220  )
         4           O   tau(   4) = (   0.0000000   0.5773503   0.6619685  )
         5           Zn  tau(   5) = (   0.5000000   0.2886751   2.6163652  )
         6           Zn  tau(   6) = (   0.0000000   0.5773503   1.7446117  )
         7           O   tau(   7) = (   0.5000000   0.2886751   3.2772290  )
         8           O   tau(   8) = (   0.0000000   0.5773503   2.4054755  )
         9           Zn  tau(   9) = (   0.0000000   1.1547005   0.8728582  )
        10           Zn  tau(  10) = (  -0.5000000   1.4433757   0.0011047  )
        11           O   tau(  11) = (   0.0000000   1.1547005   1.5337220  )
        12           O   tau(  12) = (  -0.5000000   1.4433757   0.6619685  )
        13           Zn  tau(  13) = (   0.0000000   1.1547005   2.6163652  )
        14           Zn  tau(  14) = (  -0.5000000   1.4433757   1.7446117  )
        15           O   tau(  15) = (   0.0000000   1.1547005   3.2772290  )
        16           O   tau(  16) = (  -0.5000000   1.4433757   2.4054755  )

   Crystallographic axes

     site n.     atom                  positions (cryst. coord.)
         1           Zn  tau(   1) = (  0.6666667  0.1666667  0.2503168  )
         2           Zn  tau(   2) = (  0.3333333  0.3333333  0.0003168  )
         3           O   tau(   3) = (  0.6666667  0.1666667  0.4398382  )
         4           O   tau(   4) = (  0.3333333  0.3333333  0.1898382  )
         5           Zn  tau(   5) = (  0.6666667  0.1666667  0.7503168  )
         6           Zn  tau(   6) = (  0.3333333  0.3333333  0.5003168  )
         7           O   tau(   7) = (  0.6666667  0.1666667  0.9398382  )
         8           O   tau(   8) = (  0.3333333  0.3333333  0.6898382  )
         9           Zn  tau(   9) = (  0.6666667  0.6666667  0.2503168  )
        10           Zn  tau(  10) = (  0.3333333  0.8333333  0.0003168  )
        11           O   tau(  11) = (  0.6666667  0.6666667  0.4398382  )
        12           O   tau(  12) = (  0.3333333  0.8333333  0.1898382  )
        13           Zn  tau(  13) = (  0.6666667  0.6666667  0.7503168  )
        14           Zn  tau(  14) = (  0.3333333  0.8333333  0.5003168  )
        15           O   tau(  15) = (  0.6666667  0.6666667  0.9398382  )
        16           O   tau(  16) = (  0.3333333  0.8333333  0.6898382  )

     number of k points=    80
                       cart. coord. in units 2pi/alat
        k(    1) = (   0.0000000   0.0000000   0.0000000), wk =   0.0092593
        k(    2) = (   0.0000000   0.0000000   0.0477964), wk =   0.0185185
        k(    3) = (   0.0000000   0.0000000   0.0955928), wk =   0.0185185
        k(    4) = (   0.0000000   0.0000000  -0.1433892), wk =   0.0092593
        k(    5) = (   0.0000000   0.0962250   0.0000000), wk =   0.0185185
        k(    6) = (   0.0000000   0.0962250   0.0477964), wk =   0.0185185
        k(    7) = (   0.0000000   0.0962250   0.0955928), wk =   0.0185185
        k(    8) = (   0.0000000   0.0962250  -0.1433892), wk =   0.0185185
        k(    9) = (   0.0000000   0.1924501   0.0000000), wk =   0.0185185
        k(   10) = (   0.0000000   0.1924501   0.0477964), wk =   0.0185185
        k(   11) = (   0.0000000   0.1924501   0.0955928), wk =   0.0185185
        k(   12) = (   0.0000000   0.1924501  -0.1433892), wk =   0.0185185
        k(   13) = (   0.0000000  -0.2886751   0.0000000), wk =   0.0092593
        k(   14) = (   0.0000000  -0.2886751   0.0477964), wk =   0.0185185
        k(   15) = (   0.0000000  -0.2886751   0.0955928), wk =   0.0185185
        k(   16) = (   0.0000000  -0.2886751  -0.1433892), wk =   0.0092593
        k(   17) = (   0.1666667   0.0962250   0.0000000), wk =   0.0370370
        k(   18) = (   0.1666667   0.0962250   0.0477964), wk =   0.0370370
        k(   19) = (   0.1666667   0.0962250   0.0955928), wk =   0.0370370
        k(   20) = (   0.1666667   0.0962250  -0.1433892), wk =   0.0370370
        k(   21) = (   0.1666667   0.1924501   0.0000000), wk =   0.0370370
        k(   22) = (   0.1666667   0.1924501   0.0477964), wk =   0.0370370
        k(   23) = (   0.1666667   0.1924501   0.0955928), wk =   0.0370370
        k(   24) = (   0.1666667   0.1924501  -0.1433892), wk =   0.0370370
        k(   25) = (   0.1666667   0.2886751   0.0000000), wk =   0.0185185
        k(   26) = (   0.1666667   0.2886751   0.0477964), wk =   0.0370370
        k(   27) = (   0.1666667   0.2886751   0.0955928), wk =   0.0370370
        k(   28) = (   0.1666667   0.2886751  -0.1433892), wk =   0.0185185
        k(   29) = (   0.1666667   0.0000000   0.0000000), wk =   0.0185185
        k(   30) = (   0.1666667   0.0000000   0.0477964), wk =   0.0370370
        k(   31) = (   0.1666667   0.0000000   0.0955928), wk =   0.0370370
        k(   32) = (   0.1666667   0.0000000  -0.1433892), wk =   0.0185185
        k(   33) = (   0.3333333   0.1924501   0.0000000), wk =   0.0370370
        k(   34) = (   0.3333333   0.1924501   0.0477964), wk =   0.0370370
        k(   35) = (   0.3333333   0.1924501   0.0955928), wk =   0.0370370
        k(   36) = (   0.3333333   0.1924501  -0.1433892), wk =   0.0370370
        k(   37) = (   0.3333333   0.2886751   0.0000000), wk =   0.0185185
        k(   38) = (   0.3333333   0.2886751   0.0477964), wk =   0.0370370
        k(   39) = (   0.3333333   0.2886751   0.0955928), wk =   0.0370370
        k(   40) = (   0.3333333   0.2886751  -0.1433892), wk =   0.0185185
        k(   41) = (   0.3333333  -0.0962250   0.0000000), wk =   0.0370370
        k(   42) = (   0.3333333  -0.0962250   0.0477964), wk =   0.0370370
        k(   43) = (   0.3333333  -0.0962250   0.0955928), wk =   0.0370370
        k(   44) = (   0.3333333  -0.0962250  -0.1433892), wk =   0.0370370
        k(   45) = (   0.3333333  -0.0000000   0.0000000), wk =   0.0185185
        k(   46) = (   0.3333333  -0.0000000   0.0477964), wk =   0.0370370
        k(   47) = (   0.3333333  -0.0000000   0.0955928), wk =   0.0370370
        k(   48) = (   0.3333333  -0.0000000  -0.1433892), wk =   0.0185185
        k(   49) = (  -0.5000000  -0.2886751   0.0000000), wk =   0.0092593
        k(   50) = (  -0.5000000  -0.2886751   0.0477964), wk =   0.0185185
        k(   51) = (  -0.5000000  -0.2886751   0.0955928), wk =   0.0185185
        k(   52) = (  -0.5000000  -0.2886751  -0.1433892), wk =   0.0092593
        k(   53) = (  -0.5000000  -0.1924501   0.0000000), wk =   0.0185185
        k(   54) = (  -0.5000000  -0.1924501   0.0477964), wk =   0.0185185
        k(   55) = (  -0.5000000  -0.1924501   0.0955928), wk =   0.0185185
[...]

     Self-consistent Calculation

     iteration #  1     ecut=    50.00 Ry     beta= 0.30
     Davidson diagonalization with overlap

     ethr =  1.00E-02,  avg # of iterations =  2.0

     total energy              =   -1445.87528103 Ry
     estimated scf accuracy    <       2.74485494 Ry

[...]

     c_bands:  1 eigenvalues not converged
     c_bands:  1 eigenvalues not converged
     c_bands:  1 eigenvalues not converged
     c_bands:  1 eigenvalues not converged
     c_bands:  1 eigenvalues not converged
     c_bands:  1 eigenvalues not converged
     ethr =  2.46E-07,  avg # of iterations = 15.3

[...]

     c_bands:  1 eigenvalues not converged
     c_bands:  1 eigenvalues not converged
     c_bands:  1 eigenvalues not converged
     c_bands:  2 eigenvalues not converged
     c_bands:  1 eigenvalues not converged
     ethr =  9.11E-12,  avg # of iterations = 13.9

[...]

     total energy              =   -1446.48972562 Ry
     estimated scf accuracy    <       0.00000046 Ry

     iteration # 30     ecut=    50.00 Ry     beta= 0.30
     Davidson diagonalization with overlap

     ethr =  9.11E-12,  avg # of iterations = 12.6

     End of self-consistent calculation

          k = 0.0000 0.0000 0.0000 (  7577 PWs)   bands (ev):

   -10.7055 -10.4037 -10.4037 -10.0816  -9.9473  -9.8494  -9.8494  -9.7603
     1.3267   1.3267   1.4591   1.5544   1.5544   1.5605   1.5980   1.7153
     1.7156   1.7824   1.7824   1.7826   1.7826   1.7896   1.8736   1.8738
     2.0275   2.2318   2.2318   2.4224   2.4224   2.4624   2.4859   2.5450
     3.0416   3.0416   3.0594   3.1355   3.1355   3.1355   3.1355   3.2080
     3.2080   3.2193   3.2374   3.2374   3.2751   3.2988   3.2988   3.3662
     3.5736   3.6925   3.6925   3.7077   3.8394   4.7498   5.1195   5.1195
     5.5325   5.9576   5.9576   6.1356   6.1356   6.1874   6.6922   7.0254
     7.0258   7.3304   7.3440   7.3440   7.3444   7.3444   7.6610   7.6614

     occupation numbers
     1.0000   1.0000   1.0000   1.0000   1.0000   1.0000   1.0000   1.0000
     1.0000   1.0000   1.0000   1.0000   1.0000   1.0000   1.0000   1.0000
     1.0000   1.0000   1.0000   1.0000   1.0000   1.0000   1.0000   1.0000
     1.0000   1.0000   1.0000   1.0000   1.0000   1.0000   1.0000   1.0000
     1.0000   1.0000   1.0000   1.0000   1.0000   1.0000   1.0000   1.0000
     1.0000   1.0000   1.0000   1.0000   1.0000   1.0000   1.0000   1.0000
     1.0000   1.0000   1.0000   1.0000   1.0000   1.0000   1.0000   1.0000
     1.0000   1.0000   1.0000   1.0000   1.0000   1.0000   1.0000   1.0000
     1.0000   1.0000   1.0000   1.0000   1.0000   1.0000   1.0000   1.0000

[...]

          k =-0.5000-0.2887 0.0000 (  7548 PWs)   bands (ev):

[...]

          k =-0.3333-0.0962-0.0956 (  7512 PWs)   bands (ev):

[...]

          k = 0.5000-0.0962-0.0956 (  7516 PWs)   bands (ev):

    -9.9419  -9.9419  -9.9034  -9.9034  -9.8036  -9.8036  -9.7693  -9.7693
     1.4979   1.4979   1.5424   1.5424   1.5874   1.5874   1.7202   1.7202
     2.0231   2.0231   2.0459   2.0459   2.2158   2.2158   2.2956   2.2956
     2.3852   2.3852   2.4147   2.4147   2.4497   2.4497   2.4810   2.4810
     2.9845   2.9845   3.0737   3.0737   3.1419   3.1419   3.1773   3.1773
     3.2977   3.2977   3.3044   3.3044   3.4254   3.4254   3.5144   3.5144
     3.6655   3.6655   3.8223   3.8223   4.1580   4.1580   4.2438   4.2438
     4.8368   4.8368   5.1638   5.1638   5.1937   5.1937   5.5212   5.5212
     5.9711   5.9711   6.1302   6.1302   6.3130   6.3130   6.3717   6.3717

     occupation numbers
     1.0000   1.0000   1.0000   1.0000   1.0000   1.0000   1.0000   1.0000
     1.0000   1.0000   1.0000   1.0000   1.0000   1.0000   1.0000   1.0000
     1.0000   1.0000   1.0000   1.0000   1.0000   1.0000   1.0000   1.0000
     1.0000   1.0000   1.0000   1.0000   1.0000   1.0000   1.0000   1.0000
     1.0000   1.0000   1.0000   1.0000   1.0000   1.0000   1.0000   1.0000
     1.0000   1.0000   1.0000   1.0000   1.0000   1.0000   1.0000   1.0000
     1.0000   1.0000   1.0000   1.0000   1.0000   1.0000   1.0000   1.0000
     1.0000   1.0000   1.0000   1.0000   1.0000   1.0000   1.0000   1.0000
     1.0000   1.0000   1.0000   1.0000   1.0000   1.0000   1.0000   1.0000

     highest occupied level (ev):     7.6614

!    total energy              =   -1446.48972572 Ry
     estimated scf accuracy    <          5.5E-09 Ry

     The total energy is the sum of the following terms:
     one-electron contribution =    -598.62397193 Ry
     hartree contribution      =     466.42075526 Ry
     xc contribution           =    -438.58308509 Ry
     ewald contribution        =    -875.70342396 Ry

     convergence has been achieved in  30 iterations

     Forces acting on atoms (cartesian axes, Ry/au):

     atom    1 type  1   force =     0.00000000   -0.00000810    0.02414241
     atom    2 type  1   force =     0.00000000    0.00000733    0.02413573
     atom    3 type  2   force =     0.00000000    0.00000325   -0.02413684
     atom    4 type  2   force =     0.00000000   -0.00000354   -0.02413902
     atom    5 type  1   force =     0.00000000   -0.00000379    0.02413540
     atom    6 type  1   force =     0.00000000    0.00000651    0.02414035
     atom    7 type  2   force =     0.00000000    0.00000344   -0.02413969
     atom    8 type  2   force =     0.00000000   -0.00000339   -0.02413770
     atom    9 type  1   force =     0.00000000   -0.00000505    0.02414044
     atom   10 type  1   force =     0.00000000    0.00000652    0.02413738
     atom   11 type  2   force =     0.00000000    0.00000375   -0.02413703
     atom   12 type  2   force =     0.00000000   -0.00000332   -0.02413868
     atom   13 type  1   force =     0.00000000   -0.00001021    0.02413560
     atom   14 type  1   force =     0.00000000    0.00000683    0.02413926
     atom   15 type  2   force =     0.00000000    0.00000323   -0.02413967
     atom   16 type  2   force =     0.00000000   -0.00000347   -0.02413797
     The non-local contrib.  to forces
     atom    1 type  1   force =     0.00000000    0.00002560    0.21309511
     atom    2 type  1   force =     0.00000000   -0.00002569    0.21309790
     atom    3 type  2   force =     0.00000000    0.00020925    0.19312975
     atom    4 type  2   force =     0.00000000   -0.00020951    0.19312883
     atom    5 type  1   force =     0.00000000    0.00002637    0.21309339
     atom    6 type  1   force =     0.00000000   -0.00002566    0.21309094
     atom    7 type  2   force =     0.00000000    0.00020921    0.19312816
     atom    8 type  2   force =     0.00000000   -0.00020938    0.19312906
     atom    9 type  1   force =     0.00000000    0.00002563    0.21309478
     atom   10 type  1   force =     0.00000000   -0.00002598    0.21309835
     atom   11 type  2   force =     0.00000000    0.00021008    0.19312932
     atom   12 type  2   force =     0.00000000   -0.00020920    0.19312899
     atom   13 type  1   force =     0.00000000    0.00002505    0.21309436
     atom   14 type  1   force =     0.00000000   -0.00002592    0.21309071
     atom   15 type  2   force =     0.00000000    0.00020941    0.19312833
     atom   16 type  2   force =     0.00000000   -0.00020974    0.19312895
     The ionic contribution  to forces
     atom    1 type  1   force =    -0.00000000    0.00000000    1.70690924
     atom    2 type  1   force =     0.00000000   -0.00000000    1.70690924
     atom    3 type  2   force =    -0.00000000    0.00000000   -1.70690924
     atom    4 type  2   force =     0.00000000   -0.00000000   -1.70690924
     atom    5 type  1   force =    -0.00000000    0.00000000    1.70690924
     atom    6 type  1   force =     0.00000000   -0.00000000    1.70690924
     atom    7 type  2   force =    -0.00000000    0.00000000   -1.70690924
     atom    8 type  2   force =     0.00000000   -0.00000000   -1.70690924
     atom    9 type  1   force =    -0.00000000    0.00000000    1.70690924
     atom   10 type  1   force =     0.00000000   -0.00000000    1.70690924
     atom   11 type  2   force =    -0.00000000    0.00000000   -1.70690924
     atom   12 type  2   force =     0.00000000   -0.00000000   -1.70690924
     atom   13 type  1   force =    -0.00000000    0.00000000    1.70690924
     atom   14 type  1   force =     0.00000000   -0.00000000    1.70690924
     atom   15 type  2   force =    -0.00000000    0.00000000   -1.70690924
     atom   16 type  2   force =     0.00000000   -0.00000000   -1.70690924
     The local contribution  to forces
     atom    1 type  1   force =    -0.00000008   -0.00003973   -1.88003727
     atom    2 type  1   force =    -0.00000000    0.00004026   -1.88003402
     atom    3 type  2   force =    -0.00000002   -0.00020355    1.49115299
     atom    4 type  2   force =    -0.00000000    0.00020251    1.49115348
     atom    5 type  1   force =    -0.00000008   -0.00004456   -1.88003517
     atom    6 type  1   force =    -0.00000000    0.00004125   -1.88003802
     atom    7 type  2   force =    -0.00000002   -0.00020257    1.49115568
     atom    8 type  2   force =    -0.00000000    0.00020306    1.49115663
     atom    9 type  1   force =    -0.00000008   -0.00004188   -1.88003544
     atom   10 type  1   force =    -0.00000000    0.00004140   -1.88003583
     atom   11 type  2   force =    -0.00000002   -0.00020252    1.49115328
     atom   12 type  2   force =     0.00000000    0.00020315    1.49115375
     atom   13 type  1   force =    -0.00000008   -0.00003701   -1.88003716
     atom   14 type  1   force =    -0.00000000    0.00004056   -1.88003621
     atom   15 type  2   force =    -0.00000002   -0.00020267    1.49115503
     atom   16 type  2   force =    -0.00000000    0.00020308    1.49115650
     The core correction contribution to forces
     atom    1 type  1   force =    -0.00000005    0.00000829   -0.01581448
     atom    2 type  1   force =    -0.00000001   -0.00000848   -0.01581824
     atom    3 type  2   force =    -0.00000000   -0.00000236   -0.00151832
     atom    4 type  2   force =     0.00000001    0.00000239   -0.00151861
     atom    5 type  1   force =    -0.00000005    0.00000840   -0.01581745
     atom    6 type  1   force =    -0.00000002   -0.00000853   -0.01581376
     atom    7 type  2   force =    -0.00000000   -0.00000236   -0.00151990
     atom    8 type  2   force =     0.00000001    0.00000240   -0.00151959
     atom    9 type  1   force =     0.00000000    0.00000851   -0.01581455
     atom   10 type  1   force =     0.00000004   -0.00000832   -0.01581817
     atom   11 type  2   force =    -0.00000001   -0.00000240   -0.00151831
     atom   12 type  2   force =     0.00000000    0.00000236   -0.00151862
     atom   13 type  1   force =     0.00000000    0.00000842   -0.01581745
     atom   14 type  1   force =     0.00000004   -0.00000828   -0.01581379
     atom   15 type  2   force =    -0.00000001   -0.00000239   -0.00151990
     atom   16 type  2   force =     0.00000000    0.00000236   -0.00151960
     The Hubbard contrib.    to forces
     atom    1 type  1   force =     0.00000000    0.00000000    0.00000000
     atom    2 type  1   force =     0.00000000    0.00000000    0.00000000
     atom    3 type  2   force =     0.00000000    0.00000000    0.00000000
     atom    4 type  2   force =     0.00000000    0.00000000    0.00000000
     atom    5 type  1   force =     0.00000000    0.00000000    0.00000000
     atom    6 type  1   force =     0.00000000    0.00000000    0.00000000
     atom    7 type  2   force =     0.00000000    0.00000000    0.00000000
     atom    8 type  2   force =     0.00000000    0.00000000    0.00000000
     atom    9 type  1   force =     0.00000000    0.00000000    0.00000000
     atom   10 type  1   force =     0.00000000    0.00000000    0.00000000
     atom   11 type  2   force =     0.00000000    0.00000000    0.00000000
     atom   12 type  2   force =     0.00000000    0.00000000    0.00000000
     atom   13 type  1   force =     0.00000000    0.00000000    0.00000000
     atom   14 type  1   force =     0.00000000    0.00000000    0.00000000
     atom   15 type  2   force =     0.00000000    0.00000000    0.00000000
     atom   16 type  2   force =     0.00000000    0.00000000    0.00000000
     The SCF correction term to forces
     atom    1 type  1   force =     0.00000000   -0.00000223   -0.00001488
     atom    2 type  1   force =     0.00000000    0.00000129   -0.00002384
     atom    3 type  2   force =     0.00000000   -0.00000005    0.00000329
     atom    4 type  2   force =     0.00000000    0.00000110    0.00000183
     atom    5 type  1   force =     0.00000000    0.00000603   -0.00001930
     atom    6 type  1   force =     0.00000000   -0.00000051   -0.00001274
     atom    7 type  2   force =     0.00000000   -0.00000080    0.00000092
     atom    8 type  2   force =     0.00000000    0.00000057    0.00000074
     atom    9 type  1   force =    -0.00000000    0.00000273   -0.00001827
     atom   10 type  1   force =    -0.00000000   -0.00000055   -0.00002090
     atom   11 type  2   force =    -0.00000000   -0.00000138    0.00000322
     atom   12 type  2   force =    -0.00000000    0.00000041    0.00000175
     atom   13 type  1   force =    -0.00000000   -0.00000664   -0.00001808
     atom   14 type  1   force =    -0.00000000    0.00000051   -0.00001538
     atom   15 type  2   force =    -0.00000000   -0.00000108    0.00000142
     atom   16 type  2   force =    -0.00000000    0.00000087    0.00000072

     Total force =     0.096553     Total SCF correction =     0.000053

     General routines

     Parallel routines

   This run was terminated on:   1:13:18  29Aug2025

   JOB DONE.
Note: The following floating-point exceptions are signalling: IEEE_UNDERFLOW_FLAG IEEE_DENORMAL
Note: The following floating-point exceptions are signalling: IEEE_UNDERFLOW_FLAG IEEE_DENORMAL
Note: The following floating-point exceptions are signalling: IEEE_UNDERFLOW_FLAG IEEE_DENORMAL
Note: The following floating-point exceptions are signalling: IEEE_UNDERFLOW_FLAG IEEE_DENORMAL
Note: The following floating-point exceptions are signalling: IEEE_UNDERFLOW_FLAG IEEE_DENORMAL
Note: The following floating-point exceptions are signalling: IEEE_UNDERFLOW_FLAG IEEE_DENORMAL
Note: The following floating-point exceptions are signalling: IEEE_UNDERFLOW_FLAG IEEE_DENORMAL
Note: The following floating-point exceptions are signalling: IEEE_UNDERFLOW_FLAG IEEE_DENORMAL
Note: The following floating-point exceptions are signalling: IEEE_UNDERFLOW_FLAG IEEE_DENORMAL
Note: The following floating-point exceptions are signalling: IEEE_UNDERFLOW_FLAG IEEE_DENORMAL
Note: The following floating-point exceptions are signalling: IEEE_UNDERFLOW_FLAG IEEE_DENORMAL
Note: The following floating-point exceptions are signalling: IEEE_UNDERFLOW_FLAG IEEE_DENORMAL
Note: The following floating-point exceptions are signalling: IEEE_UNDERFLOW_FLAG IEEE_DENORMAL
Note: The following floating-point exceptions are signalling: IEEE_UNDERFLOW_FLAG IEEE_DENORMAL
Note: The following floating-point exceptions are signalling: IEEE_UNDERFLOW_FLAG IEEE_DENORMAL
Note: The following floating-point exceptions are signalling: IEEE_UNDERFLOW_FLAG IEEE_DENORMAL
Note: The following floating-point exceptions are signalling: IEEE_UNDERFLOW_FLAG IEEE_DENORMAL
Note: The following floating-point exceptions are signalling: IEEE_UNDERFLOW_FLAG IEEE_DENORMAL
Note: The following floating-point exceptions are signalling: IEEE_UNDERFLOW_FLAG IEEE_DENORMAL
Note: The following floating-point exceptions are signalling: IEEE_UNDERFLOW_FLAG IEEE_DENORMAL
Note: The following floating-point exceptions are signalling: IEEE_UNDERFLOW_FLAG IEEE_DENORMAL
Note: The following floating-point exceptions are signalling: IEEE_UNDERFLOW_FLAG IEEE_DENORMAL
Note: The following floating-point exceptions are signalling: IEEE_UNDERFLOW_FLAG IEEE_DENORMAL
Note: The following floating-point exceptions are signalling: IEEE_UNDERFLOW_FLAG IEEE_DENORMAL
Note: The following floating-point exceptions are signalling: IEEE_UNDERFLOW_FLAG IEEE_DENORMAL
Note: The following floating-point exceptions are signalling: IEEE_UNDERFLOW_FLAG IEEE_DENORMAL
Note: The following floating-point exceptions are signalling: IEEE_UNDERFLOW_FLAG IEEE_DENORMAL
Note: The following floating-point exceptions are signalling: IEEE_UNDERFLOW_FLAG IEEE_DENORMAL
Note: The following floating-point exceptions are signalling: IEEE_UNDERFLOW_FLAG IEEE_DENORMAL
Note: The following floating-point exceptions are signalling: IEEE_UNDERFLOW_FLAG IEEE_DENORMAL
Note: The following floating-point exceptions are signalling: IEEE_UNDERFLOW_FLAG IEEE_DENORMAL
Note: The following floating-point exceptions are signalling: IEEE_UNDERFLOW_FLAG IEEE_DENORMAL