     Program PWSCF v.7.0 starts on 29Aug2025 at  6:27: 3

     K-points division:     npool     =       8
     R & G space division:  proc/nbgrp/npool/nimage =       4

     Reading input from /home/jvc/QEspresso7.2/ZnO_database/scripts/cell122.in/ZnO-3.34-1.52-122.in
Warning: card &CELL ignored
Warning: card / ignored
Warning: card &FCP ignored
Warning: card / ignored
Warning: card &RISM ignored
Warning: card / ignored

     Current dimensions of program PWSCF are:
     Max number of different atomic species (ntypx) = 10
     Max number of k-points (npk) =  40000
     Max angular momentum in pseudopotentials (lmaxx) =  4
     file Zn.upf: wavefunction(s)  3D renormalized
     Found identity + (  0.0000  0.0000  0.5000) symmetry
     This is a supercell, fractional translations are disabled
     Message from routine setup:
     using ibrav=0 with symmetry is DISCOURAGED, use correct ibrav instead

     Using Slab Decomposition

     bravais-lattice index     =            0
     lattice parameter (alat)  =       6.3024  a.u.
     unit-cell volume          =    1315.9601 (a.u.)^3
     number of atoms/cell      =           16
     number of atomic types    =            2
     number of electrons       =       144.00
     number of Kohn-Sham states=           72
     kinetic-energy cutoff     =      50.0000  Ry
     charge density cutoff     =     400.0000  Ry
     scf convergence threshold =      1.0E-08
     mixing beta               =       0.3000
     number of iterations used =            8  plain     mixing
     Exchange-correlation= PBE
                           (   1   4   3   4   0   0   0)

     celldm(1)=   6.302431  celldm(2)=   0.000000  celldm(3)=   0.000000
     celldm(4)=   0.000000  celldm(5)=   0.000000  celldm(6)=   0.000000

     crystal axes: (cart. coord. in units of alat)
               a(1) = (   1.000000   0.000000   0.000000 )
               a(2) = (  -1.000000   1.732051   0.000000 )
               a(3) = (   0.000000   0.000000   3.034994 )

     reciprocal axes: (cart. coord. in units 2 pi/alat)
               b(1) = (  1.000000  0.577350 -0.000000 )
               b(2) = (  0.000000  0.577350  0.000000 )
               b(3) = (  0.000000 -0.000000  0.329490 )

     PseudoPot. # 1 for Zn read from file:
     /home/jvc/QEspresso7.2/ZnO_database/pseudos/Zn.upf
     MD5 check sum: 7f56cabf9682ed8c977c2f7d0c5985c5
     Pseudo is Ultrasoft + core correction, Zval = 12.0
     Generated using &quot;atomic&quot; code by A. Dal Corso  v.6.2.2
     Using radial grid of 1201 points,  6 beta functions with:
                l(1) =   0
                l(2) =   0
                l(3) =   1
                l(4) =   1
                l(5) =   2
                l(6) =   2
     Q(r) pseudized with 0 coefficients

     PseudoPot. # 2 for O  read from file:
     /home/jvc/QEspresso7.2/ZnO_database/pseudos/O.upf
     MD5 check sum: 91400c9766925bcf19f520983a725ff0
     Pseudo is Ultrasoft + core correction, Zval =  6.0
     Generated using &quot;atomic&quot; code by A. Dal Corso  v.6.3MaX
     Using radial grid of 1095 points,  4 beta functions with:
                l(1) =   0
                l(2) =   0
                l(3) =   1
                l(4) =   1
     Q(r) pseudized with 0 coefficients

     atomic species   valence    mass     pseudopotential
        Zn            12.00    65.38000     Zn( 1.00)
        O              6.00    15.99900     O ( 1.00)

      2 Sym. Ops. (no inversion) found

                                    s                        frac. trans.

      isym =  1     identity

 cryst.   s( 1) = (     1          0          0      )
                  (     0          1          0      )
                  (     0          0          1      )

 cart.    s( 1) = (  1.0000000  0.0000000  0.0000000 )
                  (  0.0000000  1.0000000  0.0000000 )
                  (  0.0000000  0.0000000  1.0000000 )

      isym =  2     inv. 180 deg rotation - cart. axis [1,0,0]

 cryst.   s( 2) = (    -1          0          0      )
                  (     2          1          0      )
                  (     0          0          1      )

 cart.    s( 2) = ( -1.0000000  0.0000000  0.0000000 )
                  (  0.0000000  1.0000000  0.0000000 )
                  (  0.0000000  0.0000000  1.0000000 )

   Cartesian axes

     site n.     atom                  positions (alat units)
         1           Zn  tau(   1) = (   0.5000000   0.2886751   0.7597099  )
         2           Zn  tau(   2) = (   0.0000000   0.5773503   0.0009615  )
         3           O   tau(   3) = (   0.5000000   0.2886751   1.3349062  )
         4           O   tau(   4) = (   0.0000000   0.5773503   0.5761578  )
         5           Zn  tau(   5) = (   0.5000000   0.2886751   2.2772067  )
         6           Zn  tau(   6) = (   0.0000000   0.5773503   1.5184583  )
         7           O   tau(   7) = (   0.5000000   0.2886751   2.8524030  )
         8           O   tau(   8) = (   0.0000000   0.5773503   2.0936546  )
         9           Zn  tau(   9) = (   0.0000000   1.1547005   0.7597099  )
        10           Zn  tau(  10) = (  -0.5000000   1.4433757   0.0009615  )
        11           O   tau(  11) = (   0.0000000   1.1547005   1.3349062  )
        12           O   tau(  12) = (  -0.5000000   1.4433757   0.5761578  )
        13           Zn  tau(  13) = (   0.0000000   1.1547005   2.2772067  )
        14           Zn  tau(  14) = (  -0.5000000   1.4433757   1.5184583  )
        15           O   tau(  15) = (   0.0000000   1.1547005   2.8524030  )
        16           O   tau(  16) = (  -0.5000000   1.4433757   2.0936546  )

   Crystallographic axes

     site n.     atom                  positions (cryst. coord.)
         1           Zn  tau(   1) = (  0.6666667  0.1666667  0.2503168  )
         2           Zn  tau(   2) = (  0.3333333  0.3333333  0.0003168  )
         3           O   tau(   3) = (  0.6666667  0.1666667  0.4398382  )
         4           O   tau(   4) = (  0.3333333  0.3333333  0.1898382  )
         5           Zn  tau(   5) = (  0.6666667  0.1666667  0.7503168  )
         6           Zn  tau(   6) = (  0.3333333  0.3333333  0.5003168  )
         7           O   tau(   7) = (  0.6666667  0.1666667  0.9398382  )
         8           O   tau(   8) = (  0.3333333  0.3333333  0.6898382  )
         9           Zn  tau(   9) = (  0.6666667  0.6666667  0.2503168  )
        10           Zn  tau(  10) = (  0.3333333  0.8333333  0.0003168  )
        11           O   tau(  11) = (  0.6666667  0.6666667  0.4398382  )
        12           O   tau(  12) = (  0.3333333  0.8333333  0.1898382  )
        13           Zn  tau(  13) = (  0.6666667  0.6666667  0.7503168  )
        14           Zn  tau(  14) = (  0.3333333  0.8333333  0.5003168  )
        15           O   tau(  15) = (  0.6666667  0.6666667  0.9398382  )
        16           O   tau(  16) = (  0.3333333  0.8333333  0.6898382  )

     number of k points=    80
                       cart. coord. in units 2pi/alat
        k(    1) = (   0.0000000   0.0000000   0.0000000), wk =   0.0092593
        k(    2) = (   0.0000000   0.0000000   0.0549150), wk =   0.0185185
        k(    3) = (   0.0000000   0.0000000   0.1098300), wk =   0.0185185
        k(    4) = (   0.0000000   0.0000000  -0.1647450), wk =   0.0092593
        k(    5) = (   0.0000000   0.0962250   0.0000000), wk =   0.0185185
        k(    6) = (   0.0000000   0.0962250   0.0549150), wk =   0.0185185
        k(    7) = (   0.0000000   0.0962250   0.1098300), wk =   0.0185185
        k(    8) = (   0.0000000   0.0962250  -0.1647450), wk =   0.0185185
        k(    9) = (   0.0000000   0.1924501   0.0000000), wk =   0.0185185
        k(   10) = (   0.0000000   0.1924501   0.0549150), wk =   0.0185185
        k(   11) = (   0.0000000   0.1924501   0.1098300), wk =   0.0185185
        k(   12) = (   0.0000000   0.1924501  -0.1647450), wk =   0.0185185
        k(   13) = (   0.0000000  -0.2886751   0.0000000), wk =   0.0092593
        k(   14) = (   0.0000000  -0.2886751   0.0549150), wk =   0.0185185
        k(   15) = (   0.0000000  -0.2886751   0.1098300), wk =   0.0185185
        k(   16) = (   0.0000000  -0.2886751  -0.1647450), wk =   0.0092593
        k(   17) = (   0.1666667   0.0962250   0.0000000), wk =   0.0370370
        k(   18) = (   0.1666667   0.0962250   0.0549150), wk =   0.0370370
        k(   19) = (   0.1666667   0.0962250   0.1098300), wk =   0.0370370
        k(   20) = (   0.1666667   0.0962250  -0.1647450), wk =   0.0370370
        k(   21) = (   0.1666667   0.1924501   0.0000000), wk =   0.0370370
        k(   22) = (   0.1666667   0.1924501   0.0549150), wk =   0.0370370
        k(   23) = (   0.1666667   0.1924501   0.1098300), wk =   0.0370370
        k(   24) = (   0.1666667   0.1924501  -0.1647450), wk =   0.0370370
        k(   25) = (   0.1666667   0.2886751   0.0000000), wk =   0.0185185
        k(   26) = (   0.1666667   0.2886751   0.0549150), wk =   0.0370370
        k(   27) = (   0.1666667   0.2886751   0.1098300), wk =   0.0370370
        k(   28) = (   0.1666667   0.2886751  -0.1647450), wk =   0.0185185
        k(   29) = (   0.1666667   0.0000000   0.0000000), wk =   0.0185185
        k(   30) = (   0.1666667   0.0000000   0.0549150), wk =   0.0370370
        k(   31) = (   0.1666667   0.0000000   0.1098300), wk =   0.0370370
        k(   32) = (   0.1666667   0.0000000  -0.1647450), wk =   0.0185185
        k(   33) = (   0.3333333   0.1924501   0.0000000), wk =   0.0370370
        k(   34) = (   0.3333333   0.1924501   0.0549150), wk =   0.0370370
        k(   35) = (   0.3333333   0.1924501   0.1098300), wk =   0.0370370
        k(   36) = (   0.3333333   0.1924501  -0.1647450), wk =   0.0370370
        k(   37) = (   0.3333333   0.2886751   0.0000000), wk =   0.0185185
        k(   38) = (   0.3333333   0.2886751   0.0549150), wk =   0.0370370
        k(   39) = (   0.3333333   0.2886751   0.1098300), wk =   0.0370370
        k(   40) = (   0.3333333   0.2886751  -0.1647450), wk =   0.0185185
        k(   41) = (   0.3333333  -0.0962250   0.0000000), wk =   0.0370370
        k(   42) = (   0.3333333  -0.0962250   0.0549150), wk =   0.0370370
        k(   43) = (   0.3333333  -0.0962250   0.1098300), wk =   0.0370370
        k(   44) = (   0.3333333  -0.0962250  -0.1647450), wk =   0.0370370
        k(   45) = (   0.3333333  -0.0000000   0.0000000), wk =   0.0185185
        k(   46) = (   0.3333333  -0.0000000   0.0549150), wk =   0.0370370
        k(   47) = (   0.3333333  -0.0000000   0.1098300), wk =   0.0370370
        k(   48) = (   0.3333333  -0.0000000  -0.1647450), wk =   0.0185185
        k(   49) = (  -0.5000000  -0.2886751   0.0000000), wk =   0.0092593
        k(   50) = (  -0.5000000  -0.2886751   0.0549150), wk =   0.0185185
        k(   51) = (  -0.5000000  -0.2886751   0.1098300), wk =   0.0185185
        k(   52) = (  -0.5000000  -0.2886751  -0.1647450), wk =   0.0092593
        k(   53) = (  -0.5000000  -0.1924501   0.0000000), wk =   0.0185185
        k(   54) = (  -0.5000000  -0.1924501   0.0549150), wk =   0.0185185
        k(   55) = (  -0.5000000  -0.1924501   0.1098300), wk =   0.0185185
[...]
        k(   79) = (   0.5000000  -0.6666667  -0.1666667), wk =   0.0185185
        k(   80) = (   0.5000000  -0.6666667  -0.3333333), wk =   0.0185185

     Check: negative core charge=   -0.000002

     Initial potential from superposition of free atoms

     starting charge     143.9702, renormalised to     144.0000
     Starting wfcs are  104 randomized atomic wfcs

     Self-consistent Calculation

     iteration #  1     ecut=    50.00 Ry     beta= 0.30
     Davidson diagonalization with overlap

     ethr =  1.00E-02,  avg # of iterations =  2.0

     total energy              =   -1445.88607484 Ry
     estimated scf accuracy    <       2.79558147 Ry

[...]

     c_bands:  1 eigenvalues not converged
     ethr =  1.76E-04,  avg # of iterations = 11.3

[...]

     c_bands:  1 eigenvalues not converged
     ethr =  6.34E-09,  avg # of iterations = 13.2

[...]

     total energy              =   -1446.52240665 Ry
     estimated scf accuracy    <       0.00000012 Ry

     iteration # 32     ecut=    50.00 Ry     beta= 0.30
     Davidson diagonalization with overlap

     ethr =  8.39E-11,  avg # of iterations =  5.6

     End of self-consistent calculation

          k = 0.0000 0.0000 0.0000 (  7857 PWs)   bands (ev):

   -10.9943 -10.6134 -10.6133 -10.3699 -10.2354 -10.2353 -10.2170 -10.1282
     0.9216   0.9216   1.0903   1.0904   1.1450   1.3681   1.3682   1.3731
     1.4341   1.4373   1.4373   1.4374   1.4374   1.5723   1.5830   1.5883
     1.5884   1.8024   1.8024   1.8126   1.8126   1.8664   1.9426   2.1579
     2.4295   2.4295   2.4799   2.5840   2.5840   2.5840   2.5840   2.6026
     2.6314   2.6314   2.6676   2.6676   2.7152   2.7273   2.7273   2.7661
     2.8791   3.2886   3.2886   3.2930   3.5728   4.1625   4.5292   4.8294
     4.8294   5.4092   5.4092   5.7106   5.7662   5.7662   5.9503   5.9506
     6.1571   6.4202   6.4202   6.4205   6.4205   6.8681   6.8685   6.9050

     occupation numbers
     1.0000   1.0000   1.0000   1.0000   1.0000   1.0000   1.0000   1.0000
     1.0000   1.0000   1.0000   1.0000   1.0000   1.0000   1.0000   1.0000
     1.0000   1.0000   1.0000   1.0000   1.0000   1.0000   1.0000   1.0000
     1.0000   1.0000   1.0000   1.0000   1.0000   1.0000   1.0000   1.0000
     1.0000   1.0000   1.0000   1.0000   1.0000   1.0000   1.0000   1.0000
     1.0000   1.0000   1.0000   1.0000   1.0000   1.0000   1.0000   1.0000
     1.0000   1.0000   1.0000   1.0000   1.0000   1.0000   1.0000   1.0000
     1.0000   1.0000   1.0000   1.0000   1.0000   1.0000   1.0000   1.0000
     1.0000   1.0000   1.0000   1.0000   1.0000   1.0000   1.0000   1.0000

[...]

          k =-0.5000-0.2887 0.0000 (  7888 PWs)   bands (ev):

[...]

          k =-0.3333-0.0962-0.1098 (  7878 PWs)   bands (ev):

[...]

          k = 0.5000-0.0962-0.1098 (  7880 PWs)   bands (ev):

   -10.3569 -10.3568 -10.3039 -10.3039 -10.1766 -10.1766 -10.1371 -10.1370
     1.0740   1.0740   1.1635   1.1635   1.1903   1.1903   1.3952   1.3952
     1.5742   1.5742   1.5892   1.5892   1.7184   1.7185   1.7446   1.7446
     1.8820   1.8820   1.9501   1.9501   1.9911   1.9911   2.1040   2.1040
     2.4478   2.4478   2.5230   2.5230   2.5636   2.5636   2.5873   2.5873
     2.7129   2.7129   2.7255   2.7255   2.8373   2.8373   2.8785   2.8785
     3.1677   3.1677   3.3167   3.3167   3.6574   3.6574   3.7593   3.7593
     4.1538   4.1538   4.4978   4.4978   4.6891   4.6892   5.2514   5.2514
     5.4498   5.4498   5.7052   5.7052   5.8848   5.8848   6.0224   6.0224

     occupation numbers
     1.0000   1.0000   1.0000   1.0000   1.0000   1.0000   1.0000   1.0000
     1.0000   1.0000   1.0000   1.0000   1.0000   1.0000   1.0000   1.0000
     1.0000   1.0000   1.0000   1.0000   1.0000   1.0000   1.0000   1.0000
     1.0000   1.0000   1.0000   1.0000   1.0000   1.0000   1.0000   1.0000
     1.0000   1.0000   1.0000   1.0000   1.0000   1.0000   1.0000   1.0000
     1.0000   1.0000   1.0000   1.0000   1.0000   1.0000   1.0000   1.0000
     1.0000   1.0000   1.0000   1.0000   1.0000   1.0000   1.0000   1.0000
     1.0000   1.0000   1.0000   1.0000   1.0000   1.0000   1.0000   1.0000
     1.0000   1.0000   1.0000   1.0000   1.0000   1.0000   1.0000   1.0000

     highest occupied level (ev):     6.9050

!    total energy              =   -1446.52240671 Ry
     estimated scf accuracy    <          6.6E-09 Ry

     The total energy is the sum of the following terms:
     one-electron contribution =    -619.37080839 Ry
     hartree contribution      =     473.96850171 Ry
     xc contribution           =    -438.22945888 Ry
     ewald contribution        =    -862.89064115 Ry

     convergence has been achieved in  32 iterations

     Forces acting on atoms (cartesian axes, Ry/au):

     atom    1 type  1   force =     0.00000000   -0.00001126   -0.02429610
     atom    2 type  1   force =     0.00000000    0.00001251   -0.02430576
     atom    3 type  2   force =     0.00000000    0.00000085    0.02429908
     atom    4 type  2   force =     0.00000000   -0.00000065    0.02429820
     atom    5 type  1   force =     0.00000000   -0.00000857   -0.02430191
     atom    6 type  1   force =     0.00000000    0.00001085   -0.02429504
     atom    7 type  2   force =     0.00000000    0.00000119    0.02429916
     atom    8 type  2   force =     0.00000000   -0.00000072    0.02430031
     atom    9 type  1   force =     0.00000000   -0.00000617   -0.02429147
     atom   10 type  1   force =     0.00000000    0.00000428   -0.02430622
     atom   11 type  2   force =     0.00000000    0.00000109    0.02429843
     atom   12 type  2   force =     0.00000000   -0.00000087    0.02429793
     atom   13 type  1   force =     0.00000000   -0.00000860   -0.02429680
     atom   14 type  1   force =     0.00000000    0.00000556   -0.02429820
     atom   15 type  2   force =     0.00000000    0.00000070    0.02429855
     atom   16 type  2   force =     0.00000000   -0.00000018    0.02429985
     The non-local contrib.  to forces
     atom    1 type  1   force =     0.00000000    0.00001291   -0.18430047
     atom    2 type  1   force =     0.00000000   -0.00001280   -0.18430737
     atom    3 type  2   force =     0.00000000    0.00019193   -0.13911593
     atom    4 type  2   force =     0.00000000   -0.00019267   -0.13911568
     atom    5 type  1   force =     0.00000000    0.00001385   -0.18429911
     atom    6 type  1   force =     0.00000000   -0.00001330   -0.18429382
     atom    7 type  2   force =     0.00000000    0.00019218   -0.13911136
     atom    8 type  2   force =     0.00000000   -0.00019263   -0.13911173
     atom    9 type  1   force =     0.00000000    0.00001474   -0.18429932
     atom   10 type  1   force =     0.00000000   -0.00001387   -0.18430825
     atom   11 type  2   force =     0.00000000    0.00019269   -0.13911530
     atom   12 type  2   force =     0.00000000   -0.00019231   -0.13911587
     atom   13 type  1   force =     0.00000000    0.00001358   -0.18429852
     atom   14 type  1   force =     0.00000000   -0.00001445   -0.18429526
     atom   15 type  2   force =     0.00000000    0.00019168   -0.13911044
     atom   16 type  2   force =     0.00000000   -0.00019154   -0.13911253
     The ionic contribution  to forces
     atom    1 type  1   force =    -0.00000000    0.00000000   -1.21305187
     atom    2 type  1   force =     0.00000000   -0.00000000   -1.21305187
     atom    3 type  2   force =    -0.00000000    0.00000000    1.21305187
     atom    4 type  2   force =     0.00000000   -0.00000000    1.21305187
     atom    5 type  1   force =    -0.00000000    0.00000000   -1.21305187
     atom    6 type  1   force =     0.00000000   -0.00000000   -1.21305187
     atom    7 type  2   force =    -0.00000000    0.00000000    1.21305187
     atom    8 type  2   force =     0.00000000   -0.00000000    1.21305187
     atom    9 type  1   force =    -0.00000000    0.00000000   -1.21305187
     atom   10 type  1   force =     0.00000000   -0.00000000   -1.21305187
     atom   11 type  2   force =    -0.00000000    0.00000000    1.21305187
     atom   12 type  2   force =     0.00000000   -0.00000000    1.21305187
     atom   13 type  1   force =    -0.00000000    0.00000000   -1.21305187
     atom   14 type  1   force =     0.00000000   -0.00000000   -1.21305187
     atom   15 type  2   force =    -0.00000000    0.00000000    1.21305187
     atom   16 type  2   force =     0.00000000   -0.00000000    1.21305187
     The local contribution  to forces
     atom    1 type  1   force =    -0.00000009   -0.00002246    1.35917756
     atom    2 type  1   force =    -0.00000000    0.00002056    1.35918475
     atom    3 type  2   force =    -0.00000002   -0.00018797   -1.05067344
     atom    4 type  2   force =    -0.00000000    0.00019066   -1.05067383
     atom    5 type  1   force =    -0.00000009   -0.00002643    1.35918026
     atom    6 type  1   force =     0.00000000    0.00002216    1.35917840
     atom    7 type  2   force =    -0.00000002   -0.00018949   -1.05067022
     atom    8 type  2   force =     0.00000000    0.00018970   -1.05067089
     atom    9 type  1   force =    -0.00000009   -0.00002914    1.35917242
     atom   10 type  1   force =    -0.00000000    0.00003072    1.35918532
     atom   11 type  2   force =    -0.00000002   -0.00019105   -1.05067550
     atom   12 type  2   force =     0.00000000    0.00018877   -1.05067534
     atom   13 type  1   force =    -0.00000009   -0.00002499    1.35917426
     atom   14 type  1   force =    -0.00000000    0.00003010    1.35918286
     atom   15 type  2   force =    -0.00000002   -0.00018939   -1.05067282
     atom   16 type  2   force =    -0.00000000    0.00018959   -1.05067134
     The core correction contribution to forces
     atom    1 type  1   force =    -0.00000001    0.00000408    0.01387149
     atom    2 type  1   force =     0.00000006   -0.00000370    0.01387431
     atom    3 type  2   force =     0.00000000   -0.00000218    0.00103240
     atom    4 type  2   force =     0.00000001    0.00000221    0.00103165
     atom    5 type  1   force =    -0.00000001    0.00000415    0.01387132
     atom    6 type  1   force =     0.00000006   -0.00000372    0.01386850
     atom    7 type  2   force =     0.00000000   -0.00000218    0.00102986
     atom    8 type  2   force =     0.00000001    0.00000221    0.00103064
     atom    9 type  1   force =    -0.00000007    0.00000388    0.01387159
     atom   10 type  1   force =    -0.00000001   -0.00000427    0.01387433
     atom   11 type  2   force =    -0.00000001   -0.00000222    0.00103239
     atom   12 type  2   force =    -0.00000000    0.00000218    0.00103164
     atom   13 type  1   force =    -0.00000007    0.00000381    0.01387150
     atom   14 type  1   force =    -0.00000001   -0.00000423    0.01386842
     atom   15 type  2   force =    -0.00000001   -0.00000220    0.00102985
     atom   16 type  2   force =    -0.00000000    0.00000217    0.00103064
     The Hubbard contrib.    to forces
     atom    1 type  1   force =     0.00000000    0.00000000    0.00000000
     atom    2 type  1   force =     0.00000000    0.00000000    0.00000000
     atom    3 type  2   force =     0.00000000    0.00000000    0.00000000
     atom    4 type  2   force =     0.00000000    0.00000000    0.00000000
     atom    5 type  1   force =     0.00000000    0.00000000    0.00000000
     atom    6 type  1   force =     0.00000000    0.00000000    0.00000000
     atom    7 type  2   force =     0.00000000    0.00000000    0.00000000
     atom    8 type  2   force =     0.00000000    0.00000000    0.00000000
     atom    9 type  1   force =     0.00000000    0.00000000    0.00000000
     atom   10 type  1   force =     0.00000000    0.00000000    0.00000000
     atom   11 type  2   force =     0.00000000    0.00000000    0.00000000
     atom   12 type  2   force =     0.00000000    0.00000000    0.00000000
     atom   13 type  1   force =     0.00000000    0.00000000    0.00000000
     atom   14 type  1   force =     0.00000000    0.00000000    0.00000000
     atom   15 type  2   force =     0.00000000    0.00000000    0.00000000
     atom   16 type  2   force =     0.00000000    0.00000000    0.00000000
     The SCF correction term to forces
     atom    1 type  1   force =     0.00000000   -0.00000592    0.00000735
     atom    2 type  1   force =     0.00000000    0.00000832   -0.00000542
     atom    3 type  2   force =    -0.00000000   -0.00000107    0.00000435
     atom    4 type  2   force =     0.00000000   -0.00000099    0.00000435
     atom    5 type  1   force =     0.00000000   -0.00000027   -0.00000235
     atom    6 type  1   force =     0.00000000    0.00000558    0.00000391
     atom    7 type  2   force =    -0.00000000    0.00000056   -0.00000083
     atom    8 type  2   force =     0.00000000   -0.00000013    0.00000058
     atom    9 type  1   force =    -0.00000000    0.00000422    0.00001587
     atom   10 type  1   force =    -0.00000000   -0.00000843   -0.00000560
     atom   11 type  2   force =    -0.00000000    0.00000154    0.00000513
     atom   12 type  2   force =     0.00000000    0.00000037    0.00000580
     atom   13 type  1   force =    -0.00000000   -0.00000113    0.00000797
     atom   14 type  1   force =    -0.00000000   -0.00000599   -0.00000220
     atom   15 type  2   force =    -0.00000000    0.00000049    0.00000025
     atom   16 type  2   force =     0.00000000   -0.00000052    0.00000138

     Total force =     0.097196     Total SCF correction =     0.000029

     General routines

     Parallel routines

   This run was terminated on:   6:40:38  29Aug2025

   JOB DONE.
Note: The following floating-point exceptions are signalling: IEEE_UNDERFLOW_FLAG IEEE_DENORMAL
Note: The following floating-point exceptions are signalling: IEEE_UNDERFLOW_FLAG IEEE_DENORMAL
Note: The following floating-point exceptions are signalling: IEEE_UNDERFLOW_FLAG IEEE_DENORMAL
Note: The following floating-point exceptions are signalling: IEEE_UNDERFLOW_FLAG IEEE_DENORMAL
Note: The following floating-point exceptions are signalling: IEEE_UNDERFLOW_FLAG IEEE_DENORMAL
Note: The following floating-point exceptions are signalling: IEEE_UNDERFLOW_FLAG IEEE_DENORMAL
Note: The following floating-point exceptions are signalling: IEEE_UNDERFLOW_FLAG IEEE_DENORMAL
Note: The following floating-point exceptions are signalling: IEEE_UNDERFLOW_FLAG IEEE_DENORMAL
Note: The following floating-point exceptions are signalling: IEEE_UNDERFLOW_FLAG IEEE_DENORMAL
Note: The following floating-point exceptions are signalling: IEEE_UNDERFLOW_FLAG IEEE_DENORMAL
Note: The following floating-point exceptions are signalling: IEEE_UNDERFLOW_FLAG IEEE_DENORMAL
Note: The following floating-point exceptions are signalling: IEEE_UNDERFLOW_FLAG IEEE_DENORMAL
Note: The following floating-point exceptions are signalling: IEEE_UNDERFLOW_FLAG IEEE_DENORMAL
Note: The following floating-point exceptions are signalling: IEEE_UNDERFLOW_FLAG IEEE_DENORMAL
Note: The following floating-point exceptions are signalling: IEEE_UNDERFLOW_FLAG IEEE_DENORMAL
Note: The following floating-point exceptions are signalling: IEEE_UNDERFLOW_FLAG IEEE_DENORMAL
Note: The following floating-point exceptions are signalling: IEEE_UNDERFLOW_FLAG IEEE_DENORMAL
Note: The following floating-point exceptions are signalling: IEEE_UNDERFLOW_FLAG IEEE_DENORMAL
Note: The following floating-point exceptions are signalling: IEEE_UNDERFLOW_FLAG IEEE_DENORMAL
Note: The following floating-point exceptions are signalling: IEEE_UNDERFLOW_FLAG IEEE_DENORMAL
Note: The following floating-point exceptions are signalling: IEEE_UNDERFLOW_FLAG IEEE_DENORMAL
Note: The following floating-point exceptions are signalling: IEEE_UNDERFLOW_FLAG IEEE_DENORMAL
Note: The following floating-point exceptions are signalling: IEEE_UNDERFLOW_FLAG IEEE_DENORMAL
Note: The following floating-point exceptions are signalling: IEEE_UNDERFLOW_FLAG IEEE_DENORMAL
Note: The following floating-point exceptions are signalling: IEEE_UNDERFLOW_FLAG IEEE_DENORMAL
Note: The following floating-point exceptions are signalling: IEEE_UNDERFLOW_FLAG IEEE_DENORMAL
Note: The following floating-point exceptions are signalling: IEEE_UNDERFLOW_FLAG IEEE_DENORMAL
Note: The following floating-point exceptions are signalling: IEEE_UNDERFLOW_FLAG IEEE_DENORMAL
Note: The following floating-point exceptions are signalling: IEEE_UNDERFLOW_FLAG IEEE_DENORMAL
Note: The following floating-point exceptions are signalling: IEEE_UNDERFLOW_FLAG IEEE_DENORMAL
Note: The following floating-point exceptions are signalling: IEEE_UNDERFLOW_FLAG IEEE_DENORMAL
Note: The following floating-point exceptions are signalling: IEEE_UNDERFLOW_FLAG IEEE_DENORMAL