     Program PWSCF v.7.0 starts on 29Aug2025 at 14:39: 7

     K-points division:     npool     =       8
     R & G space division:  proc/nbgrp/npool/nimage =       4

     Reading input from /home/jvc/QEspresso7.2/ZnO_database/scripts/cell122.in/ZnO-3.53-1.45-122.in
Warning: card &CELL ignored
Warning: card / ignored
Warning: card &FCP ignored
Warning: card / ignored
Warning: card &RISM ignored
Warning: card / ignored

     Current dimensions of program PWSCF are:
     Max number of different atomic species (ntypx) = 10
     Max number of k-points (npk) =  40000
     Max angular momentum in pseudopotentials (lmaxx) =  4
     file Zn.upf: wavefunction(s)  3D renormalized
     Found identity + (  0.0000  0.0000  0.5000) symmetry
     This is a supercell, fractional translations are disabled
     Message from routine setup:
     using ibrav=0 with symmetry is DISCOURAGED, use correct ibrav instead

     Using Slab Decomposition

     bravais-lattice index     =            0
     lattice parameter (alat)  =       6.6732  a.u.
     unit-cell volume          =    1495.6437 (a.u.)^3
     number of atoms/cell      =           16
     number of atomic types    =            2
     number of electrons       =       144.00
     number of Kohn-Sham states=           72
     kinetic-energy cutoff     =      50.0000  Ry
     charge density cutoff     =     400.0000  Ry
     scf convergence threshold =      1.0E-08
     mixing beta               =       0.3000
     number of iterations used =            8  plain     mixing
     Exchange-correlation= PBE
                           (   1   4   3   4   0   0   0)

     celldm(1)=   6.673162  celldm(2)=   0.000000  celldm(3)=   0.000000
     celldm(4)=   0.000000  celldm(5)=   0.000000  celldm(6)=   0.000000

     crystal axes: (cart. coord. in units of alat)
               a(1) = (   1.000000   0.000000   0.000000 )
               a(2) = (  -1.000000   1.732051   0.000000 )
               a(3) = (   0.000000   0.000000   2.905845 )

     reciprocal axes: (cart. coord. in units 2 pi/alat)
               b(1) = (  1.000000  0.577350 -0.000000 )
               b(2) = (  0.000000  0.577350  0.000000 )
               b(3) = (  0.000000 -0.000000  0.344134 )

     PseudoPot. # 1 for Zn read from file:
     /home/jvc/QEspresso7.2/ZnO_database/pseudos/Zn.upf
     MD5 check sum: 7f56cabf9682ed8c977c2f7d0c5985c5
     Pseudo is Ultrasoft + core correction, Zval = 12.0
     Generated using &quot;atomic&quot; code by A. Dal Corso  v.6.2.2
     Using radial grid of 1201 points,  6 beta functions with:
                l(1) =   0
                l(2) =   0
                l(3) =   1
                l(4) =   1
                l(5) =   2
                l(6) =   2
     Q(r) pseudized with 0 coefficients

     PseudoPot. # 2 for O  read from file:
     /home/jvc/QEspresso7.2/ZnO_database/pseudos/O.upf
     MD5 check sum: 91400c9766925bcf19f520983a725ff0
     Pseudo is Ultrasoft + core correction, Zval =  6.0
     Generated using &quot;atomic&quot; code by A. Dal Corso  v.6.3MaX
     Using radial grid of 1095 points,  4 beta functions with:
                l(1) =   0
                l(2) =   0
                l(3) =   1
                l(4) =   1
     Q(r) pseudized with 0 coefficients

     atomic species   valence    mass     pseudopotential
        Zn            12.00    65.38000     Zn( 1.00)
        O              6.00    15.99900     O ( 1.00)

      2 Sym. Ops. (no inversion) found

                                    s                        frac. trans.

      isym =  1     identity

 cryst.   s( 1) = (     1          0          0      )
                  (     0          1          0      )
                  (     0          0          1      )

 cart.    s( 1) = (  1.0000000  0.0000000  0.0000000 )
                  (  0.0000000  1.0000000  0.0000000 )
                  (  0.0000000  0.0000000  1.0000000 )

      isym =  2     inv. 180 deg rotation - cart. axis [1,0,0]

 cryst.   s( 2) = (    -1          0          0      )
                  (     2          1          0      )
                  (     0          0          1      )

 cart.    s( 2) = ( -1.0000000  0.0000000  0.0000000 )
                  (  0.0000000  1.0000000  0.0000000 )
                  (  0.0000000  0.0000000  1.0000000 )

   Cartesian axes

     site n.     atom                  positions (alat units)
         1           Zn  tau(   1) = (   0.5000000   0.2886751   0.7273818  )
         2           Zn  tau(   2) = (   0.0000000   0.5773503   0.0009206  )
         3           O   tau(   3) = (   0.5000000   0.2886751   1.2781017  )
         4           O   tau(   4) = (   0.0000000   0.5773503   0.5516404  )
         5           Zn  tau(   5) = (   0.5000000   0.2886751   2.1803043  )
         6           Zn  tau(   6) = (   0.0000000   0.5773503   1.4538431  )
         7           O   tau(   7) = (   0.5000000   0.2886751   2.7310242  )
         8           O   tau(   8) = (   0.0000000   0.5773503   2.0045629  )
         9           Zn  tau(   9) = (   0.0000000   1.1547005   0.7273818  )
        10           Zn  tau(  10) = (  -0.5000000   1.4433757   0.0009206  )
        11           O   tau(  11) = (   0.0000000   1.1547005   1.2781017  )
        12           O   tau(  12) = (  -0.5000000   1.4433757   0.5516404  )
        13           Zn  tau(  13) = (   0.0000000   1.1547005   2.1803043  )
        14           Zn  tau(  14) = (  -0.5000000   1.4433757   1.4538431  )
        15           O   tau(  15) = (   0.0000000   1.1547005   2.7310242  )
        16           O   tau(  16) = (  -0.5000000   1.4433757   2.0045629  )

   Crystallographic axes

     site n.     atom                  positions (cryst. coord.)
         1           Zn  tau(   1) = (  0.6666667  0.1666667  0.2503168  )
         2           Zn  tau(   2) = (  0.3333333  0.3333333  0.0003168  )
         3           O   tau(   3) = (  0.6666667  0.1666667  0.4398382  )
         4           O   tau(   4) = (  0.3333333  0.3333333  0.1898382  )
         5           Zn  tau(   5) = (  0.6666667  0.1666667  0.7503168  )
         6           Zn  tau(   6) = (  0.3333333  0.3333333  0.5003168  )
         7           O   tau(   7) = (  0.6666667  0.1666667  0.9398382  )
         8           O   tau(   8) = (  0.3333333  0.3333333  0.6898382  )
         9           Zn  tau(   9) = (  0.6666667  0.6666667  0.2503168  )
        10           Zn  tau(  10) = (  0.3333333  0.8333333  0.0003168  )
        11           O   tau(  11) = (  0.6666667  0.6666667  0.4398382  )
        12           O   tau(  12) = (  0.3333333  0.8333333  0.1898382  )
        13           Zn  tau(  13) = (  0.6666667  0.6666667  0.7503168  )
        14           Zn  tau(  14) = (  0.3333333  0.8333333  0.5003168  )
        15           O   tau(  15) = (  0.6666667  0.6666667  0.9398382  )
        16           O   tau(  16) = (  0.3333333  0.8333333  0.6898382  )

     number of k points=    80
                       cart. coord. in units 2pi/alat
        k(    1) = (   0.0000000   0.0000000   0.0000000), wk =   0.0092593
        k(    2) = (   0.0000000   0.0000000   0.0573557), wk =   0.0185185
        k(    3) = (   0.0000000   0.0000000   0.1147113), wk =   0.0185185
        k(    4) = (   0.0000000   0.0000000  -0.1720670), wk =   0.0092593
        k(    5) = (   0.0000000   0.0962250   0.0000000), wk =   0.0185185
        k(    6) = (   0.0000000   0.0962250   0.0573557), wk =   0.0185185
        k(    7) = (   0.0000000   0.0962250   0.1147113), wk =   0.0185185
        k(    8) = (   0.0000000   0.0962250  -0.1720670), wk =   0.0185185
        k(    9) = (   0.0000000   0.1924501   0.0000000), wk =   0.0185185
        k(   10) = (   0.0000000   0.1924501   0.0573557), wk =   0.0185185
        k(   11) = (   0.0000000   0.1924501   0.1147113), wk =   0.0185185
        k(   12) = (   0.0000000   0.1924501  -0.1720670), wk =   0.0185185
        k(   13) = (   0.0000000  -0.2886751   0.0000000), wk =   0.0092593
        k(   14) = (   0.0000000  -0.2886751   0.0573557), wk =   0.0185185
        k(   15) = (   0.0000000  -0.2886751   0.1147113), wk =   0.0185185
        k(   16) = (   0.0000000  -0.2886751  -0.1720670), wk =   0.0092593
        k(   17) = (   0.1666667   0.0962250   0.0000000), wk =   0.0370370
        k(   18) = (   0.1666667   0.0962250   0.0573557), wk =   0.0370370
        k(   19) = (   0.1666667   0.0962250   0.1147113), wk =   0.0370370
        k(   20) = (   0.1666667   0.0962250  -0.1720670), wk =   0.0370370
        k(   21) = (   0.1666667   0.1924501   0.0000000), wk =   0.0370370
        k(   22) = (   0.1666667   0.1924501   0.0573557), wk =   0.0370370
        k(   23) = (   0.1666667   0.1924501   0.1147113), wk =   0.0370370
        k(   24) = (   0.1666667   0.1924501  -0.1720670), wk =   0.0370370
        k(   25) = (   0.1666667   0.2886751   0.0000000), wk =   0.0185185
        k(   26) = (   0.1666667   0.2886751   0.0573557), wk =   0.0370370
        k(   27) = (   0.1666667   0.2886751   0.1147113), wk =   0.0370370
        k(   28) = (   0.1666667   0.2886751  -0.1720670), wk =   0.0185185
        k(   29) = (   0.1666667   0.0000000   0.0000000), wk =   0.0185185
        k(   30) = (   0.1666667   0.0000000   0.0573557), wk =   0.0370370
        k(   31) = (   0.1666667   0.0000000   0.1147113), wk =   0.0370370
        k(   32) = (   0.1666667   0.0000000  -0.1720670), wk =   0.0185185
        k(   33) = (   0.3333333   0.1924501   0.0000000), wk =   0.0370370
        k(   34) = (   0.3333333   0.1924501   0.0573557), wk =   0.0370370
        k(   35) = (   0.3333333   0.1924501   0.1147113), wk =   0.0370370
        k(   36) = (   0.3333333   0.1924501  -0.1720670), wk =   0.0370370
        k(   37) = (   0.3333333   0.2886751   0.0000000), wk =   0.0185185
        k(   38) = (   0.3333333   0.2886751   0.0573557), wk =   0.0370370
        k(   39) = (   0.3333333   0.2886751   0.1147113), wk =   0.0370370
        k(   40) = (   0.3333333   0.2886751  -0.1720670), wk =   0.0185185
        k(   41) = (   0.3333333  -0.0962250   0.0000000), wk =   0.0370370
        k(   42) = (   0.3333333  -0.0962250   0.0573557), wk =   0.0370370
        k(   43) = (   0.3333333  -0.0962250   0.1147113), wk =   0.0370370
        k(   44) = (   0.3333333  -0.0962250  -0.1720670), wk =   0.0370370
        k(   45) = (   0.3333333  -0.0000000   0.0000000), wk =   0.0185185
        k(   46) = (   0.3333333  -0.0000000   0.0573557), wk =   0.0370370
        k(   47) = (   0.3333333  -0.0000000   0.1147113), wk =   0.0370370
        k(   48) = (   0.3333333  -0.0000000  -0.1720670), wk =   0.0185185
        k(   49) = (  -0.5000000  -0.2886751   0.0000000), wk =   0.0092593
        k(   50) = (  -0.5000000  -0.2886751   0.0573557), wk =   0.0185185
        k(   51) = (  -0.5000000  -0.2886751   0.1147113), wk =   0.0185185
        k(   52) = (  -0.5000000  -0.2886751  -0.1720670), wk =   0.0092593
        k(   53) = (  -0.5000000  -0.1924501   0.0000000), wk =   0.0185185
        k(   54) = (  -0.5000000  -0.1924501   0.0573557), wk =   0.0185185
        k(   55) = (  -0.5000000  -0.1924501   0.1147113), wk =   0.0185185
[...]
        k(   79) = (   0.5000000  -0.6666667  -0.1666667), wk =   0.0185185
        k(   80) = (   0.5000000  -0.6666667  -0.3333333), wk =   0.0185185

     Check: negative core charge=   -0.000002

     Initial potential from superposition of free atoms

     starting charge     143.9702, renormalised to     144.0000
     Starting wfcs are  104 randomized atomic wfcs

     Self-consistent Calculation

     iteration #  1     ecut=    50.00 Ry     beta= 0.30
     Davidson diagonalization with overlap

     ethr =  1.00E-02,  avg # of iterations =  1.8

     total energy              =   -1445.70788740 Ry
     estimated scf accuracy    <       3.03576476 Ry

[...]

     c_bands:  1 eigenvalues not converged
     ethr =  2.24E-04,  avg # of iterations =  8.7

[...]

     c_bands:  1 eigenvalues not converged
     ethr =  1.11E-06,  avg # of iterations = 12.4

[...]

     total energy              =   -1446.42452815 Ry
     estimated scf accuracy    <       0.00000010 Ry

     iteration # 33     ecut=    50.00 Ry     beta= 0.30
     Davidson diagonalization with overlap

     ethr =  2.69E-11,  avg # of iterations =  5.7

     End of self-consistent calculation

          k = 0.0000 0.0000 0.0000 (  8923 PWs)   bands (ev):

   -11.8559 -11.5387 -11.5387 -11.4002 -11.2871 -11.2871 -11.2174 -11.1993
    -0.1699  -0.1699  -0.1056  -0.1056  -0.0221   0.0651   0.0990   0.0992
     0.1514   0.1514   0.1515   0.1515   0.2281   0.2930   0.2931   0.3944
     0.4291   0.4291   0.4296   0.4296   0.5004   0.5189   0.7027   0.7867
     0.8061   0.8062   0.8664   0.9402   0.9411   0.9411   0.9411   0.9411
     0.9644   0.9644   1.0038   1.0038   1.0428   1.0457   1.0457   1.0673
     1.1481   1.7325   1.8219   1.8219   2.3124   2.7889   3.1171   3.2053
     3.2053   3.9187   3.9187   4.1574   4.2560   4.2563   4.3220   4.3220
     4.6165   4.7038   4.7038   4.7041   4.7041   5.1194   5.1198   5.1885

     occupation numbers
     1.0000   1.0000   1.0000   1.0000   1.0000   1.0000   1.0000   1.0000
     1.0000   1.0000   1.0000   1.0000   1.0000   1.0000   1.0000   1.0000
     1.0000   1.0000   1.0000   1.0000   1.0000   1.0000   1.0000   1.0000
     1.0000   1.0000   1.0000   1.0000   1.0000   1.0000   1.0000   1.0000
     1.0000   1.0000   1.0000   1.0000   1.0000   1.0000   1.0000   1.0000
     1.0000   1.0000   1.0000   1.0000   1.0000   1.0000   1.0000   1.0000
     1.0000   1.0000   1.0000   1.0000   1.0000   1.0000   1.0000   1.0000
     1.0000   1.0000   1.0000   1.0000   1.0000   1.0000   1.0000   1.0000
     1.0000   1.0000   1.0000   1.0000   1.0000   1.0000   1.0000   1.0000

[...]

          k =-0.5000-0.2887 0.0000 (  8868 PWs)   bands (ev):

[...]

          k =-0.3333-0.0962-0.1147 (  8922 PWs)   bands (ev):

[...]

          k = 0.5000-0.0962-0.1147 (  8898 PWs)   bands (ev):

   -11.3877 -11.3877 -11.3434 -11.3434 -11.2387 -11.2387 -11.2068 -11.2068
    -0.0782  -0.0782   0.0111   0.0111   0.0177   0.0177   0.1704   0.1704
     0.2675   0.2675   0.2948   0.2948   0.3908   0.3908   0.4172   0.4172
     0.4818   0.4818   0.5486   0.5486   0.5831   0.5831   0.6848   0.6848
     0.8499   0.8499   0.8952   0.8952   0.9201   0.9201   0.9334   0.9334
     1.0383   1.0383   1.0499   1.0499   1.1220   1.1220   1.1485   1.1485
     1.7624   1.7624   1.8431   1.8431   2.1470   2.1470   2.2814   2.2814
     2.7920   2.7920   3.0983   3.0983   3.3232   3.3232   3.8862   3.8862
     3.9876   3.9876   4.2406   4.2406   4.3476   4.3476   4.5406   4.5406

     occupation numbers
     1.0000   1.0000   1.0000   1.0000   1.0000   1.0000   1.0000   1.0000
     1.0000   1.0000   1.0000   1.0000   1.0000   1.0000   1.0000   1.0000
     1.0000   1.0000   1.0000   1.0000   1.0000   1.0000   1.0000   1.0000
     1.0000   1.0000   1.0000   1.0000   1.0000   1.0000   1.0000   1.0000
     1.0000   1.0000   1.0000   1.0000   1.0000   1.0000   1.0000   1.0000
     1.0000   1.0000   1.0000   1.0000   1.0000   1.0000   1.0000   1.0000
     1.0000   1.0000   1.0000   1.0000   1.0000   1.0000   1.0000   1.0000
     1.0000   1.0000   1.0000   1.0000   1.0000   1.0000   1.0000   1.0000
     1.0000   1.0000   1.0000   1.0000   1.0000   1.0000   1.0000   1.0000

     highest occupied level (ev):     5.1885

!    total energy              =   -1446.42452817 Ry
     estimated scf accuracy    <          2.0E-10 Ry

     The total energy is the sum of the following terms:
     one-electron contribution =    -680.55372102 Ry
     hartree contribution      =     496.44807578 Ry
     xc contribution           =    -437.28680730 Ry
     ewald contribution        =    -825.03207563 Ry

     convergence has been achieved in  33 iterations

     Forces acting on atoms (cartesian axes, Ry/au):

     atom    1 type  1   force =     0.00000000   -0.00000482   -0.02242872
     atom    2 type  1   force =     0.00000000    0.00000825   -0.02243505
     atom    3 type  2   force =     0.00000000    0.00000034    0.02242819
     atom    4 type  2   force =     0.00000000   -0.00000069    0.02242814
     atom    5 type  1   force =     0.00000000   -0.00000369   -0.02243208
     atom    6 type  1   force =     0.00000000    0.00000552   -0.02242381
     atom    7 type  2   force =     0.00000000    0.00000032    0.02243118
     atom    8 type  2   force =     0.00000000   -0.00000076    0.02243125
     atom    9 type  1   force =     0.00000000   -0.00000652   -0.02242927
     atom   10 type  1   force =     0.00000000    0.00000306   -0.02243329
     atom   11 type  2   force =     0.00000000    0.00000054    0.02242818
     atom   12 type  2   force =     0.00000000   -0.00000072    0.02242835
     atom   13 type  1   force =     0.00000000   -0.00000628   -0.02243005
     atom   14 type  1   force =     0.00000000    0.00000558   -0.02242524
     atom   15 type  2   force =     0.00000000    0.00000071    0.02243109
     atom   16 type  2   force =     0.00000000   -0.00000086    0.02243114
     The non-local contrib.  to forces
     atom    1 type  1   force =     0.00000000   -0.00000652   -0.29400715
     atom    2 type  1   force =     0.00000000    0.00000839   -0.29401010
     atom    3 type  2   force =     0.00000000    0.00018905   -0.24584267
     atom    4 type  2   force =     0.00000000   -0.00018985   -0.24583787
     atom    5 type  1   force =     0.00000000   -0.00000611   -0.29399988
     atom    6 type  1   force =     0.00000000    0.00000714   -0.29399628
     atom    7 type  2   force =     0.00000000    0.00018852   -0.24583179
     atom    8 type  2   force =     0.00000000   -0.00018972   -0.24583424
     atom    9 type  1   force =     0.00000000   -0.00000749   -0.29400761
     atom   10 type  1   force =     0.00000000    0.00000588   -0.29400930
     atom   11 type  2   force =     0.00000000    0.00019020   -0.24584185
     atom   12 type  2   force =     0.00000000   -0.00018946   -0.24583717
     atom   13 type  1   force =     0.00000000   -0.00000811   -0.29399905
     atom   14 type  1   force =     0.00000000    0.00000712   -0.29399704
     atom   15 type  2   force =     0.00000000    0.00019081   -0.24583187
     atom   16 type  2   force =     0.00000000   -0.00018954   -0.24583492
     The ionic contribution  to forces
     atom    1 type  1   force =    -0.00000000    0.00000001   -1.93774860
     atom    2 type  1   force =     0.00000000    0.00000001   -1.93774860
     atom    3 type  2   force =    -0.00000000    0.00000001    1.93774860
     atom    4 type  2   force =     0.00000000    0.00000000    1.93774860
     atom    5 type  1   force =    -0.00000000    0.00000001   -1.93774860
     atom    6 type  1   force =     0.00000000    0.00000001   -1.93774860
     atom    7 type  2   force =    -0.00000000    0.00000001    1.93774860
     atom    8 type  2   force =     0.00000000    0.00000000    1.93774860
     atom    9 type  1   force =     0.00000000   -0.00000001   -1.93774860
     atom   10 type  1   force =    -0.00000000   -0.00000000   -1.93774860
     atom   11 type  2   force =     0.00000000   -0.00000001    1.93774860
     atom   12 type  2   force =    -0.00000000   -0.00000000    1.93774860
     atom   13 type  1   force =     0.00000000   -0.00000001   -1.93774860
     atom   14 type  1   force =    -0.00000000   -0.00000000   -1.93774860
     atom   15 type  2   force =     0.00000000   -0.00000001    1.93774860
     atom   16 type  2   force =    -0.00000000   -0.00000000    1.93774860
     The local contribution  to forces
     atom    1 type  1   force =    -0.00000009   -0.00000144    2.18943630
     atom    2 type  1   force =    -0.00000000   -0.00000303    2.18943922
     atom    3 type  2   force =    -0.00000002   -0.00018677   -1.67146618
     atom    4 type  2   force =    -0.00000000    0.00018590   -1.67146711
     atom    5 type  1   force =    -0.00000009   -0.00000233    2.18943766
     atom    6 type  1   force =    -0.00000000    0.00000025    2.18943267
     atom    7 type  2   force =    -0.00000002   -0.00018706   -1.67146765
     atom    8 type  2   force =     0.00000000    0.00018696   -1.67146628
     atom    9 type  1   force =    -0.00000000    0.00000038    2.18943695
     atom   10 type  1   force =     0.00000000    0.00000372    2.18943737
     atom   11 type  2   force =    -0.00000000   -0.00018705   -1.67146577
     atom   12 type  2   force =    -0.00000000    0.00018842   -1.67146833
     atom   13 type  1   force =     0.00000000    0.00000081    2.18943499
     atom   14 type  1   force =     0.00000000    0.00000076    2.18943355
     atom   15 type  2   force =    -0.00000000   -0.00018649   -1.67146920
     atom   16 type  2   force =    -0.00000000    0.00018700   -1.67146518
     The core correction contribution to forces
     atom    1 type  1   force =    -0.00000001    0.00000353    0.01988608
     atom    2 type  1   force =    -0.00000000   -0.00000355    0.01988686
     atom    3 type  2   force =     0.00000000   -0.00000215    0.00198421
     atom    4 type  2   force =    -0.00000000    0.00000216    0.00198464
     atom    5 type  1   force =    -0.00000001    0.00000353    0.01988317
     atom    6 type  1   force =    -0.00000000   -0.00000355    0.01988241
     atom    7 type  2   force =     0.00000000   -0.00000215    0.00198226
     atom    8 type  2   force =    -0.00000000    0.00000216    0.00198180
     atom    9 type  1   force =     0.00000000    0.00000358    0.01988609
     atom   10 type  1   force =     0.00000000   -0.00000359    0.01988684
     atom   11 type  2   force =    -0.00000000   -0.00000217    0.00198420
     atom   12 type  2   force =     0.00000000    0.00000216    0.00198463
     atom   13 type  1   force =     0.00000000    0.00000357    0.01988320
     atom   14 type  1   force =     0.00000000   -0.00000357    0.01988243
     atom   15 type  2   force =    -0.00000000   -0.00000218    0.00198226
     atom   16 type  2   force =     0.00000000    0.00000216    0.00198181
     The Hubbard contrib.    to forces
     atom    1 type  1   force =     0.00000000    0.00000000    0.00000000
     atom    2 type  1   force =     0.00000000    0.00000000    0.00000000
     atom    3 type  2   force =     0.00000000    0.00000000    0.00000000
     atom    4 type  2   force =     0.00000000    0.00000000    0.00000000
     atom    5 type  1   force =     0.00000000    0.00000000    0.00000000
     atom    6 type  1   force =     0.00000000    0.00000000    0.00000000
     atom    7 type  2   force =     0.00000000    0.00000000    0.00000000
     atom    8 type  2   force =     0.00000000    0.00000000    0.00000000
     atom    9 type  1   force =     0.00000000    0.00000000    0.00000000
     atom   10 type  1   force =     0.00000000    0.00000000    0.00000000
     atom   11 type  2   force =     0.00000000    0.00000000    0.00000000
     atom   12 type  2   force =     0.00000000    0.00000000    0.00000000
     atom   13 type  1   force =     0.00000000    0.00000000    0.00000000
     atom   14 type  1   force =     0.00000000    0.00000000    0.00000000
     atom   15 type  2   force =     0.00000000    0.00000000    0.00000000
     atom   16 type  2   force =     0.00000000    0.00000000    0.00000000
     The SCF correction term to forces
     atom    1 type  1   force =    -0.00000000   -0.00000024    0.00000404
     atom    2 type  1   force =     0.00000000    0.00000661   -0.00000305
     atom    3 type  2   force =    -0.00000000    0.00000037    0.00000363
     atom    4 type  2   force =     0.00000000    0.00000126   -0.00000073
     atom    5 type  1   force =    -0.00000000    0.00000137   -0.00000503
     atom    6 type  1   force =     0.00000000    0.00000185    0.00000539
     atom    7 type  2   force =    -0.00000000    0.00000117   -0.00000085
     atom    8 type  2   force =     0.00000000   -0.00000001    0.00000077
     atom    9 type  1   force =    -0.00000000   -0.00000283    0.00000329
     atom   10 type  1   force =    -0.00000000   -0.00000278   -0.00000021
     atom   11 type  2   force =    -0.00000000   -0.00000026    0.00000239
     atom   12 type  2   force =    -0.00000000   -0.00000167    0.00000002
     atom   13 type  1   force =    -0.00000000   -0.00000237   -0.00000119
     atom   14 type  1   force =    -0.00000000    0.00000144    0.00000382
     atom   15 type  2   force =    -0.00000000   -0.00000125    0.00000069
     atom   16 type  2   force =    -0.00000000   -0.00000031    0.00000022

     Total force =     0.089719     Total SCF correction =     0.000014

     General routines

     Parallel routines

   This run was terminated on:  14:54: 7  29Aug2025

   JOB DONE.
Note: The following floating-point exceptions are signalling: IEEE_UNDERFLOW_FLAG IEEE_DENORMAL
Note: The following floating-point exceptions are signalling: IEEE_UNDERFLOW_FLAG IEEE_DENORMAL
Note: The following floating-point exceptions are signalling: IEEE_UNDERFLOW_FLAG IEEE_DENORMAL
Note: The following floating-point exceptions are signalling: IEEE_UNDERFLOW_FLAG IEEE_DENORMAL
Note: The following floating-point exceptions are signalling: IEEE_UNDERFLOW_FLAG IEEE_DENORMAL
Note: The following floating-point exceptions are signalling: IEEE_UNDERFLOW_FLAG IEEE_DENORMAL
Note: The following floating-point exceptions are signalling: IEEE_UNDERFLOW_FLAG IEEE_DENORMAL
Note: The following floating-point exceptions are signalling: IEEE_UNDERFLOW_FLAG IEEE_DENORMAL
Note: The following floating-point exceptions are signalling: IEEE_UNDERFLOW_FLAG IEEE_DENORMAL
Note: The following floating-point exceptions are signalling: IEEE_UNDERFLOW_FLAG IEEE_DENORMAL
Note: The following floating-point exceptions are signalling: IEEE_UNDERFLOW_FLAG IEEE_DENORMAL
Note: The following floating-point exceptions are signalling: IEEE_UNDERFLOW_FLAG IEEE_DENORMAL
Note: The following floating-point exceptions are signalling: IEEE_UNDERFLOW_FLAG IEEE_DENORMAL
Note: The following floating-point exceptions are signalling: IEEE_UNDERFLOW_FLAG IEEE_DENORMAL
Note: The following floating-point exceptions are signalling: IEEE_UNDERFLOW_FLAG IEEE_DENORMAL
Note: The following floating-point exceptions are signalling: IEEE_UNDERFLOW_FLAG IEEE_DENORMAL
Note: The following floating-point exceptions are signalling: IEEE_UNDERFLOW_FLAG IEEE_DENORMAL
Note: The following floating-point exceptions are signalling: IEEE_UNDERFLOW_FLAG IEEE_DENORMAL
Note: The following floating-point exceptions are signalling: IEEE_UNDERFLOW_FLAG IEEE_DENORMAL
Note: The following floating-point exceptions are signalling: IEEE_UNDERFLOW_FLAG IEEE_DENORMAL
Note: The following floating-point exceptions are signalling: IEEE_UNDERFLOW_FLAG IEEE_DENORMAL
Note: The following floating-point exceptions are signalling: IEEE_UNDERFLOW_FLAG IEEE_DENORMAL
Note: The following floating-point exceptions are signalling: IEEE_UNDERFLOW_FLAG IEEE_DENORMAL
Note: The following floating-point exceptions are signalling: IEEE_UNDERFLOW_FLAG IEEE_DENORMAL
Note: The following floating-point exceptions are signalling: IEEE_UNDERFLOW_FLAG IEEE_DENORMAL
Note: The following floating-point exceptions are signalling: IEEE_UNDERFLOW_FLAG IEEE_DENORMAL
Note: The following floating-point exceptions are signalling: IEEE_UNDERFLOW_FLAG IEEE_DENORMAL
Note: The following floating-point exceptions are signalling: IEEE_UNDERFLOW_FLAG IEEE_DENORMAL
Note: The following floating-point exceptions are signalling: IEEE_UNDERFLOW_FLAG IEEE_DENORMAL
Note: The following floating-point exceptions are signalling: IEEE_UNDERFLOW_FLAG IEEE_DENORMAL
Note: The following floating-point exceptions are signalling: IEEE_UNDERFLOW_FLAG IEEE_DENORMAL
Note: The following floating-point exceptions are signalling: IEEE_UNDERFLOW_FLAG IEEE_DENORMAL