     Program PWSCF v.7.0 starts on 28Aug2025 at 23: 5: 3

     K-points division:     npool     =       8
     R & G space division:  proc/nbgrp/npool/nimage =       4

     Reading input from /home/jvc/QEspresso7.2/ZnO_database/scripts/cell122.in/ZnO-3.07-1.74-122.in
Warning: card &CELL ignored
Warning: card / ignored
Warning: card &FCP ignored
Warning: card / ignored
Warning: card &RISM ignored
Warning: card / ignored

     Current dimensions of program PWSCF are:
     Max number of different atomic species (ntypx) = 10
     Max number of k-points (npk) =  40000
     Max angular momentum in pseudopotentials (lmaxx) =  4
     file Zn.upf: wavefunction(s)  3D renormalized
     Found identity + (  0.0000  0.0000  0.5000) symmetry
     This is a supercell, fractional translations are disabled
     Message from routine setup:
     using ibrav=0 with symmetry is DISCOURAGED, use correct ibrav instead

     Using Slab Decomposition

     bravais-lattice index     =            0
     lattice parameter (alat)  =       5.8081  a.u.
     unit-cell volume          =    1183.3731 (a.u.)^3
     number of atoms/cell      =           16
     number of atomic types    =            2
     number of electrons       =       144.00
     number of Kohn-Sham states=           72
     kinetic-energy cutoff     =      50.0000  Ry
     charge density cutoff     =     400.0000  Ry
     scf convergence threshold =      1.0E-08
     mixing beta               =       0.3000
     number of iterations used =            8  plain     mixing
     Exchange-correlation= PBE
                           (   1   4   3   4   0   0   0)

     celldm(1)=   5.808123  celldm(2)=   0.000000  celldm(3)=   0.000000
     celldm(4)=   0.000000  celldm(5)=   0.000000  celldm(6)=   0.000000

     crystal axes: (cart. coord. in units of alat)
               a(1) = (   1.000000   0.000000   0.000000 )
               a(2) = (  -1.000000   1.732051   0.000000 )
               a(3) = (   0.000000   0.000000   3.487014 )

     reciprocal axes: (cart. coord. in units 2 pi/alat)
               b(1) = (  1.000000  0.577350 -0.000000 )
               b(2) = (  0.000000  0.577350  0.000000 )
               b(3) = (  0.000000 -0.000000  0.286778 )

     PseudoPot. # 1 for Zn read from file:
     /home/jvc/QEspresso7.2/ZnO_database/pseudos/Zn.upf
     MD5 check sum: 7f56cabf9682ed8c977c2f7d0c5985c5
     Pseudo is Ultrasoft + core correction, Zval = 12.0
     Generated using &quot;atomic&quot; code by A. Dal Corso  v.6.2.2
     Using radial grid of 1201 points,  6 beta functions with:
                l(1) =   0
                l(2) =   0
                l(3) =   1
                l(4) =   1
                l(5) =   2
                l(6) =   2
     Q(r) pseudized with 0 coefficients

     PseudoPot. # 2 for O  read from file:
     /home/jvc/QEspresso7.2/ZnO_database/pseudos/O.upf
     MD5 check sum: 91400c9766925bcf19f520983a725ff0
     Pseudo is Ultrasoft + core correction, Zval =  6.0
     Generated using &quot;atomic&quot; code by A. Dal Corso  v.6.3MaX
     Using radial grid of 1095 points,  4 beta functions with:
                l(1) =   0
                l(2) =   0
                l(3) =   1
                l(4) =   1
     Q(r) pseudized with 0 coefficients

     atomic species   valence    mass     pseudopotential
        Zn            12.00    65.38000     Zn( 1.00)
        O              6.00    15.99900     O ( 1.00)

      2 Sym. Ops. (no inversion) found

                                    s                        frac. trans.

      isym =  1     identity

 cryst.   s( 1) = (     1          0          0      )
                  (     0          1          0      )
                  (     0          0          1      )

 cart.    s( 1) = (  1.0000000  0.0000000  0.0000000 )
                  (  0.0000000  1.0000000  0.0000000 )
                  (  0.0000000  0.0000000  1.0000000 )

      isym =  2     inv. 180 deg rotation - cart. axis [1,0,0]

 cryst.   s( 2) = (    -1          0          0      )
                  (     2          1          0      )
                  (     0          0          1      )

 cart.    s( 2) = ( -1.0000000  0.0000000  0.0000000 )
                  (  0.0000000  1.0000000  0.0000000 )
                  (  0.0000000  0.0000000  1.0000000 )

   Cartesian axes

     site n.     atom                  positions (alat units)
         1           Zn  tau(   1) = (   0.5000000   0.2886751   0.8728582  )
         2           Zn  tau(   2) = (   0.0000000   0.5773503   0.0011047  )
         3           O   tau(   3) = (   0.5000000   0.2886751   1.5337220  )
         4           O   tau(   4) = (   0.0000000   0.5773503   0.6619685  )
         5           Zn  tau(   5) = (   0.5000000   0.2886751   2.6163652  )
         6           Zn  tau(   6) = (   0.0000000   0.5773503   1.7446117  )
         7           O   tau(   7) = (   0.5000000   0.2886751   3.2772290  )
         8           O   tau(   8) = (   0.0000000   0.5773503   2.4054755  )
         9           Zn  tau(   9) = (   0.0000000   1.1547005   0.8728582  )
        10           Zn  tau(  10) = (  -0.5000000   1.4433757   0.0011047  )
        11           O   tau(  11) = (   0.0000000   1.1547005   1.5337220  )
        12           O   tau(  12) = (  -0.5000000   1.4433757   0.6619685  )
        13           Zn  tau(  13) = (   0.0000000   1.1547005   2.6163652  )
        14           Zn  tau(  14) = (  -0.5000000   1.4433757   1.7446117  )
        15           O   tau(  15) = (   0.0000000   1.1547005   3.2772290  )
        16           O   tau(  16) = (  -0.5000000   1.4433757   2.4054755  )

   Crystallographic axes

     site n.     atom                  positions (cryst. coord.)
         1           Zn  tau(   1) = (  0.6666667  0.1666667  0.2503168  )
         2           Zn  tau(   2) = (  0.3333333  0.3333333  0.0003168  )
         3           O   tau(   3) = (  0.6666667  0.1666667  0.4398382  )
         4           O   tau(   4) = (  0.3333333  0.3333333  0.1898382  )
         5           Zn  tau(   5) = (  0.6666667  0.1666667  0.7503168  )
         6           Zn  tau(   6) = (  0.3333333  0.3333333  0.5003168  )
         7           O   tau(   7) = (  0.6666667  0.1666667  0.9398382  )
         8           O   tau(   8) = (  0.3333333  0.3333333  0.6898382  )
         9           Zn  tau(   9) = (  0.6666667  0.6666667  0.2503168  )
        10           Zn  tau(  10) = (  0.3333333  0.8333333  0.0003168  )
        11           O   tau(  11) = (  0.6666667  0.6666667  0.4398382  )
        12           O   tau(  12) = (  0.3333333  0.8333333  0.1898382  )
        13           Zn  tau(  13) = (  0.6666667  0.6666667  0.7503168  )
        14           Zn  tau(  14) = (  0.3333333  0.8333333  0.5003168  )
        15           O   tau(  15) = (  0.6666667  0.6666667  0.9398382  )
        16           O   tau(  16) = (  0.3333333  0.8333333  0.6898382  )

     number of k points=    80
                       cart. coord. in units 2pi/alat
        k(    1) = (   0.0000000   0.0000000   0.0000000), wk =   0.0092593
        k(    2) = (   0.0000000   0.0000000   0.0477964), wk =   0.0185185
        k(    3) = (   0.0000000   0.0000000   0.0955928), wk =   0.0185185
        k(    4) = (   0.0000000   0.0000000  -0.1433892), wk =   0.0092593
        k(    5) = (   0.0000000   0.0962250   0.0000000), wk =   0.0185185
        k(    6) = (   0.0000000   0.0962250   0.0477964), wk =   0.0185185
        k(    7) = (   0.0000000   0.0962250   0.0955928), wk =   0.0185185
        k(    8) = (   0.0000000   0.0962250  -0.1433892), wk =   0.0185185
        k(    9) = (   0.0000000   0.1924501   0.0000000), wk =   0.0185185
        k(   10) = (   0.0000000   0.1924501   0.0477964), wk =   0.0185185
        k(   11) = (   0.0000000   0.1924501   0.0955928), wk =   0.0185185
        k(   12) = (   0.0000000   0.1924501  -0.1433892), wk =   0.0185185
        k(   13) = (   0.0000000  -0.2886751   0.0000000), wk =   0.0092593
        k(   14) = (   0.0000000  -0.2886751   0.0477964), wk =   0.0185185
        k(   15) = (   0.0000000  -0.2886751   0.0955928), wk =   0.0185185
        k(   16) = (   0.0000000  -0.2886751  -0.1433892), wk =   0.0092593
        k(   17) = (   0.1666667   0.0962250   0.0000000), wk =   0.0370370
        k(   18) = (   0.1666667   0.0962250   0.0477964), wk =   0.0370370
        k(   19) = (   0.1666667   0.0962250   0.0955928), wk =   0.0370370
        k(   20) = (   0.1666667   0.0962250  -0.1433892), wk =   0.0370370
        k(   21) = (   0.1666667   0.1924501   0.0000000), wk =   0.0370370
        k(   22) = (   0.1666667   0.1924501   0.0477964), wk =   0.0370370
        k(   23) = (   0.1666667   0.1924501   0.0955928), wk =   0.0370370
        k(   24) = (   0.1666667   0.1924501  -0.1433892), wk =   0.0370370
        k(   25) = (   0.1666667   0.2886751   0.0000000), wk =   0.0185185
        k(   26) = (   0.1666667   0.2886751   0.0477964), wk =   0.0370370
        k(   27) = (   0.1666667   0.2886751   0.0955928), wk =   0.0370370
        k(   28) = (   0.1666667   0.2886751  -0.1433892), wk =   0.0185185
        k(   29) = (   0.1666667   0.0000000   0.0000000), wk =   0.0185185
        k(   30) = (   0.1666667   0.0000000   0.0477964), wk =   0.0370370
        k(   31) = (   0.1666667   0.0000000   0.0955928), wk =   0.0370370
        k(   32) = (   0.1666667   0.0000000  -0.1433892), wk =   0.0185185
        k(   33) = (   0.3333333   0.1924501   0.0000000), wk =   0.0370370
        k(   34) = (   0.3333333   0.1924501   0.0477964), wk =   0.0370370
        k(   35) = (   0.3333333   0.1924501   0.0955928), wk =   0.0370370
        k(   36) = (   0.3333333   0.1924501  -0.1433892), wk =   0.0370370
        k(   37) = (   0.3333333   0.2886751   0.0000000), wk =   0.0185185
        k(   38) = (   0.3333333   0.2886751   0.0477964), wk =   0.0370370
        k(   39) = (   0.3333333   0.2886751   0.0955928), wk =   0.0370370
        k(   40) = (   0.3333333   0.2886751  -0.1433892), wk =   0.0185185
        k(   41) = (   0.3333333  -0.0962250   0.0000000), wk =   0.0370370
        k(   42) = (   0.3333333  -0.0962250   0.0477964), wk =   0.0370370
        k(   43) = (   0.3333333  -0.0962250   0.0955928), wk =   0.0370370
        k(   44) = (   0.3333333  -0.0962250  -0.1433892), wk =   0.0370370
        k(   45) = (   0.3333333  -0.0000000   0.0000000), wk =   0.0185185
        k(   46) = (   0.3333333  -0.0000000   0.0477964), wk =   0.0370370
        k(   47) = (   0.3333333  -0.0000000   0.0955928), wk =   0.0370370
        k(   48) = (   0.3333333  -0.0000000  -0.1433892), wk =   0.0185185
        k(   49) = (  -0.5000000  -0.2886751   0.0000000), wk =   0.0092593
        k(   50) = (  -0.5000000  -0.2886751   0.0477964), wk =   0.0185185
        k(   51) = (  -0.5000000  -0.2886751   0.0955928), wk =   0.0185185
        k(   52) = (  -0.5000000  -0.2886751  -0.1433892), wk =   0.0092593
        k(   53) = (  -0.5000000  -0.1924501   0.0000000), wk =   0.0185185
        k(   54) = (  -0.5000000  -0.1924501   0.0477964), wk =   0.0185185
        k(   55) = (  -0.5000000  -0.1924501   0.0955928), wk =   0.0185185
[...]

     Initial potential from superposition of free atoms

     starting charge     143.9702, renormalised to     144.0000
     Starting wfcs are  104 randomized atomic wfcs

     Self-consistent Calculation

     iteration #  1     ecut=    50.00 Ry     beta= 0.30
     Davidson diagonalization with overlap

     ethr =  1.00E-02,  avg # of iterations =  2.0

     total energy              =   -1445.82567076 Ry
     estimated scf accuracy    <       2.71141011 Ry

[...]

     c_bands:  1 eigenvalues not converged
     c_bands:  2 eigenvalues not converged
     ethr =  2.76E-11,  avg # of iterations = 14.9

[...]

     c_bands:  1 eigenvalues not converged
     c_bands:  1 eigenvalues not converged
     c_bands:  1 eigenvalues not converged
     c_bands:  2 eigenvalues not converged
     c_bands:  1 eigenvalues not converged
     ethr =  2.76E-11,  avg # of iterations = 15.0

[...]

     total energy              =   -1446.41053783 Ry
     estimated scf accuracy    <       0.00000003 Ry

     iteration # 24     ecut=    50.00 Ry     beta= 0.30
     Davidson diagonalization with overlap

     ethr =  1.91E-11,  avg # of iterations =  2.7

     End of self-consistent calculation

          k = 0.0000 0.0000 0.0000 (  7127 PWs)   bands (ev):

   -10.2456  -9.9020  -9.9020  -9.5322  -9.3835  -9.2711  -9.2711  -9.1700
     1.8571   1.8571   2.0296   2.0772   2.0935   2.1347   2.1347   2.3710
     2.3713   2.4451   2.4451   2.4454   2.4454   2.4482   2.5463   2.5465
     2.7157   2.9417   2.9417   3.1114   3.1114   3.1899   3.1983   3.2256
     3.9086   3.9087   3.9158   4.0179   4.0179   4.0179   4.0179   4.1027
     4.1028   4.1124   4.1346   4.1346   4.1787   4.1952   4.1952   4.2802
     4.4890   4.5652   4.5652   4.6287   4.6300   5.5733   6.0643   6.0643
     6.3554   6.8299   6.8299   7.0185   7.0186   7.0809   7.6244   7.9829
     7.9832   8.3164   8.3330   8.3331   8.3334   8.3334   8.6825   8.6829

     occupation numbers
     1.0000   1.0000   1.0000   1.0000   1.0000   1.0000   1.0000   1.0000
     1.0000   1.0000   1.0000   1.0000   1.0000   1.0000   1.0000   1.0000
     1.0000   1.0000   1.0000   1.0000   1.0000   1.0000   1.0000   1.0000
     1.0000   1.0000   1.0000   1.0000   1.0000   1.0000   1.0000   1.0000
     1.0000   1.0000   1.0000   1.0000   1.0000   1.0000   1.0000   1.0000
     1.0000   1.0000   1.0000   1.0000   1.0000   1.0000   1.0000   1.0000
     1.0000   1.0000   1.0000   1.0000   1.0000   1.0000   1.0000   1.0000
     1.0000   1.0000   1.0000   1.0000   1.0000   1.0000   1.0000   1.0000
     1.0000   1.0000   1.0000   1.0000   1.0000   1.0000   1.0000   1.0000

[...]

          k =-0.5000-0.2887 0.0000 (  7012 PWs)   bands (ev):

[...]

          k =-0.3333-0.0962-0.0956 (  7064 PWs)   bands (ev):

[...]

          k = 0.5000-0.0962-0.0956 (  7032 PWs)   bands (ev):

    -9.3778  -9.3777  -9.3334  -9.3334  -9.2192  -9.2192  -9.1801  -9.1801
     2.0549   2.0549   2.1132   2.1132   2.1434   2.1434   2.2897   2.2897
     2.6935   2.6935   2.7139   2.7139   2.8794   2.8794   2.9649   2.9649
     3.1114   3.1114   3.1342   3.1342   3.1773   3.1773   3.1969   3.1969
     3.8335   3.8335   3.9373   3.9373   4.0195   4.0195   4.0632   4.0632
     4.2008   4.2008   4.2067   4.2067   4.3413   4.3413   4.4475   4.4475
     4.5025   4.5025   4.6885   4.6885   5.0543   5.0543   5.1332   5.1332
     5.6366   5.6366   5.9863   5.9863   6.0277   6.0277   6.3546   6.3546
     6.8628   6.8628   7.0210   7.0210   7.2091   7.2091   7.2856   7.2856

     occupation numbers
     1.0000   1.0000   1.0000   1.0000   1.0000   1.0000   1.0000   1.0000
     1.0000   1.0000   1.0000   1.0000   1.0000   1.0000   1.0000   1.0000
     1.0000   1.0000   1.0000   1.0000   1.0000   1.0000   1.0000   1.0000
     1.0000   1.0000   1.0000   1.0000   1.0000   1.0000   1.0000   1.0000
     1.0000   1.0000   1.0000   1.0000   1.0000   1.0000   1.0000   1.0000
     1.0000   1.0000   1.0000   1.0000   1.0000   1.0000   1.0000   1.0000
     1.0000   1.0000   1.0000   1.0000   1.0000   1.0000   1.0000   1.0000
     1.0000   1.0000   1.0000   1.0000   1.0000   1.0000   1.0000   1.0000
     1.0000   1.0000   1.0000   1.0000   1.0000   1.0000   1.0000   1.0000

     highest occupied level (ev):     8.6829

!    total energy              =   -1446.41053782 Ry
     estimated scf accuracy    <          9.7E-09 Ry

     The total energy is the sum of the following terms:
     one-electron contribution =    -569.01466621 Ry
     hartree contribution      =     456.08783507 Ry
     xc contribution           =    -439.14829498 Ry
     ewald contribution        =    -894.33541170 Ry

     convergence has been achieved in  24 iterations

     Forces acting on atoms (cartesian axes, Ry/au):

     atom    1 type  1   force =     0.00000000   -0.00000735    0.03509633
     atom    2 type  1   force =     0.00000000    0.00000934    0.03509404
     atom    3 type  2   force =     0.00000000    0.00000207   -0.03508587
     atom    4 type  2   force =     0.00000000   -0.00000189   -0.03509392
     atom    5 type  1   force =     0.00000000   -0.00000604    0.03508591
     atom    6 type  1   force =     0.00000000    0.00000989    0.03508954
     atom    7 type  2   force =     0.00000000    0.00000275   -0.03509744
     atom    8 type  2   force =     0.00000000   -0.00000255   -0.03509112
     atom    9 type  1   force =     0.00000000   -0.00000861    0.03510000
     atom   10 type  1   force =     0.00000000    0.00000690    0.03509187
     atom   11 type  2   force =     0.00000000    0.00000258   -0.03508555
     atom   12 type  2   force =     0.00000000   -0.00000316   -0.03509408
     atom   13 type  1   force =     0.00000000   -0.00000941    0.03508890
     atom   14 type  1   force =     0.00000000    0.00000559    0.03508986
     atom   15 type  2   force =     0.00000000    0.00000258   -0.03509750
     atom   16 type  2   force =     0.00000000   -0.00000270   -0.03509096
     The non-local contrib.  to forces
     atom    1 type  1   force =     0.00000000    0.00003080    0.22011408
     atom    2 type  1   force =     0.00000000   -0.00002933    0.22011653
     atom    3 type  2   force =     0.00000000    0.00020174    0.18792063
     atom    4 type  2   force =     0.00000000   -0.00020187    0.18791364
     atom    5 type  1   force =     0.00000000    0.00003164    0.22010315
     atom    6 type  1   force =     0.00000000   -0.00002932    0.22009891
     atom    7 type  2   force =     0.00000000    0.00020244    0.18791121
     atom    8 type  2   force =     0.00000000   -0.00020199    0.18791895
     atom    9 type  1   force =     0.00000000    0.00003028    0.22011556
     atom   10 type  1   force =     0.00000000   -0.00003138    0.22011522
     atom   11 type  2   force =     0.00000000    0.00020249    0.18792085
     atom   12 type  2   force =     0.00000000   -0.00020249    0.18791290
     atom   13 type  1   force =     0.00000000    0.00002955    0.22010477
     atom   14 type  1   force =     0.00000000   -0.00003112    0.22009780
     atom   15 type  2   force =     0.00000000    0.00020280    0.18791109
     atom   16 type  2   force =     0.00000000   -0.00020235    0.18791937
     The ionic contribution  to forces
     atom    1 type  1   force =    -0.00000000    0.00000001    1.78031638
     atom    2 type  1   force =     0.00000000    0.00000001    1.78031637
     atom    3 type  2   force =    -0.00000000    0.00000001   -1.78031638
     atom    4 type  2   force =     0.00000000    0.00000001   -1.78031637
     atom    5 type  1   force =    -0.00000000    0.00000001    1.78031638
     atom    6 type  1   force =     0.00000000    0.00000001    1.78031637
     atom    7 type  2   force =    -0.00000000    0.00000001   -1.78031638
     atom    8 type  2   force =     0.00000000    0.00000001   -1.78031637
     atom    9 type  1   force =     0.00000000   -0.00000001    1.78031638
     atom   10 type  1   force =    -0.00000000   -0.00000000    1.78031638
     atom   11 type  2   force =     0.00000000   -0.00000001   -1.78031638
     atom   12 type  2   force =    -0.00000000   -0.00000000   -1.78031638
     atom   13 type  1   force =     0.00000000   -0.00000001    1.78031638
     atom   14 type  1   force =    -0.00000000   -0.00000000    1.78031638
     atom   15 type  2   force =     0.00000000   -0.00000001   -1.78031638
     atom   16 type  2   force =    -0.00000000   -0.00000000   -1.78031638
     The local contribution  to forces
     atom    1 type  1   force =    -0.00000008   -0.00004870   -1.94808781
     atom    2 type  1   force =    -0.00000000    0.00004484   -1.94809352
     atom    3 type  2   force =    -0.00000002   -0.00019854    1.55870983
     atom    4 type  2   force =    -0.00000000    0.00020006    1.55870291
     atom    5 type  1   force =    -0.00000008   -0.00005044   -1.94807890
     atom    6 type  1   force =     0.00000000    0.00004429   -1.94807046
     atom    7 type  2   force =    -0.00000002   -0.00019844    1.55870180
     atom    8 type  2   force =    -0.00000000    0.00019848    1.55870786
     atom    9 type  1   force =     0.00000000   -0.00004658   -1.94809223
     atom   10 type  1   force =     0.00000000    0.00004978   -1.94809044
     atom   11 type  2   force =    -0.00000000   -0.00019816    1.55871130
     atom   12 type  2   force =     0.00000000    0.00019841    1.55870295
     atom   13 type  1   force =    -0.00000000   -0.00004513   -1.94808281
     atom   14 type  1   force =    -0.00000000    0.00005024   -1.94806845
     atom   15 type  2   force =     0.00000000   -0.00019839    1.55870172
     atom   16 type  2   force =     0.00000000    0.00019850    1.55870759
     The core correction contribution to forces
     atom    1 type  1   force =    -0.00000006    0.00000819   -0.01723403
     atom    2 type  1   force =    -0.00000000   -0.00000794   -0.01723655
     atom    3 type  2   force =    -0.00000000   -0.00000227   -0.00140407
     atom    4 type  2   force =    -0.00000000    0.00000230   -0.00140296
     atom    5 type  1   force =    -0.00000006    0.00000818   -0.01723508
     atom    6 type  1   force =    -0.00000000   -0.00000793   -0.01723266
     atom    7 type  2   force =    -0.00000000   -0.00000228   -0.00140394
     atom    8 type  2   force =    -0.00000000    0.00000229   -0.00140507
     atom    9 type  1   force =     0.00000000    0.00000793   -0.01723398
     atom   10 type  1   force =     0.00000005   -0.00000820   -0.01723659
     atom   11 type  2   force =     0.00000000   -0.00000230   -0.00140406
     atom   12 type  2   force =     0.00000000    0.00000228   -0.00140295
     atom   13 type  1   force =     0.00000000    0.00000792   -0.01723503
     atom   14 type  1   force =     0.00000005   -0.00000820   -0.01723278
     atom   15 type  2   force =     0.00000000   -0.00000230   -0.00140395
     atom   16 type  2   force =     0.00000000    0.00000228   -0.00140507
     The Hubbard contrib.    to forces
     atom    1 type  1   force =     0.00000000    0.00000000    0.00000000
     atom    2 type  1   force =     0.00000000    0.00000000    0.00000000
     atom    3 type  2   force =     0.00000000    0.00000000    0.00000000
     atom    4 type  2   force =     0.00000000    0.00000000    0.00000000
     atom    5 type  1   force =     0.00000000    0.00000000    0.00000000
     atom    6 type  1   force =     0.00000000    0.00000000    0.00000000
     atom    7 type  2   force =     0.00000000    0.00000000    0.00000000
     atom    8 type  2   force =     0.00000000    0.00000000    0.00000000
     atom    9 type  1   force =     0.00000000    0.00000000    0.00000000
     atom   10 type  1   force =     0.00000000    0.00000000    0.00000000
     atom   11 type  2   force =     0.00000000    0.00000000    0.00000000
     atom   12 type  2   force =     0.00000000    0.00000000    0.00000000
     atom   13 type  1   force =     0.00000000    0.00000000    0.00000000
     atom   14 type  1   force =     0.00000000    0.00000000    0.00000000
     atom   15 type  2   force =     0.00000000    0.00000000    0.00000000
     atom   16 type  2   force =     0.00000000    0.00000000    0.00000000
     The SCF correction term to forces
     atom    1 type  1   force =     0.00000000    0.00000247   -0.00001843
     atom    2 type  1   force =    -0.00000000    0.00000187   -0.00001493
     atom    3 type  2   force =     0.00000000    0.00000124   -0.00000203
     atom    4 type  2   force =    -0.00000000   -0.00000227    0.00000273
     atom    5 type  1   force =     0.00000000    0.00000467   -0.00002578
     atom    6 type  1   force =    -0.00000000    0.00000296   -0.00002877
     atom    7 type  2   force =     0.00000000    0.00000114    0.00000374
     atom    8 type  2   force =    -0.00000000   -0.00000122   -0.00000263
     atom    9 type  1   force =     0.00000000   -0.00000012   -0.00001187
     atom   10 type  1   force =    -0.00000000   -0.00000318   -0.00001884
     atom   11 type  2   force =     0.00000000    0.00000067   -0.00000340
     atom   12 type  2   force =    -0.00000000   -0.00000124    0.00000325
     atom   13 type  1   force =     0.00000000   -0.00000162   -0.00002054
     atom   14 type  1   force =    -0.00000000   -0.00000521   -0.00002923
     atom   15 type  2   force =     0.00000000    0.00000059    0.00000387
     atom   16 type  2   force =    -0.00000000   -0.00000101   -0.00000261

     Total force =     0.140368     Total SCF correction =     0.000063

     General routines

     Parallel routines

   This run was terminated on:  23:15:45  28Aug2025

   JOB DONE.
Note: The following floating-point exceptions are signalling: IEEE_UNDERFLOW_FLAG IEEE_DENORMAL
Note: The following floating-point exceptions are signalling: IEEE_UNDERFLOW_FLAG IEEE_DENORMAL
Note: The following floating-point exceptions are signalling: IEEE_UNDERFLOW_FLAG IEEE_DENORMAL
Note: The following floating-point exceptions are signalling: IEEE_UNDERFLOW_FLAG IEEE_DENORMAL
Note: The following floating-point exceptions are signalling: IEEE_UNDERFLOW_FLAG IEEE_DENORMAL
Note: The following floating-point exceptions are signalling: IEEE_UNDERFLOW_FLAG IEEE_DENORMAL
Note: The following floating-point exceptions are signalling: IEEE_UNDERFLOW_FLAG IEEE_DENORMAL
Note: The following floating-point exceptions are signalling: IEEE_UNDERFLOW_FLAG IEEE_DENORMAL
Note: The following floating-point exceptions are signalling: IEEE_UNDERFLOW_FLAG IEEE_DENORMAL
Note: The following floating-point exceptions are signalling: IEEE_UNDERFLOW_FLAG IEEE_DENORMAL
Note: The following floating-point exceptions are signalling: IEEE_UNDERFLOW_FLAG IEEE_DENORMAL
Note: The following floating-point exceptions are signalling: IEEE_UNDERFLOW_FLAG IEEE_DENORMAL
Note: The following floating-point exceptions are signalling: IEEE_UNDERFLOW_FLAG IEEE_DENORMAL
Note: The following floating-point exceptions are signalling: IEEE_UNDERFLOW_FLAG IEEE_DENORMAL
Note: The following floating-point exceptions are signalling: IEEE_UNDERFLOW_FLAG IEEE_DENORMAL
Note: The following floating-point exceptions are signalling: IEEE_UNDERFLOW_FLAG IEEE_DENORMAL
Note: The following floating-point exceptions are signalling: IEEE_UNDERFLOW_FLAG IEEE_DENORMAL
Note: The following floating-point exceptions are signalling: IEEE_UNDERFLOW_FLAG IEEE_DENORMAL
Note: The following floating-point exceptions are signalling: IEEE_UNDERFLOW_FLAG IEEE_DENORMAL
Note: The following floating-point exceptions are signalling: IEEE_UNDERFLOW_FLAG IEEE_DENORMAL
Note: The following floating-point exceptions are signalling: IEEE_UNDERFLOW_FLAG IEEE_DENORMAL
Note: The following floating-point exceptions are signalling: IEEE_UNDERFLOW_FLAG IEEE_DENORMAL
Note: The following floating-point exceptions are signalling: IEEE_UNDERFLOW_FLAG IEEE_DENORMAL
Note: The following floating-point exceptions are signalling: IEEE_UNDERFLOW_FLAG IEEE_DENORMAL
Note: The following floating-point exceptions are signalling: IEEE_UNDERFLOW_FLAG IEEE_DENORMAL
Note: The following floating-point exceptions are signalling: IEEE_UNDERFLOW_FLAG IEEE_DENORMAL
Note: The following floating-point exceptions are signalling: IEEE_UNDERFLOW_FLAG IEEE_DENORMAL
Note: The following floating-point exceptions are signalling: IEEE_UNDERFLOW_FLAG IEEE_DENORMAL
Note: The following floating-point exceptions are signalling: IEEE_UNDERFLOW_FLAG IEEE_DENORMAL
Note: The following floating-point exceptions are signalling: IEEE_UNDERFLOW_FLAG IEEE_DENORMAL
Note: The following floating-point exceptions are signalling: IEEE_UNDERFLOW_FLAG IEEE_DENORMAL
Note: The following floating-point exceptions are signalling: IEEE_UNDERFLOW_FLAG IEEE_DENORMAL