     Program PWSCF v.7.0 starts on 29Aug2025 at 20:31:16

     K-points division:     npool     =       8
     R & G space division:  proc/nbgrp/npool/nimage =       4

     Reading input from /home/jvc/QEspresso7.2/ZnO_database/scripts/cell122.in/ZnO-3.60-1.78-122.in
Warning: card &CELL ignored
Warning: card / ignored
Warning: card &FCP ignored
Warning: card / ignored
Warning: card &RISM ignored
Warning: card / ignored

     Current dimensions of program PWSCF are:
     Max number of different atomic species (ntypx) = 10
     Max number of k-points (npk) =  40000
     Max angular momentum in pseudopotentials (lmaxx) =  4
     file Zn.upf: wavefunction(s)  3D renormalized
     Found identity + (  0.0000  0.0000 -0.5000) symmetry
     This is a supercell, fractional translations are disabled
     Message from routine setup:
     using ibrav=0 with symmetry is DISCOURAGED, use correct ibrav instead

     Using Slab Decomposition

     bravais-lattice index     =            0
     lattice parameter (alat)  =       6.7967  a.u.
     unit-cell volume          =    1931.4573 (a.u.)^3
     number of atoms/cell      =           16
     number of atomic types    =            2
     number of electrons       =       144.00
     number of Kohn-Sham states=           72
     kinetic-energy cutoff     =      50.0000  Ry
     charge density cutoff     =     400.0000  Ry
     scf convergence threshold =      1.0E-08
     mixing beta               =       0.3000
     number of iterations used =            8  plain     mixing
     Exchange-correlation= PBE
                           (   1   4   3   4   0   0   0)

     celldm(1)=   6.796739  celldm(2)=   0.000000  celldm(3)=   0.000000
     celldm(4)=   0.000000  celldm(5)=   0.000000  celldm(6)=   0.000000

     crystal axes: (cart. coord. in units of alat)
               a(1) = (   1.000000   0.000000   0.000000 )
               a(2) = (  -1.000000   1.732051   0.000000 )
               a(3) = (   0.000000   0.000000   3.551588 )

     reciprocal axes: (cart. coord. in units 2 pi/alat)
               b(1) = (  1.000000  0.577350 -0.000000 )
               b(2) = (  0.000000  0.577350  0.000000 )
               b(3) = (  0.000000 -0.000000  0.281564 )

     PseudoPot. # 1 for Zn read from file:
     /home/jvc/QEspresso7.2/ZnO_database/pseudos/Zn.upf
     MD5 check sum: 7f56cabf9682ed8c977c2f7d0c5985c5
     Pseudo is Ultrasoft + core correction, Zval = 12.0
     Generated using &quot;atomic&quot; code by A. Dal Corso  v.6.2.2
     Using radial grid of 1201 points,  6 beta functions with:
                l(1) =   0
                l(2) =   0
                l(3) =   1
                l(4) =   1
                l(5) =   2
                l(6) =   2
     Q(r) pseudized with 0 coefficients

     PseudoPot. # 2 for O  read from file:
     /home/jvc/QEspresso7.2/ZnO_database/pseudos/O.upf
     MD5 check sum: 91400c9766925bcf19f520983a725ff0
     Pseudo is Ultrasoft + core correction, Zval =  6.0
     Generated using &quot;atomic&quot; code by A. Dal Corso  v.6.3MaX
     Using radial grid of 1095 points,  4 beta functions with:
                l(1) =   0
                l(2) =   0
                l(3) =   1
                l(4) =   1
     Q(r) pseudized with 0 coefficients

     atomic species   valence    mass     pseudopotential
        Zn            12.00    65.38000     Zn( 1.00)
        O              6.00    15.99900     O ( 1.00)

      2 Sym. Ops. (no inversion) found

                                    s                        frac. trans.

      isym =  1     identity

 cryst.   s( 1) = (     1          0          0      )
                  (     0          1          0      )
                  (     0          0          1      )

 cart.    s( 1) = (  1.0000000  0.0000000  0.0000000 )
                  (  0.0000000  1.0000000  0.0000000 )
                  (  0.0000000  0.0000000  1.0000000 )

      isym =  2     inv. 180 deg rotation - cart. axis [1,0,0]

 cryst.   s( 2) = (    -1          0          0      )
                  (     2          1          0      )
                  (     0          0          1      )

 cart.    s( 2) = ( -1.0000000  0.0000000  0.0000000 )
                  (  0.0000000  1.0000000  0.0000000 )
                  (  0.0000000  0.0000000  1.0000000 )

   Cartesian axes

     site n.     atom                  positions (alat units)
         1           Zn  tau(   1) = (   0.5000000   0.2886751   0.8890222  )
         2           Zn  tau(   2) = (   0.0000000   0.5773503   0.0011251  )
         3           O   tau(   3) = (   0.5000000   0.2886751   1.5621243  )
         4           O   tau(   4) = (   0.0000000   0.5773503   0.6742272  )
         5           Zn  tau(   5) = (   0.5000000   0.2886751   2.6648164  )
         6           Zn  tau(   6) = (   0.0000000   0.5773503   1.7769193  )
         7           O   tau(   7) = (   0.5000000   0.2886751   3.3379185  )
         8           O   tau(   8) = (   0.0000000   0.5773503   2.4500214  )
         9           Zn  tau(   9) = (   0.0000000   1.1547005   0.8890222  )
        10           Zn  tau(  10) = (  -0.5000000   1.4433757   0.0011251  )
        11           O   tau(  11) = (   0.0000000   1.1547005   1.5621243  )
        12           O   tau(  12) = (  -0.5000000   1.4433757   0.6742272  )
        13           Zn  tau(  13) = (   0.0000000   1.1547005   2.6648164  )
        14           Zn  tau(  14) = (  -0.5000000   1.4433757   1.7769193  )
        15           O   tau(  15) = (   0.0000000   1.1547005   3.3379185  )
        16           O   tau(  16) = (  -0.5000000   1.4433757   2.4500214  )

   Crystallographic axes

     site n.     atom                  positions (cryst. coord.)
         1           Zn  tau(   1) = (  0.6666667  0.1666667  0.2503168  )
         2           Zn  tau(   2) = (  0.3333333  0.3333333  0.0003168  )
         3           O   tau(   3) = (  0.6666667  0.1666667  0.4398382  )
         4           O   tau(   4) = (  0.3333333  0.3333333  0.1898382  )
         5           Zn  tau(   5) = (  0.6666667  0.1666667  0.7503168  )
         6           Zn  tau(   6) = (  0.3333333  0.3333333  0.5003168  )
         7           O   tau(   7) = (  0.6666667  0.1666667  0.9398382  )
         8           O   tau(   8) = (  0.3333333  0.3333333  0.6898382  )
         9           Zn  tau(   9) = (  0.6666667  0.6666667  0.2503168  )
        10           Zn  tau(  10) = (  0.3333333  0.8333333  0.0003168  )
        11           O   tau(  11) = (  0.6666667  0.6666667  0.4398382  )
        12           O   tau(  12) = (  0.3333333  0.8333333  0.1898382  )
        13           Zn  tau(  13) = (  0.6666667  0.6666667  0.7503168  )
        14           Zn  tau(  14) = (  0.3333333  0.8333333  0.5003168  )
        15           O   tau(  15) = (  0.6666667  0.6666667  0.9398382  )
        16           O   tau(  16) = (  0.3333333  0.8333333  0.6898382  )

     number of k points=    80
                       cart. coord. in units 2pi/alat
        k(    1) = (   0.0000000   0.0000000   0.0000000), wk =   0.0092593
        k(    2) = (   0.0000000   0.0000000   0.0469274), wk =   0.0185185
        k(    3) = (   0.0000000   0.0000000   0.0938547), wk =   0.0185185
        k(    4) = (   0.0000000   0.0000000  -0.1407821), wk =   0.0092593
        k(    5) = (   0.0000000   0.0962250   0.0000000), wk =   0.0185185
        k(    6) = (   0.0000000   0.0962250   0.0469274), wk =   0.0185185
        k(    7) = (   0.0000000   0.0962250   0.0938547), wk =   0.0185185
        k(    8) = (   0.0000000   0.0962250  -0.1407821), wk =   0.0185185
        k(    9) = (   0.0000000   0.1924501   0.0000000), wk =   0.0185185
        k(   10) = (   0.0000000   0.1924501   0.0469274), wk =   0.0185185
        k(   11) = (   0.0000000   0.1924501   0.0938547), wk =   0.0185185
        k(   12) = (   0.0000000   0.1924501  -0.1407821), wk =   0.0185185
        k(   13) = (   0.0000000  -0.2886751   0.0000000), wk =   0.0092593
        k(   14) = (   0.0000000  -0.2886751   0.0469274), wk =   0.0185185
        k(   15) = (   0.0000000  -0.2886751   0.0938547), wk =   0.0185185
        k(   16) = (   0.0000000  -0.2886751  -0.1407821), wk =   0.0092593
        k(   17) = (   0.1666667   0.0962250   0.0000000), wk =   0.0370370
        k(   18) = (   0.1666667   0.0962250   0.0469274), wk =   0.0370370
        k(   19) = (   0.1666667   0.0962250   0.0938547), wk =   0.0370370
        k(   20) = (   0.1666667   0.0962250  -0.1407821), wk =   0.0370370
        k(   21) = (   0.1666667   0.1924501   0.0000000), wk =   0.0370370
        k(   22) = (   0.1666667   0.1924501   0.0469274), wk =   0.0370370
        k(   23) = (   0.1666667   0.1924501   0.0938547), wk =   0.0370370
        k(   24) = (   0.1666667   0.1924501  -0.1407821), wk =   0.0370370
        k(   25) = (   0.1666667   0.2886751   0.0000000), wk =   0.0185185
        k(   26) = (   0.1666667   0.2886751   0.0469274), wk =   0.0370370
        k(   27) = (   0.1666667   0.2886751   0.0938547), wk =   0.0370370
        k(   28) = (   0.1666667   0.2886751  -0.1407821), wk =   0.0185185
        k(   29) = (   0.1666667   0.0000000   0.0000000), wk =   0.0185185
        k(   30) = (   0.1666667   0.0000000   0.0469274), wk =   0.0370370
        k(   31) = (   0.1666667   0.0000000   0.0938547), wk =   0.0370370
        k(   32) = (   0.1666667   0.0000000  -0.1407821), wk =   0.0185185
        k(   33) = (   0.3333333   0.1924501   0.0000000), wk =   0.0370370
        k(   34) = (   0.3333333   0.1924501   0.0469274), wk =   0.0370370
        k(   35) = (   0.3333333   0.1924501   0.0938547), wk =   0.0370370
        k(   36) = (   0.3333333   0.1924501  -0.1407821), wk =   0.0370370
        k(   37) = (   0.3333333   0.2886751   0.0000000), wk =   0.0185185
        k(   38) = (   0.3333333   0.2886751   0.0469274), wk =   0.0370370
        k(   39) = (   0.3333333   0.2886751   0.0938547), wk =   0.0370370
        k(   40) = (   0.3333333   0.2886751  -0.1407821), wk =   0.0185185
        k(   41) = (   0.3333333  -0.0962250   0.0000000), wk =   0.0370370
        k(   42) = (   0.3333333  -0.0962250   0.0469274), wk =   0.0370370
        k(   43) = (   0.3333333  -0.0962250   0.0938547), wk =   0.0370370
        k(   44) = (   0.3333333  -0.0962250  -0.1407821), wk =   0.0370370
        k(   45) = (   0.3333333  -0.0000000   0.0000000), wk =   0.0185185
        k(   46) = (   0.3333333  -0.0000000   0.0469274), wk =   0.0370370
        k(   47) = (   0.3333333  -0.0000000   0.0938547), wk =   0.0370370
        k(   48) = (   0.3333333  -0.0000000  -0.1407821), wk =   0.0185185
        k(   49) = (  -0.5000000  -0.2886751   0.0000000), wk =   0.0092593
        k(   50) = (  -0.5000000  -0.2886751   0.0469274), wk =   0.0185185
        k(   51) = (  -0.5000000  -0.2886751   0.0938547), wk =   0.0185185
        k(   52) = (  -0.5000000  -0.2886751  -0.1407821), wk =   0.0092593
        k(   53) = (  -0.5000000  -0.1924501   0.0000000), wk =   0.0185185
        k(   54) = (  -0.5000000  -0.1924501   0.0469274), wk =   0.0185185
        k(   55) = (  -0.5000000  -0.1924501   0.0938547), wk =   0.0185185
[...]
     Starting wfcs are  104 randomized atomic wfcs

     Self-consistent Calculation

     iteration #  1     ecut=    50.00 Ry     beta= 0.30
     Davidson diagonalization with overlap

     ethr =  1.00E-02,  avg # of iterations =  1.0

     total energy              =   -1445.00334140 Ry
     estimated scf accuracy    <       3.78071221 Ry

[...]

     c_bands:  3 eigenvalues not converged
     c_bands:  1 eigenvalues not converged
     c_bands:  1 eigenvalues not converged
     c_bands:  1 eigenvalues not converged
     c_bands:  1 eigenvalues not converged
     ethr =  1.96E-08,  avg # of iterations = 15.1

[...]

     c_bands:  1 eigenvalues not converged
     c_bands:  1 eigenvalues not converged
     c_bands:  1 eigenvalues not converged
     c_bands:  1 eigenvalues not converged
     c_bands:  1 eigenvalues not converged
     ethr =  6.06E-09,  avg # of iterations = 15.3

[...]

     total energy              =   -1445.94024437 Ry
     estimated scf accuracy    <       0.00000003 Ry

     iteration # 33     ecut=    50.00 Ry     beta= 0.30
     Davidson diagonalization with overlap

     ethr =  1.81E-11,  avg # of iterations =  4.0

     End of self-consistent calculation

          k = 0.0000 0.0000 0.0000 ( 11535 PWs)   bands (ev):

   -13.3292 -13.2270 -13.2269 -13.1222 -13.0468 -13.0149 -13.0148 -12.9841
    -2.3461  -2.3458  -2.3214  -2.3214  -2.3212  -2.3212  -2.3187  -2.3047
    -2.2901  -2.2899  -2.2836  -2.2836  -2.2436  -2.2436  -2.2266  -2.1686
    -2.1520  -2.1520  -2.0728  -2.0727  -2.0062  -2.0062  -1.9799  -1.9750
    -1.9741  -1.9741  -1.9461  -1.9461  -1.9461  -1.9461  -1.9240  -1.9240
    -1.9009  -1.8974  -1.8974  -1.8908  -1.8698  -1.8698  -1.8692  -1.8547
    -0.6156  -0.4632  -0.4046  -0.4046  -0.0933   0.4647   0.4647   0.9024
     1.4803   1.6186   1.6186   1.7404   1.7404   1.7778   2.0009   2.2157
     2.2166   2.2176   2.3595   2.3596   2.3605   2.3605   2.5029   2.5039

     occupation numbers
     1.0000   1.0000   1.0000   1.0000   1.0000   1.0000   1.0000   1.0000
     1.0000   1.0000   1.0000   1.0000   1.0000   1.0000   1.0000   1.0000
     1.0000   1.0000   1.0000   1.0000   1.0000   1.0000   1.0000   1.0000
     1.0000   1.0000   1.0000   1.0000   1.0000   1.0000   1.0000   1.0000
     1.0000   1.0000   1.0000   1.0000   1.0000   1.0000   1.0000   1.0000
     1.0000   1.0000   1.0000   1.0000   1.0000   1.0000   1.0000   1.0000
     1.0000   1.0000   1.0000   1.0000   1.0000   1.0000   1.0000   1.0000
     1.0000   1.0000   1.0000   1.0000   1.0000   1.0000   1.0000   1.0000
     1.0000   1.0000   1.0000   1.0000   1.0000   1.0000   1.0000   1.0000

[...]

          k =-0.5000-0.2887 0.0000 ( 11524 PWs)   bands (ev):

[...]

          k =-0.3333-0.0962-0.0939 ( 11528 PWs)   bands (ev):

[...]

          k = 0.5000-0.0962-0.0939 ( 11520 PWs)   bands (ev):

   -13.0442 -13.0442 -13.0320 -13.0319 -12.9992 -12.9992 -12.9875 -12.9875
    -2.2889  -2.2889  -2.2686  -2.2686  -2.2122  -2.2122  -2.2054  -2.2054
    -2.1724  -2.1724  -2.1411  -2.1411  -2.1202  -2.1202  -2.0926  -2.0926
    -2.0450  -2.0450  -2.0421  -2.0421  -2.0382  -2.0382  -2.0270  -2.0270
    -1.9677  -1.9677  -1.9450  -1.9450  -1.9238  -1.9238  -1.9182  -1.9182
    -1.8670  -1.8670  -1.8620  -1.8620  -1.8288  -1.8288  -1.8104  -1.8104
    -0.2723  -0.2723  -0.2591  -0.2591  -0.1394  -0.1394  -0.0431  -0.0431
     0.9830   0.9830   1.1567   1.1567   1.2344   1.2344   1.4295   1.4295
     1.5553   1.5554   1.6605   1.6605   1.8461   1.8461   1.8541   1.8541

     occupation numbers
     1.0000   1.0000   1.0000   1.0000   1.0000   1.0000   1.0000   1.0000
     1.0000   1.0000   1.0000   1.0000   1.0000   1.0000   1.0000   1.0000
     1.0000   1.0000   1.0000   1.0000   1.0000   1.0000   1.0000   1.0000
     1.0000   1.0000   1.0000   1.0000   1.0000   1.0000   1.0000   1.0000
     1.0000   1.0000   1.0000   1.0000   1.0000   1.0000   1.0000   1.0000
     1.0000   1.0000   1.0000   1.0000   1.0000   1.0000   1.0000   1.0000
     1.0000   1.0000   1.0000   1.0000   1.0000   1.0000   1.0000   1.0000
     1.0000   1.0000   1.0000   1.0000   1.0000   1.0000   1.0000   1.0000
     1.0000   1.0000   1.0000   1.0000   1.0000   1.0000   1.0000   1.0000

     highest occupied level (ev):     2.5039

!    total energy              =   -1445.94024437 Ry
     estimated scf accuracy    <          7.0E-09 Ry

     The total energy is the sum of the following terms:
     one-electron contribution =    -786.98949512 Ry
     hartree contribution      =     535.76771874 Ry
     xc contribution           =    -435.67050643 Ry
     ewald contribution        =    -759.04796156 Ry

     convergence has been achieved in  33 iterations

     Forces acting on atoms (cartesian axes, Ry/au):

     atom    1 type  1   force =     0.00000000    0.00002001   -0.01914764
     atom    2 type  1   force =     0.00000000    0.00000061   -0.01915393
     atom    3 type  2   force =     0.00000000    0.00001624    0.01913693
     atom    4 type  2   force =     0.00000000   -0.00001751    0.01914268
     atom    5 type  1   force =     0.00000000    0.00002136   -0.01910023
     atom    6 type  1   force =     0.00000000   -0.00000403   -0.01914552
     atom    7 type  2   force =     0.00000000    0.00001518    0.01913546
     atom    8 type  2   force =     0.00000000   -0.00001706    0.01912563
     atom    9 type  1   force =     0.00000000    0.00001409   -0.01913991
     atom   10 type  1   force =     0.00000000   -0.00003673   -0.01915705
     atom   11 type  2   force =     0.00000000    0.00001580    0.01914073
     atom   12 type  2   force =     0.00000000   -0.00001411    0.01914217
     atom   13 type  1   force =     0.00000000    0.00001648   -0.01909355
     atom   14 type  1   force =     0.00000000   -0.00003254   -0.01915038
     atom   15 type  2   force =     0.00000000    0.00001677    0.01913843
     atom   16 type  2   force =     0.00000000   -0.00001455    0.01912618
     The non-local contrib.  to forces
     atom    1 type  1   force =     0.00000000   -0.00003543    0.20519545
     atom    2 type  1   force =     0.00000000    0.00005002    0.20519995
     atom    3 type  2   force =     0.00000000    0.00023523    0.25717526
     atom    4 type  2   force =     0.00000000   -0.00023702    0.25718694
     atom    5 type  1   force =     0.00000000   -0.00003503    0.20524546
     atom    6 type  1   force =     0.00000000    0.00004628    0.20520267
     atom    7 type  2   force =     0.00000000    0.00023236    0.25716560
     atom    8 type  2   force =     0.00000000   -0.00023654    0.25715420
     atom    9 type  1   force =     0.00000000   -0.00003987    0.20519692
     atom   10 type  1   force =     0.00000000    0.00002504    0.20519556
     atom   11 type  2   force =     0.00000000    0.00022940    0.25718733
     atom   12 type  2   force =     0.00000000   -0.00022696    0.25718920
     atom   13 type  1   force =     0.00000000   -0.00004010    0.20524880
     atom   14 type  1   force =     0.00000000    0.00002952    0.20519749
     atom   15 type  2   force =     0.00000000    0.00023236    0.25717443
     atom   16 type  2   force =     0.00000000   -0.00022632    0.25715874
     The ionic contribution  to forces
     atom    1 type  1   force =    -0.00000000    0.00000002    1.58113646
     atom    2 type  1   force =     0.00000000    0.00000001    1.58113645
     atom    3 type  2   force =    -0.00000000    0.00000001   -1.58113646
     atom    4 type  2   force =     0.00000000    0.00000001   -1.58113645
     atom    5 type  1   force =    -0.00000000    0.00000002    1.58113646
     atom    6 type  1   force =     0.00000000    0.00000001    1.58113645
     atom    7 type  2   force =    -0.00000000    0.00000001   -1.58113646
     atom    8 type  2   force =     0.00000000    0.00000001   -1.58113645
     atom    9 type  1   force =    -0.00000000   -0.00000001    1.58113645
     atom   10 type  1   force =     0.00000000   -0.00000002    1.58113646
     atom   11 type  2   force =    -0.00000000   -0.00000001   -1.58113645
     atom   12 type  2   force =     0.00000000   -0.00000001   -1.58113646
     atom   13 type  1   force =    -0.00000000   -0.00000001    1.58113645
     atom   14 type  1   force =     0.00000000   -0.00000002    1.58113646
     atom   15 type  2   force =    -0.00000000   -0.00000001   -1.58113645
     atom   16 type  2   force =     0.00000000   -0.00000001   -1.58113646
     The local contribution  to forces
     atom    1 type  1   force =    -0.00000010    0.00004398   -1.79466893
     atom    2 type  1   force =    -0.00000000   -0.00008551   -1.79466808
     atom    3 type  2   force =    -0.00000002   -0.00021703    1.34557437
     atom    4 type  2   force =    -0.00000000    0.00021051    1.34557608
     atom    5 type  1   force =    -0.00000010    0.00004241   -1.79477540
     atom    6 type  1   force =    -0.00000000   -0.00007652   -1.79468411
     atom    7 type  2   force =    -0.00000002   -0.00021825    1.34557621
     atom    8 type  2   force =    -0.00000000    0.00021172    1.34553998
     atom    9 type  1   force =     0.00000000    0.00004932   -1.79468205
     atom   10 type  1   force =     0.00000010   -0.00000640   -1.79465736
     atom   11 type  2   force =    -0.00000000   -0.00021180    1.34556414
     atom   12 type  2   force =     0.00000002    0.00021520    1.34557424
     atom   13 type  1   force =     0.00000000    0.00004963   -1.79479181
     atom   14 type  1   force =     0.00000010   -0.00001574   -1.79467204
     atom   15 type  2   force =    -0.00000000   -0.00020940    1.34556866
     atom   16 type  2   force =     0.00000002    0.00021296    1.34553872
     The core correction contribution to forces
     atom    1 type  1   force =    -0.00000001    0.00000913   -0.01078537
     atom    2 type  1   force =     0.00000000   -0.00000836   -0.01078574
     atom    3 type  2   force =     0.00000000   -0.00000266   -0.00247129
     atom    4 type  2   force =     0.00000000    0.00000268   -0.00247145
     atom    5 type  1   force =    -0.00000001    0.00000916   -0.01078464
     atom    6 type  1   force =     0.00000000   -0.00000845   -0.01078505
     atom    7 type  2   force =     0.00000000   -0.00000262   -0.00247116
     atom    8 type  2   force =     0.00000000    0.00000267   -0.00247103
     atom    9 type  1   force =    -0.00000000    0.00000948   -0.01078470
     atom   10 type  1   force =     0.00000001   -0.00001020   -0.01078591
     atom   11 type  2   force =    -0.00000000   -0.00000258   -0.00247146
     atom   12 type  2   force =    -0.00000000    0.00000255   -0.00247148
     atom   13 type  1   force =    -0.00000000    0.00000940   -0.01078384
     atom   14 type  1   force =     0.00000001   -0.00001014   -0.01078516
     atom   15 type  2   force =    -0.00000000   -0.00000262   -0.00247127
     atom   16 type  2   force =    -0.00000000    0.00000254   -0.00247108
     The Hubbard contrib.    to forces
     atom    1 type  1   force =     0.00000000    0.00000000    0.00000000
     atom    2 type  1   force =     0.00000000    0.00000000    0.00000000
     atom    3 type  2   force =     0.00000000    0.00000000    0.00000000
     atom    4 type  2   force =     0.00000000    0.00000000    0.00000000
     atom    5 type  1   force =     0.00000000    0.00000000    0.00000000
     atom    6 type  1   force =     0.00000000    0.00000000    0.00000000
     atom    7 type  2   force =     0.00000000    0.00000000    0.00000000
     atom    8 type  2   force =     0.00000000    0.00000000    0.00000000
     atom    9 type  1   force =     0.00000000    0.00000000    0.00000000
     atom   10 type  1   force =     0.00000000    0.00000000    0.00000000
     atom   11 type  2   force =     0.00000000    0.00000000    0.00000000
     atom   12 type  2   force =     0.00000000    0.00000000    0.00000000
     atom   13 type  1   force =     0.00000000    0.00000000    0.00000000
     atom   14 type  1   force =     0.00000000    0.00000000    0.00000000
     atom   15 type  2   force =     0.00000000    0.00000000    0.00000000
     atom   16 type  2   force =     0.00000000    0.00000000    0.00000000
     The SCF correction term to forces
     atom    1 type  1   force =    -0.00000000    0.00000207   -0.00002491
     atom    2 type  1   force =     0.00000000    0.00004420   -0.00003617
     atom    3 type  2   force =     0.00000000    0.00000044   -0.00000461
     atom    4 type  2   force =     0.00000000    0.00000606   -0.00001209
     atom    5 type  1   force =    -0.00000000    0.00000456    0.00007824
     atom    6 type  1   force =     0.00000000    0.00003439   -0.00001513
     atom    7 type  2   force =    -0.00000000    0.00000343    0.00000161
     atom    8 type  2   force =     0.00000000    0.00000483    0.00003926
     atom    9 type  1   force =    -0.00000000   -0.00000508   -0.00000619
     atom   10 type  1   force =     0.00000000   -0.00004541   -0.00004546
     atom   11 type  2   force =    -0.00000000    0.00000052   -0.00000249
     atom   12 type  2   force =    -0.00000000   -0.00000514   -0.00001299
     atom   13 type  1   force =    -0.00000000   -0.00000271    0.00009718
     atom   14 type  1   force =     0.00000000   -0.00003642   -0.00002679
     atom   15 type  2   force =    -0.00000000   -0.00000381    0.00000341
     atom   16 type  2   force =    -0.00000000   -0.00000397    0.00003659

     Total force =     0.076544     Total SCF correction =     0.000175

     General routines

     Parallel routines

   This run was terminated on:  20:47:38  29Aug2025

   JOB DONE.
Note: The following floating-point exceptions are signalling: IEEE_UNDERFLOW_FLAG IEEE_DENORMAL
Note: The following floating-point exceptions are signalling: IEEE_UNDERFLOW_FLAG IEEE_DENORMAL
Note: The following floating-point exceptions are signalling: IEEE_UNDERFLOW_FLAG IEEE_DENORMAL
Note: The following floating-point exceptions are signalling: IEEE_UNDERFLOW_FLAG IEEE_DENORMAL
Note: The following floating-point exceptions are signalling: IEEE_UNDERFLOW_FLAG IEEE_DENORMAL
Note: The following floating-point exceptions are signalling: IEEE_UNDERFLOW_FLAG IEEE_DENORMAL
Note: The following floating-point exceptions are signalling: IEEE_UNDERFLOW_FLAG IEEE_DENORMAL
Note: The following floating-point exceptions are signalling: IEEE_UNDERFLOW_FLAG IEEE_DENORMAL
Note: The following floating-point exceptions are signalling: IEEE_UNDERFLOW_FLAG IEEE_DENORMAL
Note: The following floating-point exceptions are signalling: IEEE_UNDERFLOW_FLAG IEEE_DENORMAL
Note: The following floating-point exceptions are signalling: IEEE_UNDERFLOW_FLAG IEEE_DENORMAL
Note: The following floating-point exceptions are signalling: IEEE_UNDERFLOW_FLAG IEEE_DENORMAL
Note: The following floating-point exceptions are signalling: IEEE_UNDERFLOW_FLAG IEEE_DENORMAL
Note: The following floating-point exceptions are signalling: IEEE_UNDERFLOW_FLAG IEEE_DENORMAL
Note: The following floating-point exceptions are signalling: IEEE_UNDERFLOW_FLAG IEEE_DENORMAL
Note: The following floating-point exceptions are signalling: IEEE_UNDERFLOW_FLAG IEEE_DENORMAL
Note: The following floating-point exceptions are signalling: IEEE_UNDERFLOW_FLAG IEEE_DENORMAL
Note: The following floating-point exceptions are signalling: IEEE_UNDERFLOW_FLAG IEEE_DENORMAL
Note: The following floating-point exceptions are signalling: IEEE_UNDERFLOW_FLAG IEEE_DENORMAL
Note: The following floating-point exceptions are signalling: IEEE_UNDERFLOW_FLAG IEEE_DENORMAL
Note: The following floating-point exceptions are signalling: IEEE_UNDERFLOW_FLAG IEEE_DENORMAL
Note: The following floating-point exceptions are signalling: IEEE_UNDERFLOW_FLAG IEEE_DENORMAL
Note: The following floating-point exceptions are signalling: IEEE_UNDERFLOW_FLAG IEEE_DENORMAL
Note: The following floating-point exceptions are signalling: IEEE_UNDERFLOW_FLAG IEEE_DENORMAL
Note: The following floating-point exceptions are signalling: IEEE_UNDERFLOW_FLAG IEEE_DENORMAL
Note: The following floating-point exceptions are signalling: IEEE_UNDERFLOW_FLAG IEEE_DENORMAL
Note: The following floating-point exceptions are signalling: IEEE_UNDERFLOW_FLAG IEEE_DENORMAL
Note: The following floating-point exceptions are signalling: IEEE_UNDERFLOW_FLAG IEEE_DENORMAL
Note: The following floating-point exceptions are signalling: IEEE_UNDERFLOW_FLAG IEEE_DENORMAL
Note: The following floating-point exceptions are signalling: IEEE_UNDERFLOW_FLAG IEEE_DENORMAL
Note: The following floating-point exceptions are signalling: IEEE_UNDERFLOW_FLAG IEEE_DENORMAL
Note: The following floating-point exceptions are signalling: IEEE_UNDERFLOW_FLAG IEEE_DENORMAL