     Program PWSCF v.7.0 starts on 28Aug2025 at 20:10:18

     K-points division:     npool     =       8
     R & G space division:  proc/nbgrp/npool/nimage =       4

     Reading input from /home/jvc/QEspresso7.2/ZnO_database/scripts/cell122.in/ZnO-3.01-1.52-122.in
Warning: card &CELL ignored
Warning: card / ignored
Warning: card &FCP ignored
Warning: card / ignored
Warning: card &RISM ignored
Warning: card / ignored

     Current dimensions of program PWSCF are:
     Max number of different atomic species (ntypx) = 10
     Max number of k-points (npk) =  40000
     Max angular momentum in pseudopotentials (lmaxx) =  4
     file Zn.upf: wavefunction(s)  3D renormalized
     Found identity + (  0.0000  0.0000  0.5000) symmetry
     This is a supercell, fractional translations are disabled
     Message from routine setup:
     using ibrav=0 with symmetry is DISCOURAGED, use correct ibrav instead

     Using Slab Decomposition

     bravais-lattice index     =            0
     lattice parameter (alat)  =       5.6845  a.u.
     unit-cell volume          =     965.6188 (a.u.)^3
     number of atoms/cell      =           16
     number of atomic types    =            2
     number of electrons       =       144.00
     number of Kohn-Sham states=           72
     kinetic-energy cutoff     =      50.0000  Ry
     charge density cutoff     =     400.0000  Ry
     scf convergence threshold =      1.0E-08
     mixing beta               =       0.3000
     number of iterations used =            8  plain     mixing
     Exchange-correlation= PBE
                           (   1   4   3   4   0   0   0)

     celldm(1)=   5.684546  celldm(2)=   0.000000  celldm(3)=   0.000000
     celldm(4)=   0.000000  celldm(5)=   0.000000  celldm(6)=   0.000000

     crystal axes: (cart. coord. in units of alat)
               a(1) = (   1.000000   0.000000   0.000000 )
               a(2) = (  -1.000000   1.732051   0.000000 )
               a(3) = (   0.000000   0.000000   3.034994 )

     reciprocal axes: (cart. coord. in units 2 pi/alat)
               b(1) = (  1.000000  0.577350 -0.000000 )
               b(2) = (  0.000000  0.577350  0.000000 )
               b(3) = (  0.000000 -0.000000  0.329490 )

     PseudoPot. # 1 for Zn read from file:
     /home/jvc/QEspresso7.2/ZnO_database/pseudos/Zn.upf
     MD5 check sum: 7f56cabf9682ed8c977c2f7d0c5985c5
     Pseudo is Ultrasoft + core correction, Zval = 12.0
     Generated using &quot;atomic&quot; code by A. Dal Corso  v.6.2.2
     Using radial grid of 1201 points,  6 beta functions with:
                l(1) =   0
                l(2) =   0
                l(3) =   1
                l(4) =   1
                l(5) =   2
                l(6) =   2
     Q(r) pseudized with 0 coefficients

     PseudoPot. # 2 for O  read from file:
     /home/jvc/QEspresso7.2/ZnO_database/pseudos/O.upf
     MD5 check sum: 91400c9766925bcf19f520983a725ff0
     Pseudo is Ultrasoft + core correction, Zval =  6.0
     Generated using &quot;atomic&quot; code by A. Dal Corso  v.6.3MaX
     Using radial grid of 1095 points,  4 beta functions with:
                l(1) =   0
                l(2) =   0
                l(3) =   1
                l(4) =   1
     Q(r) pseudized with 0 coefficients

     atomic species   valence    mass     pseudopotential
        Zn            12.00    65.38000     Zn( 1.00)
        O              6.00    15.99900     O ( 1.00)

      2 Sym. Ops. (no inversion) found

                                    s                        frac. trans.

      isym =  1     identity

 cryst.   s( 1) = (     1          0          0      )
                  (     0          1          0      )
                  (     0          0          1      )

 cart.    s( 1) = (  1.0000000  0.0000000  0.0000000 )
                  (  0.0000000  1.0000000  0.0000000 )
                  (  0.0000000  0.0000000  1.0000000 )

      isym =  2     inv. 180 deg rotation - cart. axis [1,0,0]

 cryst.   s( 2) = (    -1          0          0      )
                  (     2          1          0      )
                  (     0          0          1      )

 cart.    s( 2) = ( -1.0000000  0.0000000  0.0000000 )
                  (  0.0000000  1.0000000  0.0000000 )
                  (  0.0000000  0.0000000  1.0000000 )

   Cartesian axes

     site n.     atom                  positions (alat units)
         1           Zn  tau(   1) = (   0.5000000   0.2886751   0.7597099  )
         2           Zn  tau(   2) = (   0.0000000   0.5773503   0.0009615  )
         3           O   tau(   3) = (   0.5000000   0.2886751   1.3349062  )
         4           O   tau(   4) = (   0.0000000   0.5773503   0.5761578  )
         5           Zn  tau(   5) = (   0.5000000   0.2886751   2.2772067  )
         6           Zn  tau(   6) = (   0.0000000   0.5773503   1.5184583  )
         7           O   tau(   7) = (   0.5000000   0.2886751   2.8524030  )
         8           O   tau(   8) = (   0.0000000   0.5773503   2.0936546  )
         9           Zn  tau(   9) = (   0.0000000   1.1547005   0.7597099  )
        10           Zn  tau(  10) = (  -0.5000000   1.4433757   0.0009615  )
        11           O   tau(  11) = (   0.0000000   1.1547005   1.3349062  )
        12           O   tau(  12) = (  -0.5000000   1.4433757   0.5761578  )
        13           Zn  tau(  13) = (   0.0000000   1.1547005   2.2772067  )
        14           Zn  tau(  14) = (  -0.5000000   1.4433757   1.5184583  )
        15           O   tau(  15) = (   0.0000000   1.1547005   2.8524030  )
        16           O   tau(  16) = (  -0.5000000   1.4433757   2.0936546  )

   Crystallographic axes

     site n.     atom                  positions (cryst. coord.)
         1           Zn  tau(   1) = (  0.6666667  0.1666667  0.2503168  )
         2           Zn  tau(   2) = (  0.3333333  0.3333333  0.0003168  )
         3           O   tau(   3) = (  0.6666667  0.1666667  0.4398382  )
         4           O   tau(   4) = (  0.3333333  0.3333333  0.1898382  )
         5           Zn  tau(   5) = (  0.6666667  0.1666667  0.7503168  )
         6           Zn  tau(   6) = (  0.3333333  0.3333333  0.5003168  )
         7           O   tau(   7) = (  0.6666667  0.1666667  0.9398382  )
         8           O   tau(   8) = (  0.3333333  0.3333333  0.6898382  )
         9           Zn  tau(   9) = (  0.6666667  0.6666667  0.2503168  )
        10           Zn  tau(  10) = (  0.3333333  0.8333333  0.0003168  )
        11           O   tau(  11) = (  0.6666667  0.6666667  0.4398382  )
        12           O   tau(  12) = (  0.3333333  0.8333333  0.1898382  )
        13           Zn  tau(  13) = (  0.6666667  0.6666667  0.7503168  )
        14           Zn  tau(  14) = (  0.3333333  0.8333333  0.5003168  )
        15           O   tau(  15) = (  0.6666667  0.6666667  0.9398382  )
        16           O   tau(  16) = (  0.3333333  0.8333333  0.6898382  )

     number of k points=    80
                       cart. coord. in units 2pi/alat
        k(    1) = (   0.0000000   0.0000000   0.0000000), wk =   0.0092593
        k(    2) = (   0.0000000   0.0000000   0.0549150), wk =   0.0185185
        k(    3) = (   0.0000000   0.0000000   0.1098300), wk =   0.0185185
        k(    4) = (   0.0000000   0.0000000  -0.1647450), wk =   0.0092593
        k(    5) = (   0.0000000   0.0962250   0.0000000), wk =   0.0185185
        k(    6) = (   0.0000000   0.0962250   0.0549150), wk =   0.0185185
        k(    7) = (   0.0000000   0.0962250   0.1098300), wk =   0.0185185
        k(    8) = (   0.0000000   0.0962250  -0.1647450), wk =   0.0185185
        k(    9) = (   0.0000000   0.1924501   0.0000000), wk =   0.0185185
        k(   10) = (   0.0000000   0.1924501   0.0549150), wk =   0.0185185
        k(   11) = (   0.0000000   0.1924501   0.1098300), wk =   0.0185185
        k(   12) = (   0.0000000   0.1924501  -0.1647450), wk =   0.0185185
        k(   13) = (   0.0000000  -0.2886751   0.0000000), wk =   0.0092593
        k(   14) = (   0.0000000  -0.2886751   0.0549150), wk =   0.0185185
        k(   15) = (   0.0000000  -0.2886751   0.1098300), wk =   0.0185185
        k(   16) = (   0.0000000  -0.2886751  -0.1647450), wk =   0.0092593
        k(   17) = (   0.1666667   0.0962250   0.0000000), wk =   0.0370370
        k(   18) = (   0.1666667   0.0962250   0.0549150), wk =   0.0370370
        k(   19) = (   0.1666667   0.0962250   0.1098300), wk =   0.0370370
        k(   20) = (   0.1666667   0.0962250  -0.1647450), wk =   0.0370370
        k(   21) = (   0.1666667   0.1924501   0.0000000), wk =   0.0370370
        k(   22) = (   0.1666667   0.1924501   0.0549150), wk =   0.0370370
        k(   23) = (   0.1666667   0.1924501   0.1098300), wk =   0.0370370
        k(   24) = (   0.1666667   0.1924501  -0.1647450), wk =   0.0370370
        k(   25) = (   0.1666667   0.2886751   0.0000000), wk =   0.0185185
        k(   26) = (   0.1666667   0.2886751   0.0549150), wk =   0.0370370
        k(   27) = (   0.1666667   0.2886751   0.1098300), wk =   0.0370370
        k(   28) = (   0.1666667   0.2886751  -0.1647450), wk =   0.0185185
        k(   29) = (   0.1666667   0.0000000   0.0000000), wk =   0.0185185
        k(   30) = (   0.1666667   0.0000000   0.0549150), wk =   0.0370370
        k(   31) = (   0.1666667   0.0000000   0.1098300), wk =   0.0370370
        k(   32) = (   0.1666667   0.0000000  -0.1647450), wk =   0.0185185
        k(   33) = (   0.3333333   0.1924501   0.0000000), wk =   0.0370370
        k(   34) = (   0.3333333   0.1924501   0.0549150), wk =   0.0370370
        k(   35) = (   0.3333333   0.1924501   0.1098300), wk =   0.0370370
        k(   36) = (   0.3333333   0.1924501  -0.1647450), wk =   0.0370370
        k(   37) = (   0.3333333   0.2886751   0.0000000), wk =   0.0185185
        k(   38) = (   0.3333333   0.2886751   0.0549150), wk =   0.0370370
        k(   39) = (   0.3333333   0.2886751   0.1098300), wk =   0.0370370
        k(   40) = (   0.3333333   0.2886751  -0.1647450), wk =   0.0185185
        k(   41) = (   0.3333333  -0.0962250   0.0000000), wk =   0.0370370
        k(   42) = (   0.3333333  -0.0962250   0.0549150), wk =   0.0370370
        k(   43) = (   0.3333333  -0.0962250   0.1098300), wk =   0.0370370
        k(   44) = (   0.3333333  -0.0962250  -0.1647450), wk =   0.0370370
        k(   45) = (   0.3333333  -0.0000000   0.0000000), wk =   0.0185185
        k(   46) = (   0.3333333  -0.0000000   0.0549150), wk =   0.0370370
        k(   47) = (   0.3333333  -0.0000000   0.1098300), wk =   0.0370370
        k(   48) = (   0.3333333  -0.0000000  -0.1647450), wk =   0.0185185
        k(   49) = (  -0.5000000  -0.2886751   0.0000000), wk =   0.0092593
        k(   50) = (  -0.5000000  -0.2886751   0.0549150), wk =   0.0185185
        k(   51) = (  -0.5000000  -0.2886751   0.1098300), wk =   0.0185185
        k(   52) = (  -0.5000000  -0.2886751  -0.1647450), wk =   0.0092593
        k(   53) = (  -0.5000000  -0.1924501   0.0000000), wk =   0.0185185
        k(   54) = (  -0.5000000  -0.1924501   0.0549150), wk =   0.0185185
        k(   55) = (  -0.5000000  -0.1924501   0.1098300), wk =   0.0185185
[...]
        k(   76) = (  -0.3333333   0.1666667  -0.3333333), wk =   0.0370370
        k(   77) = (   0.5000000  -0.8333333  -0.1666667), wk =   0.0185185
        k(   78) = (   0.5000000  -0.8333333  -0.3333333), wk =   0.0185185
        k(   79) = (   0.5000000  -0.6666667  -0.1666667), wk =   0.0185185
        k(   80) = (   0.5000000  -0.6666667  -0.3333333), wk =   0.0185185

     Check: negative core charge=   -0.000001

     Initial potential from superposition of free atoms

     starting charge     143.9702, renormalised to     144.0000
     Starting wfcs are  104 randomized atomic wfcs

     Self-consistent Calculation

     iteration #  1     ecut=    50.00 Ry     beta= 0.30
     Davidson diagonalization with overlap

     ethr =  1.00E-02,  avg # of iterations =  2.3

     total energy              =   -1445.18532319 Ry
     estimated scf accuracy    <       2.76554758 Ry

[...]

     total energy              =   -1445.70263506 Ry
     estimated scf accuracy    <       0.00000001 Ry

     iteration # 36     ecut=    50.00 Ry     beta= 0.30
     Davidson diagonalization with overlap

     ethr =  8.70E-12,  avg # of iterations =  3.6

     End of self-consistent calculation

          k = 0.0000 0.0000 0.0000 (  5757 PWs)   bands (ev):

    -8.5755  -7.8977  -7.8977  -7.4303  -7.1755  -7.1755  -7.1718  -6.9970
     3.6415   3.6415   4.1245   4.1245   4.1332   4.1818   4.2194   4.7485
     4.7487   4.8196   4.8503   4.8503   4.8504   4.8504   5.0850   5.0914
     5.0915   5.2302   5.2931   5.2931   5.4329   5.4329   5.7248   5.9897
     6.8736   6.8736   6.9380   7.1813   7.1813   7.1813   7.1813   7.2242
     7.2810   7.2810   7.3385   7.3385   7.4035   7.4035   7.4402   7.5103
     7.7422   7.7723   7.9599   7.9600   8.1792   8.7037   8.7613  10.0830
    10.0830  10.0877  10.0877  10.6862  10.6866  10.6866  10.9180  10.9181
    11.1347  11.6094  11.6094  11.6096  11.6096  12.2550  12.2920  12.2922

     occupation numbers
     1.0000   1.0000   1.0000   1.0000   1.0000   1.0000   1.0000   1.0000
     1.0000   1.0000   1.0000   1.0000   1.0000   1.0000   1.0000   1.0000
     1.0000   1.0000   1.0000   1.0000   1.0000   1.0000   1.0000   1.0000
     1.0000   1.0000   1.0000   1.0000   1.0000   1.0000   1.0000   1.0000
     1.0000   1.0000   1.0000   1.0000   1.0000   1.0000   1.0000   1.0000
     1.0000   1.0000   1.0000   1.0000   1.0000   1.0000   1.0000   1.0000
     1.0000   1.0000   1.0000   1.0000   1.0000   1.0000   1.0000   1.0000
     1.0000   1.0000   1.0000   1.0000   1.0000   1.0000   1.0000   1.0000
     1.0000   1.0000   1.0000   1.0000   1.0000   1.0000   1.0000   1.0000

[...]

          k =-0.5000-0.2887 0.0000 (  5772 PWs)   bands (ev):

[...]

          k =-0.3333-0.0962-0.1098 (  5753 PWs)   bands (ev):

[...]

          k = 0.5000-0.0962-0.1098 (  5752 PWs)   bands (ev):

    -7.4086  -7.4086  -7.3062  -7.3062  -7.0729  -7.0729  -7.0076  -7.0076
     3.9318   3.9318   4.0002   4.0002   4.1462   4.1462   4.3345   4.3345
     4.9639   4.9639   4.9792   4.9792   5.0799   5.0799   5.1356   5.1356
     5.5460   5.5460   5.6527   5.6527   5.6742   5.6742   5.8417   5.8417
     6.8483   6.8483   7.0088   7.0088   7.1194   7.1194   7.1827   7.1827
     7.4178   7.4178   7.4271   7.4271   7.5606   7.5606   7.6166   7.6166
     7.7621   7.7621   7.9444   7.9444   8.3492   8.3492   8.4301   8.4301
     8.6840   8.6840   8.9855   8.9855   9.2964   9.2964   9.8948   9.8948
    10.2516  10.2516  10.5331  10.5331  10.8596  10.8596  10.9886  10.9886

     occupation numbers
     1.0000   1.0000   1.0000   1.0000   1.0000   1.0000   1.0000   1.0000
     1.0000   1.0000   1.0000   1.0000   1.0000   1.0000   1.0000   1.0000
     1.0000   1.0000   1.0000   1.0000   1.0000   1.0000   1.0000   1.0000
     1.0000   1.0000   1.0000   1.0000   1.0000   1.0000   1.0000   1.0000
     1.0000   1.0000   1.0000   1.0000   1.0000   1.0000   1.0000   1.0000
     1.0000   1.0000   1.0000   1.0000   1.0000   1.0000   1.0000   1.0000
     1.0000   1.0000   1.0000   1.0000   1.0000   1.0000   1.0000   1.0000
     1.0000   1.0000   1.0000   1.0000   1.0000   1.0000   1.0000   1.0000
     1.0000   1.0000   1.0000   1.0000   1.0000   1.0000   1.0000   1.0000

     highest occupied level (ev):    12.2922

!    total energy              =   -1445.70263506 Ry
     estimated scf accuracy    <          1.8E-11 Ry

     The total energy is the sum of the following terms:
     one-electron contribution =    -471.18060346 Ry
     hartree contribution      =     423.47057115 Ry
     xc contribution           =    -441.30950060 Ry
     ewald contribution        =    -956.68310215 Ry

     convergence has been achieved in  36 iterations

     Forces acting on atoms (cartesian axes, Ry/au):

     atom    1 type  1   force =     0.00000000   -0.00001856   -0.08357417
     atom    2 type  1   force =     0.00000000    0.00001815   -0.08357421
     atom    3 type  2   force =     0.00000000    0.00000083    0.08357409
     atom    4 type  2   force =     0.00000000   -0.00000181    0.08357351
     atom    5 type  1   force =     0.00000000   -0.00001811   -0.08357418
     atom    6 type  1   force =     0.00000000    0.00001828   -0.08357299
     atom    7 type  2   force =     0.00000000    0.00000171    0.08357401
     atom    8 type  2   force =     0.00000000   -0.00000127    0.08357307
     atom    9 type  1   force =     0.00000000   -0.00001716   -0.08357338
     atom   10 type  1   force =     0.00000000    0.00001898   -0.08357326
     atom   11 type  2   force =     0.00000000    0.00000158    0.08357444
     atom   12 type  2   force =     0.00000000   -0.00000111    0.08357354
     atom   13 type  1   force =     0.00000000   -0.00001831   -0.08357466
     atom   14 type  1   force =     0.00000000    0.00001735   -0.08357272
     atom   15 type  2   force =     0.00000000    0.00000119    0.08357376
     atom   16 type  2   force =     0.00000000   -0.00000174    0.08357314
     The non-local contrib.  to forces
     atom    1 type  1   force =     0.00000000    0.00002888   -0.21554380
     atom    2 type  1   force =     0.00000000   -0.00002884   -0.21554440
     atom    3 type  2   force =     0.00000000    0.00016180   -0.12078662
     atom    4 type  2   force =     0.00000000   -0.00016310   -0.12078768
     atom    5 type  1   force =     0.00000000    0.00002857   -0.21554349
     atom    6 type  1   force =     0.00000000   -0.00002885   -0.21554433
     atom    7 type  2   force =     0.00000000    0.00016313   -0.12078651
     atom    8 type  2   force =     0.00000000   -0.00016191   -0.12078821
     atom    9 type  1   force =     0.00000000    0.00002860   -0.21554404
     atom   10 type  1   force =     0.00000000   -0.00002841   -0.21554418
     atom   11 type  2   force =     0.00000000    0.00016290   -0.12078582
     atom   12 type  2   force =     0.00000000   -0.00016179   -0.12078752
     atom   13 type  1   force =     0.00000000    0.00002890   -0.21554352
     atom   14 type  1   force =     0.00000000   -0.00002872   -0.21554385
     atom   15 type  2   force =     0.00000000    0.00016214   -0.12078719
     atom   16 type  2   force =     0.00000000   -0.00016302   -0.12078773
     The ionic contribution  to forces
     atom    1 type  1   force =    -0.00000000    0.00000001   -1.49109069
     atom    2 type  1   force =     0.00000000    0.00000001   -1.49109069
     atom    3 type  2   force =    -0.00000000    0.00000001    1.49109069
     atom    4 type  2   force =     0.00000000    0.00000000    1.49109069
     atom    5 type  1   force =    -0.00000000    0.00000001   -1.49109069
     atom    6 type  1   force =     0.00000000    0.00000001   -1.49109069
     atom    7 type  2   force =    -0.00000000    0.00000001    1.49109069
     atom    8 type  2   force =     0.00000000    0.00000000    1.49109069
     atom    9 type  1   force =    -0.00000001   -0.00000000   -1.49109069
     atom   10 type  1   force =     0.00000001   -0.00000002   -1.49109069
     atom   11 type  2   force =    -0.00000001    0.00000000    1.49109069
     atom   12 type  2   force =     0.00000001   -0.00000001    1.49109069
     atom   13 type  1   force =    -0.00000001   -0.00000000   -1.49109069
     atom   14 type  1   force =     0.00000001   -0.00000002   -1.49109069
     atom   15 type  2   force =    -0.00000001    0.00000000    1.49109069
     atom   16 type  2   force =     0.00000001   -0.00000001    1.49109069
     The local contribution  to forces
     atom    1 type  1   force =    -0.00000008   -0.00004857    1.60126670
     atom    2 type  1   force =    -0.00000000    0.00004881    1.60126766
     atom    3 type  2   force =    -0.00000002   -0.00015864   -1.28731355
     atom    4 type  2   force =     0.00000000    0.00015874   -1.28731212
     atom    5 type  1   force =    -0.00000008   -0.00004853    1.60126660
     atom    6 type  1   force =    -0.00000000    0.00004840    1.60126664
     atom    7 type  2   force =    -0.00000002   -0.00015865   -1.28731245
     atom    8 type  2   force =     0.00000000    0.00015810   -1.28731192
     atom    9 type  1   force =    -0.00000008   -0.00004906    1.60126650
     atom   10 type  1   force =     0.00000008    0.00004785    1.60126678
     atom   11 type  2   force =    -0.00000002   -0.00015902   -1.28731369
     atom   12 type  2   force =     0.00000002    0.00015812   -1.28731274
     atom   13 type  1   force =    -0.00000008   -0.00004870    1.60126688
     atom   14 type  1   force =     0.00000008    0.00004926    1.60126624
     atom   15 type  2   force =    -0.00000002   -0.00015873   -1.28731178
     atom   16 type  2   force =     0.00000002    0.00015896   -1.28731240
     The core correction contribution to forces
     atom    1 type  1   force =    -0.00000003    0.00000267    0.02179158
     atom    2 type  1   force =     0.00000000   -0.00000261    0.02179164
     atom    3 type  2   force =    -0.00000000   -0.00000186    0.00058351
     atom    4 type  2   force =     0.00000000    0.00000188    0.00058353
     atom    5 type  1   force =    -0.00000003    0.00000269    0.02179157
     atom    6 type  1   force =     0.00000000   -0.00000259    0.02179165
     atom    7 type  2   force =    -0.00000000   -0.00000187    0.00058352
     atom    8 type  2   force =     0.00000000    0.00000186    0.00058354
     atom    9 type  1   force =    -0.00000001    0.00000260    0.02179163
     atom   10 type  1   force =     0.00000003   -0.00000269    0.02179160
     atom   11 type  2   force =    -0.00000000   -0.00000188    0.00058351
     atom   12 type  2   force =     0.00000000    0.00000186    0.00058353
     atom   13 type  1   force =    -0.00000001    0.00000259    0.02179160
     atom   14 type  1   force =     0.00000003   -0.00000268    0.02179158
     atom   15 type  2   force =    -0.00000000   -0.00000186    0.00058353
     atom   16 type  2   force =     0.00000000    0.00000187    0.00058353
     The Hubbard contrib.    to forces
     atom    1 type  1   force =     0.00000000    0.00000000    0.00000000
     atom    2 type  1   force =     0.00000000    0.00000000    0.00000000
     atom    3 type  2   force =     0.00000000    0.00000000    0.00000000
     atom    4 type  2   force =     0.00000000    0.00000000    0.00000000
     atom    5 type  1   force =     0.00000000    0.00000000    0.00000000
     atom    6 type  1   force =     0.00000000    0.00000000    0.00000000
     atom    7 type  2   force =     0.00000000    0.00000000    0.00000000
     atom    8 type  2   force =     0.00000000    0.00000000    0.00000000
     atom    9 type  1   force =     0.00000000    0.00000000    0.00000000
     atom   10 type  1   force =     0.00000000    0.00000000    0.00000000
     atom   11 type  2   force =     0.00000000    0.00000000    0.00000000
     atom   12 type  2   force =     0.00000000    0.00000000    0.00000000
     atom   13 type  1   force =     0.00000000    0.00000000    0.00000000
     atom   14 type  1   force =     0.00000000    0.00000000    0.00000000
     atom   15 type  2   force =     0.00000000    0.00000000    0.00000000
     atom   16 type  2   force =     0.00000000    0.00000000    0.00000000
     The SCF correction term to forces
     atom    1 type  1   force =    -0.00000000   -0.00000155    0.00000176
     atom    2 type  1   force =    -0.00000000    0.00000080    0.00000130
     atom    3 type  2   force =    -0.00000000   -0.00000048   -0.00000024
     atom    4 type  2   force =     0.00000000    0.00000068   -0.00000120
     atom    5 type  1   force =    -0.00000000   -0.00000083    0.00000154
     atom    6 type  1   force =    -0.00000000    0.00000133    0.00000346
     atom    7 type  2   force =    -0.00000000   -0.00000089   -0.00000152
     atom    8 type  2   force =     0.00000000    0.00000069   -0.00000133
     atom    9 type  1   force =     0.00000000    0.00000071    0.00000294
     atom   10 type  1   force =     0.00000000    0.00000226    0.00000295
     atom   11 type  2   force =    -0.00000000   -0.00000041   -0.00000054
     atom   12 type  2   force =     0.00000000    0.00000073   -0.00000071
     atom   13 type  1   force =     0.00000000   -0.00000108    0.00000077
     atom   14 type  1   force =     0.00000000   -0.00000047    0.00000371
     atom   15 type  2   force =    -0.00000000   -0.00000034   -0.00000178
     atom   16 type  2   force =     0.00000000    0.00000048   -0.00000124

     Total force =     0.334295     Total SCF correction =     0.000009

     General routines

     Parallel routines

   This run was terminated on:  20:20: 0  28Aug2025

   JOB DONE.
Note: The following floating-point exceptions are signalling: IEEE_UNDERFLOW_FLAG IEEE_DENORMAL
Note: The following floating-point exceptions are signalling: IEEE_UNDERFLOW_FLAG IEEE_DENORMAL
Note: The following floating-point exceptions are signalling: IEEE_UNDERFLOW_FLAG IEEE_DENORMAL
Note: The following floating-point exceptions are signalling: IEEE_UNDERFLOW_FLAG IEEE_DENORMAL
Note: The following floating-point exceptions are signalling: IEEE_UNDERFLOW_FLAG IEEE_DENORMAL
Note: The following floating-point exceptions are signalling: IEEE_UNDERFLOW_FLAG IEEE_DENORMAL
Note: The following floating-point exceptions are signalling: IEEE_UNDERFLOW_FLAG IEEE_DENORMAL
Note: The following floating-point exceptions are signalling: IEEE_UNDERFLOW_FLAG IEEE_DENORMAL
Note: The following floating-point exceptions are signalling: IEEE_UNDERFLOW_FLAG IEEE_DENORMAL
Note: The following floating-point exceptions are signalling: IEEE_UNDERFLOW_FLAG IEEE_DENORMAL
Note: The following floating-point exceptions are signalling: IEEE_UNDERFLOW_FLAG IEEE_DENORMAL
Note: The following floating-point exceptions are signalling: IEEE_UNDERFLOW_FLAG IEEE_DENORMAL
Note: The following floating-point exceptions are signalling: IEEE_UNDERFLOW_FLAG IEEE_DENORMAL
Note: The following floating-point exceptions are signalling: IEEE_UNDERFLOW_FLAG IEEE_DENORMAL
Note: The following floating-point exceptions are signalling: IEEE_UNDERFLOW_FLAG IEEE_DENORMAL
Note: The following floating-point exceptions are signalling: IEEE_UNDERFLOW_FLAG IEEE_DENORMAL
Note: The following floating-point exceptions are signalling: IEEE_UNDERFLOW_FLAG IEEE_DENORMAL
Note: The following floating-point exceptions are signalling: IEEE_UNDERFLOW_FLAG IEEE_DENORMAL
Note: The following floating-point exceptions are signalling: IEEE_UNDERFLOW_FLAG IEEE_DENORMAL
Note: The following floating-point exceptions are signalling: IEEE_UNDERFLOW_FLAG IEEE_DENORMAL
Note: The following floating-point exceptions are signalling: IEEE_UNDERFLOW_FLAG IEEE_DENORMAL
Note: The following floating-point exceptions are signalling: IEEE_UNDERFLOW_FLAG IEEE_DENORMAL
Note: The following floating-point exceptions are signalling: IEEE_UNDERFLOW_FLAG IEEE_DENORMAL
Note: The following floating-point exceptions are signalling: IEEE_UNDERFLOW_FLAG IEEE_DENORMAL
Note: The following floating-point exceptions are signalling: IEEE_UNDERFLOW_FLAG IEEE_DENORMAL
Note: The following floating-point exceptions are signalling: IEEE_UNDERFLOW_FLAG IEEE_DENORMAL
Note: The following floating-point exceptions are signalling: IEEE_UNDERFLOW_FLAG IEEE_DENORMAL
Note: The following floating-point exceptions are signalling: IEEE_UNDERFLOW_FLAG IEEE_DENORMAL
Note: The following floating-point exceptions are signalling: IEEE_UNDERFLOW_FLAG IEEE_DENORMAL
Note: The following floating-point exceptions are signalling: IEEE_UNDERFLOW_FLAG IEEE_DENORMAL
Note: The following floating-point exceptions are signalling: IEEE_UNDERFLOW_FLAG IEEE_DENORMAL
Note: The following floating-point exceptions are signalling: IEEE_UNDERFLOW_FLAG IEEE_DENORMAL