     Program PWSCF v.7.0 starts on 29Aug2025 at  4:49:28

     K-points division:     npool     =       8
     R & G space division:  proc/nbgrp/npool/nimage =       4

     Reading input from /home/jvc/QEspresso7.2/ZnO_database/scripts/cell122.in/ZnO-3.27-1.65-122.in
Warning: card &CELL ignored
Warning: card / ignored
Warning: card &FCP ignored
Warning: card / ignored
Warning: card &RISM ignored
Warning: card / ignored

     Current dimensions of program PWSCF are:
     Max number of different atomic species (ntypx) = 10
     Max number of k-points (npk) =  40000
     Max angular momentum in pseudopotentials (lmaxx) =  4
     file Zn.upf: wavefunction(s)  3D renormalized
     Found identity + (  0.0000  0.0000  0.5000) symmetry
     This is a supercell, fractional translations are disabled
     Message from routine setup:
     using ibrav=0 with symmetry is DISCOURAGED, use correct ibrav instead

     Using Slab Decomposition

     bravais-lattice index     =            0
     lattice parameter (alat)  =       6.1789  a.u.
     unit-cell volume          =    1345.5955 (a.u.)^3
     number of atoms/cell      =           16
     number of atomic types    =            2
     number of electrons       =       144.00
     number of Kohn-Sham states=           72
     kinetic-energy cutoff     =      50.0000  Ry
     charge density cutoff     =     400.0000  Ry
     scf convergence threshold =      1.0E-08
     mixing beta               =       0.3000
     number of iterations used =            8  plain     mixing
     Exchange-correlation= PBE
                           (   1   4   3   4   0   0   0)

     celldm(1)=   6.178854  celldm(2)=   0.000000  celldm(3)=   0.000000
     celldm(4)=   0.000000  celldm(5)=   0.000000  celldm(6)=   0.000000

     crystal axes: (cart. coord. in units of alat)
               a(1) = (   1.000000   0.000000   0.000000 )
               a(2) = (  -1.000000   1.732051   0.000000 )
               a(3) = (   0.000000   0.000000   3.293291 )

     reciprocal axes: (cart. coord. in units 2 pi/alat)
               b(1) = (  1.000000  0.577350 -0.000000 )
               b(2) = (  0.000000  0.577350  0.000000 )
               b(3) = (  0.000000 -0.000000  0.303648 )

     PseudoPot. # 1 for Zn read from file:
     /home/jvc/QEspresso7.2/ZnO_database/pseudos/Zn.upf
     MD5 check sum: 7f56cabf9682ed8c977c2f7d0c5985c5
     Pseudo is Ultrasoft + core correction, Zval = 12.0
     Generated using &quot;atomic&quot; code by A. Dal Corso  v.6.2.2
     Using radial grid of 1201 points,  6 beta functions with:
                l(1) =   0
                l(2) =   0
                l(3) =   1
                l(4) =   1
                l(5) =   2
                l(6) =   2
     Q(r) pseudized with 0 coefficients

     PseudoPot. # 2 for O  read from file:
     /home/jvc/QEspresso7.2/ZnO_database/pseudos/O.upf
     MD5 check sum: 91400c9766925bcf19f520983a725ff0
     Pseudo is Ultrasoft + core correction, Zval =  6.0
     Generated using &quot;atomic&quot; code by A. Dal Corso  v.6.3MaX
     Using radial grid of 1095 points,  4 beta functions with:
                l(1) =   0
                l(2) =   0
                l(3) =   1
                l(4) =   1
     Q(r) pseudized with 0 coefficients

     atomic species   valence    mass     pseudopotential
        Zn            12.00    65.38000     Zn( 1.00)
        O              6.00    15.99900     O ( 1.00)

      2 Sym. Ops. (no inversion) found

                                    s                        frac. trans.

      isym =  1     identity

 cryst.   s( 1) = (     1          0          0      )
                  (     0          1          0      )
                  (     0          0          1      )

 cart.    s( 1) = (  1.0000000  0.0000000  0.0000000 )
                  (  0.0000000  1.0000000  0.0000000 )
                  (  0.0000000  0.0000000  1.0000000 )

      isym =  2     inv. 180 deg rotation - cart. axis [1,0,0]

 cryst.   s( 2) = (    -1          0          0      )
                  (     2          1          0      )
                  (     0          0          1      )

 cart.    s( 2) = ( -1.0000000  0.0000000  0.0000000 )
                  (  0.0000000  1.0000000  0.0000000 )
                  (  0.0000000  0.0000000  1.0000000 )

   Cartesian axes

     site n.     atom                  positions (alat units)
         1           Zn  tau(   1) = (   0.5000000   0.2886751   0.8243661  )
         2           Zn  tau(   2) = (   0.0000000   0.5773503   0.0010433  )
         3           O   tau(   3) = (   0.5000000   0.2886751   1.4485152  )
         4           O   tau(   4) = (   0.0000000   0.5773503   0.6251925  )
         5           Zn  tau(   5) = (   0.5000000   0.2886751   2.4710116  )
         6           Zn  tau(   6) = (   0.0000000   0.5773503   1.6476888  )
         7           O   tau(   7) = (   0.5000000   0.2886751   3.0951608  )
         8           O   tau(   8) = (   0.0000000   0.5773503   2.2718380  )
         9           Zn  tau(   9) = (   0.0000000   1.1547005   0.8243661  )
        10           Zn  tau(  10) = (  -0.5000000   1.4433757   0.0010433  )
        11           O   tau(  11) = (   0.0000000   1.1547005   1.4485152  )
        12           O   tau(  12) = (  -0.5000000   1.4433757   0.6251925  )
        13           Zn  tau(  13) = (   0.0000000   1.1547005   2.4710116  )
        14           Zn  tau(  14) = (  -0.5000000   1.4433757   1.6476888  )
        15           O   tau(  15) = (   0.0000000   1.1547005   3.0951608  )
        16           O   tau(  16) = (  -0.5000000   1.4433757   2.2718380  )

   Crystallographic axes

     site n.     atom                  positions (cryst. coord.)
         1           Zn  tau(   1) = (  0.6666667  0.1666667  0.2503168  )
         2           Zn  tau(   2) = (  0.3333333  0.3333333  0.0003168  )
         3           O   tau(   3) = (  0.6666667  0.1666667  0.4398382  )
         4           O   tau(   4) = (  0.3333333  0.3333333  0.1898382  )
         5           Zn  tau(   5) = (  0.6666667  0.1666667  0.7503168  )
         6           Zn  tau(   6) = (  0.3333333  0.3333333  0.5003168  )
         7           O   tau(   7) = (  0.6666667  0.1666667  0.9398382  )
         8           O   tau(   8) = (  0.3333333  0.3333333  0.6898382  )
         9           Zn  tau(   9) = (  0.6666667  0.6666667  0.2503168  )
        10           Zn  tau(  10) = (  0.3333333  0.8333333  0.0003168  )
        11           O   tau(  11) = (  0.6666667  0.6666667  0.4398382  )
        12           O   tau(  12) = (  0.3333333  0.8333333  0.1898382  )
        13           Zn  tau(  13) = (  0.6666667  0.6666667  0.7503168  )
        14           Zn  tau(  14) = (  0.3333333  0.8333333  0.5003168  )
        15           O   tau(  15) = (  0.6666667  0.6666667  0.9398382  )
        16           O   tau(  16) = (  0.3333333  0.8333333  0.6898382  )

     number of k points=    80
                       cart. coord. in units 2pi/alat
        k(    1) = (   0.0000000   0.0000000   0.0000000), wk =   0.0092593
        k(    2) = (   0.0000000   0.0000000   0.0506079), wk =   0.0185185
        k(    3) = (   0.0000000   0.0000000   0.1012159), wk =   0.0185185
        k(    4) = (   0.0000000   0.0000000  -0.1518238), wk =   0.0092593
        k(    5) = (   0.0000000   0.0962250   0.0000000), wk =   0.0185185
        k(    6) = (   0.0000000   0.0962250   0.0506079), wk =   0.0185185
        k(    7) = (   0.0000000   0.0962250   0.1012159), wk =   0.0185185
        k(    8) = (   0.0000000   0.0962250  -0.1518238), wk =   0.0185185
        k(    9) = (   0.0000000   0.1924501   0.0000000), wk =   0.0185185
        k(   10) = (   0.0000000   0.1924501   0.0506079), wk =   0.0185185
        k(   11) = (   0.0000000   0.1924501   0.1012159), wk =   0.0185185
        k(   12) = (   0.0000000   0.1924501  -0.1518238), wk =   0.0185185
        k(   13) = (   0.0000000  -0.2886751   0.0000000), wk =   0.0092593
        k(   14) = (   0.0000000  -0.2886751   0.0506079), wk =   0.0185185
        k(   15) = (   0.0000000  -0.2886751   0.1012159), wk =   0.0185185
        k(   16) = (   0.0000000  -0.2886751  -0.1518238), wk =   0.0092593
        k(   17) = (   0.1666667   0.0962250   0.0000000), wk =   0.0370370
        k(   18) = (   0.1666667   0.0962250   0.0506079), wk =   0.0370370
        k(   19) = (   0.1666667   0.0962250   0.1012159), wk =   0.0370370
        k(   20) = (   0.1666667   0.0962250  -0.1518238), wk =   0.0370370
        k(   21) = (   0.1666667   0.1924501   0.0000000), wk =   0.0370370
        k(   22) = (   0.1666667   0.1924501   0.0506079), wk =   0.0370370
        k(   23) = (   0.1666667   0.1924501   0.1012159), wk =   0.0370370
        k(   24) = (   0.1666667   0.1924501  -0.1518238), wk =   0.0370370
        k(   25) = (   0.1666667   0.2886751   0.0000000), wk =   0.0185185
        k(   26) = (   0.1666667   0.2886751   0.0506079), wk =   0.0370370
        k(   27) = (   0.1666667   0.2886751   0.1012159), wk =   0.0370370
        k(   28) = (   0.1666667   0.2886751  -0.1518238), wk =   0.0185185
        k(   29) = (   0.1666667   0.0000000   0.0000000), wk =   0.0185185
        k(   30) = (   0.1666667   0.0000000   0.0506079), wk =   0.0370370
        k(   31) = (   0.1666667   0.0000000   0.1012159), wk =   0.0370370
        k(   32) = (   0.1666667   0.0000000  -0.1518238), wk =   0.0185185
        k(   33) = (   0.3333333   0.1924501   0.0000000), wk =   0.0370370
        k(   34) = (   0.3333333   0.1924501   0.0506079), wk =   0.0370370
        k(   35) = (   0.3333333   0.1924501   0.1012159), wk =   0.0370370
        k(   36) = (   0.3333333   0.1924501  -0.1518238), wk =   0.0370370
        k(   37) = (   0.3333333   0.2886751   0.0000000), wk =   0.0185185
        k(   38) = (   0.3333333   0.2886751   0.0506079), wk =   0.0370370
        k(   39) = (   0.3333333   0.2886751   0.1012159), wk =   0.0370370
        k(   40) = (   0.3333333   0.2886751  -0.1518238), wk =   0.0185185
        k(   41) = (   0.3333333  -0.0962250   0.0000000), wk =   0.0370370
        k(   42) = (   0.3333333  -0.0962250   0.0506079), wk =   0.0370370
        k(   43) = (   0.3333333  -0.0962250   0.1012159), wk =   0.0370370
        k(   44) = (   0.3333333  -0.0962250  -0.1518238), wk =   0.0370370
        k(   45) = (   0.3333333  -0.0000000   0.0000000), wk =   0.0185185
        k(   46) = (   0.3333333  -0.0000000   0.0506079), wk =   0.0370370
        k(   47) = (   0.3333333  -0.0000000   0.1012159), wk =   0.0370370
        k(   48) = (   0.3333333  -0.0000000  -0.1518238), wk =   0.0185185
        k(   49) = (  -0.5000000  -0.2886751   0.0000000), wk =   0.0092593
        k(   50) = (  -0.5000000  -0.2886751   0.0506079), wk =   0.0185185
        k(   51) = (  -0.5000000  -0.2886751   0.1012159), wk =   0.0185185
        k(   52) = (  -0.5000000  -0.2886751  -0.1518238), wk =   0.0092593
        k(   53) = (  -0.5000000  -0.1924501   0.0000000), wk =   0.0185185
        k(   54) = (  -0.5000000  -0.1924501   0.0506079), wk =   0.0185185
        k(   55) = (  -0.5000000  -0.1924501   0.1012159), wk =   0.0185185
[...]
        k(   80) = (   0.5000000  -0.6666667  -0.3333333), wk =   0.0185185

     Check: negative core charge=   -0.000002

     Initial potential from superposition of free atoms

     starting charge     143.9702, renormalised to     144.0000
     Starting wfcs are  104 randomized atomic wfcs

     Self-consistent Calculation

     iteration #  1     ecut=    50.00 Ry     beta= 0.30
     Davidson diagonalization with overlap

     ethr =  1.00E-02,  avg # of iterations =  1.9

     total energy              =   -1445.90574690 Ry
     estimated scf accuracy    <       2.79304798 Ry

[...]

     c_bands:  1 eigenvalues not converged
     ethr =  1.64E-04,  avg # of iterations = 11.7

[...]

     c_bands:  1 eigenvalues not converged
     c_bands:  1 eigenvalues not converged
     c_bands:  1 eigenvalues not converged
     ethr =  1.36E-08,  avg # of iterations = 13.7

[...]

     total energy              =   -1446.54560108 Ry
     estimated scf accuracy    <       0.00000026 Ry

     iteration # 25     ecut=    50.00 Ry     beta= 0.30
     Davidson diagonalization with overlap

     ethr =  8.28E-11,  avg # of iterations =  6.6

     End of self-consistent calculation

          k = 0.0000 0.0000 0.0000 (  7937 PWs)   bands (ev):

   -11.1368 -10.8338 -10.8338 -10.5142 -10.5056 -10.4046 -10.4046 -10.3156
     0.7967   0.7967   0.9262   0.9618   0.9618   1.1022   1.1024   1.1252
     1.1503   1.1682   1.1682   1.1684   1.1684   1.2543   1.2713   1.2715
     1.3501   1.5570   1.5570   1.6714   1.6714   1.7226   1.7854   1.8229
     2.1759   2.1760   2.2117   2.2799   2.2799   2.2799   2.2799   2.3298
     2.3492   2.3492   2.3517   2.3517   2.3972   2.4271   2.4271   2.4699
     2.6382   2.9127   2.9154   2.9154   3.1678   3.9225   4.3423   4.3423
     4.5565   5.2148   5.2148   5.2515   5.2515   5.3724   5.8108   5.9228
     5.9232   6.2738   6.2738   6.2742   6.2742   6.4938   6.6180   6.6184

     occupation numbers
     1.0000   1.0000   1.0000   1.0000   1.0000   1.0000   1.0000   1.0000
     1.0000   1.0000   1.0000   1.0000   1.0000   1.0000   1.0000   1.0000
     1.0000   1.0000   1.0000   1.0000   1.0000   1.0000   1.0000   1.0000
     1.0000   1.0000   1.0000   1.0000   1.0000   1.0000   1.0000   1.0000
     1.0000   1.0000   1.0000   1.0000   1.0000   1.0000   1.0000   1.0000
     1.0000   1.0000   1.0000   1.0000   1.0000   1.0000   1.0000   1.0000
     1.0000   1.0000   1.0000   1.0000   1.0000   1.0000   1.0000   1.0000
     1.0000   1.0000   1.0000   1.0000   1.0000   1.0000   1.0000   1.0000
     1.0000   1.0000   1.0000   1.0000   1.0000   1.0000   1.0000   1.0000

[...]

          k =-0.5000-0.2887 0.0000 (  8044 PWs)   bands (ev):

[...]

          k =-0.3333-0.0962-0.1012 (  8047 PWs)   bands (ev):

[...]

          k = 0.5000-0.0962-0.1012 (  8066 PWs)   bands (ev):

   -10.4979 -10.4978 -10.4583 -10.4582 -10.3577 -10.3577 -10.3240 -10.3240
     0.9384   0.9384   0.9943   0.9943   1.0331   1.0331   1.1896   1.1896
     1.3603   1.3603   1.3804   1.3804   1.5393   1.5393   1.5832   1.5832
     1.6732   1.6732   1.6885   1.6885   1.7635   1.7635   1.7844   1.7844
     2.1590   2.1590   2.2343   2.2343   2.2777   2.2777   2.3050   2.3050
     2.4111   2.4111   2.4213   2.4213   2.5365   2.5365   2.5972   2.5972
     2.8725   2.8725   3.0020   3.0020   3.3248   3.3248   3.4294   3.4295
     4.0120   4.0120   4.3250   4.3250   4.3834   4.3834   4.8086   4.8086
     5.1240   5.1240   5.3239   5.3239   5.5267   5.5267   5.5495   5.5495

     occupation numbers
     1.0000   1.0000   1.0000   1.0000   1.0000   1.0000   1.0000   1.0000
     1.0000   1.0000   1.0000   1.0000   1.0000   1.0000   1.0000   1.0000
     1.0000   1.0000   1.0000   1.0000   1.0000   1.0000   1.0000   1.0000
     1.0000   1.0000   1.0000   1.0000   1.0000   1.0000   1.0000   1.0000
     1.0000   1.0000   1.0000   1.0000   1.0000   1.0000   1.0000   1.0000
     1.0000   1.0000   1.0000   1.0000   1.0000   1.0000   1.0000   1.0000
     1.0000   1.0000   1.0000   1.0000   1.0000   1.0000   1.0000   1.0000
     1.0000   1.0000   1.0000   1.0000   1.0000   1.0000   1.0000   1.0000
     1.0000   1.0000   1.0000   1.0000   1.0000   1.0000   1.0000   1.0000

     highest occupied level (ev):     6.6184

!    total energy              =   -1446.54560116 Ry
     estimated scf accuracy    <          4.9E-09 Ry

     The total energy is the sum of the following terms:
     one-electron contribution =    -627.08089328 Ry
     hartree contribution      =     476.31953956 Ry
     xc contribution           =    -438.02176731 Ry
     ewald contribution        =    -857.76248012 Ry

     convergence has been achieved in  25 iterations

     Forces acting on atoms (cartesian axes, Ry/au):

     atom    1 type  1   force =     0.00000000    0.00000840    0.00482695
     atom    2 type  1   force =     0.00000000    0.00001371    0.00484028
     atom    3 type  2   force =     0.00000000    0.00000248   -0.00483867
     atom    4 type  2   force =     0.00000000   -0.00000322   -0.00484119
     atom    5 type  1   force =     0.00000000   -0.00000531    0.00484745
     atom    6 type  1   force =     0.00000000    0.00000362    0.00484933
     atom    7 type  2   force =     0.00000000    0.00000239   -0.00484208
     atom    8 type  2   force =     0.00000000   -0.00000318   -0.00483998
     atom    9 type  1   force =     0.00000000   -0.00001484    0.00482523
     atom   10 type  1   force =     0.00000000   -0.00000660    0.00482337
     atom   11 type  2   force =     0.00000000    0.00000307   -0.00483880
     atom   12 type  2   force =     0.00000000   -0.00000281   -0.00484108
     atom   13 type  1   force =     0.00000000   -0.00000062    0.00485537
     atom   14 type  1   force =     0.00000000    0.00000237    0.00485537
     atom   15 type  2   force =     0.00000000    0.00000314   -0.00484208
     atom   16 type  2   force =     0.00000000   -0.00000261   -0.00483947
     The non-local contrib.  to forces
     atom    1 type  1   force =     0.00000000    0.00002582    0.05066644
     atom    2 type  1   force =     0.00000000   -0.00001776    0.05067650
     atom    3 type  2   force =     0.00000000    0.00020752    0.05425671
     atom    4 type  2   force =     0.00000000   -0.00020938    0.05426163
     atom    5 type  1   force =     0.00000000    0.00002075    0.05067841
     atom    6 type  1   force =     0.00000000   -0.00002050    0.05067331
     atom    7 type  2   force =     0.00000000    0.00020757    0.05425537
     atom    8 type  2   force =     0.00000000   -0.00020943    0.05425164
     atom    9 type  1   force =     0.00000000    0.00001710    0.05066487
     atom   10 type  1   force =     0.00000000   -0.00002508    0.05067186
     atom   11 type  2   force =     0.00000000    0.00021017    0.05425549
     atom   12 type  2   force =     0.00000000   -0.00020835    0.05426177
     atom   13 type  1   force =     0.00000000    0.00002181    0.05068003
     atom   14 type  1   force =     0.00000000   -0.00002177    0.05067574
     atom   15 type  2   force =     0.00000000    0.00020990    0.05425623
     atom   16 type  2   force =     0.00000000   -0.00020873    0.05425090
     The ionic contribution  to forces
     atom    1 type  1   force =    -0.00000000    0.00000000    0.46504031
     atom    2 type  1   force =     0.00000000   -0.00000000    0.46504031
     atom    3 type  2   force =    -0.00000000    0.00000000   -0.46504031
     atom    4 type  2   force =     0.00000000   -0.00000000   -0.46504031
     atom    5 type  1   force =    -0.00000000    0.00000000    0.46504031
     atom    6 type  1   force =     0.00000000   -0.00000000    0.46504031
     atom    7 type  2   force =    -0.00000000    0.00000000   -0.46504031
     atom    8 type  2   force =     0.00000000   -0.00000000   -0.46504031
     atom    9 type  1   force =    -0.00000000    0.00000000    0.46504031
     atom   10 type  1   force =     0.00000000   -0.00000000    0.46504031
     atom   11 type  2   force =    -0.00000000    0.00000000   -0.46504031
     atom   12 type  2   force =     0.00000000   -0.00000000   -0.46504031
     atom   13 type  1   force =    -0.00000000    0.00000000    0.46504031
     atom   14 type  1   force =     0.00000000   -0.00000000    0.46504031
     atom   15 type  2   force =    -0.00000000    0.00000000   -0.46504031
     atom   16 type  2   force =     0.00000000   -0.00000000   -0.46504031
     The local contribution  to forces
     atom    1 type  1   force =    -0.00000009   -0.00005084   -0.50732525
     atom    2 type  1   force =     0.00000000    0.00002127   -0.50734675
     atom    3 type  2   force =    -0.00000002   -0.00020736    0.40638506
     atom    4 type  2   force =    -0.00000000    0.00020388    0.40639839
     atom    5 type  1   force =    -0.00000009   -0.00003165   -0.50736165
     atom    6 type  1   force =    -0.00000000    0.00003473   -0.50735829
     atom    7 type  2   force =    -0.00000002   -0.00020521    0.40639435
     atom    8 type  2   force =     0.00000000    0.00020586    0.40638125
     atom    9 type  1   force =    -0.00000009   -0.00001878   -0.50732229
     atom   10 type  1   force =     0.00000000    0.00004812   -0.50732759
     atom   11 type  2   force =    -0.00000002   -0.00020492    0.40638220
     atom   12 type  2   force =    -0.00000000    0.00020686    0.40639814
     atom   13 type  1   force =    -0.00000009   -0.00003796   -0.50737022
     atom   14 type  1   force =     0.00000000    0.00003456   -0.50736673
     atom   15 type  2   force =    -0.00000002   -0.00020479    0.40639198
     atom   16 type  2   force =     0.00000000    0.00020743    0.40638139
     The core correction contribution to forces
     atom    1 type  1   force =    -0.00000001    0.00000660   -0.00351958
     atom    2 type  1   force =     0.00000000   -0.00000609   -0.00352273
     atom    3 type  2   force =     0.00000000   -0.00000237   -0.00045343
     atom    4 type  2   force =     0.00000000    0.00000238   -0.00045255
     atom    5 type  1   force =    -0.00000001    0.00000624   -0.00352132
     atom    6 type  1   force =     0.00000000   -0.00000643   -0.00351787
     atom    7 type  2   force =     0.00000000   -0.00000236   -0.00045347
     atom    8 type  2   force =     0.00000000    0.00000239   -0.00045438
     atom    9 type  1   force =    -0.00000001    0.00000603   -0.00351954
     atom   10 type  1   force =     0.00000000   -0.00000655   -0.00352309
     atom   11 type  2   force =     0.00000000   -0.00000240   -0.00045343
     atom   12 type  2   force =     0.00000000    0.00000237   -0.00045256
     atom   13 type  1   force =    -0.00000001    0.00000638   -0.00352110
     atom   14 type  1   force =     0.00000000   -0.00000622   -0.00351777
     atom   15 type  2   force =     0.00000000   -0.00000239   -0.00045349
     atom   16 type  2   force =     0.00000000    0.00000238   -0.00045437
     The Hubbard contrib.    to forces
     atom    1 type  1   force =     0.00000000    0.00000000    0.00000000
     atom    2 type  1   force =     0.00000000    0.00000000    0.00000000
     atom    3 type  2   force =     0.00000000    0.00000000    0.00000000
     atom    4 type  2   force =     0.00000000    0.00000000    0.00000000
     atom    5 type  1   force =     0.00000000    0.00000000    0.00000000
     atom    6 type  1   force =     0.00000000    0.00000000    0.00000000
     atom    7 type  2   force =     0.00000000    0.00000000    0.00000000
     atom    8 type  2   force =     0.00000000    0.00000000    0.00000000
     atom    9 type  1   force =     0.00000000    0.00000000    0.00000000
     atom   10 type  1   force =     0.00000000    0.00000000    0.00000000
     atom   11 type  2   force =     0.00000000    0.00000000    0.00000000
     atom   12 type  2   force =     0.00000000    0.00000000    0.00000000
     atom   13 type  1   force =     0.00000000    0.00000000    0.00000000
     atom   14 type  1   force =     0.00000000    0.00000000    0.00000000
     atom   15 type  2   force =     0.00000000    0.00000000    0.00000000
     atom   16 type  2   force =     0.00000000    0.00000000    0.00000000
     The SCF correction term to forces
     atom    1 type  1   force =    -0.00000000    0.00002685   -0.00003798
     atom    2 type  1   force =     0.00000000    0.00001633   -0.00001007
     atom    3 type  2   force =    -0.00000000    0.00000472    0.00001029
     atom    4 type  2   force =     0.00000000   -0.00000006   -0.00001138
     atom    5 type  1   force =    -0.00000000   -0.00000062    0.00000868
     atom    6 type  1   force =     0.00000000   -0.00000414    0.00000886
     atom    7 type  2   force =    -0.00000000    0.00000242   -0.00000104
     atom    8 type  2   force =     0.00000000   -0.00000196    0.00001881
     atom    9 type  1   force =    -0.00000000   -0.00001916   -0.00004114
     atom   10 type  1   force =     0.00000000   -0.00002305   -0.00004114
     atom   11 type  2   force =    -0.00000000    0.00000025    0.00001423
     atom   12 type  2   force =     0.00000000   -0.00000365   -0.00001113
     atom   13 type  1   force =    -0.00000000    0.00000919    0.00002333
     atom   14 type  1   force =     0.00000000   -0.00000417    0.00002080
     atom   15 type  2   force =    -0.00000000    0.00000045    0.00000048
     atom   16 type  2   force =     0.00000000   -0.00000366    0.00001990

     Total force =     0.019362     Total SCF correction =     0.000097

     General routines

     Parallel routines

   This run was terminated on:   5: 0:13  29Aug2025

   JOB DONE.
Note: The following floating-point exceptions are signalling: IEEE_UNDERFLOW_FLAG IEEE_DENORMAL
Note: The following floating-point exceptions are signalling: IEEE_UNDERFLOW_FLAG IEEE_DENORMAL
Note: The following floating-point exceptions are signalling: IEEE_UNDERFLOW_FLAG IEEE_DENORMAL
Note: The following floating-point exceptions are signalling: IEEE_UNDERFLOW_FLAG IEEE_DENORMAL
Note: The following floating-point exceptions are signalling: IEEE_UNDERFLOW_FLAG IEEE_DENORMAL
Note: The following floating-point exceptions are signalling: IEEE_UNDERFLOW_FLAG IEEE_DENORMAL
Note: The following floating-point exceptions are signalling: IEEE_UNDERFLOW_FLAG IEEE_DENORMAL
Note: The following floating-point exceptions are signalling: IEEE_UNDERFLOW_FLAG IEEE_DENORMAL
Note: The following floating-point exceptions are signalling: IEEE_UNDERFLOW_FLAG IEEE_DENORMAL
Note: The following floating-point exceptions are signalling: IEEE_UNDERFLOW_FLAG IEEE_DENORMAL
Note: The following floating-point exceptions are signalling: IEEE_UNDERFLOW_FLAG IEEE_DENORMAL
Note: The following floating-point exceptions are signalling: IEEE_UNDERFLOW_FLAG IEEE_DENORMAL
Note: The following floating-point exceptions are signalling: IEEE_UNDERFLOW_FLAG IEEE_DENORMAL
Note: The following floating-point exceptions are signalling: IEEE_UNDERFLOW_FLAG IEEE_DENORMAL
Note: The following floating-point exceptions are signalling: IEEE_UNDERFLOW_FLAG IEEE_DENORMAL
Note: The following floating-point exceptions are signalling: IEEE_UNDERFLOW_FLAG IEEE_DENORMAL
Note: The following floating-point exceptions are signalling: IEEE_UNDERFLOW_FLAG IEEE_DENORMAL
Note: The following floating-point exceptions are signalling: IEEE_UNDERFLOW_FLAG IEEE_DENORMAL
Note: The following floating-point exceptions are signalling: IEEE_UNDERFLOW_FLAG IEEE_DENORMAL
Note: The following floating-point exceptions are signalling: IEEE_UNDERFLOW_FLAG IEEE_DENORMAL
Note: The following floating-point exceptions are signalling: IEEE_UNDERFLOW_FLAG IEEE_DENORMAL
Note: The following floating-point exceptions are signalling: IEEE_UNDERFLOW_FLAG IEEE_DENORMAL
Note: The following floating-point exceptions are signalling: IEEE_UNDERFLOW_FLAG IEEE_DENORMAL
Note: The following floating-point exceptions are signalling: IEEE_UNDERFLOW_FLAG IEEE_DENORMAL
Note: The following floating-point exceptions are signalling: IEEE_UNDERFLOW_FLAG IEEE_DENORMAL
Note: The following floating-point exceptions are signalling: IEEE_UNDERFLOW_FLAG IEEE_DENORMAL
Note: The following floating-point exceptions are signalling: IEEE_UNDERFLOW_FLAG IEEE_DENORMAL
Note: The following floating-point exceptions are signalling: IEEE_UNDERFLOW_FLAG IEEE_DENORMAL
Note: The following floating-point exceptions are signalling: IEEE_UNDERFLOW_FLAG IEEE_DENORMAL
Note: The following floating-point exceptions are signalling: IEEE_UNDERFLOW_FLAG IEEE_DENORMAL
Note: The following floating-point exceptions are signalling: IEEE_UNDERFLOW_FLAG IEEE_DENORMAL
Note: The following floating-point exceptions are signalling: IEEE_UNDERFLOW_FLAG IEEE_DENORMAL