     Program PWSCF v.7.0 starts on 29Aug2025 at  6:53:18

     K-points division:     npool     =       8
     R & G space division:  proc/nbgrp/npool/nimage =       4

     Reading input from /home/jvc/QEspresso7.2/ZnO_database/scripts/cell122.in/ZnO-3.34-1.58-122.in
Warning: card &CELL ignored
Warning: card / ignored
Warning: card &FCP ignored
Warning: card / ignored
Warning: card &RISM ignored
Warning: card / ignored

     Current dimensions of program PWSCF are:
     Max number of different atomic species (ntypx) = 10
     Max number of k-points (npk) =  40000
     Max angular momentum in pseudopotentials (lmaxx) =  4
     file Zn.upf: wavefunction(s)  3D renormalized
     Found identity + (  0.0000  0.0000  0.5000) symmetry
     This is a supercell, fractional translations are disabled
     Message from routine setup:
     using ibrav=0 with symmetry is DISCOURAGED, use correct ibrav instead

     Using Slab Decomposition

     bravais-lattice index     =            0
     lattice parameter (alat)  =       6.3024  a.u.
     unit-cell volume          =    1371.9584 (a.u.)^3
     number of atoms/cell      =           16
     number of atomic types    =            2
     number of electrons       =       144.00
     number of Kohn-Sham states=           72
     kinetic-energy cutoff     =      50.0000  Ry
     charge density cutoff     =     400.0000  Ry
     scf convergence threshold =      1.0E-08
     mixing beta               =       0.3000
     number of iterations used =            8  plain     mixing
     Exchange-correlation= PBE
                           (   1   4   3   4   0   0   0)

     celldm(1)=   6.302431  celldm(2)=   0.000000  celldm(3)=   0.000000
     celldm(4)=   0.000000  celldm(5)=   0.000000  celldm(6)=   0.000000

     crystal axes: (cart. coord. in units of alat)
               a(1) = (   1.000000   0.000000   0.000000 )
               a(2) = (  -1.000000   1.732051   0.000000 )
               a(3) = (   0.000000   0.000000   3.164142 )

     reciprocal axes: (cart. coord. in units 2 pi/alat)
               b(1) = (  1.000000  0.577350 -0.000000 )
               b(2) = (  0.000000  0.577350  0.000000 )
               b(3) = (  0.000000 -0.000000  0.316041 )

     PseudoPot. # 1 for Zn read from file:
     /home/jvc/QEspresso7.2/ZnO_database/pseudos/Zn.upf
     MD5 check sum: 7f56cabf9682ed8c977c2f7d0c5985c5
     Pseudo is Ultrasoft + core correction, Zval = 12.0
     Generated using &quot;atomic&quot; code by A. Dal Corso  v.6.2.2
     Using radial grid of 1201 points,  6 beta functions with:
                l(1) =   0
                l(2) =   0
                l(3) =   1
                l(4) =   1
                l(5) =   2
                l(6) =   2
     Q(r) pseudized with 0 coefficients

     PseudoPot. # 2 for O  read from file:
     /home/jvc/QEspresso7.2/ZnO_database/pseudos/O.upf
     MD5 check sum: 91400c9766925bcf19f520983a725ff0
     Pseudo is Ultrasoft + core correction, Zval =  6.0
     Generated using &quot;atomic&quot; code by A. Dal Corso  v.6.3MaX
     Using radial grid of 1095 points,  4 beta functions with:
                l(1) =   0
                l(2) =   0
                l(3) =   1
                l(4) =   1
     Q(r) pseudized with 0 coefficients

     atomic species   valence    mass     pseudopotential
        Zn            12.00    65.38000     Zn( 1.00)
        O              6.00    15.99900     O ( 1.00)

      2 Sym. Ops. (no inversion) found

                                    s                        frac. trans.

      isym =  1     identity

 cryst.   s( 1) = (     1          0          0      )
                  (     0          1          0      )
                  (     0          0          1      )

 cart.    s( 1) = (  1.0000000  0.0000000  0.0000000 )
                  (  0.0000000  1.0000000  0.0000000 )
                  (  0.0000000  0.0000000  1.0000000 )

      isym =  2     inv. 180 deg rotation - cart. axis [1,0,0]

 cryst.   s( 2) = (    -1          0          0      )
                  (     2          1          0      )
                  (     0          0          1      )

 cart.    s( 2) = ( -1.0000000  0.0000000  0.0000000 )
                  (  0.0000000  1.0000000  0.0000000 )
                  (  0.0000000  0.0000000  1.0000000 )

   Cartesian axes

     site n.     atom                  positions (alat units)
         1           Zn  tau(   1) = (   0.5000000   0.2886751   0.7920380  )
         2           Zn  tau(   2) = (   0.0000000   0.5773503   0.0010024  )
         3           O   tau(   3) = (   0.5000000   0.2886751   1.3917107  )
         4           O   tau(   4) = (   0.0000000   0.5773503   0.6006751  )
         5           Zn  tau(   5) = (   0.5000000   0.2886751   2.3741092  )
         6           Zn  tau(   6) = (   0.0000000   0.5773503   1.5830736  )
         7           O   tau(   7) = (   0.5000000   0.2886751   2.9737819  )
         8           O   tau(   8) = (   0.0000000   0.5773503   2.1827463  )
         9           Zn  tau(   9) = (   0.0000000   1.1547005   0.7920380  )
        10           Zn  tau(  10) = (  -0.5000000   1.4433757   0.0010024  )
        11           O   tau(  11) = (   0.0000000   1.1547005   1.3917107  )
        12           O   tau(  12) = (  -0.5000000   1.4433757   0.6006751  )
        13           Zn  tau(  13) = (   0.0000000   1.1547005   2.3741092  )
        14           Zn  tau(  14) = (  -0.5000000   1.4433757   1.5830736  )
        15           O   tau(  15) = (   0.0000000   1.1547005   2.9737819  )
        16           O   tau(  16) = (  -0.5000000   1.4433757   2.1827463  )

   Crystallographic axes

     site n.     atom                  positions (cryst. coord.)
         1           Zn  tau(   1) = (  0.6666667  0.1666667  0.2503168  )
         2           Zn  tau(   2) = (  0.3333333  0.3333333  0.0003168  )
         3           O   tau(   3) = (  0.6666667  0.1666667  0.4398382  )
         4           O   tau(   4) = (  0.3333333  0.3333333  0.1898382  )
         5           Zn  tau(   5) = (  0.6666667  0.1666667  0.7503168  )
         6           Zn  tau(   6) = (  0.3333333  0.3333333  0.5003168  )
         7           O   tau(   7) = (  0.6666667  0.1666667  0.9398382  )
         8           O   tau(   8) = (  0.3333333  0.3333333  0.6898382  )
         9           Zn  tau(   9) = (  0.6666667  0.6666667  0.2503168  )
        10           Zn  tau(  10) = (  0.3333333  0.8333333  0.0003168  )
        11           O   tau(  11) = (  0.6666667  0.6666667  0.4398382  )
        12           O   tau(  12) = (  0.3333333  0.8333333  0.1898382  )
        13           Zn  tau(  13) = (  0.6666667  0.6666667  0.7503168  )
        14           Zn  tau(  14) = (  0.3333333  0.8333333  0.5003168  )
        15           O   tau(  15) = (  0.6666667  0.6666667  0.9398382  )
        16           O   tau(  16) = (  0.3333333  0.8333333  0.6898382  )

     number of k points=    80
                       cart. coord. in units 2pi/alat
        k(    1) = (   0.0000000   0.0000000   0.0000000), wk =   0.0092593
        k(    2) = (   0.0000000   0.0000000   0.0526736), wk =   0.0185185
        k(    3) = (   0.0000000   0.0000000   0.1053471), wk =   0.0185185
        k(    4) = (   0.0000000   0.0000000  -0.1580207), wk =   0.0092593
        k(    5) = (   0.0000000   0.0962250   0.0000000), wk =   0.0185185
        k(    6) = (   0.0000000   0.0962250   0.0526736), wk =   0.0185185
        k(    7) = (   0.0000000   0.0962250   0.1053471), wk =   0.0185185
        k(    8) = (   0.0000000   0.0962250  -0.1580207), wk =   0.0185185
        k(    9) = (   0.0000000   0.1924501   0.0000000), wk =   0.0185185
        k(   10) = (   0.0000000   0.1924501   0.0526736), wk =   0.0185185
        k(   11) = (   0.0000000   0.1924501   0.1053471), wk =   0.0185185
        k(   12) = (   0.0000000   0.1924501  -0.1580207), wk =   0.0185185
        k(   13) = (   0.0000000  -0.2886751   0.0000000), wk =   0.0092593
        k(   14) = (   0.0000000  -0.2886751   0.0526736), wk =   0.0185185
        k(   15) = (   0.0000000  -0.2886751   0.1053471), wk =   0.0185185
        k(   16) = (   0.0000000  -0.2886751  -0.1580207), wk =   0.0092593
        k(   17) = (   0.1666667   0.0962250   0.0000000), wk =   0.0370370
        k(   18) = (   0.1666667   0.0962250   0.0526736), wk =   0.0370370
        k(   19) = (   0.1666667   0.0962250   0.1053471), wk =   0.0370370
        k(   20) = (   0.1666667   0.0962250  -0.1580207), wk =   0.0370370
        k(   21) = (   0.1666667   0.1924501   0.0000000), wk =   0.0370370
        k(   22) = (   0.1666667   0.1924501   0.0526736), wk =   0.0370370
        k(   23) = (   0.1666667   0.1924501   0.1053471), wk =   0.0370370
        k(   24) = (   0.1666667   0.1924501  -0.1580207), wk =   0.0370370
        k(   25) = (   0.1666667   0.2886751   0.0000000), wk =   0.0185185
        k(   26) = (   0.1666667   0.2886751   0.0526736), wk =   0.0370370
        k(   27) = (   0.1666667   0.2886751   0.1053471), wk =   0.0370370
        k(   28) = (   0.1666667   0.2886751  -0.1580207), wk =   0.0185185
        k(   29) = (   0.1666667   0.0000000   0.0000000), wk =   0.0185185
        k(   30) = (   0.1666667   0.0000000   0.0526736), wk =   0.0370370
        k(   31) = (   0.1666667   0.0000000   0.1053471), wk =   0.0370370
        k(   32) = (   0.1666667   0.0000000  -0.1580207), wk =   0.0185185
        k(   33) = (   0.3333333   0.1924501   0.0000000), wk =   0.0370370
        k(   34) = (   0.3333333   0.1924501   0.0526736), wk =   0.0370370
        k(   35) = (   0.3333333   0.1924501   0.1053471), wk =   0.0370370
        k(   36) = (   0.3333333   0.1924501  -0.1580207), wk =   0.0370370
        k(   37) = (   0.3333333   0.2886751   0.0000000), wk =   0.0185185
        k(   38) = (   0.3333333   0.2886751   0.0526736), wk =   0.0370370
        k(   39) = (   0.3333333   0.2886751   0.1053471), wk =   0.0370370
        k(   40) = (   0.3333333   0.2886751  -0.1580207), wk =   0.0185185
        k(   41) = (   0.3333333  -0.0962250   0.0000000), wk =   0.0370370
        k(   42) = (   0.3333333  -0.0962250   0.0526736), wk =   0.0370370
        k(   43) = (   0.3333333  -0.0962250   0.1053471), wk =   0.0370370
        k(   44) = (   0.3333333  -0.0962250  -0.1580207), wk =   0.0370370
        k(   45) = (   0.3333333  -0.0000000   0.0000000), wk =   0.0185185
        k(   46) = (   0.3333333  -0.0000000   0.0526736), wk =   0.0370370
        k(   47) = (   0.3333333  -0.0000000   0.1053471), wk =   0.0370370
        k(   48) = (   0.3333333  -0.0000000  -0.1580207), wk =   0.0185185
        k(   49) = (  -0.5000000  -0.2886751   0.0000000), wk =   0.0092593
        k(   50) = (  -0.5000000  -0.2886751   0.0526736), wk =   0.0185185
        k(   51) = (  -0.5000000  -0.2886751   0.1053471), wk =   0.0185185
        k(   52) = (  -0.5000000  -0.2886751  -0.1580207), wk =   0.0092593
        k(   53) = (  -0.5000000  -0.1924501   0.0000000), wk =   0.0185185
        k(   54) = (  -0.5000000  -0.1924501   0.0526736), wk =   0.0185185
        k(   55) = (  -0.5000000  -0.1924501   0.1053471), wk =   0.0185185
[...]
        k(   77) = (   0.5000000  -0.8333333  -0.1666667), wk =   0.0185185
        k(   78) = (   0.5000000  -0.8333333  -0.3333333), wk =   0.0185185
        k(   79) = (   0.5000000  -0.6666667  -0.1666667), wk =   0.0185185
        k(   80) = (   0.5000000  -0.6666667  -0.3333333), wk =   0.0185185

     Check: negative core charge=   -0.000002

     Initial potential from superposition of free atoms

     starting charge     143.9702, renormalised to     144.0000
     Starting wfcs are  104 randomized atomic wfcs

     Self-consistent Calculation

     iteration #  1     ecut=    50.00 Ry     beta= 0.30
     Davidson diagonalization with overlap

     ethr =  1.00E-02,  avg # of iterations =  1.9

     total energy              =   -1445.88779523 Ry
     estimated scf accuracy    <       2.82475132 Ry

[...]

     c_bands:  1 eigenvalues not converged
     ethr =  1.70E-04,  avg # of iterations = 11.3

[...]

     total energy              =   -1446.54113965 Ry
     estimated scf accuracy    <       0.00000004 Ry

     iteration # 39     ecut=    50.00 Ry     beta= 0.30
     Davidson diagonalization with overlap

     ethr =  1.97E-11,  avg # of iterations =  5.5

     End of self-consistent calculation

          k = 0.0000 0.0000 0.0000 (  8179 PWs)   bands (ev):

   -11.2654 -10.9464 -10.9464 -10.6781 -10.6125 -10.5693 -10.5693 -10.4767
     0.6220   0.6220   0.7626   0.7626   0.7681   0.9317   0.9319   0.9566
     0.9966   0.9966   0.9967   0.9967   1.0305   1.1147   1.1148   1.1466
     1.2040   1.3610   1.3610   1.4234   1.4234   1.4947   1.5213   1.6449
     1.9151   1.9151   1.9588   2.0326   2.0326   2.0326   2.0326   2.0653
     2.0875   2.0875   2.1067   2.1068   2.1468   2.1724   2.1724   2.2073
     2.3435   2.7068   2.7196   2.7196   3.0249   3.6866   4.1657   4.1657
     4.2128   4.9372   4.9372   5.1133   5.1133   5.1511   5.5411   5.5414
     5.5805   5.9299   5.9299   5.9302   5.9302   6.2784   6.3065   6.3069

     occupation numbers
     1.0000   1.0000   1.0000   1.0000   1.0000   1.0000   1.0000   1.0000
     1.0000   1.0000   1.0000   1.0000   1.0000   1.0000   1.0000   1.0000
     1.0000   1.0000   1.0000   1.0000   1.0000   1.0000   1.0000   1.0000
     1.0000   1.0000   1.0000   1.0000   1.0000   1.0000   1.0000   1.0000
     1.0000   1.0000   1.0000   1.0000   1.0000   1.0000   1.0000   1.0000
     1.0000   1.0000   1.0000   1.0000   1.0000   1.0000   1.0000   1.0000
     1.0000   1.0000   1.0000   1.0000   1.0000   1.0000   1.0000   1.0000
     1.0000   1.0000   1.0000   1.0000   1.0000   1.0000   1.0000   1.0000
     1.0000   1.0000   1.0000   1.0000   1.0000   1.0000   1.0000   1.0000

[...]

          k =-0.5000-0.2887 0.0000 (  8168 PWs)   bands (ev):

[...]

          k =-0.3333-0.0962-0.1053 (  8208 PWs)   bands (ev):

[...]

          k = 0.5000-0.0962-0.1053 (  8224 PWs)   bands (ev):

   -10.6685 -10.6685 -10.6259 -10.6259 -10.5198 -10.5198 -10.4851 -10.4851
     0.7540   0.7540   0.8262   0.8262   0.8500   0.8500   1.0245   1.0245
     1.1679   1.1679   1.1782   1.1782   1.3229   1.3229   1.3527   1.3527
     1.4549   1.4549   1.4827   1.4827   1.5478   1.5478   1.6053   1.6053
     1.9186   1.9186   1.9880   1.9880   2.0238   2.0238   2.0477   2.0477
     2.1542   2.1542   2.1660   2.1660   2.2750   2.2750   2.3233   2.3233
     2.6571   2.6571   2.7796   2.7796   3.1017   3.1017   3.2131   3.2131
     3.7491   3.7491   4.0638   4.0638   4.1720   4.1720   4.6588   4.6588
     4.9003   4.9003   5.1258   5.1258   5.3077   5.3077   5.3856   5.3856

     occupation numbers
     1.0000   1.0000   1.0000   1.0000   1.0000   1.0000   1.0000   1.0000
     1.0000   1.0000   1.0000   1.0000   1.0000   1.0000   1.0000   1.0000
     1.0000   1.0000   1.0000   1.0000   1.0000   1.0000   1.0000   1.0000
     1.0000   1.0000   1.0000   1.0000   1.0000   1.0000   1.0000   1.0000
     1.0000   1.0000   1.0000   1.0000   1.0000   1.0000   1.0000   1.0000
     1.0000   1.0000   1.0000   1.0000   1.0000   1.0000   1.0000   1.0000
     1.0000   1.0000   1.0000   1.0000   1.0000   1.0000   1.0000   1.0000
     1.0000   1.0000   1.0000   1.0000   1.0000   1.0000   1.0000   1.0000
     1.0000   1.0000   1.0000   1.0000   1.0000   1.0000   1.0000   1.0000

     highest occupied level (ev):     6.3069

!    total energy              =   -1446.54113966 Ry
     estimated scf accuracy    <          5.3E-10 Ry

     The total energy is the sum of the following terms:
     one-electron contribution =    -636.43031071 Ry
     hartree contribution      =     479.75644561 Ry
     xc contribution           =    -437.87276364 Ry
     ewald contribution        =    -851.99451092 Ry

     convergence has been achieved in  39 iterations

     Forces acting on atoms (cartesian axes, Ry/au):

     atom    1 type  1   force =     0.00000000   -0.00000606   -0.00514219
     atom    2 type  1   force =     0.00000000    0.00000832   -0.00513813
     atom    3 type  2   force =     0.00000000    0.00000190    0.00513947
     atom    4 type  2   force =     0.00000000   -0.00000232    0.00514011
     atom    5 type  1   force =     0.00000000   -0.00000557   -0.00513924
     atom    6 type  1   force =     0.00000000    0.00000841   -0.00514028
     atom    7 type  2   force =     0.00000000    0.00000220    0.00513945
     atom    8 type  2   force =     0.00000000   -0.00000233    0.00513936
     atom    9 type  1   force =     0.00000000   -0.00000817   -0.00513727
     atom   10 type  1   force =     0.00000000    0.00000555   -0.00514023
     atom   11 type  2   force =     0.00000000    0.00000265    0.00513961
     atom   12 type  2   force =     0.00000000   -0.00000206    0.00513992
     atom   13 type  1   force =     0.00000000   -0.00000755   -0.00513780
     atom   14 type  1   force =     0.00000000    0.00000456   -0.00514182
     atom   15 type  2   force =     0.00000000    0.00000234    0.00513973
     atom   16 type  2   force =     0.00000000   -0.00000186    0.00513929
     The non-local contrib.  to forces
     atom    1 type  1   force =     0.00000000    0.00001627   -0.06136639
     atom    2 type  1   force =     0.00000000   -0.00001451   -0.06136413
     atom    3 type  2   force =     0.00000000    0.00020354   -0.04323312
     atom    4 type  2   force =     0.00000000   -0.00020484   -0.04323168
     atom    5 type  1   force =     0.00000000    0.00001665   -0.06136360
     atom    6 type  1   force =     0.00000000   -0.00001355   -0.06136458
     atom    7 type  2   force =     0.00000000    0.00020391   -0.04323399
     atom    8 type  2   force =     0.00000000   -0.00020492   -0.04323379
     atom    9 type  1   force =     0.00000000    0.00001456   -0.06136354
     atom   10 type  1   force =     0.00000000   -0.00001669   -0.06136571
     atom   11 type  2   force =     0.00000000    0.00020550   -0.04323257
     atom   12 type  2   force =     0.00000000   -0.00020413   -0.04323235
     atom   13 type  1   force =     0.00000000    0.00001462   -0.06136259
     atom   14 type  1   force =     0.00000000   -0.00001770   -0.06136570
     atom   15 type  2   force =     0.00000000    0.00020515   -0.04323309
     atom   16 type  2   force =     0.00000000   -0.00020412   -0.04323342
     The ionic contribution  to forces
     atom    1 type  1   force =    -0.00000000    0.00000000   -0.34432025
     atom    2 type  1   force =     0.00000000   -0.00000000   -0.34432025
     atom    3 type  2   force =    -0.00000000    0.00000000    0.34432025
     atom    4 type  2   force =     0.00000000   -0.00000000    0.34432025
     atom    5 type  1   force =    -0.00000000    0.00000000   -0.34432025
     atom    6 type  1   force =     0.00000000   -0.00000000   -0.34432025
     atom    7 type  2   force =    -0.00000000    0.00000000    0.34432025
     atom    8 type  2   force =     0.00000000   -0.00000000    0.34432025
     atom    9 type  1   force =    -0.00000000    0.00000000   -0.34432025
     atom   10 type  1   force =     0.00000000   -0.00000000   -0.34432025
     atom   11 type  2   force =    -0.00000000    0.00000000    0.34432025
     atom   12 type  2   force =     0.00000000   -0.00000000    0.34432025
     atom   13 type  1   force =    -0.00000000    0.00000000   -0.34432025
     atom   14 type  1   force =     0.00000000   -0.00000000   -0.34432025
     atom   15 type  2   force =    -0.00000000    0.00000000    0.34432025
     atom   16 type  2   force =     0.00000000   -0.00000000    0.34432025
     The local contribution  to forces
     atom    1 type  1   force =    -0.00000009   -0.00002850    0.39609536
     atom    2 type  1   force =    -0.00000000    0.00002405    0.39608999
     atom    3 type  2   force =    -0.00000002   -0.00020035   -0.29627365
     atom    4 type  2   force =     0.00000000    0.00019977   -0.29627215
     atom    5 type  1   force =    -0.00000009   -0.00002906    0.39608962
     atom    6 type  1   force =    -0.00000000    0.00002244    0.39609174
     atom    7 type  2   force =    -0.00000002   -0.00020086   -0.29627330
     atom    8 type  2   force =    -0.00000000    0.00019931   -0.29627411
     atom    9 type  1   force =    -0.00000009   -0.00002449    0.39608876
     atom   10 type  1   force =    -0.00000000    0.00002946    0.39609322
     atom   11 type  2   force =    -0.00000002   -0.00019869   -0.29627277
     atom   12 type  2   force =    -0.00000000    0.00019923   -0.29627355
     atom   13 type  1   force =    -0.00000009   -0.00002465    0.39608692
     atom   14 type  1   force =    -0.00000000    0.00003137    0.39609429
     atom   15 type  2   force =    -0.00000002   -0.00019904   -0.29627320
     atom   16 type  2   force =     0.00000000    0.00020034   -0.29627558
     The core correction contribution to forces
     atom    1 type  1   force =     0.00000002    0.00000539    0.00445225
     atom    2 type  1   force =     0.00000006   -0.00000510    0.00445228
     atom    3 type  2   force =     0.00000001   -0.00000230    0.00032498
     atom    4 type  2   force =     0.00000001    0.00000234    0.00032496
     atom    5 type  1   force =     0.00000002    0.00000538    0.00445226
     atom    6 type  1   force =     0.00000006   -0.00000508    0.00445230
     atom    7 type  2   force =     0.00000001   -0.00000231    0.00032499
     atom    8 type  2   force =     0.00000001    0.00000234    0.00032498
     atom    9 type  1   force =    -0.00000007    0.00000512    0.00445229
     atom   10 type  1   force =    -0.00000003   -0.00000540    0.00445225
     atom   11 type  2   force =    -0.00000001   -0.00000234    0.00032497
     atom   12 type  2   force =    -0.00000001    0.00000230    0.00032497
     atom   13 type  1   force =    -0.00000007    0.00000511    0.00445234
     atom   14 type  1   force =    -0.00000003   -0.00000539    0.00445225
     atom   15 type  2   force =    -0.00000001   -0.00000234    0.00032498
     atom   16 type  2   force =    -0.00000001    0.00000231    0.00032498
     The Hubbard contrib.    to forces
     atom    1 type  1   force =     0.00000000    0.00000000    0.00000000
     atom    2 type  1   force =     0.00000000    0.00000000    0.00000000
     atom    3 type  2   force =     0.00000000    0.00000000    0.00000000
     atom    4 type  2   force =     0.00000000    0.00000000    0.00000000
     atom    5 type  1   force =     0.00000000    0.00000000    0.00000000
     atom    6 type  1   force =     0.00000000    0.00000000    0.00000000
     atom    7 type  2   force =     0.00000000    0.00000000    0.00000000
     atom    8 type  2   force =     0.00000000    0.00000000    0.00000000
     atom    9 type  1   force =     0.00000000    0.00000000    0.00000000
     atom   10 type  1   force =     0.00000000    0.00000000    0.00000000
     atom   11 type  2   force =     0.00000000    0.00000000    0.00000000
     atom   12 type  2   force =     0.00000000    0.00000000    0.00000000
     atom   13 type  1   force =     0.00000000    0.00000000    0.00000000
     atom   14 type  1   force =     0.00000000    0.00000000    0.00000000
     atom   15 type  2   force =     0.00000000    0.00000000    0.00000000
     atom   16 type  2   force =     0.00000000    0.00000000    0.00000000
     The SCF correction term to forces
     atom    1 type  1   force =     0.00000000    0.00000071   -0.00000422
     atom    2 type  1   force =     0.00000000    0.00000381    0.00000291
     atom    3 type  2   force =    -0.00000000    0.00000093   -0.00000006
     atom    4 type  2   force =     0.00000000    0.00000035   -0.00000234
     atom    5 type  1   force =     0.00000000    0.00000139    0.00000166
     atom    6 type  1   force =     0.00000000    0.00000453   -0.00000055
     atom    7 type  2   force =    -0.00000000    0.00000139    0.00000043
     atom    8 type  2   force =     0.00000000    0.00000087    0.00000095
     atom    9 type  1   force =     0.00000000   -0.00000343    0.00000441
     atom   10 type  1   force =    -0.00000000   -0.00000189   -0.00000080
     atom   11 type  2   force =    -0.00000000   -0.00000188   -0.00000134
     atom   12 type  2   force =     0.00000000    0.00000046   -0.00000047
     atom   13 type  1   force =     0.00000000   -0.00000270    0.00000471
     atom   14 type  1   force =    -0.00000000   -0.00000378   -0.00000348
     atom   15 type  2   force =    -0.00000000   -0.00000150   -0.00000027
     atom   16 type  2   force =     0.00000000   -0.00000045    0.00000199

     Total force =     0.020558     Total SCF correction =     0.000013

     General routines

     Parallel routines

   This run was terminated on:   7: 9: 0  29Aug2025

   JOB DONE.
Note: The following floating-point exceptions are signalling: IEEE_UNDERFLOW_FLAG IEEE_DENORMAL
Note: The following floating-point exceptions are signalling: IEEE_UNDERFLOW_FLAG IEEE_DENORMAL
Note: The following floating-point exceptions are signalling: IEEE_UNDERFLOW_FLAG IEEE_DENORMAL
Note: The following floating-point exceptions are signalling: IEEE_UNDERFLOW_FLAG IEEE_DENORMAL
Note: The following floating-point exceptions are signalling: IEEE_UNDERFLOW_FLAG IEEE_DENORMAL
Note: The following floating-point exceptions are signalling: IEEE_UNDERFLOW_FLAG IEEE_DENORMAL
Note: The following floating-point exceptions are signalling: IEEE_UNDERFLOW_FLAG IEEE_DENORMAL
Note: The following floating-point exceptions are signalling: IEEE_UNDERFLOW_FLAG IEEE_DENORMAL
Note: The following floating-point exceptions are signalling: IEEE_UNDERFLOW_FLAG IEEE_DENORMAL
Note: The following floating-point exceptions are signalling: IEEE_UNDERFLOW_FLAG IEEE_DENORMAL
Note: The following floating-point exceptions are signalling: IEEE_UNDERFLOW_FLAG IEEE_DENORMAL
Note: The following floating-point exceptions are signalling: IEEE_UNDERFLOW_FLAG IEEE_DENORMAL
Note: The following floating-point exceptions are signalling: IEEE_UNDERFLOW_FLAG IEEE_DENORMAL
Note: The following floating-point exceptions are signalling: IEEE_UNDERFLOW_FLAG IEEE_DENORMAL
Note: The following floating-point exceptions are signalling: IEEE_UNDERFLOW_FLAG IEEE_DENORMAL
Note: The following floating-point exceptions are signalling: IEEE_UNDERFLOW_FLAG IEEE_DENORMAL
Note: The following floating-point exceptions are signalling: IEEE_UNDERFLOW_FLAG IEEE_DENORMAL
Note: The following floating-point exceptions are signalling: IEEE_UNDERFLOW_FLAG IEEE_DENORMAL
Note: The following floating-point exceptions are signalling: IEEE_UNDERFLOW_FLAG IEEE_DENORMAL
Note: The following floating-point exceptions are signalling: IEEE_UNDERFLOW_FLAG IEEE_DENORMAL
Note: The following floating-point exceptions are signalling: IEEE_UNDERFLOW_FLAG IEEE_DENORMAL
Note: The following floating-point exceptions are signalling: IEEE_UNDERFLOW_FLAG IEEE_DENORMAL
Note: The following floating-point exceptions are signalling: IEEE_UNDERFLOW_FLAG IEEE_DENORMAL
Note: The following floating-point exceptions are signalling: IEEE_UNDERFLOW_FLAG IEEE_DENORMAL
Note: The following floating-point exceptions are signalling: IEEE_UNDERFLOW_FLAG IEEE_DENORMAL
Note: The following floating-point exceptions are signalling: IEEE_UNDERFLOW_FLAG IEEE_DENORMAL
Note: The following floating-point exceptions are signalling: IEEE_UNDERFLOW_FLAG IEEE_DENORMAL
Note: The following floating-point exceptions are signalling: IEEE_UNDERFLOW_FLAG IEEE_DENORMAL
Note: The following floating-point exceptions are signalling: IEEE_UNDERFLOW_FLAG IEEE_DENORMAL
Note: The following floating-point exceptions are signalling: IEEE_UNDERFLOW_FLAG IEEE_DENORMAL
Note: The following floating-point exceptions are signalling: IEEE_UNDERFLOW_FLAG IEEE_DENORMAL
Note: The following floating-point exceptions are signalling: IEEE_UNDERFLOW_FLAG IEEE_DENORMAL