     Program PWSCF v.7.0 starts on 29Aug2025 at 19:11:38

     K-points division:     npool     =       8
     R & G space division:  proc/nbgrp/npool/nimage =       4

     Reading input from /home/jvc/QEspresso7.2/ZnO_database/scripts/cell122.in/ZnO-3.60-1.61-122.in
Warning: card &CELL ignored
Warning: card / ignored
Warning: card &FCP ignored
Warning: card / ignored
Warning: card &RISM ignored
Warning: card / ignored

     Current dimensions of program PWSCF are:
     Max number of different atomic species (ntypx) = 10
     Max number of k-points (npk) =  40000
     Max angular momentum in pseudopotentials (lmaxx) =  4
     file Zn.upf: wavefunction(s)  3D renormalized
     Found identity + (  0.0000  0.0000 -0.5000) symmetry
     This is a supercell, fractional translations are disabled
     Message from routine setup:
     using ibrav=0 with symmetry is DISCOURAGED, use correct ibrav instead

     Using Slab Decomposition

     bravais-lattice index     =            0
     lattice parameter (alat)  =       6.7967  a.u.
     unit-cell volume          =    1755.8702 (a.u.)^3
     number of atoms/cell      =           16
     number of atomic types    =            2
     number of electrons       =       144.00
     number of Kohn-Sham states=           72
     kinetic-energy cutoff     =      50.0000  Ry
     charge density cutoff     =     400.0000  Ry
     scf convergence threshold =      1.0E-08
     mixing beta               =       0.3000
     number of iterations used =            8  plain     mixing
     Exchange-correlation= PBE
                           (   1   4   3   4   0   0   0)

     celldm(1)=   6.796739  celldm(2)=   0.000000  celldm(3)=   0.000000
     celldm(4)=   0.000000  celldm(5)=   0.000000  celldm(6)=   0.000000

     crystal axes: (cart. coord. in units of alat)
               a(1) = (   1.000000   0.000000   0.000000 )
               a(2) = (  -1.000000   1.732051   0.000000 )
               a(3) = (   0.000000   0.000000   3.228717 )

     reciprocal axes: (cart. coord. in units 2 pi/alat)
               b(1) = (  1.000000  0.577350 -0.000000 )
               b(2) = (  0.000000  0.577350  0.000000 )
               b(3) = (  0.000000 -0.000000  0.309721 )

     PseudoPot. # 1 for Zn read from file:
     /home/jvc/QEspresso7.2/ZnO_database/pseudos/Zn.upf
     MD5 check sum: 7f56cabf9682ed8c977c2f7d0c5985c5
     Pseudo is Ultrasoft + core correction, Zval = 12.0
     Generated using &quot;atomic&quot; code by A. Dal Corso  v.6.2.2
     Using radial grid of 1201 points,  6 beta functions with:
                l(1) =   0
                l(2) =   0
                l(3) =   1
                l(4) =   1
                l(5) =   2
                l(6) =   2
     Q(r) pseudized with 0 coefficients

     PseudoPot. # 2 for O  read from file:
     /home/jvc/QEspresso7.2/ZnO_database/pseudos/O.upf
     MD5 check sum: 91400c9766925bcf19f520983a725ff0
     Pseudo is Ultrasoft + core correction, Zval =  6.0
     Generated using &quot;atomic&quot; code by A. Dal Corso  v.6.3MaX
     Using radial grid of 1095 points,  4 beta functions with:
                l(1) =   0
                l(2) =   0
                l(3) =   1
                l(4) =   1
     Q(r) pseudized with 0 coefficients

     atomic species   valence    mass     pseudopotential
        Zn            12.00    65.38000     Zn( 1.00)
        O              6.00    15.99900     O ( 1.00)

      2 Sym. Ops. (no inversion) found

                                    s                        frac. trans.

      isym =  1     identity

 cryst.   s( 1) = (     1          0          0      )
                  (     0          1          0      )
                  (     0          0          1      )

 cart.    s( 1) = (  1.0000000  0.0000000  0.0000000 )
                  (  0.0000000  1.0000000  0.0000000 )
                  (  0.0000000  0.0000000  1.0000000 )

      isym =  2     inv. 180 deg rotation - cart. axis [1,0,0]

 cryst.   s( 2) = (    -1          0          0      )
                  (     2          1          0      )
                  (     0          0          1      )

 cart.    s( 2) = ( -1.0000000  0.0000000  0.0000000 )
                  (  0.0000000  1.0000000  0.0000000 )
                  (  0.0000000  0.0000000  1.0000000 )

   Cartesian axes

     site n.     atom                  positions (alat units)
         1           Zn  tau(   1) = (   0.5000000   0.2886751   0.8082020  )
         2           Zn  tau(   2) = (   0.0000000   0.5773503   0.0010228  )
         3           O   tau(   3) = (   0.5000000   0.2886751   1.4201130  )
         4           O   tau(   4) = (   0.0000000   0.5773503   0.6129338  )
         5           Zn  tau(   5) = (   0.5000000   0.2886751   2.4225604  )
         6           Zn  tau(   6) = (   0.0000000   0.5773503   1.6153812  )
         7           O   tau(   7) = (   0.5000000   0.2886751   3.0344713  )
         8           O   tau(   8) = (   0.0000000   0.5773503   2.2272921  )
         9           Zn  tau(   9) = (   0.0000000   1.1547005   0.8082020  )
        10           Zn  tau(  10) = (  -0.5000000   1.4433757   0.0010228  )
        11           O   tau(  11) = (   0.0000000   1.1547005   1.4201130  )
        12           O   tau(  12) = (  -0.5000000   1.4433757   0.6129338  )
        13           Zn  tau(  13) = (   0.0000000   1.1547005   2.4225604  )
        14           Zn  tau(  14) = (  -0.5000000   1.4433757   1.6153812  )
        15           O   tau(  15) = (   0.0000000   1.1547005   3.0344713  )
        16           O   tau(  16) = (  -0.5000000   1.4433757   2.2272921  )

   Crystallographic axes

     site n.     atom                  positions (cryst. coord.)
         1           Zn  tau(   1) = (  0.6666667  0.1666667  0.2503168  )
         2           Zn  tau(   2) = (  0.3333333  0.3333333  0.0003168  )
         3           O   tau(   3) = (  0.6666667  0.1666667  0.4398382  )
         4           O   tau(   4) = (  0.3333333  0.3333333  0.1898382  )
         5           Zn  tau(   5) = (  0.6666667  0.1666667  0.7503168  )
         6           Zn  tau(   6) = (  0.3333333  0.3333333  0.5003168  )
         7           O   tau(   7) = (  0.6666667  0.1666667  0.9398382  )
         8           O   tau(   8) = (  0.3333333  0.3333333  0.6898382  )
         9           Zn  tau(   9) = (  0.6666667  0.6666667  0.2503168  )
        10           Zn  tau(  10) = (  0.3333333  0.8333333  0.0003168  )
        11           O   tau(  11) = (  0.6666667  0.6666667  0.4398382  )
        12           O   tau(  12) = (  0.3333333  0.8333333  0.1898382  )
        13           Zn  tau(  13) = (  0.6666667  0.6666667  0.7503168  )
        14           Zn  tau(  14) = (  0.3333333  0.8333333  0.5003168  )
        15           O   tau(  15) = (  0.6666667  0.6666667  0.9398382  )
        16           O   tau(  16) = (  0.3333333  0.8333333  0.6898382  )

     number of k points=    80
                       cart. coord. in units 2pi/alat
        k(    1) = (   0.0000000   0.0000000   0.0000000), wk =   0.0092593
        k(    2) = (   0.0000000   0.0000000   0.0516201), wk =   0.0185185
        k(    3) = (   0.0000000   0.0000000   0.1032402), wk =   0.0185185
        k(    4) = (   0.0000000   0.0000000  -0.1548603), wk =   0.0092593
        k(    5) = (   0.0000000   0.0962250   0.0000000), wk =   0.0185185
        k(    6) = (   0.0000000   0.0962250   0.0516201), wk =   0.0185185
        k(    7) = (   0.0000000   0.0962250   0.1032402), wk =   0.0185185
        k(    8) = (   0.0000000   0.0962250  -0.1548603), wk =   0.0185185
        k(    9) = (   0.0000000   0.1924501   0.0000000), wk =   0.0185185
        k(   10) = (   0.0000000   0.1924501   0.0516201), wk =   0.0185185
        k(   11) = (   0.0000000   0.1924501   0.1032402), wk =   0.0185185
        k(   12) = (   0.0000000   0.1924501  -0.1548603), wk =   0.0185185
        k(   13) = (   0.0000000  -0.2886751   0.0000000), wk =   0.0092593
        k(   14) = (   0.0000000  -0.2886751   0.0516201), wk =   0.0185185
        k(   15) = (   0.0000000  -0.2886751   0.1032402), wk =   0.0185185
        k(   16) = (   0.0000000  -0.2886751  -0.1548603), wk =   0.0092593
        k(   17) = (   0.1666667   0.0962250   0.0000000), wk =   0.0370370
        k(   18) = (   0.1666667   0.0962250   0.0516201), wk =   0.0370370
        k(   19) = (   0.1666667   0.0962250   0.1032402), wk =   0.0370370
        k(   20) = (   0.1666667   0.0962250  -0.1548603), wk =   0.0370370
        k(   21) = (   0.1666667   0.1924501   0.0000000), wk =   0.0370370
        k(   22) = (   0.1666667   0.1924501   0.0516201), wk =   0.0370370
        k(   23) = (   0.1666667   0.1924501   0.1032402), wk =   0.0370370
        k(   24) = (   0.1666667   0.1924501  -0.1548603), wk =   0.0370370
        k(   25) = (   0.1666667   0.2886751   0.0000000), wk =   0.0185185
        k(   26) = (   0.1666667   0.2886751   0.0516201), wk =   0.0370370
        k(   27) = (   0.1666667   0.2886751   0.1032402), wk =   0.0370370
        k(   28) = (   0.1666667   0.2886751  -0.1548603), wk =   0.0185185
        k(   29) = (   0.1666667   0.0000000   0.0000000), wk =   0.0185185
        k(   30) = (   0.1666667   0.0000000   0.0516201), wk =   0.0370370
        k(   31) = (   0.1666667   0.0000000   0.1032402), wk =   0.0370370
        k(   32) = (   0.1666667   0.0000000  -0.1548603), wk =   0.0185185
        k(   33) = (   0.3333333   0.1924501   0.0000000), wk =   0.0370370
        k(   34) = (   0.3333333   0.1924501   0.0516201), wk =   0.0370370
        k(   35) = (   0.3333333   0.1924501   0.1032402), wk =   0.0370370
        k(   36) = (   0.3333333   0.1924501  -0.1548603), wk =   0.0370370
        k(   37) = (   0.3333333   0.2886751   0.0000000), wk =   0.0185185
        k(   38) = (   0.3333333   0.2886751   0.0516201), wk =   0.0370370
        k(   39) = (   0.3333333   0.2886751   0.1032402), wk =   0.0370370
        k(   40) = (   0.3333333   0.2886751  -0.1548603), wk =   0.0185185
        k(   41) = (   0.3333333  -0.0962250   0.0000000), wk =   0.0370370
        k(   42) = (   0.3333333  -0.0962250   0.0516201), wk =   0.0370370
        k(   43) = (   0.3333333  -0.0962250   0.1032402), wk =   0.0370370
        k(   44) = (   0.3333333  -0.0962250  -0.1548603), wk =   0.0370370
        k(   45) = (   0.3333333  -0.0000000   0.0000000), wk =   0.0185185
        k(   46) = (   0.3333333  -0.0000000   0.0516201), wk =   0.0370370
        k(   47) = (   0.3333333  -0.0000000   0.1032402), wk =   0.0370370
        k(   48) = (   0.3333333  -0.0000000  -0.1548603), wk =   0.0185185
        k(   49) = (  -0.5000000  -0.2886751   0.0000000), wk =   0.0092593
        k(   50) = (  -0.5000000  -0.2886751   0.0516201), wk =   0.0185185
        k(   51) = (  -0.5000000  -0.2886751   0.1032402), wk =   0.0185185
        k(   52) = (  -0.5000000  -0.2886751  -0.1548603), wk =   0.0092593
        k(   53) = (  -0.5000000  -0.1924501   0.0000000), wk =   0.0185185
        k(   54) = (  -0.5000000  -0.1924501   0.0516201), wk =   0.0185185
        k(   55) = (  -0.5000000  -0.1924501   0.1032402), wk =   0.0185185
[...]

     starting charge     143.9702, renormalised to     144.0000
     Starting wfcs are  104 randomized atomic wfcs

     Self-consistent Calculation

     iteration #  1     ecut=    50.00 Ry     beta= 0.30
     Davidson diagonalization with overlap

     ethr =  1.00E-02,  avg # of iterations =  1.3

     total energy              =   -1445.36858414 Ry
     estimated scf accuracy    <       3.39542959 Ry

[...]

     c_bands:  1 eigenvalues not converged
     c_bands:  1 eigenvalues not converged
     c_bands:  1 eigenvalues not converged
     c_bands:  2 eigenvalues not converged
     c_bands:  1 eigenvalues not converged
     c_bands:  1 eigenvalues not converged
     c_bands:  2 eigenvalues not converged
     ethr =  4.61E-10,  avg # of iterations = 16.1

[...]

     c_bands:  1 eigenvalues not converged
     ethr =  4.61E-10,  avg # of iterations = 13.0

[...]

     total energy              =   -1446.19102165 Ry
     estimated scf accuracy    <       0.00000168 Ry

     iteration # 25     ecut=    50.00 Ry     beta= 0.30
     Davidson diagonalization with overlap

     ethr =  4.61E-10,  avg # of iterations =  6.3

     End of self-consistent calculation

          k = 0.0000 0.0000 0.0000 ( 10489 PWs)   bands (ev):

   -12.7779 -12.6065 -12.6065 -12.4462 -12.4307 -12.3898 -12.3898 -12.3387
    -1.4486  -1.4484  -1.4402  -1.4402  -1.4389  -1.4363  -1.4110  -1.4110
    -1.4108  -1.4108  -1.4032  -1.4032  -1.3497  -1.3496  -1.3229  -1.2071
    -1.2004  -1.2004  -1.1335  -1.0780  -1.0780  -1.0651  -1.0082  -0.9826
    -0.9826  -0.9239  -0.9239  -0.9239  -0.9239  -0.8995  -0.8894  -0.8894
    -0.8858  -0.8842  -0.8842  -0.8763  -0.8630  -0.8363  -0.8363  -0.8243
    -0.1117   0.2099   0.2742   0.2742   0.7211   1.3577   1.3577   1.4687
     2.0201   2.4525   2.4525   2.4974   2.4974   2.5505   2.8712   2.8802
     2.8808   3.1249   3.1249   3.1255   3.1255   3.3463   3.3639   3.3646

     occupation numbers
     1.0000   1.0000   1.0000   1.0000   1.0000   1.0000   1.0000   1.0000
     1.0000   1.0000   1.0000   1.0000   1.0000   1.0000   1.0000   1.0000
     1.0000   1.0000   1.0000   1.0000   1.0000   1.0000   1.0000   1.0000
     1.0000   1.0000   1.0000   1.0000   1.0000   1.0000   1.0000   1.0000
     1.0000   1.0000   1.0000   1.0000   1.0000   1.0000   1.0000   1.0000
     1.0000   1.0000   1.0000   1.0000   1.0000   1.0000   1.0000   1.0000
     1.0000   1.0000   1.0000   1.0000   1.0000   1.0000   1.0000   1.0000
     1.0000   1.0000   1.0000   1.0000   1.0000   1.0000   1.0000   1.0000
     1.0000   1.0000   1.0000   1.0000   1.0000   1.0000   1.0000   1.0000

[...]

          k =-0.5000-0.2887 0.0000 ( 10452 PWs)   bands (ev):

[...]

          k =-0.3333-0.0962-0.1032 ( 10476 PWs)   bands (ev):

[...]

          k = 0.5000-0.0962-0.1032 ( 10472 PWs)   bands (ev):

   -12.4407 -12.4407 -12.4190 -12.4190 -12.3631 -12.3631 -12.3439 -12.3439
    -1.4102  -1.4102  -1.4043  -1.4043  -1.3330  -1.3330  -1.3168  -1.3168
    -1.2655  -1.2655  -1.2167  -1.2167  -1.1505  -1.1505  -1.1295  -1.1295
    -1.1189  -1.1189  -1.1026  -1.1026  -1.0769  -1.0769  -1.0569  -1.0569
    -0.9630  -0.9630  -0.9336  -0.9336  -0.9193  -0.9193  -0.9083  -0.9083
    -0.8479  -0.8479  -0.8375  -0.8375  -0.7817  -0.7817  -0.7570  -0.7570
     0.3719   0.3719   0.3808   0.3808   0.5817   0.5817   0.7204   0.7204
     1.5751   1.5751   1.7931   1.7931   1.8768   1.8768   2.2219   2.2219
     2.3534   2.3534   2.5244   2.5244   2.6632   2.6632   2.7267   2.7267

     occupation numbers
     1.0000   1.0000   1.0000   1.0000   1.0000   1.0000   1.0000   1.0000
     1.0000   1.0000   1.0000   1.0000   1.0000   1.0000   1.0000   1.0000
     1.0000   1.0000   1.0000   1.0000   1.0000   1.0000   1.0000   1.0000
     1.0000   1.0000   1.0000   1.0000   1.0000   1.0000   1.0000   1.0000
     1.0000   1.0000   1.0000   1.0000   1.0000   1.0000   1.0000   1.0000
     1.0000   1.0000   1.0000   1.0000   1.0000   1.0000   1.0000   1.0000
     1.0000   1.0000   1.0000   1.0000   1.0000   1.0000   1.0000   1.0000
     1.0000   1.0000   1.0000   1.0000   1.0000   1.0000   1.0000   1.0000
     1.0000   1.0000   1.0000   1.0000   1.0000   1.0000   1.0000   1.0000

     highest occupied level (ev):     3.3646

!    total energy              =   -1446.19102196 Ry
     estimated scf accuracy    <          7.5E-10 Ry

     The total energy is the sum of the following terms:
     one-electron contribution =    -744.43896570 Ry
     hartree contribution      =     519.35377863 Ry
     xc contribution           =    -436.18361722 Ry
     ewald contribution        =    -784.92221767 Ry

     convergence has been achieved in  25 iterations

     Forces acting on atoms (cartesian axes, Ry/au):

     atom    1 type  1   force =     0.00000000    0.00001353   -0.00009460
     atom    2 type  1   force =     0.00000000   -0.00000429   -0.00008877
     atom    3 type  2   force =     0.00000000    0.00000725    0.00009137
     atom    4 type  2   force =     0.00000000   -0.00000688    0.00009123
     atom    5 type  1   force =     0.00000000    0.00001136   -0.00008973
     atom    6 type  1   force =     0.00000000   -0.00000515   -0.00009418
     atom    7 type  2   force =     0.00000000    0.00000743    0.00009186
     atom    8 type  2   force =     0.00000000   -0.00000731    0.00009212
     atom    9 type  1   force =     0.00000000    0.00000483   -0.00009412
     atom   10 type  1   force =     0.00000000   -0.00001350   -0.00009096
     atom   11 type  2   force =     0.00000000    0.00000790    0.00009175
     atom   12 type  2   force =     0.00000000   -0.00000707    0.00009166
     atom   13 type  1   force =     0.00000000    0.00000447   -0.00008839
     atom   14 type  1   force =     0.00000000   -0.00001268   -0.00009253
     atom   15 type  2   force =     0.00000000    0.00000777    0.00009159
     atom   16 type  2   force =     0.00000000   -0.00000765    0.00009168
     The non-local contrib.  to forces
     atom    1 type  1   force =     0.00000000   -0.00001507   -0.00458114
     atom    2 type  1   force =     0.00000000    0.00002082   -0.00457990
     atom    3 type  2   force =     0.00000000    0.00022637    0.00639817
     atom    4 type  2   force =     0.00000000   -0.00022708    0.00639746
     atom    5 type  1   force =     0.00000000   -0.00001559   -0.00458180
     atom    6 type  1   force =     0.00000000    0.00001964   -0.00457931
     atom    7 type  2   force =     0.00000000    0.00022574    0.00639981
     atom    8 type  2   force =     0.00000000   -0.00022791    0.00639915
     atom    9 type  1   force =     0.00000000   -0.00002168   -0.00458106
     atom   10 type  1   force =     0.00000000    0.00001681   -0.00457942
     atom   11 type  2   force =     0.00000000    0.00022864    0.00639856
     atom   12 type  2   force =     0.00000000   -0.00022635    0.00639774
     atom   13 type  1   force =     0.00000000   -0.00002059   -0.00458037
     atom   14 type  1   force =     0.00000000    0.00001738   -0.00458041
     atom   15 type  2   force =     0.00000000    0.00022818    0.00640010
     atom   16 type  2   force =     0.00000000   -0.00022778    0.00639753
     The ionic contribution  to forces
     atom    1 type  1   force =    -0.00000000    0.00000002    0.05183209
     atom    2 type  1   force =     0.00000000    0.00000001    0.05183208
     atom    3 type  2   force =    -0.00000000    0.00000001   -0.05183209
     atom    4 type  2   force =     0.00000000    0.00000001   -0.05183208
     atom    5 type  1   force =    -0.00000000    0.00000002    0.05183209
     atom    6 type  1   force =     0.00000000    0.00000001    0.05183208
     atom    7 type  2   force =    -0.00000000    0.00000001   -0.05183209
     atom    8 type  2   force =     0.00000000    0.00000001   -0.05183208
     atom    9 type  1   force =    -0.00000000   -0.00000001    0.05183208
     atom   10 type  1   force =     0.00000000   -0.00000002    0.05183209
     atom   11 type  2   force =    -0.00000000   -0.00000001   -0.05183208
     atom   12 type  2   force =     0.00000000   -0.00000001   -0.05183209
     atom   13 type  1   force =    -0.00000000   -0.00000001    0.05183208
     atom   14 type  1   force =     0.00000000   -0.00000002    0.05183209
     atom   15 type  2   force =    -0.00000000   -0.00000001   -0.05183208
     atom   16 type  2   force =     0.00000000   -0.00000001   -0.05183209
     The local contribution  to forces
     atom    1 type  1   force =    -0.00000010    0.00000940   -0.04758737
     atom    2 type  1   force =    -0.00000000   -0.00002415   -0.04759526
     atom    3 type  2   force =    -0.00000003   -0.00022189    0.04559632
     atom    4 type  2   force =     0.00000000    0.00021487    0.04559500
     atom    5 type  1   force =    -0.00000010    0.00001013   -0.04758661
     atom    6 type  1   force =     0.00000000   -0.00002231   -0.04759475
     atom    7 type  2   force =    -0.00000003   -0.00021971    0.04559102
     atom    8 type  2   force =     0.00000000    0.00021706    0.04558953
     atom    9 type  1   force =    -0.00000000    0.00002638   -0.04758832
     atom   10 type  1   force =     0.00000010   -0.00001228   -0.04759282
     atom   11 type  2   force =    -0.00000000   -0.00021654    0.04559631
     atom   12 type  2   force =     0.00000003    0.00022143    0.04559590
     atom   13 type  1   force =     0.00000000    0.00002596   -0.04759052
     atom   14 type  1   force =     0.00000010   -0.00001337   -0.04759101
     atom   15 type  2   force =    -0.00000000   -0.00021631    0.04559004
     atom   16 type  2   force =     0.00000003    0.00022111    0.04558974
     The core correction contribution to forces
     atom    1 type  1   force =    -0.00000001    0.00000685    0.00025106
     atom    2 type  1   force =     0.00000000   -0.00000672    0.00025138
     atom    3 type  2   force =     0.00000000   -0.00000256   -0.00007155
     atom    4 type  2   force =     0.00000000    0.00000256   -0.00007154
     atom    5 type  1   force =    -0.00000001    0.00000695    0.00025099
     atom    6 type  1   force =     0.00000000   -0.00000668    0.00025150
     atom    7 type  2   force =     0.00000000   -0.00000255   -0.00007158
     atom    8 type  2   force =     0.00000000    0.00000257   -0.00007158
     atom    9 type  1   force =    -0.00000000    0.00000666    0.00025116
     atom   10 type  1   force =     0.00000001   -0.00000679    0.00025121
     atom   11 type  2   force =    -0.00000000   -0.00000258   -0.00007155
     atom   12 type  2   force =    -0.00000000    0.00000256   -0.00007154
     atom   13 type  1   force =    -0.00000000    0.00000659    0.00025106
     atom   14 type  1   force =     0.00000001   -0.00000684    0.00025126
     atom   15 type  2   force =    -0.00000000   -0.00000257   -0.00007158
     atom   16 type  2   force =    -0.00000000    0.00000258   -0.00007156
     The Hubbard contrib.    to forces
     atom    1 type  1   force =     0.00000000    0.00000000    0.00000000
     atom    2 type  1   force =     0.00000000    0.00000000    0.00000000
     atom    3 type  2   force =     0.00000000    0.00000000    0.00000000
     atom    4 type  2   force =     0.00000000    0.00000000    0.00000000
     atom    5 type  1   force =     0.00000000    0.00000000    0.00000000
     atom    6 type  1   force =     0.00000000    0.00000000    0.00000000
     atom    7 type  2   force =     0.00000000    0.00000000    0.00000000
     atom    8 type  2   force =     0.00000000    0.00000000    0.00000000
     atom    9 type  1   force =     0.00000000    0.00000000    0.00000000
     atom   10 type  1   force =     0.00000000    0.00000000    0.00000000
     atom   11 type  2   force =     0.00000000    0.00000000    0.00000000
     atom   12 type  2   force =     0.00000000    0.00000000    0.00000000
     atom   13 type  1   force =     0.00000000    0.00000000    0.00000000
     atom   14 type  1   force =     0.00000000    0.00000000    0.00000000
     atom   15 type  2   force =     0.00000000    0.00000000    0.00000000
     atom   16 type  2   force =     0.00000000    0.00000000    0.00000000
     The SCF correction term to forces
     atom    1 type  1   force =     0.00000000    0.00001208   -0.00001276
     atom    2 type  1   force =    -0.00000000    0.00000551   -0.00000060
     atom    3 type  2   force =     0.00000000    0.00000508   -0.00000302
     atom    4 type  2   force =    -0.00000000    0.00000252   -0.00000113
     atom    5 type  1   force =     0.00000000    0.00000961   -0.00000793
     atom    6 type  1   force =    -0.00000000    0.00000395   -0.00000722
     atom    7 type  2   force =     0.00000000    0.00000369    0.00000117
     atom    8 type  2   force =    -0.00000000    0.00000071    0.00000358
     atom    9 type  1   force =     0.00000000   -0.00000675   -0.00001150
     atom   10 type  1   force =    -0.00000000   -0.00001147   -0.00000554
     atom   11 type  2   force =     0.00000000   -0.00000186   -0.00000301
     atom   12 type  2   force =    -0.00000000   -0.00000494   -0.00000189
     atom   13 type  1   force =     0.00000000   -0.00000772   -0.00000417
     atom   14 type  1   force =    -0.00000000   -0.00001008   -0.00000798
     atom   15 type  2   force =     0.00000000   -0.00000176    0.00000159
     atom   16 type  2   force =    -0.00000000   -0.00000379    0.00000452

     Total force =     0.000368     Total SCF correction =     0.000036

     General routines

     Parallel routines

   This run was terminated on:  19:25:38  29Aug2025

   JOB DONE.
Note: The following floating-point exceptions are signalling: IEEE_UNDERFLOW_FLAG IEEE_DENORMAL
Note: The following floating-point exceptions are signalling: IEEE_UNDERFLOW_FLAG IEEE_DENORMAL
Note: The following floating-point exceptions are signalling: IEEE_UNDERFLOW_FLAG IEEE_DENORMAL
Note: The following floating-point exceptions are signalling: IEEE_UNDERFLOW_FLAG IEEE_DENORMAL
Note: The following floating-point exceptions are signalling: IEEE_UNDERFLOW_FLAG IEEE_DENORMAL
Note: The following floating-point exceptions are signalling: IEEE_UNDERFLOW_FLAG IEEE_DENORMAL
Note: The following floating-point exceptions are signalling: IEEE_UNDERFLOW_FLAG IEEE_DENORMAL
Note: The following floating-point exceptions are signalling: IEEE_UNDERFLOW_FLAG IEEE_DENORMAL
Note: The following floating-point exceptions are signalling: IEEE_UNDERFLOW_FLAG IEEE_DENORMAL
Note: The following floating-point exceptions are signalling: IEEE_UNDERFLOW_FLAG IEEE_DENORMAL
Note: The following floating-point exceptions are signalling: IEEE_UNDERFLOW_FLAG IEEE_DENORMAL
Note: The following floating-point exceptions are signalling: IEEE_UNDERFLOW_FLAG IEEE_DENORMAL
Note: The following floating-point exceptions are signalling: IEEE_UNDERFLOW_FLAG IEEE_DENORMAL
Note: The following floating-point exceptions are signalling: IEEE_UNDERFLOW_FLAG IEEE_DENORMAL
Note: The following floating-point exceptions are signalling: IEEE_UNDERFLOW_FLAG IEEE_DENORMAL
Note: The following floating-point exceptions are signalling: IEEE_UNDERFLOW_FLAG IEEE_DENORMAL
Note: The following floating-point exceptions are signalling: IEEE_UNDERFLOW_FLAG IEEE_DENORMAL
Note: The following floating-point exceptions are signalling: IEEE_UNDERFLOW_FLAG IEEE_DENORMAL
Note: The following floating-point exceptions are signalling: IEEE_UNDERFLOW_FLAG IEEE_DENORMAL
Note: The following floating-point exceptions are signalling: IEEE_UNDERFLOW_FLAG IEEE_DENORMAL
Note: The following floating-point exceptions are signalling: IEEE_UNDERFLOW_FLAG IEEE_DENORMAL
Note: The following floating-point exceptions are signalling: IEEE_UNDERFLOW_FLAG IEEE_DENORMAL
Note: The following floating-point exceptions are signalling: IEEE_UNDERFLOW_FLAG IEEE_DENORMAL
Note: The following floating-point exceptions are signalling: IEEE_UNDERFLOW_FLAG IEEE_DENORMAL
Note: The following floating-point exceptions are signalling: IEEE_UNDERFLOW_FLAG IEEE_DENORMAL
Note: The following floating-point exceptions are signalling: IEEE_UNDERFLOW_FLAG IEEE_DENORMAL
Note: The following floating-point exceptions are signalling: IEEE_UNDERFLOW_FLAG IEEE_DENORMAL
Note: The following floating-point exceptions are signalling: IEEE_UNDERFLOW_FLAG IEEE_DENORMAL
Note: The following floating-point exceptions are signalling: IEEE_UNDERFLOW_FLAG IEEE_DENORMAL
Note: The following floating-point exceptions are signalling: IEEE_UNDERFLOW_FLAG IEEE_DENORMAL
Note: The following floating-point exceptions are signalling: IEEE_UNDERFLOW_FLAG IEEE_DENORMAL
Note: The following floating-point exceptions are signalling: IEEE_UNDERFLOW_FLAG IEEE_DENORMAL