     Program PWSCF v.7.0 starts on 28Aug2025 at 20:53:48

     K-points division:     npool     =       8
     R & G space division:  proc/nbgrp/npool/nimage =       4

     Reading input from /home/jvc/QEspresso7.2/ZnO_database/scripts/cell122.in/ZnO-3.01-1.68-122.in
Warning: card &CELL ignored
Warning: card / ignored
Warning: card &FCP ignored
Warning: card / ignored
Warning: card &RISM ignored
Warning: card / ignored

     Current dimensions of program PWSCF are:
     Max number of different atomic species (ntypx) = 10
     Max number of k-points (npk) =  40000
     Max angular momentum in pseudopotentials (lmaxx) =  4
     file Zn.upf: wavefunction(s)  3D renormalized
     Found identity + (  0.0000  0.0000  0.5000) symmetry
     This is a supercell, fractional translations are disabled
     Message from routine setup:
     using ibrav=0 with symmetry is DISCOURAGED, use correct ibrav instead

     Using Slab Decomposition

     bravais-lattice index     =            0
     lattice parameter (alat)  =       5.6845  a.u.
     unit-cell volume          =    1068.3442 (a.u.)^3
     number of atoms/cell      =           16
     number of atomic types    =            2
     number of electrons       =       144.00
     number of Kohn-Sham states=           72
     kinetic-energy cutoff     =      50.0000  Ry
     charge density cutoff     =     400.0000  Ry
     scf convergence threshold =      1.0E-08
     mixing beta               =       0.3000
     number of iterations used =            8  plain     mixing
     Exchange-correlation= PBE
                           (   1   4   3   4   0   0   0)

     celldm(1)=   5.684546  celldm(2)=   0.000000  celldm(3)=   0.000000
     celldm(4)=   0.000000  celldm(5)=   0.000000  celldm(6)=   0.000000

     crystal axes: (cart. coord. in units of alat)
               a(1) = (   1.000000   0.000000   0.000000 )
               a(2) = (  -1.000000   1.732051   0.000000 )
               a(3) = (   0.000000   0.000000   3.357865 )

     reciprocal axes: (cart. coord. in units 2 pi/alat)
               b(1) = (  1.000000  0.577350 -0.000000 )
               b(2) = (  0.000000  0.577350  0.000000 )
               b(3) = (  0.000000 -0.000000  0.297808 )

     PseudoPot. # 1 for Zn read from file:
     /home/jvc/QEspresso7.2/ZnO_database/pseudos/Zn.upf
     MD5 check sum: 7f56cabf9682ed8c977c2f7d0c5985c5
     Pseudo is Ultrasoft + core correction, Zval = 12.0
     Generated using &quot;atomic&quot; code by A. Dal Corso  v.6.2.2
     Using radial grid of 1201 points,  6 beta functions with:
                l(1) =   0
                l(2) =   0
                l(3) =   1
                l(4) =   1
                l(5) =   2
                l(6) =   2
     Q(r) pseudized with 0 coefficients

     PseudoPot. # 2 for O  read from file:
     /home/jvc/QEspresso7.2/ZnO_database/pseudos/O.upf
     MD5 check sum: 91400c9766925bcf19f520983a725ff0
     Pseudo is Ultrasoft + core correction, Zval =  6.0
     Generated using &quot;atomic&quot; code by A. Dal Corso  v.6.3MaX
     Using radial grid of 1095 points,  4 beta functions with:
                l(1) =   0
                l(2) =   0
                l(3) =   1
                l(4) =   1
     Q(r) pseudized with 0 coefficients

     atomic species   valence    mass     pseudopotential
        Zn            12.00    65.38000     Zn( 1.00)
        O              6.00    15.99900     O ( 1.00)

      2 Sym. Ops. (no inversion) found

                                    s                        frac. trans.

      isym =  1     identity

 cryst.   s( 1) = (     1          0          0      )
                  (     0          1          0      )
                  (     0          0          1      )

 cart.    s( 1) = (  1.0000000  0.0000000  0.0000000 )
                  (  0.0000000  1.0000000  0.0000000 )
                  (  0.0000000  0.0000000  1.0000000 )

      isym =  2     inv. 180 deg rotation - cart. axis [1,0,0]

 cryst.   s( 2) = (    -1          0          0      )
                  (     2          1          0      )
                  (     0          0          1      )

 cart.    s( 2) = ( -1.0000000  0.0000000  0.0000000 )
                  (  0.0000000  1.0000000  0.0000000 )
                  (  0.0000000  0.0000000  1.0000000 )

   Cartesian axes

     site n.     atom                  positions (alat units)
         1           Zn  tau(   1) = (   0.5000000   0.2886751   0.8405301  )
         2           Zn  tau(   2) = (   0.0000000   0.5773503   0.0010637  )
         3           O   tau(   3) = (   0.5000000   0.2886751   1.4769175  )
         4           O   tau(   4) = (   0.0000000   0.5773503   0.6374511  )
         5           Zn  tau(   5) = (   0.5000000   0.2886751   2.5194628  )
         6           Zn  tau(   6) = (   0.0000000   0.5773503   1.6799964  )
         7           O   tau(   7) = (   0.5000000   0.2886751   3.1558502  )
         8           O   tau(   8) = (   0.0000000   0.5773503   2.3163838  )
         9           Zn  tau(   9) = (   0.0000000   1.1547005   0.8405301  )
        10           Zn  tau(  10) = (  -0.5000000   1.4433757   0.0010637  )
        11           O   tau(  11) = (   0.0000000   1.1547005   1.4769175  )
        12           O   tau(  12) = (  -0.5000000   1.4433757   0.6374511  )
        13           Zn  tau(  13) = (   0.0000000   1.1547005   2.5194628  )
        14           Zn  tau(  14) = (  -0.5000000   1.4433757   1.6799964  )
        15           O   tau(  15) = (   0.0000000   1.1547005   3.1558502  )
        16           O   tau(  16) = (  -0.5000000   1.4433757   2.3163838  )

   Crystallographic axes

     site n.     atom                  positions (cryst. coord.)
         1           Zn  tau(   1) = (  0.6666667  0.1666667  0.2503168  )
         2           Zn  tau(   2) = (  0.3333333  0.3333333  0.0003168  )
         3           O   tau(   3) = (  0.6666667  0.1666667  0.4398382  )
         4           O   tau(   4) = (  0.3333333  0.3333333  0.1898382  )
         5           Zn  tau(   5) = (  0.6666667  0.1666667  0.7503168  )
         6           Zn  tau(   6) = (  0.3333333  0.3333333  0.5003168  )
         7           O   tau(   7) = (  0.6666667  0.1666667  0.9398382  )
         8           O   tau(   8) = (  0.3333333  0.3333333  0.6898382  )
         9           Zn  tau(   9) = (  0.6666667  0.6666667  0.2503168  )
        10           Zn  tau(  10) = (  0.3333333  0.8333333  0.0003168  )
        11           O   tau(  11) = (  0.6666667  0.6666667  0.4398382  )
        12           O   tau(  12) = (  0.3333333  0.8333333  0.1898382  )
        13           Zn  tau(  13) = (  0.6666667  0.6666667  0.7503168  )
        14           Zn  tau(  14) = (  0.3333333  0.8333333  0.5003168  )
        15           O   tau(  15) = (  0.6666667  0.6666667  0.9398382  )
        16           O   tau(  16) = (  0.3333333  0.8333333  0.6898382  )

     number of k points=    80
                       cart. coord. in units 2pi/alat
        k(    1) = (   0.0000000   0.0000000   0.0000000), wk =   0.0092593
        k(    2) = (   0.0000000   0.0000000   0.0496347), wk =   0.0185185
        k(    3) = (   0.0000000   0.0000000   0.0992694), wk =   0.0185185
        k(    4) = (   0.0000000   0.0000000  -0.1489041), wk =   0.0092593
        k(    5) = (   0.0000000   0.0962250   0.0000000), wk =   0.0185185
        k(    6) = (   0.0000000   0.0962250   0.0496347), wk =   0.0185185
        k(    7) = (   0.0000000   0.0962250   0.0992694), wk =   0.0185185
        k(    8) = (   0.0000000   0.0962250  -0.1489041), wk =   0.0185185
        k(    9) = (   0.0000000   0.1924501   0.0000000), wk =   0.0185185
        k(   10) = (   0.0000000   0.1924501   0.0496347), wk =   0.0185185
        k(   11) = (   0.0000000   0.1924501   0.0992694), wk =   0.0185185
        k(   12) = (   0.0000000   0.1924501  -0.1489041), wk =   0.0185185
        k(   13) = (   0.0000000  -0.2886751   0.0000000), wk =   0.0092593
        k(   14) = (   0.0000000  -0.2886751   0.0496347), wk =   0.0185185
        k(   15) = (   0.0000000  -0.2886751   0.0992694), wk =   0.0185185
        k(   16) = (   0.0000000  -0.2886751  -0.1489041), wk =   0.0092593
        k(   17) = (   0.1666667   0.0962250   0.0000000), wk =   0.0370370
        k(   18) = (   0.1666667   0.0962250   0.0496347), wk =   0.0370370
        k(   19) = (   0.1666667   0.0962250   0.0992694), wk =   0.0370370
        k(   20) = (   0.1666667   0.0962250  -0.1489041), wk =   0.0370370
        k(   21) = (   0.1666667   0.1924501   0.0000000), wk =   0.0370370
        k(   22) = (   0.1666667   0.1924501   0.0496347), wk =   0.0370370
        k(   23) = (   0.1666667   0.1924501   0.0992694), wk =   0.0370370
        k(   24) = (   0.1666667   0.1924501  -0.1489041), wk =   0.0370370
        k(   25) = (   0.1666667   0.2886751   0.0000000), wk =   0.0185185
        k(   26) = (   0.1666667   0.2886751   0.0496347), wk =   0.0370370
        k(   27) = (   0.1666667   0.2886751   0.0992694), wk =   0.0370370
        k(   28) = (   0.1666667   0.2886751  -0.1489041), wk =   0.0185185
        k(   29) = (   0.1666667   0.0000000   0.0000000), wk =   0.0185185
        k(   30) = (   0.1666667   0.0000000   0.0496347), wk =   0.0370370
        k(   31) = (   0.1666667   0.0000000   0.0992694), wk =   0.0370370
        k(   32) = (   0.1666667   0.0000000  -0.1489041), wk =   0.0185185
        k(   33) = (   0.3333333   0.1924501   0.0000000), wk =   0.0370370
        k(   34) = (   0.3333333   0.1924501   0.0496347), wk =   0.0370370
        k(   35) = (   0.3333333   0.1924501   0.0992694), wk =   0.0370370
        k(   36) = (   0.3333333   0.1924501  -0.1489041), wk =   0.0370370
        k(   37) = (   0.3333333   0.2886751   0.0000000), wk =   0.0185185
        k(   38) = (   0.3333333   0.2886751   0.0496347), wk =   0.0370370
        k(   39) = (   0.3333333   0.2886751   0.0992694), wk =   0.0370370
        k(   40) = (   0.3333333   0.2886751  -0.1489041), wk =   0.0185185
        k(   41) = (   0.3333333  -0.0962250   0.0000000), wk =   0.0370370
        k(   42) = (   0.3333333  -0.0962250   0.0496347), wk =   0.0370370
        k(   43) = (   0.3333333  -0.0962250   0.0992694), wk =   0.0370370
        k(   44) = (   0.3333333  -0.0962250  -0.1489041), wk =   0.0370370
        k(   45) = (   0.3333333  -0.0000000   0.0000000), wk =   0.0185185
        k(   46) = (   0.3333333  -0.0000000   0.0496347), wk =   0.0370370
        k(   47) = (   0.3333333  -0.0000000   0.0992694), wk =   0.0370370
        k(   48) = (   0.3333333  -0.0000000  -0.1489041), wk =   0.0185185
        k(   49) = (  -0.5000000  -0.2886751   0.0000000), wk =   0.0092593
        k(   50) = (  -0.5000000  -0.2886751   0.0496347), wk =   0.0185185
        k(   51) = (  -0.5000000  -0.2886751   0.0992694), wk =   0.0185185
        k(   52) = (  -0.5000000  -0.2886751  -0.1489041), wk =   0.0092593
        k(   53) = (  -0.5000000  -0.1924501   0.0000000), wk =   0.0185185
        k(   54) = (  -0.5000000  -0.1924501   0.0496347), wk =   0.0185185
        k(   55) = (  -0.5000000  -0.1924501   0.0992694), wk =   0.0185185
[...]

     starting charge     143.9702, renormalised to     144.0000
     Starting wfcs are  104 randomized atomic wfcs

     Self-consistent Calculation

     iteration #  1     ecut=    50.00 Ry     beta= 0.30
     Davidson diagonalization with overlap

     ethr =  1.00E-02,  avg # of iterations =  2.0

     total energy              =   -1445.64666747 Ry
     estimated scf accuracy    <       2.69368447 Ry

[...]

     c_bands:  1 eigenvalues not converged
     c_bands:  1 eigenvalues not converged
     c_bands:  1 eigenvalues not converged
     c_bands:  1 eigenvalues not converged
     c_bands:  1 eigenvalues not converged
     c_bands:  1 eigenvalues not converged
     c_bands:  1 eigenvalues not converged
     ethr =  6.57E-10,  avg # of iterations = 15.7

[...]

     c_bands:  1 eigenvalues not converged
     c_bands:  1 eigenvalues not converged
     ethr =  2.05E-10,  avg # of iterations = 13.1

[...]

     total energy              =   -1446.18929833 Ry
     estimated scf accuracy    <       0.00000002 Ry

     iteration # 35     ecut=    50.00 Ry     beta= 0.30
     Davidson diagonalization with overlap

     ethr =  1.16E-11,  avg # of iterations =  2.4

     End of self-consistent calculation

          k = 0.0000 0.0000 0.0000 (  6369 PWs)   bands (ev):

    -9.4299  -8.9712  -8.9712  -8.4722  -8.4077  -8.2515  -8.2515  -8.1185
     2.7620   2.7620   3.0050   3.0411   3.0721   3.1279   3.1279   3.5173
     3.5175   3.5945   3.6086   3.6086   3.6088   3.6088   3.7476   3.7478
     3.8911   4.1716   4.1716   4.2276   4.2296   4.2296   4.4201   4.5465
     5.3852   5.3853   5.3908   5.5498   5.5498   5.5498   5.5498   5.6410
     5.6663   5.6663   5.6736   5.6736   5.7478   5.7500   5.7500   5.8551
     6.0710   6.0769   6.1527   6.1527   6.3253   7.0198   7.6555   7.8624
     7.8624   8.5030   8.5030   8.5203   8.5203   8.7326   9.2801   9.5272
     9.5275   9.9849   9.9849   9.9852   9.9852  10.1511  10.4422  10.4425

     occupation numbers
     1.0000   1.0000   1.0000   1.0000   1.0000   1.0000   1.0000   1.0000
     1.0000   1.0000   1.0000   1.0000   1.0000   1.0000   1.0000   1.0000
     1.0000   1.0000   1.0000   1.0000   1.0000   1.0000   1.0000   1.0000
     1.0000   1.0000   1.0000   1.0000   1.0000   1.0000   1.0000   1.0000
     1.0000   1.0000   1.0000   1.0000   1.0000   1.0000   1.0000   1.0000
     1.0000   1.0000   1.0000   1.0000   1.0000   1.0000   1.0000   1.0000
     1.0000   1.0000   1.0000   1.0000   1.0000   1.0000   1.0000   1.0000
     1.0000   1.0000   1.0000   1.0000   1.0000   1.0000   1.0000   1.0000
     1.0000   1.0000   1.0000   1.0000   1.0000   1.0000   1.0000   1.0000

[...]

          k =-0.5000-0.2887 0.0000 (  6316 PWs)   bands (ev):

[...]

          k =-0.3333-0.0962-0.0993 (  6366 PWs)   bands (ev):

[...]

          k = 0.5000-0.0962-0.0993 (  6358 PWs)   bands (ev):

    -8.3988  -8.3988  -8.3367  -8.3367  -8.1814  -8.1814  -8.1304  -8.1304
     3.0031   3.0031   3.0897   3.0897   3.1073   3.1073   3.2931   3.2931
     3.8252   3.8252   3.8426   3.8426   3.9878   3.9878   4.0601   4.0601
     4.3320   4.3320   4.3710   4.3710   4.4002   4.4002   4.4703   4.4703
     5.3010   5.3010   5.4336   5.4336   5.5286   5.5286   5.5881   5.5881
     5.7594   5.7594   5.7650   5.7650   5.9343   5.9343   5.9700   5.9700
     6.0701   6.0701   6.2252   6.2252   6.6566   6.6566   6.7440   6.7440
     7.0202   7.0202   7.4338   7.4338   7.5263   7.5263   7.9143   7.9143
     8.4512   8.4512   8.6438   8.6438   8.8804   8.8804   8.9350   8.9350

     occupation numbers
     1.0000   1.0000   1.0000   1.0000   1.0000   1.0000   1.0000   1.0000
     1.0000   1.0000   1.0000   1.0000   1.0000   1.0000   1.0000   1.0000
     1.0000   1.0000   1.0000   1.0000   1.0000   1.0000   1.0000   1.0000
     1.0000   1.0000   1.0000   1.0000   1.0000   1.0000   1.0000   1.0000
     1.0000   1.0000   1.0000   1.0000   1.0000   1.0000   1.0000   1.0000
     1.0000   1.0000   1.0000   1.0000   1.0000   1.0000   1.0000   1.0000
     1.0000   1.0000   1.0000   1.0000   1.0000   1.0000   1.0000   1.0000
     1.0000   1.0000   1.0000   1.0000   1.0000   1.0000   1.0000   1.0000
     1.0000   1.0000   1.0000   1.0000   1.0000   1.0000   1.0000   1.0000

     highest occupied level (ev):    10.4425

!    total energy              =   -1446.18929833 Ry
     estimated scf accuracy    <          3.2E-09 Ry

     The total energy is the sum of the following terms:
     one-electron contribution =    -518.54622997 Ry
     hartree contribution      =     438.67607793 Ry
     xc contribution           =    -440.13986367 Ry
     ewald contribution        =    -926.17928262 Ry

     convergence has been achieved in  35 iterations

     Forces acting on atoms (cartesian axes, Ry/au):

     atom    1 type  1   force =     0.00000000   -0.00001415    0.03168604
     atom    2 type  1   force =     0.00000000    0.00001399    0.03168452
     atom    3 type  2   force =     0.00000000    0.00000157   -0.03169362
     atom    4 type  2   force =     0.00000000   -0.00000156   -0.03169024
     atom    5 type  1   force =     0.00000000   -0.00001228    0.03170010
     atom    6 type  1   force =     0.00000000    0.00001368    0.03169807
     atom    7 type  2   force =     0.00000000    0.00000144   -0.03168980
     atom    8 type  2   force =     0.00000000   -0.00000195   -0.03169473
     atom    9 type  1   force =     0.00000000   -0.00001306    0.03168558
     atom   10 type  1   force =     0.00000000    0.00001324    0.03168591
     atom   11 type  2   force =     0.00000000    0.00000167   -0.03169380
     atom   12 type  2   force =     0.00000000   -0.00000179   -0.03169013
     atom   13 type  1   force =     0.00000000   -0.00001501    0.03169998
     atom   14 type  1   force =     0.00000000    0.00001347    0.03169702
     atom   15 type  2   force =     0.00000000    0.00000199   -0.03168998
     atom   16 type  2   force =     0.00000000   -0.00000126   -0.03169493
     The non-local contrib.  to forces
     atom    1 type  1   force =     0.00000000    0.00003360    0.11660213
     atom    2 type  1   force =     0.00000000   -0.00003373    0.11660043
     atom    3 type  2   force =     0.00000000    0.00018615    0.08986780
     atom    4 type  2   force =     0.00000000   -0.00018622    0.08987211
     atom    5 type  1   force =     0.00000000    0.00003551    0.11662115
     atom    6 type  1   force =     0.00000000   -0.00003411    0.11661968
     atom    7 type  2   force =     0.00000000    0.00018628    0.08987482
     atom    8 type  2   force =     0.00000000   -0.00018663    0.08986984
     atom    9 type  1   force =     0.00000000    0.00003474    0.11660172
     atom   10 type  1   force =     0.00000000   -0.00003453    0.11660158
     atom   11 type  2   force =     0.00000000    0.00018633    0.08986764
     atom   12 type  2   force =     0.00000000   -0.00018669    0.08987180
     atom   13 type  1   force =     0.00000000    0.00003288    0.11662100
     atom   14 type  1   force =     0.00000000   -0.00003412    0.11661885
     atom   15 type  2   force =     0.00000000    0.00018656    0.08987494
     atom   16 type  2   force =     0.00000000   -0.00018614    0.08986992
     The ionic contribution  to forces
     atom    1 type  1   force =    -0.00000000    0.00000001    1.00434955
     atom    2 type  1   force =     0.00000000    0.00000001    1.00434955
     atom    3 type  2   force =    -0.00000000    0.00000001   -1.00434955
     atom    4 type  2   force =     0.00000000    0.00000000   -1.00434955
     atom    5 type  1   force =    -0.00000000    0.00000001    1.00434955
     atom    6 type  1   force =     0.00000000    0.00000001    1.00434955
     atom    7 type  2   force =    -0.00000000    0.00000001   -1.00434955
     atom    8 type  2   force =     0.00000000    0.00000000   -1.00434955
     atom    9 type  1   force =    -0.00000001   -0.00000000    1.00434955
     atom   10 type  1   force =     0.00000001   -0.00000002    1.00434955
     atom   11 type  2   force =    -0.00000001    0.00000000   -1.00434955
     atom   12 type  2   force =     0.00000001   -0.00000001   -1.00434955
     atom   13 type  1   force =    -0.00000001   -0.00000000    1.00434955
     atom   14 type  1   force =     0.00000001   -0.00000002    1.00434955
     atom   15 type  2   force =    -0.00000001    0.00000000   -1.00434955
     atom   16 type  2   force =     0.00000001   -0.00000001   -1.00434955
     The local contribution  to forces
     atom    1 type  1   force =    -0.00000008   -0.00005251   -1.07934190
     atom    2 type  1   force =     0.00000000    0.00005318   -1.07934796
     atom    3 type  2   force =    -0.00000002   -0.00018220    0.88338272
     atom    4 type  2   force =     0.00000000    0.00018270    0.88339527
     atom    5 type  1   force =    -0.00000008   -0.00005781   -1.07938215
     atom    6 type  1   force =    -0.00000000    0.00005424   -1.07936670
     atom    7 type  2   force =    -0.00000002   -0.00018306    0.88338802
     atom    8 type  2   force =     0.00000000    0.00018177    0.88337236
     atom    9 type  1   force =    -0.00000008   -0.00005591   -1.07934076
     atom   10 type  1   force =     0.00000008    0.00005513   -1.07935064
     atom   11 type  2   force =    -0.00000002   -0.00018268    0.88338252
     atom   12 type  2   force =     0.00000002    0.00018249    0.88339609
     atom   13 type  1   force =    -0.00000008   -0.00005065   -1.07938259
     atom   14 type  1   force =     0.00000008    0.00005410   -1.07936417
     atom   15 type  2   force =    -0.00000002   -0.00018176    0.88338729
     atom   16 type  2   force =     0.00000002    0.00018328    0.88337225
     The core correction contribution to forces
     atom    1 type  1   force =    -0.00000001    0.00000602   -0.00990420
     atom    2 type  1   force =     0.00000002   -0.00000600   -0.00990131
     atom    3 type  2   force =     0.00000000   -0.00000211   -0.00059546
     atom    4 type  2   force =     0.00000000    0.00000212   -0.00059609
     atom    5 type  1   force =    -0.00000001    0.00000614   -0.00990351
     atom    6 type  1   force =     0.00000001   -0.00000602   -0.00990649
     atom    7 type  2   force =     0.00000000   -0.00000211   -0.00059802
     atom    8 type  2   force =     0.00000000    0.00000212   -0.00059739
     atom    9 type  1   force =    -0.00000003    0.00000606   -0.00990418
     atom   10 type  1   force =     0.00000001   -0.00000608   -0.00990132
     atom   11 type  2   force =    -0.00000000   -0.00000212   -0.00059547
     atom   12 type  2   force =    -0.00000000    0.00000212   -0.00059608
     atom   13 type  1   force =    -0.00000002    0.00000594   -0.00990340
     atom   14 type  1   force =     0.00000001   -0.00000605   -0.00990660
     atom   15 type  2   force =    -0.00000000   -0.00000212   -0.00059803
     atom   16 type  2   force =    -0.00000000    0.00000211   -0.00059739
     The Hubbard contrib.    to forces
     atom    1 type  1   force =     0.00000000    0.00000000    0.00000000
     atom    2 type  1   force =     0.00000000    0.00000000    0.00000000
     atom    3 type  2   force =     0.00000000    0.00000000    0.00000000
     atom    4 type  2   force =     0.00000000    0.00000000    0.00000000
     atom    5 type  1   force =     0.00000000    0.00000000    0.00000000
     atom    6 type  1   force =     0.00000000    0.00000000    0.00000000
     atom    7 type  2   force =     0.00000000    0.00000000    0.00000000
     atom    8 type  2   force =     0.00000000    0.00000000    0.00000000
     atom    9 type  1   force =     0.00000000    0.00000000    0.00000000
     atom   10 type  1   force =     0.00000000    0.00000000    0.00000000
     atom   11 type  2   force =     0.00000000    0.00000000    0.00000000
     atom   12 type  2   force =     0.00000000    0.00000000    0.00000000
     atom   13 type  1   force =     0.00000000    0.00000000    0.00000000
     atom   14 type  1   force =     0.00000000    0.00000000    0.00000000
     atom   15 type  2   force =     0.00000000    0.00000000    0.00000000
     atom   16 type  2   force =     0.00000000    0.00000000    0.00000000
     The SCF correction term to forces
     atom    1 type  1   force =     0.00000000   -0.00000128   -0.00002006
     atom    2 type  1   force =     0.00000000    0.00000050   -0.00001670
     atom    3 type  2   force =    -0.00000000   -0.00000030    0.00000037
     atom    4 type  2   force =    -0.00000000   -0.00000017   -0.00001248
     atom    5 type  1   force =     0.00000000    0.00000385    0.00001454
     atom    6 type  1   force =     0.00000000   -0.00000045    0.00000152
     atom    7 type  2   force =    -0.00000000    0.00000031   -0.00000558
     atom    8 type  2   force =    -0.00000000    0.00000076    0.00000950
     atom    9 type  1   force =    -0.00000000    0.00000204   -0.00002125
     atom   10 type  1   force =    -0.00000000   -0.00000127   -0.00001378
     atom   11 type  2   force =     0.00000000    0.00000012    0.00000055
     atom   12 type  2   force =     0.00000000    0.00000030   -0.00001290
     atom   13 type  1   force =    -0.00000000   -0.00000319    0.00001491
     atom   14 type  1   force =    -0.00000000   -0.00000045   -0.00000113
     atom   15 type  2   force =     0.00000000   -0.00000071   -0.00000515
     atom   16 type  2   force =     0.00000000   -0.00000052    0.00000933

     Total force =     0.126769     Total SCF correction =     0.000049

     General routines

     Parallel routines

   This run was terminated on:  21: 7:11  28Aug2025

   JOB DONE.
Note: The following floating-point exceptions are signalling: IEEE_UNDERFLOW_FLAG IEEE_DENORMAL
Note: The following floating-point exceptions are signalling: IEEE_UNDERFLOW_FLAG IEEE_DENORMAL
Note: The following floating-point exceptions are signalling: IEEE_UNDERFLOW_FLAG IEEE_DENORMAL
Note: The following floating-point exceptions are signalling: IEEE_UNDERFLOW_FLAG IEEE_DENORMAL
Note: The following floating-point exceptions are signalling: IEEE_UNDERFLOW_FLAG IEEE_DENORMAL
Note: The following floating-point exceptions are signalling: IEEE_UNDERFLOW_FLAG IEEE_DENORMAL
Note: The following floating-point exceptions are signalling: IEEE_UNDERFLOW_FLAG IEEE_DENORMAL
Note: The following floating-point exceptions are signalling: IEEE_UNDERFLOW_FLAG IEEE_DENORMAL
Note: The following floating-point exceptions are signalling: IEEE_UNDERFLOW_FLAG IEEE_DENORMAL
Note: The following floating-point exceptions are signalling: IEEE_UNDERFLOW_FLAG IEEE_DENORMAL
Note: The following floating-point exceptions are signalling: IEEE_UNDERFLOW_FLAG IEEE_DENORMAL
Note: The following floating-point exceptions are signalling: IEEE_UNDERFLOW_FLAG IEEE_DENORMAL
Note: The following floating-point exceptions are signalling: IEEE_UNDERFLOW_FLAG IEEE_DENORMAL
Note: The following floating-point exceptions are signalling: IEEE_UNDERFLOW_FLAG IEEE_DENORMAL
Note: The following floating-point exceptions are signalling: IEEE_UNDERFLOW_FLAG IEEE_DENORMAL
Note: The following floating-point exceptions are signalling: IEEE_UNDERFLOW_FLAG IEEE_DENORMAL
Note: The following floating-point exceptions are signalling: IEEE_UNDERFLOW_FLAG IEEE_DENORMAL
Note: The following floating-point exceptions are signalling: IEEE_UNDERFLOW_FLAG IEEE_DENORMAL
Note: The following floating-point exceptions are signalling: IEEE_UNDERFLOW_FLAG IEEE_DENORMAL
Note: The following floating-point exceptions are signalling: IEEE_UNDERFLOW_FLAG IEEE_DENORMAL
Note: The following floating-point exceptions are signalling: IEEE_UNDERFLOW_FLAG IEEE_DENORMAL
Note: The following floating-point exceptions are signalling: IEEE_UNDERFLOW_FLAG IEEE_DENORMAL
Note: The following floating-point exceptions are signalling: IEEE_UNDERFLOW_FLAG IEEE_DENORMAL
Note: The following floating-point exceptions are signalling: IEEE_UNDERFLOW_FLAG IEEE_DENORMAL
Note: The following floating-point exceptions are signalling: IEEE_UNDERFLOW_FLAG IEEE_DENORMAL
Note: The following floating-point exceptions are signalling: IEEE_UNDERFLOW_FLAG IEEE_DENORMAL
Note: The following floating-point exceptions are signalling: IEEE_UNDERFLOW_FLAG IEEE_DENORMAL
Note: The following floating-point exceptions are signalling: IEEE_UNDERFLOW_FLAG IEEE_DENORMAL
Note: The following floating-point exceptions are signalling: IEEE_UNDERFLOW_FLAG IEEE_DENORMAL
Note: The following floating-point exceptions are signalling: IEEE_UNDERFLOW_FLAG IEEE_DENORMAL
Note: The following floating-point exceptions are signalling: IEEE_UNDERFLOW_FLAG IEEE_DENORMAL
Note: The following floating-point exceptions are signalling: IEEE_UNDERFLOW_FLAG IEEE_DENORMAL