     Program PWSCF v.7.0 starts on 28Aug2025 at 22:55:26

     K-points division:     npool     =       8
     R & G space division:  proc/nbgrp/npool/nimage =       4

     Reading input from /home/jvc/QEspresso7.2/ZnO_database/scripts/cell122.in/ZnO-3.07-1.71-122.in
Warning: card &CELL ignored
Warning: card / ignored
Warning: card &FCP ignored
Warning: card / ignored
Warning: card &RISM ignored
Warning: card / ignored

     Current dimensions of program PWSCF are:
     Max number of different atomic species (ntypx) = 10
     Max number of k-points (npk) =  40000
     Max angular momentum in pseudopotentials (lmaxx) =  4
     file Zn.upf: wavefunction(s)  3D renormalized
     Found identity + (  0.0000  0.0000 -0.5000) symmetry
     This is a supercell, fractional translations are disabled
     Message from routine setup:
     using ibrav=0 with symmetry is DISCOURAGED, use correct ibrav instead

     Using Slab Decomposition

     bravais-lattice index     =            0
     lattice parameter (alat)  =       5.8081  a.u.
     unit-cell volume          =    1161.4587 (a.u.)^3
     number of atoms/cell      =           16
     number of atomic types    =            2
     number of electrons       =       144.00
     number of Kohn-Sham states=           72
     kinetic-energy cutoff     =      50.0000  Ry
     charge density cutoff     =     400.0000  Ry
     scf convergence threshold =      1.0E-08
     mixing beta               =       0.3000
     number of iterations used =            8  plain     mixing
     Exchange-correlation= PBE
                           (   1   4   3   4   0   0   0)

     celldm(1)=   5.808123  celldm(2)=   0.000000  celldm(3)=   0.000000
     celldm(4)=   0.000000  celldm(5)=   0.000000  celldm(6)=   0.000000

     crystal axes: (cart. coord. in units of alat)
               a(1) = (   1.000000   0.000000   0.000000 )
               a(2) = (  -1.000000   1.732051   0.000000 )
               a(3) = (   0.000000   0.000000   3.422440 )

     reciprocal axes: (cart. coord. in units 2 pi/alat)
               b(1) = (  1.000000  0.577350 -0.000000 )
               b(2) = (  0.000000  0.577350  0.000000 )
               b(3) = (  0.000000 -0.000000  0.292189 )

     PseudoPot. # 1 for Zn read from file:
     /home/jvc/QEspresso7.2/ZnO_database/pseudos/Zn.upf
     MD5 check sum: 7f56cabf9682ed8c977c2f7d0c5985c5
     Pseudo is Ultrasoft + core correction, Zval = 12.0
     Generated using &quot;atomic&quot; code by A. Dal Corso  v.6.2.2
     Using radial grid of 1201 points,  6 beta functions with:
                l(1) =   0
                l(2) =   0
                l(3) =   1
                l(4) =   1
                l(5) =   2
                l(6) =   2
     Q(r) pseudized with 0 coefficients

     PseudoPot. # 2 for O  read from file:
     /home/jvc/QEspresso7.2/ZnO_database/pseudos/O.upf
     MD5 check sum: 91400c9766925bcf19f520983a725ff0
     Pseudo is Ultrasoft + core correction, Zval =  6.0
     Generated using &quot;atomic&quot; code by A. Dal Corso  v.6.3MaX
     Using radial grid of 1095 points,  4 beta functions with:
                l(1) =   0
                l(2) =   0
                l(3) =   1
                l(4) =   1
     Q(r) pseudized with 0 coefficients

     atomic species   valence    mass     pseudopotential
        Zn            12.00    65.38000     Zn( 1.00)
        O              6.00    15.99900     O ( 1.00)

      2 Sym. Ops. (no inversion) found

                                    s                        frac. trans.

      isym =  1     identity

 cryst.   s( 1) = (     1          0          0      )
                  (     0          1          0      )
                  (     0          0          1      )

 cart.    s( 1) = (  1.0000000  0.0000000  0.0000000 )
                  (  0.0000000  1.0000000  0.0000000 )
                  (  0.0000000  0.0000000  1.0000000 )

      isym =  2     inv. 180 deg rotation - cart. axis [1,0,0]

 cryst.   s( 2) = (    -1          0          0      )
                  (     2          1          0      )
                  (     0          0          1      )

 cart.    s( 2) = ( -1.0000000  0.0000000  0.0000000 )
                  (  0.0000000  1.0000000  0.0000000 )
                  (  0.0000000  0.0000000  1.0000000 )

   Cartesian axes

     site n.     atom                  positions (alat units)
         1           Zn  tau(   1) = (   0.5000000   0.2886751   0.8566941  )
         2           Zn  tau(   2) = (   0.0000000   0.5773503   0.0010842  )
         3           O   tau(   3) = (   0.5000000   0.2886751   1.5053197  )
         4           O   tau(   4) = (   0.0000000   0.5773503   0.6497098  )
         5           Zn  tau(   5) = (   0.5000000   0.2886751   2.5679140  )
         6           Zn  tau(   6) = (   0.0000000   0.5773503   1.7123041  )
         7           O   tau(   7) = (   0.5000000   0.2886751   3.2165396  )
         8           O   tau(   8) = (   0.0000000   0.5773503   2.3609297  )
         9           Zn  tau(   9) = (   0.0000000   1.1547005   0.8566941  )
        10           Zn  tau(  10) = (  -0.5000000   1.4433757   0.0010842  )
        11           O   tau(  11) = (   0.0000000   1.1547005   1.5053197  )
        12           O   tau(  12) = (  -0.5000000   1.4433757   0.6497098  )
        13           Zn  tau(  13) = (   0.0000000   1.1547005   2.5679140  )
        14           Zn  tau(  14) = (  -0.5000000   1.4433757   1.7123041  )
        15           O   tau(  15) = (   0.0000000   1.1547005   3.2165396  )
        16           O   tau(  16) = (  -0.5000000   1.4433757   2.3609297  )

   Crystallographic axes

     site n.     atom                  positions (cryst. coord.)
         1           Zn  tau(   1) = (  0.6666667  0.1666667  0.2503168  )
         2           Zn  tau(   2) = (  0.3333333  0.3333333  0.0003168  )
         3           O   tau(   3) = (  0.6666667  0.1666667  0.4398382  )
         4           O   tau(   4) = (  0.3333333  0.3333333  0.1898382  )
         5           Zn  tau(   5) = (  0.6666667  0.1666667  0.7503168  )
         6           Zn  tau(   6) = (  0.3333333  0.3333333  0.5003168  )
         7           O   tau(   7) = (  0.6666667  0.1666667  0.9398382  )
         8           O   tau(   8) = (  0.3333333  0.3333333  0.6898382  )
         9           Zn  tau(   9) = (  0.6666667  0.6666667  0.2503168  )
        10           Zn  tau(  10) = (  0.3333333  0.8333333  0.0003168  )
        11           O   tau(  11) = (  0.6666667  0.6666667  0.4398382  )
        12           O   tau(  12) = (  0.3333333  0.8333333  0.1898382  )
        13           Zn  tau(  13) = (  0.6666667  0.6666667  0.7503168  )
        14           Zn  tau(  14) = (  0.3333333  0.8333333  0.5003168  )
        15           O   tau(  15) = (  0.6666667  0.6666667  0.9398382  )
        16           O   tau(  16) = (  0.3333333  0.8333333  0.6898382  )

     number of k points=    80
                       cart. coord. in units 2pi/alat
        k(    1) = (   0.0000000   0.0000000   0.0000000), wk =   0.0092593
        k(    2) = (   0.0000000   0.0000000   0.0486982), wk =   0.0185185
        k(    3) = (   0.0000000   0.0000000   0.0973964), wk =   0.0185185
        k(    4) = (   0.0000000   0.0000000  -0.1460946), wk =   0.0092593
        k(    5) = (   0.0000000   0.0962250   0.0000000), wk =   0.0185185
        k(    6) = (   0.0000000   0.0962250   0.0486982), wk =   0.0185185
        k(    7) = (   0.0000000   0.0962250   0.0973964), wk =   0.0185185
        k(    8) = (   0.0000000   0.0962250  -0.1460946), wk =   0.0185185
        k(    9) = (   0.0000000   0.1924501   0.0000000), wk =   0.0185185
        k(   10) = (   0.0000000   0.1924501   0.0486982), wk =   0.0185185
        k(   11) = (   0.0000000   0.1924501   0.0973964), wk =   0.0185185
        k(   12) = (   0.0000000   0.1924501  -0.1460946), wk =   0.0185185
        k(   13) = (   0.0000000  -0.2886751   0.0000000), wk =   0.0092593
        k(   14) = (   0.0000000  -0.2886751   0.0486982), wk =   0.0185185
        k(   15) = (   0.0000000  -0.2886751   0.0973964), wk =   0.0185185
        k(   16) = (   0.0000000  -0.2886751  -0.1460946), wk =   0.0092593
        k(   17) = (   0.1666667   0.0962250   0.0000000), wk =   0.0370370
        k(   18) = (   0.1666667   0.0962250   0.0486982), wk =   0.0370370
        k(   19) = (   0.1666667   0.0962250   0.0973964), wk =   0.0370370
        k(   20) = (   0.1666667   0.0962250  -0.1460946), wk =   0.0370370
        k(   21) = (   0.1666667   0.1924501   0.0000000), wk =   0.0370370
        k(   22) = (   0.1666667   0.1924501   0.0486982), wk =   0.0370370
        k(   23) = (   0.1666667   0.1924501   0.0973964), wk =   0.0370370
        k(   24) = (   0.1666667   0.1924501  -0.1460946), wk =   0.0370370
        k(   25) = (   0.1666667   0.2886751   0.0000000), wk =   0.0185185
        k(   26) = (   0.1666667   0.2886751   0.0486982), wk =   0.0370370
        k(   27) = (   0.1666667   0.2886751   0.0973964), wk =   0.0370370
        k(   28) = (   0.1666667   0.2886751  -0.1460946), wk =   0.0185185
        k(   29) = (   0.1666667   0.0000000   0.0000000), wk =   0.0185185
        k(   30) = (   0.1666667   0.0000000   0.0486982), wk =   0.0370370
        k(   31) = (   0.1666667   0.0000000   0.0973964), wk =   0.0370370
        k(   32) = (   0.1666667   0.0000000  -0.1460946), wk =   0.0185185
        k(   33) = (   0.3333333   0.1924501   0.0000000), wk =   0.0370370
        k(   34) = (   0.3333333   0.1924501   0.0486982), wk =   0.0370370
        k(   35) = (   0.3333333   0.1924501   0.0973964), wk =   0.0370370
        k(   36) = (   0.3333333   0.1924501  -0.1460946), wk =   0.0370370
        k(   37) = (   0.3333333   0.2886751   0.0000000), wk =   0.0185185
        k(   38) = (   0.3333333   0.2886751   0.0486982), wk =   0.0370370
        k(   39) = (   0.3333333   0.2886751   0.0973964), wk =   0.0370370
        k(   40) = (   0.3333333   0.2886751  -0.1460946), wk =   0.0185185
        k(   41) = (   0.3333333  -0.0962250   0.0000000), wk =   0.0370370
        k(   42) = (   0.3333333  -0.0962250   0.0486982), wk =   0.0370370
        k(   43) = (   0.3333333  -0.0962250   0.0973964), wk =   0.0370370
        k(   44) = (   0.3333333  -0.0962250  -0.1460946), wk =   0.0370370
        k(   45) = (   0.3333333  -0.0000000   0.0000000), wk =   0.0185185
        k(   46) = (   0.3333333  -0.0000000   0.0486982), wk =   0.0370370
        k(   47) = (   0.3333333  -0.0000000   0.0973964), wk =   0.0370370
        k(   48) = (   0.3333333  -0.0000000  -0.1460946), wk =   0.0185185
        k(   49) = (  -0.5000000  -0.2886751   0.0000000), wk =   0.0092593
        k(   50) = (  -0.5000000  -0.2886751   0.0486982), wk =   0.0185185
        k(   51) = (  -0.5000000  -0.2886751   0.0973964), wk =   0.0185185
        k(   52) = (  -0.5000000  -0.2886751  -0.1460946), wk =   0.0092593
        k(   53) = (  -0.5000000  -0.1924501   0.0000000), wk =   0.0185185
        k(   54) = (  -0.5000000  -0.1924501   0.0486982), wk =   0.0185185
        k(   55) = (  -0.5000000  -0.1924501   0.0973964), wk =   0.0185185
[...]
        k(   76) = (  -0.3333333   0.1666667  -0.3333333), wk =   0.0370370
        k(   77) = (   0.5000000  -0.8333333  -0.1666667), wk =   0.0185185
        k(   78) = (   0.5000000  -0.8333333  -0.3333333), wk =   0.0185185
        k(   79) = (   0.5000000  -0.6666667  -0.1666667), wk =   0.0185185
        k(   80) = (   0.5000000  -0.6666667  -0.3333333), wk =   0.0185185

     Check: negative core charge=   -0.000002

     Initial potential from superposition of free atoms

     starting charge     143.9702, renormalised to     144.0000
     Starting wfcs are  104 randomized atomic wfcs

     Self-consistent Calculation

     iteration #  1     ecut=    50.00 Ry     beta= 0.30
     Davidson diagonalization with overlap

     ethr =  1.00E-02,  avg # of iterations =  2.0

     total energy              =   -1445.82096858 Ry
     estimated scf accuracy    <       2.69539259 Ry

[...]

     total energy              =   -1446.39612780 Ry
     estimated scf accuracy    <       0.00000005 Ry

     iteration # 24     ecut=    50.00 Ry     beta= 0.30
     Davidson diagonalization with overlap

     ethr =  3.42E-11,  avg # of iterations =  5.4

     End of self-consistent calculation

          k = 0.0000 0.0000 0.0000 (  6959 PWs)   bands (ev):

   -10.0952  -9.7216  -9.7215  -9.3189  -9.2131  -9.0892  -9.0891  -8.9796
     2.0222   2.0222   2.2249   2.2678   2.2903   2.3152   2.3152   2.5883
     2.5885   2.6631   2.6667   2.6667   2.6669   2.6669   2.7796   2.7797
     2.9312   3.1729   3.1729   3.3003   3.3003   3.3638   3.4112   3.4843
     4.1718   4.1718   4.1802   4.2960   4.2960   4.2960   4.2960   4.3840
     4.3904   4.3904   4.4090   4.4090   4.4621   4.4778   4.4778   4.5632
     4.7647   4.8599   4.8599   4.9011   4.9533   5.8116   6.4115   6.4115
     6.5346   7.1502   7.1502   7.2596   7.2596   7.3798   7.9126   8.2089
     8.2092   8.5919   8.5920   8.5923   8.5923   8.6640   8.9736   8.9740

     occupation numbers
     1.0000   1.0000   1.0000   1.0000   1.0000   1.0000   1.0000   1.0000
     1.0000   1.0000   1.0000   1.0000   1.0000   1.0000   1.0000   1.0000
     1.0000   1.0000   1.0000   1.0000   1.0000   1.0000   1.0000   1.0000
     1.0000   1.0000   1.0000   1.0000   1.0000   1.0000   1.0000   1.0000
     1.0000   1.0000   1.0000   1.0000   1.0000   1.0000   1.0000   1.0000
     1.0000   1.0000   1.0000   1.0000   1.0000   1.0000   1.0000   1.0000
     1.0000   1.0000   1.0000   1.0000   1.0000   1.0000   1.0000   1.0000
     1.0000   1.0000   1.0000   1.0000   1.0000   1.0000   1.0000   1.0000
     1.0000   1.0000   1.0000   1.0000   1.0000   1.0000   1.0000   1.0000

[...]

          k =-0.5000-0.2887 0.0000 (  6892 PWs)   bands (ev):

[...]

          k =-0.3333-0.0962-0.0974 (  6937 PWs)   bands (ev):

[...]

          k = 0.5000-0.0962-0.0974 (  6918 PWs)   bands (ev):

    -9.2062  -9.2061  -9.1572  -9.1572  -9.0323  -9.0322  -8.9901  -8.9901
     2.2290   2.2290   2.3025   2.3025   2.3168   2.3168   2.4828   2.4829
     2.8989   2.8989   2.9197   2.9197   3.0790   3.0790   3.1558   3.1558
     3.3354   3.3354   3.3555   3.3555   3.4088   3.4088   3.4321   3.4321
     4.1014   4.1014   4.2107   4.2107   4.2909   4.2909   4.3374   4.3374
     4.4801   4.4801   4.4866   4.4866   4.6314   4.6314   4.7294   4.7294
     4.7719   4.7719   4.9620   4.9620   5.3437   5.3437   5.4281   5.4281
     5.8639   5.8640   6.2289   6.2289   6.2764   6.2764   6.6388   6.6388
     7.1386   7.1386   7.3127   7.3127   7.5178   7.5178   7.5772   7.5772

     occupation numbers
     1.0000   1.0000   1.0000   1.0000   1.0000   1.0000   1.0000   1.0000
     1.0000   1.0000   1.0000   1.0000   1.0000   1.0000   1.0000   1.0000
     1.0000   1.0000   1.0000   1.0000   1.0000   1.0000   1.0000   1.0000
     1.0000   1.0000   1.0000   1.0000   1.0000   1.0000   1.0000   1.0000
     1.0000   1.0000   1.0000   1.0000   1.0000   1.0000   1.0000   1.0000
     1.0000   1.0000   1.0000   1.0000   1.0000   1.0000   1.0000   1.0000
     1.0000   1.0000   1.0000   1.0000   1.0000   1.0000   1.0000   1.0000
     1.0000   1.0000   1.0000   1.0000   1.0000   1.0000   1.0000   1.0000
     1.0000   1.0000   1.0000   1.0000   1.0000   1.0000   1.0000   1.0000

     highest occupied level (ev):     8.9740

!    total energy              =   -1446.39612782 Ry
     estimated scf accuracy    <          2.1E-09 Ry

     The total energy is the sum of the following terms:
     one-electron contribution =    -559.29445571 Ry
     hartree contribution      =     452.62428731 Ry
     xc contribution           =    -439.31370511 Ry
     ewald contribution        =    -900.41225431 Ry

     convergence has been achieved in  24 iterations

     Forces acting on atoms (cartesian axes, Ry/au):

     atom    1 type  1   force =     0.00000000   -0.00000258    0.03071948
     atom    2 type  1   force =     0.00000000    0.00001773    0.03072745
     atom    3 type  2   force =     0.00000000    0.00000335   -0.03073092
     atom    4 type  2   force =     0.00000000   -0.00000298   -0.03072960
     atom    5 type  1   force =     0.00000000   -0.00000961    0.03075372
     atom    6 type  1   force =     0.00000000    0.00001457    0.03071808
     atom    7 type  2   force =     0.00000000    0.00000339   -0.03073142
     atom    8 type  2   force =     0.00000000   -0.00000319   -0.03072936
     atom    9 type  1   force =     0.00000000   -0.00001583    0.03072333
     atom   10 type  1   force =     0.00000000    0.00000167    0.03071892
     atom   11 type  2   force =     0.00000000    0.00000308   -0.03073036
     atom   12 type  2   force =     0.00000000   -0.00000380   -0.03073031
     atom   13 type  1   force =     0.00000000   -0.00000961    0.03076146
     atom   14 type  1   force =     0.00000000    0.00000439    0.03071916
     atom   15 type  2   force =     0.00000000    0.00000290   -0.03073020
     atom   16 type  2   force =     0.00000000   -0.00000347   -0.03072944
     The non-local contrib.  to forces
     atom    1 type  1   force =     0.00000000    0.00003558    0.16812057
     atom    2 type  1   force =     0.00000000   -0.00002908    0.16812596
     atom    3 type  2   force =     0.00000000    0.00019722    0.14089873
     atom    4 type  2   force =     0.00000000   -0.00019959    0.14090204
     atom    5 type  1   force =     0.00000000    0.00003280    0.16814001
     atom    6 type  1   force =     0.00000000   -0.00003013    0.16811929
     atom    7 type  2   force =     0.00000000    0.00019835    0.14089302
     atom    8 type  2   force =     0.00000000   -0.00019961    0.14089272
     atom    9 type  1   force =     0.00000000    0.00002910    0.16812136
     atom   10 type  1   force =     0.00000000   -0.00003603    0.16812253
     atom   11 type  2   force =     0.00000000    0.00019977    0.14089938
     atom   12 type  2   force =     0.00000000   -0.00019771    0.14090077
     atom   13 type  1   force =     0.00000000    0.00003207    0.16814298
     atom   14 type  1   force =     0.00000000   -0.00003474    0.16811960
     atom   15 type  2   force =     0.00000000    0.00019840    0.14089654
     atom   16 type  2   force =     0.00000000   -0.00019778    0.14089114
     The ionic contribution  to forces
     atom    1 type  1   force =    -0.00000000    0.00000001    1.37965181
     atom    2 type  1   force =     0.00000000    0.00000001    1.37965180
     atom    3 type  2   force =    -0.00000000    0.00000001   -1.37965181
     atom    4 type  2   force =     0.00000000    0.00000001   -1.37965180
     atom    5 type  1   force =    -0.00000000    0.00000001    1.37965181
     atom    6 type  1   force =     0.00000000    0.00000001    1.37965180
     atom    7 type  2   force =    -0.00000000    0.00000001   -1.37965181
     atom    8 type  2   force =     0.00000000    0.00000001   -1.37965180
     atom    9 type  1   force =     0.00000000   -0.00000001    1.37965181
     atom   10 type  1   force =    -0.00000000   -0.00000000    1.37965181
     atom   11 type  2   force =     0.00000000   -0.00000001   -1.37965181
     atom   12 type  2   force =    -0.00000000   -0.00000000   -1.37965181
     atom   13 type  1   force =     0.00000000   -0.00000001    1.37965181
     atom   14 type  1   force =    -0.00000000   -0.00000000    1.37965181
     atom   15 type  2   force =     0.00000000   -0.00000001   -1.37965181
     atom   16 type  2   force =    -0.00000000   -0.00000000   -1.37965181
     The local contribution  to forces
     atom    1 type  1   force =    -0.00000008   -0.00006110   -1.50366982
     atom    2 type  1   force =     0.00000000    0.00003491   -1.50367807
     atom    3 type  2   force =    -0.00000002   -0.00019372    1.20906690
     atom    4 type  2   force =     0.00000000    0.00019165    1.20906967
     atom    5 type  1   force =    -0.00000008   -0.00005041   -1.50371984
     atom    6 type  1   force =     0.00000000    0.00004146   -1.50366490
     atom    7 type  2   force =    -0.00000002   -0.00019278    1.20906248
     atom    8 type  2   force =     0.00000000    0.00019198    1.20904723
     atom    9 type  1   force =    -0.00000000   -0.00003762   -1.50367574
     atom   10 type  1   force =    -0.00000000    0.00006378   -1.50366412
     atom   11 type  2   force =    -0.00000000   -0.00019096    1.20906611
     atom   12 type  2   force =     0.00000000    0.00019269    1.20906993
     atom   13 type  1   force =     0.00000000   -0.00004813   -1.50373199
     atom   14 type  1   force =    -0.00000000    0.00005697   -1.50366467
     atom   15 type  2   force =    -0.00000000   -0.00019111    1.20906190
     atom   16 type  2   force =     0.00000000    0.00019282    1.20904576
     The core correction contribution to forces
     atom    1 type  1   force =    -0.00000006    0.00000745   -0.01336896
     atom    2 type  1   force =    -0.00000000   -0.00000668   -0.01336920
     atom    3 type  2   force =     0.00000000   -0.00000220   -0.00103105
     atom    4 type  2   force =    -0.00000000    0.00000228   -0.00103107
     atom    5 type  1   force =    -0.00000006    0.00000726   -0.01336871
     atom    6 type  1   force =    -0.00000000   -0.00000691   -0.01336908
     atom    7 type  2   force =     0.00000000   -0.00000222   -0.00103098
     atom    8 type  2   force =    -0.00000000    0.00000227   -0.00103099
     atom    9 type  1   force =     0.00000000    0.00000678   -0.01336876
     atom   10 type  1   force =     0.00000005   -0.00000756   -0.01336954
     atom   11 type  2   force =     0.00000000   -0.00000228   -0.00103106
     atom   12 type  2   force =    -0.00000000    0.00000221   -0.00103107
     atom   13 type  1   force =     0.00000000    0.00000698   -0.01336843
     atom   14 type  1   force =     0.00000005   -0.00000732   -0.01336920
     atom   15 type  2   force =     0.00000000   -0.00000226   -0.00103102
     atom   16 type  2   force =    -0.00000000    0.00000221   -0.00103097
     The Hubbard contrib.    to forces
     atom    1 type  1   force =     0.00000000    0.00000000    0.00000000
     atom    2 type  1   force =     0.00000000    0.00000000    0.00000000
     atom    3 type  2   force =     0.00000000    0.00000000    0.00000000
     atom    4 type  2   force =     0.00000000    0.00000000    0.00000000
     atom    5 type  1   force =     0.00000000    0.00000000    0.00000000
     atom    6 type  1   force =     0.00000000    0.00000000    0.00000000
     atom    7 type  2   force =     0.00000000    0.00000000    0.00000000
     atom    8 type  2   force =     0.00000000    0.00000000    0.00000000
     atom    9 type  1   force =     0.00000000    0.00000000    0.00000000
     atom   10 type  1   force =     0.00000000    0.00000000    0.00000000
     atom   11 type  2   force =     0.00000000    0.00000000    0.00000000
     atom   12 type  2   force =     0.00000000    0.00000000    0.00000000
     atom   13 type  1   force =     0.00000000    0.00000000    0.00000000
     atom   14 type  1   force =     0.00000000    0.00000000    0.00000000
     atom   15 type  2   force =     0.00000000    0.00000000    0.00000000
     atom   16 type  2   force =     0.00000000    0.00000000    0.00000000
     The SCF correction term to forces
     atom    1 type  1   force =     0.00000000    0.00001550   -0.00001316
     atom    2 type  1   force =     0.00000000    0.00001860   -0.00000207
     atom    3 type  2   force =    -0.00000000    0.00000208   -0.00001272
     atom    4 type  2   force =    -0.00000000    0.00000272   -0.00001747
     atom    5 type  1   force =     0.00000000    0.00000075    0.00005144
     atom    6 type  1   force =     0.00000000    0.00001017   -0.00001806
     atom    7 type  2   force =    -0.00000000    0.00000005   -0.00000316
     atom    8 type  2   force =    -0.00000000    0.00000219    0.00001445
     atom    9 type  1   force =    -0.00000000   -0.00001406   -0.00000436
     atom   10 type  1   force =    -0.00000000   -0.00001850   -0.00002079
     atom   11 type  2   force =     0.00000000   -0.00000342   -0.00001202
     atom   12 type  2   force =     0.00000000   -0.00000096   -0.00001716
     atom   13 type  1   force =    -0.00000000   -0.00000049    0.00006806
     atom   14 type  1   force =    -0.00000000   -0.00001050   -0.00001740
     atom   15 type  2   force =     0.00000000   -0.00000210   -0.00000485
     atom   16 type  2   force =     0.00000000   -0.00000067    0.00001742

     Total force =     0.122921     Total SCF correction =     0.000107

     General routines

     Parallel routines

   This run was terminated on:  23: 5: 2  28Aug2025

   JOB DONE.
Note: The following floating-point exceptions are signalling: IEEE_UNDERFLOW_FLAG IEEE_DENORMAL
Note: The following floating-point exceptions are signalling: IEEE_UNDERFLOW_FLAG IEEE_DENORMAL
Note: The following floating-point exceptions are signalling: IEEE_UNDERFLOW_FLAG IEEE_DENORMAL
Note: The following floating-point exceptions are signalling: IEEE_UNDERFLOW_FLAG IEEE_DENORMAL
Note: The following floating-point exceptions are signalling: IEEE_UNDERFLOW_FLAG IEEE_DENORMAL
Note: The following floating-point exceptions are signalling: IEEE_UNDERFLOW_FLAG IEEE_DENORMAL
Note: The following floating-point exceptions are signalling: IEEE_UNDERFLOW_FLAG IEEE_DENORMAL
Note: The following floating-point exceptions are signalling: IEEE_UNDERFLOW_FLAG IEEE_DENORMAL
Note: The following floating-point exceptions are signalling: IEEE_UNDERFLOW_FLAG IEEE_DENORMAL
Note: The following floating-point exceptions are signalling: IEEE_UNDERFLOW_FLAG IEEE_DENORMAL
Note: The following floating-point exceptions are signalling: IEEE_UNDERFLOW_FLAG IEEE_DENORMAL
Note: The following floating-point exceptions are signalling: IEEE_UNDERFLOW_FLAG IEEE_DENORMAL
Note: The following floating-point exceptions are signalling: IEEE_UNDERFLOW_FLAG IEEE_DENORMAL
Note: The following floating-point exceptions are signalling: IEEE_UNDERFLOW_FLAG IEEE_DENORMAL
Note: The following floating-point exceptions are signalling: IEEE_UNDERFLOW_FLAG IEEE_DENORMAL
Note: The following floating-point exceptions are signalling: IEEE_UNDERFLOW_FLAG IEEE_DENORMAL
Note: The following floating-point exceptions are signalling: IEEE_UNDERFLOW_FLAG IEEE_DENORMAL
Note: The following floating-point exceptions are signalling: IEEE_UNDERFLOW_FLAG IEEE_DENORMAL
Note: The following floating-point exceptions are signalling: IEEE_UNDERFLOW_FLAG IEEE_DENORMAL
Note: The following floating-point exceptions are signalling: IEEE_UNDERFLOW_FLAG IEEE_DENORMAL
Note: The following floating-point exceptions are signalling: IEEE_UNDERFLOW_FLAG IEEE_DENORMAL
Note: The following floating-point exceptions are signalling: IEEE_UNDERFLOW_FLAG IEEE_DENORMAL
Note: The following floating-point exceptions are signalling: IEEE_UNDERFLOW_FLAG IEEE_DENORMAL
Note: The following floating-point exceptions are signalling: IEEE_UNDERFLOW_FLAG IEEE_DENORMAL
Note: The following floating-point exceptions are signalling: IEEE_UNDERFLOW_FLAG IEEE_DENORMAL
Note: The following floating-point exceptions are signalling: IEEE_UNDERFLOW_FLAG IEEE_DENORMAL
Note: The following floating-point exceptions are signalling: IEEE_UNDERFLOW_FLAG IEEE_DENORMAL
Note: The following floating-point exceptions are signalling: IEEE_UNDERFLOW_FLAG IEEE_DENORMAL
Note: The following floating-point exceptions are signalling: IEEE_UNDERFLOW_FLAG IEEE_DENORMAL
Note: The following floating-point exceptions are signalling: IEEE_UNDERFLOW_FLAG IEEE_DENORMAL
Note: The following floating-point exceptions are signalling: IEEE_UNDERFLOW_FLAG IEEE_DENORMAL
Note: The following floating-point exceptions are signalling: IEEE_UNDERFLOW_FLAG IEEE_DENORMAL