     Program PWSCF v.7.0 starts on 29Aug2025 at  5:55:38

     K-points division:     npool     =       8
     R & G space division:  proc/nbgrp/npool/nimage =       4

     Reading input from /home/jvc/QEspresso7.2/ZnO_database/scripts/cell122.in/ZnO-3.34-1.45-122.in
Warning: card &CELL ignored
Warning: card / ignored
Warning: card &FCP ignored
Warning: card / ignored
Warning: card &RISM ignored
Warning: card / ignored

     Current dimensions of program PWSCF are:
     Max number of different atomic species (ntypx) = 10
     Max number of k-points (npk) =  40000
     Max angular momentum in pseudopotentials (lmaxx) =  4
     file Zn.upf: wavefunction(s)  3D renormalized
     Found identity + (  0.0000  0.0000  0.5000) symmetry
     This is a supercell, fractional translations are disabled
     Message from routine setup:
     using ibrav=0 with symmetry is DISCOURAGED, use correct ibrav instead

     Using Slab Decomposition

     bravais-lattice index     =            0
     lattice parameter (alat)  =       6.3024  a.u.
     unit-cell volume          =    1259.9618 (a.u.)^3
     number of atoms/cell      =           16
     number of atomic types    =            2
     number of electrons       =       144.00
     number of Kohn-Sham states=           72
     kinetic-energy cutoff     =      50.0000  Ry
     charge density cutoff     =     400.0000  Ry
     scf convergence threshold =      1.0E-08
     mixing beta               =       0.3000
     number of iterations used =            8  plain     mixing
     Exchange-correlation= PBE
                           (   1   4   3   4   0   0   0)

     celldm(1)=   6.302431  celldm(2)=   0.000000  celldm(3)=   0.000000
     celldm(4)=   0.000000  celldm(5)=   0.000000  celldm(6)=   0.000000

     crystal axes: (cart. coord. in units of alat)
               a(1) = (   1.000000   0.000000   0.000000 )
               a(2) = (  -1.000000   1.732051   0.000000 )
               a(3) = (   0.000000   0.000000   2.905845 )

     reciprocal axes: (cart. coord. in units 2 pi/alat)
               b(1) = (  1.000000  0.577350 -0.000000 )
               b(2) = (  0.000000  0.577350  0.000000 )
               b(3) = (  0.000000 -0.000000  0.344134 )

     PseudoPot. # 1 for Zn read from file:
     /home/jvc/QEspresso7.2/ZnO_database/pseudos/Zn.upf
     MD5 check sum: 7f56cabf9682ed8c977c2f7d0c5985c5
     Pseudo is Ultrasoft + core correction, Zval = 12.0
     Generated using &quot;atomic&quot; code by A. Dal Corso  v.6.2.2
     Using radial grid of 1201 points,  6 beta functions with:
                l(1) =   0
                l(2) =   0
                l(3) =   1
                l(4) =   1
                l(5) =   2
                l(6) =   2
     Q(r) pseudized with 0 coefficients

     PseudoPot. # 2 for O  read from file:
     /home/jvc/QEspresso7.2/ZnO_database/pseudos/O.upf
     MD5 check sum: 91400c9766925bcf19f520983a725ff0
     Pseudo is Ultrasoft + core correction, Zval =  6.0
     Generated using &quot;atomic&quot; code by A. Dal Corso  v.6.3MaX
     Using radial grid of 1095 points,  4 beta functions with:
                l(1) =   0
                l(2) =   0
                l(3) =   1
                l(4) =   1
     Q(r) pseudized with 0 coefficients

     atomic species   valence    mass     pseudopotential
        Zn            12.00    65.38000     Zn( 1.00)
        O              6.00    15.99900     O ( 1.00)

      2 Sym. Ops. (no inversion) found

                                    s                        frac. trans.

      isym =  1     identity

 cryst.   s( 1) = (     1          0          0      )
                  (     0          1          0      )
                  (     0          0          1      )

 cart.    s( 1) = (  1.0000000  0.0000000  0.0000000 )
                  (  0.0000000  1.0000000  0.0000000 )
                  (  0.0000000  0.0000000  1.0000000 )

      isym =  2     inv. 180 deg rotation - cart. axis [1,0,0]

 cryst.   s( 2) = (    -1          0          0      )
                  (     2          1          0      )
                  (     0          0          1      )

 cart.    s( 2) = ( -1.0000000  0.0000000  0.0000000 )
                  (  0.0000000  1.0000000  0.0000000 )
                  (  0.0000000  0.0000000  1.0000000 )

   Cartesian axes

     site n.     atom                  positions (alat units)
         1           Zn  tau(   1) = (   0.5000000   0.2886751   0.7273818  )
         2           Zn  tau(   2) = (   0.0000000   0.5773503   0.0009206  )
         3           O   tau(   3) = (   0.5000000   0.2886751   1.2781017  )
         4           O   tau(   4) = (   0.0000000   0.5773503   0.5516404  )
         5           Zn  tau(   5) = (   0.5000000   0.2886751   2.1803043  )
         6           Zn  tau(   6) = (   0.0000000   0.5773503   1.4538431  )
         7           O   tau(   7) = (   0.5000000   0.2886751   2.7310242  )
         8           O   tau(   8) = (   0.0000000   0.5773503   2.0045629  )
         9           Zn  tau(   9) = (   0.0000000   1.1547005   0.7273818  )
        10           Zn  tau(  10) = (  -0.5000000   1.4433757   0.0009206  )
        11           O   tau(  11) = (   0.0000000   1.1547005   1.2781017  )
        12           O   tau(  12) = (  -0.5000000   1.4433757   0.5516404  )
        13           Zn  tau(  13) = (   0.0000000   1.1547005   2.1803043  )
        14           Zn  tau(  14) = (  -0.5000000   1.4433757   1.4538431  )
        15           O   tau(  15) = (   0.0000000   1.1547005   2.7310242  )
        16           O   tau(  16) = (  -0.5000000   1.4433757   2.0045629  )

   Crystallographic axes

     site n.     atom                  positions (cryst. coord.)
         1           Zn  tau(   1) = (  0.6666667  0.1666667  0.2503168  )
         2           Zn  tau(   2) = (  0.3333333  0.3333333  0.0003168  )
         3           O   tau(   3) = (  0.6666667  0.1666667  0.4398382  )
         4           O   tau(   4) = (  0.3333333  0.3333333  0.1898382  )
         5           Zn  tau(   5) = (  0.6666667  0.1666667  0.7503168  )
         6           Zn  tau(   6) = (  0.3333333  0.3333333  0.5003168  )
         7           O   tau(   7) = (  0.6666667  0.1666667  0.9398382  )
         8           O   tau(   8) = (  0.3333333  0.3333333  0.6898382  )
         9           Zn  tau(   9) = (  0.6666667  0.6666667  0.2503168  )
        10           Zn  tau(  10) = (  0.3333333  0.8333333  0.0003168  )
        11           O   tau(  11) = (  0.6666667  0.6666667  0.4398382  )
        12           O   tau(  12) = (  0.3333333  0.8333333  0.1898382  )
        13           Zn  tau(  13) = (  0.6666667  0.6666667  0.7503168  )
        14           Zn  tau(  14) = (  0.3333333  0.8333333  0.5003168  )
        15           O   tau(  15) = (  0.6666667  0.6666667  0.9398382  )
        16           O   tau(  16) = (  0.3333333  0.8333333  0.6898382  )

     number of k points=    80
                       cart. coord. in units 2pi/alat
        k(    1) = (   0.0000000   0.0000000   0.0000000), wk =   0.0092593
        k(    2) = (   0.0000000   0.0000000   0.0573557), wk =   0.0185185
        k(    3) = (   0.0000000   0.0000000   0.1147113), wk =   0.0185185
        k(    4) = (   0.0000000   0.0000000  -0.1720670), wk =   0.0092593
        k(    5) = (   0.0000000   0.0962250   0.0000000), wk =   0.0185185
        k(    6) = (   0.0000000   0.0962250   0.0573557), wk =   0.0185185
        k(    7) = (   0.0000000   0.0962250   0.1147113), wk =   0.0185185
        k(    8) = (   0.0000000   0.0962250  -0.1720670), wk =   0.0185185
        k(    9) = (   0.0000000   0.1924501   0.0000000), wk =   0.0185185
        k(   10) = (   0.0000000   0.1924501   0.0573557), wk =   0.0185185
        k(   11) = (   0.0000000   0.1924501   0.1147113), wk =   0.0185185
        k(   12) = (   0.0000000   0.1924501  -0.1720670), wk =   0.0185185
        k(   13) = (   0.0000000  -0.2886751   0.0000000), wk =   0.0092593
        k(   14) = (   0.0000000  -0.2886751   0.0573557), wk =   0.0185185
        k(   15) = (   0.0000000  -0.2886751   0.1147113), wk =   0.0185185
        k(   16) = (   0.0000000  -0.2886751  -0.1720670), wk =   0.0092593
        k(   17) = (   0.1666667   0.0962250   0.0000000), wk =   0.0370370
        k(   18) = (   0.1666667   0.0962250   0.0573557), wk =   0.0370370
        k(   19) = (   0.1666667   0.0962250   0.1147113), wk =   0.0370370
        k(   20) = (   0.1666667   0.0962250  -0.1720670), wk =   0.0370370
        k(   21) = (   0.1666667   0.1924501   0.0000000), wk =   0.0370370
        k(   22) = (   0.1666667   0.1924501   0.0573557), wk =   0.0370370
        k(   23) = (   0.1666667   0.1924501   0.1147113), wk =   0.0370370
        k(   24) = (   0.1666667   0.1924501  -0.1720670), wk =   0.0370370
        k(   25) = (   0.1666667   0.2886751   0.0000000), wk =   0.0185185
        k(   26) = (   0.1666667   0.2886751   0.0573557), wk =   0.0370370
        k(   27) = (   0.1666667   0.2886751   0.1147113), wk =   0.0370370
        k(   28) = (   0.1666667   0.2886751  -0.1720670), wk =   0.0185185
        k(   29) = (   0.1666667   0.0000000   0.0000000), wk =   0.0185185
        k(   30) = (   0.1666667   0.0000000   0.0573557), wk =   0.0370370
        k(   31) = (   0.1666667   0.0000000   0.1147113), wk =   0.0370370
        k(   32) = (   0.1666667   0.0000000  -0.1720670), wk =   0.0185185
        k(   33) = (   0.3333333   0.1924501   0.0000000), wk =   0.0370370
        k(   34) = (   0.3333333   0.1924501   0.0573557), wk =   0.0370370
        k(   35) = (   0.3333333   0.1924501   0.1147113), wk =   0.0370370
        k(   36) = (   0.3333333   0.1924501  -0.1720670), wk =   0.0370370
        k(   37) = (   0.3333333   0.2886751   0.0000000), wk =   0.0185185
        k(   38) = (   0.3333333   0.2886751   0.0573557), wk =   0.0370370
        k(   39) = (   0.3333333   0.2886751   0.1147113), wk =   0.0370370
        k(   40) = (   0.3333333   0.2886751  -0.1720670), wk =   0.0185185
        k(   41) = (   0.3333333  -0.0962250   0.0000000), wk =   0.0370370
        k(   42) = (   0.3333333  -0.0962250   0.0573557), wk =   0.0370370
        k(   43) = (   0.3333333  -0.0962250   0.1147113), wk =   0.0370370
        k(   44) = (   0.3333333  -0.0962250  -0.1720670), wk =   0.0370370
        k(   45) = (   0.3333333  -0.0000000   0.0000000), wk =   0.0185185
        k(   46) = (   0.3333333  -0.0000000   0.0573557), wk =   0.0370370
        k(   47) = (   0.3333333  -0.0000000   0.1147113), wk =   0.0370370
        k(   48) = (   0.3333333  -0.0000000  -0.1720670), wk =   0.0185185
        k(   49) = (  -0.5000000  -0.2886751   0.0000000), wk =   0.0092593
        k(   50) = (  -0.5000000  -0.2886751   0.0573557), wk =   0.0185185
        k(   51) = (  -0.5000000  -0.2886751   0.1147113), wk =   0.0185185
        k(   52) = (  -0.5000000  -0.2886751  -0.1720670), wk =   0.0092593
        k(   53) = (  -0.5000000  -0.1924501   0.0000000), wk =   0.0185185
        k(   54) = (  -0.5000000  -0.1924501   0.0573557), wk =   0.0185185
        k(   55) = (  -0.5000000  -0.1924501   0.1147113), wk =   0.0185185
[...]
        k(   76) = (  -0.3333333   0.1666667  -0.3333333), wk =   0.0370370
        k(   77) = (   0.5000000  -0.8333333  -0.1666667), wk =   0.0185185
        k(   78) = (   0.5000000  -0.8333333  -0.3333333), wk =   0.0185185
        k(   79) = (   0.5000000  -0.6666667  -0.1666667), wk =   0.0185185
        k(   80) = (   0.5000000  -0.6666667  -0.3333333), wk =   0.0185185

     Check: negative core charge=   -0.000002

     Initial potential from superposition of free atoms

     starting charge     143.9702, renormalised to     144.0000
     Starting wfcs are  104 randomized atomic wfcs

     Self-consistent Calculation

     iteration #  1     ecut=    50.00 Ry     beta= 0.30
     Davidson diagonalization with overlap

     ethr =  1.00E-02,  avg # of iterations =  2.0

     total energy              =   -1445.81746988 Ry
     estimated scf accuracy    <       2.81223910 Ry

[...]

     total energy              =   -1446.44452456 Ry
     estimated scf accuracy    <       0.00000001 Ry

     iteration # 44     ecut=    50.00 Ry     beta= 0.30
     Davidson diagonalization with overlap

     ethr =  8.94E-12,  avg # of iterations =  2.9

     End of self-consistent calculation

          k = 0.0000 0.0000 0.0000 (  7455 PWs)   bands (ev):

   -10.7182 -10.2651 -10.2651 -10.0539  -9.8874  -9.8874  -9.7998  -9.7664
     1.2117   1.2117   1.4140   1.4140   1.5275   1.8001   1.8198   1.8200
     1.8313   1.8882   1.8882   1.8884   1.8884   1.9876   2.0079   2.0826
     2.0827   2.1886   2.1886   2.2381   2.2685   2.2685   2.4117   2.6851
     2.9682   2.9683   3.0358   3.1706   3.1707   3.1707   3.1707   3.1731
     3.2093   3.2093   3.2596   3.2597   3.3133   3.3133   3.3210   3.3601
     3.4707   3.9119   3.9169   3.9170   4.1794   4.7238   4.8738   5.5631
     5.5631   5.9392   5.9392   6.3372   6.3945   6.3947   6.5101   6.5101
     6.7983   6.9597   6.9598   6.9600   6.9600   7.4870   7.4873   7.5793

     occupation numbers
     1.0000   1.0000   1.0000   1.0000   1.0000   1.0000   1.0000   1.0000
     1.0000   1.0000   1.0000   1.0000   1.0000   1.0000   1.0000   1.0000
     1.0000   1.0000   1.0000   1.0000   1.0000   1.0000   1.0000   1.0000
     1.0000   1.0000   1.0000   1.0000   1.0000   1.0000   1.0000   1.0000
     1.0000   1.0000   1.0000   1.0000   1.0000   1.0000   1.0000   1.0000
     1.0000   1.0000   1.0000   1.0000   1.0000   1.0000   1.0000   1.0000
     1.0000   1.0000   1.0000   1.0000   1.0000   1.0000   1.0000   1.0000
     1.0000   1.0000   1.0000   1.0000   1.0000   1.0000   1.0000   1.0000
     1.0000   1.0000   1.0000   1.0000   1.0000   1.0000   1.0000   1.0000

[...]

          k =-0.5000-0.2887 0.0000 (  7496 PWs)   bands (ev):

[...]

          k =-0.3333-0.0962-0.1147 (  7539 PWs)   bands (ev):

[...]

          k = 0.5000-0.0962-0.1147 (  7526 PWs)   bands (ev):

   -10.0363 -10.0363  -9.9704  -9.9704  -9.8188  -9.8188  -9.7751  -9.7751
     1.3863   1.3863   1.4652   1.4652   1.5519   1.5519   1.7587   1.7587
     1.9850   1.9850   2.0069   2.0069   2.1240   2.1240   2.1586   2.1586
     2.3157   2.3157   2.4209   2.4209   2.4456   2.4456   2.6098   2.6098
     3.0040   3.0040   3.0859   3.0859   3.1363   3.1363   3.1587   3.1587
     3.3094   3.3094   3.3219   3.3219   3.4303   3.4303   3.4631   3.4631
     3.7383   3.7383   3.9157   3.9157   4.2694   4.2694   4.3337   4.3337
     4.6271   4.6271   4.9857   4.9857   5.2967   5.2967   5.9198   5.9198
     6.0796   6.0796   6.3518   6.3518   6.5353   6.5354   6.7467   6.7467

     occupation numbers
     1.0000   1.0000   1.0000   1.0000   1.0000   1.0000   1.0000   1.0000
     1.0000   1.0000   1.0000   1.0000   1.0000   1.0000   1.0000   1.0000
     1.0000   1.0000   1.0000   1.0000   1.0000   1.0000   1.0000   1.0000
     1.0000   1.0000   1.0000   1.0000   1.0000   1.0000   1.0000   1.0000
     1.0000   1.0000   1.0000   1.0000   1.0000   1.0000   1.0000   1.0000
     1.0000   1.0000   1.0000   1.0000   1.0000   1.0000   1.0000   1.0000
     1.0000   1.0000   1.0000   1.0000   1.0000   1.0000   1.0000   1.0000
     1.0000   1.0000   1.0000   1.0000   1.0000   1.0000   1.0000   1.0000
     1.0000   1.0000   1.0000   1.0000   1.0000   1.0000   1.0000   1.0000

     highest occupied level (ev):     7.5793

!    total energy              =   -1446.44452456 Ry
     estimated scf accuracy    <          4.4E-09 Ry

     The total energy is the sum of the following terms:
     one-electron contribution =    -602.93439002 Ry
     hartree contribution      =     468.69832625 Ry
     xc contribution           =    -438.64508658 Ry
     ewald contribution        =    -873.56337420 Ry

     convergence has been achieved in  44 iterations

     Forces acting on atoms (cartesian axes, Ry/au):

     atom    1 type  1   force =     0.00000000   -0.00001213   -0.05998949
     atom    2 type  1   force =     0.00000000    0.00000760   -0.05998150
     atom    3 type  2   force =     0.00000000   -0.00000049    0.05996877
     atom    4 type  2   force =     0.00000000   -0.00000100    0.05997275
     atom    5 type  1   force =     0.00000000   -0.00000240   -0.05994096
     atom    6 type  1   force =     0.00000000    0.00001111   -0.05996347
     atom    7 type  2   force =     0.00000000   -0.00000001    0.05996996
     atom    8 type  2   force =     0.00000000   -0.00000124    0.05996683
     atom    9 type  1   force =     0.00000000   -0.00000572   -0.05999285
     atom   10 type  1   force =     0.00000000    0.00001020   -0.05997392
     atom   11 type  2   force =     0.00000000    0.00000151    0.05996938
     atom   12 type  2   force =     0.00000000    0.00000047    0.05997145
     atom   13 type  1   force =     0.00000000   -0.00001413   -0.05994227
     atom   14 type  1   force =     0.00000000    0.00000526   -0.05996855
     atom   15 type  2   force =     0.00000000    0.00000020    0.05996780
     atom   16 type  2   force =     0.00000000    0.00000078    0.05996605
     The non-local contrib.  to forces
     atom    1 type  1   force =     0.00000000    0.00000649   -0.32023000
     atom    2 type  1   force =     0.00000000   -0.00000780   -0.32022030
     atom    3 type  2   force =     0.00000000    0.00017438   -0.22919887
     atom    4 type  2   force =     0.00000000   -0.00017696   -0.22917857
     atom    5 type  1   force =     0.00000000    0.00001491   -0.32019056
     atom    6 type  1   force =     0.00000000   -0.00000719   -0.32021048
     atom    7 type  2   force =     0.00000000    0.00017509   -0.22919535
     atom    8 type  2   force =     0.00000000   -0.00017654   -0.22920889
     atom    9 type  1   force =     0.00000000    0.00001118   -0.32023124
     atom   10 type  1   force =     0.00000000   -0.00000997   -0.32021220
     atom   11 type  2   force =     0.00000000    0.00017745   -0.22919469
     atom   12 type  2   force =     0.00000000   -0.00017569   -0.22918078
     atom   13 type  1   force =     0.00000000    0.00000310   -0.32019296
     atom   14 type  1   force =     0.00000000   -0.00001092   -0.32021850
     atom   15 type  2   force =     0.00000000    0.00017620   -0.22919887
     atom   16 type  2   force =     0.00000000   -0.00017312   -0.22921374
     The ionic contribution  to forces
     atom    1 type  1   force =    -0.00000000    0.00000000   -2.17242404
     atom    2 type  1   force =     0.00000000   -0.00000000   -2.17242404
     atom    3 type  2   force =    -0.00000000    0.00000000    2.17242404
     atom    4 type  2   force =     0.00000000   -0.00000000    2.17242404
     atom    5 type  1   force =    -0.00000000    0.00000000   -2.17242404
     atom    6 type  1   force =     0.00000000   -0.00000000   -2.17242404
     atom    7 type  2   force =    -0.00000000    0.00000000    2.17242404
     atom    8 type  2   force =     0.00000000   -0.00000000    2.17242404
     atom    9 type  1   force =    -0.00000000    0.00000000   -2.17242404
     atom   10 type  1   force =     0.00000000   -0.00000000   -2.17242404
     atom   11 type  2   force =    -0.00000000    0.00000000    2.17242404
     atom   12 type  2   force =     0.00000000   -0.00000000    2.17242404
     atom   13 type  1   force =    -0.00000000    0.00000000   -2.17242404
     atom   14 type  1   force =     0.00000000   -0.00000000   -2.17242404
     atom   15 type  2   force =    -0.00000000    0.00000000    2.17242404
     atom   16 type  2   force =     0.00000000   -0.00000000    2.17242404
     The local contribution  to forces
     atom    1 type  1   force =    -0.00000009   -0.00001302    2.40728720
     atom    2 type  1   force =     0.00000000    0.00002221    2.40728539
     atom    3 type  2   force =    -0.00000002   -0.00017903   -1.88485781
     atom    4 type  2   force =     0.00000000    0.00017073   -1.88484694
     atom    5 type  1   force =    -0.00000009   -0.00003820    2.40719608
     atom    6 type  1   force =     0.00000000    0.00001901    2.40724624
     atom    7 type  2   force =    -0.00000002   -0.00017436   -1.88486241
     atom    8 type  2   force =     0.00000000    0.00017064   -1.88486870
     atom    9 type  1   force =    -0.00000009   -0.00003130    2.40729356
     atom   10 type  1   force =    -0.00000000    0.00002208    2.40726374
     atom   11 type  2   force =    -0.00000002   -0.00016985   -1.88485972
     atom   12 type  2   force =    -0.00000000    0.00017714   -1.88484741
     atom   13 type  1   force =    -0.00000009   -0.00000692    2.40719943
     atom   14 type  1   force =     0.00000000    0.00002630    2.40726627
     atom   15 type  2   force =    -0.00000002   -0.00017300   -1.88485845
     atom   16 type  2   force =     0.00000000    0.00017672   -1.88486415
     The core correction contribution to forces
     atom    1 type  1   force =    -0.00000001    0.00000265    0.02541901
     atom    2 type  1   force =     0.00000007   -0.00000284    0.02541746
     atom    3 type  2   force =     0.00000001   -0.00000199    0.00159841
     atom    4 type  2   force =     0.00000001    0.00000203    0.00159816
     atom    5 type  1   force =    -0.00000001    0.00000345    0.02541945
     atom    6 type  1   force =     0.00000007   -0.00000282    0.02541894
     atom    7 type  2   force =     0.00000001   -0.00000198    0.00159834
     atom    8 type  2   force =     0.00000001    0.00000203    0.00159853
     atom    9 type  1   force =    -0.00000008    0.00000315    0.02541882
     atom   10 type  1   force =    -0.00000000   -0.00000296    0.02541791
     atom   11 type  2   force =    -0.00000001   -0.00000204    0.00159836
     atom   12 type  2   force =    -0.00000001    0.00000200    0.00159818
     atom   13 type  1   force =    -0.00000008    0.00000234    0.02541959
     atom   14 type  1   force =    -0.00000000   -0.00000297    0.02541852
     atom   15 type  2   force =    -0.00000001   -0.00000202    0.00159841
     atom   16 type  2   force =    -0.00000001    0.00000197    0.00159860
     The Hubbard contrib.    to forces
     atom    1 type  1   force =     0.00000000    0.00000000    0.00000000
     atom    2 type  1   force =     0.00000000    0.00000000    0.00000000
     atom    3 type  2   force =     0.00000000    0.00000000    0.00000000
     atom    4 type  2   force =     0.00000000    0.00000000    0.00000000
     atom    5 type  1   force =     0.00000000    0.00000000    0.00000000
     atom    6 type  1   force =     0.00000000    0.00000000    0.00000000
     atom    7 type  2   force =     0.00000000    0.00000000    0.00000000
     atom    8 type  2   force =     0.00000000    0.00000000    0.00000000
     atom    9 type  1   force =     0.00000000    0.00000000    0.00000000
     atom   10 type  1   force =     0.00000000    0.00000000    0.00000000
     atom   11 type  2   force =     0.00000000    0.00000000    0.00000000
     atom   12 type  2   force =     0.00000000    0.00000000    0.00000000
     atom   13 type  1   force =     0.00000000    0.00000000    0.00000000
     atom   14 type  1   force =     0.00000000    0.00000000    0.00000000
     atom   15 type  2   force =     0.00000000    0.00000000    0.00000000
     atom   16 type  2   force =     0.00000000    0.00000000    0.00000000
     The SCF correction term to forces
     atom    1 type  1   force =    -0.00000000   -0.00000823   -0.00004224
     atom    2 type  1   force =     0.00000000   -0.00000395   -0.00004059
     atom    3 type  2   force =     0.00000000    0.00000617    0.00000242
     atom    4 type  2   force =     0.00000000    0.00000323   -0.00002452
     atom    5 type  1   force =    -0.00000000    0.00001745    0.00005752
     atom    6 type  1   force =    -0.00000000    0.00000213    0.00000529
     atom    7 type  2   force =    -0.00000000    0.00000126    0.00000475
     atom    8 type  2   force =     0.00000000    0.00000265    0.00002127
     atom    9 type  1   force =    -0.00000000    0.00001127   -0.00005053
     atom   10 type  1   force =     0.00000000    0.00000107   -0.00001992
     atom   11 type  2   force =    -0.00000000   -0.00000404    0.00000081
     atom   12 type  2   force =    -0.00000000   -0.00000297   -0.00002317
     atom   13 type  1   force =    -0.00000000   -0.00001263    0.00005513
     atom   14 type  1   force =     0.00000000   -0.00000714   -0.00001138
     atom   15 type  2   force =    -0.00000000   -0.00000095    0.00000209
     atom   16 type  2   force =     0.00000000   -0.00000477    0.00002071

     Total force =     0.239877     Total SCF correction =     0.000126

     General routines

     Parallel routines

   This run was terminated on:   6:10:45  29Aug2025

   JOB DONE.
Note: The following floating-point exceptions are signalling: IEEE_UNDERFLOW_FLAG IEEE_DENORMAL
Note: The following floating-point exceptions are signalling: IEEE_UNDERFLOW_FLAG IEEE_DENORMAL
Note: The following floating-point exceptions are signalling: IEEE_UNDERFLOW_FLAG IEEE_DENORMAL
Note: The following floating-point exceptions are signalling: IEEE_UNDERFLOW_FLAG IEEE_DENORMAL
Note: The following floating-point exceptions are signalling: IEEE_UNDERFLOW_FLAG IEEE_DENORMAL
Note: The following floating-point exceptions are signalling: IEEE_UNDERFLOW_FLAG IEEE_DENORMAL
Note: The following floating-point exceptions are signalling: IEEE_UNDERFLOW_FLAG IEEE_DENORMAL
Note: The following floating-point exceptions are signalling: IEEE_UNDERFLOW_FLAG IEEE_DENORMAL
Note: The following floating-point exceptions are signalling: IEEE_UNDERFLOW_FLAG IEEE_DENORMAL
Note: The following floating-point exceptions are signalling: IEEE_UNDERFLOW_FLAG IEEE_DENORMAL
Note: The following floating-point exceptions are signalling: IEEE_UNDERFLOW_FLAG IEEE_DENORMAL
Note: The following floating-point exceptions are signalling: IEEE_UNDERFLOW_FLAG IEEE_DENORMAL
Note: The following floating-point exceptions are signalling: IEEE_UNDERFLOW_FLAG IEEE_DENORMAL
Note: The following floating-point exceptions are signalling: IEEE_UNDERFLOW_FLAG IEEE_DENORMAL
Note: The following floating-point exceptions are signalling: IEEE_UNDERFLOW_FLAG IEEE_DENORMAL
Note: The following floating-point exceptions are signalling: IEEE_UNDERFLOW_FLAG IEEE_DENORMAL
Note: The following floating-point exceptions are signalling: IEEE_UNDERFLOW_FLAG IEEE_DENORMAL
Note: The following floating-point exceptions are signalling: IEEE_UNDERFLOW_FLAG IEEE_DENORMAL
Note: The following floating-point exceptions are signalling: IEEE_UNDERFLOW_FLAG IEEE_DENORMAL
Note: The following floating-point exceptions are signalling: IEEE_UNDERFLOW_FLAG IEEE_DENORMAL
Note: The following floating-point exceptions are signalling: IEEE_UNDERFLOW_FLAG IEEE_DENORMAL
Note: The following floating-point exceptions are signalling: IEEE_UNDERFLOW_FLAG IEEE_DENORMAL
Note: The following floating-point exceptions are signalling: IEEE_UNDERFLOW_FLAG IEEE_DENORMAL
Note: The following floating-point exceptions are signalling: IEEE_UNDERFLOW_FLAG IEEE_DENORMAL
Note: The following floating-point exceptions are signalling: IEEE_UNDERFLOW_FLAG IEEE_DENORMAL
Note: The following floating-point exceptions are signalling: IEEE_UNDERFLOW_FLAG IEEE_DENORMAL
Note: The following floating-point exceptions are signalling: IEEE_UNDERFLOW_FLAG IEEE_DENORMAL
Note: The following floating-point exceptions are signalling: IEEE_UNDERFLOW_FLAG IEEE_DENORMAL
Note: The following floating-point exceptions are signalling: IEEE_UNDERFLOW_FLAG IEEE_DENORMAL
Note: The following floating-point exceptions are signalling: IEEE_UNDERFLOW_FLAG IEEE_DENORMAL
Note: The following floating-point exceptions are signalling: IEEE_UNDERFLOW_FLAG IEEE_DENORMAL
Note: The following floating-point exceptions are signalling: IEEE_UNDERFLOW_FLAG IEEE_DENORMAL