     Program PWSCF v.7.0 starts on 29Aug2025 at  7: 9: 1

     K-points division:     npool     =       8
     R & G space division:  proc/nbgrp/npool/nimage =       4

     Reading input from /home/jvc/QEspresso7.2/ZnO_database/scripts/cell122.in/ZnO-3.34-1.61-122.in
Warning: card &CELL ignored
Warning: card / ignored
Warning: card &FCP ignored
Warning: card / ignored
Warning: card &RISM ignored
Warning: card / ignored

     Current dimensions of program PWSCF are:
     Max number of different atomic species (ntypx) = 10
     Max number of k-points (npk) =  40000
     Max angular momentum in pseudopotentials (lmaxx) =  4
     file Zn.upf: wavefunction(s)  3D renormalized
     Found identity + (  0.0000  0.0000  0.5000) symmetry
     This is a supercell, fractional translations are disabled
     Message from routine setup:
     using ibrav=0 with symmetry is DISCOURAGED, use correct ibrav instead

     Using Slab Decomposition

     bravais-lattice index     =            0
     lattice parameter (alat)  =       6.3024  a.u.
     unit-cell volume          =    1399.9576 (a.u.)^3
     number of atoms/cell      =           16
     number of atomic types    =            2
     number of electrons       =       144.00
     number of Kohn-Sham states=           72
     kinetic-energy cutoff     =      50.0000  Ry
     charge density cutoff     =     400.0000  Ry
     scf convergence threshold =      1.0E-08
     mixing beta               =       0.3000
     number of iterations used =            8  plain     mixing
     Exchange-correlation= PBE
                           (   1   4   3   4   0   0   0)

     celldm(1)=   6.302431  celldm(2)=   0.000000  celldm(3)=   0.000000
     celldm(4)=   0.000000  celldm(5)=   0.000000  celldm(6)=   0.000000

     crystal axes: (cart. coord. in units of alat)
               a(1) = (   1.000000   0.000000   0.000000 )
               a(2) = (  -1.000000   1.732051   0.000000 )
               a(3) = (   0.000000   0.000000   3.228717 )

     reciprocal axes: (cart. coord. in units 2 pi/alat)
               b(1) = (  1.000000  0.577350 -0.000000 )
               b(2) = (  0.000000  0.577350  0.000000 )
               b(3) = (  0.000000 -0.000000  0.309721 )

     PseudoPot. # 1 for Zn read from file:
     /home/jvc/QEspresso7.2/ZnO_database/pseudos/Zn.upf
     MD5 check sum: 7f56cabf9682ed8c977c2f7d0c5985c5
     Pseudo is Ultrasoft + core correction, Zval = 12.0
     Generated using &quot;atomic&quot; code by A. Dal Corso  v.6.2.2
     Using radial grid of 1201 points,  6 beta functions with:
                l(1) =   0
                l(2) =   0
                l(3) =   1
                l(4) =   1
                l(5) =   2
                l(6) =   2
     Q(r) pseudized with 0 coefficients

     PseudoPot. # 2 for O  read from file:
     /home/jvc/QEspresso7.2/ZnO_database/pseudos/O.upf
     MD5 check sum: 91400c9766925bcf19f520983a725ff0
     Pseudo is Ultrasoft + core correction, Zval =  6.0
     Generated using &quot;atomic&quot; code by A. Dal Corso  v.6.3MaX
     Using radial grid of 1095 points,  4 beta functions with:
                l(1) =   0
                l(2) =   0
                l(3) =   1
                l(4) =   1
     Q(r) pseudized with 0 coefficients

     atomic species   valence    mass     pseudopotential
        Zn            12.00    65.38000     Zn( 1.00)
        O              6.00    15.99900     O ( 1.00)

      2 Sym. Ops. (no inversion) found

                                    s                        frac. trans.

      isym =  1     identity

 cryst.   s( 1) = (     1          0          0      )
                  (     0          1          0      )
                  (     0          0          1      )

 cart.    s( 1) = (  1.0000000  0.0000000  0.0000000 )
                  (  0.0000000  1.0000000  0.0000000 )
                  (  0.0000000  0.0000000  1.0000000 )

      isym =  2     inv. 180 deg rotation - cart. axis [1,0,0]

 cryst.   s( 2) = (    -1          0          0      )
                  (     2          1          0      )
                  (     0          0          1      )

 cart.    s( 2) = ( -1.0000000  0.0000000  0.0000000 )
                  (  0.0000000  1.0000000  0.0000000 )
                  (  0.0000000  0.0000000  1.0000000 )

   Cartesian axes

     site n.     atom                  positions (alat units)
         1           Zn  tau(   1) = (   0.5000000   0.2886751   0.8082020  )
         2           Zn  tau(   2) = (   0.0000000   0.5773503   0.0010228  )
         3           O   tau(   3) = (   0.5000000   0.2886751   1.4201130  )
         4           O   tau(   4) = (   0.0000000   0.5773503   0.6129338  )
         5           Zn  tau(   5) = (   0.5000000   0.2886751   2.4225604  )
         6           Zn  tau(   6) = (   0.0000000   0.5773503   1.6153812  )
         7           O   tau(   7) = (   0.5000000   0.2886751   3.0344713  )
         8           O   tau(   8) = (   0.0000000   0.5773503   2.2272921  )
         9           Zn  tau(   9) = (   0.0000000   1.1547005   0.8082020  )
        10           Zn  tau(  10) = (  -0.5000000   1.4433757   0.0010228  )
        11           O   tau(  11) = (   0.0000000   1.1547005   1.4201130  )
        12           O   tau(  12) = (  -0.5000000   1.4433757   0.6129338  )
        13           Zn  tau(  13) = (   0.0000000   1.1547005   2.4225604  )
        14           Zn  tau(  14) = (  -0.5000000   1.4433757   1.6153812  )
        15           O   tau(  15) = (   0.0000000   1.1547005   3.0344713  )
        16           O   tau(  16) = (  -0.5000000   1.4433757   2.2272921  )

   Crystallographic axes

     site n.     atom                  positions (cryst. coord.)
         1           Zn  tau(   1) = (  0.6666667  0.1666667  0.2503168  )
         2           Zn  tau(   2) = (  0.3333333  0.3333333  0.0003168  )
         3           O   tau(   3) = (  0.6666667  0.1666667  0.4398382  )
         4           O   tau(   4) = (  0.3333333  0.3333333  0.1898382  )
         5           Zn  tau(   5) = (  0.6666667  0.1666667  0.7503168  )
         6           Zn  tau(   6) = (  0.3333333  0.3333333  0.5003168  )
         7           O   tau(   7) = (  0.6666667  0.1666667  0.9398382  )
         8           O   tau(   8) = (  0.3333333  0.3333333  0.6898382  )
         9           Zn  tau(   9) = (  0.6666667  0.6666667  0.2503168  )
        10           Zn  tau(  10) = (  0.3333333  0.8333333  0.0003168  )
        11           O   tau(  11) = (  0.6666667  0.6666667  0.4398382  )
        12           O   tau(  12) = (  0.3333333  0.8333333  0.1898382  )
        13           Zn  tau(  13) = (  0.6666667  0.6666667  0.7503168  )
        14           Zn  tau(  14) = (  0.3333333  0.8333333  0.5003168  )
        15           O   tau(  15) = (  0.6666667  0.6666667  0.9398382  )
        16           O   tau(  16) = (  0.3333333  0.8333333  0.6898382  )

     number of k points=    80
                       cart. coord. in units 2pi/alat
        k(    1) = (   0.0000000   0.0000000   0.0000000), wk =   0.0092593
        k(    2) = (   0.0000000   0.0000000   0.0516201), wk =   0.0185185
        k(    3) = (   0.0000000   0.0000000   0.1032402), wk =   0.0185185
        k(    4) = (   0.0000000   0.0000000  -0.1548603), wk =   0.0092593
        k(    5) = (   0.0000000   0.0962250   0.0000000), wk =   0.0185185
        k(    6) = (   0.0000000   0.0962250   0.0516201), wk =   0.0185185
        k(    7) = (   0.0000000   0.0962250   0.1032402), wk =   0.0185185
        k(    8) = (   0.0000000   0.0962250  -0.1548603), wk =   0.0185185
        k(    9) = (   0.0000000   0.1924501   0.0000000), wk =   0.0185185
        k(   10) = (   0.0000000   0.1924501   0.0516201), wk =   0.0185185
        k(   11) = (   0.0000000   0.1924501   0.1032402), wk =   0.0185185
        k(   12) = (   0.0000000   0.1924501  -0.1548603), wk =   0.0185185
        k(   13) = (   0.0000000  -0.2886751   0.0000000), wk =   0.0092593
        k(   14) = (   0.0000000  -0.2886751   0.0516201), wk =   0.0185185
        k(   15) = (   0.0000000  -0.2886751   0.1032402), wk =   0.0185185
        k(   16) = (   0.0000000  -0.2886751  -0.1548603), wk =   0.0092593
        k(   17) = (   0.1666667   0.0962250   0.0000000), wk =   0.0370370
        k(   18) = (   0.1666667   0.0962250   0.0516201), wk =   0.0370370
        k(   19) = (   0.1666667   0.0962250   0.1032402), wk =   0.0370370
        k(   20) = (   0.1666667   0.0962250  -0.1548603), wk =   0.0370370
        k(   21) = (   0.1666667   0.1924501   0.0000000), wk =   0.0370370
        k(   22) = (   0.1666667   0.1924501   0.0516201), wk =   0.0370370
        k(   23) = (   0.1666667   0.1924501   0.1032402), wk =   0.0370370
        k(   24) = (   0.1666667   0.1924501  -0.1548603), wk =   0.0370370
        k(   25) = (   0.1666667   0.2886751   0.0000000), wk =   0.0185185
        k(   26) = (   0.1666667   0.2886751   0.0516201), wk =   0.0370370
        k(   27) = (   0.1666667   0.2886751   0.1032402), wk =   0.0370370
        k(   28) = (   0.1666667   0.2886751  -0.1548603), wk =   0.0185185
        k(   29) = (   0.1666667   0.0000000   0.0000000), wk =   0.0185185
        k(   30) = (   0.1666667   0.0000000   0.0516201), wk =   0.0370370
        k(   31) = (   0.1666667   0.0000000   0.1032402), wk =   0.0370370
        k(   32) = (   0.1666667   0.0000000  -0.1548603), wk =   0.0185185
        k(   33) = (   0.3333333   0.1924501   0.0000000), wk =   0.0370370
        k(   34) = (   0.3333333   0.1924501   0.0516201), wk =   0.0370370
        k(   35) = (   0.3333333   0.1924501   0.1032402), wk =   0.0370370
        k(   36) = (   0.3333333   0.1924501  -0.1548603), wk =   0.0370370
        k(   37) = (   0.3333333   0.2886751   0.0000000), wk =   0.0185185
        k(   38) = (   0.3333333   0.2886751   0.0516201), wk =   0.0370370
        k(   39) = (   0.3333333   0.2886751   0.1032402), wk =   0.0370370
        k(   40) = (   0.3333333   0.2886751  -0.1548603), wk =   0.0185185
        k(   41) = (   0.3333333  -0.0962250   0.0000000), wk =   0.0370370
        k(   42) = (   0.3333333  -0.0962250   0.0516201), wk =   0.0370370
        k(   43) = (   0.3333333  -0.0962250   0.1032402), wk =   0.0370370
        k(   44) = (   0.3333333  -0.0962250  -0.1548603), wk =   0.0370370
        k(   45) = (   0.3333333  -0.0000000   0.0000000), wk =   0.0185185
        k(   46) = (   0.3333333  -0.0000000   0.0516201), wk =   0.0370370
        k(   47) = (   0.3333333  -0.0000000   0.1032402), wk =   0.0370370
        k(   48) = (   0.3333333  -0.0000000  -0.1548603), wk =   0.0185185
        k(   49) = (  -0.5000000  -0.2886751   0.0000000), wk =   0.0092593
        k(   50) = (  -0.5000000  -0.2886751   0.0516201), wk =   0.0185185
        k(   51) = (  -0.5000000  -0.2886751   0.1032402), wk =   0.0185185
        k(   52) = (  -0.5000000  -0.2886751  -0.1548603), wk =   0.0092593
        k(   53) = (  -0.5000000  -0.1924501   0.0000000), wk =   0.0185185
        k(   54) = (  -0.5000000  -0.1924501   0.0516201), wk =   0.0185185
        k(   55) = (  -0.5000000  -0.1924501   0.1032402), wk =   0.0185185
[...]
        k(   79) = (   0.5000000  -0.6666667  -0.1666667), wk =   0.0185185
        k(   80) = (   0.5000000  -0.6666667  -0.3333333), wk =   0.0185185

     Check: negative core charge=   -0.000002

     Initial potential from superposition of free atoms

     starting charge     143.9702, renormalised to     144.0000
     Starting wfcs are  104 randomized atomic wfcs

     Self-consistent Calculation

     iteration #  1     ecut=    50.00 Ry     beta= 0.30
     Davidson diagonalization with overlap

     ethr =  1.00E-02,  avg # of iterations =  1.9

     total energy              =   -1445.87150620 Ry
     estimated scf accuracy    <       2.85253036 Ry

[...]

     c_bands:  2 eigenvalues not converged
     c_bands:  1 eigenvalues not converged
     ethr =  1.71E-04,  avg # of iterations = 12.7

[...]

     total energy              =   -1446.53455042 Ry
     estimated scf accuracy    <       0.00000023 Ry

     iteration # 28     ecut=    50.00 Ry     beta= 0.30
     Davidson diagonalization with overlap

     ethr =  1.63E-10,  avg # of iterations =  4.1

     End of self-consistent calculation

          k = 0.0000 0.0000 0.0000 (  8323 PWs)   bands (ev):

   -11.3987 -11.1072 -11.1071 -10.8288 -10.8016 -10.7308 -10.7308 -10.6454
     0.4685   0.4685   0.5822   0.5982   0.5982   0.7197   0.7199   0.7536
     0.7817   0.7818   0.7819   0.7819   0.8301   0.8860   0.8862   0.9378
     1.0197   1.1387   1.1387   1.2367   1.2367   1.2775   1.3514   1.3955
     1.6666   1.6667   1.7109   1.7692   1.7692   1.7692   1.7692   1.8082
     1.8276   1.8276   1.8376   1.8377   1.8768   1.9062   1.9062   1.9399
     2.0979   2.4284   2.4565   2.4565   2.7709   3.4758   3.8586   3.8586
     4.0628   4.7197   4.7197   4.8173   4.8173   4.8937   5.3141   5.3476
     5.3480   5.7008   5.7008   5.7012   5.7012   5.9806   6.0451   6.0455

     occupation numbers
     1.0000   1.0000   1.0000   1.0000   1.0000   1.0000   1.0000   1.0000
     1.0000   1.0000   1.0000   1.0000   1.0000   1.0000   1.0000   1.0000
     1.0000   1.0000   1.0000   1.0000   1.0000   1.0000   1.0000   1.0000
     1.0000   1.0000   1.0000   1.0000   1.0000   1.0000   1.0000   1.0000
     1.0000   1.0000   1.0000   1.0000   1.0000   1.0000   1.0000   1.0000
     1.0000   1.0000   1.0000   1.0000   1.0000   1.0000   1.0000   1.0000
     1.0000   1.0000   1.0000   1.0000   1.0000   1.0000   1.0000   1.0000
     1.0000   1.0000   1.0000   1.0000   1.0000   1.0000   1.0000   1.0000
     1.0000   1.0000   1.0000   1.0000   1.0000   1.0000   1.0000   1.0000

[...]

          k =-0.5000-0.2887 0.0000 (  8336 PWs)   bands (ev):

[...]

          k =-0.3333-0.0962-0.1032 (  8381 PWs)   bands (ev):

[...]

          k = 0.5000-0.0962-0.1032 (  8382 PWs)   bands (ev):

   -10.8205 -10.8205 -10.7822 -10.7822 -10.6856 -10.6856 -10.6534 -10.6534
     0.5908   0.5908   0.6438   0.6438   0.6883   0.6883   0.8383   0.8383
     0.9665   0.9665   0.9760   0.9760   1.1294   1.1294   1.1624   1.1624
     1.2426   1.2426   1.2559   1.2559   1.3302   1.3302   1.3619   1.3619
     1.6642   1.6642   1.7307   1.7307   1.7659   1.7659   1.7892   1.7892
     1.8884   1.8884   1.8997   1.8997   2.0049   2.0049   2.0553   2.0553
     2.4238   2.4238   2.5333   2.5333   2.8438   2.8438   2.9557   2.9557
     3.5622   3.5622   3.8634   3.8634   3.9439   3.9439   4.3910   4.3910
     4.6490   4.6490   4.8587   4.8587   5.0432   5.0432   5.0962   5.0962

     occupation numbers
     1.0000   1.0000   1.0000   1.0000   1.0000   1.0000   1.0000   1.0000
     1.0000   1.0000   1.0000   1.0000   1.0000   1.0000   1.0000   1.0000
     1.0000   1.0000   1.0000   1.0000   1.0000   1.0000   1.0000   1.0000
     1.0000   1.0000   1.0000   1.0000   1.0000   1.0000   1.0000   1.0000
     1.0000   1.0000   1.0000   1.0000   1.0000   1.0000   1.0000   1.0000
     1.0000   1.0000   1.0000   1.0000   1.0000   1.0000   1.0000   1.0000
     1.0000   1.0000   1.0000   1.0000   1.0000   1.0000   1.0000   1.0000
     1.0000   1.0000   1.0000   1.0000   1.0000   1.0000   1.0000   1.0000
     1.0000   1.0000   1.0000   1.0000   1.0000   1.0000   1.0000   1.0000

     highest occupied level (ev):     6.0455

!    total energy              =   -1446.53455049 Ry
     estimated scf accuracy    <          2.7E-09 Ry

     The total energy is the sum of the following terms:
     one-electron contribution =    -645.15641373 Ry
     hartree contribution      =     482.81911540 Ry
     xc contribution           =    -437.71250760 Ry
     ewald contribution        =    -846.48474455 Ry

     convergence has been achieved in  28 iterations

     Forces acting on atoms (cartesian axes, Ry/au):

     atom    1 type  1   force =     0.00000000   -0.00000114   -0.00002574
     atom    2 type  1   force =     0.00000000    0.00000635   -0.00005985
     atom    3 type  2   force =     0.00000000    0.00000397    0.00004822
     atom    4 type  2   force =     0.00000000   -0.00000343    0.00004344
     atom    5 type  1   force =     0.00000000   -0.00000108   -0.00006003
     atom    6 type  1   force =     0.00000000   -0.00000075   -0.00003866
     atom    7 type  2   force =     0.00000000    0.00000293    0.00004649
     atom    8 type  2   force =     0.00000000   -0.00000279    0.00004726
     atom    9 type  1   force =     0.00000000   -0.00001133   -0.00003022
     atom   10 type  1   force =     0.00000000    0.00000682   -0.00006802
     atom   11 type  2   force =     0.00000000    0.00000261    0.00004760
     atom   12 type  2   force =     0.00000000   -0.00000390    0.00004404
     atom   13 type  1   force =     0.00000000   -0.00000962   -0.00005360
     atom   14 type  1   force =     0.00000000    0.00001142   -0.00003533
     atom   15 type  2   force =     0.00000000    0.00000331    0.00004728
     atom   16 type  2   force =     0.00000000   -0.00000336    0.00004713
     The non-local contrib.  to forces
     atom    1 type  1   force =     0.00000000    0.00001835   -0.00461136
     atom    2 type  1   force =     0.00000000   -0.00001608   -0.00463063
     atom    3 type  2   force =     0.00000000    0.00020802    0.00596456
     atom    4 type  2   force =     0.00000000   -0.00020829    0.00596211
     atom    5 type  1   force =     0.00000000    0.00001895   -0.00463119
     atom    6 type  1   force =     0.00000000   -0.00002052   -0.00462133
     atom    7 type  2   force =     0.00000000    0.00020891    0.00597066
     atom    8 type  2   force =     0.00000000   -0.00020937    0.00596973
     atom    9 type  1   force =     0.00000000    0.00001291   -0.00461432
     atom   10 type  1   force =     0.00000000   -0.00001596   -0.00463403
     atom   11 type  2   force =     0.00000000    0.00021120    0.00596348
     atom   12 type  2   force =     0.00000000   -0.00021265    0.00596280
     atom   13 type  1   force =     0.00000000    0.00001396   -0.00462662
     atom   14 type  1   force =     0.00000000   -0.00001205   -0.00462070
     atom   15 type  2   force =     0.00000000    0.00021203    0.00597415
     atom   16 type  2   force =     0.00000000   -0.00020928    0.00596783
     The ionic contribution  to forces
     atom    1 type  1   force =    -0.00000000    0.00000000    0.06028145
     atom    2 type  1   force =     0.00000000   -0.00000000    0.06028145
     atom    3 type  2   force =    -0.00000000    0.00000000   -0.06028145
     atom    4 type  2   force =     0.00000000   -0.00000000   -0.06028145
     atom    5 type  1   force =    -0.00000000    0.00000000    0.06028145
     atom    6 type  1   force =     0.00000000   -0.00000000    0.06028145
     atom    7 type  2   force =    -0.00000000    0.00000000   -0.06028145
     atom    8 type  2   force =     0.00000000   -0.00000000   -0.06028145
     atom    9 type  1   force =    -0.00000000    0.00000000    0.06028145
     atom   10 type  1   force =     0.00000000   -0.00000000    0.06028145
     atom   11 type  2   force =    -0.00000000    0.00000000   -0.06028145
     atom   12 type  2   force =     0.00000000   -0.00000000   -0.06028145
     atom   13 type  1   force =    -0.00000000    0.00000000    0.06028145
     atom   14 type  1   force =     0.00000000   -0.00000000    0.06028145
     atom   15 type  2   force =    -0.00000000    0.00000000   -0.06028145
     atom   16 type  2   force =     0.00000000   -0.00000000   -0.06028145
     The local contribution  to forces
     atom    1 type  1   force =    -0.00000009   -0.00003610   -0.05613477
     atom    2 type  1   force =    -0.00000000    0.00002442   -0.05608151
     atom    3 type  2   force =    -0.00000002   -0.00020634    0.05442188
     atom    4 type  2   force =    -0.00000000    0.00020526    0.05441276
     atom    5 type  1   force =    -0.00000009   -0.00003396   -0.05608897
     atom    6 type  1   force =    -0.00000000    0.00004095   -0.05611773
     atom    7 type  2   force =    -0.00000002   -0.00020623    0.05443718
     atom    8 type  2   force =    -0.00000000    0.00020210    0.05443426
     atom    9 type  1   force =    -0.00000009   -0.00001560   -0.05612432
     atom   10 type  1   force =    -0.00000000    0.00002762   -0.05606880
     atom   11 type  2   force =    -0.00000002   -0.00020239    0.05442089
     atom   12 type  2   force =    -0.00000000    0.00020441    0.05441285
     atom   13 type  1   force =    -0.00000009   -0.00001989   -0.05609975
     atom   14 type  1   force =     0.00000000    0.00001287   -0.05612089
     atom   15 type  2   force =    -0.00000002   -0.00020486    0.05443979
     atom   16 type  2   force =     0.00000000    0.00020783    0.05443464
     The core correction contribution to forces
     atom    1 type  1   force =     0.00000002    0.00000628    0.00040388
     atom    2 type  1   force =     0.00000007   -0.00000564    0.00040017
     atom    3 type  2   force =     0.00000000   -0.00000236   -0.00006754
     atom    4 type  2   force =     0.00000000    0.00000236   -0.00006651
     atom    5 type  1   force =     0.00000002    0.00000605    0.00040137
     atom    6 type  1   force =     0.00000007   -0.00000609    0.00040485
     atom    7 type  2   force =     0.00000000   -0.00000237   -0.00006748
     atom    8 type  2   force =     0.00000000    0.00000238   -0.00006848
     atom    9 type  1   force =    -0.00000008    0.00000549    0.00040359
     atom   10 type  1   force =    -0.00000004   -0.00000613    0.00039988
     atom   11 type  2   force =    -0.00000000   -0.00000240   -0.00006752
     atom   12 type  2   force =    -0.00000000    0.00000241   -0.00006653
     atom   13 type  1   force =    -0.00000008    0.00000567    0.00040148
     atom   14 type  1   force =    -0.00000004   -0.00000560    0.00040489
     atom   15 type  2   force =    -0.00000000   -0.00000241   -0.00006752
     atom   16 type  2   force =    -0.00000000    0.00000238   -0.00006846
     The Hubbard contrib.    to forces
     atom    1 type  1   force =     0.00000000    0.00000000    0.00000000
     atom    2 type  1   force =     0.00000000    0.00000000    0.00000000
     atom    3 type  2   force =     0.00000000    0.00000000    0.00000000
     atom    4 type  2   force =     0.00000000    0.00000000    0.00000000
     atom    5 type  1   force =     0.00000000    0.00000000    0.00000000
     atom    6 type  1   force =     0.00000000    0.00000000    0.00000000
     atom    7 type  2   force =     0.00000000    0.00000000    0.00000000
     atom    8 type  2   force =     0.00000000    0.00000000    0.00000000
     atom    9 type  1   force =     0.00000000    0.00000000    0.00000000
     atom   10 type  1   force =     0.00000000    0.00000000    0.00000000
     atom   11 type  2   force =     0.00000000    0.00000000    0.00000000
     atom   12 type  2   force =     0.00000000    0.00000000    0.00000000
     atom   13 type  1   force =     0.00000000    0.00000000    0.00000000
     atom   14 type  1   force =     0.00000000    0.00000000    0.00000000
     atom   15 type  2   force =     0.00000000    0.00000000    0.00000000
     atom   16 type  2   force =     0.00000000    0.00000000    0.00000000
     The SCF correction term to forces
     atom    1 type  1   force =     0.00000000    0.00001042    0.00003461
     atom    2 type  1   force =    -0.00000000    0.00000376   -0.00002977
     atom    3 type  2   force =    -0.00000000    0.00000474    0.00001033
     atom    4 type  2   force =    -0.00000000   -0.00000266    0.00001609
     atom    5 type  1   force =     0.00000000    0.00000797   -0.00002313
     atom    6 type  1   force =    -0.00000000   -0.00001499    0.00001367
     atom    7 type  2   force =    -0.00000000    0.00000271   -0.00001285
     atom    8 type  2   force =    -0.00000000    0.00000220   -0.00000723
     atom    9 type  1   force =     0.00000000   -0.00001404    0.00002293
     atom   10 type  1   force =    -0.00000000    0.00000139   -0.00004696
     atom   11 type  2   force =     0.00000000   -0.00000370    0.00001177
     atom   12 type  2   force =     0.00000000    0.00000203    0.00001592
     atom   13 type  1   force =     0.00000000   -0.00000928   -0.00001059
     atom   14 type  1   force =    -0.00000000    0.00001630    0.00001949
     atom   15 type  2   force =     0.00000000   -0.00000136   -0.00001814
     atom   16 type  2   force =     0.00000000   -0.00000419   -0.00000586

     Total force =     0.000192     Total SCF correction =     0.000092
     SCF correction compared to forces is large: reduce conv_thr to get better values

     General routines

     Parallel routines

   This run was terminated on:   7:21:32  29Aug2025

   JOB DONE.
Note: The following floating-point exceptions are signalling: IEEE_UNDERFLOW_FLAG IEEE_DENORMAL
Note: The following floating-point exceptions are signalling: IEEE_UNDERFLOW_FLAG IEEE_DENORMAL
Note: The following floating-point exceptions are signalling: IEEE_UNDERFLOW_FLAG IEEE_DENORMAL
Note: The following floating-point exceptions are signalling: IEEE_UNDERFLOW_FLAG IEEE_DENORMAL
Note: The following floating-point exceptions are signalling: IEEE_UNDERFLOW_FLAG IEEE_DENORMAL
Note: The following floating-point exceptions are signalling: IEEE_UNDERFLOW_FLAG IEEE_DENORMAL
Note: The following floating-point exceptions are signalling: IEEE_UNDERFLOW_FLAG IEEE_DENORMAL
Note: The following floating-point exceptions are signalling: IEEE_UNDERFLOW_FLAG IEEE_DENORMAL
Note: The following floating-point exceptions are signalling: IEEE_UNDERFLOW_FLAG IEEE_DENORMAL
Note: The following floating-point exceptions are signalling: IEEE_UNDERFLOW_FLAG IEEE_DENORMAL
Note: The following floating-point exceptions are signalling: IEEE_UNDERFLOW_FLAG IEEE_DENORMAL
Note: The following floating-point exceptions are signalling: IEEE_UNDERFLOW_FLAG IEEE_DENORMAL
Note: The following floating-point exceptions are signalling: IEEE_UNDERFLOW_FLAG IEEE_DENORMAL
Note: The following floating-point exceptions are signalling: IEEE_UNDERFLOW_FLAG IEEE_DENORMAL
Note: The following floating-point exceptions are signalling: IEEE_UNDERFLOW_FLAG IEEE_DENORMAL
Note: The following floating-point exceptions are signalling: IEEE_UNDERFLOW_FLAG IEEE_DENORMAL
Note: The following floating-point exceptions are signalling: IEEE_UNDERFLOW_FLAG IEEE_DENORMAL
Note: The following floating-point exceptions are signalling: IEEE_UNDERFLOW_FLAG IEEE_DENORMAL
Note: The following floating-point exceptions are signalling: IEEE_UNDERFLOW_FLAG IEEE_DENORMAL
Note: The following floating-point exceptions are signalling: IEEE_UNDERFLOW_FLAG IEEE_DENORMAL
Note: The following floating-point exceptions are signalling: IEEE_UNDERFLOW_FLAG IEEE_DENORMAL
Note: The following floating-point exceptions are signalling: IEEE_UNDERFLOW_FLAG IEEE_DENORMAL
Note: The following floating-point exceptions are signalling: IEEE_UNDERFLOW_FLAG IEEE_DENORMAL
Note: The following floating-point exceptions are signalling: IEEE_UNDERFLOW_FLAG IEEE_DENORMAL
Note: The following floating-point exceptions are signalling: IEEE_UNDERFLOW_FLAG IEEE_DENORMAL
Note: The following floating-point exceptions are signalling: IEEE_UNDERFLOW_FLAG IEEE_DENORMAL
Note: The following floating-point exceptions are signalling: IEEE_UNDERFLOW_FLAG IEEE_DENORMAL
Note: The following floating-point exceptions are signalling: IEEE_UNDERFLOW_FLAG IEEE_DENORMAL
Note: The following floating-point exceptions are signalling: IEEE_UNDERFLOW_FLAG IEEE_DENORMAL
Note: The following floating-point exceptions are signalling: IEEE_UNDERFLOW_FLAG IEEE_DENORMAL
Note: The following floating-point exceptions are signalling: IEEE_UNDERFLOW_FLAG IEEE_DENORMAL
Note: The following floating-point exceptions are signalling: IEEE_UNDERFLOW_FLAG IEEE_DENORMAL