     Program PWSCF v.7.2 starts on 12Jul2025 at 12: 4: 5

     Reading input from /home/jvc/QEspresso7.2/ZnO_database/scripts/cell211_strain10%.in/ZnO-2.94-1.61-211.in
Warning: card &CELL ignored
Warning: card / ignored
Warning: card &FCP ignored
Warning: card / ignored
Warning: card &RISM ignored
Warning: card / ignored

     Current dimensions of program PWSCF are:
     Max number of different atomic species (ntypx) = 10
     Max number of k-points (npk) =  40000
     Max angular momentum in pseudopotentials (lmaxx) =  4
     file Zn.upf: wavefunction(s)  3D renormalized
     Found identity + ( -0.5000  0.0000  0.0000) symmetry
     This is a supercell, fractional translations are disabled
     Message from routine setup:
     using ibrav=0 with symmetry is DISCOURAGED, use correct ibrav instead

     K-points division:     npool     =       2
     R & G space division:  proc/nbgrp/npool/nimage =       8
     Subspace diagonalization in iterative solution of the eigenvalue problem:
     a serial algorithm will be used

     Using Slab Decomposition

     bravais-lattice index     =            0
     lattice parameter (alat)  =      11.1219  a.u.
     unit-cell volume          =     480.8525 (a.u.)^3
     number of atoms/cell      =            8
     number of atomic types    =            2
     number of electrons       =        72.00
     number of Kohn-Sham states=           36
     kinetic-energy cutoff     =      50.0000  Ry
     charge density cutoff     =     400.0000  Ry
     scf convergence threshold =      1.0E-08
     mixing beta               =       0.3000
     number of iterations used =            8  plain     mixing
     Exchange-correlation= PBE
                           (   1   4   3   4   0   0   0)

     celldm(1)=  11.121937  celldm(2)=   0.000000  celldm(3)=   0.000000
     celldm(4)=   0.000000  celldm(5)=   0.000000  celldm(6)=   0.000000

     crystal axes: (cart. coord. in units of alat)
               a(1) = (   1.000000   0.000000   0.000000 )
               a(2) = (  -0.250000   0.433013   0.000000 )
               a(3) = (   0.000000   0.000000   0.807179 )

     reciprocal axes: (cart. coord. in units 2 pi/alat)
               b(1) = (  1.000000  0.577350 -0.000000 )
               b(2) = (  0.000000  2.309401  0.000000 )
               b(3) = (  0.000000 -0.000000  1.238882 )

     PseudoPot. # 1 for Zn read from file:
     /home/jvc/QEspresso7.2/ZnO_database/pseudos/Zn.upf
     MD5 check sum: 7f56cabf9682ed8c977c2f7d0c5985c5
     Pseudo is Ultrasoft + core correction, Zval = 12.0
     Generated using &quot;atomic&quot; code by A. Dal Corso  v.6.2.2
     Using radial grid of 1201 points,  6 beta functions with:
                l(1) =   0
                l(2) =   0
                l(3) =   1
                l(4) =   1
                l(5) =   2
                l(6) =   2
     Q(r) pseudized with 0 coefficients

     PseudoPot. # 2 for O  read from file:
     /home/jvc/QEspresso7.2/ZnO_database/pseudos/O.upf
     MD5 check sum: 91400c9766925bcf19f520983a725ff0
     Pseudo is Ultrasoft + core correction, Zval =  6.0
     Generated using &quot;atomic&quot; code by A. Dal Corso  v.6.3MaX
     Using radial grid of 1095 points,  4 beta functions with:
                l(1) =   0
                l(2) =   0
                l(3) =   1
                l(4) =   1
     Q(r) pseudized with 0 coefficients

     atomic species   valence    mass     pseudopotential
        Zn            12.00    65.38000     Zn( 1.00)
        O              6.00    15.99900     O ( 1.00)

      2 Sym. Ops. (no inversion) found

   Cartesian axes

     site n.     atom                  positions (alat units)
         1           Zn  tau(   1) = (   0.0000000   0.0000000   0.0000000  )
         2           O   tau(   2) = (   0.0000000   0.2886751   0.0985546  )
         3           Zn  tau(   3) = (   0.0000000   0.2886751   0.4035896  )
         4           O   tau(   4) = (   0.0000000   0.0000000   0.5021442  )
         5           Zn  tau(   5) = (   0.5000000   0.0000000   0.0000000  )
         6           O   tau(   6) = (   0.5000000   0.2886751   0.0985546  )
         7           Zn  tau(   7) = (   0.5000000   0.2886751   0.4035896  )
         8           O   tau(   8) = (   0.5000000   0.0000000   0.5021442  )

     number of k points=    80
                       cart. coord. in units 2pi/alat
        k(    1) = (   0.0000000   0.0000000   0.0000000), wk =   0.0092593
        k(    2) = (   0.0000000   0.0000000   0.2064804), wk =   0.0185185
        k(    3) = (   0.0000000   0.0000000   0.4129608), wk =   0.0185185
        k(    4) = (   0.0000000   0.0000000  -0.6194412), wk =   0.0092593
        k(    5) = (   0.0000000   0.3849002   0.0000000), wk =   0.0370370
        k(    6) = (   0.0000000   0.3849002   0.2064804), wk =   0.0370370
        k(    7) = (   0.0000000   0.3849002   0.4129608), wk =   0.0370370
        k(    8) = (   0.0000000   0.3849002  -0.6194412), wk =   0.0370370
        k(    9) = (   0.0000000   0.7698004   0.0000000), wk =   0.0370370
        k(   10) = (   0.0000000   0.7698004   0.2064804), wk =   0.0370370
        k(   11) = (   0.0000000   0.7698004   0.4129608), wk =   0.0370370
        k(   12) = (   0.0000000   0.7698004  -0.6194412), wk =   0.0370370
        k(   13) = (   0.0000000  -1.1547005   0.0000000), wk =   0.0092593
        k(   14) = (   0.0000000  -1.1547005   0.2064804), wk =   0.0185185
        k(   15) = (   0.0000000  -1.1547005   0.4129608), wk =   0.0185185
        k(   16) = (   0.0000000  -1.1547005  -0.6194412), wk =   0.0092593
        k(   17) = (   0.1666667   0.0962250   0.0000000), wk =   0.0185185
        k(   18) = (   0.1666667   0.0962250   0.2064804), wk =   0.0185185
        k(   19) = (   0.1666667   0.0962250   0.4129608), wk =   0.0185185
        k(   20) = (   0.1666667   0.0962250  -0.6194412), wk =   0.0185185
        k(   21) = (   0.1666667   0.4811252   0.0000000), wk =   0.0370370
        k(   22) = (   0.1666667   0.4811252   0.2064804), wk =   0.0370370
        k(   23) = (   0.1666667   0.4811252   0.4129608), wk =   0.0370370
        k(   24) = (   0.1666667   0.4811252  -0.6194412), wk =   0.0370370
        k(   25) = (   0.1666667   0.8660254   0.0000000), wk =   0.0185185
        k(   26) = (   0.1666667   0.8660254   0.2064804), wk =   0.0370370
        k(   27) = (   0.1666667   0.8660254   0.4129608), wk =   0.0370370
        k(   28) = (   0.1666667   0.8660254  -0.6194412), wk =   0.0185185
        k(   29) = (   0.1666667  -1.0584755   0.0000000), wk =   0.0185185
        k(   30) = (   0.1666667  -1.0584755   0.2064804), wk =   0.0185185
        k(   31) = (   0.1666667  -1.0584755   0.4129608), wk =   0.0185185
        k(   32) = (   0.1666667  -1.0584755  -0.6194412), wk =   0.0185185
        k(   33) = (   0.1666667  -0.6735753   0.0000000), wk =   0.0370370
        k(   34) = (   0.1666667  -0.6735753   0.2064804), wk =   0.0370370
        k(   35) = (   0.1666667  -0.6735753   0.4129608), wk =   0.0370370
        k(   36) = (   0.1666667  -0.6735753  -0.6194412), wk =   0.0370370
        k(   37) = (   0.1666667  -0.2886751   0.0000000), wk =   0.0185185
        k(   38) = (   0.1666667  -0.2886751   0.2064804), wk =   0.0370370
        k(   39) = (   0.1666667  -0.2886751   0.4129608), wk =   0.0370370
        k(   40) = (   0.1666667  -0.2886751  -0.6194412), wk =   0.0185185
        k(   41) = (   0.3333333   0.1924501   0.0000000), wk =   0.0185185
        k(   42) = (   0.3333333   0.1924501   0.2064804), wk =   0.0185185
        k(   43) = (   0.3333333   0.1924501   0.4129608), wk =   0.0185185
        k(   44) = (   0.3333333   0.1924501  -0.6194412), wk =   0.0185185
        k(   45) = (   0.3333333   0.5773503   0.0000000), wk =   0.0185185
        k(   46) = (   0.3333333   0.5773503   0.2064804), wk =   0.0370370
        k(   47) = (   0.3333333   0.5773503   0.4129608), wk =   0.0370370
        k(   48) = (   0.3333333   0.5773503  -0.6194412), wk =   0.0185185
        k(   49) = (   0.3333333  -0.9622504   0.0000000), wk =   0.0185185
        k(   50) = (   0.3333333  -0.9622504   0.2064804), wk =   0.0185185
        k(   51) = (   0.3333333  -0.9622504   0.4129608), wk =   0.0185185
        k(   52) = (   0.3333333  -0.9622504  -0.6194412), wk =   0.0185185
        k(   53) = (   0.3333333  -0.5773503   0.0000000), wk =   0.0185185
        k(   54) = (   0.3333333  -0.5773503   0.2064804), wk =   0.0370370
        k(   55) = (   0.3333333  -0.5773503   0.4129608), wk =   0.0370370
        k(   56) = (   0.3333333  -0.5773503  -0.6194412), wk =   0.0185185
        k(   57) = (  -0.5000000  -0.2886751   0.0000000), wk =   0.0092593
        k(   58) = (  -0.5000000  -0.2886751   0.2064804), wk =   0.0185185
        k(   59) = (  -0.5000000  -0.2886751   0.4129608), wk =   0.0185185
        k(   60) = (  -0.5000000  -0.2886751  -0.6194412), wk =   0.0092593
[...]
        k(   66) = (   0.3333333  -0.1924501  -0.4129608), wk =   0.0370370
        k(   67) = (   0.6666667  -0.3849002  -0.2064804), wk =   0.0370370
        k(   68) = (   0.6666667  -0.3849002  -0.4129608), wk =   0.0370370
        k(   69) = (   0.1666667   0.0962250  -0.2064804), wk =   0.0185185
        k(   70) = (   0.1666667   0.0962250  -0.4129608), wk =   0.0185185
        k(   71) = (   0.5000000  -0.0962250  -0.2064804), wk =   0.0370370
        k(   72) = (   0.5000000  -0.0962250  -0.4129608), wk =   0.0370370
        k(   73) = (  -0.8333333   0.6735753  -0.2064804), wk =   0.0185185
        k(   74) = (  -0.8333333   0.6735753  -0.4129608), wk =   0.0185185
        k(   75) = (  -0.5000000   0.4811252  -0.2064804), wk =   0.0370370
        k(   76) = (  -0.5000000   0.4811252  -0.4129608), wk =   0.0370370
        k(   77) = (   0.3333333   0.1924501  -0.2064804), wk =   0.0185185
        k(   78) = (   0.3333333   0.1924501  -0.4129608), wk =   0.0185185
        k(   79) = (  -0.6666667   0.7698004  -0.2064804), wk =   0.0185185
        k(   80) = (  -0.6666667   0.7698004  -0.4129608), wk =   0.0185185

     Check: negative core charge=   -0.000001

     Initial potential from superposition of free atoms

     starting charge      71.9851, renormalised to      72.0000
     Starting wfcs are   52 randomized atomic wfcs

     Self-consistent Calculation

     iteration #  1     ecut=    50.00 Ry     beta= 0.30
     Davidson diagonalization with overlap
     ethr =  1.00E-02,  avg # of iterations =  2.1

     total energy              =    -722.61161587 Ry
     estimated scf accuracy    <       1.36941879 Ry

[...]

     iteration # 14     ecut=    50.00 Ry     beta= 0.30
     Davidson diagonalization with overlap
     c_bands:  3 eigenvalues not converged
     c_bands:  1 eigenvalues not converged
     c_bands:  1 eigenvalues not converged
     c_bands:  1 eigenvalues not converged
     c_bands:  1 eigenvalues not converged
     ethr =  5.13E-11,  avg # of iterations = 15.3

[...]

     total energy              =    -722.86611612 Ry
     estimated scf accuracy    <       0.00000001 Ry

     iteration # 17     ecut=    50.00 Ry     beta= 0.30
     Davidson diagonalization with overlap
     ethr =  1.58E-11,  avg # of iterations =  2.1

     End of self-consistent calculation

          k = 0.0000 0.0000 0.0000 (  2873 PWs)   bands (ev):

    -8.5232  -7.3184  -7.2578  -6.9329   4.0713   4.1439   4.1590   4.7716
     4.7717   4.8297   5.0771   5.0773   5.1545   5.3539   5.7445   5.9934
     6.9920   6.9920   7.0053   7.3240   7.3911   7.3911   7.4863   7.5885
     7.7461   7.8309   8.2171   8.7159   9.1244  10.6582  11.2021  11.2606
    11.2608  12.2584  12.4576  12.4578

[...]

          k =-0.5000-0.2887 0.0000 (  2866 PWs)   bands (ev):

[...]

          k = 0.3333 0.1925-0.4130 (  2870 PWs)   bands (ev):

[...]

          k =-0.6667 0.7698-0.4130 (  2874 PWs)   bands (ev):

    -7.2178  -7.2178  -7.0099  -7.0099   4.0290   4.0290   4.1114   4.1114
     5.0534   5.0534   5.1759   5.1759   5.6458   5.6458   5.7266   5.7266
     7.0694   7.0694   7.2629   7.2629   7.4902   7.4902   7.6883   7.6883
     7.9651   7.9651   8.4693   8.4693   9.1168   9.1168   9.7625   9.7625
    10.2953  10.2953  10.8407  10.8407

     highest occupied level (ev):    12.4578

!    total energy              =    -722.86611612 Ry
     estimated scf accuracy    <          6.2E-09 Ry

     The total energy is the sum of the following terms:
     one-electron contribution =    -233.25385906 Ry
     hartree contribution      =     210.72138574 Ry
     xc contribution           =    -220.65683898 Ry
     ewald contribution        =    -479.67680382 Ry

     convergence has been achieved in  17 iterations

     Forces acting on atoms (cartesian axes, Ry/au):

     atom    1 type  1   force =    -0.00002051   -0.00001184    0.00214937
     atom    2 type  2   force =     0.00000074    0.00000043   -0.00215828
     atom    3 type  1   force =     0.00001053    0.00000608    0.00216323
     atom    4 type  2   force =     0.00000103    0.00000060   -0.00215403
     atom    5 type  1   force =    -0.00001431   -0.00000826    0.00215577
     atom    6 type  2   force =    -0.00000102   -0.00000059   -0.00215999
     atom    7 type  1   force =     0.00002013    0.00001162    0.00215793
     atom    8 type  2   force =     0.00000341    0.00000197   -0.00215401
     The non-local contrib.  to forces
     atom    1 type  1   force =     0.00002822    0.00001629    0.01473905
     atom    2 type  2   force =    -0.00014552   -0.00008402    0.00503208
     atom    3 type  1   force =    -0.00003379   -0.00001951    0.01474546
     atom    4 type  2   force =     0.00014707    0.00008491    0.00503074
     atom    5 type  1   force =     0.00003214    0.00001856    0.01474232
     atom    6 type  2   force =    -0.00014992   -0.00008656    0.00502966
     atom    7 type  1   force =    -0.00002651   -0.00001531    0.01474301
     atom    8 type  2   force =     0.00014803    0.00008546    0.00503160
     The ionic contribution  to forces
     atom    1 type  1   force =     0.00000000    0.00000000   -0.02565103
     atom    2 type  2   force =    -0.00000000   -0.00000000    0.02565103
     atom    3 type  1   force =    -0.00000000   -0.00000000   -0.02565103
     atom    4 type  2   force =     0.00000000    0.00000000    0.02565103
     atom    5 type  1   force =     0.00000000    0.00000000   -0.02565103
     atom    6 type  2   force =    -0.00000000   -0.00000000    0.02565103
     atom    7 type  1   force =    -0.00000000   -0.00000000   -0.02565103
     atom    8 type  2   force =     0.00000000    0.00000000    0.02565103
     The local contribution  to forces
     atom    1 type  1   force =    -0.00004190   -0.00002419    0.01500399
     atom    2 type  2   force =     0.00014590    0.00008424   -0.03282630
     atom    3 type  1   force =     0.00006135    0.00003542    0.01497606
     atom    4 type  2   force =    -0.00014373   -0.00008298   -0.03282109
     atom    5 type  1   force =    -0.00005440   -0.00003141    0.01499056
     atom    6 type  2   force =     0.00014285    0.00008247   -0.03282372
     atom    7 type  1   force =     0.00003665    0.00002116    0.01498736
     atom    8 type  2   force =    -0.00014578   -0.00008416   -0.03281899
     The core correction contribution to forces
     atom    1 type  1   force =     0.00000344    0.00000198   -0.00192213
     atom    2 type  2   force =     0.00000162    0.00000094   -0.00002467
     atom    3 type  1   force =    -0.00000370   -0.00000213   -0.00192144
     atom    4 type  2   force =    -0.00000164   -0.00000095   -0.00002464
     atom    5 type  1   force =     0.00000361    0.00000209   -0.00192183
     atom    6 type  2   force =     0.00000168    0.00000097   -0.00002463
     atom    7 type  1   force =    -0.00000323   -0.00000187   -0.00192156
     atom    8 type  2   force =    -0.00000165   -0.00000095   -0.00002463
     The Hubbard contrib.    to forces
     atom    1 type  1   force =     0.00000000    0.00000000    0.00000000
     atom    2 type  2   force =     0.00000000    0.00000000    0.00000000
     atom    3 type  1   force =     0.00000000    0.00000000    0.00000000
     atom    4 type  2   force =     0.00000000    0.00000000    0.00000000
     atom    5 type  1   force =     0.00000000    0.00000000    0.00000000
     atom    6 type  2   force =     0.00000000    0.00000000    0.00000000
     atom    7 type  1   force =     0.00000000    0.00000000    0.00000000
     atom    8 type  2   force =     0.00000000    0.00000000    0.00000000
     The SCF correction term to forces
     atom    1 type  1   force =    -0.00001127   -0.00000651   -0.00002256
     atom    2 type  2   force =    -0.00000228   -0.00000132    0.00000753
     atom    3 type  1   force =    -0.00001435   -0.00000829    0.00001213
     atom    4 type  2   force =    -0.00000168   -0.00000097    0.00000788
     atom    5 type  1   force =     0.00000331    0.00000191   -0.00000631
     atom    6 type  2   force =     0.00000337    0.00000194    0.00000562
     atom    7 type  1   force =     0.00001221    0.00000705   -0.00000190
     atom    8 type  2   force =     0.00000180    0.00000104    0.00000493

     Total force =     0.006100     Total SCF correction =     0.000040

     Writing all to output data dir ./ZnO-2.94-1.61-211.in.save/

     General routines

     Parallel routines

   This run was terminated on:  12: 6:11  12Jul2025

   JOB DONE.
Note: The following floating-point exceptions are signalling: IEEE_INVALID_FLAG
Note: The following floating-point exceptions are signalling: IEEE_INVALID_FLAG