     Program PWSCF v.7.2 starts on 12Jul2025 at 13:46:27

     Reading input from /home/jvc/QEspresso7.2/ZnO_database/scripts/cell211_strain10%.in/ZnO-3.14-1.74-211.in
Warning: card &CELL ignored
Warning: card / ignored
Warning: card &FCP ignored
Warning: card / ignored
Warning: card &RISM ignored
Warning: card / ignored

     Current dimensions of program PWSCF are:
     Max number of different atomic species (ntypx) = 10
     Max number of k-points (npk) =  40000
     Max angular momentum in pseudopotentials (lmaxx) =  4
     file Zn.upf: wavefunction(s)  3D renormalized
     Found identity + ( -0.5000  0.0000  0.0000) symmetry
     This is a supercell, fractional translations are disabled
     Message from routine setup:
     using ibrav=0 with symmetry is DISCOURAGED, use correct ibrav instead

     K-points division:     npool     =       2
     R & G space division:  proc/nbgrp/npool/nimage =       8
     Subspace diagonalization in iterative solution of the eigenvalue problem:
     a serial algorithm will be used

     Using Slab Decomposition

     bravais-lattice index     =            0
     lattice parameter (alat)  =      11.8634  a.u.
     unit-cell volume          =     630.2630 (a.u.)^3
     number of atoms/cell      =            8
     number of atomic types    =            2
     number of electrons       =        72.00
     number of Kohn-Sham states=           36
     kinetic-energy cutoff     =      50.0000  Ry
     charge density cutoff     =     400.0000  Ry
     scf convergence threshold =      1.0E-08
     mixing beta               =       0.3000
     number of iterations used =            8  plain     mixing
     Exchange-correlation= PBE
                           (   1   4   3   4   0   0   0)

     celldm(1)=  11.863400  celldm(2)=   0.000000  celldm(3)=   0.000000
     celldm(4)=   0.000000  celldm(5)=   0.000000  celldm(6)=   0.000000

     crystal axes: (cart. coord. in units of alat)
               a(1) = (   1.000000   0.000000   0.000000 )
               a(2) = (  -0.250000   0.433013   0.000000 )
               a(3) = (   0.000000   0.000000   0.871754 )

     reciprocal axes: (cart. coord. in units 2 pi/alat)
               b(1) = (  1.000000  0.577350 -0.000000 )
               b(2) = (  0.000000  2.309401  0.000000 )
               b(3) = (  0.000000 -0.000000  1.147113 )

     PseudoPot. # 1 for Zn read from file:
     /home/jvc/QEspresso7.2/ZnO_database/pseudos/Zn.upf
     MD5 check sum: 7f56cabf9682ed8c977c2f7d0c5985c5
     Pseudo is Ultrasoft + core correction, Zval = 12.0
     Generated using &quot;atomic&quot; code by A. Dal Corso  v.6.2.2
     Using radial grid of 1201 points,  6 beta functions with:
                l(1) =   0
                l(2) =   0
                l(3) =   1
                l(4) =   1
                l(5) =   2
                l(6) =   2
     Q(r) pseudized with 0 coefficients

     PseudoPot. # 2 for O  read from file:
     /home/jvc/QEspresso7.2/ZnO_database/pseudos/O.upf
     MD5 check sum: 91400c9766925bcf19f520983a725ff0
     Pseudo is Ultrasoft + core correction, Zval =  6.0
     Generated using &quot;atomic&quot; code by A. Dal Corso  v.6.3MaX
     Using radial grid of 1095 points,  4 beta functions with:
                l(1) =   0
                l(2) =   0
                l(3) =   1
                l(4) =   1
     Q(r) pseudized with 0 coefficients

     atomic species   valence    mass     pseudopotential
        Zn            12.00    65.38000     Zn( 1.00)
        O              6.00    15.99900     O ( 1.00)

      2 Sym. Ops. (no inversion) found

   Cartesian axes

     site n.     atom                  positions (alat units)
         1           Zn  tau(   1) = (   0.0000000   0.0000000   0.0000000  )
         2           O   tau(   2) = (   0.0000000   0.2886751   0.1223456  )
         3           Zn  tau(   3) = (   0.0000000   0.2886751   0.4358768  )
         4           O   tau(   4) = (   0.0000000   0.0000000   0.5582224  )
         5           Zn  tau(   5) = (   0.5000000   0.0000000   0.0000000  )
         6           O   tau(   6) = (   0.5000000   0.2886751   0.1223456  )
         7           Zn  tau(   7) = (   0.5000000   0.2886751   0.4358768  )
         8           O   tau(   8) = (   0.5000000   0.0000000   0.5582224  )

     number of k points=    80
                       cart. coord. in units 2pi/alat
        k(    1) = (   0.0000000   0.0000000   0.0000000), wk =   0.0092593
        k(    2) = (   0.0000000   0.0000000   0.1911855), wk =   0.0185185
        k(    3) = (   0.0000000   0.0000000   0.3823711), wk =   0.0185185
        k(    4) = (   0.0000000   0.0000000  -0.5735566), wk =   0.0092593
        k(    5) = (   0.0000000   0.3849002   0.0000000), wk =   0.0370370
        k(    6) = (   0.0000000   0.3849002   0.1911855), wk =   0.0370370
        k(    7) = (   0.0000000   0.3849002   0.3823711), wk =   0.0370370
        k(    8) = (   0.0000000   0.3849002  -0.5735566), wk =   0.0370370
        k(    9) = (   0.0000000   0.7698004   0.0000000), wk =   0.0370370
        k(   10) = (   0.0000000   0.7698004   0.1911855), wk =   0.0370370
        k(   11) = (   0.0000000   0.7698004   0.3823711), wk =   0.0370370
        k(   12) = (   0.0000000   0.7698004  -0.5735566), wk =   0.0370370
        k(   13) = (   0.0000000  -1.1547005   0.0000000), wk =   0.0092593
        k(   14) = (   0.0000000  -1.1547005   0.1911855), wk =   0.0185185
        k(   15) = (   0.0000000  -1.1547005   0.3823711), wk =   0.0185185
        k(   16) = (   0.0000000  -1.1547005  -0.5735566), wk =   0.0092593
        k(   17) = (   0.1666667   0.0962250   0.0000000), wk =   0.0185185
        k(   18) = (   0.1666667   0.0962250   0.1911855), wk =   0.0185185
        k(   19) = (   0.1666667   0.0962250   0.3823711), wk =   0.0185185
        k(   20) = (   0.1666667   0.0962250  -0.5735566), wk =   0.0185185
        k(   21) = (   0.1666667   0.4811252   0.0000000), wk =   0.0370370
        k(   22) = (   0.1666667   0.4811252   0.1911855), wk =   0.0370370
        k(   23) = (   0.1666667   0.4811252   0.3823711), wk =   0.0370370
        k(   24) = (   0.1666667   0.4811252  -0.5735566), wk =   0.0370370
        k(   25) = (   0.1666667   0.8660254   0.0000000), wk =   0.0185185
        k(   26) = (   0.1666667   0.8660254   0.1911855), wk =   0.0370370
        k(   27) = (   0.1666667   0.8660254   0.3823711), wk =   0.0370370
        k(   28) = (   0.1666667   0.8660254  -0.5735566), wk =   0.0185185
        k(   29) = (   0.1666667  -1.0584755   0.0000000), wk =   0.0185185
        k(   30) = (   0.1666667  -1.0584755   0.1911855), wk =   0.0185185
        k(   31) = (   0.1666667  -1.0584755   0.3823711), wk =   0.0185185
        k(   32) = (   0.1666667  -1.0584755  -0.5735566), wk =   0.0185185
        k(   33) = (   0.1666667  -0.6735753   0.0000000), wk =   0.0370370
        k(   34) = (   0.1666667  -0.6735753   0.1911855), wk =   0.0370370
        k(   35) = (   0.1666667  -0.6735753   0.3823711), wk =   0.0370370
        k(   36) = (   0.1666667  -0.6735753  -0.5735566), wk =   0.0370370
        k(   37) = (   0.1666667  -0.2886751   0.0000000), wk =   0.0185185
        k(   38) = (   0.1666667  -0.2886751   0.1911855), wk =   0.0370370
        k(   39) = (   0.1666667  -0.2886751   0.3823711), wk =   0.0370370
        k(   40) = (   0.1666667  -0.2886751  -0.5735566), wk =   0.0185185
        k(   41) = (   0.3333333   0.1924501   0.0000000), wk =   0.0185185
        k(   42) = (   0.3333333   0.1924501   0.1911855), wk =   0.0185185
        k(   43) = (   0.3333333   0.1924501   0.3823711), wk =   0.0185185
        k(   44) = (   0.3333333   0.1924501  -0.5735566), wk =   0.0185185
        k(   45) = (   0.3333333   0.5773503   0.0000000), wk =   0.0185185
        k(   46) = (   0.3333333   0.5773503   0.1911855), wk =   0.0370370
        k(   47) = (   0.3333333   0.5773503   0.3823711), wk =   0.0370370
        k(   48) = (   0.3333333   0.5773503  -0.5735566), wk =   0.0185185
        k(   49) = (   0.3333333  -0.9622504   0.0000000), wk =   0.0185185
        k(   50) = (   0.3333333  -0.9622504   0.1911855), wk =   0.0185185
        k(   51) = (   0.3333333  -0.9622504   0.3823711), wk =   0.0185185
        k(   52) = (   0.3333333  -0.9622504  -0.5735566), wk =   0.0185185
        k(   53) = (   0.3333333  -0.5773503   0.0000000), wk =   0.0185185
        k(   54) = (   0.3333333  -0.5773503   0.1911855), wk =   0.0370370
        k(   55) = (   0.3333333  -0.5773503   0.3823711), wk =   0.0370370
        k(   56) = (   0.3333333  -0.5773503  -0.5735566), wk =   0.0185185
        k(   57) = (  -0.5000000  -0.2886751   0.0000000), wk =   0.0092593
        k(   58) = (  -0.5000000  -0.2886751   0.1911855), wk =   0.0185185
        k(   59) = (  -0.5000000  -0.2886751   0.3823711), wk =   0.0185185
        k(   60) = (  -0.5000000  -0.2886751  -0.5735566), wk =   0.0092593
[...]
        k(   66) = (   0.3333333  -0.1924501  -0.3823711), wk =   0.0370370
        k(   67) = (   0.6666667  -0.3849002  -0.1911855), wk =   0.0370370
        k(   68) = (   0.6666667  -0.3849002  -0.3823711), wk =   0.0370370
        k(   69) = (   0.1666667   0.0962250  -0.1911855), wk =   0.0185185
        k(   70) = (   0.1666667   0.0962250  -0.3823711), wk =   0.0185185
        k(   71) = (   0.5000000  -0.0962250  -0.1911855), wk =   0.0370370
        k(   72) = (   0.5000000  -0.0962250  -0.3823711), wk =   0.0370370
        k(   73) = (  -0.8333333   0.6735753  -0.1911855), wk =   0.0185185
        k(   74) = (  -0.8333333   0.6735753  -0.3823711), wk =   0.0185185
        k(   75) = (  -0.5000000   0.4811252  -0.1911855), wk =   0.0370370
        k(   76) = (  -0.5000000   0.4811252  -0.3823711), wk =   0.0370370
        k(   77) = (   0.3333333   0.1924501  -0.1911855), wk =   0.0185185
        k(   78) = (   0.3333333   0.1924501  -0.3823711), wk =   0.0185185
        k(   79) = (  -0.6666667   0.7698004  -0.1911855), wk =   0.0185185
        k(   80) = (  -0.6666667   0.7698004  -0.3823711), wk =   0.0185185

     Check: negative core charge=   -0.000002

     Initial potential from superposition of free atoms

     starting charge      71.9851, renormalised to      72.0000
     Starting wfcs are   52 randomized atomic wfcs

     Self-consistent Calculation

     iteration #  1     ecut=    50.00 Ry     beta= 0.30
     Davidson diagonalization with overlap
     ethr =  1.00E-02,  avg # of iterations =  2.0

     total energy              =    -722.94883747 Ry
     estimated scf accuracy    <       1.36430930 Ry

[...]

     total energy              =    -723.25567671 Ry
     estimated scf accuracy    <       0.00000014 Ry

     iteration # 28     ecut=    50.00 Ry     beta= 0.30
     Davidson diagonalization with overlap
     ethr =  2.28E-11,  avg # of iterations =  8.6

     End of self-consistent calculation

          k = 0.0000 0.0000 0.0000 (  3801 PWs)   bands (ev):

   -10.6592 -10.0049  -9.9033  -9.7072   1.4648   1.5018   1.6049   1.6625
     1.8532   1.8535   2.0150   2.0862   2.0864   2.1514   2.5059   2.6418
     2.9680   3.0061   3.0061   3.1915   3.1915   3.2124   3.2510   3.3556
     3.3953   3.6532   4.1968   4.6511   5.4592   6.0268   6.8074   6.8078
     6.8865   7.3706   7.5980   7.5985

[...]

          k =-0.5000-0.2887 0.0000 (  3780 PWs)   bands (ev):

[...]

          k = 0.3333 0.1925-0.3824 (  3757 PWs)   bands (ev):

[...]

          k =-0.6667 0.7698-0.3824 (  3760 PWs)   bands (ev):

    -9.8568  -9.8568  -9.7525  -9.7524   1.5013   1.5013   1.5948   1.5948
     2.0122   2.0122   2.1889   2.1889   2.3686   2.3686   2.4607   2.4607
     3.0228   3.0228   3.1305   3.1305   3.3011   3.3011   3.4023   3.4023
     3.8310   3.8310   4.2295   4.2295   5.1860   5.1860   5.4981   5.4981
     6.0619   6.0619   6.2711   6.2711

     highest occupied level (ev):     7.5985

!    total energy              =    -723.25567674 Ry
     estimated scf accuracy    <          3.8E-09 Ry

     The total energy is the sum of the following terms:
     one-electron contribution =    -297.17832865 Ry
     hartree contribution      =     232.11152170 Ry
     xc contribution           =    -219.24647269 Ry
     ewald contribution        =    -438.94239711 Ry

     convergence has been achieved in  28 iterations

     Forces acting on atoms (cartesian axes, Ry/au):

     atom    1 type  1   force =    -0.00002088   -0.00001205   -0.00012031
     atom    2 type  2   force =     0.00000454    0.00000262    0.00012518
     atom    3 type  1   force =     0.00001095    0.00000632   -0.00012998
     atom    4 type  2   force =    -0.00000424   -0.00000245    0.00012508
     atom    5 type  1   force =    -0.00001113   -0.00000643   -0.00011804
     atom    6 type  2   force =     0.00000420    0.00000242    0.00012544
     atom    7 type  1   force =     0.00002080    0.00001201   -0.00013255
     atom    8 type  2   force =    -0.00000423   -0.00000244    0.00012518
     The non-local contrib.  to forces
     atom    1 type  1   force =     0.00001407    0.00000812   -0.10552853
     atom    2 type  2   force =    -0.00018987   -0.00010962   -0.08829087
     atom    3 type  1   force =    -0.00001860   -0.00001074   -0.10553354
     atom    4 type  2   force =     0.00019183    0.00011075   -0.08828933
     atom    5 type  1   force =     0.00001856    0.00001071   -0.10552795
     atom    6 type  2   force =    -0.00019271   -0.00011126   -0.08828981
     atom    7 type  1   force =    -0.00001320   -0.00000762   -0.10553421
     atom    8 type  2   force =     0.00019116    0.00011037   -0.08828992
     The ionic contribution  to forces
     atom    1 type  1   force =     0.00000000    0.00000000   -0.95056960
     atom    2 type  2   force =    -0.00000000   -0.00000000    0.95056960
     atom    3 type  1   force =    -0.00000000   -0.00000000   -0.95056960
     atom    4 type  2   force =     0.00000000    0.00000000    0.95056960
     atom    5 type  1   force =     0.00000000    0.00000000   -0.95056960
     atom    6 type  2   force =    -0.00000000   -0.00000000    0.95056960
     atom    7 type  1   force =    -0.00000000   -0.00000000   -0.95056960
     atom    8 type  2   force =     0.00000000    0.00000000    0.95056960
     The local contribution  to forces
     atom    1 type  1   force =    -0.00002916   -0.00001683    1.04967486
     atom    2 type  2   force =     0.00019322    0.00011155   -0.86284348
     atom    3 type  1   force =     0.00004295    0.00002480    1.04968782
     atom    4 type  2   force =    -0.00019147   -0.00011054   -0.86283948
     atom    5 type  1   force =    -0.00004232   -0.00002443    1.04967091
     atom    6 type  2   force =     0.00019000    0.00010970   -0.86284212
     atom    7 type  1   force =     0.00002789    0.00001610    1.04969226
     atom    8 type  2   force =    -0.00019322   -0.00011155   -0.86283949
     The core correction contribution to forces
     atom    1 type  1   force =     0.00000437    0.00000260    0.00629078
     atom    2 type  2   force =     0.00000215    0.00000124    0.00068127
     atom    3 type  1   force =    -0.00000448   -0.00000265    0.00629079
     atom    4 type  2   force =    -0.00000220   -0.00000126    0.00068125
     atom    5 type  1   force =     0.00000452    0.00000258    0.00629096
     atom    6 type  2   force =     0.00000220    0.00000127    0.00068126
     atom    7 type  1   force =    -0.00000443   -0.00000254    0.00629061
     atom    8 type  2   force =    -0.00000217   -0.00000125    0.00068126
     The Hubbard contrib.    to forces
     atom    1 type  1   force =     0.00000000    0.00000000    0.00000000
     atom    2 type  2   force =     0.00000000    0.00000000    0.00000000
     atom    3 type  1   force =     0.00000000    0.00000000    0.00000000
     atom    4 type  2   force =     0.00000000    0.00000000    0.00000000
     atom    5 type  1   force =     0.00000000    0.00000000    0.00000000
     atom    6 type  2   force =     0.00000000    0.00000000    0.00000000
     atom    7 type  1   force =     0.00000000    0.00000000    0.00000000
     atom    8 type  2   force =     0.00000000    0.00000000    0.00000000
     The SCF correction term to forces
     atom    1 type  1   force =    -0.00001017   -0.00000587    0.00001429
     atom    2 type  2   force =    -0.00000093   -0.00000054    0.00001076
     atom    3 type  1   force =    -0.00000887   -0.00000512   -0.00000336
     atom    4 type  2   force =    -0.00000238   -0.00000138    0.00000514
     atom    5 type  1   force =     0.00000814    0.00000470    0.00001973
     atom    6 type  2   force =     0.00000473    0.00000273    0.00000862
     atom    7 type  1   force =     0.00001055    0.00000609   -0.00000951
     atom    8 type  2   force =     0.00000001    0.00000001    0.00000583

     Total force =     0.000357     Total SCF correction =     0.000038
     SCF correction compared to forces is large: reduce conv_thr to get better values

     Writing all to output data dir ./ZnO-3.14-1.74-211.in.save/

     General routines

     Parallel routines

   This run was terminated on:  13:49:35  12Jul2025

   JOB DONE.
Note: The following floating-point exceptions are signalling: IEEE_INVALID_FLAG
Note: The following floating-point exceptions are signalling: IEEE_INVALID_FLAG