     Program PWSCF v.7.2 starts on 12Jul2025 at 15:57:20

     Reading input from /home/jvc/QEspresso7.2/ZnO_database/scripts/cell211_strain10%.in/ZnO-3.34-1.78-211.in
Warning: card &CELL ignored
Warning: card / ignored
Warning: card &FCP ignored
Warning: card / ignored
Warning: card &RISM ignored
Warning: card / ignored

     Current dimensions of program PWSCF are:
     Max number of different atomic species (ntypx) = 10
     Max number of k-points (npk) =  40000
     Max angular momentum in pseudopotentials (lmaxx) =  4
     file Zn.upf: wavefunction(s)  3D renormalized
     Found identity + ( -0.5000  0.0000  0.0000) symmetry
     This is a supercell, fractional translations are disabled
     Message from routine setup:
     using ibrav=0 with symmetry is DISCOURAGED, use correct ibrav instead

     K-points division:     npool     =       2
     R & G space division:  proc/nbgrp/npool/nimage =       8
     Subspace diagonalization in iterative solution of the eigenvalue problem:
     a serial algorithm will be used

     Using Slab Decomposition

     bravais-lattice index     =            0
     lattice parameter (alat)  =      12.6049  a.u.
     unit-cell volume          =     769.9767 (a.u.)^3
     number of atoms/cell      =            8
     number of atomic types    =            2
     number of electrons       =        72.00
     number of Kohn-Sham states=           36
     kinetic-energy cutoff     =      50.0000  Ry
     charge density cutoff     =     400.0000  Ry
     scf convergence threshold =      1.0E-08
     mixing beta               =       0.3000
     number of iterations used =            8  plain     mixing
     Exchange-correlation= PBE
                           (   1   4   3   4   0   0   0)

     celldm(1)=  12.604862  celldm(2)=   0.000000  celldm(3)=   0.000000
     celldm(4)=   0.000000  celldm(5)=   0.000000  celldm(6)=   0.000000

     crystal axes: (cart. coord. in units of alat)
               a(1) = (   1.000000   0.000000   0.000000 )
               a(2) = (  -0.250000   0.433013   0.000000 )
               a(3) = (   0.000000   0.000000   0.887897 )

     reciprocal axes: (cart. coord. in units 2 pi/alat)
               b(1) = (  1.000000  0.577350 -0.000000 )
               b(2) = (  0.000000  2.309401  0.000000 )
               b(3) = (  0.000000 -0.000000  1.126257 )

     PseudoPot. # 1 for Zn read from file:
     /home/jvc/QEspresso7.2/ZnO_database/pseudos/Zn.upf
     MD5 check sum: 7f56cabf9682ed8c977c2f7d0c5985c5
     Pseudo is Ultrasoft + core correction, Zval = 12.0
     Generated using &quot;atomic&quot; code by A. Dal Corso  v.6.2.2
     Using radial grid of 1201 points,  6 beta functions with:
                l(1) =   0
                l(2) =   0
                l(3) =   1
                l(4) =   1
                l(5) =   2
                l(6) =   2
     Q(r) pseudized with 0 coefficients

     PseudoPot. # 2 for O  read from file:
     /home/jvc/QEspresso7.2/ZnO_database/pseudos/O.upf
     MD5 check sum: 91400c9766925bcf19f520983a725ff0
     Pseudo is Ultrasoft + core correction, Zval =  6.0
     Generated using &quot;atomic&quot; code by A. Dal Corso  v.6.3MaX
     Using radial grid of 1095 points,  4 beta functions with:
                l(1) =   0
                l(2) =   0
                l(3) =   1
                l(4) =   1
     Q(r) pseudized with 0 coefficients

     atomic species   valence    mass     pseudopotential
        Zn            12.00    65.38000     Zn( 1.00)
        O              6.00    15.99900     O ( 1.00)

      2 Sym. Ops. (no inversion) found

   Cartesian axes

     site n.     atom                  positions (alat units)
         1           Zn  tau(   1) = (   0.0000000   0.0000000   0.0000000  )
         2           O   tau(   2) = (   0.0000000   0.2886751   0.1281196  )
         3           Zn  tau(   3) = (   0.0000000   0.2886751   0.4439485  )
         4           O   tau(   4) = (   0.0000000   0.0000000   0.5720681  )
         5           Zn  tau(   5) = (   0.5000000   0.0000000   0.0000000  )
         6           O   tau(   6) = (   0.5000000   0.2886751   0.1281196  )
         7           Zn  tau(   7) = (   0.5000000   0.2886751   0.4439485  )
         8           O   tau(   8) = (   0.5000000   0.0000000   0.5720681  )

     number of k points=    80
                       cart. coord. in units 2pi/alat
        k(    1) = (   0.0000000   0.0000000   0.0000000), wk =   0.0092593
        k(    2) = (   0.0000000   0.0000000   0.1877094), wk =   0.0185185
        k(    3) = (   0.0000000   0.0000000   0.3754189), wk =   0.0185185
        k(    4) = (   0.0000000   0.0000000  -0.5631283), wk =   0.0092593
        k(    5) = (   0.0000000   0.3849002   0.0000000), wk =   0.0370370
        k(    6) = (   0.0000000   0.3849002   0.1877094), wk =   0.0370370
        k(    7) = (   0.0000000   0.3849002   0.3754189), wk =   0.0370370
        k(    8) = (   0.0000000   0.3849002  -0.5631283), wk =   0.0370370
        k(    9) = (   0.0000000   0.7698004   0.0000000), wk =   0.0370370
        k(   10) = (   0.0000000   0.7698004   0.1877094), wk =   0.0370370
        k(   11) = (   0.0000000   0.7698004   0.3754189), wk =   0.0370370
        k(   12) = (   0.0000000   0.7698004  -0.5631283), wk =   0.0370370
        k(   13) = (   0.0000000  -1.1547005   0.0000000), wk =   0.0092593
        k(   14) = (   0.0000000  -1.1547005   0.1877094), wk =   0.0185185
        k(   15) = (   0.0000000  -1.1547005   0.3754189), wk =   0.0185185
        k(   16) = (   0.0000000  -1.1547005  -0.5631283), wk =   0.0092593
        k(   17) = (   0.1666667   0.0962250   0.0000000), wk =   0.0185185
        k(   18) = (   0.1666667   0.0962250   0.1877094), wk =   0.0185185
        k(   19) = (   0.1666667   0.0962250   0.3754189), wk =   0.0185185
        k(   20) = (   0.1666667   0.0962250  -0.5631283), wk =   0.0185185
        k(   21) = (   0.1666667   0.4811252   0.0000000), wk =   0.0370370
        k(   22) = (   0.1666667   0.4811252   0.1877094), wk =   0.0370370
        k(   23) = (   0.1666667   0.4811252   0.3754189), wk =   0.0370370
        k(   24) = (   0.1666667   0.4811252  -0.5631283), wk =   0.0370370
        k(   25) = (   0.1666667   0.8660254   0.0000000), wk =   0.0185185
        k(   26) = (   0.1666667   0.8660254   0.1877094), wk =   0.0370370
        k(   27) = (   0.1666667   0.8660254   0.3754189), wk =   0.0370370
        k(   28) = (   0.1666667   0.8660254  -0.5631283), wk =   0.0185185
        k(   29) = (   0.1666667  -1.0584755   0.0000000), wk =   0.0185185
        k(   30) = (   0.1666667  -1.0584755   0.1877094), wk =   0.0185185
        k(   31) = (   0.1666667  -1.0584755   0.3754189), wk =   0.0185185
        k(   32) = (   0.1666667  -1.0584755  -0.5631283), wk =   0.0185185
        k(   33) = (   0.1666667  -0.6735753   0.0000000), wk =   0.0370370
        k(   34) = (   0.1666667  -0.6735753   0.1877094), wk =   0.0370370
        k(   35) = (   0.1666667  -0.6735753   0.3754189), wk =   0.0370370
        k(   36) = (   0.1666667  -0.6735753  -0.5631283), wk =   0.0370370
        k(   37) = (   0.1666667  -0.2886751   0.0000000), wk =   0.0185185
        k(   38) = (   0.1666667  -0.2886751   0.1877094), wk =   0.0370370
        k(   39) = (   0.1666667  -0.2886751   0.3754189), wk =   0.0370370
        k(   40) = (   0.1666667  -0.2886751  -0.5631283), wk =   0.0185185
        k(   41) = (   0.3333333   0.1924501   0.0000000), wk =   0.0185185
        k(   42) = (   0.3333333   0.1924501   0.1877094), wk =   0.0185185
        k(   43) = (   0.3333333   0.1924501   0.3754189), wk =   0.0185185
        k(   44) = (   0.3333333   0.1924501  -0.5631283), wk =   0.0185185
        k(   45) = (   0.3333333   0.5773503   0.0000000), wk =   0.0185185
        k(   46) = (   0.3333333   0.5773503   0.1877094), wk =   0.0370370
        k(   47) = (   0.3333333   0.5773503   0.3754189), wk =   0.0370370
        k(   48) = (   0.3333333   0.5773503  -0.5631283), wk =   0.0185185
        k(   49) = (   0.3333333  -0.9622504   0.0000000), wk =   0.0185185
        k(   50) = (   0.3333333  -0.9622504   0.1877094), wk =   0.0185185
        k(   51) = (   0.3333333  -0.9622504   0.3754189), wk =   0.0185185
        k(   52) = (   0.3333333  -0.9622504  -0.5631283), wk =   0.0185185
        k(   53) = (   0.3333333  -0.5773503   0.0000000), wk =   0.0185185
        k(   54) = (   0.3333333  -0.5773503   0.1877094), wk =   0.0370370
        k(   55) = (   0.3333333  -0.5773503   0.3754189), wk =   0.0370370
        k(   56) = (   0.3333333  -0.5773503  -0.5631283), wk =   0.0185185
        k(   57) = (  -0.5000000  -0.2886751   0.0000000), wk =   0.0092593
        k(   58) = (  -0.5000000  -0.2886751   0.1877094), wk =   0.0185185
        k(   59) = (  -0.5000000  -0.2886751   0.3754189), wk =   0.0185185
        k(   60) = (  -0.5000000  -0.2886751  -0.5631283), wk =   0.0092593
[...]
        k(   66) = (   0.3333333  -0.1924501  -0.3754189), wk =   0.0370370
        k(   67) = (   0.6666667  -0.3849002  -0.1877094), wk =   0.0370370
        k(   68) = (   0.6666667  -0.3849002  -0.3754189), wk =   0.0370370
        k(   69) = (   0.1666667   0.0962250  -0.1877094), wk =   0.0185185
        k(   70) = (   0.1666667   0.0962250  -0.3754189), wk =   0.0185185
        k(   71) = (   0.5000000  -0.0962250  -0.1877094), wk =   0.0370370
        k(   72) = (   0.5000000  -0.0962250  -0.3754189), wk =   0.0370370
        k(   73) = (  -0.8333333   0.6735753  -0.1877094), wk =   0.0185185
        k(   74) = (  -0.8333333   0.6735753  -0.3754189), wk =   0.0185185
        k(   75) = (  -0.5000000   0.4811252  -0.1877094), wk =   0.0370370
        k(   76) = (  -0.5000000   0.4811252  -0.3754189), wk =   0.0370370
        k(   77) = (   0.3333333   0.1924501  -0.1877094), wk =   0.0185185
        k(   78) = (   0.3333333   0.1924501  -0.3754189), wk =   0.0185185
        k(   79) = (  -0.6666667   0.7698004  -0.1877094), wk =   0.0185185
        k(   80) = (  -0.6666667   0.7698004  -0.3754189), wk =   0.0185185

     Check: negative core charge=   -0.000002

     Initial potential from superposition of free atoms

     starting charge      71.9851, renormalised to      72.0000
     Starting wfcs are   52 randomized atomic wfcs

     Self-consistent Calculation

     iteration #  1     ecut=    50.00 Ry     beta= 0.30
     Davidson diagonalization with overlap
     ethr =  1.00E-02,  avg # of iterations =  1.5

     total energy              =    -722.83174125 Ry
     estimated scf accuracy    <       1.53956792 Ry

[...]

     iteration # 21     ecut=    50.00 Ry     beta= 0.30
     Davidson diagonalization with overlap
     c_bands:  1 eigenvalues not converged
     c_bands:  1 eigenvalues not converged
     ethr =  7.22E-09,  avg # of iterations = 11.9

[...]

     total energy              =    -723.19728956 Ry
     estimated scf accuracy    <       0.00000016 Ry

     iteration # 33     ecut=    50.00 Ry     beta= 0.30
     Davidson diagonalization with overlap
     ethr =  1.42E-10,  avg # of iterations =  5.7

     End of self-consistent calculation

          k = 0.0000 0.0000 0.0000 (  4579 PWs)   bands (ev):

   -11.9725 -11.5710 -11.4800 -11.3597  -0.3605  -0.2834  -0.1750  -0.1747
    -0.1140  -0.0649  -0.0308  -0.0306   0.0070   0.0128   0.3225   0.3954
     0.4650   0.4650   0.5792   0.5792   0.5915   0.6089   0.6129   0.6827
     0.8083   1.2347   1.9928   2.4381   3.3869   3.5965   4.3464   4.3471
     4.3739   4.5933   4.8934   4.8942

[...]

          k =-0.5000-0.2887 0.0000 (  4568 PWs)   bands (ev):

[...]

          k = 0.3333 0.1925-0.3754 (  4584 PWs)   bands (ev):

[...]

          k =-0.6667 0.7698-0.3754 (  4608 PWs)   bands (ev):

   -11.4518 -11.4516 -11.3883 -11.3881  -0.2609  -0.2609  -0.1905  -0.1905
    -0.0225  -0.0225   0.1457   0.1457   0.1855   0.1855   0.2504   0.2504
     0.4826   0.4826   0.5424   0.5424   0.6585   0.6585   0.7185   0.7185
     1.5441   1.5442   1.8425   1.8425   3.0042   3.0043   3.2878   3.2879
     3.6781   3.6781   3.8326   3.8327

     highest occupied level (ev):     4.8942

!    total energy              =    -723.19728958 Ry
     estimated scf accuracy    <          2.4E-09 Ry

     The total energy is the sum of the following terms:
     one-electron contribution =    -342.06580594 Ry
     hartree contribution      =     248.16954811 Ry
     xc contribution           =    -218.46943209 Ry
     ewald contribution        =    -410.83159966 Ry

     convergence has been achieved in  33 iterations

     Forces acting on atoms (cartesian axes, Ry/au):

     atom    1 type  1   force =    -0.00001123   -0.00000648    0.01170170
     atom    2 type  2   force =     0.00000034    0.00000020   -0.01171633
     atom    3 type  1   force =    -0.00001295   -0.00000748    0.01172377
     atom    4 type  2   force =    -0.00000180   -0.00000104   -0.01171425
     atom    5 type  1   force =    -0.00000053   -0.00000031    0.01172159
     atom    6 type  2   force =     0.00000117    0.00000067   -0.01171717
     atom    7 type  1   force =     0.00002540    0.00001467    0.01171438
     atom    8 type  2   force =    -0.00000041   -0.00000023   -0.01171370
     The non-local contrib.  to forces
     atom    1 type  1   force =    -0.00001206   -0.00000696   -0.12434186
     atom    2 type  2   force =    -0.00022761   -0.00013141   -0.11109585
     atom    3 type  1   force =     0.00000935    0.00000540   -0.12434304
     atom    4 type  2   force =     0.00022893    0.00013217   -0.11109760
     atom    5 type  1   force =    -0.00000597   -0.00000345   -0.12434493
     atom    6 type  2   force =    -0.00022739   -0.00013128   -0.11109660
     atom    7 type  1   force =     0.00001300    0.00000751   -0.12434305
     atom    8 type  2   force =     0.00022942    0.00013245   -0.11109754
     The ionic contribution  to forces
     atom    1 type  1   force =     0.00000000    0.00000000   -1.02969394
     atom    2 type  2   force =    -0.00000000   -0.00000000    1.02969394
     atom    3 type  1   force =    -0.00000000   -0.00000000   -1.02969394
     atom    4 type  2   force =     0.00000000    0.00000000    1.02969394
     atom    5 type  1   force =     0.00000000    0.00000000   -1.02969394
     atom    6 type  2   force =    -0.00000000   -0.00000000    1.02969394
     atom    7 type  1   force =    -0.00000000   -0.00000000   -1.02969394
     atom    8 type  2   force =     0.00000000    0.00000000    1.02969394
     The local contribution  to forces
     atom    1 type  1   force =     0.00000513    0.00000296    1.15955209
     atom    2 type  2   force =     0.00023194    0.00013391   -0.93126819
     atom    3 type  1   force =     0.00002220    0.00001282    1.15953561
     atom    4 type  2   force =    -0.00022476   -0.00012977   -0.93127474
     atom    5 type  1   force =    -0.00001130   -0.00000653    1.15953371
     atom    6 type  2   force =     0.00022061    0.00012737   -0.93126743
     atom    7 type  1   force =    -0.00002103   -0.00001214    1.15954776
     atom    8 type  2   force =    -0.00022988   -0.00013272   -0.93127380
     The core correction contribution to forces
     atom    1 type  1   force =     0.00000557    0.00000321    0.00620690
     atom    2 type  2   force =     0.00000257    0.00000149    0.00095686
     atom    3 type  1   force =    -0.00000632   -0.00000368    0.00620710
     atom    4 type  2   force =    -0.00000261   -0.00000150    0.00095685
     atom    5 type  1   force =     0.00000572    0.00000333    0.00620770
     atom    6 type  2   force =     0.00000258    0.00000149    0.00095687
     atom    7 type  1   force =    -0.00000516   -0.00000297    0.00620666
     atom    8 type  2   force =    -0.00000259   -0.00000150    0.00095687
     The Hubbard contrib.    to forces
     atom    1 type  1   force =     0.00000000    0.00000000    0.00000000
     atom    2 type  2   force =     0.00000000    0.00000000    0.00000000
     atom    3 type  1   force =     0.00000000    0.00000000    0.00000000
     atom    4 type  2   force =     0.00000000    0.00000000    0.00000000
     atom    5 type  1   force =     0.00000000    0.00000000    0.00000000
     atom    6 type  2   force =     0.00000000    0.00000000    0.00000000
     atom    7 type  1   force =     0.00000000    0.00000000    0.00000000
     atom    8 type  2   force =     0.00000000    0.00000000    0.00000000
     The SCF correction term to forces
     atom    1 type  1   force =    -0.00000949   -0.00000548   -0.00002437
     atom    2 type  2   force =    -0.00000618   -0.00000357   -0.00000597
     atom    3 type  1   force =    -0.00003778   -0.00002181    0.00001516
     atom    4 type  2   force =    -0.00000297   -0.00000172    0.00000441
     atom    5 type  1   force =     0.00001139    0.00000658    0.00001618
     atom    6 type  2   force =     0.00000575    0.00000332   -0.00000683
     atom    7 type  1   force =     0.00003898    0.00002250   -0.00000593
     atom    8 type  2   force =     0.00000303    0.00000175    0.00000395

     Total force =     0.033136     Total SCF correction =     0.000075

     Writing all to output data dir ./ZnO-3.34-1.78-211.in.save/

     General routines

     Parallel routines

   This run was terminated on:  16: 1:59  12Jul2025

   JOB DONE.
Note: The following floating-point exceptions are signalling: IEEE_INVALID_FLAG
Note: The following floating-point exceptions are signalling: IEEE_INVALID_FLAG