     Program PWSCF v.7.2 starts on 12Jul2025 at 18:57: 3

     Reading input from /home/jvc/QEspresso7.2/ZnO_database/scripts/cell211_strain10%.in/ZnO-3.60-1.61-211.in
Warning: card &CELL ignored
Warning: card / ignored
Warning: card &FCP ignored
Warning: card / ignored
Warning: card &RISM ignored
Warning: card / ignored

     Current dimensions of program PWSCF are:
     Max number of different atomic species (ntypx) = 10
     Max number of k-points (npk) =  40000
     Max angular momentum in pseudopotentials (lmaxx) =  4
     file Zn.upf: wavefunction(s)  3D renormalized
     Found identity + ( -0.5000  0.0000  0.0000) symmetry
     This is a supercell, fractional translations are disabled
     Message from routine setup:
     using ibrav=0 with symmetry is DISCOURAGED, use correct ibrav instead

     K-points division:     npool     =       2
     R & G space division:  proc/nbgrp/npool/nimage =       8
     Subspace diagonalization in iterative solution of the eigenvalue problem:
     a serial algorithm will be used

     Using Slab Decomposition

     bravais-lattice index     =            0
     lattice parameter (alat)  =      13.5935  a.u.
     unit-cell volume          =     877.9351 (a.u.)^3
     number of atoms/cell      =            8
     number of atomic types    =            2
     number of electrons       =        72.00
     number of Kohn-Sham states=           36
     kinetic-energy cutoff     =      50.0000  Ry
     charge density cutoff     =     400.0000  Ry
     scf convergence threshold =      1.0E-08
     mixing beta               =       0.3000
     number of iterations used =            8  plain     mixing
     Exchange-correlation= PBE
                           (   1   4   3   4   0   0   0)

     celldm(1)=  13.593479  celldm(2)=   0.000000  celldm(3)=   0.000000
     celldm(4)=   0.000000  celldm(5)=   0.000000  celldm(6)=   0.000000

     crystal axes: (cart. coord. in units of alat)
               a(1) = (   1.000000   0.000000   0.000000 )
               a(2) = (  -0.250000   0.433013   0.000000 )
               a(3) = (   0.000000   0.000000   0.807179 )

     reciprocal axes: (cart. coord. in units 2 pi/alat)
               b(1) = (  1.000000  0.577350 -0.000000 )
               b(2) = (  0.000000  2.309401  0.000000 )
               b(3) = (  0.000000 -0.000000  1.238882 )

     PseudoPot. # 1 for Zn read from file:
     /home/jvc/QEspresso7.2/ZnO_database/pseudos/Zn.upf
     MD5 check sum: 7f56cabf9682ed8c977c2f7d0c5985c5
     Pseudo is Ultrasoft + core correction, Zval = 12.0
     Generated using &quot;atomic&quot; code by A. Dal Corso  v.6.2.2
     Using radial grid of 1201 points,  6 beta functions with:
                l(1) =   0
                l(2) =   0
                l(3) =   1
                l(4) =   1
                l(5) =   2
                l(6) =   2
     Q(r) pseudized with 0 coefficients

     PseudoPot. # 2 for O  read from file:
     /home/jvc/QEspresso7.2/ZnO_database/pseudos/O.upf
     MD5 check sum: 91400c9766925bcf19f520983a725ff0
     Pseudo is Ultrasoft + core correction, Zval =  6.0
     Generated using &quot;atomic&quot; code by A. Dal Corso  v.6.3MaX
     Using radial grid of 1095 points,  4 beta functions with:
                l(1) =   0
                l(2) =   0
                l(3) =   1
                l(4) =   1
     Q(r) pseudized with 0 coefficients

     atomic species   valence    mass     pseudopotential
        Zn            12.00    65.38000     Zn( 1.00)
        O              6.00    15.99900     O ( 1.00)

      2 Sym. Ops. (no inversion) found

   Cartesian axes

     site n.     atom                  positions (alat units)
         1           Zn  tau(   1) = (   0.0000000   0.0000000   0.0000000  )
         2           O   tau(   2) = (   0.0000000   0.2886751   0.0985546  )
         3           Zn  tau(   3) = (   0.0000000   0.2886751   0.4035896  )
         4           O   tau(   4) = (   0.0000000   0.0000000   0.5021442  )
         5           Zn  tau(   5) = (   0.5000000   0.0000000   0.0000000  )
         6           O   tau(   6) = (   0.5000000   0.2886751   0.0985546  )
         7           Zn  tau(   7) = (   0.5000000   0.2886751   0.4035896  )
         8           O   tau(   8) = (   0.5000000   0.0000000   0.5021442  )

     number of k points=    80
                       cart. coord. in units 2pi/alat
        k(    1) = (   0.0000000   0.0000000   0.0000000), wk =   0.0092593
        k(    2) = (   0.0000000   0.0000000   0.2064804), wk =   0.0185185
        k(    3) = (   0.0000000   0.0000000   0.4129608), wk =   0.0185185
        k(    4) = (   0.0000000   0.0000000  -0.6194412), wk =   0.0092593
        k(    5) = (   0.0000000   0.3849002   0.0000000), wk =   0.0370370
        k(    6) = (   0.0000000   0.3849002   0.2064804), wk =   0.0370370
        k(    7) = (   0.0000000   0.3849002   0.4129608), wk =   0.0370370
        k(    8) = (   0.0000000   0.3849002  -0.6194412), wk =   0.0370370
        k(    9) = (   0.0000000   0.7698004   0.0000000), wk =   0.0370370
        k(   10) = (   0.0000000   0.7698004   0.2064804), wk =   0.0370370
        k(   11) = (   0.0000000   0.7698004   0.4129608), wk =   0.0370370
        k(   12) = (   0.0000000   0.7698004  -0.6194412), wk =   0.0370370
        k(   13) = (   0.0000000  -1.1547005   0.0000000), wk =   0.0092593
        k(   14) = (   0.0000000  -1.1547005   0.2064804), wk =   0.0185185
        k(   15) = (   0.0000000  -1.1547005   0.4129608), wk =   0.0185185
        k(   16) = (   0.0000000  -1.1547005  -0.6194412), wk =   0.0092593
        k(   17) = (   0.1666667   0.0962250   0.0000000), wk =   0.0185185
        k(   18) = (   0.1666667   0.0962250   0.2064804), wk =   0.0185185
        k(   19) = (   0.1666667   0.0962250   0.4129608), wk =   0.0185185
        k(   20) = (   0.1666667   0.0962250  -0.6194412), wk =   0.0185185
        k(   21) = (   0.1666667   0.4811252   0.0000000), wk =   0.0370370
        k(   22) = (   0.1666667   0.4811252   0.2064804), wk =   0.0370370
        k(   23) = (   0.1666667   0.4811252   0.4129608), wk =   0.0370370
        k(   24) = (   0.1666667   0.4811252  -0.6194412), wk =   0.0370370
        k(   25) = (   0.1666667   0.8660254   0.0000000), wk =   0.0185185
        k(   26) = (   0.1666667   0.8660254   0.2064804), wk =   0.0370370
        k(   27) = (   0.1666667   0.8660254   0.4129608), wk =   0.0370370
        k(   28) = (   0.1666667   0.8660254  -0.6194412), wk =   0.0185185
        k(   29) = (   0.1666667  -1.0584755   0.0000000), wk =   0.0185185
        k(   30) = (   0.1666667  -1.0584755   0.2064804), wk =   0.0185185
        k(   31) = (   0.1666667  -1.0584755   0.4129608), wk =   0.0185185
        k(   32) = (   0.1666667  -1.0584755  -0.6194412), wk =   0.0185185
        k(   33) = (   0.1666667  -0.6735753   0.0000000), wk =   0.0370370
        k(   34) = (   0.1666667  -0.6735753   0.2064804), wk =   0.0370370
        k(   35) = (   0.1666667  -0.6735753   0.4129608), wk =   0.0370370
        k(   36) = (   0.1666667  -0.6735753  -0.6194412), wk =   0.0370370
        k(   37) = (   0.1666667  -0.2886751   0.0000000), wk =   0.0185185
        k(   38) = (   0.1666667  -0.2886751   0.2064804), wk =   0.0370370
        k(   39) = (   0.1666667  -0.2886751   0.4129608), wk =   0.0370370
        k(   40) = (   0.1666667  -0.2886751  -0.6194412), wk =   0.0185185
        k(   41) = (   0.3333333   0.1924501   0.0000000), wk =   0.0185185
        k(   42) = (   0.3333333   0.1924501   0.2064804), wk =   0.0185185
        k(   43) = (   0.3333333   0.1924501   0.4129608), wk =   0.0185185
        k(   44) = (   0.3333333   0.1924501  -0.6194412), wk =   0.0185185
        k(   45) = (   0.3333333   0.5773503   0.0000000), wk =   0.0185185
        k(   46) = (   0.3333333   0.5773503   0.2064804), wk =   0.0370370
        k(   47) = (   0.3333333   0.5773503   0.4129608), wk =   0.0370370
        k(   48) = (   0.3333333   0.5773503  -0.6194412), wk =   0.0185185
        k(   49) = (   0.3333333  -0.9622504   0.0000000), wk =   0.0185185
        k(   50) = (   0.3333333  -0.9622504   0.2064804), wk =   0.0185185
        k(   51) = (   0.3333333  -0.9622504   0.4129608), wk =   0.0185185
        k(   52) = (   0.3333333  -0.9622504  -0.6194412), wk =   0.0185185
        k(   53) = (   0.3333333  -0.5773503   0.0000000), wk =   0.0185185
        k(   54) = (   0.3333333  -0.5773503   0.2064804), wk =   0.0370370
        k(   55) = (   0.3333333  -0.5773503   0.4129608), wk =   0.0370370
        k(   56) = (   0.3333333  -0.5773503  -0.6194412), wk =   0.0185185
        k(   57) = (  -0.5000000  -0.2886751   0.0000000), wk =   0.0092593
        k(   58) = (  -0.5000000  -0.2886751   0.2064804), wk =   0.0185185
        k(   59) = (  -0.5000000  -0.2886751   0.4129608), wk =   0.0185185
        k(   60) = (  -0.5000000  -0.2886751  -0.6194412), wk =   0.0092593
[...]
        k(   66) = (   0.3333333  -0.1924501  -0.4129608), wk =   0.0370370
        k(   67) = (   0.6666667  -0.3849002  -0.2064804), wk =   0.0370370
        k(   68) = (   0.6666667  -0.3849002  -0.4129608), wk =   0.0370370
        k(   69) = (   0.1666667   0.0962250  -0.2064804), wk =   0.0185185
        k(   70) = (   0.1666667   0.0962250  -0.4129608), wk =   0.0185185
        k(   71) = (   0.5000000  -0.0962250  -0.2064804), wk =   0.0370370
        k(   72) = (   0.5000000  -0.0962250  -0.4129608), wk =   0.0370370
        k(   73) = (  -0.8333333   0.6735753  -0.2064804), wk =   0.0185185
        k(   74) = (  -0.8333333   0.6735753  -0.4129608), wk =   0.0185185
        k(   75) = (  -0.5000000   0.4811252  -0.2064804), wk =   0.0370370
        k(   76) = (  -0.5000000   0.4811252  -0.4129608), wk =   0.0370370
        k(   77) = (   0.3333333   0.1924501  -0.2064804), wk =   0.0185185
        k(   78) = (   0.3333333   0.1924501  -0.4129608), wk =   0.0185185
        k(   79) = (  -0.6666667   0.7698004  -0.2064804), wk =   0.0185185
        k(   80) = (  -0.6666667   0.7698004  -0.4129608), wk =   0.0185185

     Check: negative core charge=   -0.000002

     Initial potential from superposition of free atoms

     starting charge      71.9851, renormalised to      72.0000
     Starting wfcs are   52 randomized atomic wfcs

     Self-consistent Calculation

     iteration #  1     ecut=    50.00 Ry     beta= 0.30
     Davidson diagonalization with overlap
     ethr =  1.00E-02,  avg # of iterations =  1.2

     total energy              =    -722.68423951 Ry
     estimated scf accuracy    <       1.69777872 Ry

[...]

     iteration # 24     ecut=    50.00 Ry     beta= 0.30
     Davidson diagonalization with overlap
     c_bands:  1 eigenvalues not converged
     ethr =  1.60E-09,  avg # of iterations = 11.8

[...]

     total energy              =    -723.09546006 Ry
     estimated scf accuracy    <       0.00000001 Ry

     iteration # 35     ecut=    50.00 Ry     beta= 0.30
     Davidson diagonalization with overlap
     ethr =  2.01E-11,  avg # of iterations =  2.0

     End of self-consistent calculation

          k = 0.0000 0.0000 0.0000 (  5253 PWs)   bands (ev):

   -12.7776 -12.4462 -12.4297 -12.3385  -1.4459  -1.4457  -1.4414  -1.4385
    -1.3452  -1.3451  -1.3237  -1.2072  -1.1388  -1.0623  -1.0076  -0.9826
    -0.9826  -0.8992  -0.8844  -0.8836  -0.8835  -0.8754  -0.8627  -0.8242
    -0.1268   0.2122   0.7319   1.4593   2.0213   2.5431   2.8768   2.8775
     2.8801   3.3454   3.3654   3.3661

[...]

          k =-0.5000-0.2887 0.0000 (  5238 PWs)   bands (ev):

[...]

          k = 0.3333 0.1925-0.4130 (  5236 PWs)   bands (ev):

[...]

          k =-0.6667 0.7698-0.4130 (  5234 PWs)   bands (ev):

   -12.4190 -12.4190 -12.3630 -12.3629  -1.4052  -1.4052  -1.3346  -1.3346
    -1.2663  -1.2662  -1.1497  -1.1497  -1.1189  -1.1189  -1.1016  -1.1016
    -0.9343  -0.9343  -0.9085  -0.9085  -0.8373  -0.8373  -0.7816  -0.7816
     0.3737   0.3737   0.5865   0.5865   1.7958   1.7958   2.2199   2.2200
     2.3589   2.3589   2.7221   2.7221

     highest occupied level (ev):     3.3661

!    total energy              =    -723.09546005 Ry
     estimated scf accuracy    <          9.8E-09 Ry

     The total energy is the sum of the following terms:
     one-electron contribution =    -372.21700926 Ry
     hartree contribution      =     259.67662965 Ry
     xc contribution           =    -218.09224096 Ry
     ewald contribution        =    -392.46283949 Ry

     convergence has been achieved in  35 iterations

     Forces acting on atoms (cartesian axes, Ry/au):

     atom    1 type  1   force =     0.00001409    0.00000814    0.00038726
     atom    2 type  2   force =    -0.00000630   -0.00000364   -0.00037771
     atom    3 type  1   force =    -0.00000323   -0.00000187    0.00036587
     atom    4 type  2   force =     0.00000468    0.00000270   -0.00037678
     atom    5 type  1   force =    -0.00000237   -0.00000137    0.00038316
     atom    6 type  2   force =    -0.00000547   -0.00000316   -0.00037697
     atom    7 type  1   force =    -0.00000904   -0.00000522    0.00037176
     atom    8 type  2   force =     0.00000764    0.00000441   -0.00037660
     The non-local contrib.  to forces
     atom    1 type  1   force =    -0.00001397   -0.00000806    0.00959718
     atom    2 type  2   force =    -0.00020214   -0.00011670   -0.00043646
     atom    3 type  1   force =     0.00002292    0.00001324    0.00958427
     atom    4 type  2   force =     0.00019674    0.00011359   -0.00044261
     atom    5 type  1   force =    -0.00002546   -0.00001470    0.00959485
     atom    6 type  2   force =    -0.00020079   -0.00011593   -0.00043300
     atom    7 type  1   force =     0.00001667    0.00000963    0.00958647
     atom    8 type  2   force =     0.00020739    0.00011973   -0.00044069
     The ionic contribution  to forces
     atom    1 type  1   force =     0.00000000    0.00000000   -0.01717135
     atom    2 type  2   force =    -0.00000000   -0.00000000    0.01717135
     atom    3 type  1   force =    -0.00000000   -0.00000000   -0.01717135
     atom    4 type  2   force =     0.00000000    0.00000000    0.01717135
     atom    5 type  1   force =     0.00000000    0.00000000   -0.01717135
     atom    6 type  2   force =    -0.00000000   -0.00000000    0.01717135
     atom    7 type  1   force =    -0.00000000   -0.00000000   -0.01717135
     atom    8 type  2   force =     0.00000000    0.00000000    0.01717135
     The local contribution  to forces
     atom    1 type  1   force =     0.00000430    0.00000248    0.00853330
     atom    2 type  2   force =     0.00019217    0.00011095   -0.01713123
     atom    3 type  1   force =    -0.00002549   -0.00001471    0.00856614
     atom    4 type  2   force =    -0.00019272   -0.00011127   -0.01711806
     atom    5 type  1   force =     0.00003519    0.00002032    0.00853960
     atom    6 type  2   force =     0.00019497    0.00011257   -0.01713402
     atom    7 type  1   force =    -0.00001413   -0.00000816    0.00855621
     atom    8 type  2   force =    -0.00019497   -0.00011256   -0.01711980
     The core correction contribution to forces
     atom    1 type  1   force =     0.00000628    0.00000363   -0.00058934
     atom    2 type  2   force =     0.00000228    0.00000132    0.00001631
     atom    3 type  1   force =    -0.00000608   -0.00000351   -0.00058959
     atom    4 type  2   force =    -0.00000220   -0.00000127    0.00001642
     atom    5 type  1   force =     0.00000577    0.00000333   -0.00058944
     atom    6 type  2   force =     0.00000227    0.00000131    0.00001626
     atom    7 type  1   force =    -0.00000598   -0.00000345   -0.00058926
     atom    8 type  2   force =    -0.00000236   -0.00000136    0.00001639
     The Hubbard contrib.    to forces
     atom    1 type  1   force =     0.00000000    0.00000000    0.00000000
     atom    2 type  2   force =     0.00000000    0.00000000    0.00000000
     atom    3 type  1   force =     0.00000000    0.00000000    0.00000000
     atom    4 type  2   force =     0.00000000    0.00000000    0.00000000
     atom    5 type  1   force =     0.00000000    0.00000000    0.00000000
     atom    6 type  2   force =     0.00000000    0.00000000    0.00000000
     atom    7 type  1   force =     0.00000000    0.00000000    0.00000000
     atom    8 type  2   force =     0.00000000    0.00000000    0.00000000
     The SCF correction term to forces
     atom    1 type  1   force =     0.00001749    0.00001010    0.00001782
     atom    2 type  2   force =     0.00000139    0.00000080    0.00000268
     atom    3 type  1   force =     0.00000543    0.00000314   -0.00002324
     atom    4 type  2   force =     0.00000287    0.00000166   -0.00000351
     atom    5 type  1   force =    -0.00001787   -0.00001032    0.00000984
     atom    6 type  2   force =    -0.00000189   -0.00000109    0.00000280
     atom    7 type  1   force =    -0.00000558   -0.00000322   -0.00000995
     atom    8 type  2   force =    -0.00000240   -0.00000139   -0.00000349

     Total force =     0.001067     Total SCF correction =     0.000045

     Writing all to output data dir ./ZnO-3.60-1.61-211.in.save/

     General routines

     Parallel routines

   This run was terminated on:  19: 1:46  12Jul2025

   JOB DONE.
Note: The following floating-point exceptions are signalling: IEEE_INVALID_FLAG
Note: The following floating-point exceptions are signalling: IEEE_INVALID_FLAG