     Program PWSCF v.7.2 starts on 12Jul2025 at 15:10:59

     Reading input from /home/jvc/QEspresso7.2/ZnO_database/scripts/cell211_strain10%.in/ZnO-3.27-1.78-211.in
Warning: card &CELL ignored
Warning: card / ignored
Warning: card &FCP ignored
Warning: card / ignored
Warning: card &RISM ignored
Warning: card / ignored

     Current dimensions of program PWSCF are:
     Max number of different atomic species (ntypx) = 10
     Max number of k-points (npk) =  40000
     Max angular momentum in pseudopotentials (lmaxx) =  4
     file Zn.upf: wavefunction(s)  3D renormalized
     Found identity + ( -0.5000  0.0000  0.0000) symmetry
     This is a supercell, fractional translations are disabled
     Message from routine setup:
     using ibrav=0 with symmetry is DISCOURAGED, use correct ibrav instead

     K-points division:     npool     =       2
     R & G space division:  proc/nbgrp/npool/nimage =       8
     Subspace diagonalization in iterative solution of the eigenvalue problem:
     a serial algorithm will be used

     Using Slab Decomposition

     bravais-lattice index     =            0
     lattice parameter (alat)  =      12.3577  a.u.
     unit-cell volume          =     725.5662 (a.u.)^3
     number of atoms/cell      =            8
     number of atomic types    =            2
     number of electrons       =        72.00
     number of Kohn-Sham states=           36
     kinetic-energy cutoff     =      50.0000  Ry
     charge density cutoff     =     400.0000  Ry
     scf convergence threshold =      1.0E-08
     mixing beta               =       0.3000
     number of iterations used =            8  plain     mixing
     Exchange-correlation= PBE
                           (   1   4   3   4   0   0   0)

     celldm(1)=  12.357708  celldm(2)=   0.000000  celldm(3)=   0.000000
     celldm(4)=   0.000000  celldm(5)=   0.000000  celldm(6)=   0.000000

     crystal axes: (cart. coord. in units of alat)
               a(1) = (   1.000000   0.000000   0.000000 )
               a(2) = (  -0.250000   0.433013   0.000000 )
               a(3) = (   0.000000   0.000000   0.887897 )

     reciprocal axes: (cart. coord. in units 2 pi/alat)
               b(1) = (  1.000000  0.577350 -0.000000 )
               b(2) = (  0.000000  2.309401  0.000000 )
               b(3) = (  0.000000 -0.000000  1.126257 )

     PseudoPot. # 1 for Zn read from file:
     /home/jvc/QEspresso7.2/ZnO_database/pseudos/Zn.upf
     MD5 check sum: 7f56cabf9682ed8c977c2f7d0c5985c5
     Pseudo is Ultrasoft + core correction, Zval = 12.0
     Generated using &quot;atomic&quot; code by A. Dal Corso  v.6.2.2
     Using radial grid of 1201 points,  6 beta functions with:
                l(1) =   0
                l(2) =   0
                l(3) =   1
                l(4) =   1
                l(5) =   2
                l(6) =   2
     Q(r) pseudized with 0 coefficients

     PseudoPot. # 2 for O  read from file:
     /home/jvc/QEspresso7.2/ZnO_database/pseudos/O.upf
     MD5 check sum: 91400c9766925bcf19f520983a725ff0
     Pseudo is Ultrasoft + core correction, Zval =  6.0
     Generated using &quot;atomic&quot; code by A. Dal Corso  v.6.3MaX
     Using radial grid of 1095 points,  4 beta functions with:
                l(1) =   0
                l(2) =   0
                l(3) =   1
                l(4) =   1
     Q(r) pseudized with 0 coefficients

     atomic species   valence    mass     pseudopotential
        Zn            12.00    65.38000     Zn( 1.00)
        O              6.00    15.99900     O ( 1.00)

      2 Sym. Ops. (no inversion) found

   Cartesian axes

     site n.     atom                  positions (alat units)
         1           Zn  tau(   1) = (   0.0000000   0.0000000   0.0000000  )
         2           O   tau(   2) = (   0.0000000   0.2886751   0.1281196  )
         3           Zn  tau(   3) = (   0.0000000   0.2886751   0.4439485  )
         4           O   tau(   4) = (   0.0000000   0.0000000   0.5720681  )
         5           Zn  tau(   5) = (   0.5000000   0.0000000   0.0000000  )
         6           O   tau(   6) = (   0.5000000   0.2886751   0.1281196  )
         7           Zn  tau(   7) = (   0.5000000   0.2886751   0.4439485  )
         8           O   tau(   8) = (   0.5000000   0.0000000   0.5720681  )

     number of k points=    80
                       cart. coord. in units 2pi/alat
        k(    1) = (   0.0000000   0.0000000   0.0000000), wk =   0.0092593
        k(    2) = (   0.0000000   0.0000000   0.1877094), wk =   0.0185185
        k(    3) = (   0.0000000   0.0000000   0.3754189), wk =   0.0185185
        k(    4) = (   0.0000000   0.0000000  -0.5631283), wk =   0.0092593
        k(    5) = (   0.0000000   0.3849002   0.0000000), wk =   0.0370370
        k(    6) = (   0.0000000   0.3849002   0.1877094), wk =   0.0370370
        k(    7) = (   0.0000000   0.3849002   0.3754189), wk =   0.0370370
        k(    8) = (   0.0000000   0.3849002  -0.5631283), wk =   0.0370370
        k(    9) = (   0.0000000   0.7698004   0.0000000), wk =   0.0370370
        k(   10) = (   0.0000000   0.7698004   0.1877094), wk =   0.0370370
        k(   11) = (   0.0000000   0.7698004   0.3754189), wk =   0.0370370
        k(   12) = (   0.0000000   0.7698004  -0.5631283), wk =   0.0370370
        k(   13) = (   0.0000000  -1.1547005   0.0000000), wk =   0.0092593
        k(   14) = (   0.0000000  -1.1547005   0.1877094), wk =   0.0185185
        k(   15) = (   0.0000000  -1.1547005   0.3754189), wk =   0.0185185
        k(   16) = (   0.0000000  -1.1547005  -0.5631283), wk =   0.0092593
        k(   17) = (   0.1666667   0.0962250   0.0000000), wk =   0.0185185
        k(   18) = (   0.1666667   0.0962250   0.1877094), wk =   0.0185185
        k(   19) = (   0.1666667   0.0962250   0.3754189), wk =   0.0185185
        k(   20) = (   0.1666667   0.0962250  -0.5631283), wk =   0.0185185
        k(   21) = (   0.1666667   0.4811252   0.0000000), wk =   0.0370370
        k(   22) = (   0.1666667   0.4811252   0.1877094), wk =   0.0370370
        k(   23) = (   0.1666667   0.4811252   0.3754189), wk =   0.0370370
        k(   24) = (   0.1666667   0.4811252  -0.5631283), wk =   0.0370370
        k(   25) = (   0.1666667   0.8660254   0.0000000), wk =   0.0185185
        k(   26) = (   0.1666667   0.8660254   0.1877094), wk =   0.0370370
        k(   27) = (   0.1666667   0.8660254   0.3754189), wk =   0.0370370
        k(   28) = (   0.1666667   0.8660254  -0.5631283), wk =   0.0185185
        k(   29) = (   0.1666667  -1.0584755   0.0000000), wk =   0.0185185
        k(   30) = (   0.1666667  -1.0584755   0.1877094), wk =   0.0185185
        k(   31) = (   0.1666667  -1.0584755   0.3754189), wk =   0.0185185
        k(   32) = (   0.1666667  -1.0584755  -0.5631283), wk =   0.0185185
        k(   33) = (   0.1666667  -0.6735753   0.0000000), wk =   0.0370370
        k(   34) = (   0.1666667  -0.6735753   0.1877094), wk =   0.0370370
        k(   35) = (   0.1666667  -0.6735753   0.3754189), wk =   0.0370370
        k(   36) = (   0.1666667  -0.6735753  -0.5631283), wk =   0.0370370
        k(   37) = (   0.1666667  -0.2886751   0.0000000), wk =   0.0185185
        k(   38) = (   0.1666667  -0.2886751   0.1877094), wk =   0.0370370
        k(   39) = (   0.1666667  -0.2886751   0.3754189), wk =   0.0370370
        k(   40) = (   0.1666667  -0.2886751  -0.5631283), wk =   0.0185185
        k(   41) = (   0.3333333   0.1924501   0.0000000), wk =   0.0185185
        k(   42) = (   0.3333333   0.1924501   0.1877094), wk =   0.0185185
        k(   43) = (   0.3333333   0.1924501   0.3754189), wk =   0.0185185
        k(   44) = (   0.3333333   0.1924501  -0.5631283), wk =   0.0185185
        k(   45) = (   0.3333333   0.5773503   0.0000000), wk =   0.0185185
        k(   46) = (   0.3333333   0.5773503   0.1877094), wk =   0.0370370
        k(   47) = (   0.3333333   0.5773503   0.3754189), wk =   0.0370370
        k(   48) = (   0.3333333   0.5773503  -0.5631283), wk =   0.0185185
        k(   49) = (   0.3333333  -0.9622504   0.0000000), wk =   0.0185185
        k(   50) = (   0.3333333  -0.9622504   0.1877094), wk =   0.0185185
        k(   51) = (   0.3333333  -0.9622504   0.3754189), wk =   0.0185185
        k(   52) = (   0.3333333  -0.9622504  -0.5631283), wk =   0.0185185
        k(   53) = (   0.3333333  -0.5773503   0.0000000), wk =   0.0185185
        k(   54) = (   0.3333333  -0.5773503   0.1877094), wk =   0.0370370
        k(   55) = (   0.3333333  -0.5773503   0.3754189), wk =   0.0370370
        k(   56) = (   0.3333333  -0.5773503  -0.5631283), wk =   0.0185185
        k(   57) = (  -0.5000000  -0.2886751   0.0000000), wk =   0.0092593
        k(   58) = (  -0.5000000  -0.2886751   0.1877094), wk =   0.0185185
        k(   59) = (  -0.5000000  -0.2886751   0.3754189), wk =   0.0185185
        k(   60) = (  -0.5000000  -0.2886751  -0.5631283), wk =   0.0092593
[...]
        k(   66) = (   0.3333333  -0.1924501  -0.3754189), wk =   0.0370370
        k(   67) = (   0.6666667  -0.3849002  -0.1877094), wk =   0.0370370
        k(   68) = (   0.6666667  -0.3849002  -0.3754189), wk =   0.0370370
        k(   69) = (   0.1666667   0.0962250  -0.1877094), wk =   0.0185185
        k(   70) = (   0.1666667   0.0962250  -0.3754189), wk =   0.0185185
        k(   71) = (   0.5000000  -0.0962250  -0.1877094), wk =   0.0370370
        k(   72) = (   0.5000000  -0.0962250  -0.3754189), wk =   0.0370370
        k(   73) = (  -0.8333333   0.6735753  -0.1877094), wk =   0.0185185
        k(   74) = (  -0.8333333   0.6735753  -0.3754189), wk =   0.0185185
        k(   75) = (  -0.5000000   0.4811252  -0.1877094), wk =   0.0370370
        k(   76) = (  -0.5000000   0.4811252  -0.3754189), wk =   0.0370370
        k(   77) = (   0.3333333   0.1924501  -0.1877094), wk =   0.0185185
        k(   78) = (   0.3333333   0.1924501  -0.3754189), wk =   0.0185185
        k(   79) = (  -0.6666667   0.7698004  -0.1877094), wk =   0.0185185
        k(   80) = (  -0.6666667   0.7698004  -0.3754189), wk =   0.0185185

     Check: negative core charge=   -0.000002

     Initial potential from superposition of free atoms

     starting charge      71.9851, renormalised to      72.0000
     Starting wfcs are   52 randomized atomic wfcs

     Self-consistent Calculation

     iteration #  1     ecut=    50.00 Ry     beta= 0.30
     Davidson diagonalization with overlap
     ethr =  1.00E-02,  avg # of iterations =  1.7

     total energy              =    -722.88844731 Ry
     estimated scf accuracy    <       1.47246130 Ry

[...]

     iteration # 26     ecut=    50.00 Ry     beta= 0.30
     Davidson diagonalization with overlap
     c_bands:  2 eigenvalues not converged
     ethr =  1.00E-10,  avg # of iterations = 10.4

[...]

     total energy              =    -723.23376822 Ry
     estimated scf accuracy    <       0.00000001 Ry

     iteration # 29     ecut=    50.00 Ry     beta= 0.30
     Davidson diagonalization with overlap
     ethr =  1.97E-11,  avg # of iterations =  2.5

     End of self-consistent calculation

          k = 0.0000 0.0000 0.0000 (  4329 PWs)   bands (ev):

   -11.5984 -11.1359 -11.0332 -10.8948   0.1976   0.2462   0.4101   0.4172
     0.4175   0.4181   0.5365   0.5866   0.5868   0.6139   0.9909   1.0704
     1.1803   1.1804   1.2652   1.3116   1.3116   1.3282   1.3519   1.4323
     1.5064   1.8180   2.5982   3.0209   3.9612   4.2336   5.0190   5.0197
     5.0639   5.3330   5.6285   5.6292

[...]

          k =-0.5000-0.2887 0.0000 (  4304 PWs)   bands (ev):

[...]

          k = 0.3333 0.1925-0.3754 (  4322 PWs)   bands (ev):

[...]

          k =-0.6667 0.7698-0.3754 (  4340 PWs)   bands (ev):

   -11.0007 -11.0007 -10.9275 -10.9275   0.2649   0.2649   0.3444   0.3444
     0.5694   0.5694   0.7484   0.7484   0.8146   0.8146   0.8898   0.8898
     1.1956   1.1956   1.2678   1.2678   1.4011   1.4011   1.4699   1.4699
     2.1450   2.1450   2.4744   2.4745   3.5927   3.5927   3.8764   3.8764
     4.3199   4.3199   4.4847   4.4847

     highest occupied level (ev):     5.6292

!    total energy              =    -723.23376822 Ry
     estimated scf accuracy    <          4.6E-09 Ry

     The total energy is the sum of the following terms:
     one-electron contribution =    -328.84827965 Ry
     hartree contribution      =     243.34040921 Ry
     xc contribution           =    -218.67766613 Ry
     ewald contribution        =    -419.04823165 Ry

     convergence has been achieved in  29 iterations

     Forces acting on atoms (cartesian axes, Ry/au):

     atom    1 type  1   force =    -0.00001123   -0.00000648    0.00891951
     atom    2 type  2   force =     0.00000221    0.00000127   -0.00891674
     atom    3 type  1   force =     0.00001179    0.00000681    0.00891583
     atom    4 type  2   force =    -0.00000256   -0.00000148   -0.00891719
     atom    5 type  1   force =    -0.00001085   -0.00000627    0.00891806
     atom    6 type  2   force =     0.00000299    0.00000173   -0.00891689
     atom    7 type  1   force =     0.00001003    0.00000579    0.00891475
     atom    8 type  2   force =    -0.00000237   -0.00000137   -0.00891733
     The non-local contrib.  to forces
     atom    1 type  1   force =    -0.00000192   -0.00000111   -0.12705287
     atom    2 type  2   force =    -0.00022107   -0.00012763   -0.11074513
     atom    3 type  1   force =     0.00000239    0.00000138   -0.12705376
     atom    4 type  2   force =     0.00022028    0.00012718   -0.11074587
     atom    5 type  1   force =    -0.00000183   -0.00000106   -0.12705225
     atom    6 type  2   force =    -0.00021972   -0.00012685   -0.11074547
     atom    7 type  1   force =     0.00000103    0.00000059   -0.12705414
     atom    8 type  2   force =     0.00022020    0.00012713   -0.11074654
     The ionic contribution  to forces
     atom    1 type  1   force =     0.00000000    0.00000000   -1.07129358
     atom    2 type  2   force =    -0.00000000   -0.00000000    1.07129358
     atom    3 type  1   force =    -0.00000000   -0.00000000   -1.07129358
     atom    4 type  2   force =     0.00000000    0.00000000    1.07129358
     atom    5 type  1   force =     0.00000000    0.00000000   -1.07129358
     atom    6 type  2   force =    -0.00000000   -0.00000000    1.07129358
     atom    7 type  1   force =    -0.00000000   -0.00000000   -1.07129358
     atom    8 type  2   force =     0.00000000    0.00000000    1.07129358
     The local contribution  to forces
     atom    1 type  1   force =    -0.00001276   -0.00000737    1.20059423
     atom    2 type  2   force =     0.00021868    0.00012625   -0.97039279
     atom    3 type  1   force =     0.00001176    0.00000679    1.20059948
     atom    4 type  2   force =    -0.00022024   -0.00012715   -0.97039331
     atom    5 type  1   force =    -0.00001382   -0.00000798    1.20059443
     atom    6 type  2   force =     0.00021979    0.00012690   -0.97039269
     atom    7 type  1   force =     0.00001548    0.00000894    1.20060061
     atom    8 type  2   force =    -0.00022038   -0.00012723   -0.97039326
     The core correction contribution to forces
     atom    1 type  1   force =     0.00000538    0.00000311    0.00667519
     atom    2 type  2   force =     0.00000251    0.00000145    0.00092548
     atom    3 type  1   force =    -0.00000535   -0.00000309    0.00667498
     atom    4 type  2   force =    -0.00000251   -0.00000145    0.00092548
     atom    5 type  1   force =     0.00000543    0.00000314    0.00667515
     atom    6 type  2   force =     0.00000250    0.00000144    0.00092548
     atom    7 type  1   force =    -0.00000543   -0.00000313    0.00667498
     atom    8 type  2   force =    -0.00000251   -0.00000145    0.00092549
     The Hubbard contrib.    to forces
     atom    1 type  1   force =     0.00000000    0.00000000    0.00000000
     atom    2 type  2   force =     0.00000000    0.00000000    0.00000000
     atom    3 type  1   force =     0.00000000    0.00000000    0.00000000
     atom    4 type  2   force =     0.00000000    0.00000000    0.00000000
     atom    5 type  1   force =     0.00000000    0.00000000    0.00000000
     atom    6 type  2   force =     0.00000000    0.00000000    0.00000000
     atom    7 type  1   force =     0.00000000    0.00000000    0.00000000
     atom    8 type  2   force =     0.00000000    0.00000000    0.00000000
     The SCF correction term to forces
     atom    1 type  1   force =    -0.00000217   -0.00000125   -0.00000699
     atom    2 type  2   force =     0.00000186    0.00000108   -0.00000140
     atom    3 type  1   force =     0.00000277    0.00000160   -0.00001481
     atom    4 type  2   force =    -0.00000032   -0.00000018   -0.00000058
     atom    5 type  1   force =    -0.00000085   -0.00000049   -0.00000920
     atom    6 type  2   force =     0.00000019    0.00000011   -0.00000130
     atom    7 type  1   force =    -0.00000127   -0.00000074   -0.00001665
     atom    8 type  2   force =     0.00000010    0.00000005   -0.00000010

     Total force =     0.025221     Total SCF correction =     0.000026

     Writing all to output data dir ./ZnO-3.27-1.78-211.in.save/

     General routines

     Parallel routines

   This run was terminated on:  15:15: 9  12Jul2025

   JOB DONE.
Note: The following floating-point exceptions are signalling: IEEE_INVALID_FLAG
Note: The following floating-point exceptions are signalling: IEEE_INVALID_FLAG