     Program PWSCF v.7.2 starts on 12Jul2025 at 14:59:27

     Reading input from /home/jvc/QEspresso7.2/ZnO_database/scripts/cell211_strain10%.in/ZnO-3.27-1.68-211.in
Warning: card &CELL ignored
Warning: card / ignored
Warning: card &FCP ignored
Warning: card / ignored
Warning: card &RISM ignored
Warning: card / ignored

     Current dimensions of program PWSCF are:
     Max number of different atomic species (ntypx) = 10
     Max number of k-points (npk) =  40000
     Max angular momentum in pseudopotentials (lmaxx) =  4
     file Zn.upf: wavefunction(s)  3D renormalized
     Found identity + ( -0.5000  0.0000  0.0000) symmetry
     This is a supercell, fractional translations are disabled
     Message from routine setup:
     using ibrav=0 with symmetry is DISCOURAGED, use correct ibrav instead

     K-points division:     npool     =       2
     R & G space division:  proc/nbgrp/npool/nimage =       8
     Subspace diagonalization in iterative solution of the eigenvalue problem:
     a serial algorithm will be used

     Using Slab Decomposition

     bravais-lattice index     =            0
     lattice parameter (alat)  =      12.3577  a.u.
     unit-cell volume          =     685.9899 (a.u.)^3
     number of atoms/cell      =            8
     number of atomic types    =            2
     number of electrons       =        72.00
     number of Kohn-Sham states=           36
     kinetic-energy cutoff     =      50.0000  Ry
     charge density cutoff     =     400.0000  Ry
     scf convergence threshold =      1.0E-08
     mixing beta               =       0.3000
     number of iterations used =            8  plain     mixing
     Exchange-correlation= PBE
                           (   1   4   3   4   0   0   0)

     celldm(1)=  12.357708  celldm(2)=   0.000000  celldm(3)=   0.000000
     celldm(4)=   0.000000  celldm(5)=   0.000000  celldm(6)=   0.000000

     crystal axes: (cart. coord. in units of alat)
               a(1) = (   1.000000   0.000000   0.000000 )
               a(2) = (  -0.250000   0.433013   0.000000 )
               a(3) = (   0.000000   0.000000   0.839466 )

     reciprocal axes: (cart. coord. in units 2 pi/alat)
               b(1) = (  1.000000  0.577350 -0.000000 )
               b(2) = (  0.000000  2.309401  0.000000 )
               b(3) = (  0.000000 -0.000000  1.191233 )

     PseudoPot. # 1 for Zn read from file:
     /home/jvc/QEspresso7.2/ZnO_database/pseudos/Zn.upf
     MD5 check sum: 7f56cabf9682ed8c977c2f7d0c5985c5
     Pseudo is Ultrasoft + core correction, Zval = 12.0
     Generated using &quot;atomic&quot; code by A. Dal Corso  v.6.2.2
     Using radial grid of 1201 points,  6 beta functions with:
                l(1) =   0
                l(2) =   0
                l(3) =   1
                l(4) =   1
                l(5) =   2
                l(6) =   2
     Q(r) pseudized with 0 coefficients

     PseudoPot. # 2 for O  read from file:
     /home/jvc/QEspresso7.2/ZnO_database/pseudos/O.upf
     MD5 check sum: 91400c9766925bcf19f520983a725ff0
     Pseudo is Ultrasoft + core correction, Zval =  6.0
     Generated using &quot;atomic&quot; code by A. Dal Corso  v.6.3MaX
     Using radial grid of 1095 points,  4 beta functions with:
                l(1) =   0
                l(2) =   0
                l(3) =   1
                l(4) =   1
     Q(r) pseudized with 0 coefficients

     atomic species   valence    mass     pseudopotential
        Zn            12.00    65.38000     Zn( 1.00)
        O              6.00    15.99900     O ( 1.00)

      2 Sym. Ops. (no inversion) found

   Cartesian axes

     site n.     atom                  positions (alat units)
         1           Zn  tau(   1) = (   0.0000000   0.0000000   0.0000000  )
         2           O   tau(   2) = (   0.0000000   0.2886751   0.1105972  )
         3           Zn  tau(   3) = (   0.0000000   0.2886751   0.4197332  )
         4           O   tau(   4) = (   0.0000000   0.0000000   0.5303303  )
         5           Zn  tau(   5) = (   0.5000000   0.0000000   0.0000000  )
         6           O   tau(   6) = (   0.5000000   0.2886751   0.1105972  )
         7           Zn  tau(   7) = (   0.5000000   0.2886751   0.4197332  )
         8           O   tau(   8) = (   0.5000000   0.0000000   0.5303303  )

     number of k points=    80
                       cart. coord. in units 2pi/alat
        k(    1) = (   0.0000000   0.0000000   0.0000000), wk =   0.0092593
        k(    2) = (   0.0000000   0.0000000   0.1985388), wk =   0.0185185
        k(    3) = (   0.0000000   0.0000000   0.3970777), wk =   0.0185185
        k(    4) = (   0.0000000   0.0000000  -0.5956165), wk =   0.0092593
        k(    5) = (   0.0000000   0.3849002   0.0000000), wk =   0.0370370
        k(    6) = (   0.0000000   0.3849002   0.1985388), wk =   0.0370370
        k(    7) = (   0.0000000   0.3849002   0.3970777), wk =   0.0370370
        k(    8) = (   0.0000000   0.3849002  -0.5956165), wk =   0.0370370
        k(    9) = (   0.0000000   0.7698004   0.0000000), wk =   0.0370370
        k(   10) = (   0.0000000   0.7698004   0.1985388), wk =   0.0370370
        k(   11) = (   0.0000000   0.7698004   0.3970777), wk =   0.0370370
        k(   12) = (   0.0000000   0.7698004  -0.5956165), wk =   0.0370370
        k(   13) = (   0.0000000  -1.1547005   0.0000000), wk =   0.0092593
        k(   14) = (   0.0000000  -1.1547005   0.1985388), wk =   0.0185185
        k(   15) = (   0.0000000  -1.1547005   0.3970777), wk =   0.0185185
        k(   16) = (   0.0000000  -1.1547005  -0.5956165), wk =   0.0092593
        k(   17) = (   0.1666667   0.0962250   0.0000000), wk =   0.0185185
        k(   18) = (   0.1666667   0.0962250   0.1985388), wk =   0.0185185
        k(   19) = (   0.1666667   0.0962250   0.3970777), wk =   0.0185185
        k(   20) = (   0.1666667   0.0962250  -0.5956165), wk =   0.0185185
        k(   21) = (   0.1666667   0.4811252   0.0000000), wk =   0.0370370
        k(   22) = (   0.1666667   0.4811252   0.1985388), wk =   0.0370370
        k(   23) = (   0.1666667   0.4811252   0.3970777), wk =   0.0370370
        k(   24) = (   0.1666667   0.4811252  -0.5956165), wk =   0.0370370
        k(   25) = (   0.1666667   0.8660254   0.0000000), wk =   0.0185185
        k(   26) = (   0.1666667   0.8660254   0.1985388), wk =   0.0370370
        k(   27) = (   0.1666667   0.8660254   0.3970777), wk =   0.0370370
        k(   28) = (   0.1666667   0.8660254  -0.5956165), wk =   0.0185185
        k(   29) = (   0.1666667  -1.0584755   0.0000000), wk =   0.0185185
        k(   30) = (   0.1666667  -1.0584755   0.1985388), wk =   0.0185185
        k(   31) = (   0.1666667  -1.0584755   0.3970777), wk =   0.0185185
        k(   32) = (   0.1666667  -1.0584755  -0.5956165), wk =   0.0185185
        k(   33) = (   0.1666667  -0.6735753   0.0000000), wk =   0.0370370
        k(   34) = (   0.1666667  -0.6735753   0.1985388), wk =   0.0370370
        k(   35) = (   0.1666667  -0.6735753   0.3970777), wk =   0.0370370
        k(   36) = (   0.1666667  -0.6735753  -0.5956165), wk =   0.0370370
        k(   37) = (   0.1666667  -0.2886751   0.0000000), wk =   0.0185185
        k(   38) = (   0.1666667  -0.2886751   0.1985388), wk =   0.0370370
        k(   39) = (   0.1666667  -0.2886751   0.3970777), wk =   0.0370370
        k(   40) = (   0.1666667  -0.2886751  -0.5956165), wk =   0.0185185
        k(   41) = (   0.3333333   0.1924501   0.0000000), wk =   0.0185185
        k(   42) = (   0.3333333   0.1924501   0.1985388), wk =   0.0185185
        k(   43) = (   0.3333333   0.1924501   0.3970777), wk =   0.0185185
        k(   44) = (   0.3333333   0.1924501  -0.5956165), wk =   0.0185185
        k(   45) = (   0.3333333   0.5773503   0.0000000), wk =   0.0185185
        k(   46) = (   0.3333333   0.5773503   0.1985388), wk =   0.0370370
        k(   47) = (   0.3333333   0.5773503   0.3970777), wk =   0.0370370
        k(   48) = (   0.3333333   0.5773503  -0.5956165), wk =   0.0185185
        k(   49) = (   0.3333333  -0.9622504   0.0000000), wk =   0.0185185
        k(   50) = (   0.3333333  -0.9622504   0.1985388), wk =   0.0185185
        k(   51) = (   0.3333333  -0.9622504   0.3970777), wk =   0.0185185
        k(   52) = (   0.3333333  -0.9622504  -0.5956165), wk =   0.0185185
        k(   53) = (   0.3333333  -0.5773503   0.0000000), wk =   0.0185185
        k(   54) = (   0.3333333  -0.5773503   0.1985388), wk =   0.0370370
        k(   55) = (   0.3333333  -0.5773503   0.3970777), wk =   0.0370370
        k(   56) = (   0.3333333  -0.5773503  -0.5956165), wk =   0.0185185
        k(   57) = (  -0.5000000  -0.2886751   0.0000000), wk =   0.0092593
        k(   58) = (  -0.5000000  -0.2886751   0.1985388), wk =   0.0185185
        k(   59) = (  -0.5000000  -0.2886751   0.3970777), wk =   0.0185185
        k(   60) = (  -0.5000000  -0.2886751  -0.5956165), wk =   0.0092593
[...]
        k(   66) = (   0.3333333  -0.1924501  -0.3970777), wk =   0.0370370
        k(   67) = (   0.6666667  -0.3849002  -0.1985388), wk =   0.0370370
        k(   68) = (   0.6666667  -0.3849002  -0.3970777), wk =   0.0370370
        k(   69) = (   0.1666667   0.0962250  -0.1985388), wk =   0.0185185
        k(   70) = (   0.1666667   0.0962250  -0.3970777), wk =   0.0185185
        k(   71) = (   0.5000000  -0.0962250  -0.1985388), wk =   0.0370370
        k(   72) = (   0.5000000  -0.0962250  -0.3970777), wk =   0.0370370
        k(   73) = (  -0.8333333   0.6735753  -0.1985388), wk =   0.0185185
        k(   74) = (  -0.8333333   0.6735753  -0.3970777), wk =   0.0185185
        k(   75) = (  -0.5000000   0.4811252  -0.1985388), wk =   0.0370370
        k(   76) = (  -0.5000000   0.4811252  -0.3970777), wk =   0.0370370
        k(   77) = (   0.3333333   0.1924501  -0.1985388), wk =   0.0185185
        k(   78) = (   0.3333333   0.1924501  -0.3970777), wk =   0.0185185
        k(   79) = (  -0.6666667   0.7698004  -0.1985388), wk =   0.0185185
        k(   80) = (  -0.6666667   0.7698004  -0.3970777), wk =   0.0185185

     Check: negative core charge=   -0.000002

     Initial potential from superposition of free atoms

     starting charge      71.9851, renormalised to      72.0000
     Starting wfcs are   52 randomized atomic wfcs

     Self-consistent Calculation

     iteration #  1     ecut=    50.00 Ry     beta= 0.30
     Davidson diagonalization with overlap
     ethr =  1.00E-02,  avg # of iterations =  1.9

     total energy              =    -722.94364448 Ry
     estimated scf accuracy    <       1.40954122 Ry

[...]

     total energy              =    -723.26875842 Ry
     estimated scf accuracy    <       0.00000003 Ry

     iteration # 26     ecut=    50.00 Ry     beta= 0.30
     Davidson diagonalization with overlap
     ethr =  4.14E-11,  avg # of iterations =  5.0

     End of self-consistent calculation

          k = 0.0000 0.0000 0.0000 (  4079 PWs)   bands (ev):

   -11.2598 -10.6782 -10.6486 -10.4721   0.7534   0.8521   0.9493   0.9496
     0.9732   1.0031   1.1290   1.1404   1.1406   1.3657   1.6112   1.6414
     1.9184   1.9185   1.9350   2.0774   2.0828   2.0828   2.1260   2.2047
     2.3116   2.6102   3.0932   3.6534   4.3801   5.0448   5.6355   5.6359
     5.6578   6.2193   6.3459   6.3463

[...]

          k =-0.5000-0.2887 0.0000 (  4080 PWs)   bands (ev):

[...]

          k = 0.3333 0.1925-0.3971 (  4085 PWs)   bands (ev):

[...]

          k =-0.6667 0.7698-0.3971 (  4108 PWs)   bands (ev):

   -10.6053 -10.6053 -10.5120 -10.5120   0.7637   0.7637   0.8586   0.8586
     1.1629   1.1629   1.3308   1.3308   1.4571   1.4571   1.4895   1.4895
     1.9597   1.9597   2.0362   2.0362   2.1616   2.1616   2.2631   2.2631
     2.7671   2.7671   3.1156   3.1156   4.1458   4.1459   4.5367   4.5367
     4.9444   4.9444   5.2371   5.2371

     highest occupied level (ev):     6.3463

!    total energy              =    -723.26875843 Ry
     estimated scf accuracy    <          2.0E-09 Ry

     The total energy is the sum of the following terms:
     one-electron contribution =    -317.49316044 Ry
     hartree contribution      =     239.48836946 Ry
     xc contribution           =    -218.92419318 Ry
     ewald contribution        =    -426.33977426 Ry

     convergence has been achieved in  26 iterations

     Forces acting on atoms (cartesian axes, Ry/au):

     atom    1 type  1   force =    -0.00001073   -0.00000619    0.00278464
     atom    2 type  2   force =    -0.00000002   -0.00000001   -0.00278463
     atom    3 type  1   force =     0.00000769    0.00000444    0.00278630
     atom    4 type  2   force =    -0.00000031   -0.00000018   -0.00278538
     atom    5 type  1   force =    -0.00000704   -0.00000407    0.00278307
     atom    6 type  2   force =     0.00000076    0.00000044   -0.00278463
     atom    7 type  1   force =     0.00000990    0.00000571    0.00278589
     atom    8 type  2   force =    -0.00000024   -0.00000014   -0.00278525
     The non-local contrib.  to forces
     atom    1 type  1   force =     0.00001199    0.00000692   -0.04708338
     atom    2 type  2   force =    -0.00019172   -0.00011069   -0.04725526
     atom    3 type  1   force =    -0.00001325   -0.00000765   -0.04708244
     atom    4 type  2   force =     0.00019288    0.00011136   -0.04725747
     atom    5 type  1   force =     0.00001323    0.00000764   -0.04708394
     atom    6 type  2   force =    -0.00019194   -0.00011082   -0.04725585
     atom    7 type  1   force =    -0.00001177   -0.00000680   -0.04708214
     atom    8 type  2   force =     0.00019155    0.00011059   -0.04725680
     The ionic contribution  to forces
     atom    1 type  1   force =     0.00000000    0.00000000   -0.46076443
     atom    2 type  2   force =    -0.00000000   -0.00000000    0.46076443
     atom    3 type  1   force =    -0.00000000   -0.00000000   -0.46076443
     atom    4 type  2   force =     0.00000000    0.00000000    0.46076443
     atom    5 type  1   force =     0.00000000    0.00000000   -0.46076443
     atom    6 type  2   force =    -0.00000000   -0.00000000    0.46076443
     atom    7 type  1   force =    -0.00000000   -0.00000000   -0.46076443
     atom    8 type  2   force =     0.00000000    0.00000000    0.46076443
     The local contribution  to forces
     atom    1 type  1   force =    -0.00002377   -0.00001372    0.50812216
     atom    2 type  2   force =     0.00019146    0.00011054   -0.41669300
     atom    3 type  1   force =     0.00002694    0.00001555    0.50812101
     atom    4 type  2   force =    -0.00018989   -0.00010964   -0.41669280
     atom    5 type  1   force =    -0.00002804   -0.00001619    0.50812417
     atom    6 type  2   force =     0.00018875    0.00010898   -0.41669305
     atom    7 type  1   force =     0.00002480    0.00001432    0.50812085
     atom    8 type  2   force =    -0.00019138   -0.00011049   -0.41669482
     The core correction contribution to forces
     atom    1 type  1   force =     0.00000489    0.00000282    0.00251066
     atom    2 type  2   force =     0.00000219    0.00000126    0.00040000
     atom    3 type  1   force =    -0.00000485   -0.00000280    0.00251055
     atom    4 type  2   force =    -0.00000220   -0.00000127    0.00040000
     atom    5 type  1   force =     0.00000491    0.00000284    0.00251063
     atom    6 type  2   force =     0.00000218    0.00000126    0.00040000
     atom    7 type  1   force =    -0.00000495   -0.00000286    0.00251055
     atom    8 type  2   force =    -0.00000218   -0.00000126    0.00039999
     The Hubbard contrib.    to forces
     atom    1 type  1   force =     0.00000000    0.00000000    0.00000000
     atom    2 type  2   force =     0.00000000    0.00000000    0.00000000
     atom    3 type  1   force =     0.00000000    0.00000000    0.00000000
     atom    4 type  2   force =     0.00000000    0.00000000    0.00000000
     atom    5 type  1   force =     0.00000000    0.00000000    0.00000000
     atom    6 type  2   force =     0.00000000    0.00000000    0.00000000
     atom    7 type  1   force =     0.00000000    0.00000000    0.00000000
     atom    8 type  2   force =     0.00000000    0.00000000    0.00000000
     The SCF correction term to forces
     atom    1 type  1   force =    -0.00000392   -0.00000226    0.00000153
     atom    2 type  2   force =    -0.00000203   -0.00000117    0.00000111
     atom    3 type  1   force =    -0.00000123   -0.00000071    0.00000350
     atom    4 type  2   force =    -0.00000118   -0.00000068    0.00000237
     atom    5 type  1   force =     0.00000277    0.00000160   -0.00000146
     atom    6 type  2   force =     0.00000168    0.00000097    0.00000175
     atom    7 type  1   force =     0.00000174    0.00000100    0.00000297
     atom    8 type  2   force =     0.00000170    0.00000098    0.00000386

     Total force =     0.007877     Total SCF correction =     0.000010

     Writing all to output data dir ./ZnO-3.27-1.68-211.in.save/

     General routines

     Parallel routines

   This run was terminated on:  15: 3: 8  12Jul2025

   JOB DONE.
Note: The following floating-point exceptions are signalling: IEEE_INVALID_FLAG
Note: The following floating-point exceptions are signalling: IEEE_INVALID_FLAG