     Program PWSCF v.7.2 starts on 12Jul2025 at 12: 0:25

     Reading input from /home/jvc/QEspresso7.2/ZnO_database/scripts/cell211_strain10%.in/ZnO-2.94-1.55-211.in
Warning: card &CELL ignored
Warning: card / ignored
Warning: card &FCP ignored
Warning: card / ignored
Warning: card &RISM ignored
Warning: card / ignored

     Current dimensions of program PWSCF are:
     Max number of different atomic species (ntypx) = 10
     Max number of k-points (npk) =  40000
     Max angular momentum in pseudopotentials (lmaxx) =  4
     file Zn.upf: wavefunction(s)  3D renormalized
     Found identity + ( -0.5000  0.0000  0.0000) symmetry
     This is a supercell, fractional translations are disabled
     Message from routine setup:
     using ibrav=0 with symmetry is DISCOURAGED, use correct ibrav instead

     K-points division:     npool     =       2
     R & G space division:  proc/nbgrp/npool/nimage =       8
     Subspace diagonalization in iterative solution of the eigenvalue problem:
     a serial algorithm will be used

     Using Slab Decomposition

     bravais-lattice index     =            0
     lattice parameter (alat)  =      11.1219  a.u.
     unit-cell volume          =     461.6184 (a.u.)^3
     number of atoms/cell      =            8
     number of atomic types    =            2
     number of electrons       =        72.00
     number of Kohn-Sham states=           36
     kinetic-energy cutoff     =      50.0000  Ry
     charge density cutoff     =     400.0000  Ry
     scf convergence threshold =      1.0E-08
     mixing beta               =       0.3000
     number of iterations used =            8  plain     mixing
     Exchange-correlation= PBE
                           (   1   4   3   4   0   0   0)

     celldm(1)=  11.121937  celldm(2)=   0.000000  celldm(3)=   0.000000
     celldm(4)=   0.000000  celldm(5)=   0.000000  celldm(6)=   0.000000

     crystal axes: (cart. coord. in units of alat)
               a(1) = (   1.000000   0.000000   0.000000 )
               a(2) = (  -0.250000   0.433013   0.000000 )
               a(3) = (   0.000000   0.000000   0.774892 )

     reciprocal axes: (cart. coord. in units 2 pi/alat)
               b(1) = (  1.000000  0.577350 -0.000000 )
               b(2) = (  0.000000  2.309401  0.000000 )
               b(3) = (  0.000000 -0.000000  1.290502 )

     PseudoPot. # 1 for Zn read from file:
     /home/jvc/QEspresso7.2/ZnO_database/pseudos/Zn.upf
     MD5 check sum: 7f56cabf9682ed8c977c2f7d0c5985c5
     Pseudo is Ultrasoft + core correction, Zval = 12.0
     Generated using &quot;atomic&quot; code by A. Dal Corso  v.6.2.2
     Using radial grid of 1201 points,  6 beta functions with:
                l(1) =   0
                l(2) =   0
                l(3) =   1
                l(4) =   1
                l(5) =   2
                l(6) =   2
     Q(r) pseudized with 0 coefficients

     PseudoPot. # 2 for O  read from file:
     /home/jvc/QEspresso7.2/ZnO_database/pseudos/O.upf
     MD5 check sum: 91400c9766925bcf19f520983a725ff0
     Pseudo is Ultrasoft + core correction, Zval =  6.0
     Generated using &quot;atomic&quot; code by A. Dal Corso  v.6.3MaX
     Using radial grid of 1095 points,  4 beta functions with:
                l(1) =   0
                l(2) =   0
                l(3) =   1
                l(4) =   1
     Q(r) pseudized with 0 coefficients

     atomic species   valence    mass     pseudopotential
        Zn            12.00    65.38000     Zn( 1.00)
        O              6.00    15.99900     O ( 1.00)

      2 Sym. Ops. (no inversion) found

   Cartesian axes

     site n.     atom                  positions (alat units)
         1           Zn  tau(   1) = (   0.0000000   0.0000000   0.0000000  )
         2           O   tau(   2) = (   0.0000000   0.2886751   0.0861811  )
         3           Zn  tau(   3) = (   0.0000000   0.2886751   0.3874460  )
         4           O   tau(   4) = (   0.0000000   0.0000000   0.4736271  )
         5           Zn  tau(   5) = (   0.5000000   0.0000000   0.0000000  )
         6           O   tau(   6) = (   0.5000000   0.2886751   0.0861811  )
         7           Zn  tau(   7) = (   0.5000000   0.2886751   0.3874460  )
         8           O   tau(   8) = (   0.5000000   0.0000000   0.4736271  )

     number of k points=    80
                       cart. coord. in units 2pi/alat
        k(    1) = (   0.0000000   0.0000000   0.0000000), wk =   0.0092593
        k(    2) = (   0.0000000   0.0000000   0.2150837), wk =   0.0185185
        k(    3) = (   0.0000000   0.0000000   0.4301675), wk =   0.0185185
        k(    4) = (   0.0000000   0.0000000  -0.6452512), wk =   0.0092593
        k(    5) = (   0.0000000   0.3849002   0.0000000), wk =   0.0370370
        k(    6) = (   0.0000000   0.3849002   0.2150837), wk =   0.0370370
        k(    7) = (   0.0000000   0.3849002   0.4301675), wk =   0.0370370
        k(    8) = (   0.0000000   0.3849002  -0.6452512), wk =   0.0370370
        k(    9) = (   0.0000000   0.7698004   0.0000000), wk =   0.0370370
        k(   10) = (   0.0000000   0.7698004   0.2150837), wk =   0.0370370
        k(   11) = (   0.0000000   0.7698004   0.4301675), wk =   0.0370370
        k(   12) = (   0.0000000   0.7698004  -0.6452512), wk =   0.0370370
        k(   13) = (   0.0000000  -1.1547005   0.0000000), wk =   0.0092593
        k(   14) = (   0.0000000  -1.1547005   0.2150837), wk =   0.0185185
        k(   15) = (   0.0000000  -1.1547005   0.4301675), wk =   0.0185185
        k(   16) = (   0.0000000  -1.1547005  -0.6452512), wk =   0.0092593
        k(   17) = (   0.1666667   0.0962250   0.0000000), wk =   0.0185185
        k(   18) = (   0.1666667   0.0962250   0.2150837), wk =   0.0185185
        k(   19) = (   0.1666667   0.0962250   0.4301675), wk =   0.0185185
        k(   20) = (   0.1666667   0.0962250  -0.6452512), wk =   0.0185185
        k(   21) = (   0.1666667   0.4811252   0.0000000), wk =   0.0370370
        k(   22) = (   0.1666667   0.4811252   0.2150837), wk =   0.0370370
        k(   23) = (   0.1666667   0.4811252   0.4301675), wk =   0.0370370
        k(   24) = (   0.1666667   0.4811252  -0.6452512), wk =   0.0370370
        k(   25) = (   0.1666667   0.8660254   0.0000000), wk =   0.0185185
        k(   26) = (   0.1666667   0.8660254   0.2150837), wk =   0.0370370
        k(   27) = (   0.1666667   0.8660254   0.4301675), wk =   0.0370370
        k(   28) = (   0.1666667   0.8660254  -0.6452512), wk =   0.0185185
        k(   29) = (   0.1666667  -1.0584755   0.0000000), wk =   0.0185185
        k(   30) = (   0.1666667  -1.0584755   0.2150837), wk =   0.0185185
        k(   31) = (   0.1666667  -1.0584755   0.4301675), wk =   0.0185185
        k(   32) = (   0.1666667  -1.0584755  -0.6452512), wk =   0.0185185
        k(   33) = (   0.1666667  -0.6735753   0.0000000), wk =   0.0370370
        k(   34) = (   0.1666667  -0.6735753   0.2150837), wk =   0.0370370
        k(   35) = (   0.1666667  -0.6735753   0.4301675), wk =   0.0370370
        k(   36) = (   0.1666667  -0.6735753  -0.6452512), wk =   0.0370370
        k(   37) = (   0.1666667  -0.2886751   0.0000000), wk =   0.0185185
        k(   38) = (   0.1666667  -0.2886751   0.2150837), wk =   0.0370370
        k(   39) = (   0.1666667  -0.2886751   0.4301675), wk =   0.0370370
        k(   40) = (   0.1666667  -0.2886751  -0.6452512), wk =   0.0185185
        k(   41) = (   0.3333333   0.1924501   0.0000000), wk =   0.0185185
        k(   42) = (   0.3333333   0.1924501   0.2150837), wk =   0.0185185
        k(   43) = (   0.3333333   0.1924501   0.4301675), wk =   0.0185185
        k(   44) = (   0.3333333   0.1924501  -0.6452512), wk =   0.0185185
        k(   45) = (   0.3333333   0.5773503   0.0000000), wk =   0.0185185
        k(   46) = (   0.3333333   0.5773503   0.2150837), wk =   0.0370370
        k(   47) = (   0.3333333   0.5773503   0.4301675), wk =   0.0370370
        k(   48) = (   0.3333333   0.5773503  -0.6452512), wk =   0.0185185
        k(   49) = (   0.3333333  -0.9622504   0.0000000), wk =   0.0185185
        k(   50) = (   0.3333333  -0.9622504   0.2150837), wk =   0.0185185
        k(   51) = (   0.3333333  -0.9622504   0.4301675), wk =   0.0185185
        k(   52) = (   0.3333333  -0.9622504  -0.6452512), wk =   0.0185185
        k(   53) = (   0.3333333  -0.5773503   0.0000000), wk =   0.0185185
        k(   54) = (   0.3333333  -0.5773503   0.2150837), wk =   0.0370370
        k(   55) = (   0.3333333  -0.5773503   0.4301675), wk =   0.0370370
        k(   56) = (   0.3333333  -0.5773503  -0.6452512), wk =   0.0185185
        k(   57) = (  -0.5000000  -0.2886751   0.0000000), wk =   0.0092593
        k(   58) = (  -0.5000000  -0.2886751   0.2150837), wk =   0.0185185
        k(   59) = (  -0.5000000  -0.2886751   0.4301675), wk =   0.0185185
        k(   60) = (  -0.5000000  -0.2886751  -0.6452512), wk =   0.0092593
[...]
        k(   66) = (   0.3333333  -0.1924501  -0.4301675), wk =   0.0370370
        k(   67) = (   0.6666667  -0.3849002  -0.2150837), wk =   0.0370370
        k(   68) = (   0.6666667  -0.3849002  -0.4301675), wk =   0.0370370
        k(   69) = (   0.1666667   0.0962250  -0.2150837), wk =   0.0185185
        k(   70) = (   0.1666667   0.0962250  -0.4301675), wk =   0.0185185
        k(   71) = (   0.5000000  -0.0962250  -0.2150837), wk =   0.0370370
        k(   72) = (   0.5000000  -0.0962250  -0.4301675), wk =   0.0370370
        k(   73) = (  -0.8333333   0.6735753  -0.2150837), wk =   0.0185185
        k(   74) = (  -0.8333333   0.6735753  -0.4301675), wk =   0.0185185
        k(   75) = (  -0.5000000   0.4811252  -0.2150837), wk =   0.0370370
        k(   76) = (  -0.5000000   0.4811252  -0.4301675), wk =   0.0370370
        k(   77) = (   0.3333333   0.1924501  -0.2150837), wk =   0.0185185
        k(   78) = (   0.3333333   0.1924501  -0.4301675), wk =   0.0185185
        k(   79) = (  -0.6666667   0.7698004  -0.2150837), wk =   0.0185185
        k(   80) = (  -0.6666667   0.7698004  -0.4301675), wk =   0.0185185

     Initial potential from superposition of free atoms

     starting charge      71.9851, renormalised to      72.0000
     Starting wfcs are   52 randomized atomic wfcs

     Self-consistent Calculation

     iteration #  1     ecut=    50.00 Ry     beta= 0.30
     Davidson diagonalization with overlap
     ethr =  1.00E-02,  avg # of iterations =  2.2

     total energy              =    -722.49117067 Ry
     estimated scf accuracy    <       1.38444246 Ry

[...]

     total energy              =    -722.73992914 Ry
     estimated scf accuracy    <       0.00000007 Ry

     iteration # 19     ecut=    50.00 Ry     beta= 0.30
     Davidson diagonalization with overlap
     ethr =  3.41E-11,  avg # of iterations =  5.7

     End of self-consistent calculation

          k = 0.0000 0.0000 0.0000 (  2783 PWs)   bands (ev):

    -8.1439  -6.8765  -6.6882  -6.4282   4.5723   4.6461   4.6508   5.2282
     5.2283   5.4929   5.4931   5.5685   5.7382   5.8479   6.4853   6.5954
     7.6343   7.6343   7.7326   7.9627   8.0745   8.1164   8.1164   8.2186
     8.3889   8.6707   9.0339   9.4889   9.7071  11.5375  11.8459  12.0645
    12.0647  12.9752  13.3099  13.3101

[...]

          k =-0.5000-0.2887 0.0000 (  2762 PWs)   bands (ev):

[...]

          k = 0.3333 0.1925-0.4302 (  2763 PWs)   bands (ev):

[...]

          k =-0.6667 0.7698-0.4302 (  2744 PWs)   bands (ev):

    -6.7515  -6.7515  -6.5091  -6.5090   4.4473   4.4473   4.5261   4.5261
     5.6017   5.6017   5.6857   5.6857   6.1658   6.1658   6.2727   6.2727
     7.7708   7.7708   7.9445   7.9445   8.1841   8.1841   8.3959   8.3959
     8.7114   8.7114   9.1598   9.1598   9.8057   9.8057  10.6104  10.6104
    11.0195  11.0195  11.7804  11.7804

     highest occupied level (ev):    13.3101

!    total energy              =    -722.73992915 Ry
     estimated scf accuracy    <          9.1E-10 Ry

     The total energy is the sum of the following terms:
     one-electron contribution =    -223.23986344 Ry
     hartree contribution      =     207.55878560 Ry
     xc contribution           =    -220.90988733 Ry
     ewald contribution        =    -486.14896398 Ry

     convergence has been achieved in  19 iterations

     Forces acting on atoms (cartesian axes, Ry/au):

     atom    1 type  1   force =    -0.00000789   -0.00000456    0.01902147
     atom    2 type  2   force =    -0.00000589   -0.00000340   -0.01902219
     atom    3 type  1   force =     0.00001804    0.00001042    0.01902526
     atom    4 type  2   force =     0.00000464    0.00000268   -0.01902340
     atom    5 type  1   force =    -0.00001325   -0.00000765    0.01902210
     atom    6 type  2   force =    -0.00000527   -0.00000304   -0.01902269
     atom    7 type  1   force =     0.00000430    0.00000248    0.01902210
     atom    8 type  2   force =     0.00000532    0.00000307   -0.01902265
     The non-local contrib.  to forces
     atom    1 type  1   force =     0.00003370    0.00001946    0.08259870
     atom    2 type  2   force =    -0.00014244   -0.00008224    0.05135902
     atom    3 type  1   force =    -0.00002846   -0.00001643    0.08260182
     atom    4 type  2   force =     0.00013866    0.00008006    0.05135774
     atom    5 type  1   force =     0.00003028    0.00001748    0.08259972
     atom    6 type  2   force =    -0.00013829   -0.00007984    0.05135870
     atom    7 type  1   force =    -0.00003501   -0.00002021    0.08259953
     atom    8 type  2   force =     0.00014076    0.00008127    0.05135861
     The ionic contribution  to forces
     atom    1 type  1   force =     0.00000000    0.00000000    0.52804223
     atom    2 type  2   force =    -0.00000000   -0.00000000   -0.52804223
     atom    3 type  1   force =    -0.00000000   -0.00000000    0.52804223
     atom    4 type  2   force =     0.00000000    0.00000000   -0.52804223
     atom    5 type  1   force =     0.00000000    0.00000000    0.52804223
     atom    6 type  2   force =    -0.00000000   -0.00000000   -0.52804223
     atom    7 type  1   force =    -0.00000000   -0.00000000    0.52804223
     atom    8 type  2   force =     0.00000000    0.00000000   -0.52804223
     The local contribution  to forces
     atom    1 type  1   force =    -0.00005208   -0.00003007   -0.58339086
     atom    2 type  2   force =     0.00013284    0.00007669    0.45796346
     atom    3 type  1   force =     0.00003615    0.00002087   -0.58339380
     atom    4 type  2   force =    -0.00013696   -0.00007907    0.45795861
     atom    5 type  1   force =    -0.00004362   -0.00002518   -0.58338906
     atom    6 type  2   force =     0.00013604    0.00007854    0.45796218
     atom    7 type  1   force =     0.00005852    0.00003379   -0.58339097
     atom    8 type  2   force =    -0.00012997   -0.00007504    0.45796113
     The core correction contribution to forces
     atom    1 type  1   force =     0.00000365    0.00000211   -0.00822957
     atom    2 type  2   force =     0.00000159    0.00000092   -0.00029243
     atom    3 type  1   force =    -0.00000353   -0.00000204   -0.00822986
     atom    4 type  2   force =    -0.00000155   -0.00000089   -0.00029243
     atom    5 type  1   force =     0.00000365    0.00000211   -0.00822983
     atom    6 type  2   force =     0.00000154    0.00000089   -0.00029243
     atom    7 type  1   force =    -0.00000383   -0.00000221   -0.00822968
     atom    8 type  2   force =    -0.00000156   -0.00000090   -0.00029243
     The Hubbard contrib.    to forces
     atom    1 type  1   force =     0.00000000    0.00000000    0.00000000
     atom    2 type  2   force =     0.00000000    0.00000000    0.00000000
     atom    3 type  1   force =     0.00000000    0.00000000    0.00000000
     atom    4 type  2   force =     0.00000000    0.00000000    0.00000000
     atom    5 type  1   force =     0.00000000    0.00000000    0.00000000
     atom    6 type  2   force =     0.00000000    0.00000000    0.00000000
     atom    7 type  1   force =     0.00000000    0.00000000    0.00000000
     atom    8 type  2   force =     0.00000000    0.00000000    0.00000000
     The SCF correction term to forces
     atom    1 type  1   force =     0.00000702    0.00000405    0.00000532
     atom    2 type  2   force =     0.00000230    0.00000133   -0.00000567
     atom    3 type  1   force =     0.00001407    0.00000812    0.00000921
     atom    4 type  2   force =     0.00000467    0.00000269   -0.00000075
     atom    5 type  1   force =    -0.00000338   -0.00000195    0.00000340
     atom    6 type  2   force =    -0.00000437   -0.00000252   -0.00000458
     atom    7 type  1   force =    -0.00001520   -0.00000878    0.00000535
     atom    8 type  2   force =    -0.00000373   -0.00000215   -0.00000338

     Total force =     0.053804     Total SCF correction =     0.000031

     Writing all to output data dir ./ZnO-2.94-1.55-211.in.save/

     General routines

     Parallel routines

   This run was terminated on:  12: 2:20  12Jul2025

   JOB DONE.
Note: The following floating-point exceptions are signalling: IEEE_INVALID_FLAG
Note: The following floating-point exceptions are signalling: IEEE_INVALID_FLAG