     Program PWSCF v.7.2 starts on 12Jul2025 at 11:55: 9

     Reading input from /home/jvc/QEspresso7.2/ZnO_database/scripts/cell211_strain10%.in/ZnO-2.94-1.45-211.in
Warning: card &CELL ignored
Warning: card / ignored
Warning: card &FCP ignored
Warning: card / ignored
Warning: card &RISM ignored
Warning: card / ignored

     Current dimensions of program PWSCF are:
     Max number of different atomic species (ntypx) = 10
     Max number of k-points (npk) =  40000
     Max angular momentum in pseudopotentials (lmaxx) =  4
     file Zn.upf: wavefunction(s)  3D renormalized
     Found identity + ( -0.5000  0.0000  0.0000) symmetry
     This is a supercell, fractional translations are disabled
     Message from routine setup:
     using ibrav=0 with symmetry is DISCOURAGED, use correct ibrav instead

     K-points division:     npool     =       2
     R & G space division:  proc/nbgrp/npool/nimage =       8
     Subspace diagonalization in iterative solution of the eigenvalue problem:
     a serial algorithm will be used

     Using Slab Decomposition

     bravais-lattice index     =            0
     lattice parameter (alat)  =      11.1219  a.u.
     unit-cell volume          =     432.7673 (a.u.)^3
     number of atoms/cell      =            8
     number of atomic types    =            2
     number of electrons       =        72.00
     number of Kohn-Sham states=           36
     kinetic-energy cutoff     =      50.0000  Ry
     charge density cutoff     =     400.0000  Ry
     scf convergence threshold =      1.0E-08
     mixing beta               =       0.3000
     number of iterations used =            8  plain     mixing
     Exchange-correlation= PBE
                           (   1   4   3   4   0   0   0)

     celldm(1)=  11.121937  celldm(2)=   0.000000  celldm(3)=   0.000000
     celldm(4)=   0.000000  celldm(5)=   0.000000  celldm(6)=   0.000000

     crystal axes: (cart. coord. in units of alat)
               a(1) = (   1.000000   0.000000   0.000000 )
               a(2) = (  -0.250000   0.433013   0.000000 )
               a(3) = (   0.000000   0.000000   0.726461 )

     reciprocal axes: (cart. coord. in units 2 pi/alat)
               b(1) = (  1.000000  0.577350 -0.000000 )
               b(2) = (  0.000000  2.309401  0.000000 )
               b(3) = (  0.000000 -0.000000  1.376536 )

     PseudoPot. # 1 for Zn read from file:
     /home/jvc/QEspresso7.2/ZnO_database/pseudos/Zn.upf
     MD5 check sum: 7f56cabf9682ed8c977c2f7d0c5985c5
     Pseudo is Ultrasoft + core correction, Zval = 12.0
     Generated using &quot;atomic&quot; code by A. Dal Corso  v.6.2.2
     Using radial grid of 1201 points,  6 beta functions with:
                l(1) =   0
                l(2) =   0
                l(3) =   1
                l(4) =   1
                l(5) =   2
                l(6) =   2
     Q(r) pseudized with 0 coefficients

     PseudoPot. # 2 for O  read from file:
     /home/jvc/QEspresso7.2/ZnO_database/pseudos/O.upf
     MD5 check sum: 91400c9766925bcf19f520983a725ff0
     Pseudo is Ultrasoft + core correction, Zval =  6.0
     Generated using &quot;atomic&quot; code by A. Dal Corso  v.6.3MaX
     Using radial grid of 1095 points,  4 beta functions with:
                l(1) =   0
                l(2) =   0
                l(3) =   1
                l(4) =   1
     Q(r) pseudized with 0 coefficients

     atomic species   valence    mass     pseudopotential
        Zn            12.00    65.38000     Zn( 1.00)
        O              6.00    15.99900     O ( 1.00)

      2 Sym. Ops. (no inversion) found

   Cartesian axes

     site n.     atom                  positions (alat units)
         1           Zn  tau(   1) = (   0.0000000   0.0000000   0.0000000  )
         2           O   tau(   2) = (   0.0000000   0.2886751   0.0669040  )
         3           Zn  tau(   3) = (   0.0000000   0.2886751   0.3632306  )
         4           O   tau(   4) = (   0.0000000   0.0000000   0.4301346  )
         5           Zn  tau(   5) = (   0.5000000   0.0000000   0.0000000  )
         6           O   tau(   6) = (   0.5000000   0.2886751   0.0669040  )
         7           Zn  tau(   7) = (   0.5000000   0.2886751   0.3632306  )
         8           O   tau(   8) = (   0.5000000   0.0000000   0.4301346  )

     number of k points=    80
                       cart. coord. in units 2pi/alat
        k(    1) = (   0.0000000   0.0000000   0.0000000), wk =   0.0092593
        k(    2) = (   0.0000000   0.0000000   0.2294226), wk =   0.0185185
        k(    3) = (   0.0000000   0.0000000   0.4588453), wk =   0.0185185
        k(    4) = (   0.0000000   0.0000000  -0.6882679), wk =   0.0092593
        k(    5) = (   0.0000000   0.3849002   0.0000000), wk =   0.0370370
        k(    6) = (   0.0000000   0.3849002   0.2294226), wk =   0.0370370
        k(    7) = (   0.0000000   0.3849002   0.4588453), wk =   0.0370370
        k(    8) = (   0.0000000   0.3849002  -0.6882679), wk =   0.0370370
        k(    9) = (   0.0000000   0.7698004   0.0000000), wk =   0.0370370
        k(   10) = (   0.0000000   0.7698004   0.2294226), wk =   0.0370370
        k(   11) = (   0.0000000   0.7698004   0.4588453), wk =   0.0370370
        k(   12) = (   0.0000000   0.7698004  -0.6882679), wk =   0.0370370
        k(   13) = (   0.0000000  -1.1547005   0.0000000), wk =   0.0092593
        k(   14) = (   0.0000000  -1.1547005   0.2294226), wk =   0.0185185
        k(   15) = (   0.0000000  -1.1547005   0.4588453), wk =   0.0185185
        k(   16) = (   0.0000000  -1.1547005  -0.6882679), wk =   0.0092593
        k(   17) = (   0.1666667   0.0962250   0.0000000), wk =   0.0185185
        k(   18) = (   0.1666667   0.0962250   0.2294226), wk =   0.0185185
        k(   19) = (   0.1666667   0.0962250   0.4588453), wk =   0.0185185
        k(   20) = (   0.1666667   0.0962250  -0.6882679), wk =   0.0185185
        k(   21) = (   0.1666667   0.4811252   0.0000000), wk =   0.0370370
        k(   22) = (   0.1666667   0.4811252   0.2294226), wk =   0.0370370
        k(   23) = (   0.1666667   0.4811252   0.4588453), wk =   0.0370370
        k(   24) = (   0.1666667   0.4811252  -0.6882679), wk =   0.0370370
        k(   25) = (   0.1666667   0.8660254   0.0000000), wk =   0.0185185
        k(   26) = (   0.1666667   0.8660254   0.2294226), wk =   0.0370370
        k(   27) = (   0.1666667   0.8660254   0.4588453), wk =   0.0370370
        k(   28) = (   0.1666667   0.8660254  -0.6882679), wk =   0.0185185
        k(   29) = (   0.1666667  -1.0584755   0.0000000), wk =   0.0185185
        k(   30) = (   0.1666667  -1.0584755   0.2294226), wk =   0.0185185
        k(   31) = (   0.1666667  -1.0584755   0.4588453), wk =   0.0185185
        k(   32) = (   0.1666667  -1.0584755  -0.6882679), wk =   0.0185185
        k(   33) = (   0.1666667  -0.6735753   0.0000000), wk =   0.0370370
        k(   34) = (   0.1666667  -0.6735753   0.2294226), wk =   0.0370370
        k(   35) = (   0.1666667  -0.6735753   0.4588453), wk =   0.0370370
        k(   36) = (   0.1666667  -0.6735753  -0.6882679), wk =   0.0370370
        k(   37) = (   0.1666667  -0.2886751   0.0000000), wk =   0.0185185
        k(   38) = (   0.1666667  -0.2886751   0.2294226), wk =   0.0370370
        k(   39) = (   0.1666667  -0.2886751   0.4588453), wk =   0.0370370
        k(   40) = (   0.1666667  -0.2886751  -0.6882679), wk =   0.0185185
        k(   41) = (   0.3333333   0.1924501   0.0000000), wk =   0.0185185
        k(   42) = (   0.3333333   0.1924501   0.2294226), wk =   0.0185185
        k(   43) = (   0.3333333   0.1924501   0.4588453), wk =   0.0185185
        k(   44) = (   0.3333333   0.1924501  -0.6882679), wk =   0.0185185
        k(   45) = (   0.3333333   0.5773503   0.0000000), wk =   0.0185185
        k(   46) = (   0.3333333   0.5773503   0.2294226), wk =   0.0370370
        k(   47) = (   0.3333333   0.5773503   0.4588453), wk =   0.0370370
        k(   48) = (   0.3333333   0.5773503  -0.6882679), wk =   0.0185185
        k(   49) = (   0.3333333  -0.9622504   0.0000000), wk =   0.0185185
        k(   50) = (   0.3333333  -0.9622504   0.2294226), wk =   0.0185185
        k(   51) = (   0.3333333  -0.9622504   0.4588453), wk =   0.0185185
        k(   52) = (   0.3333333  -0.9622504  -0.6882679), wk =   0.0185185
        k(   53) = (   0.3333333  -0.5773503   0.0000000), wk =   0.0185185
        k(   54) = (   0.3333333  -0.5773503   0.2294226), wk =   0.0370370
        k(   55) = (   0.3333333  -0.5773503   0.4588453), wk =   0.0370370
        k(   56) = (   0.3333333  -0.5773503  -0.6882679), wk =   0.0185185
        k(   57) = (  -0.5000000  -0.2886751   0.0000000), wk =   0.0092593
        k(   58) = (  -0.5000000  -0.2886751   0.2294226), wk =   0.0185185
        k(   59) = (  -0.5000000  -0.2886751   0.4588453), wk =   0.0185185
        k(   60) = (  -0.5000000  -0.2886751  -0.6882679), wk =   0.0092593
[...]
        k(   66) = (   0.3333333  -0.1924501  -0.4588453), wk =   0.0370370
        k(   67) = (   0.6666667  -0.3849002  -0.2294226), wk =   0.0370370
        k(   68) = (   0.6666667  -0.3849002  -0.4588453), wk =   0.0370370
        k(   69) = (   0.1666667   0.0962250  -0.2294226), wk =   0.0185185
        k(   70) = (   0.1666667   0.0962250  -0.4588453), wk =   0.0185185
        k(   71) = (   0.5000000  -0.0962250  -0.2294226), wk =   0.0370370
        k(   72) = (   0.5000000  -0.0962250  -0.4588453), wk =   0.0370370
        k(   73) = (  -0.8333333   0.6735753  -0.2294226), wk =   0.0185185
        k(   74) = (  -0.8333333   0.6735753  -0.4588453), wk =   0.0185185
        k(   75) = (  -0.5000000   0.4811252  -0.2294226), wk =   0.0370370
        k(   76) = (  -0.5000000   0.4811252  -0.4588453), wk =   0.0370370
        k(   77) = (   0.3333333   0.1924501  -0.2294226), wk =   0.0185185
        k(   78) = (   0.3333333   0.1924501  -0.4588453), wk =   0.0185185
        k(   79) = (  -0.6666667   0.7698004  -0.2294226), wk =   0.0185185
        k(   80) = (  -0.6666667   0.7698004  -0.4588453), wk =   0.0185185

     Initial potential from superposition of free atoms

     starting charge      71.9851, renormalised to      72.0000
     Starting wfcs are   52 randomized atomic wfcs

     Self-consistent Calculation

     iteration #  1     ecut=    50.00 Ry     beta= 0.30
     Davidson diagonalization with overlap
     ethr =  1.00E-02,  avg # of iterations =  2.3

     total energy              =    -722.25948591 Ry
     estimated scf accuracy    <       1.43072391 Ry

[...]

     total energy              =    -722.50786162 Ry
     estimated scf accuracy    <       0.00000001 Ry

     iteration # 21     ecut=    50.00 Ry     beta= 0.30
     Davidson diagonalization with overlap
     ethr =  1.47E-11,  avg # of iterations =  2.6

     End of self-consistent calculation

          k = 0.0000 0.0000 0.0000 (  2555 PWs)   bands (ev):

    -7.4948  -6.1141  -5.6852  -5.5473   5.2633   5.5641   5.6076   6.0511
     6.0512   6.2084   6.2085   6.6983   6.8001   6.9340   7.2847   8.1345
     8.6723   8.6723   8.7261   8.9151   8.9714   9.3211   9.3212   9.4496
     9.5627  10.0987  10.3223  10.6880  10.8862  12.8639  12.8824  13.3915
    13.3916  13.9253  14.6880  14.6882

[...]

          k =-0.5000-0.2887 0.0000 (  2566 PWs)   bands (ev):

[...]

          k = 0.3333 0.1925-0.4588 (  2586 PWs)   bands (ev):

[...]

          k =-0.6667 0.7698-0.4588 (  2584 PWs)   bands (ev):

    -5.9352  -5.9352  -5.6264  -5.6264   5.1315   5.1315   5.2411   5.2411
     6.4918   6.4918   6.6178   6.6178   7.0112   7.0112   7.1860   7.1860
     8.9075   8.9075   9.0211   9.0211   9.3527   9.3527   9.5421   9.5421
     9.9791   9.9791  10.3198  10.3198  10.9425  10.9425  11.8443  11.8443
    12.4819  12.4819  13.3848  13.3848

     highest occupied level (ev):    14.6882

!    total energy              =    -722.50786162 Ry
     estimated scf accuracy    <          1.6E-09 Ry

     The total energy is the sum of the following terms:
     one-electron contribution =    -206.67344940 Ry
     hartree contribution      =     202.35286809 Ry
     xc contribution           =    -221.31806418 Ry
     ewald contribution        =    -496.86921613 Ry

     convergence has been achieved in  21 iterations

     Forces acting on atoms (cartesian axes, Ry/au):

     atom    1 type  1   force =    -0.00000209   -0.00000120    0.05316075
     atom    2 type  2   force =    -0.00000963   -0.00000556   -0.05316442
     atom    3 type  1   force =     0.00000355    0.00000205    0.05316554
     atom    4 type  2   force =     0.00000982    0.00000567   -0.05316329
     atom    5 type  1   force =    -0.00000874   -0.00000504    0.05316341
     atom    6 type  2   force =    -0.00001151   -0.00000664   -0.05316300
     atom    7 type  1   force =     0.00000774    0.00000447    0.05316499
     atom    8 type  2   force =     0.00001085    0.00000627   -0.05316399
     The non-local contrib.  to forces
     atom    1 type  1   force =     0.00003557    0.00002054    0.18145590
     atom    2 type  2   force =    -0.00011760   -0.00006790    0.12000548
     atom    3 type  1   force =    -0.00003533   -0.00002040    0.18145730
     atom    4 type  2   force =     0.00011773    0.00006797    0.12000233
     atom    5 type  1   force =     0.00003375    0.00001948    0.18145610
     atom    6 type  2   force =    -0.00011949   -0.00006899    0.12000451
     atom    7 type  1   force =    -0.00003402   -0.00001964    0.18145749
     atom    8 type  2   force =     0.00012085    0.00006977    0.12000366
     The ionic contribution  to forces
     atom    1 type  1   force =     0.00000000    0.00000000    1.30234588
     atom    2 type  2   force =    -0.00000000   -0.00000000   -1.30234588
     atom    3 type  1   force =    -0.00000000   -0.00000000    1.30234588
     atom    4 type  2   force =     0.00000000    0.00000000   -1.30234588
     atom    5 type  1   force =     0.00000000    0.00000000    1.30234588
     atom    6 type  2   force =    -0.00000000   -0.00000000   -1.30234588
     atom    7 type  1   force =    -0.00000000   -0.00000000    1.30234588
     atom    8 type  2   force =     0.00000000    0.00000000   -1.30234588
     The local contribution  to forces
     atom    1 type  1   force =    -0.00004973   -0.00002871   -1.41191434
     atom    2 type  2   force =     0.00010748    0.00006205    1.12985057
     atom    3 type  1   force =     0.00004834    0.00002791   -1.41191969
     atom    4 type  2   force =    -0.00010837   -0.00006257    1.12985059
     atom    5 type  1   force =    -0.00003851   -0.00002223   -1.41191769
     atom    6 type  2   force =     0.00010614    0.00006128    1.12985160
     atom    7 type  1   force =     0.00003991    0.00002304   -1.41192120
     atom    8 type  2   force =    -0.00010716   -0.00006187    1.12985020
     The core correction contribution to forces
     atom    1 type  1   force =     0.00000384    0.00000221   -0.01872856
     atom    2 type  2   force =     0.00000127    0.00000073   -0.00067762
     atom    3 type  1   force =    -0.00000384   -0.00000222   -0.01872855
     atom    4 type  2   force =    -0.00000127   -0.00000073   -0.00067757
     atom    5 type  1   force =     0.00000357    0.00000206   -0.01872845
     atom    6 type  2   force =     0.00000129    0.00000074   -0.00067760
     atom    7 type  1   force =    -0.00000356   -0.00000206   -0.01872842
     atom    8 type  2   force =    -0.00000131   -0.00000076   -0.00067759
     The Hubbard contrib.    to forces
     atom    1 type  1   force =     0.00000000    0.00000000    0.00000000
     atom    2 type  2   force =     0.00000000    0.00000000    0.00000000
     atom    3 type  1   force =     0.00000000    0.00000000    0.00000000
     atom    4 type  2   force =     0.00000000    0.00000000    0.00000000
     atom    5 type  1   force =     0.00000000    0.00000000    0.00000000
     atom    6 type  2   force =     0.00000000    0.00000000    0.00000000
     atom    7 type  1   force =     0.00000000    0.00000000    0.00000000
     atom    8 type  2   force =     0.00000000    0.00000000    0.00000000
     The SCF correction term to forces
     atom    1 type  1   force =     0.00000821    0.00000474   -0.00000163
     atom    2 type  2   force =    -0.00000081   -0.00000047   -0.00000046
     atom    3 type  1   force =    -0.00000564   -0.00000326    0.00000708
     atom    4 type  2   force =     0.00000169    0.00000098    0.00000374
     atom    5 type  1   force =    -0.00000758   -0.00000438    0.00000407
     atom    6 type  2   force =     0.00000053    0.00000031    0.00000087
     atom    7 type  1   force =     0.00000538    0.00000311    0.00000774
     atom    8 type  2   force =    -0.00000156   -0.00000090    0.00000212

     Total force =     0.150370     Total SCF correction =     0.000020

     Writing all to output data dir ./ZnO-2.94-1.45-211.in.save/

     General routines

     Parallel routines

   This run was terminated on:  11:57: 8  12Jul2025

   JOB DONE.
Note: The following floating-point exceptions are signalling: IEEE_INVALID_FLAG
Note: The following floating-point exceptions are signalling: IEEE_INVALID_FLAG