     Program PWSCF v.7.2 starts on 12Jul2025 at 18:12:19

     Reading input from /home/jvc/QEspresso7.2/ZnO_database/scripts/cell211_strain10%.in/ZnO-3.53-1.65-211.in
Warning: card &CELL ignored
Warning: card / ignored
Warning: card &FCP ignored
Warning: card / ignored
Warning: card &RISM ignored
Warning: card / ignored

     Current dimensions of program PWSCF are:
     Max number of different atomic species (ntypx) = 10
     Max number of k-points (npk) =  40000
     Max angular momentum in pseudopotentials (lmaxx) =  4
     file Zn.upf: wavefunction(s)  3D renormalized
     Found identity + ( -0.5000  0.0000  0.0000) symmetry
     This is a supercell, fractional translations are disabled
     Message from routine setup:
     using ibrav=0 with symmetry is DISCOURAGED, use correct ibrav instead

     K-points division:     npool     =       2
     R & G space division:  proc/nbgrp/npool/nimage =       8
     Subspace diagonalization in iterative solution of the eigenvalue problem:
     a serial algorithm will be used

     Using Slab Decomposition

     bravais-lattice index     =            0
     lattice parameter (alat)  =      13.3463  a.u.
     unit-cell volume          =     847.5314 (a.u.)^3
     number of atoms/cell      =            8
     number of atomic types    =            2
     number of electrons       =        72.00
     number of Kohn-Sham states=           36
     kinetic-energy cutoff     =      50.0000  Ry
     charge density cutoff     =     400.0000  Ry
     scf convergence threshold =      1.0E-08
     mixing beta               =       0.3000
     number of iterations used =            8  plain     mixing
     Exchange-correlation= PBE
                           (   1   4   3   4   0   0   0)

     celldm(1)=  13.346325  celldm(2)=   0.000000  celldm(3)=   0.000000
     celldm(4)=   0.000000  celldm(5)=   0.000000  celldm(6)=   0.000000

     crystal axes: (cart. coord. in units of alat)
               a(1) = (   1.000000   0.000000   0.000000 )
               a(2) = (  -0.250000   0.433013   0.000000 )
               a(3) = (   0.000000   0.000000   0.823323 )

     reciprocal axes: (cart. coord. in units 2 pi/alat)
               b(1) = (  1.000000  0.577350 -0.000000 )
               b(2) = (  0.000000  2.309401  0.000000 )
               b(3) = (  0.000000 -0.000000  1.214590 )

     PseudoPot. # 1 for Zn read from file:
     /home/jvc/QEspresso7.2/ZnO_database/pseudos/Zn.upf
     MD5 check sum: 7f56cabf9682ed8c977c2f7d0c5985c5
     Pseudo is Ultrasoft + core correction, Zval = 12.0
     Generated using &quot;atomic&quot; code by A. Dal Corso  v.6.2.2
     Using radial grid of 1201 points,  6 beta functions with:
                l(1) =   0
                l(2) =   0
                l(3) =   1
                l(4) =   1
                l(5) =   2
                l(6) =   2
     Q(r) pseudized with 0 coefficients

     PseudoPot. # 2 for O  read from file:
     /home/jvc/QEspresso7.2/ZnO_database/pseudos/O.upf
     MD5 check sum: 91400c9766925bcf19f520983a725ff0
     Pseudo is Ultrasoft + core correction, Zval =  6.0
     Generated using &quot;atomic&quot; code by A. Dal Corso  v.6.3MaX
     Using radial grid of 1095 points,  4 beta functions with:
                l(1) =   0
                l(2) =   0
                l(3) =   1
                l(4) =   1
     Q(r) pseudized with 0 coefficients

     atomic species   valence    mass     pseudopotential
        Zn            12.00    65.38000     Zn( 1.00)
        O              6.00    15.99900     O ( 1.00)

      2 Sym. Ops. (no inversion) found

   Cartesian axes

     site n.     atom                  positions (alat units)
         1           Zn  tau(   1) = (   0.0000000   0.0000000   0.0000000  )
         2           O   tau(   2) = (   0.0000000   0.2886751   0.1046148  )
         3           Zn  tau(   3) = (   0.0000000   0.2886751   0.4116614  )
         4           O   tau(   4) = (   0.0000000   0.0000000   0.5162762  )
         5           Zn  tau(   5) = (   0.5000000   0.0000000   0.0000000  )
         6           O   tau(   6) = (   0.5000000   0.2886751   0.1046148  )
         7           Zn  tau(   7) = (   0.5000000   0.2886751   0.4116614  )
         8           O   tau(   8) = (   0.5000000   0.0000000   0.5162762  )

     number of k points=    80
                       cart. coord. in units 2pi/alat
        k(    1) = (   0.0000000   0.0000000   0.0000000), wk =   0.0092593
        k(    2) = (   0.0000000   0.0000000   0.2024317), wk =   0.0185185
        k(    3) = (   0.0000000   0.0000000   0.4048635), wk =   0.0185185
        k(    4) = (   0.0000000   0.0000000  -0.6072952), wk =   0.0092593
        k(    5) = (   0.0000000   0.3849002   0.0000000), wk =   0.0370370
        k(    6) = (   0.0000000   0.3849002   0.2024317), wk =   0.0370370
        k(    7) = (   0.0000000   0.3849002   0.4048635), wk =   0.0370370
        k(    8) = (   0.0000000   0.3849002  -0.6072952), wk =   0.0370370
        k(    9) = (   0.0000000   0.7698004   0.0000000), wk =   0.0370370
        k(   10) = (   0.0000000   0.7698004   0.2024317), wk =   0.0370370
        k(   11) = (   0.0000000   0.7698004   0.4048635), wk =   0.0370370
        k(   12) = (   0.0000000   0.7698004  -0.6072952), wk =   0.0370370
        k(   13) = (   0.0000000  -1.1547005   0.0000000), wk =   0.0092593
        k(   14) = (   0.0000000  -1.1547005   0.2024317), wk =   0.0185185
        k(   15) = (   0.0000000  -1.1547005   0.4048635), wk =   0.0185185
        k(   16) = (   0.0000000  -1.1547005  -0.6072952), wk =   0.0092593
        k(   17) = (   0.1666667   0.0962250   0.0000000), wk =   0.0185185
        k(   18) = (   0.1666667   0.0962250   0.2024317), wk =   0.0185185
        k(   19) = (   0.1666667   0.0962250   0.4048635), wk =   0.0185185
        k(   20) = (   0.1666667   0.0962250  -0.6072952), wk =   0.0185185
        k(   21) = (   0.1666667   0.4811252   0.0000000), wk =   0.0370370
        k(   22) = (   0.1666667   0.4811252   0.2024317), wk =   0.0370370
        k(   23) = (   0.1666667   0.4811252   0.4048635), wk =   0.0370370
        k(   24) = (   0.1666667   0.4811252  -0.6072952), wk =   0.0370370
        k(   25) = (   0.1666667   0.8660254   0.0000000), wk =   0.0185185
        k(   26) = (   0.1666667   0.8660254   0.2024317), wk =   0.0370370
        k(   27) = (   0.1666667   0.8660254   0.4048635), wk =   0.0370370
        k(   28) = (   0.1666667   0.8660254  -0.6072952), wk =   0.0185185
        k(   29) = (   0.1666667  -1.0584755   0.0000000), wk =   0.0185185
        k(   30) = (   0.1666667  -1.0584755   0.2024317), wk =   0.0185185
        k(   31) = (   0.1666667  -1.0584755   0.4048635), wk =   0.0185185
        k(   32) = (   0.1666667  -1.0584755  -0.6072952), wk =   0.0185185
        k(   33) = (   0.1666667  -0.6735753   0.0000000), wk =   0.0370370
        k(   34) = (   0.1666667  -0.6735753   0.2024317), wk =   0.0370370
        k(   35) = (   0.1666667  -0.6735753   0.4048635), wk =   0.0370370
        k(   36) = (   0.1666667  -0.6735753  -0.6072952), wk =   0.0370370
        k(   37) = (   0.1666667  -0.2886751   0.0000000), wk =   0.0185185
        k(   38) = (   0.1666667  -0.2886751   0.2024317), wk =   0.0370370
        k(   39) = (   0.1666667  -0.2886751   0.4048635), wk =   0.0370370
        k(   40) = (   0.1666667  -0.2886751  -0.6072952), wk =   0.0185185
        k(   41) = (   0.3333333   0.1924501   0.0000000), wk =   0.0185185
        k(   42) = (   0.3333333   0.1924501   0.2024317), wk =   0.0185185
        k(   43) = (   0.3333333   0.1924501   0.4048635), wk =   0.0185185
        k(   44) = (   0.3333333   0.1924501  -0.6072952), wk =   0.0185185
        k(   45) = (   0.3333333   0.5773503   0.0000000), wk =   0.0185185
        k(   46) = (   0.3333333   0.5773503   0.2024317), wk =   0.0370370
        k(   47) = (   0.3333333   0.5773503   0.4048635), wk =   0.0370370
        k(   48) = (   0.3333333   0.5773503  -0.6072952), wk =   0.0185185
        k(   49) = (   0.3333333  -0.9622504   0.0000000), wk =   0.0185185
        k(   50) = (   0.3333333  -0.9622504   0.2024317), wk =   0.0185185
        k(   51) = (   0.3333333  -0.9622504   0.4048635), wk =   0.0185185
        k(   52) = (   0.3333333  -0.9622504  -0.6072952), wk =   0.0185185
        k(   53) = (   0.3333333  -0.5773503   0.0000000), wk =   0.0185185
        k(   54) = (   0.3333333  -0.5773503   0.2024317), wk =   0.0370370
        k(   55) = (   0.3333333  -0.5773503   0.4048635), wk =   0.0370370
        k(   56) = (   0.3333333  -0.5773503  -0.6072952), wk =   0.0185185
        k(   57) = (  -0.5000000  -0.2886751   0.0000000), wk =   0.0092593
        k(   58) = (  -0.5000000  -0.2886751   0.2024317), wk =   0.0185185
        k(   59) = (  -0.5000000  -0.2886751   0.4048635), wk =   0.0185185
        k(   60) = (  -0.5000000  -0.2886751  -0.6072952), wk =   0.0092593
[...]
        k(   66) = (   0.3333333  -0.1924501  -0.4048635), wk =   0.0370370
        k(   67) = (   0.6666667  -0.3849002  -0.2024317), wk =   0.0370370
        k(   68) = (   0.6666667  -0.3849002  -0.4048635), wk =   0.0370370
        k(   69) = (   0.1666667   0.0962250  -0.2024317), wk =   0.0185185
        k(   70) = (   0.1666667   0.0962250  -0.4048635), wk =   0.0185185
        k(   71) = (   0.5000000  -0.0962250  -0.2024317), wk =   0.0370370
        k(   72) = (   0.5000000  -0.0962250  -0.4048635), wk =   0.0370370
        k(   73) = (  -0.8333333   0.6735753  -0.2024317), wk =   0.0185185
        k(   74) = (  -0.8333333   0.6735753  -0.4048635), wk =   0.0185185
        k(   75) = (  -0.5000000   0.4811252  -0.2024317), wk =   0.0370370
        k(   76) = (  -0.5000000   0.4811252  -0.4048635), wk =   0.0370370
        k(   77) = (   0.3333333   0.1924501  -0.2024317), wk =   0.0185185
        k(   78) = (   0.3333333   0.1924501  -0.4048635), wk =   0.0185185
        k(   79) = (  -0.6666667   0.7698004  -0.2024317), wk =   0.0185185
        k(   80) = (  -0.6666667   0.7698004  -0.4048635), wk =   0.0185185

     Check: negative core charge=   -0.000003

     Initial potential from superposition of free atoms

     starting charge      71.9851, renormalised to      72.0000
     Starting wfcs are   52 randomized atomic wfcs

     Self-consistent Calculation

     iteration #  1     ecut=    50.00 Ry     beta= 0.30
     Davidson diagonalization with overlap
     ethr =  1.00E-02,  avg # of iterations =  1.3

     total energy              =    -722.73733191 Ry
     estimated scf accuracy    <       1.64551661 Ry

[...]

     iteration #  9     ecut=    50.00 Ry     beta= 0.30
     Davidson diagonalization with overlap
     c_bands:  1 eigenvalues not converged
     c_bands:  1 eigenvalues not converged
     ethr =  6.89E-08,  avg # of iterations = 14.0

[...]

     iteration # 12     ecut=    50.00 Ry     beta= 0.30
     Davidson diagonalization with overlap
     c_bands:  1 eigenvalues not converged
     c_bands:  1 eigenvalues not converged
     c_bands:  2 eigenvalues not converged
     c_bands:  1 eigenvalues not converged
     c_bands:  1 eigenvalues not converged
     c_bands:  1 eigenvalues not converged
     c_bands:  1 eigenvalues not converged
     ethr =  6.89E-08,  avg # of iterations = 16.2

[...]

     total energy              =    -723.13325014 Ry
     estimated scf accuracy    <       0.00000001 Ry

     iteration # 21     ecut=    50.00 Ry     beta= 0.30
     Davidson diagonalization with overlap
     ethr =  2.04E-11,  avg # of iterations =  4.6

     End of self-consistent calculation

          k = 0.0000 0.0000 0.0000 (  5073 PWs)   bands (ev):

   -12.5752 -12.2094 -12.2083 -12.0959  -1.1387  -1.1255  -1.1138  -1.1136
    -1.0002  -1.0001  -0.9880  -0.8928  -0.8053  -0.6933  -0.6300  -0.5960
    -0.5959  -0.5540  -0.5031  -0.4920  -0.4920  -0.4849  -0.4692  -0.4237
     0.0517   0.4695   1.0268   1.6976   2.3454   2.8257   3.2403   3.2409
     3.2433   3.6797   3.7478   3.7485

[...]

          k =-0.5000-0.2887 0.0000 (  5094 PWs)   bands (ev):

[...]

          k = 0.3333 0.1925-0.4049 (  5069 PWs)   bands (ev):

[...]

          k =-0.6667 0.7698-0.4049 (  5046 PWs)   bands (ev):

   -12.1804 -12.1803 -12.1217 -12.1216  -1.0916  -1.0916  -1.0163  -1.0163
    -0.9292  -0.9292  -0.7955  -0.7955  -0.7664  -0.7664  -0.7426  -0.7425
    -0.5517  -0.5517  -0.5182  -0.5182  -0.4400  -0.4399  -0.3793  -0.3793
     0.6557   0.6557   0.8923   0.8923   2.0980   2.0981   2.4829   2.4830
     2.6874   2.6875   2.9999   3.0000

     highest occupied level (ev):     3.7485

!    total energy              =    -723.13325014 Ry
     estimated scf accuracy    <          5.2E-09 Ry

     The total energy is the sum of the following terms:
     one-electron contribution =    -364.49093668 Ry
     hartree contribution      =     256.74828457 Ry
     xc contribution           =    -218.19624230 Ry
     ewald contribution        =    -397.19435574 Ry

     convergence has been achieved in  21 iterations

     Forces acting on atoms (cartesian axes, Ry/au):

     atom    1 type  1   force =    -0.00000123   -0.00000071    0.00335468
     atom    2 type  2   force =    -0.00000412   -0.00000238   -0.00336738
     atom    3 type  1   force =    -0.00001209   -0.00000698    0.00337425
     atom    4 type  2   force =     0.00000628    0.00000363   -0.00336839
     atom    5 type  1   force =     0.00001480    0.00000855    0.00337387
     atom    6 type  2   force =    -0.00000489   -0.00000282   -0.00336941
     atom    7 type  1   force =    -0.00000388   -0.00000224    0.00337011
     atom    8 type  2   force =     0.00000512    0.00000296   -0.00336772
     The non-local contrib.  to forces
     atom    1 type  1   force =    -0.00001422   -0.00000821   -0.01706540
     atom    2 type  2   force =    -0.00021070   -0.00012165   -0.02469720
     atom    3 type  1   force =     0.00001420    0.00000820   -0.01706290
     atom    4 type  2   force =     0.00020983    0.00012114   -0.02469705
     atom    5 type  1   force =    -0.00001351   -0.00000780   -0.01706119
     atom    6 type  2   force =    -0.00020142   -0.00011629   -0.02469893
     atom    7 type  1   force =     0.00001369    0.00000791   -0.01706103
     atom    8 type  2   force =     0.00020216    0.00011672   -0.02469704
     The ionic contribution  to forces
     atom    1 type  1   force =     0.00000000    0.00000000   -0.20836675
     atom    2 type  2   force =    -0.00000000   -0.00000000    0.20836675
     atom    3 type  1   force =    -0.00000000   -0.00000000   -0.20836675
     atom    4 type  2   force =     0.00000000    0.00000000    0.20836675
     atom    5 type  1   force =     0.00000000    0.00000000   -0.20836675
     atom    6 type  2   force =    -0.00000000   -0.00000000    0.20836675
     atom    7 type  1   force =    -0.00000000   -0.00000000   -0.20836675
     atom    8 type  2   force =     0.00000000    0.00000000    0.20836675
     The local contribution  to forces
     atom    1 type  1   force =     0.00001723    0.00000995    0.22810528
     atom    2 type  2   force =     0.00019885    0.00011480   -0.18725729
     atom    3 type  1   force =    -0.00000687   -0.00000397    0.22808917
     atom    4 type  2   force =    -0.00019831   -0.00011449   -0.18726026
     atom    5 type  1   force =     0.00000060    0.00000035    0.22808856
     atom    6 type  2   force =     0.00020646    0.00011920   -0.18725824
     atom    7 type  1   force =    -0.00001125   -0.00000649    0.22809302
     atom    8 type  2   force =    -0.00020383   -0.00011768   -0.18726036
     The core correction contribution to forces
     atom    1 type  1   force =     0.00000549    0.00000317    0.00069764
     atom    2 type  2   force =     0.00000238    0.00000138    0.00023525
     atom    3 type  1   force =    -0.00000577   -0.00000333    0.00069794
     atom    4 type  2   force =    -0.00000238   -0.00000138    0.00023524
     atom    5 type  1   force =     0.00000606    0.00000350    0.00069771
     atom    6 type  2   force =     0.00000229    0.00000132    0.00023527
     atom    7 type  1   force =    -0.00000574   -0.00000331    0.00069757
     atom    8 type  2   force =    -0.00000228   -0.00000132    0.00023523
     The Hubbard contrib.    to forces
     atom    1 type  1   force =     0.00000000    0.00000000    0.00000000
     atom    2 type  2   force =     0.00000000    0.00000000    0.00000000
     atom    3 type  1   force =     0.00000000    0.00000000    0.00000000
     atom    4 type  2   force =     0.00000000    0.00000000    0.00000000
     atom    5 type  1   force =     0.00000000    0.00000000    0.00000000
     atom    6 type  2   force =     0.00000000    0.00000000    0.00000000
     atom    7 type  1   force =     0.00000000    0.00000000    0.00000000
     atom    8 type  2   force =     0.00000000    0.00000000    0.00000000
     The SCF correction term to forces
     atom    1 type  1   force =    -0.00001035   -0.00000597   -0.00001343
     atom    2 type  2   force =     0.00000474    0.00000274   -0.00001224
     atom    3 type  1   force =    -0.00001427   -0.00000824    0.00001946
     atom    4 type  2   force =    -0.00000346   -0.00000200   -0.00001042
     atom    5 type  1   force =     0.00002105    0.00001215    0.00001821
     atom    6 type  2   force =    -0.00001283   -0.00000741   -0.00001160
     atom    7 type  1   force =    -0.00000121   -0.00000070    0.00000998
     atom    8 type  2   force =     0.00000846    0.00000489   -0.00000964

     Total force =     0.009527     Total SCF correction =     0.000053

     Writing all to output data dir ./ZnO-3.53-1.65-211.in.save/

     General routines

     Parallel routines

   This run was terminated on:  18:15:57  12Jul2025

   JOB DONE.
Note: The following floating-point exceptions are signalling: IEEE_INVALID_FLAG
Note: The following floating-point exceptions are signalling: IEEE_INVALID_FLAG