     Program PWSCF v.7.2 starts on 12Jul2025 at 12: 2:20

     Reading input from /home/jvc/QEspresso7.2/ZnO_database/scripts/cell211_strain10%.in/ZnO-2.94-1.58-211.in
Warning: card &CELL ignored
Warning: card / ignored
Warning: card &FCP ignored
Warning: card / ignored
Warning: card &RISM ignored
Warning: card / ignored

     Current dimensions of program PWSCF are:
     Max number of different atomic species (ntypx) = 10
     Max number of k-points (npk) =  40000
     Max angular momentum in pseudopotentials (lmaxx) =  4
     file Zn.upf: wavefunction(s)  3D renormalized
     Found identity + ( -0.5000  0.0000  0.0000) symmetry
     This is a supercell, fractional translations are disabled
     Message from routine setup:
     using ibrav=0 with symmetry is DISCOURAGED, use correct ibrav instead

     K-points division:     npool     =       2
     R & G space division:  proc/nbgrp/npool/nimage =       8
     Subspace diagonalization in iterative solution of the eigenvalue problem:
     a serial algorithm will be used

     Using Slab Decomposition

     bravais-lattice index     =            0
     lattice parameter (alat)  =      11.1219  a.u.
     unit-cell volume          =     471.2355 (a.u.)^3
     number of atoms/cell      =            8
     number of atomic types    =            2
     number of electrons       =        72.00
     number of Kohn-Sham states=           36
     kinetic-energy cutoff     =      50.0000  Ry
     charge density cutoff     =     400.0000  Ry
     scf convergence threshold =      1.0E-08
     mixing beta               =       0.3000
     number of iterations used =            8  plain     mixing
     Exchange-correlation= PBE
                           (   1   4   3   4   0   0   0)

     celldm(1)=  11.121937  celldm(2)=   0.000000  celldm(3)=   0.000000
     celldm(4)=   0.000000  celldm(5)=   0.000000  celldm(6)=   0.000000

     crystal axes: (cart. coord. in units of alat)
               a(1) = (   1.000000   0.000000   0.000000 )
               a(2) = (  -0.250000   0.433013   0.000000 )
               a(3) = (   0.000000   0.000000   0.791036 )

     reciprocal axes: (cart. coord. in units 2 pi/alat)
               b(1) = (  1.000000  0.577350 -0.000000 )
               b(2) = (  0.000000  2.309401  0.000000 )
               b(3) = (  0.000000 -0.000000  1.264166 )

     PseudoPot. # 1 for Zn read from file:
     /home/jvc/QEspresso7.2/ZnO_database/pseudos/Zn.upf
     MD5 check sum: 7f56cabf9682ed8c977c2f7d0c5985c5
     Pseudo is Ultrasoft + core correction, Zval = 12.0
     Generated using &quot;atomic&quot; code by A. Dal Corso  v.6.2.2
     Using radial grid of 1201 points,  6 beta functions with:
                l(1) =   0
                l(2) =   0
                l(3) =   1
                l(4) =   1
                l(5) =   2
                l(6) =   2
     Q(r) pseudized with 0 coefficients

     PseudoPot. # 2 for O  read from file:
     /home/jvc/QEspresso7.2/ZnO_database/pseudos/O.upf
     MD5 check sum: 91400c9766925bcf19f520983a725ff0
     Pseudo is Ultrasoft + core correction, Zval =  6.0
     Generated using &quot;atomic&quot; code by A. Dal Corso  v.6.3MaX
     Using radial grid of 1095 points,  4 beta functions with:
                l(1) =   0
                l(2) =   0
                l(3) =   1
                l(4) =   1
     Q(r) pseudized with 0 coefficients

     atomic species   valence    mass     pseudopotential
        Zn            12.00    65.38000     Zn( 1.00)
        O              6.00    15.99900     O ( 1.00)

      2 Sym. Ops. (no inversion) found

   Cartesian axes

     site n.     atom                  positions (alat units)
         1           Zn  tau(   1) = (   0.0000000   0.0000000   0.0000000  )
         2           O   tau(   2) = (   0.0000000   0.2886751   0.0924118  )
         3           Zn  tau(   3) = (   0.0000000   0.2886751   0.3955178  )
         4           O   tau(   4) = (   0.0000000   0.0000000   0.4879296  )
         5           Zn  tau(   5) = (   0.5000000   0.0000000   0.0000000  )
         6           O   tau(   6) = (   0.5000000   0.2886751   0.0924118  )
         7           Zn  tau(   7) = (   0.5000000   0.2886751   0.3955178  )
         8           O   tau(   8) = (   0.5000000   0.0000000   0.4879296  )

     number of k points=    80
                       cart. coord. in units 2pi/alat
        k(    1) = (   0.0000000   0.0000000   0.0000000), wk =   0.0092593
        k(    2) = (   0.0000000   0.0000000   0.2106943), wk =   0.0185185
        k(    3) = (   0.0000000   0.0000000   0.4213885), wk =   0.0185185
        k(    4) = (   0.0000000   0.0000000  -0.6320828), wk =   0.0092593
        k(    5) = (   0.0000000   0.3849002   0.0000000), wk =   0.0370370
        k(    6) = (   0.0000000   0.3849002   0.2106943), wk =   0.0370370
        k(    7) = (   0.0000000   0.3849002   0.4213885), wk =   0.0370370
        k(    8) = (   0.0000000   0.3849002  -0.6320828), wk =   0.0370370
        k(    9) = (   0.0000000   0.7698004   0.0000000), wk =   0.0370370
        k(   10) = (   0.0000000   0.7698004   0.2106943), wk =   0.0370370
        k(   11) = (   0.0000000   0.7698004   0.4213885), wk =   0.0370370
        k(   12) = (   0.0000000   0.7698004  -0.6320828), wk =   0.0370370
        k(   13) = (   0.0000000  -1.1547005   0.0000000), wk =   0.0092593
        k(   14) = (   0.0000000  -1.1547005   0.2106943), wk =   0.0185185
        k(   15) = (   0.0000000  -1.1547005   0.4213885), wk =   0.0185185
        k(   16) = (   0.0000000  -1.1547005  -0.6320828), wk =   0.0092593
        k(   17) = (   0.1666667   0.0962250   0.0000000), wk =   0.0185185
        k(   18) = (   0.1666667   0.0962250   0.2106943), wk =   0.0185185
        k(   19) = (   0.1666667   0.0962250   0.4213885), wk =   0.0185185
        k(   20) = (   0.1666667   0.0962250  -0.6320828), wk =   0.0185185
        k(   21) = (   0.1666667   0.4811252   0.0000000), wk =   0.0370370
        k(   22) = (   0.1666667   0.4811252   0.2106943), wk =   0.0370370
        k(   23) = (   0.1666667   0.4811252   0.4213885), wk =   0.0370370
        k(   24) = (   0.1666667   0.4811252  -0.6320828), wk =   0.0370370
        k(   25) = (   0.1666667   0.8660254   0.0000000), wk =   0.0185185
        k(   26) = (   0.1666667   0.8660254   0.2106943), wk =   0.0370370
        k(   27) = (   0.1666667   0.8660254   0.4213885), wk =   0.0370370
        k(   28) = (   0.1666667   0.8660254  -0.6320828), wk =   0.0185185
        k(   29) = (   0.1666667  -1.0584755   0.0000000), wk =   0.0185185
        k(   30) = (   0.1666667  -1.0584755   0.2106943), wk =   0.0185185
        k(   31) = (   0.1666667  -1.0584755   0.4213885), wk =   0.0185185
        k(   32) = (   0.1666667  -1.0584755  -0.6320828), wk =   0.0185185
        k(   33) = (   0.1666667  -0.6735753   0.0000000), wk =   0.0370370
        k(   34) = (   0.1666667  -0.6735753   0.2106943), wk =   0.0370370
        k(   35) = (   0.1666667  -0.6735753   0.4213885), wk =   0.0370370
        k(   36) = (   0.1666667  -0.6735753  -0.6320828), wk =   0.0370370
        k(   37) = (   0.1666667  -0.2886751   0.0000000), wk =   0.0185185
        k(   38) = (   0.1666667  -0.2886751   0.2106943), wk =   0.0370370
        k(   39) = (   0.1666667  -0.2886751   0.4213885), wk =   0.0370370
        k(   40) = (   0.1666667  -0.2886751  -0.6320828), wk =   0.0185185
        k(   41) = (   0.3333333   0.1924501   0.0000000), wk =   0.0185185
        k(   42) = (   0.3333333   0.1924501   0.2106943), wk =   0.0185185
        k(   43) = (   0.3333333   0.1924501   0.4213885), wk =   0.0185185
        k(   44) = (   0.3333333   0.1924501  -0.6320828), wk =   0.0185185
        k(   45) = (   0.3333333   0.5773503   0.0000000), wk =   0.0185185
        k(   46) = (   0.3333333   0.5773503   0.2106943), wk =   0.0370370
        k(   47) = (   0.3333333   0.5773503   0.4213885), wk =   0.0370370
        k(   48) = (   0.3333333   0.5773503  -0.6320828), wk =   0.0185185
        k(   49) = (   0.3333333  -0.9622504   0.0000000), wk =   0.0185185
        k(   50) = (   0.3333333  -0.9622504   0.2106943), wk =   0.0185185
        k(   51) = (   0.3333333  -0.9622504   0.4213885), wk =   0.0185185
        k(   52) = (   0.3333333  -0.9622504  -0.6320828), wk =   0.0185185
        k(   53) = (   0.3333333  -0.5773503   0.0000000), wk =   0.0185185
        k(   54) = (   0.3333333  -0.5773503   0.2106943), wk =   0.0370370
        k(   55) = (   0.3333333  -0.5773503   0.4213885), wk =   0.0370370
        k(   56) = (   0.3333333  -0.5773503  -0.6320828), wk =   0.0185185
        k(   57) = (  -0.5000000  -0.2886751   0.0000000), wk =   0.0092593
        k(   58) = (  -0.5000000  -0.2886751   0.2106943), wk =   0.0185185
        k(   59) = (  -0.5000000  -0.2886751   0.4213885), wk =   0.0185185
        k(   60) = (  -0.5000000  -0.2886751  -0.6320828), wk =   0.0092593
[...]
        k(   66) = (   0.3333333  -0.1924501  -0.4213885), wk =   0.0370370
        k(   67) = (   0.6666667  -0.3849002  -0.2106943), wk =   0.0370370
        k(   68) = (   0.6666667  -0.3849002  -0.4213885), wk =   0.0370370
        k(   69) = (   0.1666667   0.0962250  -0.2106943), wk =   0.0185185
        k(   70) = (   0.1666667   0.0962250  -0.4213885), wk =   0.0185185
        k(   71) = (   0.5000000  -0.0962250  -0.2106943), wk =   0.0370370
        k(   72) = (   0.5000000  -0.0962250  -0.4213885), wk =   0.0370370
        k(   73) = (  -0.8333333   0.6735753  -0.2106943), wk =   0.0185185
        k(   74) = (  -0.8333333   0.6735753  -0.4213885), wk =   0.0185185
        k(   75) = (  -0.5000000   0.4811252  -0.2106943), wk =   0.0370370
        k(   76) = (  -0.5000000   0.4811252  -0.4213885), wk =   0.0370370
        k(   77) = (   0.3333333   0.1924501  -0.2106943), wk =   0.0185185
        k(   78) = (   0.3333333   0.1924501  -0.4213885), wk =   0.0185185
        k(   79) = (  -0.6666667   0.7698004  -0.2106943), wk =   0.0185185
        k(   80) = (  -0.6666667   0.7698004  -0.4213885), wk =   0.0185185

     Check: negative core charge=   -0.000001

     Initial potential from superposition of free atoms

     starting charge      71.9851, renormalised to      72.0000
     Starting wfcs are   52 randomized atomic wfcs

     Self-consistent Calculation

     iteration #  1     ecut=    50.00 Ry     beta= 0.30
     Davidson diagonalization with overlap
     ethr =  1.00E-02,  avg # of iterations =  2.2

     total energy              =    -722.55425508 Ry
     estimated scf accuracy    <       1.37626659 Ry

[...]

     total energy              =    -722.80586741 Ry
     estimated scf accuracy    <       0.00000020 Ry

     iteration # 17     ecut=    50.00 Ry     beta= 0.30
     Davidson diagonalization with overlap
     ethr =  1.14E-10,  avg # of iterations =  5.5

     End of self-consistent calculation

          k = 0.0000 0.0000 0.0000 (  2815 PWs)   bands (ev):

    -8.3388  -7.1040  -6.9822  -6.6885   4.3553   4.3618   4.3860   4.9926
     4.9927   5.1849   5.2804   5.2805   5.4358   5.5943   6.1549   6.2360
     7.3095   7.3095   7.3633   7.6406   7.7480   7.7480   7.8454   7.8504
     8.0420   8.2420   8.6238   9.0871   9.4092  11.0960  11.5200  11.6545
    11.6547  12.6247  12.8772  12.8774

[...]

          k =-0.5000-0.2887 0.0000 (  2798 PWs)   bands (ev):

[...]

          k = 0.3333 0.1925-0.4214 (  2817 PWs)   bands (ev):

[...]

          k =-0.6667 0.7698-0.4214 (  2818 PWs)   bands (ev):

    -6.9920  -6.9920  -6.7677  -6.7677   4.2343   4.2343   4.3137   4.3137
     5.3204   5.3204   5.4240   5.4241   5.9037   5.9037   5.9921   5.9921
     7.4149   7.4149   7.6009   7.6010   7.8307   7.8307   8.0380   8.0380
     8.3292   8.3292   8.8089   8.8089   9.4547   9.4547  10.1810  10.1810
    10.6433  10.6433  11.2979  11.2979

     highest occupied level (ev):    12.8774

!    total energy              =    -722.80586745 Ry
     estimated scf accuracy    <          2.6E-09 Ry

     The total energy is the sum of the following terms:
     one-electron contribution =    -228.35089346 Ry
     hartree contribution      =     209.17409977 Ry
     xc contribution           =    -220.78193470 Ry
     ewald contribution        =    -482.84713906 Ry

     convergence has been achieved in  17 iterations

     Forces acting on atoms (cartesian axes, Ry/au):

     atom    1 type  1   force =    -0.00001384   -0.00000799    0.00996318
     atom    2 type  2   force =    -0.00000322   -0.00000186   -0.00996535
     atom    3 type  1   force =     0.00000075    0.00000043    0.00996650
     atom    4 type  2   force =     0.00000384    0.00000222   -0.00996815
     atom    5 type  1   force =    -0.00000878   -0.00000507    0.00996496
     atom    6 type  2   force =    -0.00000256   -0.00000148   -0.00996370
     atom    7 type  1   force =     0.00002068    0.00001194    0.00997114
     atom    8 type  2   force =     0.00000314    0.00000181   -0.00996858
     The non-local contrib.  to forces
     atom    1 type  1   force =     0.00002938    0.00001696    0.04850988
     atom    2 type  2   force =    -0.00014434   -0.00008333    0.02794838
     atom    3 type  1   force =    -0.00003763   -0.00002173    0.04851377
     atom    4 type  2   force =     0.00014618    0.00008440    0.02794037
     atom    5 type  1   force =     0.00003434    0.00001982    0.04851047
     atom    6 type  2   force =    -0.00014756   -0.00008520    0.02795067
     atom    7 type  1   force =    -0.00002599   -0.00001501    0.04851540
     atom    8 type  2   force =     0.00014430    0.00008331    0.02794119
     The ionic contribution  to forces
     atom    1 type  1   force =     0.00000000    0.00000000    0.25156218
     atom    2 type  2   force =    -0.00000000   -0.00000000   -0.25156218
     atom    3 type  1   force =    -0.00000000   -0.00000000    0.25156218
     atom    4 type  2   force =     0.00000000    0.00000000   -0.25156218
     atom    5 type  1   force =     0.00000000    0.00000000    0.25156218
     atom    6 type  2   force =    -0.00000000   -0.00000000   -0.25156218
     atom    7 type  1   force =    -0.00000000   -0.00000000    0.25156218
     atom    8 type  2   force =     0.00000000    0.00000000   -0.25156218
     The local contribution  to forces
     atom    1 type  1   force =    -0.00004603   -0.00002658   -0.28513346
     atom    2 type  2   force =     0.00014362    0.00008292    0.21383135
     atom    3 type  1   force =     0.00006571    0.00003794   -0.28513566
     atom    4 type  2   force =    -0.00013634   -0.00007871    0.21382241
     atom    5 type  1   force =    -0.00005364   -0.00003097   -0.28513753
     atom    6 type  2   force =     0.00013864    0.00008004    0.21382839
     atom    7 type  1   force =     0.00003464    0.00002000   -0.28514005
     atom    8 type  2   force =    -0.00014992   -0.00008656    0.21381731
     The core correction contribution to forces
     atom    1 type  1   force =     0.00000365    0.00000211   -0.00497343
     atom    2 type  2   force =     0.00000163    0.00000094   -0.00015889
     atom    3 type  1   force =    -0.00000361   -0.00000209   -0.00497383
     atom    4 type  2   force =    -0.00000163   -0.00000094   -0.00015881
     atom    5 type  1   force =     0.00000344    0.00000199   -0.00497324
     atom    6 type  2   force =     0.00000166    0.00000096   -0.00015893
     atom    7 type  1   force =    -0.00000343   -0.00000198   -0.00497384
     atom    8 type  2   force =    -0.00000165   -0.00000095   -0.00015883
     The Hubbard contrib.    to forces
     atom    1 type  1   force =     0.00000000    0.00000000    0.00000000
     atom    2 type  2   force =     0.00000000    0.00000000    0.00000000
     atom    3 type  1   force =     0.00000000    0.00000000    0.00000000
     atom    4 type  2   force =     0.00000000    0.00000000    0.00000000
     atom    5 type  1   force =     0.00000000    0.00000000    0.00000000
     atom    6 type  2   force =     0.00000000    0.00000000    0.00000000
     atom    7 type  1   force =     0.00000000    0.00000000    0.00000000
     atom    8 type  2   force =     0.00000000    0.00000000    0.00000000
     The SCF correction term to forces
     atom    1 type  1   force =    -0.00000143   -0.00000083    0.00000203
     atom    2 type  2   force =    -0.00000472   -0.00000272   -0.00001999
     atom    3 type  1   force =    -0.00002430   -0.00001403    0.00000406
     atom    4 type  2   force =    -0.00000496   -0.00000286   -0.00000594
     atom    5 type  1   force =     0.00000649    0.00000375    0.00000710
     atom    6 type  2   force =     0.00000412    0.00000238   -0.00001763
     atom    7 type  1   force =     0.00001488    0.00000859    0.00001147
     atom    8 type  2   force =     0.00000982    0.00000567   -0.00000207

     Total force =     0.028189     Total SCF correction =     0.000048

     Writing all to output data dir ./ZnO-2.94-1.58-211.in.save/

     General routines

     Parallel routines

   This run was terminated on:  12: 4: 4  12Jul2025

   JOB DONE.
Note: The following floating-point exceptions are signalling: IEEE_INVALID_FLAG
Note: The following floating-point exceptions are signalling: IEEE_INVALID_FLAG