     Program PWSCF v.7.2 starts on 12Jul2025 at 18:46:59

     Reading input from /home/jvc/QEspresso7.2/ZnO_database/scripts/cell211_strain10%.in/ZnO-3.60-1.52-211.in
Warning: card &CELL ignored
Warning: card / ignored
Warning: card &FCP ignored
Warning: card / ignored
Warning: card &RISM ignored
Warning: card / ignored

     Current dimensions of program PWSCF are:
     Max number of different atomic species (ntypx) = 10
     Max number of k-points (npk) =  40000
     Max angular momentum in pseudopotentials (lmaxx) =  4
     file Zn.upf: wavefunction(s)  3D renormalized
     Found identity + ( -0.5000  0.0000  0.0000) symmetry
     This is a supercell, fractional translations are disabled
     Message from routine setup:
     using ibrav=0 with symmetry is DISCOURAGED, use correct ibrav instead

     K-points division:     npool     =       2
     R & G space division:  proc/nbgrp/npool/nimage =       8
     Subspace diagonalization in iterative solution of the eigenvalue problem:
     a serial algorithm will be used

     Using Slab Decomposition

     bravais-lattice index     =            0
     lattice parameter (alat)  =      13.5935  a.u.
     unit-cell volume          =     825.2590 (a.u.)^3
     number of atoms/cell      =            8
     number of atomic types    =            2
     number of electrons       =        72.00
     number of Kohn-Sham states=           36
     kinetic-energy cutoff     =      50.0000  Ry
     charge density cutoff     =     400.0000  Ry
     scf convergence threshold =      1.0E-08
     mixing beta               =       0.3000
     number of iterations used =            8  plain     mixing
     Exchange-correlation= PBE
                           (   1   4   3   4   0   0   0)

     celldm(1)=  13.593479  celldm(2)=   0.000000  celldm(3)=   0.000000
     celldm(4)=   0.000000  celldm(5)=   0.000000  celldm(6)=   0.000000

     crystal axes: (cart. coord. in units of alat)
               a(1) = (   1.000000   0.000000   0.000000 )
               a(2) = (  -0.250000   0.433013   0.000000 )
               a(3) = (   0.000000   0.000000   0.758748 )

     reciprocal axes: (cart. coord. in units 2 pi/alat)
               b(1) = (  1.000000  0.577350 -0.000000 )
               b(2) = (  0.000000  2.309401  0.000000 )
               b(3) = (  0.000000 -0.000000  1.317960 )

     PseudoPot. # 1 for Zn read from file:
     /home/jvc/QEspresso7.2/ZnO_database/pseudos/Zn.upf
     MD5 check sum: 7f56cabf9682ed8c977c2f7d0c5985c5
     Pseudo is Ultrasoft + core correction, Zval = 12.0
     Generated using &quot;atomic&quot; code by A. Dal Corso  v.6.2.2
     Using radial grid of 1201 points,  6 beta functions with:
                l(1) =   0
                l(2) =   0
                l(3) =   1
                l(4) =   1
                l(5) =   2
                l(6) =   2
     Q(r) pseudized with 0 coefficients

     PseudoPot. # 2 for O  read from file:
     /home/jvc/QEspresso7.2/ZnO_database/pseudos/O.upf
     MD5 check sum: 91400c9766925bcf19f520983a725ff0
     Pseudo is Ultrasoft + core correction, Zval =  6.0
     Generated using &quot;atomic&quot; code by A. Dal Corso  v.6.3MaX
     Using radial grid of 1095 points,  4 beta functions with:
                l(1) =   0
                l(2) =   0
                l(3) =   1
                l(4) =   1
     Q(r) pseudized with 0 coefficients

     atomic species   valence    mass     pseudopotential
        Zn            12.00    65.38000     Zn( 1.00)
        O              6.00    15.99900     O ( 1.00)

      2 Sym. Ops. (no inversion) found

   Cartesian axes

     site n.     atom                  positions (alat units)
         1           Zn  tau(   1) = (   0.0000000   0.0000000   0.0000000  )
         2           O   tau(   2) = (   0.0000000   0.2886751   0.0798571  )
         3           Zn  tau(   3) = (   0.0000000   0.2886751   0.3793742  )
         4           O   tau(   4) = (   0.0000000   0.0000000   0.4592313  )
         5           Zn  tau(   5) = (   0.5000000   0.0000000   0.0000000  )
         6           O   tau(   6) = (   0.5000000   0.2886751   0.0798571  )
         7           Zn  tau(   7) = (   0.5000000   0.2886751   0.3793742  )
         8           O   tau(   8) = (   0.5000000   0.0000000   0.4592313  )

     number of k points=    80
                       cart. coord. in units 2pi/alat
        k(    1) = (   0.0000000   0.0000000   0.0000000), wk =   0.0092593
        k(    2) = (   0.0000000   0.0000000   0.2196600), wk =   0.0185185
        k(    3) = (   0.0000000   0.0000000   0.4393200), wk =   0.0185185
        k(    4) = (   0.0000000   0.0000000  -0.6589799), wk =   0.0092593
        k(    5) = (   0.0000000   0.3849002   0.0000000), wk =   0.0370370
        k(    6) = (   0.0000000   0.3849002   0.2196600), wk =   0.0370370
        k(    7) = (   0.0000000   0.3849002   0.4393200), wk =   0.0370370
        k(    8) = (   0.0000000   0.3849002  -0.6589799), wk =   0.0370370
        k(    9) = (   0.0000000   0.7698004   0.0000000), wk =   0.0370370
        k(   10) = (   0.0000000   0.7698004   0.2196600), wk =   0.0370370
        k(   11) = (   0.0000000   0.7698004   0.4393200), wk =   0.0370370
        k(   12) = (   0.0000000   0.7698004  -0.6589799), wk =   0.0370370
        k(   13) = (   0.0000000  -1.1547005   0.0000000), wk =   0.0092593
        k(   14) = (   0.0000000  -1.1547005   0.2196600), wk =   0.0185185
        k(   15) = (   0.0000000  -1.1547005   0.4393200), wk =   0.0185185
        k(   16) = (   0.0000000  -1.1547005  -0.6589799), wk =   0.0092593
        k(   17) = (   0.1666667   0.0962250   0.0000000), wk =   0.0185185
        k(   18) = (   0.1666667   0.0962250   0.2196600), wk =   0.0185185
        k(   19) = (   0.1666667   0.0962250   0.4393200), wk =   0.0185185
        k(   20) = (   0.1666667   0.0962250  -0.6589799), wk =   0.0185185
        k(   21) = (   0.1666667   0.4811252   0.0000000), wk =   0.0370370
        k(   22) = (   0.1666667   0.4811252   0.2196600), wk =   0.0370370
        k(   23) = (   0.1666667   0.4811252   0.4393200), wk =   0.0370370
        k(   24) = (   0.1666667   0.4811252  -0.6589799), wk =   0.0370370
        k(   25) = (   0.1666667   0.8660254   0.0000000), wk =   0.0185185
        k(   26) = (   0.1666667   0.8660254   0.2196600), wk =   0.0370370
        k(   27) = (   0.1666667   0.8660254   0.4393200), wk =   0.0370370
        k(   28) = (   0.1666667   0.8660254  -0.6589799), wk =   0.0185185
        k(   29) = (   0.1666667  -1.0584755   0.0000000), wk =   0.0185185
        k(   30) = (   0.1666667  -1.0584755   0.2196600), wk =   0.0185185
        k(   31) = (   0.1666667  -1.0584755   0.4393200), wk =   0.0185185
        k(   32) = (   0.1666667  -1.0584755  -0.6589799), wk =   0.0185185
        k(   33) = (   0.1666667  -0.6735753   0.0000000), wk =   0.0370370
        k(   34) = (   0.1666667  -0.6735753   0.2196600), wk =   0.0370370
        k(   35) = (   0.1666667  -0.6735753   0.4393200), wk =   0.0370370
        k(   36) = (   0.1666667  -0.6735753  -0.6589799), wk =   0.0370370
        k(   37) = (   0.1666667  -0.2886751   0.0000000), wk =   0.0185185
        k(   38) = (   0.1666667  -0.2886751   0.2196600), wk =   0.0370370
        k(   39) = (   0.1666667  -0.2886751   0.4393200), wk =   0.0370370
        k(   40) = (   0.1666667  -0.2886751  -0.6589799), wk =   0.0185185
        k(   41) = (   0.3333333   0.1924501   0.0000000), wk =   0.0185185
        k(   42) = (   0.3333333   0.1924501   0.2196600), wk =   0.0185185
        k(   43) = (   0.3333333   0.1924501   0.4393200), wk =   0.0185185
        k(   44) = (   0.3333333   0.1924501  -0.6589799), wk =   0.0185185
        k(   45) = (   0.3333333   0.5773503   0.0000000), wk =   0.0185185
        k(   46) = (   0.3333333   0.5773503   0.2196600), wk =   0.0370370
        k(   47) = (   0.3333333   0.5773503   0.4393200), wk =   0.0370370
        k(   48) = (   0.3333333   0.5773503  -0.6589799), wk =   0.0185185
        k(   49) = (   0.3333333  -0.9622504   0.0000000), wk =   0.0185185
        k(   50) = (   0.3333333  -0.9622504   0.2196600), wk =   0.0185185
        k(   51) = (   0.3333333  -0.9622504   0.4393200), wk =   0.0185185
        k(   52) = (   0.3333333  -0.9622504  -0.6589799), wk =   0.0185185
        k(   53) = (   0.3333333  -0.5773503   0.0000000), wk =   0.0185185
        k(   54) = (   0.3333333  -0.5773503   0.2196600), wk =   0.0370370
        k(   55) = (   0.3333333  -0.5773503   0.4393200), wk =   0.0370370
        k(   56) = (   0.3333333  -0.5773503  -0.6589799), wk =   0.0185185
        k(   57) = (  -0.5000000  -0.2886751   0.0000000), wk =   0.0092593
        k(   58) = (  -0.5000000  -0.2886751   0.2196600), wk =   0.0185185
        k(   59) = (  -0.5000000  -0.2886751   0.4393200), wk =   0.0185185
        k(   60) = (  -0.5000000  -0.2886751  -0.6589799), wk =   0.0092593
[...]
        k(   66) = (   0.3333333  -0.1924501  -0.4393200), wk =   0.0370370
        k(   67) = (   0.6666667  -0.3849002  -0.2196600), wk =   0.0370370
        k(   68) = (   0.6666667  -0.3849002  -0.4393200), wk =   0.0370370
        k(   69) = (   0.1666667   0.0962250  -0.2196600), wk =   0.0185185
        k(   70) = (   0.1666667   0.0962250  -0.4393200), wk =   0.0185185
        k(   71) = (   0.5000000  -0.0962250  -0.2196600), wk =   0.0370370
        k(   72) = (   0.5000000  -0.0962250  -0.4393200), wk =   0.0370370
        k(   73) = (  -0.8333333   0.6735753  -0.2196600), wk =   0.0185185
        k(   74) = (  -0.8333333   0.6735753  -0.4393200), wk =   0.0185185
        k(   75) = (  -0.5000000   0.4811252  -0.2196600), wk =   0.0370370
        k(   76) = (  -0.5000000   0.4811252  -0.4393200), wk =   0.0370370
        k(   77) = (   0.3333333   0.1924501  -0.2196600), wk =   0.0185185
        k(   78) = (   0.3333333   0.1924501  -0.4393200), wk =   0.0185185
        k(   79) = (  -0.6666667   0.7698004  -0.2196600), wk =   0.0185185
        k(   80) = (  -0.6666667   0.7698004  -0.4393200), wk =   0.0185185

     Check: negative core charge=   -0.000002

     Initial potential from superposition of free atoms

     starting charge      71.9851, renormalised to      72.0000
     Starting wfcs are   52 randomized atomic wfcs

     Self-consistent Calculation

     iteration #  1     ecut=    50.00 Ry     beta= 0.30
     Davidson diagonalization with overlap
     ethr =  1.00E-02,  avg # of iterations =  1.4

     total energy              =    -722.76474776 Ry
     estimated scf accuracy    <       1.61324862 Ry

[...]

     total energy              =    -723.15250204 Ry
     estimated scf accuracy    <       0.00000003 Ry

     iteration # 30     ecut=    50.00 Ry     beta= 0.30
     Davidson diagonalization with overlap
     ethr =  3.49E-11,  avg # of iterations =  5.9

     End of self-consistent calculation

          k = 0.0000 0.0000 0.0000 (  4919 PWs)   bands (ev):

   -12.4057 -12.0299 -11.9458 -11.8857  -0.8828  -0.8826  -0.8779  -0.7828
    -0.7826  -0.7659  -0.7056  -0.5791  -0.4349  -0.4312  -0.4131  -0.3211
    -0.3211  -0.2344  -0.2318  -0.1861  -0.1861  -0.1602  -0.1555  -0.1271
     0.4289   0.7359   1.1926   2.0268   2.3881   3.1970   3.3962   3.4016
     3.4021   3.9746   3.9752   4.0245

[...]

          k =-0.5000-0.2887 0.0000 (  4922 PWs)   bands (ev):

[...]

          k = 0.3333 0.1925-0.4393 (  4919 PWs)   bands (ev):

[...]

          k =-0.6667 0.7698-0.4393 (  4920 PWs)   bands (ev):

   -11.9914 -11.9914 -11.9164 -11.9164  -0.8563  -0.8563  -0.7636  -0.7636
    -0.6595  -0.6595  -0.5544  -0.5544  -0.5112  -0.5112  -0.4914  -0.4914
    -0.2455  -0.2455  -0.2281  -0.2281  -0.1440  -0.1440  -0.0801  -0.0801
     0.8644   0.8644   1.0763   1.0763   2.2139   2.2139   2.7994   2.7994
     2.9505   2.9505   3.4609   3.4609

     highest occupied level (ev):     4.0245

!    total energy              =    -723.15250204 Ry
     estimated scf accuracy    <          9.4E-09 Ry

     The total energy is the sum of the following terms:
     one-electron contribution =    -359.09834902 Ry
     hartree contribution      =     254.79005815 Ry
     xc contribution           =    -218.27401390 Ry
     ewald contribution        =    -400.57019727 Ry

     convergence has been achieved in  30 iterations

     Forces acting on atoms (cartesian axes, Ry/au):

     atom    1 type  1   force =     0.00000129    0.00000074   -0.00688634
     atom    2 type  2   force =    -0.00000737   -0.00000425    0.00689045
     atom    3 type  1   force =     0.00000165    0.00000095   -0.00689898
     atom    4 type  2   force =     0.00000703    0.00000406    0.00688981
     atom    5 type  1   force =    -0.00000121   -0.00000070   -0.00688072
     atom    6 type  2   force =    -0.00000721   -0.00000416    0.00689034
     atom    7 type  1   force =    -0.00000145   -0.00000083   -0.00689517
     atom    8 type  2   force =     0.00000727    0.00000420    0.00689061
     The non-local contrib.  to forces
     atom    1 type  1   force =    -0.00001306   -0.00000754    0.08924207
     atom    2 type  2   force =    -0.00018631   -0.00010756    0.07534913
     atom    3 type  1   force =     0.00001533    0.00000885    0.08923574
     atom    4 type  2   force =     0.00018486    0.00010673    0.07535128
     atom    5 type  1   force =    -0.00001453   -0.00000839    0.08924208
     atom    6 type  2   force =    -0.00018460   -0.00010658    0.07534854
     atom    7 type  1   force =     0.00001246    0.00000720    0.08923563
     atom    8 type  2   force =     0.00018653    0.00010769    0.07535371
     The ionic contribution  to forces
     atom    1 type  1   force =     0.00000000    0.00000000    0.53507441
     atom    2 type  2   force =    -0.00000000   -0.00000000   -0.53507441
     atom    3 type  1   force =    -0.00000000   -0.00000000    0.53507441
     atom    4 type  2   force =     0.00000000    0.00000000   -0.53507441
     atom    5 type  1   force =     0.00000000    0.00000000    0.53507441
     atom    6 type  2   force =    -0.00000000   -0.00000000   -0.53507441
     atom    7 type  1   force =    -0.00000000   -0.00000000    0.53507441
     atom    8 type  2   force =     0.00000000    0.00000000   -0.53507441
     The local contribution  to forces
     atom    1 type  1   force =     0.00001600    0.00000924   -0.62644404
     atom    2 type  2   force =     0.00017314    0.00009996    0.46727028
     atom    3 type  1   force =    -0.00002063   -0.00001191   -0.62642903
     atom    4 type  2   force =    -0.00017292   -0.00009984    0.46728672
     atom    5 type  1   force =     0.00001770    0.00001022   -0.62644681
     atom    6 type  2   force =     0.00017996    0.00010390    0.46727459
     atom    7 type  1   force =    -0.00001419   -0.00000820   -0.62642994
     atom    8 type  2   force =    -0.00017723   -0.00010232    0.46728110
     The core correction contribution to forces
     atom    1 type  1   force =     0.00000615    0.00000355   -0.00478048
     atom    2 type  2   force =     0.00000210    0.00000121   -0.00065970
     atom    3 type  1   force =    -0.00000618   -0.00000357   -0.00478043
     atom    4 type  2   force =    -0.00000208   -0.00000120   -0.00065968
     atom    5 type  1   force =     0.00000623    0.00000360   -0.00478057
     atom    6 type  2   force =     0.00000210    0.00000121   -0.00065968
     atom    7 type  1   force =    -0.00000622   -0.00000359   -0.00478048
     atom    8 type  2   force =    -0.00000212   -0.00000122   -0.00065973
     The Hubbard contrib.    to forces
     atom    1 type  1   force =     0.00000000    0.00000000    0.00000000
     atom    2 type  2   force =     0.00000000    0.00000000    0.00000000
     atom    3 type  1   force =     0.00000000    0.00000000    0.00000000
     atom    4 type  2   force =     0.00000000    0.00000000    0.00000000
     atom    5 type  1   force =     0.00000000    0.00000000    0.00000000
     atom    6 type  2   force =     0.00000000    0.00000000    0.00000000
     atom    7 type  1   force =     0.00000000    0.00000000    0.00000000
     atom    8 type  2   force =     0.00000000    0.00000000    0.00000000
     The SCF correction term to forces
     atom    1 type  1   force =    -0.00000769   -0.00000444    0.00002893
     atom    2 type  2   force =     0.00000383    0.00000221    0.00001237
     atom    3 type  1   force =     0.00001325    0.00000765    0.00000756
     atom    4 type  2   force =    -0.00000272   -0.00000157   -0.00000686
     atom    5 type  1   force =    -0.00001050   -0.00000606    0.00003741
     atom    6 type  2   force =    -0.00000455   -0.00000263    0.00000852
     atom    7 type  1   force =     0.00000663    0.00000383    0.00001245
     atom    8 type  2   force =     0.00000021    0.00000012   -0.00000282

     Total force =     0.019489     Total SCF correction =     0.000057

     Writing all to output data dir ./ZnO-3.60-1.52-211.in.save/

     General routines

     Parallel routines

   This run was terminated on:  18:50:29  12Jul2025

   JOB DONE.
Note: The following floating-point exceptions are signalling: IEEE_INVALID_FLAG
Note: The following floating-point exceptions are signalling: IEEE_INVALID_FLAG