     Program PWSCF v.7.2 starts on 12Jul2025 at 16:59:26

     Reading input from /home/jvc/QEspresso7.2/ZnO_database/scripts/cell211_strain10%.in/ZnO-3.47-1.52-211.in
Warning: card &CELL ignored
Warning: card / ignored
Warning: card &FCP ignored
Warning: card / ignored
Warning: card &RISM ignored
Warning: card / ignored

     Current dimensions of program PWSCF are:
     Max number of different atomic species (ntypx) = 10
     Max number of k-points (npk) =  40000
     Max angular momentum in pseudopotentials (lmaxx) =  4
     file Zn.upf: wavefunction(s)  3D renormalized
     Found identity + ( -0.5000  0.0000  0.0000) symmetry
     This is a supercell, fractional translations are disabled
     Message from routine setup:
     using ibrav=0 with symmetry is DISCOURAGED, use correct ibrav instead

     K-points division:     npool     =       2
     R & G space division:  proc/nbgrp/npool/nimage =       8
     Subspace diagonalization in iterative solution of the eigenvalue problem:
     a serial algorithm will be used

     Using Slab Decomposition

     bravais-lattice index     =            0
     lattice parameter (alat)  =      13.0992  a.u.
     unit-cell volume          =     738.4648 (a.u.)^3
     number of atoms/cell      =            8
     number of atomic types    =            2
     number of electrons       =        72.00
     number of Kohn-Sham states=           36
     kinetic-energy cutoff     =      50.0000  Ry
     charge density cutoff     =     400.0000  Ry
     scf convergence threshold =      1.0E-08
     mixing beta               =       0.3000
     number of iterations used =            8  plain     mixing
     Exchange-correlation= PBE
                           (   1   4   3   4   0   0   0)

     celldm(1)=  13.099170  celldm(2)=   0.000000  celldm(3)=   0.000000
     celldm(4)=   0.000000  celldm(5)=   0.000000  celldm(6)=   0.000000

     crystal axes: (cart. coord. in units of alat)
               a(1) = (   1.000000   0.000000   0.000000 )
               a(2) = (  -0.250000   0.433013   0.000000 )
               a(3) = (   0.000000   0.000000   0.758748 )

     reciprocal axes: (cart. coord. in units 2 pi/alat)
               b(1) = (  1.000000  0.577350 -0.000000 )
               b(2) = (  0.000000  2.309401  0.000000 )
               b(3) = (  0.000000 -0.000000  1.317960 )

     PseudoPot. # 1 for Zn read from file:
     /home/jvc/QEspresso7.2/ZnO_database/pseudos/Zn.upf
     MD5 check sum: 7f56cabf9682ed8c977c2f7d0c5985c5
     Pseudo is Ultrasoft + core correction, Zval = 12.0
     Generated using &quot;atomic&quot; code by A. Dal Corso  v.6.2.2
     Using radial grid of 1201 points,  6 beta functions with:
                l(1) =   0
                l(2) =   0
                l(3) =   1
                l(4) =   1
                l(5) =   2
                l(6) =   2
     Q(r) pseudized with 0 coefficients

     PseudoPot. # 2 for O  read from file:
     /home/jvc/QEspresso7.2/ZnO_database/pseudos/O.upf
     MD5 check sum: 91400c9766925bcf19f520983a725ff0
     Pseudo is Ultrasoft + core correction, Zval =  6.0
     Generated using &quot;atomic&quot; code by A. Dal Corso  v.6.3MaX
     Using radial grid of 1095 points,  4 beta functions with:
                l(1) =   0
                l(2) =   0
                l(3) =   1
                l(4) =   1
     Q(r) pseudized with 0 coefficients

     atomic species   valence    mass     pseudopotential
        Zn            12.00    65.38000     Zn( 1.00)
        O              6.00    15.99900     O ( 1.00)

      2 Sym. Ops. (no inversion) found

   Cartesian axes

     site n.     atom                  positions (alat units)
         1           Zn  tau(   1) = (   0.0000000   0.0000000   0.0000000  )
         2           O   tau(   2) = (   0.0000000   0.2886751   0.0798571  )
         3           Zn  tau(   3) = (   0.0000000   0.2886751   0.3793742  )
         4           O   tau(   4) = (   0.0000000   0.0000000   0.4592313  )
         5           Zn  tau(   5) = (   0.5000000   0.0000000   0.0000000  )
         6           O   tau(   6) = (   0.5000000   0.2886751   0.0798571  )
         7           Zn  tau(   7) = (   0.5000000   0.2886751   0.3793742  )
         8           O   tau(   8) = (   0.5000000   0.0000000   0.4592313  )

     number of k points=    80
                       cart. coord. in units 2pi/alat
        k(    1) = (   0.0000000   0.0000000   0.0000000), wk =   0.0092593
        k(    2) = (   0.0000000   0.0000000   0.2196600), wk =   0.0185185
        k(    3) = (   0.0000000   0.0000000   0.4393200), wk =   0.0185185
        k(    4) = (   0.0000000   0.0000000  -0.6589799), wk =   0.0092593
        k(    5) = (   0.0000000   0.3849002   0.0000000), wk =   0.0370370
        k(    6) = (   0.0000000   0.3849002   0.2196600), wk =   0.0370370
        k(    7) = (   0.0000000   0.3849002   0.4393200), wk =   0.0370370
        k(    8) = (   0.0000000   0.3849002  -0.6589799), wk =   0.0370370
        k(    9) = (   0.0000000   0.7698004   0.0000000), wk =   0.0370370
        k(   10) = (   0.0000000   0.7698004   0.2196600), wk =   0.0370370
        k(   11) = (   0.0000000   0.7698004   0.4393200), wk =   0.0370370
        k(   12) = (   0.0000000   0.7698004  -0.6589799), wk =   0.0370370
        k(   13) = (   0.0000000  -1.1547005   0.0000000), wk =   0.0092593
        k(   14) = (   0.0000000  -1.1547005   0.2196600), wk =   0.0185185
        k(   15) = (   0.0000000  -1.1547005   0.4393200), wk =   0.0185185
        k(   16) = (   0.0000000  -1.1547005  -0.6589799), wk =   0.0092593
        k(   17) = (   0.1666667   0.0962250   0.0000000), wk =   0.0185185
        k(   18) = (   0.1666667   0.0962250   0.2196600), wk =   0.0185185
        k(   19) = (   0.1666667   0.0962250   0.4393200), wk =   0.0185185
        k(   20) = (   0.1666667   0.0962250  -0.6589799), wk =   0.0185185
        k(   21) = (   0.1666667   0.4811252   0.0000000), wk =   0.0370370
        k(   22) = (   0.1666667   0.4811252   0.2196600), wk =   0.0370370
        k(   23) = (   0.1666667   0.4811252   0.4393200), wk =   0.0370370
        k(   24) = (   0.1666667   0.4811252  -0.6589799), wk =   0.0370370
        k(   25) = (   0.1666667   0.8660254   0.0000000), wk =   0.0185185
        k(   26) = (   0.1666667   0.8660254   0.2196600), wk =   0.0370370
        k(   27) = (   0.1666667   0.8660254   0.4393200), wk =   0.0370370
        k(   28) = (   0.1666667   0.8660254  -0.6589799), wk =   0.0185185
        k(   29) = (   0.1666667  -1.0584755   0.0000000), wk =   0.0185185
        k(   30) = (   0.1666667  -1.0584755   0.2196600), wk =   0.0185185
        k(   31) = (   0.1666667  -1.0584755   0.4393200), wk =   0.0185185
        k(   32) = (   0.1666667  -1.0584755  -0.6589799), wk =   0.0185185
        k(   33) = (   0.1666667  -0.6735753   0.0000000), wk =   0.0370370
        k(   34) = (   0.1666667  -0.6735753   0.2196600), wk =   0.0370370
        k(   35) = (   0.1666667  -0.6735753   0.4393200), wk =   0.0370370
        k(   36) = (   0.1666667  -0.6735753  -0.6589799), wk =   0.0370370
        k(   37) = (   0.1666667  -0.2886751   0.0000000), wk =   0.0185185
        k(   38) = (   0.1666667  -0.2886751   0.2196600), wk =   0.0370370
        k(   39) = (   0.1666667  -0.2886751   0.4393200), wk =   0.0370370
        k(   40) = (   0.1666667  -0.2886751  -0.6589799), wk =   0.0185185
        k(   41) = (   0.3333333   0.1924501   0.0000000), wk =   0.0185185
        k(   42) = (   0.3333333   0.1924501   0.2196600), wk =   0.0185185
        k(   43) = (   0.3333333   0.1924501   0.4393200), wk =   0.0185185
        k(   44) = (   0.3333333   0.1924501  -0.6589799), wk =   0.0185185
        k(   45) = (   0.3333333   0.5773503   0.0000000), wk =   0.0185185
        k(   46) = (   0.3333333   0.5773503   0.2196600), wk =   0.0370370
        k(   47) = (   0.3333333   0.5773503   0.4393200), wk =   0.0370370
        k(   48) = (   0.3333333   0.5773503  -0.6589799), wk =   0.0185185
        k(   49) = (   0.3333333  -0.9622504   0.0000000), wk =   0.0185185
        k(   50) = (   0.3333333  -0.9622504   0.2196600), wk =   0.0185185
        k(   51) = (   0.3333333  -0.9622504   0.4393200), wk =   0.0185185
        k(   52) = (   0.3333333  -0.9622504  -0.6589799), wk =   0.0185185
        k(   53) = (   0.3333333  -0.5773503   0.0000000), wk =   0.0185185
        k(   54) = (   0.3333333  -0.5773503   0.2196600), wk =   0.0370370
        k(   55) = (   0.3333333  -0.5773503   0.4393200), wk =   0.0370370
        k(   56) = (   0.3333333  -0.5773503  -0.6589799), wk =   0.0185185
        k(   57) = (  -0.5000000  -0.2886751   0.0000000), wk =   0.0092593
        k(   58) = (  -0.5000000  -0.2886751   0.2196600), wk =   0.0185185
        k(   59) = (  -0.5000000  -0.2886751   0.4393200), wk =   0.0185185
        k(   60) = (  -0.5000000  -0.2886751  -0.6589799), wk =   0.0092593
[...]
        k(   66) = (   0.3333333  -0.1924501  -0.4393200), wk =   0.0370370
        k(   67) = (   0.6666667  -0.3849002  -0.2196600), wk =   0.0370370
        k(   68) = (   0.6666667  -0.3849002  -0.4393200), wk =   0.0370370
        k(   69) = (   0.1666667   0.0962250  -0.2196600), wk =   0.0185185
        k(   70) = (   0.1666667   0.0962250  -0.4393200), wk =   0.0185185
        k(   71) = (   0.5000000  -0.0962250  -0.2196600), wk =   0.0370370
        k(   72) = (   0.5000000  -0.0962250  -0.4393200), wk =   0.0370370
        k(   73) = (  -0.8333333   0.6735753  -0.2196600), wk =   0.0185185
        k(   74) = (  -0.8333333   0.6735753  -0.4393200), wk =   0.0185185
        k(   75) = (  -0.5000000   0.4811252  -0.2196600), wk =   0.0370370
        k(   76) = (  -0.5000000   0.4811252  -0.4393200), wk =   0.0370370
        k(   77) = (   0.3333333   0.1924501  -0.2196600), wk =   0.0185185
        k(   78) = (   0.3333333   0.1924501  -0.4393200), wk =   0.0185185
        k(   79) = (  -0.6666667   0.7698004  -0.2196600), wk =   0.0185185
        k(   80) = (  -0.6666667   0.7698004  -0.4393200), wk =   0.0185185

     Check: negative core charge=   -0.000002

     Initial potential from superposition of free atoms

     starting charge      71.9851, renormalised to      72.0000
     Starting wfcs are   52 randomized atomic wfcs

     Self-consistent Calculation

     iteration #  1     ecut=    50.00 Ry     beta= 0.30
     Davidson diagonalization with overlap
     ethr =  1.00E-02,  avg # of iterations =  1.8

     total energy              =    -722.88702680 Ry
     estimated scf accuracy    <       1.48528387 Ry

[...]

     total energy              =    -723.23821254 Ry
     estimated scf accuracy    <       0.00000001 Ry

     iteration # 40     ecut=    50.00 Ry     beta= 0.30
     Davidson diagonalization with overlap
     ethr =  1.99E-11,  avg # of iterations =  1.4

     End of self-consistent calculation

          k = 0.0000 0.0000 0.0000 (  4445 PWs)   bands (ev):

   -11.7277 -11.2378 -11.1301 -11.0510   0.1270   0.1799   0.1801   0.3029
     0.3030   0.3490   0.4157   0.4197   0.7260   0.7747   0.8025   0.8659
     0.9799   0.9799   1.0609   1.0937   1.1569   1.1569   1.1918   1.2310
     1.4482   1.8595   2.1675   3.0069   3.3783   4.3515   4.5776   4.6198
     4.6202   5.2907   5.2929   5.2933

[...]

          k =-0.5000-0.2887 0.0000 (  4414 PWs)   bands (ev):

[...]

          k = 0.3333 0.1925-0.4393 (  4412 PWs)   bands (ev):

[...]

          k =-0.6667 0.7698-0.4393 (  4402 PWs)   bands (ev):

   -11.1875 -11.1875 -11.0897 -11.0897   0.1220   0.1220   0.2200   0.2200
     0.4559   0.4559   0.5673   0.5673   0.6387   0.6387   0.6807   0.6807
     1.0710   1.0710   1.0981   1.0981   1.2025   1.2025   1.2908   1.2908
     1.9483   1.9483   2.1924   2.1924   3.2188   3.2188   3.8860   3.8860
     4.0654   4.0654   4.6423   4.6423

     highest occupied level (ev):     5.2933

!    total energy              =    -723.23821254 Ry
     estimated scf accuracy    <          5.4E-09 Ry

     The total energy is the sum of the following terms:
     one-electron contribution =    -334.74180533 Ry
     hartree contribution      =     245.84028536 Ry
     xc contribution           =    -218.65063880 Ry
     ewald contribution        =    -415.68605377 Ry

     convergence has been achieved in  40 iterations

     Forces acting on atoms (cartesian axes, Ry/au):

     atom    1 type  1   force =    -0.00000234   -0.00000135   -0.00352356
     atom    2 type  2   force =    -0.00000453   -0.00000262    0.00352302
     atom    3 type  1   force =    -0.00000308   -0.00000178   -0.00352233
     atom    4 type  2   force =     0.00000565    0.00000326    0.00352263
     atom    5 type  1   force =     0.00000551    0.00000318   -0.00352217
     atom    6 type  2   force =    -0.00000535   -0.00000309    0.00352337
     atom    7 type  1   force =    -0.00000072   -0.00000041   -0.00352350
     atom    8 type  2   force =     0.00000487    0.00000281    0.00352254
     The non-local contrib.  to forces
     atom    1 type  1   force =     0.00000054    0.00000031    0.09328142
     atom    2 type  2   force =    -0.00017777   -0.00010264    0.07479691
     atom    3 type  1   force =    -0.00000423   -0.00000244    0.09328197
     atom    4 type  2   force =     0.00017846    0.00010303    0.07479597
     atom    5 type  1   force =     0.00000533    0.00000308    0.09328185
     atom    6 type  2   force =    -0.00017815   -0.00010285    0.07479734
     atom    7 type  1   force =    -0.00000195   -0.00000113    0.09328175
     atom    8 type  2   force =     0.00017627    0.00010177    0.07479598
     The ionic contribution  to forces
     atom    1 type  1   force =     0.00000000    0.00000000    0.57621932
     atom    2 type  2   force =    -0.00000000   -0.00000000   -0.57621932
     atom    3 type  1   force =    -0.00000000   -0.00000000    0.57621932
     atom    4 type  2   force =     0.00000000    0.00000000   -0.57621932
     atom    5 type  1   force =     0.00000000    0.00000000    0.57621932
     atom    6 type  2   force =    -0.00000000   -0.00000000   -0.57621932
     atom    7 type  1   force =    -0.00000000   -0.00000000    0.57621932
     atom    8 type  2   force =     0.00000000    0.00000000   -0.57621932
     The local contribution  to forces
     atom    1 type  1   force =    -0.00000040   -0.00000023   -0.66745489
     atom    2 type  2   force =     0.00017354    0.00010019    0.50556595
     atom    3 type  1   force =     0.00000987    0.00000570   -0.66745652
     atom    4 type  2   force =    -0.00016940   -0.00009780    0.50556540
     atom    5 type  1   force =    -0.00001359   -0.00000784   -0.66745671
     atom    6 type  2   force =     0.00016920    0.00009769    0.50556621
     atom    7 type  1   force =     0.00000486    0.00000280   -0.66745419
     atom    8 type  2   force =    -0.00017119   -0.00009884    0.50556572
     The core correction contribution to forces
     atom    1 type  1   force =     0.00000564    0.00000326   -0.00557376
     atom    2 type  2   force =     0.00000202    0.00000116   -0.00062237
     atom    3 type  1   force =    -0.00000571   -0.00000330   -0.00557376
     atom    4 type  2   force =    -0.00000202   -0.00000117   -0.00062236
     atom    5 type  1   force =     0.00000579    0.00000334   -0.00557373
     atom    6 type  2   force =     0.00000201    0.00000116   -0.00062238
     atom    7 type  1   force =    -0.00000569   -0.00000328   -0.00557386
     atom    8 type  2   force =    -0.00000199   -0.00000115   -0.00062236
     The Hubbard contrib.    to forces
     atom    1 type  1   force =     0.00000000    0.00000000    0.00000000
     atom    2 type  2   force =     0.00000000    0.00000000    0.00000000
     atom    3 type  1   force =     0.00000000    0.00000000    0.00000000
     atom    4 type  2   force =     0.00000000    0.00000000    0.00000000
     atom    5 type  1   force =     0.00000000    0.00000000    0.00000000
     atom    6 type  2   force =     0.00000000    0.00000000    0.00000000
     atom    7 type  1   force =     0.00000000    0.00000000    0.00000000
     atom    8 type  2   force =     0.00000000    0.00000000    0.00000000
     The SCF correction term to forces
     atom    1 type  1   force =    -0.00000822   -0.00000475    0.00000283
     atom    2 type  2   force =    -0.00000240   -0.00000139    0.00000035
     atom    3 type  1   force =    -0.00000310   -0.00000179    0.00000514
     atom    4 type  2   force =    -0.00000148   -0.00000085    0.00000144
     atom    5 type  1   force =     0.00000789    0.00000456    0.00000559
     atom    6 type  2   force =     0.00000150    0.00000087    0.00000001
     atom    7 type  1   force =     0.00000198    0.00000115    0.00000196
     atom    8 type  2   force =     0.00000171    0.00000098    0.00000101

     Total force =     0.009964     Total SCF correction =     0.000017

     Writing all to output data dir ./ZnO-3.47-1.52-211.in.save/

     General routines

     Parallel routines

   This run was terminated on:  17: 4:25  12Jul2025

   JOB DONE.
Note: The following floating-point exceptions are signalling: IEEE_INVALID_FLAG
Note: The following floating-point exceptions are signalling: IEEE_INVALID_FLAG