     Program PWSCF v.7.2 starts on 12Jul2025 at 11:58:45

     Reading input from /home/jvc/QEspresso7.2/ZnO_database/scripts/cell211_strain10%.in/ZnO-2.94-1.52-211.in
Warning: card &CELL ignored
Warning: card / ignored
Warning: card &FCP ignored
Warning: card / ignored
Warning: card &RISM ignored
Warning: card / ignored

     Current dimensions of program PWSCF are:
     Max number of different atomic species (ntypx) = 10
     Max number of k-points (npk) =  40000
     Max angular momentum in pseudopotentials (lmaxx) =  4
     file Zn.upf: wavefunction(s)  3D renormalized
     Found identity + ( -0.5000  0.0000  0.0000) symmetry
     This is a supercell, fractional translations are disabled
     Message from routine setup:
     using ibrav=0 with symmetry is DISCOURAGED, use correct ibrav instead

     K-points division:     npool     =       2
     R & G space division:  proc/nbgrp/npool/nimage =       8
     Subspace diagonalization in iterative solution of the eigenvalue problem:
     a serial algorithm will be used

     Using Slab Decomposition

     bravais-lattice index     =            0
     lattice parameter (alat)  =      11.1219  a.u.
     unit-cell volume          =     452.0014 (a.u.)^3
     number of atoms/cell      =            8
     number of atomic types    =            2
     number of electrons       =        72.00
     number of Kohn-Sham states=           36
     kinetic-energy cutoff     =      50.0000  Ry
     charge density cutoff     =     400.0000  Ry
     scf convergence threshold =      1.0E-08
     mixing beta               =       0.3000
     number of iterations used =            8  plain     mixing
     Exchange-correlation= PBE
                           (   1   4   3   4   0   0   0)

     celldm(1)=  11.121937  celldm(2)=   0.000000  celldm(3)=   0.000000
     celldm(4)=   0.000000  celldm(5)=   0.000000  celldm(6)=   0.000000

     crystal axes: (cart. coord. in units of alat)
               a(1) = (   1.000000   0.000000   0.000000 )
               a(2) = (  -0.250000   0.433013   0.000000 )
               a(3) = (   0.000000   0.000000   0.758748 )

     reciprocal axes: (cart. coord. in units 2 pi/alat)
               b(1) = (  1.000000  0.577350 -0.000000 )
               b(2) = (  0.000000  2.309401  0.000000 )
               b(3) = (  0.000000 -0.000000  1.317960 )

     PseudoPot. # 1 for Zn read from file:
     /home/jvc/QEspresso7.2/ZnO_database/pseudos/Zn.upf
     MD5 check sum: 7f56cabf9682ed8c977c2f7d0c5985c5
     Pseudo is Ultrasoft + core correction, Zval = 12.0
     Generated using &quot;atomic&quot; code by A. Dal Corso  v.6.2.2
     Using radial grid of 1201 points,  6 beta functions with:
                l(1) =   0
                l(2) =   0
                l(3) =   1
                l(4) =   1
                l(5) =   2
                l(6) =   2
     Q(r) pseudized with 0 coefficients

     PseudoPot. # 2 for O  read from file:
     /home/jvc/QEspresso7.2/ZnO_database/pseudos/O.upf
     MD5 check sum: 91400c9766925bcf19f520983a725ff0
     Pseudo is Ultrasoft + core correction, Zval =  6.0
     Generated using &quot;atomic&quot; code by A. Dal Corso  v.6.3MaX
     Using radial grid of 1095 points,  4 beta functions with:
                l(1) =   0
                l(2) =   0
                l(3) =   1
                l(4) =   1
     Q(r) pseudized with 0 coefficients

     atomic species   valence    mass     pseudopotential
        Zn            12.00    65.38000     Zn( 1.00)
        O              6.00    15.99900     O ( 1.00)

      2 Sym. Ops. (no inversion) found

   Cartesian axes

     site n.     atom                  positions (alat units)
         1           Zn  tau(   1) = (   0.0000000   0.0000000   0.0000000  )
         2           O   tau(   2) = (   0.0000000   0.2886751   0.0798571  )
         3           Zn  tau(   3) = (   0.0000000   0.2886751   0.3793742  )
         4           O   tau(   4) = (   0.0000000   0.0000000   0.4592313  )
         5           Zn  tau(   5) = (   0.5000000   0.0000000   0.0000000  )
         6           O   tau(   6) = (   0.5000000   0.2886751   0.0798571  )
         7           Zn  tau(   7) = (   0.5000000   0.2886751   0.3793742  )
         8           O   tau(   8) = (   0.5000000   0.0000000   0.4592313  )

     number of k points=    80
                       cart. coord. in units 2pi/alat
        k(    1) = (   0.0000000   0.0000000   0.0000000), wk =   0.0092593
        k(    2) = (   0.0000000   0.0000000   0.2196600), wk =   0.0185185
        k(    3) = (   0.0000000   0.0000000   0.4393200), wk =   0.0185185
        k(    4) = (   0.0000000   0.0000000  -0.6589799), wk =   0.0092593
        k(    5) = (   0.0000000   0.3849002   0.0000000), wk =   0.0370370
        k(    6) = (   0.0000000   0.3849002   0.2196600), wk =   0.0370370
        k(    7) = (   0.0000000   0.3849002   0.4393200), wk =   0.0370370
        k(    8) = (   0.0000000   0.3849002  -0.6589799), wk =   0.0370370
        k(    9) = (   0.0000000   0.7698004   0.0000000), wk =   0.0370370
        k(   10) = (   0.0000000   0.7698004   0.2196600), wk =   0.0370370
        k(   11) = (   0.0000000   0.7698004   0.4393200), wk =   0.0370370
        k(   12) = (   0.0000000   0.7698004  -0.6589799), wk =   0.0370370
        k(   13) = (   0.0000000  -1.1547005   0.0000000), wk =   0.0092593
        k(   14) = (   0.0000000  -1.1547005   0.2196600), wk =   0.0185185
        k(   15) = (   0.0000000  -1.1547005   0.4393200), wk =   0.0185185
        k(   16) = (   0.0000000  -1.1547005  -0.6589799), wk =   0.0092593
        k(   17) = (   0.1666667   0.0962250   0.0000000), wk =   0.0185185
        k(   18) = (   0.1666667   0.0962250   0.2196600), wk =   0.0185185
        k(   19) = (   0.1666667   0.0962250   0.4393200), wk =   0.0185185
        k(   20) = (   0.1666667   0.0962250  -0.6589799), wk =   0.0185185
        k(   21) = (   0.1666667   0.4811252   0.0000000), wk =   0.0370370
        k(   22) = (   0.1666667   0.4811252   0.2196600), wk =   0.0370370
        k(   23) = (   0.1666667   0.4811252   0.4393200), wk =   0.0370370
        k(   24) = (   0.1666667   0.4811252  -0.6589799), wk =   0.0370370
        k(   25) = (   0.1666667   0.8660254   0.0000000), wk =   0.0185185
        k(   26) = (   0.1666667   0.8660254   0.2196600), wk =   0.0370370
        k(   27) = (   0.1666667   0.8660254   0.4393200), wk =   0.0370370
        k(   28) = (   0.1666667   0.8660254  -0.6589799), wk =   0.0185185
        k(   29) = (   0.1666667  -1.0584755   0.0000000), wk =   0.0185185
        k(   30) = (   0.1666667  -1.0584755   0.2196600), wk =   0.0185185
        k(   31) = (   0.1666667  -1.0584755   0.4393200), wk =   0.0185185
        k(   32) = (   0.1666667  -1.0584755  -0.6589799), wk =   0.0185185
        k(   33) = (   0.1666667  -0.6735753   0.0000000), wk =   0.0370370
        k(   34) = (   0.1666667  -0.6735753   0.2196600), wk =   0.0370370
        k(   35) = (   0.1666667  -0.6735753   0.4393200), wk =   0.0370370
        k(   36) = (   0.1666667  -0.6735753  -0.6589799), wk =   0.0370370
        k(   37) = (   0.1666667  -0.2886751   0.0000000), wk =   0.0185185
        k(   38) = (   0.1666667  -0.2886751   0.2196600), wk =   0.0370370
        k(   39) = (   0.1666667  -0.2886751   0.4393200), wk =   0.0370370
        k(   40) = (   0.1666667  -0.2886751  -0.6589799), wk =   0.0185185
        k(   41) = (   0.3333333   0.1924501   0.0000000), wk =   0.0185185
        k(   42) = (   0.3333333   0.1924501   0.2196600), wk =   0.0185185
        k(   43) = (   0.3333333   0.1924501   0.4393200), wk =   0.0185185
        k(   44) = (   0.3333333   0.1924501  -0.6589799), wk =   0.0185185
        k(   45) = (   0.3333333   0.5773503   0.0000000), wk =   0.0185185
        k(   46) = (   0.3333333   0.5773503   0.2196600), wk =   0.0370370
        k(   47) = (   0.3333333   0.5773503   0.4393200), wk =   0.0370370
        k(   48) = (   0.3333333   0.5773503  -0.6589799), wk =   0.0185185
        k(   49) = (   0.3333333  -0.9622504   0.0000000), wk =   0.0185185
        k(   50) = (   0.3333333  -0.9622504   0.2196600), wk =   0.0185185
        k(   51) = (   0.3333333  -0.9622504   0.4393200), wk =   0.0185185
        k(   52) = (   0.3333333  -0.9622504  -0.6589799), wk =   0.0185185
        k(   53) = (   0.3333333  -0.5773503   0.0000000), wk =   0.0185185
        k(   54) = (   0.3333333  -0.5773503   0.2196600), wk =   0.0370370
        k(   55) = (   0.3333333  -0.5773503   0.4393200), wk =   0.0370370
        k(   56) = (   0.3333333  -0.5773503  -0.6589799), wk =   0.0185185
        k(   57) = (  -0.5000000  -0.2886751   0.0000000), wk =   0.0092593
        k(   58) = (  -0.5000000  -0.2886751   0.2196600), wk =   0.0185185
        k(   59) = (  -0.5000000  -0.2886751   0.4393200), wk =   0.0185185
        k(   60) = (  -0.5000000  -0.2886751  -0.6589799), wk =   0.0092593
[...]
        k(   66) = (   0.3333333  -0.1924501  -0.4393200), wk =   0.0370370
        k(   67) = (   0.6666667  -0.3849002  -0.2196600), wk =   0.0370370
        k(   68) = (   0.6666667  -0.3849002  -0.4393200), wk =   0.0370370
        k(   69) = (   0.1666667   0.0962250  -0.2196600), wk =   0.0185185
        k(   70) = (   0.1666667   0.0962250  -0.4393200), wk =   0.0185185
        k(   71) = (   0.5000000  -0.0962250  -0.2196600), wk =   0.0370370
        k(   72) = (   0.5000000  -0.0962250  -0.4393200), wk =   0.0370370
        k(   73) = (  -0.8333333   0.6735753  -0.2196600), wk =   0.0185185
        k(   74) = (  -0.8333333   0.6735753  -0.4393200), wk =   0.0185185
        k(   75) = (  -0.5000000   0.4811252  -0.2196600), wk =   0.0370370
        k(   76) = (  -0.5000000   0.4811252  -0.4393200), wk =   0.0370370
        k(   77) = (   0.3333333   0.1924501  -0.2196600), wk =   0.0185185
        k(   78) = (   0.3333333   0.1924501  -0.4393200), wk =   0.0185185
        k(   79) = (  -0.6666667   0.7698004  -0.2196600), wk =   0.0185185
        k(   80) = (  -0.6666667   0.7698004  -0.4393200), wk =   0.0185185

     Initial potential from superposition of free atoms

     starting charge      71.9851, renormalised to      72.0000
     Starting wfcs are   52 randomized atomic wfcs

     Self-consistent Calculation

     iteration #  1     ecut=    50.00 Ry     beta= 0.30
     Davidson diagonalization with overlap
     ethr =  1.00E-02,  avg # of iterations =  2.3

     total energy              =    -722.42078864 Ry
     estimated scf accuracy    <       1.39855797 Ry

[...]

     total energy              =    -722.66834546 Ry
     estimated scf accuracy    <       0.00000011 Ry

     iteration # 19     ecut=    50.00 Ry     beta= 0.30
     Davidson diagonalization with overlap
     ethr =  1.54E-10,  avg # of iterations =  4.1

     End of self-consistent calculation

          k = 0.0000 0.0000 0.0000 (  2723 PWs)   bands (ev):

    -7.9384  -6.6359  -6.3745  -6.1516   4.7917   4.9268   4.9579   5.4813
     5.4815   5.7170   5.7171   5.9857   6.0642   6.1157   6.7427   7.0700
     7.9688   7.9688   8.1141   8.2899   8.2912   8.4996   8.4996   8.6087
     8.7604   9.1215   9.4494   9.9234  10.0189  11.9808  12.1806  12.4907
    12.4908  13.3093  13.7558  13.7560

[...]

          k =-0.5000-0.2887 0.0000 (  2710 PWs)   bands (ev):

[...]

          k = 0.3333 0.1925-0.4393 (  2698 PWs)   bands (ev):

[...]

          k =-0.6667 0.7698-0.4393 (  2698 PWs)   bands (ev):

    -6.4956  -6.4956  -6.2332  -6.2332   4.6679   4.6679   4.7502   4.7502
     5.8939   5.8939   5.9666   5.9666   6.4356   6.4356   6.5661   6.5661
     8.1376   8.1376   8.2943   8.2943   8.5532   8.5532   8.7642   8.7642
     9.1128   9.1128   9.5257   9.5257  10.1699  10.1699  11.0357  11.0357
    11.4432  11.4432  12.2885  12.2885

     highest occupied level (ev):    13.7560

!    total energy              =    -722.66834550 Ry
     estimated scf accuracy    <          2.8E-09 Ry

     The total energy is the sum of the following terms:
     one-electron contribution =    -217.91985810 Ry
     hartree contribution      =     205.87844921 Ry
     xc contribution           =    -221.04113995 Ry
     ewald contribution        =    -489.58579666 Ry

     convergence has been achieved in  19 iterations

     Forces acting on atoms (cartesian axes, Ry/au):

     atom    1 type  1   force =    -0.00002195   -0.00001267    0.02931471
     atom    2 type  2   force =    -0.00000904   -0.00000522   -0.02930038
     atom    3 type  1   force =     0.00000249    0.00000144    0.02928867
     atom    4 type  2   force =     0.00000621    0.00000359   -0.02930297
     atom    5 type  1   force =    -0.00000047   -0.00000027    0.02930518
     atom    6 type  2   force =    -0.00000457   -0.00000264   -0.02930096
     atom    7 type  1   force =     0.00002001    0.00001155    0.02930026
     atom    8 type  2   force =     0.00000732    0.00000423   -0.02930452
     The non-local contrib.  to forces
     atom    1 type  1   force =     0.00002681    0.00001548    0.11658506
     atom    2 type  2   force =    -0.00013262   -0.00007657    0.07493648
     atom    3 type  1   force =    -0.00003723   -0.00002150    0.11657211
     atom    4 type  2   force =     0.00013607    0.00007856    0.07494070
     atom    5 type  1   force =     0.00003697    0.00002134    0.11658061
     atom    6 type  2   force =    -0.00013489   -0.00007788    0.07493652
     atom    7 type  1   force =    -0.00002718   -0.00001569    0.11657722
     atom    8 type  2   force =     0.00013206    0.00007624    0.07493835
     The ionic contribution  to forces
     atom    1 type  1   force =     0.00000000    0.00000000    0.79930868
     atom    2 type  2   force =    -0.00000000   -0.00000000   -0.79930868
     atom    3 type  1   force =    -0.00000000   -0.00000000    0.79930868
     atom    4 type  2   force =     0.00000000    0.00000000   -0.79930868
     atom    5 type  1   force =     0.00000000    0.00000000    0.79930868
     atom    6 type  2   force =    -0.00000000   -0.00000000   -0.79930868
     atom    7 type  1   force =    -0.00000000   -0.00000000    0.79930868
     atom    8 type  2   force =     0.00000000    0.00000000   -0.79930868
     The local contribution  to forces
     atom    1 type  1   force =    -0.00003281   -0.00001894   -0.87493798
     atom    2 type  2   force =     0.00013640    0.00007875    0.69549627
     atom    3 type  1   force =     0.00005838    0.00003370   -0.87490871
     atom    4 type  2   force =    -0.00011721   -0.00006767    0.69551146
     atom    5 type  1   force =    -0.00005841   -0.00003372   -0.87492876
     atom    6 type  2   force =     0.00011639    0.00006720    0.69550134
     atom    7 type  1   force =     0.00003369    0.00001945   -0.87492048
     atom    8 type  2   force =    -0.00013626   -0.00007867    0.69550929
     The core correction contribution to forces
     atom    1 type  1   force =     0.00000392    0.00000226   -0.01165318
     atom    2 type  2   force =     0.00000148    0.00000085   -0.00042612
     atom    3 type  1   force =    -0.00000369   -0.00000213   -0.01165286
     atom    4 type  2   force =    -0.00000148   -0.00000085   -0.00042613
     atom    5 type  1   force =     0.00000368    0.00000212   -0.01165300
     atom    6 type  2   force =     0.00000146    0.00000084   -0.00042610
     atom    7 type  1   force =    -0.00000385   -0.00000222   -0.01165301
     atom    8 type  2   force =    -0.00000147   -0.00000085   -0.00042611
     The Hubbard contrib.    to forces
     atom    1 type  1   force =     0.00000000    0.00000000    0.00000000
     atom    2 type  2   force =     0.00000000    0.00000000    0.00000000
     atom    3 type  1   force =     0.00000000    0.00000000    0.00000000
     atom    4 type  2   force =     0.00000000    0.00000000    0.00000000
     atom    5 type  1   force =     0.00000000    0.00000000    0.00000000
     atom    6 type  2   force =     0.00000000    0.00000000    0.00000000
     atom    7 type  1   force =     0.00000000    0.00000000    0.00000000
     atom    8 type  2   force =     0.00000000    0.00000000    0.00000000
     The SCF correction term to forces
     atom    1 type  1   force =    -0.00001976   -0.00001141    0.00001825
     atom    2 type  2   force =    -0.00001418   -0.00000819    0.00000779
     atom    3 type  1   force =    -0.00001485   -0.00000857   -0.00002445
     atom    4 type  2   force =    -0.00001106   -0.00000638   -0.00001420
     atom    5 type  1   force =     0.00001741    0.00001005    0.00000377
     atom    6 type  2   force =     0.00001259    0.00000727    0.00000209
     atom    7 type  1   force =     0.00001746    0.00001008   -0.00000604
     atom    8 type  2   force =     0.00001311    0.00000757   -0.00001125

     Total force =     0.082879     Total SCF correction =     0.000062

     Writing all to output data dir ./ZnO-2.94-1.52-211.in.save/

     General routines

     Parallel routines

   This run was terminated on:  12: 0:24  12Jul2025

   JOB DONE.
Note: The following floating-point exceptions are signalling: IEEE_INVALID_FLAG
Note: The following floating-point exceptions are signalling: IEEE_INVALID_FLAG