     Program PWSCF v.7.2 starts on 12Jul2025 at 13:59: 6

     Reading input from /home/jvc/QEspresso7.2/ZnO_database/scripts/cell211_strain10%.in/ZnO-3.20-1.52-211.in
Warning: card &CELL ignored
Warning: card / ignored
Warning: card &FCP ignored
Warning: card / ignored
Warning: card &RISM ignored
Warning: card / ignored

     Current dimensions of program PWSCF are:
     Max number of different atomic species (ntypx) = 10
     Max number of k-points (npk) =  40000
     Max angular momentum in pseudopotentials (lmaxx) =  4
     file Zn.upf: wavefunction(s)  3D renormalized
     Found identity + ( -0.5000  0.0000  0.0000) symmetry
     This is a supercell, fractional translations are disabled
     Message from routine setup:
     using ibrav=0 with symmetry is DISCOURAGED, use correct ibrav instead

     K-points division:     npool     =       2
     R & G space division:  proc/nbgrp/npool/nimage =       8
     Subspace diagonalization in iterative solution of the eigenvalue problem:
     a serial algorithm will be used

     Using Slab Decomposition

     bravais-lattice index     =            0
     lattice parameter (alat)  =      12.1106  a.u.
     unit-cell volume          =     583.5666 (a.u.)^3
     number of atoms/cell      =            8
     number of atomic types    =            2
     number of electrons       =        72.00
     number of Kohn-Sham states=           36
     kinetic-energy cutoff     =      50.0000  Ry
     charge density cutoff     =     400.0000  Ry
     scf convergence threshold =      1.0E-08
     mixing beta               =       0.3000
     number of iterations used =            8  plain     mixing
     Exchange-correlation= PBE
                           (   1   4   3   4   0   0   0)

     celldm(1)=  12.110554  celldm(2)=   0.000000  celldm(3)=   0.000000
     celldm(4)=   0.000000  celldm(5)=   0.000000  celldm(6)=   0.000000

     crystal axes: (cart. coord. in units of alat)
               a(1) = (   1.000000   0.000000   0.000000 )
               a(2) = (  -0.250000   0.433013   0.000000 )
               a(3) = (   0.000000   0.000000   0.758748 )

     reciprocal axes: (cart. coord. in units 2 pi/alat)
               b(1) = (  1.000000  0.577350 -0.000000 )
               b(2) = (  0.000000  2.309401  0.000000 )
               b(3) = (  0.000000 -0.000000  1.317960 )

     PseudoPot. # 1 for Zn read from file:
     /home/jvc/QEspresso7.2/ZnO_database/pseudos/Zn.upf
     MD5 check sum: 7f56cabf9682ed8c977c2f7d0c5985c5
     Pseudo is Ultrasoft + core correction, Zval = 12.0
     Generated using &quot;atomic&quot; code by A. Dal Corso  v.6.2.2
     Using radial grid of 1201 points,  6 beta functions with:
                l(1) =   0
                l(2) =   0
                l(3) =   1
                l(4) =   1
                l(5) =   2
                l(6) =   2
     Q(r) pseudized with 0 coefficients

     PseudoPot. # 2 for O  read from file:
     /home/jvc/QEspresso7.2/ZnO_database/pseudos/O.upf
     MD5 check sum: 91400c9766925bcf19f520983a725ff0
     Pseudo is Ultrasoft + core correction, Zval =  6.0
     Generated using &quot;atomic&quot; code by A. Dal Corso  v.6.3MaX
     Using radial grid of 1095 points,  4 beta functions with:
                l(1) =   0
                l(2) =   0
                l(3) =   1
                l(4) =   1
     Q(r) pseudized with 0 coefficients

     atomic species   valence    mass     pseudopotential
        Zn            12.00    65.38000     Zn( 1.00)
        O              6.00    15.99900     O ( 1.00)

      2 Sym. Ops. (no inversion) found

   Cartesian axes

     site n.     atom                  positions (alat units)
         1           Zn  tau(   1) = (   0.0000000   0.0000000   0.0000000  )
         2           O   tau(   2) = (   0.0000000   0.2886751   0.0798571  )
         3           Zn  tau(   3) = (   0.0000000   0.2886751   0.3793742  )
         4           O   tau(   4) = (   0.0000000   0.0000000   0.4592313  )
         5           Zn  tau(   5) = (   0.5000000   0.0000000   0.0000000  )
         6           O   tau(   6) = (   0.5000000   0.2886751   0.0798571  )
         7           Zn  tau(   7) = (   0.5000000   0.2886751   0.3793742  )
         8           O   tau(   8) = (   0.5000000   0.0000000   0.4592313  )

     number of k points=    80
                       cart. coord. in units 2pi/alat
        k(    1) = (   0.0000000   0.0000000   0.0000000), wk =   0.0092593
        k(    2) = (   0.0000000   0.0000000   0.2196600), wk =   0.0185185
        k(    3) = (   0.0000000   0.0000000   0.4393200), wk =   0.0185185
        k(    4) = (   0.0000000   0.0000000  -0.6589799), wk =   0.0092593
        k(    5) = (   0.0000000   0.3849002   0.0000000), wk =   0.0370370
        k(    6) = (   0.0000000   0.3849002   0.2196600), wk =   0.0370370
        k(    7) = (   0.0000000   0.3849002   0.4393200), wk =   0.0370370
        k(    8) = (   0.0000000   0.3849002  -0.6589799), wk =   0.0370370
        k(    9) = (   0.0000000   0.7698004   0.0000000), wk =   0.0370370
        k(   10) = (   0.0000000   0.7698004   0.2196600), wk =   0.0370370
        k(   11) = (   0.0000000   0.7698004   0.4393200), wk =   0.0370370
        k(   12) = (   0.0000000   0.7698004  -0.6589799), wk =   0.0370370
        k(   13) = (   0.0000000  -1.1547005   0.0000000), wk =   0.0092593
        k(   14) = (   0.0000000  -1.1547005   0.2196600), wk =   0.0185185
        k(   15) = (   0.0000000  -1.1547005   0.4393200), wk =   0.0185185
        k(   16) = (   0.0000000  -1.1547005  -0.6589799), wk =   0.0092593
        k(   17) = (   0.1666667   0.0962250   0.0000000), wk =   0.0185185
        k(   18) = (   0.1666667   0.0962250   0.2196600), wk =   0.0185185
        k(   19) = (   0.1666667   0.0962250   0.4393200), wk =   0.0185185
        k(   20) = (   0.1666667   0.0962250  -0.6589799), wk =   0.0185185
        k(   21) = (   0.1666667   0.4811252   0.0000000), wk =   0.0370370
        k(   22) = (   0.1666667   0.4811252   0.2196600), wk =   0.0370370
        k(   23) = (   0.1666667   0.4811252   0.4393200), wk =   0.0370370
        k(   24) = (   0.1666667   0.4811252  -0.6589799), wk =   0.0370370
        k(   25) = (   0.1666667   0.8660254   0.0000000), wk =   0.0185185
        k(   26) = (   0.1666667   0.8660254   0.2196600), wk =   0.0370370
        k(   27) = (   0.1666667   0.8660254   0.4393200), wk =   0.0370370
        k(   28) = (   0.1666667   0.8660254  -0.6589799), wk =   0.0185185
        k(   29) = (   0.1666667  -1.0584755   0.0000000), wk =   0.0185185
        k(   30) = (   0.1666667  -1.0584755   0.2196600), wk =   0.0185185
        k(   31) = (   0.1666667  -1.0584755   0.4393200), wk =   0.0185185
        k(   32) = (   0.1666667  -1.0584755  -0.6589799), wk =   0.0185185
        k(   33) = (   0.1666667  -0.6735753   0.0000000), wk =   0.0370370
        k(   34) = (   0.1666667  -0.6735753   0.2196600), wk =   0.0370370
        k(   35) = (   0.1666667  -0.6735753   0.4393200), wk =   0.0370370
        k(   36) = (   0.1666667  -0.6735753  -0.6589799), wk =   0.0370370
        k(   37) = (   0.1666667  -0.2886751   0.0000000), wk =   0.0185185
        k(   38) = (   0.1666667  -0.2886751   0.2196600), wk =   0.0370370
        k(   39) = (   0.1666667  -0.2886751   0.4393200), wk =   0.0370370
        k(   40) = (   0.1666667  -0.2886751  -0.6589799), wk =   0.0185185
        k(   41) = (   0.3333333   0.1924501   0.0000000), wk =   0.0185185
        k(   42) = (   0.3333333   0.1924501   0.2196600), wk =   0.0185185
        k(   43) = (   0.3333333   0.1924501   0.4393200), wk =   0.0185185
        k(   44) = (   0.3333333   0.1924501  -0.6589799), wk =   0.0185185
        k(   45) = (   0.3333333   0.5773503   0.0000000), wk =   0.0185185
        k(   46) = (   0.3333333   0.5773503   0.2196600), wk =   0.0370370
        k(   47) = (   0.3333333   0.5773503   0.4393200), wk =   0.0370370
        k(   48) = (   0.3333333   0.5773503  -0.6589799), wk =   0.0185185
        k(   49) = (   0.3333333  -0.9622504   0.0000000), wk =   0.0185185
        k(   50) = (   0.3333333  -0.9622504   0.2196600), wk =   0.0185185
        k(   51) = (   0.3333333  -0.9622504   0.4393200), wk =   0.0185185
        k(   52) = (   0.3333333  -0.9622504  -0.6589799), wk =   0.0185185
        k(   53) = (   0.3333333  -0.5773503   0.0000000), wk =   0.0185185
        k(   54) = (   0.3333333  -0.5773503   0.2196600), wk =   0.0370370
        k(   55) = (   0.3333333  -0.5773503   0.4393200), wk =   0.0370370
        k(   56) = (   0.3333333  -0.5773503  -0.6589799), wk =   0.0185185
        k(   57) = (  -0.5000000  -0.2886751   0.0000000), wk =   0.0092593
        k(   58) = (  -0.5000000  -0.2886751   0.2196600), wk =   0.0185185
        k(   59) = (  -0.5000000  -0.2886751   0.4393200), wk =   0.0185185
        k(   60) = (  -0.5000000  -0.2886751  -0.6589799), wk =   0.0092593
[...]
        k(   66) = (   0.3333333  -0.1924501  -0.4393200), wk =   0.0370370
        k(   67) = (   0.6666667  -0.3849002  -0.2196600), wk =   0.0370370
        k(   68) = (   0.6666667  -0.3849002  -0.4393200), wk =   0.0370370
        k(   69) = (   0.1666667   0.0962250  -0.2196600), wk =   0.0185185
        k(   70) = (   0.1666667   0.0962250  -0.4393200), wk =   0.0185185
        k(   71) = (   0.5000000  -0.0962250  -0.2196600), wk =   0.0370370
        k(   72) = (   0.5000000  -0.0962250  -0.4393200), wk =   0.0370370
        k(   73) = (  -0.8333333   0.6735753  -0.2196600), wk =   0.0185185
        k(   74) = (  -0.8333333   0.6735753  -0.4393200), wk =   0.0185185
        k(   75) = (  -0.5000000   0.4811252  -0.2196600), wk =   0.0370370
        k(   76) = (  -0.5000000   0.4811252  -0.4393200), wk =   0.0370370
        k(   77) = (   0.3333333   0.1924501  -0.2196600), wk =   0.0185185
        k(   78) = (   0.3333333   0.1924501  -0.4393200), wk =   0.0185185
        k(   79) = (  -0.6666667   0.7698004  -0.2196600), wk =   0.0185185
        k(   80) = (  -0.6666667   0.7698004  -0.4393200), wk =   0.0185185

     Check: negative core charge=   -0.000002

     Initial potential from superposition of free atoms

     starting charge      71.9851, renormalised to      72.0000
     Starting wfcs are   52 randomized atomic wfcs

     Self-consistent Calculation

     iteration #  1     ecut=    50.00 Ry     beta= 0.30
     Davidson diagonalization with overlap
     ethr =  1.00E-02,  avg # of iterations =  2.0

     total energy              =    -722.92288153 Ry
     estimated scf accuracy    <       1.34859134 Ry

[...]

     total energy              =    -723.21382624 Ry
     estimated scf accuracy    <       0.00000004 Ry

     iteration # 25     ecut=    50.00 Ry     beta= 0.30
     Davidson diagonalization with overlap
     ethr =  5.69E-11,  avg # of iterations =  3.8

     End of self-consistent calculation

          k = 0.0000 0.0000 0.0000 (  3479 PWs)   bands (ev):

   -10.1022  -9.2901  -9.1179  -8.9839   2.2954   2.3552   2.5658   2.5660
     2.6010   2.7369   2.7370   2.8782   2.9576   3.1910   3.4745   3.6262
     4.0599   4.0599   4.1561   4.2488   4.3683   4.3684   4.4292   4.4537
     4.7264   4.7740   5.0630   5.7677   6.0647   7.4560   7.7007   7.8526
     7.8528   8.6024   8.7718   8.7720

[...]

          k =-0.5000-0.2887 0.0000 (  3492 PWs)   bands (ev):

[...]

          k = 0.3333 0.1925-0.4393 (  3486 PWs)   bands (ev):

[...]

          k =-0.6667 0.7698-0.4393 (  3484 PWs)   bands (ev):

    -9.2053  -9.2053  -9.0426  -9.0426   2.1702   2.1702   2.2363   2.2363
     2.9246   2.9246   3.0183   3.0183   3.2369   3.2369   3.3208   3.3208
     4.1873   4.1873   4.2536   4.2536   4.4165   4.4165   4.5650   4.5650
     4.9549   4.9549   5.2691   5.2691   6.0067   6.0067   6.7963   6.7963
     7.0683   7.0683   7.7743   7.7743

     highest occupied level (ev):     8.7720

!    total energy              =    -723.21382626 Ry
     estimated scf accuracy    <          1.4E-09 Ry

     The total energy is the sum of the following terms:
     one-electron contribution =    -280.67000047 Ry
     hartree contribution      =     226.70011364 Ry
     xc contribution           =    -219.62433026 Ry
     ewald contribution        =    -449.61960918 Ry

     convergence has been achieved in  25 iterations

     Forces acting on atoms (cartesian axes, Ry/au):

     atom    1 type  1   force =    -0.00000382   -0.00000220    0.00782314
     atom    2 type  2   force =    -0.00000603   -0.00000348   -0.00782302
     atom    3 type  1   force =     0.00000129    0.00000074    0.00782421
     atom    4 type  2   force =     0.00000484    0.00000280   -0.00782240
     atom    5 type  1   force =    -0.00000291   -0.00000168    0.00781883
     atom    6 type  2   force =    -0.00000467   -0.00000270   -0.00782395
     atom    7 type  1   force =     0.00000534    0.00000308    0.00782487
     atom    8 type  2   force =     0.00000596    0.00000344   -0.00782167
     The non-local contrib.  to forces
     atom    1 type  1   force =     0.00002425    0.00001400    0.10288940
     atom    2 type  2   force =    -0.00016117   -0.00009305    0.07368407
     atom    3 type  1   force =    -0.00002510   -0.00001449    0.10288919
     atom    4 type  2   force =     0.00015906    0.00009183    0.07368417
     atom    5 type  1   force =     0.00002568    0.00001483    0.10288976
     atom    6 type  2   force =    -0.00016023   -0.00009251    0.07368418
     atom    7 type  1   force =    -0.00002448   -0.00001413    0.10288818
     atom    8 type  2   force =     0.00015938    0.00009202    0.07368400
     The ionic contribution  to forces
     atom    1 type  1   force =     0.00000000    0.00000000    0.67413581
     atom    2 type  2   force =    -0.00000000   -0.00000000   -0.67413581
     atom    3 type  1   force =    -0.00000000   -0.00000000    0.67413581
     atom    4 type  2   force =     0.00000000    0.00000000   -0.67413581
     atom    5 type  1   force =     0.00000000    0.00000000    0.67413581
     atom    6 type  2   force =    -0.00000000   -0.00000000   -0.67413581
     atom    7 type  1   force =    -0.00000000   -0.00000000    0.67413581
     atom    8 type  2   force =     0.00000000    0.00000000   -0.67413581
     The local contribution  to forces
     atom    1 type  1   force =    -0.00003286   -0.00001897   -0.76133052
     atom    2 type  2   force =     0.00015340    0.00008856    0.59315997
     atom    3 type  1   force =     0.00003567    0.00002059   -0.76133283
     atom    4 type  2   force =    -0.00015094   -0.00008715    0.59316246
     atom    5 type  1   force =    -0.00003537   -0.00002042   -0.76133074
     atom    6 type  2   force =     0.00015201    0.00008776    0.59315809
     atom    7 type  1   force =     0.00003194    0.00001844   -0.76133070
     atom    8 type  2   force =    -0.00015011   -0.00008666    0.59316166
     The core correction contribution to forces
     atom    1 type  1   force =     0.00000462    0.00000267   -0.00787040
     atom    2 type  2   force =     0.00000183    0.00000106   -0.00052634
     atom    3 type  1   force =    -0.00000471   -0.00000272   -0.00787017
     atom    4 type  2   force =    -0.00000180   -0.00000104   -0.00052634
     atom    5 type  1   force =     0.00000471    0.00000272   -0.00787026
     atom    6 type  2   force =     0.00000182    0.00000105   -0.00052635
     atom    7 type  1   force =    -0.00000461   -0.00000266   -0.00787024
     atom    8 type  2   force =    -0.00000180   -0.00000104   -0.00052634
     The Hubbard contrib.    to forces
     atom    1 type  1   force =     0.00000000    0.00000000    0.00000000
     atom    2 type  2   force =     0.00000000    0.00000000    0.00000000
     atom    3 type  1   force =     0.00000000    0.00000000    0.00000000
     atom    4 type  2   force =     0.00000000    0.00000000    0.00000000
     atom    5 type  1   force =     0.00000000    0.00000000    0.00000000
     atom    6 type  2   force =     0.00000000    0.00000000    0.00000000
     atom    7 type  1   force =     0.00000000    0.00000000    0.00000000
     atom    8 type  2   force =     0.00000000    0.00000000    0.00000000
     The SCF correction term to forces
     atom    1 type  1   force =     0.00000004    0.00000002    0.00000229
     atom    2 type  2   force =    -0.00000021   -0.00000012   -0.00000147
     atom    3 type  1   force =    -0.00000469   -0.00000271    0.00000565
     atom    4 type  2   force =    -0.00000160   -0.00000092   -0.00000345
     atom    5 type  1   force =     0.00000195    0.00000112   -0.00000230
     atom    6 type  2   force =     0.00000161    0.00000093   -0.00000062
     atom    7 type  1   force =     0.00000237    0.00000137    0.00000525
     atom    8 type  2   force =    -0.00000164   -0.00000095   -0.00000174

     Total force =     0.022126     Total SCF correction =     0.000012

     Writing all to output data dir ./ZnO-3.20-1.52-211.in.save/

     General routines

     Parallel routines

   This run was terminated on:  14: 1:42  12Jul2025

   JOB DONE.
Note: The following floating-point exceptions are signalling: IEEE_INVALID_FLAG
Note: The following floating-point exceptions are signalling: IEEE_INVALID_FLAG