     Program PWSCF v.7.2 starts on 12Jul2025 at 16: 6:38

     Reading input from /home/jvc/QEspresso7.2/ZnO_database/scripts/cell211_strain10%.in/ZnO-3.40-1.49-211.in
Warning: card &CELL ignored
Warning: card / ignored
Warning: card &FCP ignored
Warning: card / ignored
Warning: card &RISM ignored
Warning: card / ignored

     Current dimensions of program PWSCF are:
     Max number of different atomic species (ntypx) = 10
     Max number of k-points (npk) =  40000
     Max angular momentum in pseudopotentials (lmaxx) =  4
     file Zn.upf: wavefunction(s)  3D renormalized
     Found identity + ( -0.5000  0.0000  0.0000) symmetry
     This is a supercell, fractional translations are disabled
     Message from routine setup:
     using ibrav=0 with symmetry is DISCOURAGED, use correct ibrav instead

     K-points division:     npool     =       2
     R & G space division:  proc/nbgrp/npool/nimage =       8
     Subspace diagonalization in iterative solution of the eigenvalue problem:
     a serial algorithm will be used

     Using Slab Decomposition

     bravais-lattice index     =            0
     lattice parameter (alat)  =      12.8520  a.u.
     unit-cell volume          =     682.6093 (a.u.)^3
     number of atoms/cell      =            8
     number of atomic types    =            2
     number of electrons       =        72.00
     number of Kohn-Sham states=           36
     kinetic-energy cutoff     =      50.0000  Ry
     charge density cutoff     =     400.0000  Ry
     scf convergence threshold =      1.0E-08
     mixing beta               =       0.3000
     number of iterations used =            8  plain     mixing
     Exchange-correlation= PBE
                           (   1   4   3   4   0   0   0)

     celldm(1)=  12.852016  celldm(2)=   0.000000  celldm(3)=   0.000000
     celldm(4)=   0.000000  celldm(5)=   0.000000  celldm(6)=   0.000000

     crystal axes: (cart. coord. in units of alat)
               a(1) = (   1.000000   0.000000   0.000000 )
               a(2) = (  -0.250000   0.433013   0.000000 )
               a(3) = (   0.000000   0.000000   0.742605 )

     reciprocal axes: (cart. coord. in units 2 pi/alat)
               b(1) = (  1.000000  0.577350 -0.000000 )
               b(2) = (  0.000000  2.309401  0.000000 )
               b(3) = (  0.000000 -0.000000  1.346611 )

     PseudoPot. # 1 for Zn read from file:
     /home/jvc/QEspresso7.2/ZnO_database/pseudos/Zn.upf
     MD5 check sum: 7f56cabf9682ed8c977c2f7d0c5985c5
     Pseudo is Ultrasoft + core correction, Zval = 12.0
     Generated using &quot;atomic&quot; code by A. Dal Corso  v.6.2.2
     Using radial grid of 1201 points,  6 beta functions with:
                l(1) =   0
                l(2) =   0
                l(3) =   1
                l(4) =   1
                l(5) =   2
                l(6) =   2
     Q(r) pseudized with 0 coefficients

     PseudoPot. # 2 for O  read from file:
     /home/jvc/QEspresso7.2/ZnO_database/pseudos/O.upf
     MD5 check sum: 91400c9766925bcf19f520983a725ff0
     Pseudo is Ultrasoft + core correction, Zval =  6.0
     Generated using &quot;atomic&quot; code by A. Dal Corso  v.6.3MaX
     Using radial grid of 1095 points,  4 beta functions with:
                l(1) =   0
                l(2) =   0
                l(3) =   1
                l(4) =   1
     Q(r) pseudized with 0 coefficients

     atomic species   valence    mass     pseudopotential
        Zn            12.00    65.38000     Zn( 1.00)
        O              6.00    15.99900     O ( 1.00)

      2 Sym. Ops. (no inversion) found

   Cartesian axes

     site n.     atom                  positions (alat units)
         1           Zn  tau(   1) = (   0.0000000   0.0000000   0.0000000  )
         2           O   tau(   2) = (   0.0000000   0.2886751   0.0734336  )
         3           Zn  tau(   3) = (   0.0000000   0.2886751   0.3713024  )
         4           O   tau(   4) = (   0.0000000   0.0000000   0.4447360  )
         5           Zn  tau(   5) = (   0.5000000   0.0000000   0.0000000  )
         6           O   tau(   6) = (   0.5000000   0.2886751   0.0734336  )
         7           Zn  tau(   7) = (   0.5000000   0.2886751   0.3713024  )
         8           O   tau(   8) = (   0.5000000   0.0000000   0.4447360  )

     number of k points=    80
                       cart. coord. in units 2pi/alat
        k(    1) = (   0.0000000   0.0000000   0.0000000), wk =   0.0092593
        k(    2) = (   0.0000000   0.0000000   0.2244352), wk =   0.0185185
        k(    3) = (   0.0000000   0.0000000   0.4488704), wk =   0.0185185
        k(    4) = (   0.0000000   0.0000000  -0.6733056), wk =   0.0092593
        k(    5) = (   0.0000000   0.3849002   0.0000000), wk =   0.0370370
        k(    6) = (   0.0000000   0.3849002   0.2244352), wk =   0.0370370
        k(    7) = (   0.0000000   0.3849002   0.4488704), wk =   0.0370370
        k(    8) = (   0.0000000   0.3849002  -0.6733056), wk =   0.0370370
        k(    9) = (   0.0000000   0.7698004   0.0000000), wk =   0.0370370
        k(   10) = (   0.0000000   0.7698004   0.2244352), wk =   0.0370370
        k(   11) = (   0.0000000   0.7698004   0.4488704), wk =   0.0370370
        k(   12) = (   0.0000000   0.7698004  -0.6733056), wk =   0.0370370
        k(   13) = (   0.0000000  -1.1547005   0.0000000), wk =   0.0092593
        k(   14) = (   0.0000000  -1.1547005   0.2244352), wk =   0.0185185
        k(   15) = (   0.0000000  -1.1547005   0.4488704), wk =   0.0185185
        k(   16) = (   0.0000000  -1.1547005  -0.6733056), wk =   0.0092593
        k(   17) = (   0.1666667   0.0962250   0.0000000), wk =   0.0185185
        k(   18) = (   0.1666667   0.0962250   0.2244352), wk =   0.0185185
        k(   19) = (   0.1666667   0.0962250   0.4488704), wk =   0.0185185
        k(   20) = (   0.1666667   0.0962250  -0.6733056), wk =   0.0185185
        k(   21) = (   0.1666667   0.4811252   0.0000000), wk =   0.0370370
        k(   22) = (   0.1666667   0.4811252   0.2244352), wk =   0.0370370
        k(   23) = (   0.1666667   0.4811252   0.4488704), wk =   0.0370370
        k(   24) = (   0.1666667   0.4811252  -0.6733056), wk =   0.0370370
        k(   25) = (   0.1666667   0.8660254   0.0000000), wk =   0.0185185
        k(   26) = (   0.1666667   0.8660254   0.2244352), wk =   0.0370370
        k(   27) = (   0.1666667   0.8660254   0.4488704), wk =   0.0370370
        k(   28) = (   0.1666667   0.8660254  -0.6733056), wk =   0.0185185
        k(   29) = (   0.1666667  -1.0584755   0.0000000), wk =   0.0185185
        k(   30) = (   0.1666667  -1.0584755   0.2244352), wk =   0.0185185
        k(   31) = (   0.1666667  -1.0584755   0.4488704), wk =   0.0185185
        k(   32) = (   0.1666667  -1.0584755  -0.6733056), wk =   0.0185185
        k(   33) = (   0.1666667  -0.6735753   0.0000000), wk =   0.0370370
        k(   34) = (   0.1666667  -0.6735753   0.2244352), wk =   0.0370370
        k(   35) = (   0.1666667  -0.6735753   0.4488704), wk =   0.0370370
        k(   36) = (   0.1666667  -0.6735753  -0.6733056), wk =   0.0370370
        k(   37) = (   0.1666667  -0.2886751   0.0000000), wk =   0.0185185
        k(   38) = (   0.1666667  -0.2886751   0.2244352), wk =   0.0370370
        k(   39) = (   0.1666667  -0.2886751   0.4488704), wk =   0.0370370
        k(   40) = (   0.1666667  -0.2886751  -0.6733056), wk =   0.0185185
        k(   41) = (   0.3333333   0.1924501   0.0000000), wk =   0.0185185
        k(   42) = (   0.3333333   0.1924501   0.2244352), wk =   0.0185185
        k(   43) = (   0.3333333   0.1924501   0.4488704), wk =   0.0185185
        k(   44) = (   0.3333333   0.1924501  -0.6733056), wk =   0.0185185
        k(   45) = (   0.3333333   0.5773503   0.0000000), wk =   0.0185185
        k(   46) = (   0.3333333   0.5773503   0.2244352), wk =   0.0370370
        k(   47) = (   0.3333333   0.5773503   0.4488704), wk =   0.0370370
        k(   48) = (   0.3333333   0.5773503  -0.6733056), wk =   0.0185185
        k(   49) = (   0.3333333  -0.9622504   0.0000000), wk =   0.0185185
        k(   50) = (   0.3333333  -0.9622504   0.2244352), wk =   0.0185185
        k(   51) = (   0.3333333  -0.9622504   0.4488704), wk =   0.0185185
        k(   52) = (   0.3333333  -0.9622504  -0.6733056), wk =   0.0185185
        k(   53) = (   0.3333333  -0.5773503   0.0000000), wk =   0.0185185
        k(   54) = (   0.3333333  -0.5773503   0.2244352), wk =   0.0370370
        k(   55) = (   0.3333333  -0.5773503   0.4488704), wk =   0.0370370
        k(   56) = (   0.3333333  -0.5773503  -0.6733056), wk =   0.0185185
        k(   57) = (  -0.5000000  -0.2886751   0.0000000), wk =   0.0092593
        k(   58) = (  -0.5000000  -0.2886751   0.2244352), wk =   0.0185185
        k(   59) = (  -0.5000000  -0.2886751   0.4488704), wk =   0.0185185
        k(   60) = (  -0.5000000  -0.2886751  -0.6733056), wk =   0.0092593
[...]
        k(   66) = (   0.3333333  -0.1924501  -0.4488704), wk =   0.0370370
        k(   67) = (   0.6666667  -0.3849002  -0.2244352), wk =   0.0370370
        k(   68) = (   0.6666667  -0.3849002  -0.4488704), wk =   0.0370370
        k(   69) = (   0.1666667   0.0962250  -0.2244352), wk =   0.0185185
        k(   70) = (   0.1666667   0.0962250  -0.4488704), wk =   0.0185185
        k(   71) = (   0.5000000  -0.0962250  -0.2244352), wk =   0.0370370
        k(   72) = (   0.5000000  -0.0962250  -0.4488704), wk =   0.0370370
        k(   73) = (  -0.8333333   0.6735753  -0.2244352), wk =   0.0185185
        k(   74) = (  -0.8333333   0.6735753  -0.4488704), wk =   0.0185185
        k(   75) = (  -0.5000000   0.4811252  -0.2244352), wk =   0.0370370
        k(   76) = (  -0.5000000   0.4811252  -0.4488704), wk =   0.0370370
        k(   77) = (   0.3333333   0.1924501  -0.2244352), wk =   0.0185185
        k(   78) = (   0.3333333   0.1924501  -0.4488704), wk =   0.0185185
        k(   79) = (  -0.6666667   0.7698004  -0.2244352), wk =   0.0185185
        k(   80) = (  -0.6666667   0.7698004  -0.4488704), wk =   0.0185185

     Check: negative core charge=   -0.000002

     Initial potential from superposition of free atoms

     starting charge      71.9851, renormalised to      72.0000
     Starting wfcs are   52 randomized atomic wfcs

     Self-consistent Calculation

     iteration #  1     ecut=    50.00 Ry     beta= 0.30
     Davidson diagonalization with overlap
     ethr =  1.00E-02,  avg # of iterations =  1.9

     total energy              =    -722.92902201 Ry
     estimated scf accuracy    <       1.42358156 Ry

[...]

     iteration # 17     ecut=    50.00 Ry     beta= 0.30
     Davidson diagonalization with overlap
     c_bands:  1 eigenvalues not converged
     c_bands:  1 eigenvalues not converged
     ethr =  1.04E-08,  avg # of iterations = 14.3

[...]

     total energy              =    -723.26176936 Ry
     estimated scf accuracy    <       0.00000028 Ry

     iteration # 28     ecut=    50.00 Ry     beta= 0.30
     Davidson diagonalization with overlap
     ethr =  1.47E-10,  avg # of iterations =  4.2

     End of self-consistent calculation

          k = 0.0000 0.0000 0.0000 (  4031 PWs)   bands (ev):

   -11.2046 -10.6239 -10.4620 -10.3910   0.8599   0.9547   0.9549   1.0640
     1.0763   1.0764   1.2337   1.2657   1.5097   1.5284   1.6413   1.7642
     1.9440   1.9440   2.0415   2.0721   2.1705   2.1706   2.2148   2.2461
     2.4540   2.8461   2.9323   3.8480   4.1335   5.2955   5.4839   5.5736
     5.5739   6.2638   6.3279   6.3282

[...]

          k =-0.5000-0.2887 0.0000 (  4070 PWs)   bands (ev):

[...]

          k = 0.3333 0.1925-0.4489 (  4076 PWs)   bands (ev):

[...]

          k =-0.6667 0.7698-0.4489 (  4074 PWs)   bands (ev):

   -10.5591 -10.5590 -10.4367 -10.4366   0.8002   0.8002   0.8803   0.8803
     1.2782   1.2782   1.3667   1.3667   1.4676   1.4676   1.5352   1.5352
     2.0583   2.0583   2.0850   2.0850   2.2132   2.2132   2.3148   2.3148
     2.8651   2.8652   3.1068   3.1068   4.0113   4.0113   4.7499   4.7499
     5.0219   5.0220   5.6559   5.6559

     highest occupied level (ev):     6.3282

!    total energy              =    -723.26176940 Ry
     estimated scf accuracy    <          3.4E-09 Ry

     The total energy is the sum of the following terms:
     one-electron contribution =    -316.97778164 Ry
     hartree contribution      =     239.42789306 Ry
     xc contribution           =    -218.93930346 Ry
     ewald contribution        =    -426.77257735 Ry

     convergence has been achieved in  28 iterations

     Forces acting on atoms (cartesian axes, Ry/au):

     atom    1 type  1   force =    -0.00000233   -0.00000134   -0.00084143
     atom    2 type  2   force =    -0.00000516   -0.00000298    0.00083552
     atom    3 type  1   force =    -0.00001539   -0.00000889   -0.00083045
     atom    4 type  2   force =     0.00000579    0.00000334    0.00083663
     atom    5 type  1   force =     0.00001037    0.00000599   -0.00082690
     atom    6 type  2   force =    -0.00000792   -0.00000457    0.00083532
     atom    7 type  1   force =     0.00000814    0.00000470   -0.00084277
     atom    8 type  2   force =     0.00000650    0.00000375    0.00083409
     The non-local contrib.  to forces
     atom    1 type  1   force =     0.00000646    0.00000373    0.12279150
     atom    2 type  2   force =    -0.00016226   -0.00009368    0.09892758
     atom    3 type  1   force =    -0.00002427   -0.00001401    0.12279377
     atom    4 type  2   force =     0.00016752    0.00009672    0.09892935
     atom    5 type  1   force =     0.00001765    0.00001019    0.12279961
     atom    6 type  2   force =    -0.00017732   -0.00010238    0.09893006
     atom    7 type  1   force =     0.00000189    0.00000109    0.12278692
     atom    8 type  2   force =     0.00017177    0.00009917    0.09892521
     The ionic contribution  to forces
     atom    1 type  1   force =     0.00000000    0.00000000    0.79363320
     atom    2 type  2   force =    -0.00000000   -0.00000000   -0.79363320
     atom    3 type  1   force =    -0.00000000   -0.00000000    0.79363320
     atom    4 type  2   force =     0.00000000    0.00000000   -0.79363320
     atom    5 type  1   force =     0.00000000    0.00000000    0.79363320
     atom    6 type  2   force =    -0.00000000   -0.00000000   -0.79363320
     atom    7 type  1   force =    -0.00000000   -0.00000000    0.79363320
     atom    8 type  2   force =     0.00000000    0.00000000   -0.79363320
     The local contribution  to forces
     atom    1 type  1   force =    -0.00000453   -0.00000261   -0.90931981
     atom    2 type  2   force =     0.00016683    0.00009632    0.69632531
     atom    3 type  1   force =     0.00004980    0.00002875   -0.90933087
     atom    4 type  2   force =    -0.00016627   -0.00009600    0.69632526
     atom    5 type  1   force =    -0.00003175   -0.00001833   -0.90934765
     atom    6 type  2   force =     0.00017107    0.00009877    0.69632202
     atom    7 type  1   force =    -0.00001608   -0.00000929   -0.90930948
     atom    8 type  2   force =    -0.00016872   -0.00009741    0.69632876
     The core correction contribution to forces
     atom    1 type  1   force =     0.00000529    0.00000320   -0.00792196
     atom    2 type  2   force =     0.00000187    0.00000108   -0.00079832
     atom    3 type  1   force =    -0.00000604   -0.00000339   -0.00792177
     atom    4 type  2   force =    -0.00000189   -0.00000108   -0.00079835
     atom    5 type  1   force =     0.00000564    0.00000317   -0.00792135
     atom    6 type  2   force =     0.00000202    0.00000116   -0.00079837
     atom    7 type  1   force =    -0.00000488   -0.00000296   -0.00792212
     atom    8 type  2   force =    -0.00000200   -0.00000115   -0.00079827
     The Hubbard contrib.    to forces
     atom    1 type  1   force =     0.00000000    0.00000000    0.00000000
     atom    2 type  2   force =     0.00000000    0.00000000    0.00000000
     atom    3 type  1   force =     0.00000000    0.00000000    0.00000000
     atom    4 type  2   force =     0.00000000    0.00000000    0.00000000
     atom    5 type  1   force =     0.00000000    0.00000000    0.00000000
     atom    6 type  2   force =     0.00000000    0.00000000    0.00000000
     atom    7 type  1   force =     0.00000000    0.00000000    0.00000000
     atom    8 type  2   force =     0.00000000    0.00000000    0.00000000
     The SCF correction term to forces
     atom    1 type  1   force =    -0.00000923   -0.00000533   -0.00003339
     atom    2 type  2   force =    -0.00001122   -0.00000648    0.00000514
     atom    3 type  1   force =    -0.00003453   -0.00001994   -0.00001380
     atom    4 type  2   force =     0.00000681    0.00000393    0.00000455
     atom    5 type  1   force =     0.00001925    0.00001111    0.00000027
     atom    6 type  2   force =    -0.00000330   -0.00000190    0.00000579
     atom    7 type  1   force =     0.00002767    0.00001597   -0.00004031
     atom    8 type  2   force =     0.00000583    0.00000337    0.00000257

     Total force =     0.002363     Total SCF correction =     0.000081

     Writing all to output data dir ./ZnO-3.40-1.49-211.in.save/

     General routines

     Parallel routines

   This run was terminated on:  16:11: 3  12Jul2025

   JOB DONE.
Note: The following floating-point exceptions are signalling: IEEE_INVALID_FLAG
Note: The following floating-point exceptions are signalling: IEEE_INVALID_FLAG