     Program PWSCF v.7.2 starts on 12Jul2025 at 16:32:52

     Reading input from /home/jvc/QEspresso7.2/ZnO_database/scripts/cell211_strain10%.in/ZnO-3.40-1.68-211.in
Warning: card &CELL ignored
Warning: card / ignored
Warning: card &FCP ignored
Warning: card / ignored
Warning: card &RISM ignored
Warning: card / ignored

     Current dimensions of program PWSCF are:
     Max number of different atomic species (ntypx) = 10
     Max number of k-points (npk) =  40000
     Max angular momentum in pseudopotentials (lmaxx) =  4
     file Zn.upf: wavefunction(s)  3D renormalized
     Found identity + ( -0.5000  0.0000  0.0000) symmetry
     This is a supercell, fractional translations are disabled
     Message from routine setup:
     using ibrav=0 with symmetry is DISCOURAGED, use correct ibrav instead

     K-points division:     npool     =       2
     R & G space division:  proc/nbgrp/npool/nimage =       8
     Subspace diagonalization in iterative solution of the eigenvalue problem:
     a serial algorithm will be used

     Using Slab Decomposition

     bravais-lattice index     =            0
     lattice parameter (alat)  =      12.8520  a.u.
     unit-cell volume          =     771.6453 (a.u.)^3
     number of atoms/cell      =            8
     number of atomic types    =            2
     number of electrons       =        72.00
     number of Kohn-Sham states=           36
     kinetic-energy cutoff     =      50.0000  Ry
     charge density cutoff     =     400.0000  Ry
     scf convergence threshold =      1.0E-08
     mixing beta               =       0.3000
     number of iterations used =            8  plain     mixing
     Exchange-correlation= PBE
                           (   1   4   3   4   0   0   0)

     celldm(1)=  12.852016  celldm(2)=   0.000000  celldm(3)=   0.000000
     celldm(4)=   0.000000  celldm(5)=   0.000000  celldm(6)=   0.000000

     crystal axes: (cart. coord. in units of alat)
               a(1) = (   1.000000   0.000000   0.000000 )
               a(2) = (  -0.250000   0.433013   0.000000 )
               a(3) = (   0.000000   0.000000   0.839466 )

     reciprocal axes: (cart. coord. in units 2 pi/alat)
               b(1) = (  1.000000  0.577350 -0.000000 )
               b(2) = (  0.000000  2.309401  0.000000 )
               b(3) = (  0.000000 -0.000000  1.191233 )

     PseudoPot. # 1 for Zn read from file:
     /home/jvc/QEspresso7.2/ZnO_database/pseudos/Zn.upf
     MD5 check sum: 7f56cabf9682ed8c977c2f7d0c5985c5
     Pseudo is Ultrasoft + core correction, Zval = 12.0
     Generated using &quot;atomic&quot; code by A. Dal Corso  v.6.2.2
     Using radial grid of 1201 points,  6 beta functions with:
                l(1) =   0
                l(2) =   0
                l(3) =   1
                l(4) =   1
                l(5) =   2
                l(6) =   2
     Q(r) pseudized with 0 coefficients

     PseudoPot. # 2 for O  read from file:
     /home/jvc/QEspresso7.2/ZnO_database/pseudos/O.upf
     MD5 check sum: 91400c9766925bcf19f520983a725ff0
     Pseudo is Ultrasoft + core correction, Zval =  6.0
     Generated using &quot;atomic&quot; code by A. Dal Corso  v.6.3MaX
     Using radial grid of 1095 points,  4 beta functions with:
                l(1) =   0
                l(2) =   0
                l(3) =   1
                l(4) =   1
     Q(r) pseudized with 0 coefficients

     atomic species   valence    mass     pseudopotential
        Zn            12.00    65.38000     Zn( 1.00)
        O              6.00    15.99900     O ( 1.00)

      2 Sym. Ops. (no inversion) found

   Cartesian axes

     site n.     atom                  positions (alat units)
         1           Zn  tau(   1) = (   0.0000000   0.0000000   0.0000000  )
         2           O   tau(   2) = (   0.0000000   0.2886751   0.1105972  )
         3           Zn  tau(   3) = (   0.0000000   0.2886751   0.4197332  )
         4           O   tau(   4) = (   0.0000000   0.0000000   0.5303303  )
         5           Zn  tau(   5) = (   0.5000000   0.0000000   0.0000000  )
         6           O   tau(   6) = (   0.5000000   0.2886751   0.1105972  )
         7           Zn  tau(   7) = (   0.5000000   0.2886751   0.4197332  )
         8           O   tau(   8) = (   0.5000000   0.0000000   0.5303303  )

     number of k points=    80
                       cart. coord. in units 2pi/alat
        k(    1) = (   0.0000000   0.0000000   0.0000000), wk =   0.0092593
        k(    2) = (   0.0000000   0.0000000   0.1985388), wk =   0.0185185
        k(    3) = (   0.0000000   0.0000000   0.3970777), wk =   0.0185185
        k(    4) = (   0.0000000   0.0000000  -0.5956165), wk =   0.0092593
        k(    5) = (   0.0000000   0.3849002   0.0000000), wk =   0.0370370
        k(    6) = (   0.0000000   0.3849002   0.1985388), wk =   0.0370370
        k(    7) = (   0.0000000   0.3849002   0.3970777), wk =   0.0370370
        k(    8) = (   0.0000000   0.3849002  -0.5956165), wk =   0.0370370
        k(    9) = (   0.0000000   0.7698004   0.0000000), wk =   0.0370370
        k(   10) = (   0.0000000   0.7698004   0.1985388), wk =   0.0370370
        k(   11) = (   0.0000000   0.7698004   0.3970777), wk =   0.0370370
        k(   12) = (   0.0000000   0.7698004  -0.5956165), wk =   0.0370370
        k(   13) = (   0.0000000  -1.1547005   0.0000000), wk =   0.0092593
        k(   14) = (   0.0000000  -1.1547005   0.1985388), wk =   0.0185185
        k(   15) = (   0.0000000  -1.1547005   0.3970777), wk =   0.0185185
        k(   16) = (   0.0000000  -1.1547005  -0.5956165), wk =   0.0092593
        k(   17) = (   0.1666667   0.0962250   0.0000000), wk =   0.0185185
        k(   18) = (   0.1666667   0.0962250   0.1985388), wk =   0.0185185
        k(   19) = (   0.1666667   0.0962250   0.3970777), wk =   0.0185185
        k(   20) = (   0.1666667   0.0962250  -0.5956165), wk =   0.0185185
        k(   21) = (   0.1666667   0.4811252   0.0000000), wk =   0.0370370
        k(   22) = (   0.1666667   0.4811252   0.1985388), wk =   0.0370370
        k(   23) = (   0.1666667   0.4811252   0.3970777), wk =   0.0370370
        k(   24) = (   0.1666667   0.4811252  -0.5956165), wk =   0.0370370
        k(   25) = (   0.1666667   0.8660254   0.0000000), wk =   0.0185185
        k(   26) = (   0.1666667   0.8660254   0.1985388), wk =   0.0370370
        k(   27) = (   0.1666667   0.8660254   0.3970777), wk =   0.0370370
        k(   28) = (   0.1666667   0.8660254  -0.5956165), wk =   0.0185185
        k(   29) = (   0.1666667  -1.0584755   0.0000000), wk =   0.0185185
        k(   30) = (   0.1666667  -1.0584755   0.1985388), wk =   0.0185185
        k(   31) = (   0.1666667  -1.0584755   0.3970777), wk =   0.0185185
        k(   32) = (   0.1666667  -1.0584755  -0.5956165), wk =   0.0185185
        k(   33) = (   0.1666667  -0.6735753   0.0000000), wk =   0.0370370
        k(   34) = (   0.1666667  -0.6735753   0.1985388), wk =   0.0370370
        k(   35) = (   0.1666667  -0.6735753   0.3970777), wk =   0.0370370
        k(   36) = (   0.1666667  -0.6735753  -0.5956165), wk =   0.0370370
        k(   37) = (   0.1666667  -0.2886751   0.0000000), wk =   0.0185185
        k(   38) = (   0.1666667  -0.2886751   0.1985388), wk =   0.0370370
        k(   39) = (   0.1666667  -0.2886751   0.3970777), wk =   0.0370370
        k(   40) = (   0.1666667  -0.2886751  -0.5956165), wk =   0.0185185
        k(   41) = (   0.3333333   0.1924501   0.0000000), wk =   0.0185185
        k(   42) = (   0.3333333   0.1924501   0.1985388), wk =   0.0185185
        k(   43) = (   0.3333333   0.1924501   0.3970777), wk =   0.0185185
        k(   44) = (   0.3333333   0.1924501  -0.5956165), wk =   0.0185185
        k(   45) = (   0.3333333   0.5773503   0.0000000), wk =   0.0185185
        k(   46) = (   0.3333333   0.5773503   0.1985388), wk =   0.0370370
        k(   47) = (   0.3333333   0.5773503   0.3970777), wk =   0.0370370
        k(   48) = (   0.3333333   0.5773503  -0.5956165), wk =   0.0185185
        k(   49) = (   0.3333333  -0.9622504   0.0000000), wk =   0.0185185
        k(   50) = (   0.3333333  -0.9622504   0.1985388), wk =   0.0185185
        k(   51) = (   0.3333333  -0.9622504   0.3970777), wk =   0.0185185
        k(   52) = (   0.3333333  -0.9622504  -0.5956165), wk =   0.0185185
        k(   53) = (   0.3333333  -0.5773503   0.0000000), wk =   0.0185185
        k(   54) = (   0.3333333  -0.5773503   0.1985388), wk =   0.0370370
        k(   55) = (   0.3333333  -0.5773503   0.3970777), wk =   0.0370370
        k(   56) = (   0.3333333  -0.5773503  -0.5956165), wk =   0.0185185
        k(   57) = (  -0.5000000  -0.2886751   0.0000000), wk =   0.0092593
        k(   58) = (  -0.5000000  -0.2886751   0.1985388), wk =   0.0185185
        k(   59) = (  -0.5000000  -0.2886751   0.3970777), wk =   0.0185185
        k(   60) = (  -0.5000000  -0.2886751  -0.5956165), wk =   0.0092593
[...]
        k(   66) = (   0.3333333  -0.1924501  -0.3970777), wk =   0.0370370
        k(   67) = (   0.6666667  -0.3849002  -0.1985388), wk =   0.0370370
        k(   68) = (   0.6666667  -0.3849002  -0.3970777), wk =   0.0370370
        k(   69) = (   0.1666667   0.0962250  -0.1985388), wk =   0.0185185
        k(   70) = (   0.1666667   0.0962250  -0.3970777), wk =   0.0185185
        k(   71) = (   0.5000000  -0.0962250  -0.1985388), wk =   0.0370370
        k(   72) = (   0.5000000  -0.0962250  -0.3970777), wk =   0.0370370
        k(   73) = (  -0.8333333   0.6735753  -0.1985388), wk =   0.0185185
        k(   74) = (  -0.8333333   0.6735753  -0.3970777), wk =   0.0185185
        k(   75) = (  -0.5000000   0.4811252  -0.1985388), wk =   0.0370370
        k(   76) = (  -0.5000000   0.4811252  -0.3970777), wk =   0.0370370
        k(   77) = (   0.3333333   0.1924501  -0.1985388), wk =   0.0185185
        k(   78) = (   0.3333333   0.1924501  -0.3970777), wk =   0.0185185
        k(   79) = (  -0.6666667   0.7698004  -0.1985388), wk =   0.0185185
        k(   80) = (  -0.6666667   0.7698004  -0.3970777), wk =   0.0185185

     Check: negative core charge=   -0.000002

     Initial potential from superposition of free atoms

     starting charge      71.9851, renormalised to      72.0000
     Starting wfcs are   52 randomized atomic wfcs

     Self-consistent Calculation

     iteration #  1     ecut=    50.00 Ry     beta= 0.30
     Davidson diagonalization with overlap
     ethr =  1.00E-02,  avg # of iterations =  1.5

     total energy              =    -722.85180656 Ry
     estimated scf accuracy    <       1.52748854 Ry

[...]

     total energy              =    -723.21426522 Ry
     estimated scf accuracy    <       0.00000008 Ry

     iteration # 31     ecut=    50.00 Ry     beta= 0.30
     Davidson diagonalization with overlap
     ethr =  1.06E-10,  avg # of iterations =  4.3

     End of self-consistent calculation

          k = 0.0000 0.0000 0.0000 (  4599 PWs)   bands (ev):

   -12.0126 -11.5692 -11.5454 -11.4103  -0.2909  -0.2863  -0.2135  -0.2132
    -0.0695  -0.0671  -0.0670  -0.0515   0.1238   0.1872   0.3169   0.3904
     0.4748   0.4749   0.5557   0.5945   0.6006   0.6006   0.6313   0.6904
     0.8748   1.2724   1.8763   2.4639   3.2055   3.7083   4.2391   4.2396
     4.2504   4.7027   4.8235   4.8241

[...]

          k =-0.5000-0.2887 0.0000 (  4606 PWs)   bands (ev):

[...]

          k = 0.3333 0.1925-0.3971 (  4616 PWs)   bands (ev):

[...]

          k =-0.6667 0.7698-0.3971 (  4610 PWs)   bands (ev):

   -11.5122 -11.5122 -11.4413 -11.4412  -0.2615  -0.2615  -0.1740  -0.1740
    -0.0150  -0.0150   0.1484   0.1484   0.1967   0.1967   0.2266   0.2266
     0.5151   0.5151   0.5666   0.5666   0.6649   0.6649   0.7411   0.7411
     1.4932   1.4932   1.7850   1.7850   2.9410   2.9410   3.3041   3.3041
     3.6189   3.6190   3.8900   3.8900

     highest occupied level (ev):     4.8241

!    total energy              =    -723.21426523 Ry
     estimated scf accuracy    <          9.1E-10 Ry

     The total energy is the sum of the following terms:
     one-electron contribution =    -343.81948555 Ry
     hartree contribution      =     249.04278635 Ry
     xc contribution           =    -218.49547540 Ry
     ewald contribution        =    -409.94209063 Ry

     convergence has been achieved in  31 iterations

     Forces acting on atoms (cartesian axes, Ry/au):

     atom    1 type  1   force =    -0.00000656   -0.00000379    0.00506975
     atom    2 type  2   force =    -0.00000125   -0.00000072   -0.00506856
     atom    3 type  1   force =     0.00000206    0.00000119    0.00506691
     atom    4 type  2   force =     0.00000160    0.00000092   -0.00506997
     atom    5 type  1   force =     0.00000160    0.00000092    0.00507528
     atom    6 type  2   force =    -0.00000171   -0.00000099   -0.00506844
     atom    7 type  1   force =     0.00000345    0.00000199    0.00506451
     atom    8 type  2   force =     0.00000082    0.00000048   -0.00506948
     The non-local contrib.  to forces
     atom    1 type  1   force =    -0.00000141   -0.00000081   -0.04525741
     atom    2 type  2   force =    -0.00020278   -0.00011708   -0.04799660
     atom    3 type  1   force =    -0.00000101   -0.00000058   -0.04525802
     atom    4 type  2   force =     0.00020511    0.00011842   -0.04799570
     atom    5 type  1   force =     0.00000177    0.00000102   -0.04525591
     atom    6 type  2   force =    -0.00020514   -0.00011844   -0.04799627
     atom    7 type  1   force =     0.00000083    0.00000048   -0.04525760
     atom    8 type  2   force =     0.00020457    0.00011811   -0.04799441
     The ionic contribution  to forces
     atom    1 type  1   force =     0.00000000    0.00000000   -0.42600261
     atom    2 type  2   force =    -0.00000000   -0.00000000    0.42600261
     atom    3 type  1   force =    -0.00000000   -0.00000000   -0.42600261
     atom    4 type  2   force =     0.00000000    0.00000000    0.42600261
     atom    5 type  1   force =     0.00000000    0.00000000   -0.42600261
     atom    6 type  2   force =    -0.00000000   -0.00000000    0.42600261
     atom    7 type  1   force =    -0.00000000   -0.00000000   -0.42600261
     atom    8 type  2   force =     0.00000000    0.00000000    0.42600261
     The local contribution  to forces
     atom    1 type  1   force =    -0.00000383   -0.00000221    0.47412677
     atom    2 type  2   force =     0.00020009    0.00011552   -0.38350170
     atom    3 type  1   force =     0.00001189    0.00000686    0.47412929
     atom    4 type  2   force =    -0.00020066   -0.00011585   -0.38350294
     atom    5 type  1   force =    -0.00001475   -0.00000852    0.47412112
     atom    6 type  2   force =     0.00020084    0.00011595   -0.38350121
     atom    7 type  1   force =     0.00000625    0.00000361    0.47413153
     atom    8 type  2   force =    -0.00020293   -0.00011716   -0.38350118
     The core correction contribution to forces
     atom    1 type  1   force =     0.00000530    0.00000301    0.00220676
     atom    2 type  2   force =     0.00000228    0.00000132    0.00042842
     atom    3 type  1   force =    -0.00000547   -0.00000315    0.00220677
     atom    4 type  2   force =    -0.00000232   -0.00000134    0.00042841
     atom    5 type  1   force =     0.00000547    0.00000315    0.00220689
     atom    6 type  2   force =     0.00000232    0.00000134    0.00042842
     atom    7 type  1   force =    -0.00000533   -0.00000303    0.00220656
     atom    8 type  2   force =    -0.00000232   -0.00000134    0.00042839
     The Hubbard contrib.    to forces
     atom    1 type  1   force =     0.00000000    0.00000000    0.00000000
     atom    2 type  2   force =     0.00000000    0.00000000    0.00000000
     atom    3 type  1   force =     0.00000000    0.00000000    0.00000000
     atom    4 type  2   force =     0.00000000    0.00000000    0.00000000
     atom    5 type  1   force =     0.00000000    0.00000000    0.00000000
     atom    6 type  2   force =     0.00000000    0.00000000    0.00000000
     atom    7 type  1   force =     0.00000000    0.00000000    0.00000000
     atom    8 type  2   force =     0.00000000    0.00000000    0.00000000
     The SCF correction term to forces
     atom    1 type  1   force =    -0.00000643   -0.00000371   -0.00000431
     atom    2 type  2   force =    -0.00000067   -0.00000039   -0.00000185
     atom    3 type  1   force =    -0.00000319   -0.00000184   -0.00000908
     atom    4 type  2   force =    -0.00000036   -0.00000021   -0.00000290
     atom    5 type  1   force =     0.00000927    0.00000535    0.00000525
     atom    6 type  2   force =     0.00000043    0.00000025   -0.00000254
     atom    7 type  1   force =     0.00000184    0.00000106   -0.00001391
     atom    8 type  2   force =     0.00000166    0.00000096   -0.00000544

     Total force =     0.014338     Total SCF correction =     0.000024

     Writing all to output data dir ./ZnO-3.40-1.68-211.in.save/

     General routines

     Parallel routines

   This run was terminated on:  16:37: 3  12Jul2025

   JOB DONE.
Note: The following floating-point exceptions are signalling: IEEE_INVALID_FLAG
Note: The following floating-point exceptions are signalling: IEEE_INVALID_FLAG