     Program PWSCF v.7.2 starts on 12Jul2025 at 12:32: 8

     Reading input from /home/jvc/QEspresso7.2/ZnO_database/scripts/cell211_strain10%.in/ZnO-3.01-1.65-211.in
Warning: card &CELL ignored
Warning: card / ignored
Warning: card &FCP ignored
Warning: card / ignored
Warning: card &RISM ignored
Warning: card / ignored

     Current dimensions of program PWSCF are:
     Max number of different atomic species (ntypx) = 10
     Max number of k-points (npk) =  40000
     Max angular momentum in pseudopotentials (lmaxx) =  4
     file Zn.upf: wavefunction(s)  3D renormalized
     Found identity + ( -0.5000  0.0000  0.0000) symmetry
     This is a supercell, fractional translations are disabled
     Message from routine setup:
     using ibrav=0 with symmetry is DISCOURAGED, use correct ibrav instead

     K-points division:     npool     =       2
     R & G space division:  proc/nbgrp/npool/nimage =       8
     Subspace diagonalization in iterative solution of the eigenvalue problem:
     a serial algorithm will be used

     Using Slab Decomposition

     bravais-lattice index     =            0
     lattice parameter (alat)  =      11.3691  a.u.
     unit-cell volume          =     523.8995 (a.u.)^3
     number of atoms/cell      =            8
     number of atomic types    =            2
     number of electrons       =        72.00
     number of Kohn-Sham states=           36
     kinetic-energy cutoff     =      50.0000  Ry
     charge density cutoff     =     400.0000  Ry
     scf convergence threshold =      1.0E-08
     mixing beta               =       0.3000
     number of iterations used =            8  plain     mixing
     Exchange-correlation= PBE
                           (   1   4   3   4   0   0   0)

     celldm(1)=  11.369091  celldm(2)=   0.000000  celldm(3)=   0.000000
     celldm(4)=   0.000000  celldm(5)=   0.000000  celldm(6)=   0.000000

     crystal axes: (cart. coord. in units of alat)
               a(1) = (   1.000000   0.000000   0.000000 )
               a(2) = (  -0.250000   0.433013   0.000000 )
               a(3) = (   0.000000   0.000000   0.823323 )

     reciprocal axes: (cart. coord. in units 2 pi/alat)
               b(1) = (  1.000000  0.577350 -0.000000 )
               b(2) = (  0.000000  2.309401  0.000000 )
               b(3) = (  0.000000 -0.000000  1.214590 )

     PseudoPot. # 1 for Zn read from file:
     /home/jvc/QEspresso7.2/ZnO_database/pseudos/Zn.upf
     MD5 check sum: 7f56cabf9682ed8c977c2f7d0c5985c5
     Pseudo is Ultrasoft + core correction, Zval = 12.0
     Generated using &quot;atomic&quot; code by A. Dal Corso  v.6.2.2
     Using radial grid of 1201 points,  6 beta functions with:
                l(1) =   0
                l(2) =   0
                l(3) =   1
                l(4) =   1
                l(5) =   2
                l(6) =   2
     Q(r) pseudized with 0 coefficients

     PseudoPot. # 2 for O  read from file:
     /home/jvc/QEspresso7.2/ZnO_database/pseudos/O.upf
     MD5 check sum: 91400c9766925bcf19f520983a725ff0
     Pseudo is Ultrasoft + core correction, Zval =  6.0
     Generated using &quot;atomic&quot; code by A. Dal Corso  v.6.3MaX
     Using radial grid of 1095 points,  4 beta functions with:
                l(1) =   0
                l(2) =   0
                l(3) =   1
                l(4) =   1
     Q(r) pseudized with 0 coefficients

     atomic species   valence    mass     pseudopotential
        Zn            12.00    65.38000     Zn( 1.00)
        O              6.00    15.99900     O ( 1.00)

      2 Sym. Ops. (no inversion) found

   Cartesian axes

     site n.     atom                  positions (alat units)
         1           Zn  tau(   1) = (   0.0000000   0.0000000   0.0000000  )
         2           O   tau(   2) = (   0.0000000   0.2886751   0.1046148  )
         3           Zn  tau(   3) = (   0.0000000   0.2886751   0.4116614  )
         4           O   tau(   4) = (   0.0000000   0.0000000   0.5162762  )
         5           Zn  tau(   5) = (   0.5000000   0.0000000   0.0000000  )
         6           O   tau(   6) = (   0.5000000   0.2886751   0.1046148  )
         7           Zn  tau(   7) = (   0.5000000   0.2886751   0.4116614  )
         8           O   tau(   8) = (   0.5000000   0.0000000   0.5162762  )

     number of k points=    80
                       cart. coord. in units 2pi/alat
        k(    1) = (   0.0000000   0.0000000   0.0000000), wk =   0.0092593
        k(    2) = (   0.0000000   0.0000000   0.2024317), wk =   0.0185185
        k(    3) = (   0.0000000   0.0000000   0.4048635), wk =   0.0185185
        k(    4) = (   0.0000000   0.0000000  -0.6072952), wk =   0.0092593
        k(    5) = (   0.0000000   0.3849002   0.0000000), wk =   0.0370370
        k(    6) = (   0.0000000   0.3849002   0.2024317), wk =   0.0370370
        k(    7) = (   0.0000000   0.3849002   0.4048635), wk =   0.0370370
        k(    8) = (   0.0000000   0.3849002  -0.6072952), wk =   0.0370370
        k(    9) = (   0.0000000   0.7698004   0.0000000), wk =   0.0370370
        k(   10) = (   0.0000000   0.7698004   0.2024317), wk =   0.0370370
        k(   11) = (   0.0000000   0.7698004   0.4048635), wk =   0.0370370
        k(   12) = (   0.0000000   0.7698004  -0.6072952), wk =   0.0370370
        k(   13) = (   0.0000000  -1.1547005   0.0000000), wk =   0.0092593
        k(   14) = (   0.0000000  -1.1547005   0.2024317), wk =   0.0185185
        k(   15) = (   0.0000000  -1.1547005   0.4048635), wk =   0.0185185
        k(   16) = (   0.0000000  -1.1547005  -0.6072952), wk =   0.0092593
        k(   17) = (   0.1666667   0.0962250   0.0000000), wk =   0.0185185
        k(   18) = (   0.1666667   0.0962250   0.2024317), wk =   0.0185185
        k(   19) = (   0.1666667   0.0962250   0.4048635), wk =   0.0185185
        k(   20) = (   0.1666667   0.0962250  -0.6072952), wk =   0.0185185
        k(   21) = (   0.1666667   0.4811252   0.0000000), wk =   0.0370370
        k(   22) = (   0.1666667   0.4811252   0.2024317), wk =   0.0370370
        k(   23) = (   0.1666667   0.4811252   0.4048635), wk =   0.0370370
        k(   24) = (   0.1666667   0.4811252  -0.6072952), wk =   0.0370370
        k(   25) = (   0.1666667   0.8660254   0.0000000), wk =   0.0185185
        k(   26) = (   0.1666667   0.8660254   0.2024317), wk =   0.0370370
        k(   27) = (   0.1666667   0.8660254   0.4048635), wk =   0.0370370
        k(   28) = (   0.1666667   0.8660254  -0.6072952), wk =   0.0185185
        k(   29) = (   0.1666667  -1.0584755   0.0000000), wk =   0.0185185
        k(   30) = (   0.1666667  -1.0584755   0.2024317), wk =   0.0185185
        k(   31) = (   0.1666667  -1.0584755   0.4048635), wk =   0.0185185
        k(   32) = (   0.1666667  -1.0584755  -0.6072952), wk =   0.0185185
        k(   33) = (   0.1666667  -0.6735753   0.0000000), wk =   0.0370370
        k(   34) = (   0.1666667  -0.6735753   0.2024317), wk =   0.0370370
        k(   35) = (   0.1666667  -0.6735753   0.4048635), wk =   0.0370370
        k(   36) = (   0.1666667  -0.6735753  -0.6072952), wk =   0.0370370
        k(   37) = (   0.1666667  -0.2886751   0.0000000), wk =   0.0185185
        k(   38) = (   0.1666667  -0.2886751   0.2024317), wk =   0.0370370
        k(   39) = (   0.1666667  -0.2886751   0.4048635), wk =   0.0370370
        k(   40) = (   0.1666667  -0.2886751  -0.6072952), wk =   0.0185185
        k(   41) = (   0.3333333   0.1924501   0.0000000), wk =   0.0185185
        k(   42) = (   0.3333333   0.1924501   0.2024317), wk =   0.0185185
        k(   43) = (   0.3333333   0.1924501   0.4048635), wk =   0.0185185
        k(   44) = (   0.3333333   0.1924501  -0.6072952), wk =   0.0185185
        k(   45) = (   0.3333333   0.5773503   0.0000000), wk =   0.0185185
        k(   46) = (   0.3333333   0.5773503   0.2024317), wk =   0.0370370
        k(   47) = (   0.3333333   0.5773503   0.4048635), wk =   0.0370370
        k(   48) = (   0.3333333   0.5773503  -0.6072952), wk =   0.0185185
        k(   49) = (   0.3333333  -0.9622504   0.0000000), wk =   0.0185185
        k(   50) = (   0.3333333  -0.9622504   0.2024317), wk =   0.0185185
        k(   51) = (   0.3333333  -0.9622504   0.4048635), wk =   0.0185185
        k(   52) = (   0.3333333  -0.9622504  -0.6072952), wk =   0.0185185
        k(   53) = (   0.3333333  -0.5773503   0.0000000), wk =   0.0185185
        k(   54) = (   0.3333333  -0.5773503   0.2024317), wk =   0.0370370
        k(   55) = (   0.3333333  -0.5773503   0.4048635), wk =   0.0370370
        k(   56) = (   0.3333333  -0.5773503  -0.6072952), wk =   0.0185185
        k(   57) = (  -0.5000000  -0.2886751   0.0000000), wk =   0.0092593
        k(   58) = (  -0.5000000  -0.2886751   0.2024317), wk =   0.0185185
        k(   59) = (  -0.5000000  -0.2886751   0.4048635), wk =   0.0185185
        k(   60) = (  -0.5000000  -0.2886751  -0.6072952), wk =   0.0092593
[...]
        k(   66) = (   0.3333333  -0.1924501  -0.4048635), wk =   0.0370370
        k(   67) = (   0.6666667  -0.3849002  -0.2024317), wk =   0.0370370
        k(   68) = (   0.6666667  -0.3849002  -0.4048635), wk =   0.0370370
        k(   69) = (   0.1666667   0.0962250  -0.2024317), wk =   0.0185185
        k(   70) = (   0.1666667   0.0962250  -0.4048635), wk =   0.0185185
        k(   71) = (   0.5000000  -0.0962250  -0.2024317), wk =   0.0370370
        k(   72) = (   0.5000000  -0.0962250  -0.4048635), wk =   0.0370370
        k(   73) = (  -0.8333333   0.6735753  -0.2024317), wk =   0.0185185
        k(   74) = (  -0.8333333   0.6735753  -0.4048635), wk =   0.0185185
        k(   75) = (  -0.5000000   0.4811252  -0.2024317), wk =   0.0370370
        k(   76) = (  -0.5000000   0.4811252  -0.4048635), wk =   0.0370370
        k(   77) = (   0.3333333   0.1924501  -0.2024317), wk =   0.0185185
        k(   78) = (   0.3333333   0.1924501  -0.4048635), wk =   0.0185185
        k(   79) = (  -0.6666667   0.7698004  -0.2024317), wk =   0.0185185
        k(   80) = (  -0.6666667   0.7698004  -0.4048635), wk =   0.0185185

     Check: negative core charge=   -0.000002

     Initial potential from superposition of free atoms

     starting charge      71.9851, renormalised to      72.0000
     Starting wfcs are   52 randomized atomic wfcs

     Self-consistent Calculation

     iteration #  1     ecut=    50.00 Ry     beta= 0.30
     Davidson diagonalization with overlap
     ethr =  1.00E-02,  avg # of iterations =  2.0

     total energy              =    -722.79975975 Ry
     estimated scf accuracy    <       1.34922308 Ry

[...]

     iteration # 11     ecut=    50.00 Ry     beta= 0.30
     Davidson diagonalization with overlap
     c_bands:  1 eigenvalues not converged
     ethr =  2.08E-08,  avg # of iterations = 13.4

[...]

     total energy              =    -723.06827047 Ry
     estimated scf accuracy    <       0.00000002 Ry

     iteration # 26     ecut=    50.00 Ry     beta= 0.30
     Davidson diagonalization with overlap
     ethr =  2.38E-11,  avg # of iterations =  2.0

     End of self-consistent calculation

          k = 0.0000 0.0000 0.0000 (  3135 PWs)   bands (ev):

    -9.2620  -8.2189  -8.2159  -7.9017   3.1881   3.2518   3.3252   3.7396
     3.7995   3.7997   4.0892   4.0893   4.1009   4.3778   4.5301   4.8920
     5.6474   5.6625   5.6625   5.9505   5.9805   5.9806   6.0608   6.1824
     6.3240   6.5205   6.6720   7.2940   7.8136   9.0529   9.6870   9.6872
     9.6943  10.6027  10.7538  10.7541

[...]

          k =-0.5000-0.2887 0.0000 (  3134 PWs)   bands (ev):

[...]

          k = 0.3333 0.1925-0.4049 (  3141 PWs)   bands (ev):

[...]

          k =-0.6667 0.7698-0.4049 (  3116 PWs)   bands (ev):

    -8.1389  -8.1389  -7.9685  -7.9685   3.1809   3.1809   3.2664   3.2664
     4.0380   4.0380   4.1816   4.1816   4.5585   4.5585   4.6348   4.6348
     5.7177   5.7177   5.8811   5.8811   6.0837   6.0837   6.2539   6.2539
     6.5418   6.5418   7.0190   7.0190   7.7217   7.7217   8.2608   8.2608
     8.8147   8.8147   9.2417   9.2417

     highest occupied level (ev):    10.7541

!    total energy              =    -723.06827046 Ry
     estimated scf accuracy    <          4.6E-09 Ry

     The total energy is the sum of the following terms:
     one-electron contribution =    -254.22826920 Ry
     hartree contribution      =     217.59785175 Ry
     xc contribution           =    -220.16621801 Ry
     ewald contribution        =    -466.27163500 Ry

     convergence has been achieved in  26 iterations

     Forces acting on atoms (cartesian axes, Ry/au):

     atom    1 type  1   force =    -0.00001346   -0.00000777   -0.00254611
     atom    2 type  2   force =     0.00000009    0.00000005    0.00254784
     atom    3 type  1   force =     0.00001562    0.00000902   -0.00255020
     atom    4 type  2   force =    -0.00000152   -0.00000088    0.00254919
     atom    5 type  1   force =    -0.00001677   -0.00000968   -0.00254764
     atom    6 type  2   force =     0.00000036    0.00000021    0.00254739
     atom    7 type  1   force =     0.00001486    0.00000858   -0.00254897
     atom    8 type  2   force =     0.00000083    0.00000048    0.00254851
     The non-local contrib.  to forces
     atom    1 type  1   force =     0.00002772    0.00001600   -0.01856775
     atom    2 type  2   force =    -0.00015845   -0.00009148   -0.01950792
     atom    3 type  1   force =    -0.00002748   -0.00001587   -0.01856725
     atom    4 type  2   force =     0.00016004    0.00009240   -0.01950899
     atom    5 type  1   force =     0.00002803    0.00001618   -0.01856794
     atom    6 type  2   force =    -0.00016000   -0.00009238   -0.01950837
     atom    7 type  1   force =    -0.00002793   -0.00001613   -0.01856907
     atom    8 type  2   force =     0.00015995    0.00009235   -0.01950873
     The ionic contribution  to forces
     atom    1 type  1   force =     0.00000000    0.00000000   -0.28714436
     atom    2 type  2   force =    -0.00000000   -0.00000000    0.28714436
     atom    3 type  1   force =    -0.00000000   -0.00000000   -0.28714436
     atom    4 type  2   force =     0.00000000    0.00000000    0.28714436
     atom    5 type  1   force =     0.00000000    0.00000000   -0.28714436
     atom    6 type  2   force =    -0.00000000   -0.00000000    0.28714436
     atom    7 type  1   force =    -0.00000000   -0.00000000   -0.28714436
     atom    8 type  2   force =     0.00000000    0.00000000    0.28714436
     The local contribution  to forces
     atom    1 type  1   force =    -0.00004819   -0.00002782    0.30225173
     atom    2 type  2   force =     0.00015633    0.00009026   -0.26523068
     atom    3 type  1   force =     0.00004628    0.00002672    0.30225317
     atom    4 type  2   force =    -0.00016127   -0.00009311   -0.26522401
     atom    5 type  1   force =    -0.00004641   -0.00002680    0.30225280
     atom    6 type  2   force =     0.00015943    0.00009205   -0.26523018
     atom    7 type  1   force =     0.00004782    0.00002761    0.30225438
     atom    8 type  2   force =    -0.00015671   -0.00009048   -0.26522529
     The core correction contribution to forces
     atom    1 type  1   force =     0.00000362    0.00000214    0.00090939
     atom    2 type  2   force =     0.00000181    0.00000105    0.00013857
     atom    3 type  1   force =    -0.00000374   -0.00000215    0.00090952
     atom    4 type  2   force =    -0.00000184   -0.00000106    0.00013860
     atom    5 type  1   force =     0.00000378    0.00000217    0.00090942
     atom    6 type  2   force =     0.00000184    0.00000106    0.00013857
     atom    7 type  1   force =    -0.00000368   -0.00000211    0.00090951
     atom    8 type  2   force =    -0.00000183   -0.00000105    0.00013859
     The Hubbard contrib.    to forces
     atom    1 type  1   force =     0.00000000    0.00000000    0.00000000
     atom    2 type  2   force =     0.00000000    0.00000000    0.00000000
     atom    3 type  1   force =     0.00000000    0.00000000    0.00000000
     atom    4 type  2   force =     0.00000000    0.00000000    0.00000000
     atom    5 type  1   force =     0.00000000    0.00000000    0.00000000
     atom    6 type  2   force =     0.00000000    0.00000000    0.00000000
     atom    7 type  1   force =     0.00000000    0.00000000    0.00000000
     atom    8 type  2   force =     0.00000000    0.00000000    0.00000000
     The SCF correction term to forces
     atom    1 type  1   force =     0.00000335    0.00000193    0.00000186
     atom    2 type  2   force =     0.00000037    0.00000022    0.00000050
     atom    3 type  1   force =     0.00000053    0.00000031   -0.00000430
     atom    4 type  2   force =     0.00000153    0.00000088   -0.00000378
     atom    5 type  1   force =    -0.00000220   -0.00000127   -0.00000059
     atom    6 type  2   force =    -0.00000093   -0.00000053   -0.00000001
     atom    7 type  1   force =    -0.00000137   -0.00000079   -0.00000246
     atom    8 type  2   force =    -0.00000061   -0.00000035   -0.00000343

     Total force =     0.007208     Total SCF correction =     0.000009

     Writing all to output data dir ./ZnO-3.01-1.65-211.in.save/

     General routines

     Parallel routines

   This run was terminated on:  12:34:50  12Jul2025

   JOB DONE.
Note: The following floating-point exceptions are signalling: IEEE_INVALID_FLAG
Note: The following floating-point exceptions are signalling: IEEE_INVALID_FLAG