     Program PWSCF v.7.2 starts on 12Jul2025 at 12:18: 8

     Reading input from /home/jvc/QEspresso7.2/ZnO_database/scripts/cell211_strain10%.in/ZnO-3.01-1.45-211.in
Warning: card &CELL ignored
Warning: card / ignored
Warning: card &FCP ignored
Warning: card / ignored
Warning: card &RISM ignored
Warning: card / ignored

     Current dimensions of program PWSCF are:
     Max number of different atomic species (ntypx) = 10
     Max number of k-points (npk) =  40000
     Max angular momentum in pseudopotentials (lmaxx) =  4
     file Zn.upf: wavefunction(s)  3D renormalized
     Found identity + ( -0.5000  0.0000  0.0000) symmetry
     This is a supercell, fractional translations are disabled
     Message from routine setup:
     using ibrav=0 with symmetry is DISCOURAGED, use correct ibrav instead

     K-points division:     npool     =       2
     R & G space division:  proc/nbgrp/npool/nimage =       8
     Subspace diagonalization in iterative solution of the eigenvalue problem:
     a serial algorithm will be used

     Using Slab Decomposition

     bravais-lattice index     =            0
     lattice parameter (alat)  =      11.3691  a.u.
     unit-cell volume          =     462.2643 (a.u.)^3
     number of atoms/cell      =            8
     number of atomic types    =            2
     number of electrons       =        72.00
     number of Kohn-Sham states=           36
     kinetic-energy cutoff     =      50.0000  Ry
     charge density cutoff     =     400.0000  Ry
     scf convergence threshold =      1.0E-08
     mixing beta               =       0.3000
     number of iterations used =            8  plain     mixing
     Exchange-correlation= PBE
                           (   1   4   3   4   0   0   0)

     celldm(1)=  11.369091  celldm(2)=   0.000000  celldm(3)=   0.000000
     celldm(4)=   0.000000  celldm(5)=   0.000000  celldm(6)=   0.000000

     crystal axes: (cart. coord. in units of alat)
               a(1) = (   1.000000   0.000000   0.000000 )
               a(2) = (  -0.250000   0.433013   0.000000 )
               a(3) = (   0.000000   0.000000   0.726461 )

     reciprocal axes: (cart. coord. in units 2 pi/alat)
               b(1) = (  1.000000  0.577350 -0.000000 )
               b(2) = (  0.000000  2.309401  0.000000 )
               b(3) = (  0.000000 -0.000000  1.376536 )

     PseudoPot. # 1 for Zn read from file:
     /home/jvc/QEspresso7.2/ZnO_database/pseudos/Zn.upf
     MD5 check sum: 7f56cabf9682ed8c977c2f7d0c5985c5
     Pseudo is Ultrasoft + core correction, Zval = 12.0
     Generated using &quot;atomic&quot; code by A. Dal Corso  v.6.2.2
     Using radial grid of 1201 points,  6 beta functions with:
                l(1) =   0
                l(2) =   0
                l(3) =   1
                l(4) =   1
                l(5) =   2
                l(6) =   2
     Q(r) pseudized with 0 coefficients

     PseudoPot. # 2 for O  read from file:
     /home/jvc/QEspresso7.2/ZnO_database/pseudos/O.upf
     MD5 check sum: 91400c9766925bcf19f520983a725ff0
     Pseudo is Ultrasoft + core correction, Zval =  6.0
     Generated using &quot;atomic&quot; code by A. Dal Corso  v.6.3MaX
     Using radial grid of 1095 points,  4 beta functions with:
                l(1) =   0
                l(2) =   0
                l(3) =   1
                l(4) =   1
     Q(r) pseudized with 0 coefficients

     atomic species   valence    mass     pseudopotential
        Zn            12.00    65.38000     Zn( 1.00)
        O              6.00    15.99900     O ( 1.00)

      2 Sym. Ops. (no inversion) found

   Cartesian axes

     site n.     atom                  positions (alat units)
         1           Zn  tau(   1) = (   0.0000000   0.0000000   0.0000000  )
         2           O   tau(   2) = (   0.0000000   0.2886751   0.0669040  )
         3           Zn  tau(   3) = (   0.0000000   0.2886751   0.3632306  )
         4           O   tau(   4) = (   0.0000000   0.0000000   0.4301346  )
         5           Zn  tau(   5) = (   0.5000000   0.0000000   0.0000000  )
         6           O   tau(   6) = (   0.5000000   0.2886751   0.0669040  )
         7           Zn  tau(   7) = (   0.5000000   0.2886751   0.3632306  )
         8           O   tau(   8) = (   0.5000000   0.0000000   0.4301346  )

     number of k points=    80
                       cart. coord. in units 2pi/alat
        k(    1) = (   0.0000000   0.0000000   0.0000000), wk =   0.0092593
        k(    2) = (   0.0000000   0.0000000   0.2294226), wk =   0.0185185
        k(    3) = (   0.0000000   0.0000000   0.4588453), wk =   0.0185185
        k(    4) = (   0.0000000   0.0000000  -0.6882679), wk =   0.0092593
        k(    5) = (   0.0000000   0.3849002   0.0000000), wk =   0.0370370
        k(    6) = (   0.0000000   0.3849002   0.2294226), wk =   0.0370370
        k(    7) = (   0.0000000   0.3849002   0.4588453), wk =   0.0370370
        k(    8) = (   0.0000000   0.3849002  -0.6882679), wk =   0.0370370
        k(    9) = (   0.0000000   0.7698004   0.0000000), wk =   0.0370370
        k(   10) = (   0.0000000   0.7698004   0.2294226), wk =   0.0370370
        k(   11) = (   0.0000000   0.7698004   0.4588453), wk =   0.0370370
        k(   12) = (   0.0000000   0.7698004  -0.6882679), wk =   0.0370370
        k(   13) = (   0.0000000  -1.1547005   0.0000000), wk =   0.0092593
        k(   14) = (   0.0000000  -1.1547005   0.2294226), wk =   0.0185185
        k(   15) = (   0.0000000  -1.1547005   0.4588453), wk =   0.0185185
        k(   16) = (   0.0000000  -1.1547005  -0.6882679), wk =   0.0092593
        k(   17) = (   0.1666667   0.0962250   0.0000000), wk =   0.0185185
        k(   18) = (   0.1666667   0.0962250   0.2294226), wk =   0.0185185
        k(   19) = (   0.1666667   0.0962250   0.4588453), wk =   0.0185185
        k(   20) = (   0.1666667   0.0962250  -0.6882679), wk =   0.0185185
        k(   21) = (   0.1666667   0.4811252   0.0000000), wk =   0.0370370
        k(   22) = (   0.1666667   0.4811252   0.2294226), wk =   0.0370370
        k(   23) = (   0.1666667   0.4811252   0.4588453), wk =   0.0370370
        k(   24) = (   0.1666667   0.4811252  -0.6882679), wk =   0.0370370
        k(   25) = (   0.1666667   0.8660254   0.0000000), wk =   0.0185185
        k(   26) = (   0.1666667   0.8660254   0.2294226), wk =   0.0370370
        k(   27) = (   0.1666667   0.8660254   0.4588453), wk =   0.0370370
        k(   28) = (   0.1666667   0.8660254  -0.6882679), wk =   0.0185185
        k(   29) = (   0.1666667  -1.0584755   0.0000000), wk =   0.0185185
        k(   30) = (   0.1666667  -1.0584755   0.2294226), wk =   0.0185185
        k(   31) = (   0.1666667  -1.0584755   0.4588453), wk =   0.0185185
        k(   32) = (   0.1666667  -1.0584755  -0.6882679), wk =   0.0185185
        k(   33) = (   0.1666667  -0.6735753   0.0000000), wk =   0.0370370
        k(   34) = (   0.1666667  -0.6735753   0.2294226), wk =   0.0370370
        k(   35) = (   0.1666667  -0.6735753   0.4588453), wk =   0.0370370
        k(   36) = (   0.1666667  -0.6735753  -0.6882679), wk =   0.0370370
        k(   37) = (   0.1666667  -0.2886751   0.0000000), wk =   0.0185185
        k(   38) = (   0.1666667  -0.2886751   0.2294226), wk =   0.0370370
        k(   39) = (   0.1666667  -0.2886751   0.4588453), wk =   0.0370370
        k(   40) = (   0.1666667  -0.2886751  -0.6882679), wk =   0.0185185
        k(   41) = (   0.3333333   0.1924501   0.0000000), wk =   0.0185185
        k(   42) = (   0.3333333   0.1924501   0.2294226), wk =   0.0185185
        k(   43) = (   0.3333333   0.1924501   0.4588453), wk =   0.0185185
        k(   44) = (   0.3333333   0.1924501  -0.6882679), wk =   0.0185185
        k(   45) = (   0.3333333   0.5773503   0.0000000), wk =   0.0185185
        k(   46) = (   0.3333333   0.5773503   0.2294226), wk =   0.0370370
        k(   47) = (   0.3333333   0.5773503   0.4588453), wk =   0.0370370
        k(   48) = (   0.3333333   0.5773503  -0.6882679), wk =   0.0185185
        k(   49) = (   0.3333333  -0.9622504   0.0000000), wk =   0.0185185
        k(   50) = (   0.3333333  -0.9622504   0.2294226), wk =   0.0185185
        k(   51) = (   0.3333333  -0.9622504   0.4588453), wk =   0.0185185
        k(   52) = (   0.3333333  -0.9622504  -0.6882679), wk =   0.0185185
        k(   53) = (   0.3333333  -0.5773503   0.0000000), wk =   0.0185185
        k(   54) = (   0.3333333  -0.5773503   0.2294226), wk =   0.0370370
        k(   55) = (   0.3333333  -0.5773503   0.4588453), wk =   0.0370370
        k(   56) = (   0.3333333  -0.5773503  -0.6882679), wk =   0.0185185
        k(   57) = (  -0.5000000  -0.2886751   0.0000000), wk =   0.0092593
        k(   58) = (  -0.5000000  -0.2886751   0.2294226), wk =   0.0185185
        k(   59) = (  -0.5000000  -0.2886751   0.4588453), wk =   0.0185185
        k(   60) = (  -0.5000000  -0.2886751  -0.6882679), wk =   0.0092593
[...]
        k(   66) = (   0.3333333  -0.1924501  -0.4588453), wk =   0.0370370
        k(   67) = (   0.6666667  -0.3849002  -0.2294226), wk =   0.0370370
        k(   68) = (   0.6666667  -0.3849002  -0.4588453), wk =   0.0370370
        k(   69) = (   0.1666667   0.0962250  -0.2294226), wk =   0.0185185
        k(   70) = (   0.1666667   0.0962250  -0.4588453), wk =   0.0185185
        k(   71) = (   0.5000000  -0.0962250  -0.2294226), wk =   0.0370370
        k(   72) = (   0.5000000  -0.0962250  -0.4588453), wk =   0.0370370
        k(   73) = (  -0.8333333   0.6735753  -0.2294226), wk =   0.0185185
        k(   74) = (  -0.8333333   0.6735753  -0.4588453), wk =   0.0185185
        k(   75) = (  -0.5000000   0.4811252  -0.2294226), wk =   0.0370370
        k(   76) = (  -0.5000000   0.4811252  -0.4588453), wk =   0.0370370
        k(   77) = (   0.3333333   0.1924501  -0.2294226), wk =   0.0185185
        k(   78) = (   0.3333333   0.1924501  -0.4588453), wk =   0.0185185
        k(   79) = (  -0.6666667   0.7698004  -0.2294226), wk =   0.0185185
        k(   80) = (  -0.6666667   0.7698004  -0.4588453), wk =   0.0185185

     Check: negative core charge=   -0.000001

     Initial potential from superposition of free atoms

     starting charge      71.9851, renormalised to      72.0000
     Starting wfcs are   52 randomized atomic wfcs

     Self-consistent Calculation

     iteration #  1     ecut=    50.00 Ry     beta= 0.30
     Davidson diagonalization with overlap
     ethr =  1.00E-02,  avg # of iterations =  2.2

     total energy              =    -722.49537129 Ry
     estimated scf accuracy    <       1.39537669 Ry

[...]

     total energy              =    -722.75309816 Ry
     estimated scf accuracy    <       0.00000301 Ry

     iteration # 18     ecut=    50.00 Ry     beta= 0.30
     Davidson diagonalization with overlap
     ethr =  4.88E-11,  avg # of iterations = 11.2

     End of self-consistent calculation

          k = 0.0000 0.0000 0.0000 (  2781 PWs)   bands (ev):

    -8.1266  -6.8915  -6.5006  -6.3818   4.5505   4.8034   4.8985   5.2285
     5.2287   5.3733   5.3734   5.8686   5.9105   6.0219   6.3680   7.1149
     7.5687   7.5687   7.6991   7.7836   7.8321   8.1339   8.1339   8.2476
     8.3639   8.8029   9.0644   9.5156   9.6133  11.5162  11.5696  12.0071
    12.0072  12.5719  13.2062  13.2064

[...]

          k =-0.5000-0.2887 0.0000 (  2762 PWs)   bands (ev):

[...]

          k = 0.3333 0.1925-0.4588 (  2765 PWs)   bands (ev):

[...]

          k =-0.6667 0.7698-0.4588 (  2750 PWs)   bands (ev):

    -6.7336  -6.7335  -6.4576  -6.4575   4.4136   4.4136   4.5095   4.5095
     5.6640   5.6640   5.7665   5.7665   6.1076   6.1076   6.2648   6.2648
     7.7861   7.7861   7.8757   7.8757   8.1697   8.1697   8.3483   8.3483
     8.7678   8.7678   9.0881   9.0881   9.6925   9.6925  10.5789  10.5789
    11.1654  11.1655  12.0283  12.0283

     highest occupied level (ev):    13.2064

!    total energy              =    -722.75309870 Ry
     estimated scf accuracy    <          5.0E-09 Ry

     The total energy is the sum of the following terms:
     one-electron contribution =    -223.47878194 Ry
     hartree contribution      =     207.67850531 Ry
     xc contribution           =    -220.88511064 Ry
     ewald contribution        =    -486.06771143 Ry

     convergence has been achieved in  18 iterations

     Forces acting on atoms (cartesian axes, Ry/au):

     atom    1 type  1   force =    -0.00000623   -0.00000360    0.04161597
     atom    2 type  2   force =    -0.00000689   -0.00000398   -0.04160937
     atom    3 type  1   force =     0.00000768    0.00000443    0.04159950
     atom    4 type  2   force =     0.00001108    0.00000640   -0.04161068
     atom    5 type  1   force =    -0.00000578   -0.00000334    0.04161669
     atom    6 type  2   force =    -0.00000681   -0.00000393   -0.04160813
     atom    7 type  1   force =    -0.00000492   -0.00000284    0.04160597
     atom    8 type  2   force =     0.00001187    0.00000685   -0.04160994
     The non-local contrib.  to forces
     atom    1 type  1   force =     0.00003481    0.00002010    0.17547990
     atom    2 type  2   force =    -0.00012752   -0.00007363    0.11957074
     atom    3 type  1   force =    -0.00003020   -0.00001744    0.17547495
     atom    4 type  2   force =     0.00012637    0.00007296    0.11957605
     atom    5 type  1   force =     0.00003182    0.00001837    0.17548057
     atom    6 type  2   force =    -0.00012708   -0.00007337    0.11957281
     atom    7 type  1   force =    -0.00003625   -0.00002093    0.17547666
     atom    8 type  2   force =     0.00012851    0.00007420    0.11957689
     The ionic contribution  to forces
     atom    1 type  1   force =     0.00000000    0.00000000    1.24633762
     atom    2 type  2   force =    -0.00000000   -0.00000000   -1.24633762
     atom    3 type  1   force =    -0.00000000   -0.00000000    1.24633762
     atom    4 type  2   force =     0.00000000    0.00000000   -1.24633762
     atom    5 type  1   force =     0.00000000    0.00000000    1.24633762
     atom    6 type  2   force =    -0.00000000   -0.00000000   -1.24633762
     atom    7 type  1   force =    -0.00000000   -0.00000000    1.24633762
     atom    8 type  2   force =     0.00000000    0.00000000   -1.24633762
     The local contribution  to forces
     atom    1 type  1   force =    -0.00004793   -0.00002767   -1.36324729
     atom    2 type  2   force =     0.00011606    0.00006701    1.08586006
     atom    3 type  1   force =     0.00003151    0.00001819   -1.36323812
     atom    4 type  2   force =    -0.00011536   -0.00006660    1.08586454
     atom    5 type  1   force =    -0.00003428   -0.00001979   -1.36324159
     atom    6 type  2   force =     0.00011105    0.00006412    1.08585683
     atom    7 type  1   force =     0.00005577    0.00003220   -1.36324779
     atom    8 type  2   force =    -0.00011820   -0.00006824    1.08587616
     The core correction contribution to forces
     atom    1 type  1   force =     0.00000444    0.00000241   -0.01695146
     atom    2 type  2   force =     0.00000140    0.00000080   -0.00072320
     atom    3 type  1   force =    -0.00000347   -0.00000195   -0.01695089
     atom    4 type  2   force =    -0.00000141   -0.00000081   -0.00072327
     atom    5 type  1   force =     0.00000348    0.00000204   -0.01695190
     atom    6 type  2   force =     0.00000141    0.00000082   -0.00072323
     atom    7 type  1   force =    -0.00000411   -0.00000243   -0.01695064
     atom    8 type  2   force =    -0.00000142   -0.00000081   -0.00072324
     The Hubbard contrib.    to forces
     atom    1 type  1   force =     0.00000000    0.00000000    0.00000000
     atom    2 type  2   force =     0.00000000    0.00000000    0.00000000
     atom    3 type  1   force =     0.00000000    0.00000000    0.00000000
     atom    4 type  2   force =     0.00000000    0.00000000    0.00000000
     atom    5 type  1   force =     0.00000000    0.00000000    0.00000000
     atom    6 type  2   force =     0.00000000    0.00000000    0.00000000
     atom    7 type  1   force =     0.00000000    0.00000000    0.00000000
     atom    8 type  2   force =     0.00000000    0.00000000    0.00000000
     The SCF correction term to forces
     atom    1 type  1   force =     0.00000027    0.00000015   -0.00001436
     atom    2 type  2   force =     0.00000094    0.00000054    0.00000911
     atom    3 type  1   force =     0.00000759    0.00000438   -0.00003562
     atom    4 type  2   force =    -0.00000075   -0.00000044   -0.00000191
     atom    5 type  1   force =    -0.00000905   -0.00000523   -0.00001956
     atom    6 type  2   force =     0.00000557    0.00000322    0.00001154
     atom    7 type  1   force =    -0.00002253   -0.00001301   -0.00002142
     atom    8 type  2   force =     0.00000073    0.00000042   -0.00001368

     Total force =     0.117690     Total SCF correction =     0.000060

     Writing all to output data dir ./ZnO-3.01-1.45-211.in.save/

     General routines

     Parallel routines

   This run was terminated on:  12:20: 3  12Jul2025

   JOB DONE.
Note: The following floating-point exceptions are signalling: IEEE_INVALID_FLAG
Note: The following floating-point exceptions are signalling: IEEE_INVALID_FLAG