     Program PWSCF v.7.2 starts on 12Jul2025 at 18: 1:20

     Reading input from /home/jvc/QEspresso7.2/ZnO_database/scripts/cell211_strain10%.in/ZnO-3.53-1.58-211.in
Warning: card &CELL ignored
Warning: card / ignored
Warning: card &FCP ignored
Warning: card / ignored
Warning: card &RISM ignored
Warning: card / ignored

     Current dimensions of program PWSCF are:
     Max number of different atomic species (ntypx) = 10
     Max number of k-points (npk) =  40000
     Max angular momentum in pseudopotentials (lmaxx) =  4
     file Zn.upf: wavefunction(s)  3D renormalized
     Found identity + ( -0.5000  0.0000  0.0000) symmetry
     This is a supercell, fractional translations are disabled
     Message from routine setup:
     using ibrav=0 with symmetry is DISCOURAGED, use correct ibrav instead

     K-points division:     npool     =       2
     R & G space division:  proc/nbgrp/npool/nimage =       8
     Subspace diagonalization in iterative solution of the eigenvalue problem:
     a serial algorithm will be used

     Using Slab Decomposition

     bravais-lattice index     =            0
     lattice parameter (alat)  =      13.3463  a.u.
     unit-cell volume          =     814.2949 (a.u.)^3
     number of atoms/cell      =            8
     number of atomic types    =            2
     number of electrons       =        72.00
     number of Kohn-Sham states=           36
     kinetic-energy cutoff     =      50.0000  Ry
     charge density cutoff     =     400.0000  Ry
     scf convergence threshold =      1.0E-08
     mixing beta               =       0.3000
     number of iterations used =            8  plain     mixing
     Exchange-correlation= PBE
                           (   1   4   3   4   0   0   0)

     celldm(1)=  13.346325  celldm(2)=   0.000000  celldm(3)=   0.000000
     celldm(4)=   0.000000  celldm(5)=   0.000000  celldm(6)=   0.000000

     crystal axes: (cart. coord. in units of alat)
               a(1) = (   1.000000   0.000000   0.000000 )
               a(2) = (  -0.250000   0.433013   0.000000 )
               a(3) = (   0.000000   0.000000   0.791036 )

     reciprocal axes: (cart. coord. in units 2 pi/alat)
               b(1) = (  1.000000  0.577350 -0.000000 )
               b(2) = (  0.000000  2.309401  0.000000 )
               b(3) = (  0.000000 -0.000000  1.264166 )

     PseudoPot. # 1 for Zn read from file:
     /home/jvc/QEspresso7.2/ZnO_database/pseudos/Zn.upf
     MD5 check sum: 7f56cabf9682ed8c977c2f7d0c5985c5
     Pseudo is Ultrasoft + core correction, Zval = 12.0
     Generated using &quot;atomic&quot; code by A. Dal Corso  v.6.2.2
     Using radial grid of 1201 points,  6 beta functions with:
                l(1) =   0
                l(2) =   0
                l(3) =   1
                l(4) =   1
                l(5) =   2
                l(6) =   2
     Q(r) pseudized with 0 coefficients

     PseudoPot. # 2 for O  read from file:
     /home/jvc/QEspresso7.2/ZnO_database/pseudos/O.upf
     MD5 check sum: 91400c9766925bcf19f520983a725ff0
     Pseudo is Ultrasoft + core correction, Zval =  6.0
     Generated using &quot;atomic&quot; code by A. Dal Corso  v.6.3MaX
     Using radial grid of 1095 points,  4 beta functions with:
                l(1) =   0
                l(2) =   0
                l(3) =   1
                l(4) =   1
     Q(r) pseudized with 0 coefficients

     atomic species   valence    mass     pseudopotential
        Zn            12.00    65.38000     Zn( 1.00)
        O              6.00    15.99900     O ( 1.00)

      2 Sym. Ops. (no inversion) found

   Cartesian axes

     site n.     atom                  positions (alat units)
         1           Zn  tau(   1) = (   0.0000000   0.0000000   0.0000000  )
         2           O   tau(   2) = (   0.0000000   0.2886751   0.0924118  )
         3           Zn  tau(   3) = (   0.0000000   0.2886751   0.3955178  )
         4           O   tau(   4) = (   0.0000000   0.0000000   0.4879296  )
         5           Zn  tau(   5) = (   0.5000000   0.0000000   0.0000000  )
         6           O   tau(   6) = (   0.5000000   0.2886751   0.0924118  )
         7           Zn  tau(   7) = (   0.5000000   0.2886751   0.3955178  )
         8           O   tau(   8) = (   0.5000000   0.0000000   0.4879296  )

     number of k points=    80
                       cart. coord. in units 2pi/alat
        k(    1) = (   0.0000000   0.0000000   0.0000000), wk =   0.0092593
        k(    2) = (   0.0000000   0.0000000   0.2106943), wk =   0.0185185
        k(    3) = (   0.0000000   0.0000000   0.4213885), wk =   0.0185185
        k(    4) = (   0.0000000   0.0000000  -0.6320828), wk =   0.0092593
        k(    5) = (   0.0000000   0.3849002   0.0000000), wk =   0.0370370
        k(    6) = (   0.0000000   0.3849002   0.2106943), wk =   0.0370370
        k(    7) = (   0.0000000   0.3849002   0.4213885), wk =   0.0370370
        k(    8) = (   0.0000000   0.3849002  -0.6320828), wk =   0.0370370
        k(    9) = (   0.0000000   0.7698004   0.0000000), wk =   0.0370370
        k(   10) = (   0.0000000   0.7698004   0.2106943), wk =   0.0370370
        k(   11) = (   0.0000000   0.7698004   0.4213885), wk =   0.0370370
        k(   12) = (   0.0000000   0.7698004  -0.6320828), wk =   0.0370370
        k(   13) = (   0.0000000  -1.1547005   0.0000000), wk =   0.0092593
        k(   14) = (   0.0000000  -1.1547005   0.2106943), wk =   0.0185185
        k(   15) = (   0.0000000  -1.1547005   0.4213885), wk =   0.0185185
        k(   16) = (   0.0000000  -1.1547005  -0.6320828), wk =   0.0092593
        k(   17) = (   0.1666667   0.0962250   0.0000000), wk =   0.0185185
        k(   18) = (   0.1666667   0.0962250   0.2106943), wk =   0.0185185
        k(   19) = (   0.1666667   0.0962250   0.4213885), wk =   0.0185185
        k(   20) = (   0.1666667   0.0962250  -0.6320828), wk =   0.0185185
        k(   21) = (   0.1666667   0.4811252   0.0000000), wk =   0.0370370
        k(   22) = (   0.1666667   0.4811252   0.2106943), wk =   0.0370370
        k(   23) = (   0.1666667   0.4811252   0.4213885), wk =   0.0370370
        k(   24) = (   0.1666667   0.4811252  -0.6320828), wk =   0.0370370
        k(   25) = (   0.1666667   0.8660254   0.0000000), wk =   0.0185185
        k(   26) = (   0.1666667   0.8660254   0.2106943), wk =   0.0370370
        k(   27) = (   0.1666667   0.8660254   0.4213885), wk =   0.0370370
        k(   28) = (   0.1666667   0.8660254  -0.6320828), wk =   0.0185185
        k(   29) = (   0.1666667  -1.0584755   0.0000000), wk =   0.0185185
        k(   30) = (   0.1666667  -1.0584755   0.2106943), wk =   0.0185185
        k(   31) = (   0.1666667  -1.0584755   0.4213885), wk =   0.0185185
        k(   32) = (   0.1666667  -1.0584755  -0.6320828), wk =   0.0185185
        k(   33) = (   0.1666667  -0.6735753   0.0000000), wk =   0.0370370
        k(   34) = (   0.1666667  -0.6735753   0.2106943), wk =   0.0370370
        k(   35) = (   0.1666667  -0.6735753   0.4213885), wk =   0.0370370
        k(   36) = (   0.1666667  -0.6735753  -0.6320828), wk =   0.0370370
        k(   37) = (   0.1666667  -0.2886751   0.0000000), wk =   0.0185185
        k(   38) = (   0.1666667  -0.2886751   0.2106943), wk =   0.0370370
        k(   39) = (   0.1666667  -0.2886751   0.4213885), wk =   0.0370370
        k(   40) = (   0.1666667  -0.2886751  -0.6320828), wk =   0.0185185
        k(   41) = (   0.3333333   0.1924501   0.0000000), wk =   0.0185185
        k(   42) = (   0.3333333   0.1924501   0.2106943), wk =   0.0185185
        k(   43) = (   0.3333333   0.1924501   0.4213885), wk =   0.0185185
        k(   44) = (   0.3333333   0.1924501  -0.6320828), wk =   0.0185185
        k(   45) = (   0.3333333   0.5773503   0.0000000), wk =   0.0185185
        k(   46) = (   0.3333333   0.5773503   0.2106943), wk =   0.0370370
        k(   47) = (   0.3333333   0.5773503   0.4213885), wk =   0.0370370
        k(   48) = (   0.3333333   0.5773503  -0.6320828), wk =   0.0185185
        k(   49) = (   0.3333333  -0.9622504   0.0000000), wk =   0.0185185
        k(   50) = (   0.3333333  -0.9622504   0.2106943), wk =   0.0185185
        k(   51) = (   0.3333333  -0.9622504   0.4213885), wk =   0.0185185
        k(   52) = (   0.3333333  -0.9622504  -0.6320828), wk =   0.0185185
        k(   53) = (   0.3333333  -0.5773503   0.0000000), wk =   0.0185185
        k(   54) = (   0.3333333  -0.5773503   0.2106943), wk =   0.0370370
        k(   55) = (   0.3333333  -0.5773503   0.4213885), wk =   0.0370370
        k(   56) = (   0.3333333  -0.5773503  -0.6320828), wk =   0.0185185
        k(   57) = (  -0.5000000  -0.2886751   0.0000000), wk =   0.0092593
        k(   58) = (  -0.5000000  -0.2886751   0.2106943), wk =   0.0185185
        k(   59) = (  -0.5000000  -0.2886751   0.4213885), wk =   0.0185185
        k(   60) = (  -0.5000000  -0.2886751  -0.6320828), wk =   0.0092593
[...]
        k(   66) = (   0.3333333  -0.1924501  -0.4213885), wk =   0.0370370
        k(   67) = (   0.6666667  -0.3849002  -0.2106943), wk =   0.0370370
        k(   68) = (   0.6666667  -0.3849002  -0.4213885), wk =   0.0370370
        k(   69) = (   0.1666667   0.0962250  -0.2106943), wk =   0.0185185
        k(   70) = (   0.1666667   0.0962250  -0.4213885), wk =   0.0185185
        k(   71) = (   0.5000000  -0.0962250  -0.2106943), wk =   0.0370370
        k(   72) = (   0.5000000  -0.0962250  -0.4213885), wk =   0.0370370
        k(   73) = (  -0.8333333   0.6735753  -0.2106943), wk =   0.0185185
        k(   74) = (  -0.8333333   0.6735753  -0.4213885), wk =   0.0185185
        k(   75) = (  -0.5000000   0.4811252  -0.2106943), wk =   0.0370370
        k(   76) = (  -0.5000000   0.4811252  -0.4213885), wk =   0.0370370
        k(   77) = (   0.3333333   0.1924501  -0.2106943), wk =   0.0185185
        k(   78) = (   0.3333333   0.1924501  -0.4213885), wk =   0.0185185
        k(   79) = (  -0.6666667   0.7698004  -0.2106943), wk =   0.0185185
        k(   80) = (  -0.6666667   0.7698004  -0.4213885), wk =   0.0185185

     Check: negative core charge=   -0.000002

     Initial potential from superposition of free atoms

     starting charge      71.9851, renormalised to      72.0000
     Starting wfcs are   52 randomized atomic wfcs

     Self-consistent Calculation

     iteration #  1     ecut=    50.00 Ry     beta= 0.30
     Davidson diagonalization with overlap
     ethr =  1.00E-02,  avg # of iterations =  1.4

     total energy              =    -722.79229096 Ry
     estimated scf accuracy    <       1.58908674 Ry

[...]

     iteration # 40     ecut=    50.00 Ry     beta= 0.30
     Davidson diagonalization with overlap
     c_bands:  1 eigenvalues not converged
     ethr =  2.20E-08,  avg # of iterations = 13.2

[...]

     total energy              =    -723.17267262 Ry
     estimated scf accuracy    <       0.00000008 Ry

     iteration # 48     ecut=    50.00 Ry     beta= 0.30
     Davidson diagonalization with overlap
     ethr =  8.33E-11,  avg # of iterations =  5.2

     End of self-consistent calculation

          k = 0.0000 0.0000 0.0000 (  4851 PWs)   bands (ev):

   -12.3396 -11.9440 -11.9026 -11.8085  -0.7637  -0.7475  -0.7473  -0.7015
    -0.6295  -0.6294  -0.5857  -0.4809  -0.3338  -0.2722  -0.2266  -0.1502
    -0.1502  -0.0851  -0.0669  -0.0523  -0.0246  -0.0245   0.0014   0.0439
     0.4394   0.8213   1.3210   2.0730   2.5846   3.2739   3.5835   3.5888
     3.5893   4.1537   4.1542   4.1565

[...]

          k =-0.5000-0.2887 0.0000 (  4886 PWs)   bands (ev):

[...]

          k = 0.3333 0.1925-0.4214 (  4893 PWs)   bands (ev):

[...]

          k =-0.6667 0.7698-0.4214 (  4842 PWs)   bands (ev):

   -11.9092 -11.9091 -11.8385 -11.8384  -0.7326  -0.7326  -0.6414  -0.6414
    -0.5318  -0.5318  -0.3965  -0.3965  -0.3605  -0.3605  -0.3438  -0.3438
    -0.0883  -0.0883  -0.0591  -0.0591   0.0238   0.0238   0.0940   0.0940
     0.9820   0.9820   1.2214   1.2214   2.3792   2.3792   2.9008   2.9009
     3.0302   3.0303   3.4827   3.4827

     highest occupied level (ev):     4.1565

!    total energy              =    -723.17267264 Ry
     estimated scf accuracy    <          6.4E-09 Ry

     The total energy is the sum of the following terms:
     one-electron contribution =    -356.18202934 Ry
     hartree contribution      =     253.70710837 Ry
     xc contribution           =    -218.32513579 Ry
     ewald contribution        =    -402.37261588 Ry

     convergence has been achieved in  48 iterations

     Forces acting on atoms (cartesian axes, Ry/au):

     atom    1 type  1   force =    -0.00000607   -0.00000350   -0.00188295
     atom    2 type  2   force =    -0.00000521   -0.00000301    0.00188143
     atom    3 type  1   force =    -0.00000455   -0.00000262   -0.00187795
     atom    4 type  2   force =     0.00000500    0.00000289    0.00188088
     atom    5 type  1   force =     0.00001426    0.00000824   -0.00188027
     atom    6 type  2   force =    -0.00000501   -0.00000289    0.00188138
     atom    7 type  1   force =    -0.00000381   -0.00000220   -0.00188350
     atom    8 type  2   force =     0.00000538    0.00000311    0.00188098
     The non-local contrib.  to forces
     atom    1 type  1   force =    -0.00001158   -0.00000668    0.03696428
     atom    2 type  2   force =    -0.00019272   -0.00011127    0.02439591
     atom    3 type  1   force =     0.00000600    0.00000346    0.03696838
     atom    4 type  2   force =     0.00019416    0.00011210    0.02439214
     atom    5 type  1   force =    -0.00000227   -0.00000131    0.03696624
     atom    6 type  2   force =    -0.00019246   -0.00011112    0.02439459
     atom    7 type  1   force =     0.00000824    0.00000476    0.03696728
     atom    8 type  2   force =     0.00019106    0.00011031    0.02439278
     The ionic contribution  to forces
     atom    1 type  1   force =     0.00000000    0.00000000    0.17469596
     atom    2 type  2   force =    -0.00000000   -0.00000000   -0.17469596
     atom    3 type  1   force =    -0.00000000   -0.00000000    0.17469596
     atom    4 type  2   force =     0.00000000    0.00000000   -0.17469596
     atom    5 type  1   force =     0.00000000    0.00000000    0.17469596
     atom    6 type  2   force =    -0.00000000   -0.00000000   -0.17469596
     atom    7 type  1   force =    -0.00000000   -0.00000000    0.17469596
     atom    8 type  2   force =     0.00000000    0.00000000   -0.17469596
     The local contribution  to forces
     atom    1 type  1   force =     0.00002076    0.00001199   -0.21146232
     atom    2 type  2   force =     0.00018763    0.00010833    0.15238113
     atom    3 type  1   force =    -0.00000198   -0.00000114   -0.21147336
     atom    4 type  2   force =    -0.00018224   -0.00010521    0.15238270
     atom    5 type  1   force =    -0.00001259   -0.00000727   -0.21146781
     atom    6 type  2   force =     0.00018245    0.00010534    0.15238528
     atom    7 type  1   force =    -0.00000615   -0.00000355   -0.21146322
     atom    8 type  2   force =    -0.00018769   -0.00010836    0.15238299
     The core correction contribution to forces
     atom    1 type  1   force =     0.00000537    0.00000310   -0.00207751
     atom    2 type  2   force =     0.00000217    0.00000126   -0.00020081
     atom    3 type  1   force =    -0.00000572   -0.00000330   -0.00207734
     atom    4 type  2   force =    -0.00000218   -0.00000126   -0.00020075
     atom    5 type  1   force =     0.00000606    0.00000350   -0.00207741
     atom    6 type  2   force =     0.00000217    0.00000125   -0.00020078
     atom    7 type  1   force =    -0.00000570   -0.00000329   -0.00207777
     atom    8 type  2   force =    -0.00000216   -0.00000124   -0.00020076
     The Hubbard contrib.    to forces
     atom    1 type  1   force =     0.00000000    0.00000000    0.00000000
     atom    2 type  2   force =     0.00000000    0.00000000    0.00000000
     atom    3 type  1   force =     0.00000000    0.00000000    0.00000000
     atom    4 type  2   force =     0.00000000    0.00000000    0.00000000
     atom    5 type  1   force =     0.00000000    0.00000000    0.00000000
     atom    6 type  2   force =     0.00000000    0.00000000    0.00000000
     atom    7 type  1   force =     0.00000000    0.00000000    0.00000000
     atom    8 type  2   force =     0.00000000    0.00000000    0.00000000
     The SCF correction term to forces
     atom    1 type  1   force =    -0.00002072   -0.00001196   -0.00000374
     atom    2 type  2   force =    -0.00000238   -0.00000138    0.00000077
     atom    3 type  1   force =    -0.00000294   -0.00000170    0.00000802
     atom    4 type  2   force =    -0.00000484   -0.00000280    0.00000236
     atom    5 type  1   force =     0.00002297    0.00001326    0.00000236
     atom    6 type  2   force =     0.00000273    0.00000158   -0.00000214
     atom    7 type  1   force =    -0.00000030   -0.00000018   -0.00000615
     atom    8 type  2   force =     0.00000407    0.00000235    0.00000154

     Total force =     0.005321     Total SCF correction =     0.000039

     Writing all to output data dir ./ZnO-3.53-1.58-211.in.save/

     General routines

     Parallel routines

   This run was terminated on:  18: 7: 4  12Jul2025

   JOB DONE.
Note: The following floating-point exceptions are signalling: IEEE_INVALID_FLAG
Note: The following floating-point exceptions are signalling: IEEE_INVALID_FLAG