     Program PWSCF v.7.2 starts on 12Jul2025 at 19: 6:34

     Reading input from /home/jvc/QEspresso7.2/ZnO_database/scripts/cell211_strain10%.in/ZnO-3.60-1.68-211.in
Warning: card &CELL ignored
Warning: card / ignored
Warning: card &FCP ignored
Warning: card / ignored
Warning: card &RISM ignored
Warning: card / ignored

     Current dimensions of program PWSCF are:
     Max number of different atomic species (ntypx) = 10
     Max number of k-points (npk) =  40000
     Max angular momentum in pseudopotentials (lmaxx) =  4
     file Zn.upf: wavefunction(s)  3D renormalized
     Found identity + ( -0.5000  0.0000  0.0000) symmetry
     This is a supercell, fractional translations are disabled
     Message from routine setup:
     using ibrav=0 with symmetry is DISCOURAGED, use correct ibrav instead

     K-points division:     npool     =       2
     R & G space division:  proc/nbgrp/npool/nimage =       8
     Subspace diagonalization in iterative solution of the eigenvalue problem:
     a serial algorithm will be used

     Using Slab Decomposition

     bravais-lattice index     =            0
     lattice parameter (alat)  =      13.5935  a.u.
     unit-cell volume          =     913.0525 (a.u.)^3
     number of atoms/cell      =            8
     number of atomic types    =            2
     number of electrons       =        72.00
     number of Kohn-Sham states=           36
     kinetic-energy cutoff     =      50.0000  Ry
     charge density cutoff     =     400.0000  Ry
     scf convergence threshold =      1.0E-08
     mixing beta               =       0.3000
     number of iterations used =            8  plain     mixing
     Exchange-correlation= PBE
                           (   1   4   3   4   0   0   0)

     celldm(1)=  13.593479  celldm(2)=   0.000000  celldm(3)=   0.000000
     celldm(4)=   0.000000  celldm(5)=   0.000000  celldm(6)=   0.000000

     crystal axes: (cart. coord. in units of alat)
               a(1) = (   1.000000   0.000000   0.000000 )
               a(2) = (  -0.250000   0.433013   0.000000 )
               a(3) = (   0.000000   0.000000   0.839466 )

     reciprocal axes: (cart. coord. in units 2 pi/alat)
               b(1) = (  1.000000  0.577350 -0.000000 )
               b(2) = (  0.000000  2.309401  0.000000 )
               b(3) = (  0.000000 -0.000000  1.191233 )

     PseudoPot. # 1 for Zn read from file:
     /home/jvc/QEspresso7.2/ZnO_database/pseudos/Zn.upf
     MD5 check sum: 7f56cabf9682ed8c977c2f7d0c5985c5
     Pseudo is Ultrasoft + core correction, Zval = 12.0
     Generated using &quot;atomic&quot; code by A. Dal Corso  v.6.2.2
     Using radial grid of 1201 points,  6 beta functions with:
                l(1) =   0
                l(2) =   0
                l(3) =   1
                l(4) =   1
                l(5) =   2
                l(6) =   2
     Q(r) pseudized with 0 coefficients

     PseudoPot. # 2 for O  read from file:
     /home/jvc/QEspresso7.2/ZnO_database/pseudos/O.upf
     MD5 check sum: 91400c9766925bcf19f520983a725ff0
     Pseudo is Ultrasoft + core correction, Zval =  6.0
     Generated using &quot;atomic&quot; code by A. Dal Corso  v.6.3MaX
     Using radial grid of 1095 points,  4 beta functions with:
                l(1) =   0
                l(2) =   0
                l(3) =   1
                l(4) =   1
     Q(r) pseudized with 0 coefficients

     atomic species   valence    mass     pseudopotential
        Zn            12.00    65.38000     Zn( 1.00)
        O              6.00    15.99900     O ( 1.00)

      2 Sym. Ops. (no inversion) found

   Cartesian axes

     site n.     atom                  positions (alat units)
         1           Zn  tau(   1) = (   0.0000000   0.0000000   0.0000000  )
         2           O   tau(   2) = (   0.0000000   0.2886751   0.1105972  )
         3           Zn  tau(   3) = (   0.0000000   0.2886751   0.4197332  )
         4           O   tau(   4) = (   0.0000000   0.0000000   0.5303303  )
         5           Zn  tau(   5) = (   0.5000000   0.0000000   0.0000000  )
         6           O   tau(   6) = (   0.5000000   0.2886751   0.1105972  )
         7           Zn  tau(   7) = (   0.5000000   0.2886751   0.4197332  )
         8           O   tau(   8) = (   0.5000000   0.0000000   0.5303303  )

     number of k points=    80
                       cart. coord. in units 2pi/alat
        k(    1) = (   0.0000000   0.0000000   0.0000000), wk =   0.0092593
        k(    2) = (   0.0000000   0.0000000   0.1985388), wk =   0.0185185
        k(    3) = (   0.0000000   0.0000000   0.3970777), wk =   0.0185185
        k(    4) = (   0.0000000   0.0000000  -0.5956165), wk =   0.0092593
        k(    5) = (   0.0000000   0.3849002   0.0000000), wk =   0.0370370
        k(    6) = (   0.0000000   0.3849002   0.1985388), wk =   0.0370370
        k(    7) = (   0.0000000   0.3849002   0.3970777), wk =   0.0370370
        k(    8) = (   0.0000000   0.3849002  -0.5956165), wk =   0.0370370
        k(    9) = (   0.0000000   0.7698004   0.0000000), wk =   0.0370370
        k(   10) = (   0.0000000   0.7698004   0.1985388), wk =   0.0370370
        k(   11) = (   0.0000000   0.7698004   0.3970777), wk =   0.0370370
        k(   12) = (   0.0000000   0.7698004  -0.5956165), wk =   0.0370370
        k(   13) = (   0.0000000  -1.1547005   0.0000000), wk =   0.0092593
        k(   14) = (   0.0000000  -1.1547005   0.1985388), wk =   0.0185185
        k(   15) = (   0.0000000  -1.1547005   0.3970777), wk =   0.0185185
        k(   16) = (   0.0000000  -1.1547005  -0.5956165), wk =   0.0092593
        k(   17) = (   0.1666667   0.0962250   0.0000000), wk =   0.0185185
        k(   18) = (   0.1666667   0.0962250   0.1985388), wk =   0.0185185
        k(   19) = (   0.1666667   0.0962250   0.3970777), wk =   0.0185185
        k(   20) = (   0.1666667   0.0962250  -0.5956165), wk =   0.0185185
        k(   21) = (   0.1666667   0.4811252   0.0000000), wk =   0.0370370
        k(   22) = (   0.1666667   0.4811252   0.1985388), wk =   0.0370370
        k(   23) = (   0.1666667   0.4811252   0.3970777), wk =   0.0370370
        k(   24) = (   0.1666667   0.4811252  -0.5956165), wk =   0.0370370
        k(   25) = (   0.1666667   0.8660254   0.0000000), wk =   0.0185185
        k(   26) = (   0.1666667   0.8660254   0.1985388), wk =   0.0370370
        k(   27) = (   0.1666667   0.8660254   0.3970777), wk =   0.0370370
        k(   28) = (   0.1666667   0.8660254  -0.5956165), wk =   0.0185185
        k(   29) = (   0.1666667  -1.0584755   0.0000000), wk =   0.0185185
        k(   30) = (   0.1666667  -1.0584755   0.1985388), wk =   0.0185185
        k(   31) = (   0.1666667  -1.0584755   0.3970777), wk =   0.0185185
        k(   32) = (   0.1666667  -1.0584755  -0.5956165), wk =   0.0185185
        k(   33) = (   0.1666667  -0.6735753   0.0000000), wk =   0.0370370
        k(   34) = (   0.1666667  -0.6735753   0.1985388), wk =   0.0370370
        k(   35) = (   0.1666667  -0.6735753   0.3970777), wk =   0.0370370
        k(   36) = (   0.1666667  -0.6735753  -0.5956165), wk =   0.0370370
        k(   37) = (   0.1666667  -0.2886751   0.0000000), wk =   0.0185185
        k(   38) = (   0.1666667  -0.2886751   0.1985388), wk =   0.0370370
        k(   39) = (   0.1666667  -0.2886751   0.3970777), wk =   0.0370370
        k(   40) = (   0.1666667  -0.2886751  -0.5956165), wk =   0.0185185
        k(   41) = (   0.3333333   0.1924501   0.0000000), wk =   0.0185185
        k(   42) = (   0.3333333   0.1924501   0.1985388), wk =   0.0185185
        k(   43) = (   0.3333333   0.1924501   0.3970777), wk =   0.0185185
        k(   44) = (   0.3333333   0.1924501  -0.5956165), wk =   0.0185185
        k(   45) = (   0.3333333   0.5773503   0.0000000), wk =   0.0185185
        k(   46) = (   0.3333333   0.5773503   0.1985388), wk =   0.0370370
        k(   47) = (   0.3333333   0.5773503   0.3970777), wk =   0.0370370
        k(   48) = (   0.3333333   0.5773503  -0.5956165), wk =   0.0185185
        k(   49) = (   0.3333333  -0.9622504   0.0000000), wk =   0.0185185
        k(   50) = (   0.3333333  -0.9622504   0.1985388), wk =   0.0185185
        k(   51) = (   0.3333333  -0.9622504   0.3970777), wk =   0.0185185
        k(   52) = (   0.3333333  -0.9622504  -0.5956165), wk =   0.0185185
        k(   53) = (   0.3333333  -0.5773503   0.0000000), wk =   0.0185185
        k(   54) = (   0.3333333  -0.5773503   0.1985388), wk =   0.0370370
        k(   55) = (   0.3333333  -0.5773503   0.3970777), wk =   0.0370370
        k(   56) = (   0.3333333  -0.5773503  -0.5956165), wk =   0.0185185
        k(   57) = (  -0.5000000  -0.2886751   0.0000000), wk =   0.0092593
        k(   58) = (  -0.5000000  -0.2886751   0.1985388), wk =   0.0185185
        k(   59) = (  -0.5000000  -0.2886751   0.3970777), wk =   0.0185185
        k(   60) = (  -0.5000000  -0.2886751  -0.5956165), wk =   0.0092593
[...]
        k(   66) = (   0.3333333  -0.1924501  -0.3970777), wk =   0.0370370
        k(   67) = (   0.6666667  -0.3849002  -0.1985388), wk =   0.0370370
        k(   68) = (   0.6666667  -0.3849002  -0.3970777), wk =   0.0370370
        k(   69) = (   0.1666667   0.0962250  -0.1985388), wk =   0.0185185
        k(   70) = (   0.1666667   0.0962250  -0.3970777), wk =   0.0185185
        k(   71) = (   0.5000000  -0.0962250  -0.1985388), wk =   0.0370370
        k(   72) = (   0.5000000  -0.0962250  -0.3970777), wk =   0.0370370
        k(   73) = (  -0.8333333   0.6735753  -0.1985388), wk =   0.0185185
        k(   74) = (  -0.8333333   0.6735753  -0.3970777), wk =   0.0185185
        k(   75) = (  -0.5000000   0.4811252  -0.1985388), wk =   0.0370370
        k(   76) = (  -0.5000000   0.4811252  -0.3970777), wk =   0.0370370
        k(   77) = (   0.3333333   0.1924501  -0.1985388), wk =   0.0185185
        k(   78) = (   0.3333333   0.1924501  -0.3970777), wk =   0.0185185
        k(   79) = (  -0.6666667   0.7698004  -0.1985388), wk =   0.0185185
        k(   80) = (  -0.6666667   0.7698004  -0.3970777), wk =   0.0185185

     Check: negative core charge=   -0.000002

     Initial potential from superposition of free atoms

     starting charge      71.9851, renormalised to      72.0000
     Starting wfcs are   52 randomized atomic wfcs

     Self-consistent Calculation

     iteration #  1     ecut=    50.00 Ry     beta= 0.30
     Davidson diagonalization with overlap
     ethr =  1.00E-02,  avg # of iterations =  1.1

     total energy              =    -722.61158698 Ry
     estimated scf accuracy    <       1.77142214 Ry

[...]

     iteration # 21     ecut=    50.00 Ry     beta= 0.30
     Davidson diagonalization with overlap
     c_bands:  1 eigenvalues not converged
     ethr =  1.64E-08,  avg # of iterations = 10.1

[...]

     iteration # 26     ecut=    50.00 Ry     beta= 0.30
     Davidson diagonalization with overlap
     c_bands:  1 eigenvalues not converged
     ethr =  6.98E-10,  avg # of iterations =  7.2

[...]

     total energy              =    -723.04435130 Ry
     estimated scf accuracy    <       0.00000002 Ry

     iteration # 32     ecut=    50.00 Ry     beta= 0.30
     Davidson diagonalization with overlap
     ethr =  2.11E-11,  avg # of iterations =  2.2

     End of self-consistent calculation

          k = 0.0000 0.0000 0.0000 (  5441 PWs)   bands (ev):

   -12.9939 -12.7034 -12.6865 -12.5973  -1.8453  -1.8016  -1.8014  -1.7941
    -1.7104  -1.7103  -1.7048  -1.6148  -1.5745  -1.4682  -1.4224  -1.4049
    -1.4049  -1.3378  -1.3278  -1.3229  -1.3229  -1.3040  -1.2795  -1.2649
    -0.4726  -0.0491   0.4742   1.1276   1.8154   2.1393   2.5782   2.5790
     2.5791   2.8914   3.0112   3.0121

[...]

          k =-0.5000-0.2887 0.0000 (  5434 PWs)   bands (ev):

[...]

          k = 0.3333 0.1925-0.3971 (  5452 PWs)   bands (ev):

[...]

          k =-0.6667 0.7698-0.3971 (  5450 PWs)   bands (ev):

   -12.6646 -12.6646 -12.6182 -12.6181  -1.7645  -1.7645  -1.7098  -1.7098
    -1.6496  -1.6496  -1.5474  -1.5474  -1.5125  -1.5125  -1.4886  -1.4886
    -1.3711  -1.3711  -1.3433  -1.3433  -1.2750  -1.2750  -1.2285  -1.2285
     0.1140   0.1140   0.3166   0.3166   1.5442   1.5443   1.8556   1.8557
     2.0653   2.0654   2.2989   2.2990

     highest occupied level (ev):     3.0121

!    total energy              =    -723.04435130 Ry
     estimated scf accuracy    <          4.4E-09 Ry

     The total energy is the sum of the following terms:
     one-electron contribution =    -380.05434054 Ry
     hartree contribution      =     262.56277640 Ry
     xc contribution           =    -217.97117420 Ry
     ewald contribution        =    -387.58161296 Ry

     convergence has been achieved in  32 iterations

     Forces acting on atoms (cartesian axes, Ry/au):

     atom    1 type  1   force =     0.00000874    0.00000505    0.00694452
     atom    2 type  2   force =    -0.00000641   -0.00000370   -0.00694542
     atom    3 type  1   force =    -0.00000761   -0.00000439    0.00693795
     atom    4 type  2   force =     0.00000744    0.00000429   -0.00694005
     atom    5 type  1   force =     0.00000402    0.00000232    0.00694623
     atom    6 type  2   force =    -0.00000791   -0.00000457   -0.00694457
     atom    7 type  1   force =    -0.00000543   -0.00000314    0.00694230
     atom    8 type  2   force =     0.00000717    0.00000414   -0.00694096
     The non-local contrib.  to forces
     atom    1 type  1   force =    -0.00003090   -0.00001784   -0.04211802
     atom    2 type  2   force =    -0.00021817   -0.00012596   -0.04762813
     atom    3 type  1   force =     0.00002814    0.00001624   -0.04212738
     atom    4 type  2   force =     0.00021695    0.00012525   -0.04763139
     atom    5 type  1   force =    -0.00003118   -0.00001800   -0.04211877
     atom    6 type  2   force =    -0.00022094   -0.00012756   -0.04762581
     atom    7 type  1   force =     0.00003421    0.00001975   -0.04212797
     atom    8 type  2   force =     0.00022026    0.00012717   -0.04762904
     The ionic contribution  to forces
     atom    1 type  1   force =     0.00000000    0.00000000   -0.38079705
     atom    2 type  2   force =    -0.00000000   -0.00000000    0.38079705
     atom    3 type  1   force =    -0.00000000   -0.00000000   -0.38079705
     atom    4 type  2   force =     0.00000000    0.00000000    0.38079705
     atom    5 type  1   force =     0.00000000    0.00000000   -0.38079705
     atom    6 type  2   force =    -0.00000000   -0.00000000    0.38079705
     atom    7 type  1   force =    -0.00000000   -0.00000000   -0.38079705
     atom    8 type  2   force =     0.00000000    0.00000000    0.38079705
     The local contribution  to forces
     atom    1 type  1   force =     0.00002869    0.00001656    0.42803435
     atom    2 type  2   force =     0.00021161    0.00012217   -0.34056137
     atom    3 type  1   force =    -0.00002580   -0.00001489    0.42805387
     atom    4 type  2   force =    -0.00020652   -0.00011923   -0.34055390
     atom    5 type  1   force =     0.00003532    0.00002039    0.42803359
     atom    6 type  2   force =     0.00020997    0.00012122   -0.34056357
     atom    7 type  1   force =    -0.00003832   -0.00002212    0.42805099
     atom    8 type  2   force =    -0.00021040   -0.00012148   -0.34055684
     The core correction contribution to forces
     atom    1 type  1   force =     0.00000636    0.00000367    0.00182382
     atom    2 type  2   force =     0.00000247    0.00000143    0.00044769
     atom    3 type  1   force =    -0.00000638   -0.00000368    0.00182367
     atom    4 type  2   force =    -0.00000244   -0.00000141    0.00044838
     atom    5 type  1   force =     0.00000602    0.00000348    0.00182399
     atom    6 type  2   force =     0.00000250    0.00000144    0.00044766
     atom    7 type  1   force =    -0.00000601   -0.00000347    0.00182377
     atom    8 type  2   force =    -0.00000249   -0.00000144    0.00044835
     The Hubbard contrib.    to forces
     atom    1 type  1   force =     0.00000000    0.00000000    0.00000000
     atom    2 type  2   force =     0.00000000    0.00000000    0.00000000
     atom    3 type  1   force =     0.00000000    0.00000000    0.00000000
     atom    4 type  2   force =     0.00000000    0.00000000    0.00000000
     atom    5 type  1   force =     0.00000000    0.00000000    0.00000000
     atom    6 type  2   force =     0.00000000    0.00000000    0.00000000
     atom    7 type  1   force =     0.00000000    0.00000000    0.00000000
     atom    8 type  2   force =     0.00000000    0.00000000    0.00000000
     The SCF correction term to forces
     atom    1 type  1   force =     0.00000447    0.00000258   -0.00000063
     atom    2 type  2   force =    -0.00000245   -0.00000141   -0.00000271
     atom    3 type  1   force =    -0.00000369   -0.00000213   -0.00001721
     atom    4 type  2   force =    -0.00000067   -0.00000039   -0.00000223
     atom    5 type  1   force =    -0.00000627   -0.00000362    0.00000242
     atom    6 type  2   force =     0.00000044    0.00000026   -0.00000194
     atom    7 type  1   force =     0.00000456    0.00000263   -0.00000949
     atom    8 type  2   force =    -0.00000032   -0.00000018   -0.00000251

     Total force =     0.019637     Total SCF correction =     0.000023

     Writing all to output data dir ./ZnO-3.60-1.68-211.in.save/

     General routines

     Parallel routines

   This run was terminated on:  19:10:48  12Jul2025

   JOB DONE.
Note: The following floating-point exceptions are signalling: IEEE_INVALID_FLAG
Note: The following floating-point exceptions are signalling: IEEE_INVALID_FLAG