     Program PWSCF v.7.2 starts on 12Jul2025 at 13:22: 8

     Reading input from /home/jvc/QEspresso7.2/ZnO_database/scripts/cell211_strain10%.in/ZnO-3.14-1.52-211.in
Warning: card &CELL ignored
Warning: card / ignored
Warning: card &FCP ignored
Warning: card / ignored
Warning: card &RISM ignored
Warning: card / ignored

     Current dimensions of program PWSCF are:
     Max number of different atomic species (ntypx) = 10
     Max number of k-points (npk) =  40000
     Max angular momentum in pseudopotentials (lmaxx) =  4
     file Zn.upf: wavefunction(s)  3D renormalized
     Found identity + ( -0.5000  0.0000  0.0000) symmetry
     This is a supercell, fractional translations are disabled
     Message from routine setup:
     using ibrav=0 with symmetry is DISCOURAGED, use correct ibrav instead

     K-points division:     npool     =       2
     R & G space division:  proc/nbgrp/npool/nimage =       8
     Subspace diagonalization in iterative solution of the eigenvalue problem:
     a serial algorithm will be used

     Using Slab Decomposition

     bravais-lattice index     =            0
     lattice parameter (alat)  =      11.8634  a.u.
     unit-cell volume          =     548.5623 (a.u.)^3
     number of atoms/cell      =            8
     number of atomic types    =            2
     number of electrons       =        72.00
     number of Kohn-Sham states=           36
     kinetic-energy cutoff     =      50.0000  Ry
     charge density cutoff     =     400.0000  Ry
     scf convergence threshold =      1.0E-08
     mixing beta               =       0.3000
     number of iterations used =            8  plain     mixing
     Exchange-correlation= PBE
                           (   1   4   3   4   0   0   0)

     celldm(1)=  11.863400  celldm(2)=   0.000000  celldm(3)=   0.000000
     celldm(4)=   0.000000  celldm(5)=   0.000000  celldm(6)=   0.000000

     crystal axes: (cart. coord. in units of alat)
               a(1) = (   1.000000   0.000000   0.000000 )
               a(2) = (  -0.250000   0.433013   0.000000 )
               a(3) = (   0.000000   0.000000   0.758748 )

     reciprocal axes: (cart. coord. in units 2 pi/alat)
               b(1) = (  1.000000  0.577350 -0.000000 )
               b(2) = (  0.000000  2.309401  0.000000 )
               b(3) = (  0.000000 -0.000000  1.317960 )

     PseudoPot. # 1 for Zn read from file:
     /home/jvc/QEspresso7.2/ZnO_database/pseudos/Zn.upf
     MD5 check sum: 7f56cabf9682ed8c977c2f7d0c5985c5
     Pseudo is Ultrasoft + core correction, Zval = 12.0
     Generated using &quot;atomic&quot; code by A. Dal Corso  v.6.2.2
     Using radial grid of 1201 points,  6 beta functions with:
                l(1) =   0
                l(2) =   0
                l(3) =   1
                l(4) =   1
                l(5) =   2
                l(6) =   2
     Q(r) pseudized with 0 coefficients

     PseudoPot. # 2 for O  read from file:
     /home/jvc/QEspresso7.2/ZnO_database/pseudos/O.upf
     MD5 check sum: 91400c9766925bcf19f520983a725ff0
     Pseudo is Ultrasoft + core correction, Zval =  6.0
     Generated using &quot;atomic&quot; code by A. Dal Corso  v.6.3MaX
     Using radial grid of 1095 points,  4 beta functions with:
                l(1) =   0
                l(2) =   0
                l(3) =   1
                l(4) =   1
     Q(r) pseudized with 0 coefficients

     atomic species   valence    mass     pseudopotential
        Zn            12.00    65.38000     Zn( 1.00)
        O              6.00    15.99900     O ( 1.00)

      2 Sym. Ops. (no inversion) found

   Cartesian axes

     site n.     atom                  positions (alat units)
         1           Zn  tau(   1) = (   0.0000000   0.0000000   0.0000000  )
         2           O   tau(   2) = (   0.0000000   0.2886751   0.0798571  )
         3           Zn  tau(   3) = (   0.0000000   0.2886751   0.3793742  )
         4           O   tau(   4) = (   0.0000000   0.0000000   0.4592313  )
         5           Zn  tau(   5) = (   0.5000000   0.0000000   0.0000000  )
         6           O   tau(   6) = (   0.5000000   0.2886751   0.0798571  )
         7           Zn  tau(   7) = (   0.5000000   0.2886751   0.3793742  )
         8           O   tau(   8) = (   0.5000000   0.0000000   0.4592313  )

     number of k points=    80
                       cart. coord. in units 2pi/alat
        k(    1) = (   0.0000000   0.0000000   0.0000000), wk =   0.0092593
        k(    2) = (   0.0000000   0.0000000   0.2196600), wk =   0.0185185
        k(    3) = (   0.0000000   0.0000000   0.4393200), wk =   0.0185185
        k(    4) = (   0.0000000   0.0000000  -0.6589799), wk =   0.0092593
        k(    5) = (   0.0000000   0.3849002   0.0000000), wk =   0.0370370
        k(    6) = (   0.0000000   0.3849002   0.2196600), wk =   0.0370370
        k(    7) = (   0.0000000   0.3849002   0.4393200), wk =   0.0370370
        k(    8) = (   0.0000000   0.3849002  -0.6589799), wk =   0.0370370
        k(    9) = (   0.0000000   0.7698004   0.0000000), wk =   0.0370370
        k(   10) = (   0.0000000   0.7698004   0.2196600), wk =   0.0370370
        k(   11) = (   0.0000000   0.7698004   0.4393200), wk =   0.0370370
        k(   12) = (   0.0000000   0.7698004  -0.6589799), wk =   0.0370370
        k(   13) = (   0.0000000  -1.1547005   0.0000000), wk =   0.0092593
        k(   14) = (   0.0000000  -1.1547005   0.2196600), wk =   0.0185185
        k(   15) = (   0.0000000  -1.1547005   0.4393200), wk =   0.0185185
        k(   16) = (   0.0000000  -1.1547005  -0.6589799), wk =   0.0092593
        k(   17) = (   0.1666667   0.0962250   0.0000000), wk =   0.0185185
        k(   18) = (   0.1666667   0.0962250   0.2196600), wk =   0.0185185
        k(   19) = (   0.1666667   0.0962250   0.4393200), wk =   0.0185185
        k(   20) = (   0.1666667   0.0962250  -0.6589799), wk =   0.0185185
        k(   21) = (   0.1666667   0.4811252   0.0000000), wk =   0.0370370
        k(   22) = (   0.1666667   0.4811252   0.2196600), wk =   0.0370370
        k(   23) = (   0.1666667   0.4811252   0.4393200), wk =   0.0370370
        k(   24) = (   0.1666667   0.4811252  -0.6589799), wk =   0.0370370
        k(   25) = (   0.1666667   0.8660254   0.0000000), wk =   0.0185185
        k(   26) = (   0.1666667   0.8660254   0.2196600), wk =   0.0370370
        k(   27) = (   0.1666667   0.8660254   0.4393200), wk =   0.0370370
        k(   28) = (   0.1666667   0.8660254  -0.6589799), wk =   0.0185185
        k(   29) = (   0.1666667  -1.0584755   0.0000000), wk =   0.0185185
        k(   30) = (   0.1666667  -1.0584755   0.2196600), wk =   0.0185185
        k(   31) = (   0.1666667  -1.0584755   0.4393200), wk =   0.0185185
        k(   32) = (   0.1666667  -1.0584755  -0.6589799), wk =   0.0185185
        k(   33) = (   0.1666667  -0.6735753   0.0000000), wk =   0.0370370
        k(   34) = (   0.1666667  -0.6735753   0.2196600), wk =   0.0370370
        k(   35) = (   0.1666667  -0.6735753   0.4393200), wk =   0.0370370
        k(   36) = (   0.1666667  -0.6735753  -0.6589799), wk =   0.0370370
        k(   37) = (   0.1666667  -0.2886751   0.0000000), wk =   0.0185185
        k(   38) = (   0.1666667  -0.2886751   0.2196600), wk =   0.0370370
        k(   39) = (   0.1666667  -0.2886751   0.4393200), wk =   0.0370370
        k(   40) = (   0.1666667  -0.2886751  -0.6589799), wk =   0.0185185
        k(   41) = (   0.3333333   0.1924501   0.0000000), wk =   0.0185185
        k(   42) = (   0.3333333   0.1924501   0.2196600), wk =   0.0185185
        k(   43) = (   0.3333333   0.1924501   0.4393200), wk =   0.0185185
        k(   44) = (   0.3333333   0.1924501  -0.6589799), wk =   0.0185185
        k(   45) = (   0.3333333   0.5773503   0.0000000), wk =   0.0185185
        k(   46) = (   0.3333333   0.5773503   0.2196600), wk =   0.0370370
        k(   47) = (   0.3333333   0.5773503   0.4393200), wk =   0.0370370
        k(   48) = (   0.3333333   0.5773503  -0.6589799), wk =   0.0185185
        k(   49) = (   0.3333333  -0.9622504   0.0000000), wk =   0.0185185
        k(   50) = (   0.3333333  -0.9622504   0.2196600), wk =   0.0185185
        k(   51) = (   0.3333333  -0.9622504   0.4393200), wk =   0.0185185
        k(   52) = (   0.3333333  -0.9622504  -0.6589799), wk =   0.0185185
        k(   53) = (   0.3333333  -0.5773503   0.0000000), wk =   0.0185185
        k(   54) = (   0.3333333  -0.5773503   0.2196600), wk =   0.0370370
        k(   55) = (   0.3333333  -0.5773503   0.4393200), wk =   0.0370370
        k(   56) = (   0.3333333  -0.5773503  -0.6589799), wk =   0.0185185
        k(   57) = (  -0.5000000  -0.2886751   0.0000000), wk =   0.0092593
        k(   58) = (  -0.5000000  -0.2886751   0.2196600), wk =   0.0185185
        k(   59) = (  -0.5000000  -0.2886751   0.4393200), wk =   0.0185185
        k(   60) = (  -0.5000000  -0.2886751  -0.6589799), wk =   0.0092593
[...]
        k(   66) = (   0.3333333  -0.1924501  -0.4393200), wk =   0.0370370
        k(   67) = (   0.6666667  -0.3849002  -0.2196600), wk =   0.0370370
        k(   68) = (   0.6666667  -0.3849002  -0.4393200), wk =   0.0370370
        k(   69) = (   0.1666667   0.0962250  -0.2196600), wk =   0.0185185
        k(   70) = (   0.1666667   0.0962250  -0.4393200), wk =   0.0185185
        k(   71) = (   0.5000000  -0.0962250  -0.2196600), wk =   0.0370370
        k(   72) = (   0.5000000  -0.0962250  -0.4393200), wk =   0.0370370
        k(   73) = (  -0.8333333   0.6735753  -0.2196600), wk =   0.0185185
        k(   74) = (  -0.8333333   0.6735753  -0.4393200), wk =   0.0185185
        k(   75) = (  -0.5000000   0.4811252  -0.2196600), wk =   0.0370370
        k(   76) = (  -0.5000000   0.4811252  -0.4393200), wk =   0.0370370
        k(   77) = (   0.3333333   0.1924501  -0.2196600), wk =   0.0185185
        k(   78) = (   0.3333333   0.1924501  -0.4393200), wk =   0.0185185
        k(   79) = (  -0.6666667   0.7698004  -0.2196600), wk =   0.0185185
        k(   80) = (  -0.6666667   0.7698004  -0.4393200), wk =   0.0185185

     Check: negative core charge=   -0.000002

     Initial potential from superposition of free atoms

     starting charge      71.9851, renormalised to      72.0000
     Starting wfcs are   52 randomized atomic wfcs

     Self-consistent Calculation

     iteration #  1     ecut=    50.00 Ry     beta= 0.30
     Davidson diagonalization with overlap
     ethr =  1.00E-02,  avg # of iterations =  2.0

     total energy              =    -722.86269237 Ry
     estimated scf accuracy    <       1.34653607 Ry

[...]

     iteration # 12     ecut=    50.00 Ry     beta= 0.30
     Davidson diagonalization with overlap
     c_bands:  1 eigenvalues not converged
     c_bands:  1 eigenvalues not converged
     c_bands:  1 eigenvalues not converged
     c_bands:  1 eigenvalues not converged
     c_bands:  1 eigenvalues not converged
     c_bands:  3 eigenvalues not converged
     c_bands:  2 eigenvalues not converged
     c_bands:  1 eigenvalues not converged
     c_bands:  1 eigenvalues not converged
     c_bands:  2 eigenvalues not converged
     c_bands:  1 eigenvalues not converged
     c_bands:  1 eigenvalues not converged
     c_bands:  1 eigenvalues not converged
     ethr =  1.63E-08,  avg # of iterations = 17.9

[...]

     iteration # 18     ecut=    50.00 Ry     beta= 0.30
     Davidson diagonalization with overlap
     c_bands:  1 eigenvalues not converged
     ethr =  7.29E-11,  avg # of iterations = 10.5

[...]

     total energy              =    -723.14268572 Ry
     estimated scf accuracy    <       0.00000024 Ry

     iteration # 27     ecut=    50.00 Ry     beta= 0.30
     Davidson diagonalization with overlap
     ethr =  7.29E-11,  avg # of iterations =  7.0

     End of self-consistent calculation

          k = 0.0000 0.0000 0.0000 (  3303 PWs)   bands (ev):

    -9.6226  -8.7058  -8.5137  -8.3612   2.8948   2.8967   3.1139   3.2325
     3.2327   3.4172   3.4173   3.5887   3.6686   3.8619   4.2227   4.4150
     4.9474   4.9475   5.0532   5.1644   5.3014   5.3014   5.3614   5.3721
     5.6119   5.7093   6.0432   6.6615   6.9204   8.4355   8.6752   8.8616
     8.8618   9.6289   9.8553   9.8556

[...]

          k =-0.5000-0.2887 0.0000 (  3280 PWs)   bands (ev):

[...]

          k = 0.3333 0.1925-0.4393 (  3278 PWs)   bands (ev):

[...]

          k =-0.6667 0.7698-0.4393 (  3274 PWs)   bands (ev):

    -8.6095  -8.6095  -8.4257  -8.4257   2.7341   2.7341   2.7994   2.7994
     3.6074   3.6074   3.6926   3.6926   3.9664   3.9664   4.0605   4.0605
     5.0851   5.0851   5.1686   5.1686   5.3508   5.3508   5.5153   5.5153
     5.8792   5.8792   6.2164   6.2164   6.9036   6.9036   7.7136   7.7136
     8.0160   8.0160   8.7545   8.7545

     highest occupied level (ev):     9.8556

!    total energy              =    -723.14268577 Ry
     estimated scf accuracy    <          3.0E-10 Ry

     The total energy is the sum of the following terms:
     one-electron contribution =    -265.87834110 Ry
     hartree contribution      =     221.65053539 Ry
     xc contribution           =    -219.92819569 Ry
     ewald contribution        =    -458.98668437 Ry

     convergence has been achieved in  27 iterations

     Forces acting on atoms (cartesian axes, Ry/au):

     atom    1 type  1   force =    -0.00001358   -0.00000784    0.01199426
     atom    2 type  2   force =    -0.00000551   -0.00000318   -0.01199860
     atom    3 type  1   force =     0.00000964    0.00000557    0.01199869
     atom    4 type  2   force =     0.00000616    0.00000356   -0.01199865
     atom    5 type  1   force =    -0.00000799   -0.00000461    0.01200038
     atom    6 type  2   force =    -0.00000548   -0.00000317   -0.01199852
     atom    7 type  1   force =     0.00001126    0.00000650    0.01200069
     atom    8 type  2   force =     0.00000551    0.00000318   -0.01199825
     The non-local contrib.  to forces
     atom    1 type  1   force =     0.00002606    0.00001505    0.10582862
     atom    2 type  2   force =    -0.00015505   -0.00008952    0.07361764
     atom    3 type  1   force =    -0.00002756   -0.00001591    0.10582750
     atom    4 type  2   force =     0.00015548    0.00008977    0.07361666
     atom    5 type  1   force =     0.00002828    0.00001633    0.10582910
     atom    6 type  2   force =    -0.00015436   -0.00008912    0.07361771
     atom    7 type  1   force =    -0.00002644   -0.00001526    0.10582776
     atom    8 type  2   force =     0.00015355    0.00008865    0.07361857
     The ionic contribution  to forces
     atom    1 type  1   force =     0.00000000    0.00000000    0.70251740
     atom    2 type  2   force =    -0.00000000   -0.00000000   -0.70251740
     atom    3 type  1   force =    -0.00000000   -0.00000000    0.70251740
     atom    4 type  2   force =     0.00000000    0.00000000   -0.70251740
     atom    5 type  1   force =     0.00000000    0.00000000    0.70251740
     atom    6 type  2   force =    -0.00000000   -0.00000000   -0.70251740
     atom    7 type  1   force =    -0.00000000   -0.00000000    0.70251740
     atom    8 type  2   force =     0.00000000    0.00000000   -0.70251740
     The local contribution  to forces
     atom    1 type  1   force =    -0.00003369   -0.00001945   -0.78769677
     atom    2 type  2   force =     0.00014568    0.00008411    0.61740316
     atom    3 type  1   force =     0.00003677    0.00002123   -0.78769771
     atom    4 type  2   force =    -0.00014458   -0.00008347    0.61741060
     atom    5 type  1   force =    -0.00003892   -0.00002247   -0.78769904
     atom    6 type  2   force =     0.00014548    0.00008399    0.61740418
     atom    7 type  1   force =     0.00003603    0.00002080   -0.78769862
     atom    8 type  2   force =    -0.00014541   -0.00008396    0.61740702
     The core correction contribution to forces
     atom    1 type  1   force =     0.00000480    0.00000272   -0.00864741
     atom    2 type  2   force =     0.00000177    0.00000103   -0.00050049
     atom    3 type  1   force =    -0.00000442   -0.00000239   -0.00864741
     atom    4 type  2   force =    -0.00000174   -0.00000099   -0.00050044
     atom    5 type  1   force =     0.00000432    0.00000255   -0.00864751
     atom    6 type  2   force =     0.00000173    0.00000099   -0.00050047
     atom    7 type  1   force =    -0.00000471   -0.00000278   -0.00864738
     atom    8 type  2   force =    -0.00000175   -0.00000101   -0.00050049
     The Hubbard contrib.    to forces
     atom    1 type  1   force =     0.00000000    0.00000000    0.00000000
     atom    2 type  2   force =     0.00000000    0.00000000    0.00000000
     atom    3 type  1   force =     0.00000000    0.00000000    0.00000000
     atom    4 type  2   force =     0.00000000    0.00000000    0.00000000
     atom    5 type  1   force =     0.00000000    0.00000000    0.00000000
     atom    6 type  2   force =     0.00000000    0.00000000    0.00000000
     atom    7 type  1   force =     0.00000000    0.00000000    0.00000000
     atom    8 type  2   force =     0.00000000    0.00000000    0.00000000
     The SCF correction term to forces
     atom    1 type  1   force =    -0.00001089   -0.00000629   -0.00000783
     atom    2 type  2   force =     0.00000194    0.00000112   -0.00000177
     atom    3 type  1   force =     0.00000463    0.00000267   -0.00000134
     atom    4 type  2   force =    -0.00000317   -0.00000183   -0.00000834
     atom    5 type  1   force =    -0.00000185   -0.00000107    0.00000018
     atom    6 type  2   force =     0.00000152    0.00000087   -0.00000280
     atom    7 type  1   force =     0.00000625    0.00000361    0.00000128
     atom    8 type  2   force =    -0.00000104   -0.00000060   -0.00000622

     Total force =     0.033937     Total SCF correction =     0.000021

     Writing all to output data dir ./ZnO-3.14-1.52-211.in.save/

     General routines

     Parallel routines

   This run was terminated on:  13:26: 6  12Jul2025

   JOB DONE.
Note: The following floating-point exceptions are signalling: IEEE_INVALID_FLAG
Note: The following floating-point exceptions are signalling: IEEE_INVALID_FLAG