     Program PWSCF v.7.2 starts on 12Jul2025 at 15: 3: 9

     Reading input from /home/jvc/QEspresso7.2/ZnO_database/scripts/cell211_strain10%.in/ZnO-3.27-1.71-211.in
Warning: card &CELL ignored
Warning: card / ignored
Warning: card &FCP ignored
Warning: card / ignored
Warning: card &RISM ignored
Warning: card / ignored

     Current dimensions of program PWSCF are:
     Max number of different atomic species (ntypx) = 10
     Max number of k-points (npk) =  40000
     Max angular momentum in pseudopotentials (lmaxx) =  4
     file Zn.upf: wavefunction(s)  3D renormalized
     Found identity + ( -0.5000  0.0000  0.0000) symmetry
     This is a supercell, fractional translations are disabled
     Message from routine setup:
     using ibrav=0 with symmetry is DISCOURAGED, use correct ibrav instead

     K-points division:     npool     =       2
     R & G space division:  proc/nbgrp/npool/nimage =       8
     Subspace diagonalization in iterative solution of the eigenvalue problem:
     a serial algorithm will be used

     Using Slab Decomposition

     bravais-lattice index     =            0
     lattice parameter (alat)  =      12.3577  a.u.
     unit-cell volume          =     699.1820 (a.u.)^3
     number of atoms/cell      =            8
     number of atomic types    =            2
     number of electrons       =        72.00
     number of Kohn-Sham states=           36
     kinetic-energy cutoff     =      50.0000  Ry
     charge density cutoff     =     400.0000  Ry
     scf convergence threshold =      1.0E-08
     mixing beta               =       0.3000
     number of iterations used =            8  plain     mixing
     Exchange-correlation= PBE
                           (   1   4   3   4   0   0   0)

     celldm(1)=  12.357708  celldm(2)=   0.000000  celldm(3)=   0.000000
     celldm(4)=   0.000000  celldm(5)=   0.000000  celldm(6)=   0.000000

     crystal axes: (cart. coord. in units of alat)
               a(1) = (   1.000000   0.000000   0.000000 )
               a(2) = (  -0.250000   0.433013   0.000000 )
               a(3) = (   0.000000   0.000000   0.855610 )

     reciprocal axes: (cart. coord. in units 2 pi/alat)
               b(1) = (  1.000000  0.577350 -0.000000 )
               b(2) = (  0.000000  2.309401  0.000000 )
               b(3) = (  0.000000 -0.000000  1.168757 )

     PseudoPot. # 1 for Zn read from file:
     /home/jvc/QEspresso7.2/ZnO_database/pseudos/Zn.upf
     MD5 check sum: 7f56cabf9682ed8c977c2f7d0c5985c5
     Pseudo is Ultrasoft + core correction, Zval = 12.0
     Generated using &quot;atomic&quot; code by A. Dal Corso  v.6.2.2
     Using radial grid of 1201 points,  6 beta functions with:
                l(1) =   0
                l(2) =   0
                l(3) =   1
                l(4) =   1
                l(5) =   2
                l(6) =   2
     Q(r) pseudized with 0 coefficients

     PseudoPot. # 2 for O  read from file:
     /home/jvc/QEspresso7.2/ZnO_database/pseudos/O.upf
     MD5 check sum: 91400c9766925bcf19f520983a725ff0
     Pseudo is Ultrasoft + core correction, Zval =  6.0
     Generated using &quot;atomic&quot; code by A. Dal Corso  v.6.3MaX
     Using radial grid of 1095 points,  4 beta functions with:
                l(1) =   0
                l(2) =   0
                l(3) =   1
                l(4) =   1
     Q(r) pseudized with 0 coefficients

     atomic species   valence    mass     pseudopotential
        Zn            12.00    65.38000     Zn( 1.00)
        O              6.00    15.99900     O ( 1.00)

      2 Sym. Ops. (no inversion) found

   Cartesian axes

     site n.     atom                  positions (alat units)
         1           Zn  tau(   1) = (   0.0000000   0.0000000   0.0000000  )
         2           O   tau(   2) = (   0.0000000   0.2886751   0.1165061  )
         3           Zn  tau(   3) = (   0.0000000   0.2886751   0.4278050  )
         4           O   tau(   4) = (   0.0000000   0.0000000   0.5443110  )
         5           Zn  tau(   5) = (   0.5000000   0.0000000   0.0000000  )
         6           O   tau(   6) = (   0.5000000   0.2886751   0.1165061  )
         7           Zn  tau(   7) = (   0.5000000   0.2886751   0.4278050  )
         8           O   tau(   8) = (   0.5000000   0.0000000   0.5443110  )

     number of k points=    80
                       cart. coord. in units 2pi/alat
        k(    1) = (   0.0000000   0.0000000   0.0000000), wk =   0.0092593
        k(    2) = (   0.0000000   0.0000000   0.1947928), wk =   0.0185185
        k(    3) = (   0.0000000   0.0000000   0.3895856), wk =   0.0185185
        k(    4) = (   0.0000000   0.0000000  -0.5843784), wk =   0.0092593
        k(    5) = (   0.0000000   0.3849002   0.0000000), wk =   0.0370370
        k(    6) = (   0.0000000   0.3849002   0.1947928), wk =   0.0370370
        k(    7) = (   0.0000000   0.3849002   0.3895856), wk =   0.0370370
        k(    8) = (   0.0000000   0.3849002  -0.5843784), wk =   0.0370370
        k(    9) = (   0.0000000   0.7698004   0.0000000), wk =   0.0370370
        k(   10) = (   0.0000000   0.7698004   0.1947928), wk =   0.0370370
        k(   11) = (   0.0000000   0.7698004   0.3895856), wk =   0.0370370
        k(   12) = (   0.0000000   0.7698004  -0.5843784), wk =   0.0370370
        k(   13) = (   0.0000000  -1.1547005   0.0000000), wk =   0.0092593
        k(   14) = (   0.0000000  -1.1547005   0.1947928), wk =   0.0185185
        k(   15) = (   0.0000000  -1.1547005   0.3895856), wk =   0.0185185
        k(   16) = (   0.0000000  -1.1547005  -0.5843784), wk =   0.0092593
        k(   17) = (   0.1666667   0.0962250   0.0000000), wk =   0.0185185
        k(   18) = (   0.1666667   0.0962250   0.1947928), wk =   0.0185185
        k(   19) = (   0.1666667   0.0962250   0.3895856), wk =   0.0185185
        k(   20) = (   0.1666667   0.0962250  -0.5843784), wk =   0.0185185
        k(   21) = (   0.1666667   0.4811252   0.0000000), wk =   0.0370370
        k(   22) = (   0.1666667   0.4811252   0.1947928), wk =   0.0370370
        k(   23) = (   0.1666667   0.4811252   0.3895856), wk =   0.0370370
        k(   24) = (   0.1666667   0.4811252  -0.5843784), wk =   0.0370370
        k(   25) = (   0.1666667   0.8660254   0.0000000), wk =   0.0185185
        k(   26) = (   0.1666667   0.8660254   0.1947928), wk =   0.0370370
        k(   27) = (   0.1666667   0.8660254   0.3895856), wk =   0.0370370
        k(   28) = (   0.1666667   0.8660254  -0.5843784), wk =   0.0185185
        k(   29) = (   0.1666667  -1.0584755   0.0000000), wk =   0.0185185
        k(   30) = (   0.1666667  -1.0584755   0.1947928), wk =   0.0185185
        k(   31) = (   0.1666667  -1.0584755   0.3895856), wk =   0.0185185
        k(   32) = (   0.1666667  -1.0584755  -0.5843784), wk =   0.0185185
        k(   33) = (   0.1666667  -0.6735753   0.0000000), wk =   0.0370370
        k(   34) = (   0.1666667  -0.6735753   0.1947928), wk =   0.0370370
        k(   35) = (   0.1666667  -0.6735753   0.3895856), wk =   0.0370370
        k(   36) = (   0.1666667  -0.6735753  -0.5843784), wk =   0.0370370
        k(   37) = (   0.1666667  -0.2886751   0.0000000), wk =   0.0185185
        k(   38) = (   0.1666667  -0.2886751   0.1947928), wk =   0.0370370
        k(   39) = (   0.1666667  -0.2886751   0.3895856), wk =   0.0370370
        k(   40) = (   0.1666667  -0.2886751  -0.5843784), wk =   0.0185185
        k(   41) = (   0.3333333   0.1924501   0.0000000), wk =   0.0185185
        k(   42) = (   0.3333333   0.1924501   0.1947928), wk =   0.0185185
        k(   43) = (   0.3333333   0.1924501   0.3895856), wk =   0.0185185
        k(   44) = (   0.3333333   0.1924501  -0.5843784), wk =   0.0185185
        k(   45) = (   0.3333333   0.5773503   0.0000000), wk =   0.0185185
        k(   46) = (   0.3333333   0.5773503   0.1947928), wk =   0.0370370
        k(   47) = (   0.3333333   0.5773503   0.3895856), wk =   0.0370370
        k(   48) = (   0.3333333   0.5773503  -0.5843784), wk =   0.0185185
        k(   49) = (   0.3333333  -0.9622504   0.0000000), wk =   0.0185185
        k(   50) = (   0.3333333  -0.9622504   0.1947928), wk =   0.0185185
        k(   51) = (   0.3333333  -0.9622504   0.3895856), wk =   0.0185185
        k(   52) = (   0.3333333  -0.9622504  -0.5843784), wk =   0.0185185
        k(   53) = (   0.3333333  -0.5773503   0.0000000), wk =   0.0185185
        k(   54) = (   0.3333333  -0.5773503   0.1947928), wk =   0.0370370
        k(   55) = (   0.3333333  -0.5773503   0.3895856), wk =   0.0370370
        k(   56) = (   0.3333333  -0.5773503  -0.5843784), wk =   0.0185185
        k(   57) = (  -0.5000000  -0.2886751   0.0000000), wk =   0.0092593
        k(   58) = (  -0.5000000  -0.2886751   0.1947928), wk =   0.0185185
        k(   59) = (  -0.5000000  -0.2886751   0.3895856), wk =   0.0185185
        k(   60) = (  -0.5000000  -0.2886751  -0.5843784), wk =   0.0092593
[...]
        k(   66) = (   0.3333333  -0.1924501  -0.3895856), wk =   0.0370370
        k(   67) = (   0.6666667  -0.3849002  -0.1947928), wk =   0.0370370
        k(   68) = (   0.6666667  -0.3849002  -0.3895856), wk =   0.0370370
        k(   69) = (   0.1666667   0.0962250  -0.1947928), wk =   0.0185185
        k(   70) = (   0.1666667   0.0962250  -0.3895856), wk =   0.0185185
        k(   71) = (   0.5000000  -0.0962250  -0.1947928), wk =   0.0370370
        k(   72) = (   0.5000000  -0.0962250  -0.3895856), wk =   0.0370370
        k(   73) = (  -0.8333333   0.6735753  -0.1947928), wk =   0.0185185
        k(   74) = (  -0.8333333   0.6735753  -0.3895856), wk =   0.0185185
        k(   75) = (  -0.5000000   0.4811252  -0.1947928), wk =   0.0370370
        k(   76) = (  -0.5000000   0.4811252  -0.3895856), wk =   0.0370370
        k(   77) = (   0.3333333   0.1924501  -0.1947928), wk =   0.0185185
        k(   78) = (   0.3333333   0.1924501  -0.3895856), wk =   0.0185185
        k(   79) = (  -0.6666667   0.7698004  -0.1947928), wk =   0.0185185
        k(   80) = (  -0.6666667   0.7698004  -0.3895856), wk =   0.0185185

     Check: negative core charge=   -0.000002

     Initial potential from superposition of free atoms

     starting charge      71.9851, renormalised to      72.0000
     Starting wfcs are   52 randomized atomic wfcs

     Self-consistent Calculation

     iteration #  1     ecut=    50.00 Ry     beta= 0.30
     Davidson diagonalization with overlap
     ethr =  1.00E-02,  avg # of iterations =  1.8

     total energy              =    -722.92925054 Ry
     estimated scf accuracy    <       1.42868034 Ry

[...]

     total energy              =    -723.26066708 Ry
     estimated scf accuracy    <       0.00000002 Ry

     iteration # 33     ecut=    50.00 Ry     beta= 0.30
     Davidson diagonalization with overlap
     ethr =  2.29E-11,  avg # of iterations =  2.4

     End of self-consistent calculation

          k = 0.0000 0.0000 0.0000 (  4151 PWs)   bands (ev):

   -11.3792 -10.8409 -10.7846 -10.6220   0.5814   0.6250   0.7699   0.7701
     0.7911   0.7995   0.9263   0.9564   0.9566   1.1049   1.4236   1.4470
     1.6696   1.6697   1.6893   1.8211   1.8211   1.8253   1.8633   1.9432
     2.0368   2.3300   2.9240   3.4317   4.2309   4.7640   5.4168   5.4173
     5.4518   5.9225   6.0946   6.0951

[...]

          k =-0.5000-0.2887 0.0000 (  4160 PWs)   bands (ev):

[...]

          k = 0.3333 0.1925-0.3896 (  4166 PWs)   bands (ev):

[...]

          k =-0.6667 0.7698-0.3896 (  4194 PWs)   bands (ev):

   -10.7453 -10.7453 -10.6593 -10.6593   0.5972   0.5972   0.6891   0.6891
     0.9621   0.9621   1.1355   1.1355   1.2399   1.2399   1.2883   1.2883
     1.7006   1.7006   1.7767   1.7767   1.9043   1.9043   1.9952   1.9952
     2.5447   2.5447   2.8910   2.8910   3.9597   3.9597   4.2940   4.2940
     4.7350   4.7350   4.9636   4.9636

     highest occupied level (ev):     6.0951

!    total energy              =    -723.26066708 Ry
     estimated scf accuracy    <          6.6E-09 Ry

     The total energy is the sum of the following terms:
     one-electron contribution =    -321.44535115 Ry
     hartree contribution      =     240.83969719 Ry
     xc contribution           =    -218.84173562 Ry
     ewald contribution        =    -423.81327750 Ry

     convergence has been achieved in  33 iterations

     Forces acting on atoms (cartesian axes, Ry/au):

     atom    1 type  1   force =    -0.00001479   -0.00000854    0.00434965
     atom    2 type  2   force =     0.00000162    0.00000094   -0.00435289
     atom    3 type  1   force =     0.00001076    0.00000621    0.00435824
     atom    4 type  2   force =    -0.00000113   -0.00000065   -0.00435426
     atom    5 type  1   force =    -0.00000297   -0.00000172    0.00435050
     atom    6 type  2   force =     0.00000128    0.00000074   -0.00435372
     atom    7 type  1   force =     0.00000694    0.00000401    0.00435609
     atom    8 type  2   force =    -0.00000172   -0.00000100   -0.00435360
     The non-local contrib.  to forces
     atom    1 type  1   force =     0.00000485    0.00000280   -0.07483944
     atom    2 type  2   force =    -0.00019954   -0.00011520   -0.06945807
     atom    3 type  1   force =    -0.00000896   -0.00000517   -0.07483150
     atom    4 type  2   force =     0.00020297    0.00011718   -0.06945858
     atom    5 type  1   force =     0.00001458    0.00000842   -0.07483813
     atom    6 type  2   force =    -0.00019909   -0.00011495   -0.06945958
     atom    7 type  1   force =    -0.00000990   -0.00000572   -0.07483413
     atom    8 type  2   force =     0.00019673    0.00011358   -0.06945795
     The ionic contribution  to forces
     atom    1 type  1   force =     0.00000000    0.00000000   -0.67220833
     atom    2 type  2   force =    -0.00000000   -0.00000000    0.67220833
     atom    3 type  1   force =    -0.00000000   -0.00000000   -0.67220833
     atom    4 type  2   force =     0.00000000    0.00000000    0.67220833
     atom    5 type  1   force =     0.00000000    0.00000000   -0.67220833
     atom    6 type  2   force =    -0.00000000   -0.00000000    0.67220833
     atom    7 type  1   force =    -0.00000000   -0.00000000   -0.67220833
     atom    8 type  2   force =     0.00000000    0.00000000    0.67220833
     The local contribution  to forces
     atom    1 type  1   force =    -0.00001057   -0.00000610    0.74737124
     atom    2 type  2   force =     0.00020164    0.00011642   -0.60767776
     atom    3 type  1   force =     0.00002130    0.00001230    0.74734972
     atom    4 type  2   force =    -0.00019970   -0.00011530   -0.60768368
     atom    5 type  1   force =    -0.00003755   -0.00002168    0.74736854
     atom    6 type  2   force =     0.00019719    0.00011385   -0.60767835
     atom    7 type  1   force =     0.00002588    0.00001494    0.74735867
     atom    8 type  2   force =    -0.00019852   -0.00011462   -0.60767993
     The core correction contribution to forces
     atom    1 type  1   force =     0.00000461    0.00000266    0.00404387
     atom    2 type  2   force =     0.00000229    0.00000132    0.00058092
     atom    3 type  1   force =    -0.00000488   -0.00000282    0.00404434
     atom    4 type  2   force =    -0.00000233   -0.00000134    0.00058089
     atom    5 type  1   force =     0.00000527    0.00000304    0.00404393
     atom    6 type  2   force =     0.00000227    0.00000131    0.00058093
     atom    7 type  1   force =    -0.00000502   -0.00000290    0.00404392
     atom    8 type  2   force =    -0.00000224   -0.00000129    0.00058089
     The Hubbard contrib.    to forces
     atom    1 type  1   force =     0.00000000    0.00000000    0.00000000
     atom    2 type  2   force =     0.00000000    0.00000000    0.00000000
     atom    3 type  1   force =     0.00000000    0.00000000    0.00000000
     atom    4 type  2   force =     0.00000000    0.00000000    0.00000000
     atom    5 type  1   force =     0.00000000    0.00000000    0.00000000
     atom    6 type  2   force =     0.00000000    0.00000000    0.00000000
     atom    7 type  1   force =     0.00000000    0.00000000    0.00000000
     atom    8 type  2   force =     0.00000000    0.00000000    0.00000000
     The SCF correction term to forces
     atom    1 type  1   force =    -0.00001358   -0.00000784   -0.00001625
     atom    2 type  2   force =    -0.00000265   -0.00000153   -0.00000488
     atom    3 type  1   force =     0.00000340    0.00000197    0.00000545
     atom    4 type  2   force =    -0.00000197   -0.00000114    0.00000021
     atom    5 type  1   force =     0.00001483    0.00000856   -0.00001407
     atom    6 type  2   force =     0.00000102    0.00000059   -0.00000363
     atom    7 type  1   force =    -0.00000391   -0.00000226   -0.00000261
     atom    8 type  2   force =     0.00000241    0.00000139   -0.00000351

     Total force =     0.012314     Total SCF correction =     0.000034

     Writing all to output data dir ./ZnO-3.27-1.71-211.in.save/

     General routines

     Parallel routines

   This run was terminated on:  15: 6:55  12Jul2025

   JOB DONE.
Note: The following floating-point exceptions are signalling: IEEE_INVALID_FLAG
Note: The following floating-point exceptions are signalling: IEEE_INVALID_FLAG