     Program PWSCF v.7.2 starts on 12Jul2025 at 14: 1:42

     Reading input from /home/jvc/QEspresso7.2/ZnO_database/scripts/cell211_strain10%.in/ZnO-3.20-1.55-211.in
Warning: card &CELL ignored
Warning: card / ignored
Warning: card &FCP ignored
Warning: card / ignored
Warning: card &RISM ignored
Warning: card / ignored

     Current dimensions of program PWSCF are:
     Max number of different atomic species (ntypx) = 10
     Max number of k-points (npk) =  40000
     Max angular momentum in pseudopotentials (lmaxx) =  4
     file Zn.upf: wavefunction(s)  3D renormalized
     Found identity + ( -0.5000  0.0000  0.0000) symmetry
     This is a supercell, fractional translations are disabled
     Message from routine setup:
     using ibrav=0 with symmetry is DISCOURAGED, use correct ibrav instead

     K-points division:     npool     =       2
     R & G space division:  proc/nbgrp/npool/nimage =       8
     Subspace diagonalization in iterative solution of the eigenvalue problem:
     a serial algorithm will be used

     Using Slab Decomposition

     bravais-lattice index     =            0
     lattice parameter (alat)  =      12.1106  a.u.
     unit-cell volume          =     595.9829 (a.u.)^3
     number of atoms/cell      =            8
     number of atomic types    =            2
     number of electrons       =        72.00
     number of Kohn-Sham states=           36
     kinetic-energy cutoff     =      50.0000  Ry
     charge density cutoff     =     400.0000  Ry
     scf convergence threshold =      1.0E-08
     mixing beta               =       0.3000
     number of iterations used =            8  plain     mixing
     Exchange-correlation= PBE
                           (   1   4   3   4   0   0   0)

     celldm(1)=  12.110554  celldm(2)=   0.000000  celldm(3)=   0.000000
     celldm(4)=   0.000000  celldm(5)=   0.000000  celldm(6)=   0.000000

     crystal axes: (cart. coord. in units of alat)
               a(1) = (   1.000000   0.000000   0.000000 )
               a(2) = (  -0.250000   0.433013   0.000000 )
               a(3) = (   0.000000   0.000000   0.774892 )

     reciprocal axes: (cart. coord. in units 2 pi/alat)
               b(1) = (  1.000000  0.577350 -0.000000 )
               b(2) = (  0.000000  2.309401  0.000000 )
               b(3) = (  0.000000 -0.000000  1.290502 )

     PseudoPot. # 1 for Zn read from file:
     /home/jvc/QEspresso7.2/ZnO_database/pseudos/Zn.upf
     MD5 check sum: 7f56cabf9682ed8c977c2f7d0c5985c5
     Pseudo is Ultrasoft + core correction, Zval = 12.0
     Generated using &quot;atomic&quot; code by A. Dal Corso  v.6.2.2
     Using radial grid of 1201 points,  6 beta functions with:
                l(1) =   0
                l(2) =   0
                l(3) =   1
                l(4) =   1
                l(5) =   2
                l(6) =   2
     Q(r) pseudized with 0 coefficients

     PseudoPot. # 2 for O  read from file:
     /home/jvc/QEspresso7.2/ZnO_database/pseudos/O.upf
     MD5 check sum: 91400c9766925bcf19f520983a725ff0
     Pseudo is Ultrasoft + core correction, Zval =  6.0
     Generated using &quot;atomic&quot; code by A. Dal Corso  v.6.3MaX
     Using radial grid of 1095 points,  4 beta functions with:
                l(1) =   0
                l(2) =   0
                l(3) =   1
                l(4) =   1
     Q(r) pseudized with 0 coefficients

     atomic species   valence    mass     pseudopotential
        Zn            12.00    65.38000     Zn( 1.00)
        O              6.00    15.99900     O ( 1.00)

      2 Sym. Ops. (no inversion) found

   Cartesian axes

     site n.     atom                  positions (alat units)
         1           Zn  tau(   1) = (   0.0000000   0.0000000   0.0000000  )
         2           O   tau(   2) = (   0.0000000   0.2886751   0.0861811  )
         3           Zn  tau(   3) = (   0.0000000   0.2886751   0.3874460  )
         4           O   tau(   4) = (   0.0000000   0.0000000   0.4736271  )
         5           Zn  tau(   5) = (   0.5000000   0.0000000   0.0000000  )
         6           O   tau(   6) = (   0.5000000   0.2886751   0.0861811  )
         7           Zn  tau(   7) = (   0.5000000   0.2886751   0.3874460  )
         8           O   tau(   8) = (   0.5000000   0.0000000   0.4736271  )

     number of k points=    80
                       cart. coord. in units 2pi/alat
        k(    1) = (   0.0000000   0.0000000   0.0000000), wk =   0.0092593
        k(    2) = (   0.0000000   0.0000000   0.2150837), wk =   0.0185185
        k(    3) = (   0.0000000   0.0000000   0.4301675), wk =   0.0185185
        k(    4) = (   0.0000000   0.0000000  -0.6452512), wk =   0.0092593
        k(    5) = (   0.0000000   0.3849002   0.0000000), wk =   0.0370370
        k(    6) = (   0.0000000   0.3849002   0.2150837), wk =   0.0370370
        k(    7) = (   0.0000000   0.3849002   0.4301675), wk =   0.0370370
        k(    8) = (   0.0000000   0.3849002  -0.6452512), wk =   0.0370370
        k(    9) = (   0.0000000   0.7698004   0.0000000), wk =   0.0370370
        k(   10) = (   0.0000000   0.7698004   0.2150837), wk =   0.0370370
        k(   11) = (   0.0000000   0.7698004   0.4301675), wk =   0.0370370
        k(   12) = (   0.0000000   0.7698004  -0.6452512), wk =   0.0370370
        k(   13) = (   0.0000000  -1.1547005   0.0000000), wk =   0.0092593
        k(   14) = (   0.0000000  -1.1547005   0.2150837), wk =   0.0185185
        k(   15) = (   0.0000000  -1.1547005   0.4301675), wk =   0.0185185
        k(   16) = (   0.0000000  -1.1547005  -0.6452512), wk =   0.0092593
        k(   17) = (   0.1666667   0.0962250   0.0000000), wk =   0.0185185
        k(   18) = (   0.1666667   0.0962250   0.2150837), wk =   0.0185185
        k(   19) = (   0.1666667   0.0962250   0.4301675), wk =   0.0185185
        k(   20) = (   0.1666667   0.0962250  -0.6452512), wk =   0.0185185
        k(   21) = (   0.1666667   0.4811252   0.0000000), wk =   0.0370370
        k(   22) = (   0.1666667   0.4811252   0.2150837), wk =   0.0370370
        k(   23) = (   0.1666667   0.4811252   0.4301675), wk =   0.0370370
        k(   24) = (   0.1666667   0.4811252  -0.6452512), wk =   0.0370370
        k(   25) = (   0.1666667   0.8660254   0.0000000), wk =   0.0185185
        k(   26) = (   0.1666667   0.8660254   0.2150837), wk =   0.0370370
        k(   27) = (   0.1666667   0.8660254   0.4301675), wk =   0.0370370
        k(   28) = (   0.1666667   0.8660254  -0.6452512), wk =   0.0185185
        k(   29) = (   0.1666667  -1.0584755   0.0000000), wk =   0.0185185
        k(   30) = (   0.1666667  -1.0584755   0.2150837), wk =   0.0185185
        k(   31) = (   0.1666667  -1.0584755   0.4301675), wk =   0.0185185
        k(   32) = (   0.1666667  -1.0584755  -0.6452512), wk =   0.0185185
        k(   33) = (   0.1666667  -0.6735753   0.0000000), wk =   0.0370370
        k(   34) = (   0.1666667  -0.6735753   0.2150837), wk =   0.0370370
        k(   35) = (   0.1666667  -0.6735753   0.4301675), wk =   0.0370370
        k(   36) = (   0.1666667  -0.6735753  -0.6452512), wk =   0.0370370
        k(   37) = (   0.1666667  -0.2886751   0.0000000), wk =   0.0185185
        k(   38) = (   0.1666667  -0.2886751   0.2150837), wk =   0.0370370
        k(   39) = (   0.1666667  -0.2886751   0.4301675), wk =   0.0370370
        k(   40) = (   0.1666667  -0.2886751  -0.6452512), wk =   0.0185185
        k(   41) = (   0.3333333   0.1924501   0.0000000), wk =   0.0185185
        k(   42) = (   0.3333333   0.1924501   0.2150837), wk =   0.0185185
        k(   43) = (   0.3333333   0.1924501   0.4301675), wk =   0.0185185
        k(   44) = (   0.3333333   0.1924501  -0.6452512), wk =   0.0185185
        k(   45) = (   0.3333333   0.5773503   0.0000000), wk =   0.0185185
        k(   46) = (   0.3333333   0.5773503   0.2150837), wk =   0.0370370
        k(   47) = (   0.3333333   0.5773503   0.4301675), wk =   0.0370370
        k(   48) = (   0.3333333   0.5773503  -0.6452512), wk =   0.0185185
        k(   49) = (   0.3333333  -0.9622504   0.0000000), wk =   0.0185185
        k(   50) = (   0.3333333  -0.9622504   0.2150837), wk =   0.0185185
        k(   51) = (   0.3333333  -0.9622504   0.4301675), wk =   0.0185185
        k(   52) = (   0.3333333  -0.9622504  -0.6452512), wk =   0.0185185
        k(   53) = (   0.3333333  -0.5773503   0.0000000), wk =   0.0185185
        k(   54) = (   0.3333333  -0.5773503   0.2150837), wk =   0.0370370
        k(   55) = (   0.3333333  -0.5773503   0.4301675), wk =   0.0370370
        k(   56) = (   0.3333333  -0.5773503  -0.6452512), wk =   0.0185185
        k(   57) = (  -0.5000000  -0.2886751   0.0000000), wk =   0.0092593
        k(   58) = (  -0.5000000  -0.2886751   0.2150837), wk =   0.0185185
        k(   59) = (  -0.5000000  -0.2886751   0.4301675), wk =   0.0185185
        k(   60) = (  -0.5000000  -0.2886751  -0.6452512), wk =   0.0092593
[...]
        k(   66) = (   0.3333333  -0.1924501  -0.4301675), wk =   0.0370370
        k(   67) = (   0.6666667  -0.3849002  -0.2150837), wk =   0.0370370
        k(   68) = (   0.6666667  -0.3849002  -0.4301675), wk =   0.0370370
        k(   69) = (   0.1666667   0.0962250  -0.2150837), wk =   0.0185185
        k(   70) = (   0.1666667   0.0962250  -0.4301675), wk =   0.0185185
        k(   71) = (   0.5000000  -0.0962250  -0.2150837), wk =   0.0370370
        k(   72) = (   0.5000000  -0.0962250  -0.4301675), wk =   0.0370370
        k(   73) = (  -0.8333333   0.6735753  -0.2150837), wk =   0.0185185
        k(   74) = (  -0.8333333   0.6735753  -0.4301675), wk =   0.0185185
        k(   75) = (  -0.5000000   0.4811252  -0.2150837), wk =   0.0370370
        k(   76) = (  -0.5000000   0.4811252  -0.4301675), wk =   0.0370370
        k(   77) = (   0.3333333   0.1924501  -0.2150837), wk =   0.0185185
        k(   78) = (   0.3333333   0.1924501  -0.4301675), wk =   0.0185185
        k(   79) = (  -0.6666667   0.7698004  -0.2150837), wk =   0.0185185
        k(   80) = (  -0.6666667   0.7698004  -0.4301675), wk =   0.0185185

     Check: negative core charge=   -0.000002

     Initial potential from superposition of free atoms

     starting charge      71.9851, renormalised to      72.0000
     Starting wfcs are   52 randomized atomic wfcs

     Self-consistent Calculation

     iteration #  1     ecut=    50.00 Ry     beta= 0.30
     Davidson diagonalization with overlap
     ethr =  1.00E-02,  avg # of iterations =  2.0

     total energy              =    -722.93964163 Ry
     estimated scf accuracy    <       1.35032557 Ry

[...]

     iteration # 29     ecut=    50.00 Ry     beta= 0.30
     Davidson diagonalization with overlap
     c_bands:  1 eigenvalues not converged
     c_bands:  1 eigenvalues not converged
     c_bands:  1 eigenvalues not converged
     c_bands:  1 eigenvalues not converged
     c_bands:  1 eigenvalues not converged
     ethr =  2.61E-09,  avg # of iterations = 14.7

[...]

     total energy              =    -723.23284927 Ry
     estimated scf accuracy    <       0.00000002 Ry

     iteration # 35     ecut=    50.00 Ry     beta= 0.30
     Davidson diagonalization with overlap
     ethr =  3.02E-11,  avg # of iterations =  3.3

     End of self-consistent calculation

          k = 0.0000 0.0000 0.0000 (  3571 PWs)   bands (ev):

   -10.2687  -9.4835  -9.3611  -9.2028   2.0697   2.1771   2.3465   2.3467
     2.3507   2.5356   2.5358   2.5536   2.6913   2.9697   3.2426   3.2683
     3.7773   3.7773   3.8485   3.9681   4.0558   4.0559   4.1128   4.1652
     4.3851   4.5574   4.7180   5.4533   5.8394   7.1183   7.4370   7.5418
     7.5420   8.3135   8.4372   8.4374

[...]

          k =-0.5000-0.2887 0.0000 (  3556 PWs)   bands (ev):

[...]

          k = 0.3333 0.1925-0.4302 (  3552 PWs)   bands (ev):

[...]

          k =-0.6667 0.7698-0.4302 (  3568 PWs)   bands (ev):

    -9.4082  -9.4080  -9.2591  -9.2589   1.9836   1.9836   2.0581   2.0581
     2.6741   2.6741   2.7886   2.7886   3.0067   3.0067   3.0730   3.0731
     3.8845   3.8845   3.9611   3.9611   4.1116   4.1116   4.2585   4.2585
     4.6382   4.6382   4.9739   4.9739   5.7518   5.7519   6.4807   6.4807
     6.7401   6.7401   7.3841   7.3842

     highest occupied level (ev):     8.4374

!    total energy              =    -723.23284927 Ry
     estimated scf accuracy    <          9.1E-09 Ry

     The total energy is the sum of the following terms:
     one-electron contribution =    -285.65274730 Ry
     hartree contribution      =     228.41385122 Ry
     xc contribution           =    -219.53061892 Ry
     ewald contribution        =    -446.46333426 Ry

     convergence has been achieved in  35 iterations

     Forces acting on atoms (cartesian axes, Ry/au):

     atom    1 type  1   force =    -0.00002682   -0.00001548    0.00493208
     atom    2 type  2   force =    -0.00000550   -0.00000317   -0.00492426
     atom    3 type  1   force =    -0.00000638   -0.00000368    0.00491830
     atom    4 type  2   force =     0.00000287    0.00000166   -0.00492889
     atom    5 type  1   force =     0.00001215    0.00000701    0.00493668
     atom    6 type  2   force =    -0.00000121   -0.00000070   -0.00492185
     atom    7 type  1   force =     0.00002026    0.00001170    0.00491377
     atom    8 type  2   force =     0.00000463    0.00000267   -0.00492584
     The non-local contrib.  to forces
     atom    1 type  1   force =     0.00001665    0.00000961    0.07251905
     atom    2 type  2   force =    -0.00016511   -0.00009533    0.04912337
     atom    3 type  1   force =    -0.00002792   -0.00001612    0.07251238
     atom    4 type  2   force =     0.00016683    0.00009632    0.04913072
     atom    5 type  1   force =     0.00003108    0.00001794    0.07252043
     atom    6 type  2   force =    -0.00016517   -0.00009536    0.04912456
     atom    7 type  1   force =    -0.00001950   -0.00001126    0.07251239
     atom    8 type  2   force =     0.00016339    0.00009434    0.04912922
     The ionic contribution  to forces
     atom    1 type  1   force =     0.00000000    0.00000000    0.44535006
     atom    2 type  2   force =    -0.00000000   -0.00000000   -0.44535006
     atom    3 type  1   force =    -0.00000000   -0.00000000    0.44535006
     atom    4 type  2   force =     0.00000000    0.00000000   -0.44535006
     atom    5 type  1   force =     0.00000000    0.00000000    0.44535006
     atom    6 type  2   force =    -0.00000000   -0.00000000   -0.44535006
     atom    7 type  1   force =    -0.00000000   -0.00000000    0.44535006
     atom    8 type  2   force =     0.00000000    0.00000000   -0.44535006
     The local contribution  to forces
     atom    1 type  1   force =    -0.00000208   -0.00000120   -0.50744407
     atom    2 type  2   force =     0.00016409    0.00009474    0.39164124
     atom    3 type  1   force =     0.00005066    0.00002925   -0.50743822
     atom    4 type  2   force =    -0.00015374   -0.00008876    0.39165030
     atom    5 type  1   force =    -0.00006587   -0.00003803   -0.50745995
     atom    6 type  2   force =     0.00015496    0.00008947    0.39164774
     atom    7 type  1   force =     0.00001749    0.00001010   -0.50742018
     atom    8 type  2   force =    -0.00016197   -0.00009351    0.39165054
     The core correction contribution to forces
     atom    1 type  1   force =     0.00000395    0.00000228   -0.00550222
     atom    2 type  2   force =     0.00000188    0.00000109   -0.00034580
     atom    3 type  1   force =    -0.00000494   -0.00000285   -0.00550136
     atom    4 type  2   force =    -0.00000189   -0.00000109   -0.00034591
     atom    5 type  1   force =     0.00000535    0.00000309   -0.00550154
     atom    6 type  2   force =     0.00000188    0.00000108   -0.00034580
     atom    7 type  1   force =    -0.00000440   -0.00000254   -0.00550252
     atom    8 type  2   force =    -0.00000185   -0.00000107   -0.00034590
     The Hubbard contrib.    to forces
     atom    1 type  1   force =     0.00000000    0.00000000    0.00000000
     atom    2 type  2   force =     0.00000000    0.00000000    0.00000000
     atom    3 type  1   force =     0.00000000    0.00000000    0.00000000
     atom    4 type  2   force =     0.00000000    0.00000000    0.00000000
     atom    5 type  1   force =     0.00000000    0.00000000    0.00000000
     atom    6 type  2   force =     0.00000000    0.00000000    0.00000000
     atom    7 type  1   force =     0.00000000    0.00000000    0.00000000
     atom    8 type  2   force =     0.00000000    0.00000000    0.00000000
     The SCF correction term to forces
     atom    1 type  1   force =    -0.00004532   -0.00002616    0.00001237
     atom    2 type  2   force =    -0.00000633   -0.00000365    0.00001011
     atom    3 type  1   force =    -0.00002415   -0.00001394   -0.00000145
     atom    4 type  2   force =    -0.00000831   -0.00000480   -0.00001083
     atom    5 type  1   force =     0.00004160    0.00002402    0.00003078
     atom    6 type  2   force =     0.00000715    0.00000413    0.00000481
     atom    7 type  1   force =     0.00002669    0.00001541   -0.00002288
     atom    8 type  2   force =     0.00000507    0.00000293   -0.00000653

     Total force =     0.013931     Total SCF correction =     0.000095

     Writing all to output data dir ./ZnO-3.20-1.55-211.in.save/

     General routines

     Parallel routines

   This run was terminated on:  14: 5:41  12Jul2025

   JOB DONE.
Note: The following floating-point exceptions are signalling: IEEE_INVALID_FLAG
Note: The following floating-point exceptions are signalling: IEEE_INVALID_FLAG