     Program PWSCF v.7.2 starts on 12Jul2025 at 12: 8:51

     Reading input from /home/jvc/QEspresso7.2/ZnO_database/scripts/cell211_strain10%.in/ZnO-2.94-1.68-211.in
Warning: card &CELL ignored
Warning: card / ignored
Warning: card &FCP ignored
Warning: card / ignored
Warning: card &RISM ignored
Warning: card / ignored

     Current dimensions of program PWSCF are:
     Max number of different atomic species (ntypx) = 10
     Max number of k-points (npk) =  40000
     Max angular momentum in pseudopotentials (lmaxx) =  4
     file Zn.upf: wavefunction(s)  3D renormalized
     Found identity + ( -0.5000  0.0000  0.0000) symmetry
     This is a supercell, fractional translations are disabled
     Message from routine setup:
     using ibrav=0 with symmetry is DISCOURAGED, use correct ibrav instead

     K-points division:     npool     =       2
     R & G space division:  proc/nbgrp/npool/nimage =       8
     Subspace diagonalization in iterative solution of the eigenvalue problem:
     a serial algorithm will be used

     Using Slab Decomposition

     bravais-lattice index     =            0
     lattice parameter (alat)  =      11.1219  a.u.
     unit-cell volume          =     500.0866 (a.u.)^3
     number of atoms/cell      =            8
     number of atomic types    =            2
     number of electrons       =        72.00
     number of Kohn-Sham states=           36
     kinetic-energy cutoff     =      50.0000  Ry
     charge density cutoff     =     400.0000  Ry
     scf convergence threshold =      1.0E-08
     mixing beta               =       0.3000
     number of iterations used =            8  plain     mixing
     Exchange-correlation= PBE
                           (   1   4   3   4   0   0   0)

     celldm(1)=  11.121937  celldm(2)=   0.000000  celldm(3)=   0.000000
     celldm(4)=   0.000000  celldm(5)=   0.000000  celldm(6)=   0.000000

     crystal axes: (cart. coord. in units of alat)
               a(1) = (   1.000000   0.000000   0.000000 )
               a(2) = (  -0.250000   0.433013   0.000000 )
               a(3) = (   0.000000   0.000000   0.839466 )

     reciprocal axes: (cart. coord. in units 2 pi/alat)
               b(1) = (  1.000000  0.577350 -0.000000 )
               b(2) = (  0.000000  2.309401  0.000000 )
               b(3) = (  0.000000 -0.000000  1.191233 )

     PseudoPot. # 1 for Zn read from file:
     /home/jvc/QEspresso7.2/ZnO_database/pseudos/Zn.upf
     MD5 check sum: 7f56cabf9682ed8c977c2f7d0c5985c5
     Pseudo is Ultrasoft + core correction, Zval = 12.0
     Generated using &quot;atomic&quot; code by A. Dal Corso  v.6.2.2
     Using radial grid of 1201 points,  6 beta functions with:
                l(1) =   0
                l(2) =   0
                l(3) =   1
                l(4) =   1
                l(5) =   2
                l(6) =   2
     Q(r) pseudized with 0 coefficients

     PseudoPot. # 2 for O  read from file:
     /home/jvc/QEspresso7.2/ZnO_database/pseudos/O.upf
     MD5 check sum: 91400c9766925bcf19f520983a725ff0
     Pseudo is Ultrasoft + core correction, Zval =  6.0
     Generated using &quot;atomic&quot; code by A. Dal Corso  v.6.3MaX
     Using radial grid of 1095 points,  4 beta functions with:
                l(1) =   0
                l(2) =   0
                l(3) =   1
                l(4) =   1
     Q(r) pseudized with 0 coefficients

     atomic species   valence    mass     pseudopotential
        Zn            12.00    65.38000     Zn( 1.00)
        O              6.00    15.99900     O ( 1.00)

      2 Sym. Ops. (no inversion) found

   Cartesian axes

     site n.     atom                  positions (alat units)
         1           Zn  tau(   1) = (   0.0000000   0.0000000   0.0000000  )
         2           O   tau(   2) = (   0.0000000   0.2886751   0.1105972  )
         3           Zn  tau(   3) = (   0.0000000   0.2886751   0.4197332  )
         4           O   tau(   4) = (   0.0000000   0.0000000   0.5303303  )
         5           Zn  tau(   5) = (   0.5000000   0.0000000   0.0000000  )
         6           O   tau(   6) = (   0.5000000   0.2886751   0.1105972  )
         7           Zn  tau(   7) = (   0.5000000   0.2886751   0.4197332  )
         8           O   tau(   8) = (   0.5000000   0.0000000   0.5303303  )

     number of k points=    80
                       cart. coord. in units 2pi/alat
        k(    1) = (   0.0000000   0.0000000   0.0000000), wk =   0.0092593
        k(    2) = (   0.0000000   0.0000000   0.1985388), wk =   0.0185185
        k(    3) = (   0.0000000   0.0000000   0.3970777), wk =   0.0185185
        k(    4) = (   0.0000000   0.0000000  -0.5956165), wk =   0.0092593
        k(    5) = (   0.0000000   0.3849002   0.0000000), wk =   0.0370370
        k(    6) = (   0.0000000   0.3849002   0.1985388), wk =   0.0370370
        k(    7) = (   0.0000000   0.3849002   0.3970777), wk =   0.0370370
        k(    8) = (   0.0000000   0.3849002  -0.5956165), wk =   0.0370370
        k(    9) = (   0.0000000   0.7698004   0.0000000), wk =   0.0370370
        k(   10) = (   0.0000000   0.7698004   0.1985388), wk =   0.0370370
        k(   11) = (   0.0000000   0.7698004   0.3970777), wk =   0.0370370
        k(   12) = (   0.0000000   0.7698004  -0.5956165), wk =   0.0370370
        k(   13) = (   0.0000000  -1.1547005   0.0000000), wk =   0.0092593
        k(   14) = (   0.0000000  -1.1547005   0.1985388), wk =   0.0185185
        k(   15) = (   0.0000000  -1.1547005   0.3970777), wk =   0.0185185
        k(   16) = (   0.0000000  -1.1547005  -0.5956165), wk =   0.0092593
        k(   17) = (   0.1666667   0.0962250   0.0000000), wk =   0.0185185
        k(   18) = (   0.1666667   0.0962250   0.1985388), wk =   0.0185185
        k(   19) = (   0.1666667   0.0962250   0.3970777), wk =   0.0185185
        k(   20) = (   0.1666667   0.0962250  -0.5956165), wk =   0.0185185
        k(   21) = (   0.1666667   0.4811252   0.0000000), wk =   0.0370370
        k(   22) = (   0.1666667   0.4811252   0.1985388), wk =   0.0370370
        k(   23) = (   0.1666667   0.4811252   0.3970777), wk =   0.0370370
        k(   24) = (   0.1666667   0.4811252  -0.5956165), wk =   0.0370370
        k(   25) = (   0.1666667   0.8660254   0.0000000), wk =   0.0185185
        k(   26) = (   0.1666667   0.8660254   0.1985388), wk =   0.0370370
        k(   27) = (   0.1666667   0.8660254   0.3970777), wk =   0.0370370
        k(   28) = (   0.1666667   0.8660254  -0.5956165), wk =   0.0185185
        k(   29) = (   0.1666667  -1.0584755   0.0000000), wk =   0.0185185
        k(   30) = (   0.1666667  -1.0584755   0.1985388), wk =   0.0185185
        k(   31) = (   0.1666667  -1.0584755   0.3970777), wk =   0.0185185
        k(   32) = (   0.1666667  -1.0584755  -0.5956165), wk =   0.0185185
        k(   33) = (   0.1666667  -0.6735753   0.0000000), wk =   0.0370370
        k(   34) = (   0.1666667  -0.6735753   0.1985388), wk =   0.0370370
        k(   35) = (   0.1666667  -0.6735753   0.3970777), wk =   0.0370370
        k(   36) = (   0.1666667  -0.6735753  -0.5956165), wk =   0.0370370
        k(   37) = (   0.1666667  -0.2886751   0.0000000), wk =   0.0185185
        k(   38) = (   0.1666667  -0.2886751   0.1985388), wk =   0.0370370
        k(   39) = (   0.1666667  -0.2886751   0.3970777), wk =   0.0370370
        k(   40) = (   0.1666667  -0.2886751  -0.5956165), wk =   0.0185185
        k(   41) = (   0.3333333   0.1924501   0.0000000), wk =   0.0185185
        k(   42) = (   0.3333333   0.1924501   0.1985388), wk =   0.0185185
        k(   43) = (   0.3333333   0.1924501   0.3970777), wk =   0.0185185
        k(   44) = (   0.3333333   0.1924501  -0.5956165), wk =   0.0185185
        k(   45) = (   0.3333333   0.5773503   0.0000000), wk =   0.0185185
        k(   46) = (   0.3333333   0.5773503   0.1985388), wk =   0.0370370
        k(   47) = (   0.3333333   0.5773503   0.3970777), wk =   0.0370370
        k(   48) = (   0.3333333   0.5773503  -0.5956165), wk =   0.0185185
        k(   49) = (   0.3333333  -0.9622504   0.0000000), wk =   0.0185185
        k(   50) = (   0.3333333  -0.9622504   0.1985388), wk =   0.0185185
        k(   51) = (   0.3333333  -0.9622504   0.3970777), wk =   0.0185185
        k(   52) = (   0.3333333  -0.9622504  -0.5956165), wk =   0.0185185
        k(   53) = (   0.3333333  -0.5773503   0.0000000), wk =   0.0185185
        k(   54) = (   0.3333333  -0.5773503   0.1985388), wk =   0.0370370
        k(   55) = (   0.3333333  -0.5773503   0.3970777), wk =   0.0370370
        k(   56) = (   0.3333333  -0.5773503  -0.5956165), wk =   0.0185185
        k(   57) = (  -0.5000000  -0.2886751   0.0000000), wk =   0.0092593
        k(   58) = (  -0.5000000  -0.2886751   0.1985388), wk =   0.0185185
        k(   59) = (  -0.5000000  -0.2886751   0.3970777), wk =   0.0185185
        k(   60) = (  -0.5000000  -0.2886751  -0.5956165), wk =   0.0092593
[...]
        k(   66) = (   0.3333333  -0.1924501  -0.3970777), wk =   0.0370370
        k(   67) = (   0.6666667  -0.3849002  -0.1985388), wk =   0.0370370
        k(   68) = (   0.6666667  -0.3849002  -0.3970777), wk =   0.0370370
        k(   69) = (   0.1666667   0.0962250  -0.1985388), wk =   0.0185185
        k(   70) = (   0.1666667   0.0962250  -0.3970777), wk =   0.0185185
        k(   71) = (   0.5000000  -0.0962250  -0.1985388), wk =   0.0370370
        k(   72) = (   0.5000000  -0.0962250  -0.3970777), wk =   0.0370370
        k(   73) = (  -0.8333333   0.6735753  -0.1985388), wk =   0.0185185
        k(   74) = (  -0.8333333   0.6735753  -0.3970777), wk =   0.0185185
        k(   75) = (  -0.5000000   0.4811252  -0.1985388), wk =   0.0370370
        k(   76) = (  -0.5000000   0.4811252  -0.3970777), wk =   0.0370370
        k(   77) = (   0.3333333   0.1924501  -0.1985388), wk =   0.0185185
        k(   78) = (   0.3333333   0.1924501  -0.3970777), wk =   0.0185185
        k(   79) = (  -0.6666667   0.7698004  -0.1985388), wk =   0.0185185
        k(   80) = (  -0.6666667   0.7698004  -0.3970777), wk =   0.0185185

     Check: negative core charge=   -0.000001

     Initial potential from superposition of free atoms

     starting charge      71.9851, renormalised to      72.0000
     Starting wfcs are   52 randomized atomic wfcs

     Self-consistent Calculation

     iteration #  1     ecut=    50.00 Ry     beta= 0.30
     Davidson diagonalization with overlap
     ethr =  1.00E-02,  avg # of iterations =  2.0

     total energy              =    -722.71019687 Ry
     estimated scf accuracy    <       1.35267380 Ry

[...]

     total energy              =    -722.96961400 Ry
     estimated scf accuracy    <       0.00000013 Ry

     iteration # 15     ecut=    50.00 Ry     beta= 0.30
     Davidson diagonalization with overlap
     ethr =  1.86E-10,  avg # of iterations =  4.0

     End of self-consistent calculation

          k = 0.0000 0.0000 0.0000 (  3005 PWs)   bands (ev):

    -8.8632  -7.7587  -7.7112  -7.3782   3.5355   3.7037   3.7721   4.1915
     4.3649   4.3651   4.6441   4.6905   4.6907   4.9084   5.0045   5.5240
     6.3190   6.3743   6.3743   6.7047   6.7096   6.7097   6.8037   6.9518
     7.0504   7.2971   7.4176   8.0465   8.5914   9.8012  10.5208  10.5210
    10.5866  11.4829  11.6571  11.6573

[...]

          k =-0.5000-0.2887 0.0000 (  2974 PWs)   bands (ev):

[...]

          k = 0.3333 0.1925-0.3971 (  2987 PWs)   bands (ev):

[...]

          k =-0.6667 0.7698-0.3971 (  2978 PWs)   bands (ev):

    -7.6290  -7.6290  -7.4497  -7.4497   3.6406   3.6406   3.7311   3.7311
     4.5578   4.5578   4.7095   4.7095   5.1352   5.1352   5.2405   5.2405
     6.4062   6.4062   6.6001   6.6001   6.8384   6.8384   7.0074   7.0074
     7.2867   7.2867   7.8123   7.8123   8.4800   8.4800   8.9830   8.9830
     9.6383   9.6383  10.0020  10.0020

     highest occupied level (ev):    11.6573

!    total energy              =    -722.96961403 Ry
     estimated scf accuracy    <          1.7E-09 Ry

     The total energy is the sum of the following terms:
     one-electron contribution =    -242.45064466 Ry
     hartree contribution      =     213.60481388 Ry
     xc contribution           =    -220.41292297 Ry
     ewald contribution        =    -473.71086029 Ry

     convergence has been achieved in  15 iterations

     Forces acting on atoms (cartesian axes, Ry/au):

     atom    1 type  1   force =    -0.00002255   -0.00001302   -0.00959762
     atom    2 type  2   force =     0.00000266    0.00000153    0.00959363
     atom    3 type  1   force =     0.00001980    0.00001143   -0.00959351
     atom    4 type  2   force =    -0.00000004   -0.00000003    0.00959239
     atom    5 type  1   force =    -0.00001526   -0.00000881   -0.00959638
     atom    6 type  2   force =     0.00000261    0.00000151    0.00959552
     atom    7 type  1   force =     0.00001700    0.00000981   -0.00958791
     atom    8 type  2   force =    -0.00000421   -0.00000243    0.00959388
     The non-local contrib.  to forces
     atom    1 type  1   force =     0.00002479    0.00001431   -0.05049631
     atom    2 type  2   force =    -0.00015481   -0.00008938   -0.03892773
     atom    3 type  1   force =    -0.00002725   -0.00001573   -0.05049563
     atom    4 type  2   force =     0.00015805    0.00009125   -0.03893293
     atom    5 type  1   force =     0.00003047    0.00001759   -0.05049402
     atom    6 type  2   force =    -0.00015181   -0.00008765   -0.03892690
     atom    7 type  1   force =    -0.00002747   -0.00001586   -0.05048885
     atom    8 type  2   force =     0.00014983    0.00008651   -0.03892953
     The ionic contribution  to forces
     atom    1 type  1   force =     0.00000000    0.00000000   -0.56884497
     atom    2 type  2   force =    -0.00000000   -0.00000000    0.56884497
     atom    3 type  1   force =    -0.00000000   -0.00000000   -0.56884497
     atom    4 type  2   force =     0.00000000    0.00000000    0.56884497
     atom    5 type  1   force =     0.00000000    0.00000000   -0.56884497
     atom    6 type  2   force =    -0.00000000   -0.00000000    0.56884497
     atom    7 type  1   force =    -0.00000000   -0.00000000   -0.56884497
     atom    8 type  2   force =     0.00000000    0.00000000    0.56884497
     The local contribution  to forces
     atom    1 type  1   force =    -0.00004364   -0.00002519    0.60626692
     atom    2 type  2   force =     0.00015906    0.00009183   -0.52055697
     atom    3 type  1   force =     0.00004765    0.00002751    0.60626519
     atom    4 type  2   force =    -0.00014415   -0.00008323   -0.52056345
     atom    5 type  1   force =    -0.00005519   -0.00003187    0.60626492
     atom    6 type  2   force =     0.00015317    0.00008843   -0.52055309
     atom    7 type  1   force =     0.00005053    0.00002917    0.60625146
     atom    8 type  2   force =    -0.00015865   -0.00009159   -0.52056163
     The core correction contribution to forces
     atom    1 type  1   force =     0.00000338    0.00000195    0.00348802
     atom    2 type  2   force =     0.00000176    0.00000102    0.00024263
     atom    3 type  1   force =    -0.00000322   -0.00000186    0.00348775
     atom    4 type  2   force =    -0.00000176   -0.00000102    0.00024269
     atom    5 type  1   force =     0.00000322    0.00000186    0.00348780
     atom    6 type  2   force =     0.00000171    0.00000099    0.00024263
     atom    7 type  1   force =    -0.00000333   -0.00000193    0.00348777
     atom    8 type  2   force =    -0.00000169   -0.00000098    0.00024264
     The Hubbard contrib.    to forces
     atom    1 type  1   force =     0.00000000    0.00000000    0.00000000
     atom    2 type  2   force =     0.00000000    0.00000000    0.00000000
     atom    3 type  1   force =     0.00000000    0.00000000    0.00000000
     atom    4 type  2   force =     0.00000000    0.00000000    0.00000000
     atom    5 type  1   force =     0.00000000    0.00000000    0.00000000
     atom    6 type  2   force =     0.00000000    0.00000000    0.00000000
     atom    7 type  1   force =     0.00000000    0.00000000    0.00000000
     atom    8 type  2   force =     0.00000000    0.00000000    0.00000000
     The SCF correction term to forces
     atom    1 type  1   force =    -0.00000700   -0.00000404   -0.00002037
     atom    2 type  2   force =    -0.00000327   -0.00000189   -0.00001836
     atom    3 type  1   force =     0.00000270    0.00000156   -0.00001494
     atom    4 type  2   force =    -0.00001209   -0.00000698   -0.00000797
     atom    5 type  1   force =     0.00000633    0.00000365   -0.00001920
     atom    6 type  2   force =    -0.00000037   -0.00000022   -0.00002119
     atom    7 type  1   force =    -0.00000265   -0.00000153   -0.00000242
     atom    8 type  2   force =     0.00000638    0.00000368   -0.00001167

     Total force =     0.027136     Total SCF correction =     0.000049

     Writing all to output data dir ./ZnO-2.94-1.68-211.in.save/

     General routines

     Parallel routines

   This run was terminated on:  12:10:37  12Jul2025

   JOB DONE.
Note: The following floating-point exceptions are signalling: IEEE_INVALID_FLAG
Note: The following floating-point exceptions are signalling: IEEE_INVALID_FLAG