     Program PWSCF v.7.2 starts on 12Jul2025 at 13: 1: 8

     Reading input from /home/jvc/QEspresso7.2/ZnO_database/scripts/cell211_strain10%.in/ZnO-3.07-1.65-211.in
Warning: card &CELL ignored
Warning: card / ignored
Warning: card &FCP ignored
Warning: card / ignored
Warning: card &RISM ignored
Warning: card / ignored

     Current dimensions of program PWSCF are:
     Max number of different atomic species (ntypx) = 10
     Max number of k-points (npk) =  40000
     Max angular momentum in pseudopotentials (lmaxx) =  4
     file Zn.upf: wavefunction(s)  3D renormalized
     Found identity + ( -0.5000  0.0000  0.0000) symmetry
     This is a supercell, fractional translations are disabled
     Message from routine setup:
     using ibrav=0 with symmetry is DISCOURAGED, use correct ibrav instead

     K-points division:     npool     =       2
     R & G space division:  proc/nbgrp/npool/nimage =       8
     Subspace diagonalization in iterative solution of the eigenvalue problem:
     a serial algorithm will be used

     Using Slab Decomposition

     bravais-lattice index     =            0
     lattice parameter (alat)  =      11.6162  a.u.
     unit-cell volume          =     558.8151 (a.u.)^3
     number of atoms/cell      =            8
     number of atomic types    =            2
     number of electrons       =        72.00
     number of Kohn-Sham states=           36
     kinetic-energy cutoff     =      50.0000  Ry
     charge density cutoff     =     400.0000  Ry
     scf convergence threshold =      1.0E-08
     mixing beta               =       0.3000
     number of iterations used =            8  plain     mixing
     Exchange-correlation= PBE
                           (   1   4   3   4   0   0   0)

     celldm(1)=  11.616245  celldm(2)=   0.000000  celldm(3)=   0.000000
     celldm(4)=   0.000000  celldm(5)=   0.000000  celldm(6)=   0.000000

     crystal axes: (cart. coord. in units of alat)
               a(1) = (   1.000000   0.000000   0.000000 )
               a(2) = (  -0.250000   0.433013   0.000000 )
               a(3) = (   0.000000   0.000000   0.823323 )

     reciprocal axes: (cart. coord. in units 2 pi/alat)
               b(1) = (  1.000000  0.577350 -0.000000 )
               b(2) = (  0.000000  2.309401  0.000000 )
               b(3) = (  0.000000 -0.000000  1.214590 )

     PseudoPot. # 1 for Zn read from file:
     /home/jvc/QEspresso7.2/ZnO_database/pseudos/Zn.upf
     MD5 check sum: 7f56cabf9682ed8c977c2f7d0c5985c5
     Pseudo is Ultrasoft + core correction, Zval = 12.0
     Generated using &quot;atomic&quot; code by A. Dal Corso  v.6.2.2
     Using radial grid of 1201 points,  6 beta functions with:
                l(1) =   0
                l(2) =   0
                l(3) =   1
                l(4) =   1
                l(5) =   2
                l(6) =   2
     Q(r) pseudized with 0 coefficients

     PseudoPot. # 2 for O  read from file:
     /home/jvc/QEspresso7.2/ZnO_database/pseudos/O.upf
     MD5 check sum: 91400c9766925bcf19f520983a725ff0
     Pseudo is Ultrasoft + core correction, Zval =  6.0
     Generated using &quot;atomic&quot; code by A. Dal Corso  v.6.3MaX
     Using radial grid of 1095 points,  4 beta functions with:
                l(1) =   0
                l(2) =   0
                l(3) =   1
                l(4) =   1
     Q(r) pseudized with 0 coefficients

     atomic species   valence    mass     pseudopotential
        Zn            12.00    65.38000     Zn( 1.00)
        O              6.00    15.99900     O ( 1.00)

      2 Sym. Ops. (no inversion) found

   Cartesian axes

     site n.     atom                  positions (alat units)
         1           Zn  tau(   1) = (   0.0000000   0.0000000   0.0000000  )
         2           O   tau(   2) = (   0.0000000   0.2886751   0.1046148  )
         3           Zn  tau(   3) = (   0.0000000   0.2886751   0.4116614  )
         4           O   tau(   4) = (   0.0000000   0.0000000   0.5162762  )
         5           Zn  tau(   5) = (   0.5000000   0.0000000   0.0000000  )
         6           O   tau(   6) = (   0.5000000   0.2886751   0.1046148  )
         7           Zn  tau(   7) = (   0.5000000   0.2886751   0.4116614  )
         8           O   tau(   8) = (   0.5000000   0.0000000   0.5162762  )

     number of k points=    80
                       cart. coord. in units 2pi/alat
        k(    1) = (   0.0000000   0.0000000   0.0000000), wk =   0.0092593
        k(    2) = (   0.0000000   0.0000000   0.2024317), wk =   0.0185185
        k(    3) = (   0.0000000   0.0000000   0.4048635), wk =   0.0185185
        k(    4) = (   0.0000000   0.0000000  -0.6072952), wk =   0.0092593
        k(    5) = (   0.0000000   0.3849002   0.0000000), wk =   0.0370370
        k(    6) = (   0.0000000   0.3849002   0.2024317), wk =   0.0370370
        k(    7) = (   0.0000000   0.3849002   0.4048635), wk =   0.0370370
        k(    8) = (   0.0000000   0.3849002  -0.6072952), wk =   0.0370370
        k(    9) = (   0.0000000   0.7698004   0.0000000), wk =   0.0370370
        k(   10) = (   0.0000000   0.7698004   0.2024317), wk =   0.0370370
        k(   11) = (   0.0000000   0.7698004   0.4048635), wk =   0.0370370
        k(   12) = (   0.0000000   0.7698004  -0.6072952), wk =   0.0370370
        k(   13) = (   0.0000000  -1.1547005   0.0000000), wk =   0.0092593
        k(   14) = (   0.0000000  -1.1547005   0.2024317), wk =   0.0185185
        k(   15) = (   0.0000000  -1.1547005   0.4048635), wk =   0.0185185
        k(   16) = (   0.0000000  -1.1547005  -0.6072952), wk =   0.0092593
        k(   17) = (   0.1666667   0.0962250   0.0000000), wk =   0.0185185
        k(   18) = (   0.1666667   0.0962250   0.2024317), wk =   0.0185185
        k(   19) = (   0.1666667   0.0962250   0.4048635), wk =   0.0185185
        k(   20) = (   0.1666667   0.0962250  -0.6072952), wk =   0.0185185
        k(   21) = (   0.1666667   0.4811252   0.0000000), wk =   0.0370370
        k(   22) = (   0.1666667   0.4811252   0.2024317), wk =   0.0370370
        k(   23) = (   0.1666667   0.4811252   0.4048635), wk =   0.0370370
        k(   24) = (   0.1666667   0.4811252  -0.6072952), wk =   0.0370370
        k(   25) = (   0.1666667   0.8660254   0.0000000), wk =   0.0185185
        k(   26) = (   0.1666667   0.8660254   0.2024317), wk =   0.0370370
        k(   27) = (   0.1666667   0.8660254   0.4048635), wk =   0.0370370
        k(   28) = (   0.1666667   0.8660254  -0.6072952), wk =   0.0185185
        k(   29) = (   0.1666667  -1.0584755   0.0000000), wk =   0.0185185
        k(   30) = (   0.1666667  -1.0584755   0.2024317), wk =   0.0185185
        k(   31) = (   0.1666667  -1.0584755   0.4048635), wk =   0.0185185
        k(   32) = (   0.1666667  -1.0584755  -0.6072952), wk =   0.0185185
        k(   33) = (   0.1666667  -0.6735753   0.0000000), wk =   0.0370370
        k(   34) = (   0.1666667  -0.6735753   0.2024317), wk =   0.0370370
        k(   35) = (   0.1666667  -0.6735753   0.4048635), wk =   0.0370370
        k(   36) = (   0.1666667  -0.6735753  -0.6072952), wk =   0.0370370
        k(   37) = (   0.1666667  -0.2886751   0.0000000), wk =   0.0185185
        k(   38) = (   0.1666667  -0.2886751   0.2024317), wk =   0.0370370
        k(   39) = (   0.1666667  -0.2886751   0.4048635), wk =   0.0370370
        k(   40) = (   0.1666667  -0.2886751  -0.6072952), wk =   0.0185185
        k(   41) = (   0.3333333   0.1924501   0.0000000), wk =   0.0185185
        k(   42) = (   0.3333333   0.1924501   0.2024317), wk =   0.0185185
        k(   43) = (   0.3333333   0.1924501   0.4048635), wk =   0.0185185
        k(   44) = (   0.3333333   0.1924501  -0.6072952), wk =   0.0185185
        k(   45) = (   0.3333333   0.5773503   0.0000000), wk =   0.0185185
        k(   46) = (   0.3333333   0.5773503   0.2024317), wk =   0.0370370
        k(   47) = (   0.3333333   0.5773503   0.4048635), wk =   0.0370370
        k(   48) = (   0.3333333   0.5773503  -0.6072952), wk =   0.0185185
        k(   49) = (   0.3333333  -0.9622504   0.0000000), wk =   0.0185185
        k(   50) = (   0.3333333  -0.9622504   0.2024317), wk =   0.0185185
        k(   51) = (   0.3333333  -0.9622504   0.4048635), wk =   0.0185185
        k(   52) = (   0.3333333  -0.9622504  -0.6072952), wk =   0.0185185
        k(   53) = (   0.3333333  -0.5773503   0.0000000), wk =   0.0185185
        k(   54) = (   0.3333333  -0.5773503   0.2024317), wk =   0.0370370
        k(   55) = (   0.3333333  -0.5773503   0.4048635), wk =   0.0370370
        k(   56) = (   0.3333333  -0.5773503  -0.6072952), wk =   0.0185185
        k(   57) = (  -0.5000000  -0.2886751   0.0000000), wk =   0.0092593
        k(   58) = (  -0.5000000  -0.2886751   0.2024317), wk =   0.0185185
        k(   59) = (  -0.5000000  -0.2886751   0.4048635), wk =   0.0185185
        k(   60) = (  -0.5000000  -0.2886751  -0.6072952), wk =   0.0092593
[...]
        k(   66) = (   0.3333333  -0.1924501  -0.4048635), wk =   0.0370370
        k(   67) = (   0.6666667  -0.3849002  -0.2024317), wk =   0.0370370
        k(   68) = (   0.6666667  -0.3849002  -0.4048635), wk =   0.0370370
        k(   69) = (   0.1666667   0.0962250  -0.2024317), wk =   0.0185185
        k(   70) = (   0.1666667   0.0962250  -0.4048635), wk =   0.0185185
        k(   71) = (   0.5000000  -0.0962250  -0.2024317), wk =   0.0370370
        k(   72) = (   0.5000000  -0.0962250  -0.4048635), wk =   0.0370370
        k(   73) = (  -0.8333333   0.6735753  -0.2024317), wk =   0.0185185
        k(   74) = (  -0.8333333   0.6735753  -0.4048635), wk =   0.0185185
        k(   75) = (  -0.5000000   0.4811252  -0.2024317), wk =   0.0370370
        k(   76) = (  -0.5000000   0.4811252  -0.4048635), wk =   0.0370370
        k(   77) = (   0.3333333   0.1924501  -0.2024317), wk =   0.0185185
        k(   78) = (   0.3333333   0.1924501  -0.4048635), wk =   0.0185185
        k(   79) = (  -0.6666667   0.7698004  -0.2024317), wk =   0.0185185
        k(   80) = (  -0.6666667   0.7698004  -0.4048635), wk =   0.0185185

     Check: negative core charge=   -0.000002

     Initial potential from superposition of free atoms

     starting charge      71.9851, renormalised to      72.0000
     Starting wfcs are   52 randomized atomic wfcs

     Self-consistent Calculation

     iteration #  1     ecut=    50.00 Ry     beta= 0.30
     Davidson diagonalization with overlap
     ethr =  1.00E-02,  avg # of iterations =  2.0

     total energy              =    -722.88974639 Ry
     estimated scf accuracy    <       1.34429670 Ry

[...]

     total energy              =    -723.16968917 Ry
     estimated scf accuracy    <       0.00000002 Ry

     iteration # 23     ecut=    50.00 Ry     beta= 0.30
     Davidson diagonalization with overlap
     ethr =  3.45E-11,  avg # of iterations =  1.7

     End of self-consistent calculation

          k = 0.0000 0.0000 0.0000 (  3339 PWs)   bands (ev):

    -9.7826  -8.8603  -8.8584  -8.5797   2.6275   2.6313   2.7346   3.0251
     3.0800   3.0802   3.3424   3.3426   3.3565   3.6783   3.7494   4.0779
     4.7017   4.7074   4.7074   4.9576   4.9838   4.9839   5.0532   5.1613
     5.2903   5.6044   5.6152   6.3120   6.8699   7.9856   8.5958   8.5961
     8.6025   9.4384   9.5707   9.5710

[...]

          k =-0.5000-0.2887 0.0000 (  3350 PWs)   bands (ev):

[...]

          k = 0.3333 0.1925-0.4049 (  3341 PWs)   bands (ev):

[...]

          k =-0.6667 0.7698-0.4049 (  3326 PWs)   bands (ev):

    -8.7898  -8.7898  -8.6398  -8.6397   2.5737   2.5737   2.6598   2.6598
     3.3209   3.3210   3.4693   3.4693   3.7787   3.7787   3.8423   3.8423
     4.7639   4.7639   4.8997   4.8997   5.0779   5.0779   5.2332   5.2332
     5.5456   5.5456   5.9843   5.9843   6.7476   6.7476   7.2620   7.2620
     7.7682   7.7682   8.1786   8.1786

     highest occupied level (ev):     9.5710

!    total energy              =    -723.16968917 Ry
     estimated scf accuracy    <          9.3E-09 Ry

     The total energy is the sum of the following terms:
     one-electron contribution =    -269.86980889 Ry
     hartree contribution      =     222.88440485 Ry
     xc contribution           =    -219.83332321 Ry
     ewald contribution        =    -456.35096191 Ry

     convergence has been achieved in  23 iterations

     Forces acting on atoms (cartesian axes, Ry/au):

     atom    1 type  1   force =    -0.00001487   -0.00000859   -0.00108774
     atom    2 type  2   force =    -0.00000088   -0.00000051    0.00108666
     atom    3 type  1   force =     0.00000931    0.00000537   -0.00108797
     atom    4 type  2   force =    -0.00000096   -0.00000055    0.00108865
     atom    5 type  1   force =    -0.00001163   -0.00000671   -0.00108686
     atom    6 type  2   force =     0.00000175    0.00000101    0.00108477
     atom    7 type  1   force =     0.00001652    0.00000954   -0.00108679
     atom    8 type  2   force =     0.00000076    0.00000044    0.00108928
     The non-local contrib.  to forces
     atom    1 type  1   force =     0.00002713    0.00001567   -0.01868463
     atom    2 type  2   force =    -0.00016596   -0.00009582   -0.02122993
     atom    3 type  1   force =    -0.00002812   -0.00001623   -0.01868569
     atom    4 type  2   force =     0.00016705    0.00009645   -0.02123305
     atom    5 type  1   force =     0.00002705    0.00001562   -0.01868397
     atom    6 type  2   force =    -0.00016554   -0.00009558   -0.02123267
     atom    7 type  1   force =    -0.00002600   -0.00001501   -0.01868621
     atom    8 type  2   force =     0.00016541    0.00009550   -0.02123705
     The ionic contribution  to forces
     atom    1 type  1   force =     0.00000000    0.00000000   -0.27505543
     atom    2 type  2   force =    -0.00000000   -0.00000000    0.27505543
     atom    3 type  1   force =    -0.00000000   -0.00000000   -0.27505543
     atom    4 type  2   force =     0.00000000    0.00000000    0.27505543
     atom    5 type  1   force =     0.00000000    0.00000000   -0.27505543
     atom    6 type  2   force =    -0.00000000   -0.00000000    0.27505543
     atom    7 type  1   force =    -0.00000000   -0.00000000   -0.27505543
     atom    8 type  2   force =     0.00000000    0.00000000    0.27505543
     The local contribution  to forces
     atom    1 type  1   force =    -0.00004313   -0.00002490    0.29175097
     atom    2 type  2   force =     0.00016490    0.00009520   -0.25290684
     atom    3 type  1   force =     0.00005003    0.00002888    0.29175423
     atom    4 type  2   force =    -0.00016481   -0.00009515   -0.25290285
     atom    5 type  1   force =    -0.00004564   -0.00002635    0.29174654
     atom    6 type  2   force =     0.00016393    0.00009464   -0.25290442
     atom    7 type  1   force =     0.00003879    0.00002240    0.29175598
     atom    8 type  2   force =    -0.00016429   -0.00009486   -0.25289791
     The core correction contribution to forces
     atom    1 type  1   force =     0.00000380    0.00000223    0.00090100
     atom    2 type  2   force =     0.00000188    0.00000108    0.00016412
     atom    3 type  1   force =    -0.00000414   -0.00000244    0.00090088
     atom    4 type  2   force =    -0.00000193   -0.00000111    0.00016415
     atom    5 type  1   force =     0.00000404    0.00000232    0.00090116
     atom    6 type  2   force =     0.00000190    0.00000111    0.00016414
     atom    7 type  1   force =    -0.00000374   -0.00000214    0.00090080
     atom    8 type  2   force =    -0.00000186   -0.00000107    0.00016422
     The Hubbard contrib.    to forces
     atom    1 type  1   force =     0.00000000    0.00000000    0.00000000
     atom    2 type  2   force =     0.00000000    0.00000000    0.00000000
     atom    3 type  1   force =     0.00000000    0.00000000    0.00000000
     atom    4 type  2   force =     0.00000000    0.00000000    0.00000000
     atom    5 type  1   force =     0.00000000    0.00000000    0.00000000
     atom    6 type  2   force =     0.00000000    0.00000000    0.00000000
     atom    7 type  1   force =     0.00000000    0.00000000    0.00000000
     atom    8 type  2   force =     0.00000000    0.00000000    0.00000000
     The SCF correction term to forces
     atom    1 type  1   force =    -0.00000265   -0.00000153    0.00000081
     atom    2 type  2   force =    -0.00000166   -0.00000096    0.00000432
     atom    3 type  1   force =    -0.00000840   -0.00000485   -0.00000150
     atom    4 type  2   force =    -0.00000124   -0.00000072    0.00000542
     atom    5 type  1   force =     0.00000297    0.00000171    0.00000529
     atom    6 type  2   force =     0.00000150    0.00000087    0.00000273
     atom    7 type  1   force =     0.00000750    0.00000433   -0.00000147
     atom    8 type  2   force =     0.00000153    0.00000089    0.00000504

     Total force =     0.003076     Total SCF correction =     0.000018

     Writing all to output data dir ./ZnO-3.07-1.65-211.in.save/

     General routines

     Parallel routines

   This run was terminated on:  13: 4: 8  12Jul2025

   JOB DONE.
Note: The following floating-point exceptions are signalling: IEEE_INVALID_FLAG
Note: The following floating-point exceptions are signalling: IEEE_INVALID_FLAG