     Program PWSCF v.7.2 starts on 12Jul2025 at 13: 6:46

     Reading input from /home/jvc/QEspresso7.2/ZnO_database/scripts/cell211_strain10%.in/ZnO-3.07-1.71-211.in
Warning: card &CELL ignored
Warning: card / ignored
Warning: card &FCP ignored
Warning: card / ignored
Warning: card &RISM ignored
Warning: card / ignored

     Current dimensions of program PWSCF are:
     Max number of different atomic species (ntypx) = 10
     Max number of k-points (npk) =  40000
     Max angular momentum in pseudopotentials (lmaxx) =  4
     file Zn.upf: wavefunction(s)  3D renormalized
     Found identity + ( -0.5000  0.0000  0.0000) symmetry
     This is a supercell, fractional translations are disabled
     Message from routine setup:
     using ibrav=0 with symmetry is DISCOURAGED, use correct ibrav instead

     K-points division:     npool     =       2
     R & G space division:  proc/nbgrp/npool/nimage =       8
     Subspace diagonalization in iterative solution of the eigenvalue problem:
     a serial algorithm will be used

     Using Slab Decomposition

     bravais-lattice index     =            0
     lattice parameter (alat)  =      11.6162  a.u.
     unit-cell volume          =     580.7294 (a.u.)^3
     number of atoms/cell      =            8
     number of atomic types    =            2
     number of electrons       =        72.00
     number of Kohn-Sham states=           36
     kinetic-energy cutoff     =      50.0000  Ry
     charge density cutoff     =     400.0000  Ry
     scf convergence threshold =      1.0E-08
     mixing beta               =       0.3000
     number of iterations used =            8  plain     mixing
     Exchange-correlation= PBE
                           (   1   4   3   4   0   0   0)

     celldm(1)=  11.616245  celldm(2)=   0.000000  celldm(3)=   0.000000
     celldm(4)=   0.000000  celldm(5)=   0.000000  celldm(6)=   0.000000

     crystal axes: (cart. coord. in units of alat)
               a(1) = (   1.000000   0.000000   0.000000 )
               a(2) = (  -0.250000   0.433013   0.000000 )
               a(3) = (   0.000000   0.000000   0.855610 )

     reciprocal axes: (cart. coord. in units 2 pi/alat)
               b(1) = (  1.000000  0.577350 -0.000000 )
               b(2) = (  0.000000  2.309401  0.000000 )
               b(3) = (  0.000000 -0.000000  1.168757 )

     PseudoPot. # 1 for Zn read from file:
     /home/jvc/QEspresso7.2/ZnO_database/pseudos/Zn.upf
     MD5 check sum: 7f56cabf9682ed8c977c2f7d0c5985c5
     Pseudo is Ultrasoft + core correction, Zval = 12.0
     Generated using &quot;atomic&quot; code by A. Dal Corso  v.6.2.2
     Using radial grid of 1201 points,  6 beta functions with:
                l(1) =   0
                l(2) =   0
                l(3) =   1
                l(4) =   1
                l(5) =   2
                l(6) =   2
     Q(r) pseudized with 0 coefficients

     PseudoPot. # 2 for O  read from file:
     /home/jvc/QEspresso7.2/ZnO_database/pseudos/O.upf
     MD5 check sum: 91400c9766925bcf19f520983a725ff0
     Pseudo is Ultrasoft + core correction, Zval =  6.0
     Generated using &quot;atomic&quot; code by A. Dal Corso  v.6.3MaX
     Using radial grid of 1095 points,  4 beta functions with:
                l(1) =   0
                l(2) =   0
                l(3) =   1
                l(4) =   1
     Q(r) pseudized with 0 coefficients

     atomic species   valence    mass     pseudopotential
        Zn            12.00    65.38000     Zn( 1.00)
        O              6.00    15.99900     O ( 1.00)

      2 Sym. Ops. (no inversion) found

   Cartesian axes

     site n.     atom                  positions (alat units)
         1           Zn  tau(   1) = (   0.0000000   0.0000000   0.0000000  )
         2           O   tau(   2) = (   0.0000000   0.2886751   0.1165061  )
         3           Zn  tau(   3) = (   0.0000000   0.2886751   0.4278050  )
         4           O   tau(   4) = (   0.0000000   0.0000000   0.5443110  )
         5           Zn  tau(   5) = (   0.5000000   0.0000000   0.0000000  )
         6           O   tau(   6) = (   0.5000000   0.2886751   0.1165061  )
         7           Zn  tau(   7) = (   0.5000000   0.2886751   0.4278050  )
         8           O   tau(   8) = (   0.5000000   0.0000000   0.5443110  )

     number of k points=    80
                       cart. coord. in units 2pi/alat
        k(    1) = (   0.0000000   0.0000000   0.0000000), wk =   0.0092593
        k(    2) = (   0.0000000   0.0000000   0.1947928), wk =   0.0185185
        k(    3) = (   0.0000000   0.0000000   0.3895856), wk =   0.0185185
        k(    4) = (   0.0000000   0.0000000  -0.5843784), wk =   0.0092593
        k(    5) = (   0.0000000   0.3849002   0.0000000), wk =   0.0370370
        k(    6) = (   0.0000000   0.3849002   0.1947928), wk =   0.0370370
        k(    7) = (   0.0000000   0.3849002   0.3895856), wk =   0.0370370
        k(    8) = (   0.0000000   0.3849002  -0.5843784), wk =   0.0370370
        k(    9) = (   0.0000000   0.7698004   0.0000000), wk =   0.0370370
        k(   10) = (   0.0000000   0.7698004   0.1947928), wk =   0.0370370
        k(   11) = (   0.0000000   0.7698004   0.3895856), wk =   0.0370370
        k(   12) = (   0.0000000   0.7698004  -0.5843784), wk =   0.0370370
        k(   13) = (   0.0000000  -1.1547005   0.0000000), wk =   0.0092593
        k(   14) = (   0.0000000  -1.1547005   0.1947928), wk =   0.0185185
        k(   15) = (   0.0000000  -1.1547005   0.3895856), wk =   0.0185185
        k(   16) = (   0.0000000  -1.1547005  -0.5843784), wk =   0.0092593
        k(   17) = (   0.1666667   0.0962250   0.0000000), wk =   0.0185185
        k(   18) = (   0.1666667   0.0962250   0.1947928), wk =   0.0185185
        k(   19) = (   0.1666667   0.0962250   0.3895856), wk =   0.0185185
        k(   20) = (   0.1666667   0.0962250  -0.5843784), wk =   0.0185185
        k(   21) = (   0.1666667   0.4811252   0.0000000), wk =   0.0370370
        k(   22) = (   0.1666667   0.4811252   0.1947928), wk =   0.0370370
        k(   23) = (   0.1666667   0.4811252   0.3895856), wk =   0.0370370
        k(   24) = (   0.1666667   0.4811252  -0.5843784), wk =   0.0370370
        k(   25) = (   0.1666667   0.8660254   0.0000000), wk =   0.0185185
        k(   26) = (   0.1666667   0.8660254   0.1947928), wk =   0.0370370
        k(   27) = (   0.1666667   0.8660254   0.3895856), wk =   0.0370370
        k(   28) = (   0.1666667   0.8660254  -0.5843784), wk =   0.0185185
        k(   29) = (   0.1666667  -1.0584755   0.0000000), wk =   0.0185185
        k(   30) = (   0.1666667  -1.0584755   0.1947928), wk =   0.0185185
        k(   31) = (   0.1666667  -1.0584755   0.3895856), wk =   0.0185185
        k(   32) = (   0.1666667  -1.0584755  -0.5843784), wk =   0.0185185
        k(   33) = (   0.1666667  -0.6735753   0.0000000), wk =   0.0370370
        k(   34) = (   0.1666667  -0.6735753   0.1947928), wk =   0.0370370
        k(   35) = (   0.1666667  -0.6735753   0.3895856), wk =   0.0370370
        k(   36) = (   0.1666667  -0.6735753  -0.5843784), wk =   0.0370370
        k(   37) = (   0.1666667  -0.2886751   0.0000000), wk =   0.0185185
        k(   38) = (   0.1666667  -0.2886751   0.1947928), wk =   0.0370370
        k(   39) = (   0.1666667  -0.2886751   0.3895856), wk =   0.0370370
        k(   40) = (   0.1666667  -0.2886751  -0.5843784), wk =   0.0185185
        k(   41) = (   0.3333333   0.1924501   0.0000000), wk =   0.0185185
        k(   42) = (   0.3333333   0.1924501   0.1947928), wk =   0.0185185
        k(   43) = (   0.3333333   0.1924501   0.3895856), wk =   0.0185185
        k(   44) = (   0.3333333   0.1924501  -0.5843784), wk =   0.0185185
        k(   45) = (   0.3333333   0.5773503   0.0000000), wk =   0.0185185
        k(   46) = (   0.3333333   0.5773503   0.1947928), wk =   0.0370370
        k(   47) = (   0.3333333   0.5773503   0.3895856), wk =   0.0370370
        k(   48) = (   0.3333333   0.5773503  -0.5843784), wk =   0.0185185
        k(   49) = (   0.3333333  -0.9622504   0.0000000), wk =   0.0185185
        k(   50) = (   0.3333333  -0.9622504   0.1947928), wk =   0.0185185
        k(   51) = (   0.3333333  -0.9622504   0.3895856), wk =   0.0185185
        k(   52) = (   0.3333333  -0.9622504  -0.5843784), wk =   0.0185185
        k(   53) = (   0.3333333  -0.5773503   0.0000000), wk =   0.0185185
        k(   54) = (   0.3333333  -0.5773503   0.1947928), wk =   0.0370370
        k(   55) = (   0.3333333  -0.5773503   0.3895856), wk =   0.0370370
        k(   56) = (   0.3333333  -0.5773503  -0.5843784), wk =   0.0185185
        k(   57) = (  -0.5000000  -0.2886751   0.0000000), wk =   0.0092593
        k(   58) = (  -0.5000000  -0.2886751   0.1947928), wk =   0.0185185
        k(   59) = (  -0.5000000  -0.2886751   0.3895856), wk =   0.0185185
        k(   60) = (  -0.5000000  -0.2886751  -0.5843784), wk =   0.0092593
[...]
        k(   66) = (   0.3333333  -0.1924501  -0.3895856), wk =   0.0370370
        k(   67) = (   0.6666667  -0.3849002  -0.1947928), wk =   0.0370370
        k(   68) = (   0.6666667  -0.3849002  -0.3895856), wk =   0.0370370
        k(   69) = (   0.1666667   0.0962250  -0.1947928), wk =   0.0185185
        k(   70) = (   0.1666667   0.0962250  -0.3895856), wk =   0.0185185
        k(   71) = (   0.5000000  -0.0962250  -0.1947928), wk =   0.0370370
        k(   72) = (   0.5000000  -0.0962250  -0.3895856), wk =   0.0370370
        k(   73) = (  -0.8333333   0.6735753  -0.1947928), wk =   0.0185185
        k(   74) = (  -0.8333333   0.6735753  -0.3895856), wk =   0.0185185
        k(   75) = (  -0.5000000   0.4811252  -0.1947928), wk =   0.0370370
        k(   76) = (  -0.5000000   0.4811252  -0.3895856), wk =   0.0370370
        k(   77) = (   0.3333333   0.1924501  -0.1947928), wk =   0.0185185
        k(   78) = (   0.3333333   0.1924501  -0.3895856), wk =   0.0185185
        k(   79) = (  -0.6666667   0.7698004  -0.1947928), wk =   0.0185185
        k(   80) = (  -0.6666667   0.7698004  -0.3895856), wk =   0.0185185

     Check: negative core charge=   -0.000002

     Initial potential from superposition of free atoms

     starting charge      71.9851, renormalised to      72.0000
     Starting wfcs are   52 randomized atomic wfcs

     Self-consistent Calculation

     iteration #  1     ecut=    50.00 Ry     beta= 0.30
     Davidson diagonalization with overlap
     ethr =  1.00E-02,  avg # of iterations =  2.0

     total energy              =    -722.92223660 Ry
     estimated scf accuracy    <       1.34480622 Ry

[...]

     total energy              =    -723.20934009 Ry
     estimated scf accuracy    <       0.00000001 Ry

     iteration # 19     ecut=    50.00 Ry     beta= 0.30
     Davidson diagonalization with overlap
     ethr =  1.50E-11,  avg # of iterations =  5.5

     End of self-consistent calculation

          k = 0.0000 0.0000 0.0000 (  3481 PWs)   bands (ev):

   -10.0678  -9.2665  -9.1883  -8.9475   2.1657   2.2506   2.3851   2.4903
     2.7073   2.7075   2.9105   2.9735   2.9736   3.1302   3.3055   3.6312
     4.0998   4.1466   4.1467   4.3800   4.3800   4.3908   4.4486   4.5661
     4.6232   4.9132   5.2127   5.7528   6.4480   7.2625   8.0010   8.0013
     8.0785   8.7303   8.9109   8.9112

[...]

          k =-0.5000-0.2887 0.0000 (  3474 PWs)   bands (ev):

[...]

          k = 0.3333 0.1925-0.3896 (  3479 PWs)   bands (ev):

[...]

          k =-0.6667 0.7698-0.3896 (  3456 PWs)   bands (ev):

    -9.1303  -9.1303  -9.0016  -9.0016   2.2289   2.2289   2.3219   2.3219
     2.8828   2.8828   3.0503   3.0503   3.3129   3.3129   3.4066   3.4066
     4.1713   4.1713   4.3046   4.3046   4.4931   4.4932   4.6202   4.6202
     4.9665   4.9665   5.4062   5.4062   6.2439   6.2439   6.6209   6.6209
     7.2193   7.2193   7.4854   7.4854

     highest occupied level (ev):     8.9112

!    total energy              =    -723.20934010 Ry
     estimated scf accuracy    <          3.1E-10 Ry

     The total energy is the sum of the following terms:
     one-electron contribution =    -278.36667986 Ry
     hartree contribution      =     225.65019833 Ry
     xc contribution           =    -219.62766973 Ry
     ewald contribution        =    -450.86518883 Ry

     convergence has been achieved in  19 iterations

     Forces acting on atoms (cartesian axes, Ry/au):

     atom    1 type  1   force =    -0.00001439   -0.00000831   -0.00425538
     atom    2 type  2   force =     0.00000298    0.00000172    0.00426035
     atom    3 type  1   force =     0.00002282    0.00001318   -0.00426321
     atom    4 type  2   force =    -0.00000335   -0.00000193    0.00426035
     atom    5 type  1   force =    -0.00001561   -0.00000901   -0.00426409
     atom    6 type  2   force =     0.00000377    0.00000217    0.00426006
     atom    7 type  1   force =     0.00000671    0.00000387   -0.00425860
     atom    8 type  2   force =    -0.00000294   -0.00000170    0.00426050
     The non-local contrib.  to forces
     atom    1 type  1   force =     0.00002424    0.00001400   -0.07896640
     atom    2 type  2   force =    -0.00017766   -0.00010257   -0.06539609
     atom    3 type  1   force =    -0.00001966   -0.00001135   -0.07896918
     atom    4 type  2   force =     0.00017630    0.00010179   -0.06539588
     atom    5 type  1   force =     0.00002280    0.00001316   -0.07896860
     atom    6 type  2   force =    -0.00017394   -0.00010042   -0.06539644
     atom    7 type  1   force =    -0.00002793   -0.00001612   -0.07896700
     atom    8 type  2   force =     0.00017604    0.00010164   -0.06539577
     The ionic contribution  to forces
     atom    1 type  1   force =     0.00000000    0.00000000   -0.76076090
     atom    2 type  2   force =    -0.00000000   -0.00000000    0.76076090
     atom    3 type  1   force =    -0.00000000   -0.00000000   -0.76076090
     atom    4 type  2   force =     0.00000000    0.00000000    0.76076090
     atom    5 type  1   force =     0.00000000    0.00000000   -0.76076090
     atom    6 type  2   force =    -0.00000000   -0.00000000    0.76076090
     atom    7 type  1   force =    -0.00000000   -0.00000000   -0.76076090
     atom    8 type  2   force =     0.00000000    0.00000000    0.76076090
     The local contribution  to forces
     atom    1 type  1   force =    -0.00004506   -0.00002602    0.83044001
     atom    2 type  2   force =     0.00017785    0.00010268   -0.69158222
     atom    3 type  1   force =     0.00003010    0.00001738    0.83045051
     atom    4 type  2   force =    -0.00017811   -0.00010283   -0.69158107
     atom    5 type  1   force =    -0.00004231   -0.00002443    0.83045193
     atom    6 type  2   force =     0.00017740    0.00010242   -0.69158181
     atom    7 type  1   force =     0.00005766    0.00003329    0.83044369
     atom    8 type  2   force =    -0.00017720   -0.00010231   -0.69158084
     The core correction contribution to forces
     atom    1 type  1   force =     0.00000379    0.00000225    0.00501848
     atom    2 type  2   force =     0.00000201    0.00000116    0.00048086
     atom    3 type  1   force =    -0.00000373   -0.00000217    0.00501836
     atom    4 type  2   force =    -0.00000203   -0.00000117    0.00048087
     atom    5 type  1   force =     0.00000404    0.00000233    0.00501821
     atom    6 type  2   force =     0.00000199    0.00000116    0.00048087
     atom    7 type  1   force =    -0.00000406   -0.00000232    0.00501842
     atom    8 type  2   force =    -0.00000199   -0.00000115    0.00048085
     The Hubbard contrib.    to forces
     atom    1 type  1   force =     0.00000000    0.00000000    0.00000000
     atom    2 type  2   force =     0.00000000    0.00000000    0.00000000
     atom    3 type  1   force =     0.00000000    0.00000000    0.00000000
     atom    4 type  2   force =     0.00000000    0.00000000    0.00000000
     atom    5 type  1   force =     0.00000000    0.00000000    0.00000000
     atom    6 type  2   force =     0.00000000    0.00000000    0.00000000
     atom    7 type  1   force =     0.00000000    0.00000000    0.00000000
     atom    8 type  2   force =     0.00000000    0.00000000    0.00000000
     The SCF correction term to forces
     atom    1 type  1   force =     0.00000257    0.00000148    0.00001733
     atom    2 type  2   force =     0.00000075    0.00000043    0.00000079
     atom    3 type  1   force =     0.00001608    0.00000928    0.00000189
     atom    4 type  2   force =     0.00000044    0.00000026   -0.00000057
     atom    5 type  1   force =    -0.00000017   -0.00000010   -0.00000083
     atom    6 type  2   force =    -0.00000173   -0.00000100    0.00000043
     atom    7 type  1   force =    -0.00001902   -0.00001098    0.00001109
     atom    8 type  2   force =     0.00000017    0.00000010   -0.00000075

     Total force =     0.012050     Total SCF correction =     0.000036

     Writing all to output data dir ./ZnO-3.07-1.71-211.in.save/

     General routines

     Parallel routines

   This run was terminated on:  13: 9:12  12Jul2025

   JOB DONE.
Note: The following floating-point exceptions are signalling: IEEE_INVALID_FLAG
Note: The following floating-point exceptions are signalling: IEEE_INVALID_FLAG