     Program PWSCF v.7.2 starts on 12Jul2025 at 11:57: 9

     Reading input from /home/jvc/QEspresso7.2/ZnO_database/scripts/cell211_strain10%.in/ZnO-2.94-1.49-211.in
Warning: card &CELL ignored
Warning: card / ignored
Warning: card &FCP ignored
Warning: card / ignored
Warning: card &RISM ignored
Warning: card / ignored

     Current dimensions of program PWSCF are:
     Max number of different atomic species (ntypx) = 10
     Max number of k-points (npk) =  40000
     Max angular momentum in pseudopotentials (lmaxx) =  4
     file Zn.upf: wavefunction(s)  3D renormalized
     Found identity + ( -0.5000  0.0000  0.0000) symmetry
     This is a supercell, fractional translations are disabled
     Message from routine setup:
     using ibrav=0 with symmetry is DISCOURAGED, use correct ibrav instead

     K-points division:     npool     =       2
     R & G space division:  proc/nbgrp/npool/nimage =       8
     Subspace diagonalization in iterative solution of the eigenvalue problem:
     a serial algorithm will be used

     Using Slab Decomposition

     bravais-lattice index     =            0
     lattice parameter (alat)  =      11.1219  a.u.
     unit-cell volume          =     442.3843 (a.u.)^3
     number of atoms/cell      =            8
     number of atomic types    =            2
     number of electrons       =        72.00
     number of Kohn-Sham states=           36
     kinetic-energy cutoff     =      50.0000  Ry
     charge density cutoff     =     400.0000  Ry
     scf convergence threshold =      1.0E-08
     mixing beta               =       0.3000
     number of iterations used =            8  plain     mixing
     Exchange-correlation= PBE
                           (   1   4   3   4   0   0   0)

     celldm(1)=  11.121937  celldm(2)=   0.000000  celldm(3)=   0.000000
     celldm(4)=   0.000000  celldm(5)=   0.000000  celldm(6)=   0.000000

     crystal axes: (cart. coord. in units of alat)
               a(1) = (   1.000000   0.000000   0.000000 )
               a(2) = (  -0.250000   0.433013   0.000000 )
               a(3) = (   0.000000   0.000000   0.742605 )

     reciprocal axes: (cart. coord. in units 2 pi/alat)
               b(1) = (  1.000000  0.577350 -0.000000 )
               b(2) = (  0.000000  2.309401  0.000000 )
               b(3) = (  0.000000 -0.000000  1.346611 )

     PseudoPot. # 1 for Zn read from file:
     /home/jvc/QEspresso7.2/ZnO_database/pseudos/Zn.upf
     MD5 check sum: 7f56cabf9682ed8c977c2f7d0c5985c5
     Pseudo is Ultrasoft + core correction, Zval = 12.0
     Generated using &quot;atomic&quot; code by A. Dal Corso  v.6.2.2
     Using radial grid of 1201 points,  6 beta functions with:
                l(1) =   0
                l(2) =   0
                l(3) =   1
                l(4) =   1
                l(5) =   2
                l(6) =   2
     Q(r) pseudized with 0 coefficients

     PseudoPot. # 2 for O  read from file:
     /home/jvc/QEspresso7.2/ZnO_database/pseudos/O.upf
     MD5 check sum: 91400c9766925bcf19f520983a725ff0
     Pseudo is Ultrasoft + core correction, Zval =  6.0
     Generated using &quot;atomic&quot; code by A. Dal Corso  v.6.3MaX
     Using radial grid of 1095 points,  4 beta functions with:
                l(1) =   0
                l(2) =   0
                l(3) =   1
                l(4) =   1
     Q(r) pseudized with 0 coefficients

     atomic species   valence    mass     pseudopotential
        Zn            12.00    65.38000     Zn( 1.00)
        O              6.00    15.99900     O ( 1.00)

      2 Sym. Ops. (no inversion) found

   Cartesian axes

     site n.     atom                  positions (alat units)
         1           Zn  tau(   1) = (   0.0000000   0.0000000   0.0000000  )
         2           O   tau(   2) = (   0.0000000   0.2886751   0.0734336  )
         3           Zn  tau(   3) = (   0.0000000   0.2886751   0.3713024  )
         4           O   tau(   4) = (   0.0000000   0.0000000   0.4447360  )
         5           Zn  tau(   5) = (   0.5000000   0.0000000   0.0000000  )
         6           O   tau(   6) = (   0.5000000   0.2886751   0.0734336  )
         7           Zn  tau(   7) = (   0.5000000   0.2886751   0.3713024  )
         8           O   tau(   8) = (   0.5000000   0.0000000   0.4447360  )

     number of k points=    80
                       cart. coord. in units 2pi/alat
        k(    1) = (   0.0000000   0.0000000   0.0000000), wk =   0.0092593
        k(    2) = (   0.0000000   0.0000000   0.2244352), wk =   0.0185185
        k(    3) = (   0.0000000   0.0000000   0.4488704), wk =   0.0185185
        k(    4) = (   0.0000000   0.0000000  -0.6733056), wk =   0.0092593
        k(    5) = (   0.0000000   0.3849002   0.0000000), wk =   0.0370370
        k(    6) = (   0.0000000   0.3849002   0.2244352), wk =   0.0370370
        k(    7) = (   0.0000000   0.3849002   0.4488704), wk =   0.0370370
        k(    8) = (   0.0000000   0.3849002  -0.6733056), wk =   0.0370370
        k(    9) = (   0.0000000   0.7698004   0.0000000), wk =   0.0370370
        k(   10) = (   0.0000000   0.7698004   0.2244352), wk =   0.0370370
        k(   11) = (   0.0000000   0.7698004   0.4488704), wk =   0.0370370
        k(   12) = (   0.0000000   0.7698004  -0.6733056), wk =   0.0370370
        k(   13) = (   0.0000000  -1.1547005   0.0000000), wk =   0.0092593
        k(   14) = (   0.0000000  -1.1547005   0.2244352), wk =   0.0185185
        k(   15) = (   0.0000000  -1.1547005   0.4488704), wk =   0.0185185
        k(   16) = (   0.0000000  -1.1547005  -0.6733056), wk =   0.0092593
        k(   17) = (   0.1666667   0.0962250   0.0000000), wk =   0.0185185
        k(   18) = (   0.1666667   0.0962250   0.2244352), wk =   0.0185185
        k(   19) = (   0.1666667   0.0962250   0.4488704), wk =   0.0185185
        k(   20) = (   0.1666667   0.0962250  -0.6733056), wk =   0.0185185
        k(   21) = (   0.1666667   0.4811252   0.0000000), wk =   0.0370370
        k(   22) = (   0.1666667   0.4811252   0.2244352), wk =   0.0370370
        k(   23) = (   0.1666667   0.4811252   0.4488704), wk =   0.0370370
        k(   24) = (   0.1666667   0.4811252  -0.6733056), wk =   0.0370370
        k(   25) = (   0.1666667   0.8660254   0.0000000), wk =   0.0185185
        k(   26) = (   0.1666667   0.8660254   0.2244352), wk =   0.0370370
        k(   27) = (   0.1666667   0.8660254   0.4488704), wk =   0.0370370
        k(   28) = (   0.1666667   0.8660254  -0.6733056), wk =   0.0185185
        k(   29) = (   0.1666667  -1.0584755   0.0000000), wk =   0.0185185
        k(   30) = (   0.1666667  -1.0584755   0.2244352), wk =   0.0185185
        k(   31) = (   0.1666667  -1.0584755   0.4488704), wk =   0.0185185
        k(   32) = (   0.1666667  -1.0584755  -0.6733056), wk =   0.0185185
        k(   33) = (   0.1666667  -0.6735753   0.0000000), wk =   0.0370370
        k(   34) = (   0.1666667  -0.6735753   0.2244352), wk =   0.0370370
        k(   35) = (   0.1666667  -0.6735753   0.4488704), wk =   0.0370370
        k(   36) = (   0.1666667  -0.6735753  -0.6733056), wk =   0.0370370
        k(   37) = (   0.1666667  -0.2886751   0.0000000), wk =   0.0185185
        k(   38) = (   0.1666667  -0.2886751   0.2244352), wk =   0.0370370
        k(   39) = (   0.1666667  -0.2886751   0.4488704), wk =   0.0370370
        k(   40) = (   0.1666667  -0.2886751  -0.6733056), wk =   0.0185185
        k(   41) = (   0.3333333   0.1924501   0.0000000), wk =   0.0185185
        k(   42) = (   0.3333333   0.1924501   0.2244352), wk =   0.0185185
        k(   43) = (   0.3333333   0.1924501   0.4488704), wk =   0.0185185
        k(   44) = (   0.3333333   0.1924501  -0.6733056), wk =   0.0185185
        k(   45) = (   0.3333333   0.5773503   0.0000000), wk =   0.0185185
        k(   46) = (   0.3333333   0.5773503   0.2244352), wk =   0.0370370
        k(   47) = (   0.3333333   0.5773503   0.4488704), wk =   0.0370370
        k(   48) = (   0.3333333   0.5773503  -0.6733056), wk =   0.0185185
        k(   49) = (   0.3333333  -0.9622504   0.0000000), wk =   0.0185185
        k(   50) = (   0.3333333  -0.9622504   0.2244352), wk =   0.0185185
        k(   51) = (   0.3333333  -0.9622504   0.4488704), wk =   0.0185185
        k(   52) = (   0.3333333  -0.9622504  -0.6733056), wk =   0.0185185
        k(   53) = (   0.3333333  -0.5773503   0.0000000), wk =   0.0185185
        k(   54) = (   0.3333333  -0.5773503   0.2244352), wk =   0.0370370
        k(   55) = (   0.3333333  -0.5773503   0.4488704), wk =   0.0370370
        k(   56) = (   0.3333333  -0.5773503  -0.6733056), wk =   0.0185185
        k(   57) = (  -0.5000000  -0.2886751   0.0000000), wk =   0.0092593
        k(   58) = (  -0.5000000  -0.2886751   0.2244352), wk =   0.0185185
        k(   59) = (  -0.5000000  -0.2886751   0.4488704), wk =   0.0185185
        k(   60) = (  -0.5000000  -0.2886751  -0.6733056), wk =   0.0092593
[...]
        k(   66) = (   0.3333333  -0.1924501  -0.4488704), wk =   0.0370370
        k(   67) = (   0.6666667  -0.3849002  -0.2244352), wk =   0.0370370
        k(   68) = (   0.6666667  -0.3849002  -0.4488704), wk =   0.0370370
        k(   69) = (   0.1666667   0.0962250  -0.2244352), wk =   0.0185185
        k(   70) = (   0.1666667   0.0962250  -0.4488704), wk =   0.0185185
        k(   71) = (   0.5000000  -0.0962250  -0.2244352), wk =   0.0370370
        k(   72) = (   0.5000000  -0.0962250  -0.4488704), wk =   0.0370370
        k(   73) = (  -0.8333333   0.6735753  -0.2244352), wk =   0.0185185
        k(   74) = (  -0.8333333   0.6735753  -0.4488704), wk =   0.0185185
        k(   75) = (  -0.5000000   0.4811252  -0.2244352), wk =   0.0370370
        k(   76) = (  -0.5000000   0.4811252  -0.4488704), wk =   0.0370370
        k(   77) = (   0.3333333   0.1924501  -0.2244352), wk =   0.0185185
        k(   78) = (   0.3333333   0.1924501  -0.4488704), wk =   0.0185185
        k(   79) = (  -0.6666667   0.7698004  -0.2244352), wk =   0.0185185
        k(   80) = (  -0.6666667   0.7698004  -0.4488704), wk =   0.0185185

     Initial potential from superposition of free atoms

     starting charge      71.9851, renormalised to      72.0000
     Starting wfcs are   52 randomized atomic wfcs

     Self-consistent Calculation

     iteration #  1     ecut=    50.00 Ry     beta= 0.30
     Davidson diagonalization with overlap
     ethr =  1.00E-02,  avg # of iterations =  2.3

     total energy              =    -722.34339528 Ry
     estimated scf accuracy    <       1.41480459 Ry

[...]

     total energy              =    -722.59102923 Ry
     estimated scf accuracy    <       0.00000001 Ry

     iteration # 15     ecut=    50.00 Ry     beta= 0.30
     Davidson diagonalization with overlap
     ethr =  1.53E-11,  avg # of iterations =  6.4

     End of self-consistent calculation

          k = 0.0000 0.0000 0.0000 (  2663 PWs)   bands (ev):

    -7.7219  -6.3816  -6.0404  -5.8579   5.0215   5.2315   5.2768   5.7549
     5.7550   5.9548   5.9549   6.3987   6.4171   6.4387   7.0087   7.5819
     8.3144   8.3144   8.5058   8.5076   8.6271   8.9006   8.9007   9.0177
     9.1514   9.5950   9.8763  10.3454  10.3895  12.4237  12.5256  12.9331
    12.9333  13.6262  14.2152  14.2154

[...]

          k =-0.5000-0.2887 0.0000 (  2662 PWs)   bands (ev):

[...]

          k = 0.3333 0.1925-0.4489 (  2642 PWs)   bands (ev):

[...]

          k =-0.6667 0.7698-0.4489 (  2636 PWs)   bands (ev):

    -6.2235  -6.2235  -5.9391  -5.9391   4.8960   4.8960   4.9882   4.9882
     6.1909   6.1909   6.2765   6.2765   6.7167   6.7167   6.8707   6.8707
     8.5162   8.5162   8.6525   8.6526   8.9417   8.9417   9.1455   9.1455
     9.5349   9.5349   9.9110   9.9110  10.5484  10.5484  11.4453  11.4453
    11.9309  11.9309  12.8231  12.8231

     highest occupied level (ev):    14.2154

!    total energy              =    -722.59102924 Ry
     estimated scf accuracy    <          9.3E-09 Ry

     The total energy is the sum of the following terms:
     one-electron contribution =    -212.39484143 Ry
     hartree contribution      =     204.14002597 Ry
     xc contribution           =    -221.17679106 Ry
     ewald contribution        =    -493.15942272 Ry

     convergence has been achieved in  15 iterations

     Forces acting on atoms (cartesian axes, Ry/au):

     atom    1 type  1   force =    -0.00000916   -0.00000529    0.04072411
     atom    2 type  2   force =    -0.00000763   -0.00000441   -0.04072592
     atom    3 type  1   force =     0.00000352    0.00000203    0.04072656
     atom    4 type  2   force =     0.00000982    0.00000567   -0.04072662
     atom    5 type  1   force =    -0.00000307   -0.00000178    0.04072400
     atom    6 type  2   force =    -0.00000805   -0.00000465   -0.04072539
     atom    7 type  1   force =     0.00000513    0.00000296    0.04072969
     atom    8 type  2   force =     0.00000944    0.00000545   -0.04072643
     The non-local contrib.  to forces
     atom    1 type  1   force =     0.00003404    0.00001965    0.14980002
     atom    2 type  2   force =    -0.00012703   -0.00007334    0.09809961
     atom    3 type  1   force =    -0.00003611   -0.00002085    0.14980017
     atom    4 type  2   force =     0.00012663    0.00007311    0.09810060
     atom    5 type  1   force =     0.00003635    0.00002098    0.14980045
     atom    6 type  2   force =    -0.00012682   -0.00007322    0.09810191
     atom    7 type  1   force =    -0.00003496   -0.00002018    0.14979927
     atom    8 type  2   force =     0.00012567    0.00007256    0.09809957
     The ionic contribution  to forces
     atom    1 type  1   force =     0.00000000    0.00000000    1.05974528
     atom    2 type  2   force =    -0.00000000   -0.00000000   -1.05974528
     atom    3 type  1   force =    -0.00000000   -0.00000000    1.05974528
     atom    4 type  2   force =     0.00000000    0.00000000   -1.05974528
     atom    5 type  1   force =     0.00000000    0.00000000    1.05974528
     atom    6 type  2   force =    -0.00000000   -0.00000000   -1.05974528
     atom    7 type  1   force =    -0.00000000   -0.00000000    1.05974528
     atom    8 type  2   force =     0.00000000    0.00000000   -1.05974528
     The local contribution  to forces
     atom    1 type  1   force =    -0.00004214   -0.00002433   -1.15363297
     atom    2 type  2   force =     0.00011922    0.00006883    0.92149442
     atom    3 type  1   force =     0.00005042    0.00002911   -1.15363524
     atom    4 type  2   force =    -0.00011365   -0.00006562    0.92149456
     atom    5 type  1   force =    -0.00005114   -0.00002952   -1.15363448
     atom    6 type  2   force =     0.00011920    0.00006882    0.92148991
     atom    7 type  1   force =     0.00004524    0.00002612   -1.15363196
     atom    8 type  2   force =    -0.00011618   -0.00006707    0.92149000
     The core correction contribution to forces
     atom    1 type  1   force =     0.00000359    0.00000207   -0.01518315
     atom    2 type  2   force =     0.00000140    0.00000081   -0.00055739
     atom    3 type  1   force =    -0.00000359   -0.00000207   -0.01518318
     atom    4 type  2   force =    -0.00000137   -0.00000079   -0.00055740
     atom    5 type  1   force =     0.00000366    0.00000211   -0.01518309
     atom    6 type  2   force =     0.00000139    0.00000080   -0.00055744
     atom    7 type  1   force =    -0.00000351   -0.00000203   -0.01518336
     atom    8 type  2   force =    -0.00000137   -0.00000079   -0.00055741
     The Hubbard contrib.    to forces
     atom    1 type  1   force =     0.00000000    0.00000000    0.00000000
     atom    2 type  2   force =     0.00000000    0.00000000    0.00000000
     atom    3 type  1   force =     0.00000000    0.00000000    0.00000000
     atom    4 type  2   force =     0.00000000    0.00000000    0.00000000
     atom    5 type  1   force =     0.00000000    0.00000000    0.00000000
     atom    6 type  2   force =     0.00000000    0.00000000    0.00000000
     atom    7 type  1   force =     0.00000000    0.00000000    0.00000000
     atom    8 type  2   force =     0.00000000    0.00000000    0.00000000
     The SCF correction term to forces
     atom    1 type  1   force =    -0.00000554   -0.00000320   -0.00000744
     atom    2 type  2   force =    -0.00000210   -0.00000121   -0.00001965
     atom    3 type  1   force =    -0.00000809   -0.00000467   -0.00000285
     atom    4 type  2   force =    -0.00000269   -0.00000155   -0.00002147
     atom    5 type  1   force =     0.00000715    0.00000413   -0.00000652
     atom    6 type  2   force =    -0.00000271   -0.00000156   -0.00001686
     atom    7 type  1   force =    -0.00000254   -0.00000147   -0.00000190
     atom    8 type  2   force =     0.00000042    0.00000025   -0.00001569

     Total force =     0.115191     Total SCF correction =     0.000041

     Writing all to output data dir ./ZnO-2.94-1.49-211.in.save/

     General routines

     Parallel routines

   This run was terminated on:  11:58:44  12Jul2025

   JOB DONE.
Note: The following floating-point exceptions are signalling: IEEE_INVALID_FLAG
Note: The following floating-point exceptions are signalling: IEEE_INVALID_FLAG