     Program PWSCF v.7.2 starts on 12Jul2025 at 12:20: 3

     Reading input from /home/jvc/QEspresso7.2/ZnO_database/scripts/cell211_strain10%.in/ZnO-3.01-1.49-211.in
Warning: card &CELL ignored
Warning: card / ignored
Warning: card &FCP ignored
Warning: card / ignored
Warning: card &RISM ignored
Warning: card / ignored

     Current dimensions of program PWSCF are:
     Max number of different atomic species (ntypx) = 10
     Max number of k-points (npk) =  40000
     Max angular momentum in pseudopotentials (lmaxx) =  4
     file Zn.upf: wavefunction(s)  3D renormalized
     Found identity + ( -0.5000  0.0000  0.0000) symmetry
     This is a supercell, fractional translations are disabled
     Message from routine setup:
     using ibrav=0 with symmetry is DISCOURAGED, use correct ibrav instead

     K-points division:     npool     =       2
     R & G space division:  proc/nbgrp/npool/nimage =       8
     Subspace diagonalization in iterative solution of the eigenvalue problem:
     a serial algorithm will be used

     Using Slab Decomposition

     bravais-lattice index     =            0
     lattice parameter (alat)  =      11.3691  a.u.
     unit-cell volume          =     472.5368 (a.u.)^3
     number of atoms/cell      =            8
     number of atomic types    =            2
     number of electrons       =        72.00
     number of Kohn-Sham states=           36
     kinetic-energy cutoff     =      50.0000  Ry
     charge density cutoff     =     400.0000  Ry
     scf convergence threshold =      1.0E-08
     mixing beta               =       0.3000
     number of iterations used =            8  plain     mixing
     Exchange-correlation= PBE
                           (   1   4   3   4   0   0   0)

     celldm(1)=  11.369091  celldm(2)=   0.000000  celldm(3)=   0.000000
     celldm(4)=   0.000000  celldm(5)=   0.000000  celldm(6)=   0.000000

     crystal axes: (cart. coord. in units of alat)
               a(1) = (   1.000000   0.000000   0.000000 )
               a(2) = (  -0.250000   0.433013   0.000000 )
               a(3) = (   0.000000   0.000000   0.742605 )

     reciprocal axes: (cart. coord. in units 2 pi/alat)
               b(1) = (  1.000000  0.577350 -0.000000 )
               b(2) = (  0.000000  2.309401  0.000000 )
               b(3) = (  0.000000 -0.000000  1.346611 )

     PseudoPot. # 1 for Zn read from file:
     /home/jvc/QEspresso7.2/ZnO_database/pseudos/Zn.upf
     MD5 check sum: 7f56cabf9682ed8c977c2f7d0c5985c5
     Pseudo is Ultrasoft + core correction, Zval = 12.0
     Generated using &quot;atomic&quot; code by A. Dal Corso  v.6.2.2
     Using radial grid of 1201 points,  6 beta functions with:
                l(1) =   0
                l(2) =   0
                l(3) =   1
                l(4) =   1
                l(5) =   2
                l(6) =   2
     Q(r) pseudized with 0 coefficients

     PseudoPot. # 2 for O  read from file:
     /home/jvc/QEspresso7.2/ZnO_database/pseudos/O.upf
     MD5 check sum: 91400c9766925bcf19f520983a725ff0
     Pseudo is Ultrasoft + core correction, Zval =  6.0
     Generated using &quot;atomic&quot; code by A. Dal Corso  v.6.3MaX
     Using radial grid of 1095 points,  4 beta functions with:
                l(1) =   0
                l(2) =   0
                l(3) =   1
                l(4) =   1
     Q(r) pseudized with 0 coefficients

     atomic species   valence    mass     pseudopotential
        Zn            12.00    65.38000     Zn( 1.00)
        O              6.00    15.99900     O ( 1.00)

      2 Sym. Ops. (no inversion) found

   Cartesian axes

     site n.     atom                  positions (alat units)
         1           Zn  tau(   1) = (   0.0000000   0.0000000   0.0000000  )
         2           O   tau(   2) = (   0.0000000   0.2886751   0.0734336  )
         3           Zn  tau(   3) = (   0.0000000   0.2886751   0.3713024  )
         4           O   tau(   4) = (   0.0000000   0.0000000   0.4447360  )
         5           Zn  tau(   5) = (   0.5000000   0.0000000   0.0000000  )
         6           O   tau(   6) = (   0.5000000   0.2886751   0.0734336  )
         7           Zn  tau(   7) = (   0.5000000   0.2886751   0.3713024  )
         8           O   tau(   8) = (   0.5000000   0.0000000   0.4447360  )

     number of k points=    80
                       cart. coord. in units 2pi/alat
        k(    1) = (   0.0000000   0.0000000   0.0000000), wk =   0.0092593
        k(    2) = (   0.0000000   0.0000000   0.2244352), wk =   0.0185185
        k(    3) = (   0.0000000   0.0000000   0.4488704), wk =   0.0185185
        k(    4) = (   0.0000000   0.0000000  -0.6733056), wk =   0.0092593
        k(    5) = (   0.0000000   0.3849002   0.0000000), wk =   0.0370370
        k(    6) = (   0.0000000   0.3849002   0.2244352), wk =   0.0370370
        k(    7) = (   0.0000000   0.3849002   0.4488704), wk =   0.0370370
        k(    8) = (   0.0000000   0.3849002  -0.6733056), wk =   0.0370370
        k(    9) = (   0.0000000   0.7698004   0.0000000), wk =   0.0370370
        k(   10) = (   0.0000000   0.7698004   0.2244352), wk =   0.0370370
        k(   11) = (   0.0000000   0.7698004   0.4488704), wk =   0.0370370
        k(   12) = (   0.0000000   0.7698004  -0.6733056), wk =   0.0370370
        k(   13) = (   0.0000000  -1.1547005   0.0000000), wk =   0.0092593
        k(   14) = (   0.0000000  -1.1547005   0.2244352), wk =   0.0185185
        k(   15) = (   0.0000000  -1.1547005   0.4488704), wk =   0.0185185
        k(   16) = (   0.0000000  -1.1547005  -0.6733056), wk =   0.0092593
        k(   17) = (   0.1666667   0.0962250   0.0000000), wk =   0.0185185
        k(   18) = (   0.1666667   0.0962250   0.2244352), wk =   0.0185185
        k(   19) = (   0.1666667   0.0962250   0.4488704), wk =   0.0185185
        k(   20) = (   0.1666667   0.0962250  -0.6733056), wk =   0.0185185
        k(   21) = (   0.1666667   0.4811252   0.0000000), wk =   0.0370370
        k(   22) = (   0.1666667   0.4811252   0.2244352), wk =   0.0370370
        k(   23) = (   0.1666667   0.4811252   0.4488704), wk =   0.0370370
        k(   24) = (   0.1666667   0.4811252  -0.6733056), wk =   0.0370370
        k(   25) = (   0.1666667   0.8660254   0.0000000), wk =   0.0185185
        k(   26) = (   0.1666667   0.8660254   0.2244352), wk =   0.0370370
        k(   27) = (   0.1666667   0.8660254   0.4488704), wk =   0.0370370
        k(   28) = (   0.1666667   0.8660254  -0.6733056), wk =   0.0185185
        k(   29) = (   0.1666667  -1.0584755   0.0000000), wk =   0.0185185
        k(   30) = (   0.1666667  -1.0584755   0.2244352), wk =   0.0185185
        k(   31) = (   0.1666667  -1.0584755   0.4488704), wk =   0.0185185
        k(   32) = (   0.1666667  -1.0584755  -0.6733056), wk =   0.0185185
        k(   33) = (   0.1666667  -0.6735753   0.0000000), wk =   0.0370370
        k(   34) = (   0.1666667  -0.6735753   0.2244352), wk =   0.0370370
        k(   35) = (   0.1666667  -0.6735753   0.4488704), wk =   0.0370370
        k(   36) = (   0.1666667  -0.6735753  -0.6733056), wk =   0.0370370
        k(   37) = (   0.1666667  -0.2886751   0.0000000), wk =   0.0185185
        k(   38) = (   0.1666667  -0.2886751   0.2244352), wk =   0.0370370
        k(   39) = (   0.1666667  -0.2886751   0.4488704), wk =   0.0370370
        k(   40) = (   0.1666667  -0.2886751  -0.6733056), wk =   0.0185185
        k(   41) = (   0.3333333   0.1924501   0.0000000), wk =   0.0185185
        k(   42) = (   0.3333333   0.1924501   0.2244352), wk =   0.0185185
        k(   43) = (   0.3333333   0.1924501   0.4488704), wk =   0.0185185
        k(   44) = (   0.3333333   0.1924501  -0.6733056), wk =   0.0185185
        k(   45) = (   0.3333333   0.5773503   0.0000000), wk =   0.0185185
        k(   46) = (   0.3333333   0.5773503   0.2244352), wk =   0.0370370
        k(   47) = (   0.3333333   0.5773503   0.4488704), wk =   0.0370370
        k(   48) = (   0.3333333   0.5773503  -0.6733056), wk =   0.0185185
        k(   49) = (   0.3333333  -0.9622504   0.0000000), wk =   0.0185185
        k(   50) = (   0.3333333  -0.9622504   0.2244352), wk =   0.0185185
        k(   51) = (   0.3333333  -0.9622504   0.4488704), wk =   0.0185185
        k(   52) = (   0.3333333  -0.9622504  -0.6733056), wk =   0.0185185
        k(   53) = (   0.3333333  -0.5773503   0.0000000), wk =   0.0185185
        k(   54) = (   0.3333333  -0.5773503   0.2244352), wk =   0.0370370
        k(   55) = (   0.3333333  -0.5773503   0.4488704), wk =   0.0370370
        k(   56) = (   0.3333333  -0.5773503  -0.6733056), wk =   0.0185185
        k(   57) = (  -0.5000000  -0.2886751   0.0000000), wk =   0.0092593
        k(   58) = (  -0.5000000  -0.2886751   0.2244352), wk =   0.0185185
        k(   59) = (  -0.5000000  -0.2886751   0.4488704), wk =   0.0185185
        k(   60) = (  -0.5000000  -0.2886751  -0.6733056), wk =   0.0092593
[...]
        k(   66) = (   0.3333333  -0.1924501  -0.4488704), wk =   0.0370370
        k(   67) = (   0.6666667  -0.3849002  -0.2244352), wk =   0.0370370
        k(   68) = (   0.6666667  -0.3849002  -0.4488704), wk =   0.0370370
        k(   69) = (   0.1666667   0.0962250  -0.2244352), wk =   0.0185185
        k(   70) = (   0.1666667   0.0962250  -0.4488704), wk =   0.0185185
        k(   71) = (   0.5000000  -0.0962250  -0.2244352), wk =   0.0370370
        k(   72) = (   0.5000000  -0.0962250  -0.4488704), wk =   0.0370370
        k(   73) = (  -0.8333333   0.6735753  -0.2244352), wk =   0.0185185
        k(   74) = (  -0.8333333   0.6735753  -0.4488704), wk =   0.0185185
        k(   75) = (  -0.5000000   0.4811252  -0.2244352), wk =   0.0370370
        k(   76) = (  -0.5000000   0.4811252  -0.4488704), wk =   0.0370370
        k(   77) = (   0.3333333   0.1924501  -0.2244352), wk =   0.0185185
        k(   78) = (   0.3333333   0.1924501  -0.4488704), wk =   0.0185185
        k(   79) = (  -0.6666667   0.7698004  -0.2244352), wk =   0.0185185
        k(   80) = (  -0.6666667   0.7698004  -0.4488704), wk =   0.0185185

     Check: negative core charge=   -0.000001

     Initial potential from superposition of free atoms

     starting charge      71.9851, renormalised to      72.0000
     Starting wfcs are   52 randomized atomic wfcs

     Self-consistent Calculation

     iteration #  1     ecut=    50.00 Ry     beta= 0.30
     Davidson diagonalization with overlap
     ethr =  1.00E-02,  avg # of iterations =  2.2

     total energy              =    -722.56227589 Ry
     estimated scf accuracy    <       1.38064257 Ry

[...]

     total energy              =    -722.81859019 Ry
     estimated scf accuracy    <       0.00000013 Ry

     iteration # 24     ecut=    50.00 Ry     beta= 0.30
     Davidson diagonalization with overlap
     ethr =  8.85E-11,  avg # of iterations =  6.6

     End of self-consistent calculation

          k = 0.0000 0.0000 0.0000 (  2805 PWs)   bands (ev):

    -8.3418  -7.1450  -6.8350  -6.6752   4.3234   4.4908   4.5866   4.9466
     4.9467   5.1304   5.1305   5.5493   5.5612   5.5840   6.1033   6.6038
     7.2276   7.2276   7.3990   7.4792   7.5018   7.7383   7.7383   7.8414
     7.9777   8.3373   8.6395   9.1588   9.1959  11.1037  11.2321  11.5817
    11.5819  12.2806  12.7650  12.7652

[...]

          k =-0.5000-0.2887 0.0000 (  2854 PWs)   bands (ev):

[...]

          k = 0.3333 0.1925-0.4489 (  2829 PWs)   bands (ev):

[...]

          k =-0.6667 0.7698-0.4489 (  2816 PWs)   bands (ev):

    -7.0055  -7.0055  -6.7518  -6.7518   4.1909   4.1909   4.2724   4.2724
     5.3736   5.3737   5.4467   5.4467   5.8267   5.8267   5.9650   5.9650
     7.4143   7.4143   7.5242   7.5242   7.7809   7.7809   7.9714   7.9714
     8.3496   8.3496   8.7033   8.7033   9.3274   9.3274  10.2063  10.2063
    10.6512  10.6512  11.5026  11.5026

     highest occupied level (ev):    12.7652

!    total energy              =    -722.81859023 Ry
     estimated scf accuracy    <          7.2E-09 Ry

     The total energy is the sum of the following terms:
     one-electron contribution =    -229.10798859 Ry
     hartree contribution      =     209.48433752 Ry
     xc contribution           =    -220.75637346 Ry
     ewald contribution        =    -482.43856570 Ry

     convergence has been achieved in  24 iterations

     Forces acting on atoms (cartesian axes, Ry/au):

     atom    1 type  1   force =    -0.00000237   -0.00000137    0.03163474
     atom    2 type  2   force =    -0.00000890   -0.00000514   -0.03163141
     atom    3 type  1   force =     0.00000496    0.00000286    0.03163038
     atom    4 type  2   force =     0.00000834    0.00000482   -0.03163314
     atom    5 type  1   force =    -0.00000213   -0.00000123    0.03163510
     atom    6 type  2   force =    -0.00000899   -0.00000519   -0.03163200
     atom    7 type  1   force =     0.00000116    0.00000067    0.03163131
     atom    8 type  2   force =     0.00000793    0.00000458   -0.03163497
     The non-local contrib.  to forces
     atom    1 type  1   force =     0.00003310    0.00001911    0.14484935
     atom    2 type  2   force =    -0.00013617   -0.00007862    0.09752797
     atom    3 type  1   force =    -0.00003251   -0.00001877    0.14484951
     atom    4 type  2   force =     0.00013641    0.00007875    0.09752851
     atom    5 type  1   force =     0.00003263    0.00001884    0.14484907
     atom    6 type  2   force =    -0.00013484   -0.00007785    0.09752724
     atom    7 type  1   force =    -0.00003341   -0.00001929    0.14484980
     atom    8 type  2   force =     0.00013620    0.00007864    0.09752604
     The ionic contribution  to forces
     atom    1 type  1   force =     0.00000000    0.00000000    1.01417022
     atom    2 type  2   force =    -0.00000000   -0.00000000   -1.01417022
     atom    3 type  1   force =    -0.00000000   -0.00000000    1.01417022
     atom    4 type  2   force =     0.00000000    0.00000000   -1.01417022
     atom    5 type  1   force =     0.00000000    0.00000000    1.01417022
     atom    6 type  2   force =    -0.00000000   -0.00000000   -1.01417022
     atom    7 type  1   force =    -0.00000000   -0.00000000    1.01417022
     atom    8 type  2   force =     0.00000000    0.00000000   -1.01417022
     The local contribution  to forces
     atom    1 type  1   force =    -0.00004476   -0.00002584   -1.11366194
     atom    2 type  2   force =     0.00012734    0.00007352    0.88559478
     atom    3 type  1   force =     0.00004155    0.00002399   -1.11366252
     atom    4 type  2   force =    -0.00012730   -0.00007349    0.88559516
     atom    5 type  1   force =    -0.00004502   -0.00002599   -1.11366073
     atom    6 type  2   force =     0.00013018    0.00007516    0.88559438
     atom    7 type  1   force =     0.00004731    0.00002731   -1.11366255
     atom    8 type  2   force =    -0.00012778   -0.00007377    0.88559628
     The core correction contribution to forces
     atom    1 type  1   force =     0.00000396    0.00000215   -0.01373073
     atom    2 type  2   force =     0.00000152    0.00000088   -0.00059061
     atom    3 type  1   force =    -0.00000373   -0.00000218   -0.01373053
     atom    4 type  2   force =    -0.00000154   -0.00000088   -0.00059062
     atom    5 type  1   force =     0.00000379    0.00000218   -0.01373080
     atom    6 type  2   force =     0.00000153    0.00000089   -0.00059059
     atom    7 type  1   force =    -0.00000404   -0.00000236   -0.01373064
     atom    8 type  2   force =    -0.00000152   -0.00000087   -0.00059058
     The Hubbard contrib.    to forces
     atom    1 type  1   force =     0.00000000    0.00000000    0.00000000
     atom    2 type  2   force =     0.00000000    0.00000000    0.00000000
     atom    3 type  1   force =     0.00000000    0.00000000    0.00000000
     atom    4 type  2   force =     0.00000000    0.00000000    0.00000000
     atom    5 type  1   force =     0.00000000    0.00000000    0.00000000
     atom    6 type  2   force =     0.00000000    0.00000000    0.00000000
     atom    7 type  1   force =     0.00000000    0.00000000    0.00000000
     atom    8 type  2   force =     0.00000000    0.00000000    0.00000000
     The SCF correction term to forces
     atom    1 type  1   force =     0.00000583    0.00000336    0.00000982
     atom    2 type  2   force =    -0.00000114   -0.00000066    0.00000865
     atom    3 type  1   force =     0.00000011    0.00000007    0.00000569
     atom    4 type  2   force =     0.00000122    0.00000070    0.00000601
     atom    5 type  1   force =     0.00000694    0.00000400    0.00000932
     atom    6 type  2   force =    -0.00000541   -0.00000312    0.00000917
     atom    7 type  1   force =    -0.00000823   -0.00000475    0.00000646
     atom    8 type  2   force =     0.00000147    0.00000085    0.00000549

     Total force =     0.089471     Total SCF correction =     0.000027

     Writing all to output data dir ./ZnO-3.01-1.49-211.in.save/

     General routines

     Parallel routines

   This run was terminated on:  12:22:29  12Jul2025

   JOB DONE.
Note: The following floating-point exceptions are signalling: IEEE_INVALID_FLAG
Note: The following floating-point exceptions are signalling: IEEE_INVALID_FLAG