     Program PWSCF v.7.2 starts on 12Jul2025 at 18: 7: 4

     Reading input from /home/jvc/QEspresso7.2/ZnO_database/scripts/cell211_strain10%.in/ZnO-3.53-1.61-211.in
Warning: card &CELL ignored
Warning: card / ignored
Warning: card &FCP ignored
Warning: card / ignored
Warning: card &RISM ignored
Warning: card / ignored

     Current dimensions of program PWSCF are:
     Max number of different atomic species (ntypx) = 10
     Max number of k-points (npk) =  40000
     Max angular momentum in pseudopotentials (lmaxx) =  4
     file Zn.upf: wavefunction(s)  3D renormalized
     Found identity + ( -0.5000  0.0000  0.0000) symmetry
     This is a supercell, fractional translations are disabled
     Message from routine setup:
     using ibrav=0 with symmetry is DISCOURAGED, use correct ibrav instead

     K-points division:     npool     =       2
     R & G space division:  proc/nbgrp/npool/nimage =       8
     Subspace diagonalization in iterative solution of the eigenvalue problem:
     a serial algorithm will be used

     Using Slab Decomposition

     bravais-lattice index     =            0
     lattice parameter (alat)  =      13.3463  a.u.
     unit-cell volume          =     830.9132 (a.u.)^3
     number of atoms/cell      =            8
     number of atomic types    =            2
     number of electrons       =        72.00
     number of Kohn-Sham states=           36
     kinetic-energy cutoff     =      50.0000  Ry
     charge density cutoff     =     400.0000  Ry
     scf convergence threshold =      1.0E-08
     mixing beta               =       0.3000
     number of iterations used =            8  plain     mixing
     Exchange-correlation= PBE
                           (   1   4   3   4   0   0   0)

     celldm(1)=  13.346325  celldm(2)=   0.000000  celldm(3)=   0.000000
     celldm(4)=   0.000000  celldm(5)=   0.000000  celldm(6)=   0.000000

     crystal axes: (cart. coord. in units of alat)
               a(1) = (   1.000000   0.000000   0.000000 )
               a(2) = (  -0.250000   0.433013   0.000000 )
               a(3) = (   0.000000   0.000000   0.807179 )

     reciprocal axes: (cart. coord. in units 2 pi/alat)
               b(1) = (  1.000000  0.577350 -0.000000 )
               b(2) = (  0.000000  2.309401  0.000000 )
               b(3) = (  0.000000 -0.000000  1.238882 )

     PseudoPot. # 1 for Zn read from file:
     /home/jvc/QEspresso7.2/ZnO_database/pseudos/Zn.upf
     MD5 check sum: 7f56cabf9682ed8c977c2f7d0c5985c5
     Pseudo is Ultrasoft + core correction, Zval = 12.0
     Generated using &quot;atomic&quot; code by A. Dal Corso  v.6.2.2
     Using radial grid of 1201 points,  6 beta functions with:
                l(1) =   0
                l(2) =   0
                l(3) =   1
                l(4) =   1
                l(5) =   2
                l(6) =   2
     Q(r) pseudized with 0 coefficients

     PseudoPot. # 2 for O  read from file:
     /home/jvc/QEspresso7.2/ZnO_database/pseudos/O.upf
     MD5 check sum: 91400c9766925bcf19f520983a725ff0
     Pseudo is Ultrasoft + core correction, Zval =  6.0
     Generated using &quot;atomic&quot; code by A. Dal Corso  v.6.3MaX
     Using radial grid of 1095 points,  4 beta functions with:
                l(1) =   0
                l(2) =   0
                l(3) =   1
                l(4) =   1
     Q(r) pseudized with 0 coefficients

     atomic species   valence    mass     pseudopotential
        Zn            12.00    65.38000     Zn( 1.00)
        O              6.00    15.99900     O ( 1.00)

      2 Sym. Ops. (no inversion) found

   Cartesian axes

     site n.     atom                  positions (alat units)
         1           Zn  tau(   1) = (   0.0000000   0.0000000   0.0000000  )
         2           O   tau(   2) = (   0.0000000   0.2886751   0.0985546  )
         3           Zn  tau(   3) = (   0.0000000   0.2886751   0.4035896  )
         4           O   tau(   4) = (   0.0000000   0.0000000   0.5021442  )
         5           Zn  tau(   5) = (   0.5000000   0.0000000   0.0000000  )
         6           O   tau(   6) = (   0.5000000   0.2886751   0.0985546  )
         7           Zn  tau(   7) = (   0.5000000   0.2886751   0.4035896  )
         8           O   tau(   8) = (   0.5000000   0.0000000   0.5021442  )

     number of k points=    80
                       cart. coord. in units 2pi/alat
        k(    1) = (   0.0000000   0.0000000   0.0000000), wk =   0.0092593
        k(    2) = (   0.0000000   0.0000000   0.2064804), wk =   0.0185185
        k(    3) = (   0.0000000   0.0000000   0.4129608), wk =   0.0185185
        k(    4) = (   0.0000000   0.0000000  -0.6194412), wk =   0.0092593
        k(    5) = (   0.0000000   0.3849002   0.0000000), wk =   0.0370370
        k(    6) = (   0.0000000   0.3849002   0.2064804), wk =   0.0370370
        k(    7) = (   0.0000000   0.3849002   0.4129608), wk =   0.0370370
        k(    8) = (   0.0000000   0.3849002  -0.6194412), wk =   0.0370370
        k(    9) = (   0.0000000   0.7698004   0.0000000), wk =   0.0370370
        k(   10) = (   0.0000000   0.7698004   0.2064804), wk =   0.0370370
        k(   11) = (   0.0000000   0.7698004   0.4129608), wk =   0.0370370
        k(   12) = (   0.0000000   0.7698004  -0.6194412), wk =   0.0370370
        k(   13) = (   0.0000000  -1.1547005   0.0000000), wk =   0.0092593
        k(   14) = (   0.0000000  -1.1547005   0.2064804), wk =   0.0185185
        k(   15) = (   0.0000000  -1.1547005   0.4129608), wk =   0.0185185
        k(   16) = (   0.0000000  -1.1547005  -0.6194412), wk =   0.0092593
        k(   17) = (   0.1666667   0.0962250   0.0000000), wk =   0.0185185
        k(   18) = (   0.1666667   0.0962250   0.2064804), wk =   0.0185185
        k(   19) = (   0.1666667   0.0962250   0.4129608), wk =   0.0185185
        k(   20) = (   0.1666667   0.0962250  -0.6194412), wk =   0.0185185
        k(   21) = (   0.1666667   0.4811252   0.0000000), wk =   0.0370370
        k(   22) = (   0.1666667   0.4811252   0.2064804), wk =   0.0370370
        k(   23) = (   0.1666667   0.4811252   0.4129608), wk =   0.0370370
        k(   24) = (   0.1666667   0.4811252  -0.6194412), wk =   0.0370370
        k(   25) = (   0.1666667   0.8660254   0.0000000), wk =   0.0185185
        k(   26) = (   0.1666667   0.8660254   0.2064804), wk =   0.0370370
        k(   27) = (   0.1666667   0.8660254   0.4129608), wk =   0.0370370
        k(   28) = (   0.1666667   0.8660254  -0.6194412), wk =   0.0185185
        k(   29) = (   0.1666667  -1.0584755   0.0000000), wk =   0.0185185
        k(   30) = (   0.1666667  -1.0584755   0.2064804), wk =   0.0185185
        k(   31) = (   0.1666667  -1.0584755   0.4129608), wk =   0.0185185
        k(   32) = (   0.1666667  -1.0584755  -0.6194412), wk =   0.0185185
        k(   33) = (   0.1666667  -0.6735753   0.0000000), wk =   0.0370370
        k(   34) = (   0.1666667  -0.6735753   0.2064804), wk =   0.0370370
        k(   35) = (   0.1666667  -0.6735753   0.4129608), wk =   0.0370370
        k(   36) = (   0.1666667  -0.6735753  -0.6194412), wk =   0.0370370
        k(   37) = (   0.1666667  -0.2886751   0.0000000), wk =   0.0185185
        k(   38) = (   0.1666667  -0.2886751   0.2064804), wk =   0.0370370
        k(   39) = (   0.1666667  -0.2886751   0.4129608), wk =   0.0370370
        k(   40) = (   0.1666667  -0.2886751  -0.6194412), wk =   0.0185185
        k(   41) = (   0.3333333   0.1924501   0.0000000), wk =   0.0185185
        k(   42) = (   0.3333333   0.1924501   0.2064804), wk =   0.0185185
        k(   43) = (   0.3333333   0.1924501   0.4129608), wk =   0.0185185
        k(   44) = (   0.3333333   0.1924501  -0.6194412), wk =   0.0185185
        k(   45) = (   0.3333333   0.5773503   0.0000000), wk =   0.0185185
        k(   46) = (   0.3333333   0.5773503   0.2064804), wk =   0.0370370
        k(   47) = (   0.3333333   0.5773503   0.4129608), wk =   0.0370370
        k(   48) = (   0.3333333   0.5773503  -0.6194412), wk =   0.0185185
        k(   49) = (   0.3333333  -0.9622504   0.0000000), wk =   0.0185185
        k(   50) = (   0.3333333  -0.9622504   0.2064804), wk =   0.0185185
        k(   51) = (   0.3333333  -0.9622504   0.4129608), wk =   0.0185185
        k(   52) = (   0.3333333  -0.9622504  -0.6194412), wk =   0.0185185
        k(   53) = (   0.3333333  -0.5773503   0.0000000), wk =   0.0185185
        k(   54) = (   0.3333333  -0.5773503   0.2064804), wk =   0.0370370
        k(   55) = (   0.3333333  -0.5773503   0.4129608), wk =   0.0370370
        k(   56) = (   0.3333333  -0.5773503  -0.6194412), wk =   0.0185185
        k(   57) = (  -0.5000000  -0.2886751   0.0000000), wk =   0.0092593
        k(   58) = (  -0.5000000  -0.2886751   0.2064804), wk =   0.0185185
        k(   59) = (  -0.5000000  -0.2886751   0.4129608), wk =   0.0185185
        k(   60) = (  -0.5000000  -0.2886751  -0.6194412), wk =   0.0092593
[...]
        k(   66) = (   0.3333333  -0.1924501  -0.4129608), wk =   0.0370370
        k(   67) = (   0.6666667  -0.3849002  -0.2064804), wk =   0.0370370
        k(   68) = (   0.6666667  -0.3849002  -0.4129608), wk =   0.0370370
        k(   69) = (   0.1666667   0.0962250  -0.2064804), wk =   0.0185185
        k(   70) = (   0.1666667   0.0962250  -0.4129608), wk =   0.0185185
        k(   71) = (   0.5000000  -0.0962250  -0.2064804), wk =   0.0370370
        k(   72) = (   0.5000000  -0.0962250  -0.4129608), wk =   0.0370370
        k(   73) = (  -0.8333333   0.6735753  -0.2064804), wk =   0.0185185
        k(   74) = (  -0.8333333   0.6735753  -0.4129608), wk =   0.0185185
        k(   75) = (  -0.5000000   0.4811252  -0.2064804), wk =   0.0370370
        k(   76) = (  -0.5000000   0.4811252  -0.4129608), wk =   0.0370370
        k(   77) = (   0.3333333   0.1924501  -0.2064804), wk =   0.0185185
        k(   78) = (   0.3333333   0.1924501  -0.4129608), wk =   0.0185185
        k(   79) = (  -0.6666667   0.7698004  -0.2064804), wk =   0.0185185
        k(   80) = (  -0.6666667   0.7698004  -0.4129608), wk =   0.0185185

     Check: negative core charge=   -0.000002

     Initial potential from superposition of free atoms

     starting charge      71.9851, renormalised to      72.0000
     Starting wfcs are   52 randomized atomic wfcs

     Self-consistent Calculation

     iteration #  1     ecut=    50.00 Ry     beta= 0.30
     Davidson diagonalization with overlap
     ethr =  1.00E-02,  avg # of iterations =  1.4

     total energy              =    -722.76708277 Ry
     estimated scf accuracy    <       1.61496537 Ry

[...]

     iteration # 21     ecut=    50.00 Ry     beta= 0.30
     Davidson diagonalization with overlap
     c_bands:  1 eigenvalues not converged
     ethr =  9.24E-08,  avg # of iterations = 12.0

[...]

     iteration # 24     ecut=    50.00 Ry     beta= 0.30
     Davidson diagonalization with overlap
     c_bands:  1 eigenvalues not converged
     c_bands:  1 eigenvalues not converged
     c_bands:  1 eigenvalues not converged
     c_bands:  1 eigenvalues not converged
     ethr =  1.78E-08,  avg # of iterations = 14.8

[...]

     total energy              =    -723.15436217 Ry
     estimated scf accuracy    <       0.00000005 Ry

     iteration # 40     ecut=    50.00 Ry     beta= 0.30
     Davidson diagonalization with overlap
     ethr =  6.85E-11,  avg # of iterations =  5.5

     End of self-consistent calculation

          k = 0.0000 0.0000 0.0000 (  4977 PWs)   bands (ev):

   -12.4608 -12.0802 -12.0612 -11.9568  -0.9465  -0.9326  -0.9324  -0.9253
    -0.8157  -0.8156  -0.7901  -0.6872  -0.5734  -0.4841  -0.4237  -0.3750
    -0.3750  -0.3221  -0.2802  -0.2792  -0.2611  -0.2611  -0.2363  -0.1923
     0.2421   0.6350   1.1692   1.8802   2.4608   3.0462   3.4089   3.4090
     3.4095   3.9179   3.9452   3.9458

[...]

          k =-0.5000-0.2887 0.0000 (  4978 PWs)   bands (ev):

[...]

          k = 0.3333 0.1925-0.4130 (  4983 PWs)   bands (ev):

[...]

          k =-0.6667 0.7698-0.4130 (  4946 PWs)   bands (ev):

   -12.0490 -12.0490 -11.9846 -11.9846  -0.9126  -0.9126  -0.8289  -0.8289
    -0.7327  -0.7327  -0.5951  -0.5951  -0.5646  -0.5646  -0.5458  -0.5458
    -0.3223  -0.3223  -0.2904  -0.2904  -0.2105  -0.2105  -0.1447  -0.1447
     0.8113   0.8113   1.0508   1.0508   2.2356   2.2357   2.6869   2.6869
     2.8509   2.8509   3.2339   3.2340

     highest occupied level (ev):     3.9458

!    total energy              =    -723.15436219 Ry
     estimated scf accuracy    <          9.2E-09 Ry

     The total energy is the sum of the following terms:
     one-electron contribution =    -360.42846926 Ry
     hartree contribution      =     255.26559394 Ry
     xc contribution           =    -218.26081702 Ry
     ewald contribution        =    -399.73066985 Ry

     convergence has been achieved in  40 iterations

     Forces acting on atoms (cartesian axes, Ry/au):

     atom    1 type  1   force =     0.00000496    0.00000286    0.00055667
     atom    2 type  2   force =    -0.00000479   -0.00000276   -0.00055868
     atom    3 type  1   force =     0.00001361    0.00000786    0.00056399
     atom    4 type  2   force =     0.00000491    0.00000284   -0.00055885
     atom    5 type  1   force =    -0.00000273   -0.00000158    0.00054848
     atom    6 type  2   force =    -0.00000487   -0.00000281   -0.00055855
     atom    7 type  1   force =    -0.00001571   -0.00000907    0.00056587
     atom    8 type  2   force =     0.00000462    0.00000267   -0.00055893
     The non-local contrib.  to forces
     atom    1 type  1   force =    -0.00000787   -0.00000454    0.00975030
     atom    2 type  2   force =    -0.00020135   -0.00011625   -0.00053357
     atom    3 type  1   force =     0.00001644    0.00000949    0.00975719
     atom    4 type  2   force =     0.00019993    0.00011543   -0.00053912
     atom    5 type  1   force =    -0.00001216   -0.00000702    0.00974871
     atom    6 type  2   force =    -0.00019651   -0.00011345   -0.00053287
     atom    7 type  1   force =     0.00000377    0.00000218    0.00975781
     atom    8 type  2   force =     0.00019971    0.00011530   -0.00054038
     The ionic contribution  to forces
     atom    1 type  1   force =     0.00000000    0.00000000   -0.01781321
     atom    2 type  2   force =    -0.00000000   -0.00000000    0.01781321
     atom    3 type  1   force =    -0.00000000   -0.00000000   -0.01781321
     atom    4 type  2   force =     0.00000000    0.00000000    0.01781321
     atom    5 type  1   force =     0.00000000    0.00000000   -0.01781321
     atom    6 type  2   force =    -0.00000000   -0.00000000    0.01781321
     atom    7 type  1   force =    -0.00000000   -0.00000000   -0.01781321
     atom    8 type  2   force =     0.00000000    0.00000000    0.01781321
     The local contribution  to forces
     atom    1 type  1   force =     0.00000343    0.00000198    0.00926649
     atom    2 type  2   force =     0.00019072    0.00011011   -0.01784929
     atom    3 type  1   force =    -0.00003155   -0.00001822    0.00925847
     atom    4 type  2   force =    -0.00019768   -0.00011413   -0.01785929
     atom    5 type  1   force =     0.00001182    0.00000682    0.00928081
     atom    6 type  2   force =     0.00019430    0.00011218   -0.01784938
     atom    7 type  1   force =     0.00001541    0.00000890    0.00925493
     atom    8 type  2   force =    -0.00018750   -0.00010825   -0.01785741
     The core correction contribution to forces
     atom    1 type  1   force =     0.00000567    0.00000327   -0.00064576
     atom    2 type  2   force =     0.00000228    0.00000132    0.00002055
     atom    3 type  1   force =    -0.00000524   -0.00000302   -0.00064624
     atom    4 type  2   force =    -0.00000227   -0.00000131    0.00002061
     atom    5 type  1   force =     0.00000584    0.00000337   -0.00064645
     atom    6 type  2   force =     0.00000222    0.00000128    0.00002053
     atom    7 type  1   force =    -0.00000630   -0.00000364   -0.00064609
     atom    8 type  2   force =    -0.00000226   -0.00000130    0.00002063
     The Hubbard contrib.    to forces
     atom    1 type  1   force =     0.00000000    0.00000000    0.00000000
     atom    2 type  2   force =     0.00000000    0.00000000    0.00000000
     atom    3 type  1   force =     0.00000000    0.00000000    0.00000000
     atom    4 type  2   force =     0.00000000    0.00000000    0.00000000
     atom    5 type  1   force =     0.00000000    0.00000000    0.00000000
     atom    6 type  2   force =     0.00000000    0.00000000    0.00000000
     atom    7 type  1   force =     0.00000000    0.00000000    0.00000000
     atom    8 type  2   force =     0.00000000    0.00000000    0.00000000
     The SCF correction term to forces
     atom    1 type  1   force =     0.00000397    0.00000229   -0.00000043
     atom    2 type  2   force =     0.00000380    0.00000220   -0.00000885
     atom    3 type  1   force =     0.00003420    0.00001975    0.00000851
     atom    4 type  2   force =     0.00000516    0.00000298    0.00000646
     atom    5 type  1   force =    -0.00000798   -0.00000461   -0.00002065
     atom    6 type  2   force =    -0.00000464   -0.00000268   -0.00000932
     atom    7 type  1   force =    -0.00002836   -0.00001637    0.00001316
     atom    8 type  2   force =    -0.00000509   -0.00000294    0.00000574

     Total force =     0.001581     Total SCF correction =     0.000061

     Writing all to output data dir ./ZnO-3.53-1.61-211.in.save/

     General routines

     Parallel routines

   This run was terminated on:  18:12:18  12Jul2025

   JOB DONE.
Note: The following floating-point exceptions are signalling: IEEE_INVALID_FLAG
Note: The following floating-point exceptions are signalling: IEEE_INVALID_FLAG