     Program PWSCF v.7.2 starts on 16Jul2025 at 10:11:26

     Reading input from /home/jvc/QEspresso7.2/ZnO_database/scripts/cell112.in/ZnO-3.07-1.52-112.in
Warning: card &CELL ignored
Warning: card / ignored
Warning: card &FCP ignored
Warning: card / ignored
Warning: card &RISM ignored
Warning: card / ignored

     Current dimensions of program PWSCF are:
     Max number of different atomic species (ntypx) = 10
     Max number of k-points (npk) =  40000
     Max angular momentum in pseudopotentials (lmaxx) =  4
     file Zn.upf: wavefunction(s)  3D renormalized
     Found identity + (  0.0000  0.0000 -0.5000) symmetry
     This is a supercell, fractional translations are disabled
     Message from routine setup:
     using ibrav=0 with symmetry is DISCOURAGED, use correct ibrav instead

     K-points division:     npool     =       4
     R & G space division:  proc/nbgrp/npool/nimage =       4
     Subspace diagonalization in iterative solution of the eigenvalue problem:
     a serial algorithm will be used

     Using Slab Decomposition

     bravais-lattice index     =            0
     lattice parameter (alat)  =       6.1788  a.u.
     unit-cell volume          =     659.5954 (a.u.)^3
     number of atoms/cell      =            8
     number of atomic types    =            2
     number of electrons       =        72.00
     number of Kohn-Sham states=           36
     kinetic-energy cutoff     =      50.0000  Ry
     charge density cutoff     =     400.0000  Ry
     scf convergence threshold =      1.0E-08
     mixing beta               =       0.3000
     number of iterations used =            8  plain     mixing
     Exchange-correlation= PBE
                           (   1   4   3   4   0   0   0)

     celldm(1)=   6.178822  celldm(2)=   0.000000  celldm(3)=   0.000000
     celldm(4)=   0.000000  celldm(5)=   0.000000  celldm(6)=   0.000000

     crystal axes: (cart. coord. in units of alat)
               a(1) = (   1.000000   0.000000   0.000000 )
               a(2) = (  -0.500000   0.866025   0.000000 )
               a(3) = (   0.000000   0.000000   3.228717 )

     reciprocal axes: (cart. coord. in units 2 pi/alat)
               b(1) = (  1.000000  0.577350 -0.000000 )
               b(2) = (  0.000000  1.154701  0.000000 )
               b(3) = (  0.000000 -0.000000  0.309721 )

     PseudoPot. # 1 for Zn read from file:
     /home/jvc/QEspresso7.2/ZnO_database/pseudos/Zn.upf
     MD5 check sum: 7f56cabf9682ed8c977c2f7d0c5985c5
     Pseudo is Ultrasoft + core correction, Zval = 12.0
     Generated using &quot;atomic&quot; code by A. Dal Corso  v.6.2.2
     Using radial grid of 1201 points,  6 beta functions with:
                l(1) =   0
                l(2) =   0
                l(3) =   1
                l(4) =   1
                l(5) =   2
                l(6) =   2
     Q(r) pseudized with 0 coefficients

     PseudoPot. # 2 for O  read from file:
     /home/jvc/QEspresso7.2/ZnO_database/pseudos/O.upf
     MD5 check sum: 91400c9766925bcf19f520983a725ff0
     Pseudo is Ultrasoft + core correction, Zval =  6.0
     Generated using &quot;atomic&quot; code by A. Dal Corso  v.6.3MaX
     Using radial grid of 1095 points,  4 beta functions with:
                l(1) =   0
                l(2) =   0
                l(3) =   1
                l(4) =   1
     Q(r) pseudized with 0 coefficients

     atomic species   valence    mass     pseudopotential
        Zn            12.00    65.38000     Zn( 1.00)
        O              6.00    15.99900     O ( 1.00)

      6 Sym. Ops. (no inversion) found

                                    s                        frac. trans.

      isym =  1     identity

 cryst.   s( 1) = (     1          0          0      )
                  (     0          1          0      )
                  (     0          0          1      )

 cart.    s( 1) = (  1.0000000 -0.0000000  0.0000000 )
                  (  0.0000000  1.0000000  0.0000000 )
                  (  0.0000000  0.0000000  1.0000000 )

      isym =  2     120 deg rotation - cryst. axis [0,0,1]

[...]

      isym =  3     120 deg rotation - cryst. axis [0,0,-1]

[...]

      isym =  4     inv. 180 deg rotation - cart. axis [1,0,0]

[...]

      isym =  5     inv. 180 deg rotation - cryst. axis [0,1,0]

[...]

      isym =  6     inv. 180 deg rotation - cryst. axis [1,1,0]

 cryst.   s( 6) = (     0         -1          0      )
                  (    -1          0          0      )
                  (     0          0          1      )

 cart.    s( 6) = (  0.5000000 -0.8660254  0.0000000 )
                  ( -0.8660254 -0.5000000  0.0000000 )
                  (  0.0000000  0.0000000  1.0000000 )

   Cartesian axes

     site n.     atom                  positions (alat units)
         1           Zn  tau(   1) = (   0.5000000   0.2886751   0.8082020  )
         2           Zn  tau(   2) = (   0.0000000   0.5773503   0.0010228  )
         3           O   tau(   3) = (   0.5000000   0.2886751   1.4201130  )
         4           O   tau(   4) = (   0.0000000   0.5773503   0.6129338  )
         5           Zn  tau(   5) = (   0.5000000   0.2886751   2.4225604  )
         6           Zn  tau(   6) = (   0.0000000   0.5773503   1.6153812  )
         7           O   tau(   7) = (   0.5000000   0.2886751   3.0344713  )
         8           O   tau(   8) = (   0.0000000   0.5773503   2.2272921  )

   Crystallographic axes

     site n.     atom                  positions (cryst. coord.)
         1           Zn  tau(   1) = (  0.6666667  0.3333333  0.2503168  )
         2           Zn  tau(   2) = (  0.3333333  0.6666667  0.0003168  )
         3           O   tau(   3) = (  0.6666667  0.3333333  0.4398382  )
         4           O   tau(   4) = (  0.3333333  0.6666667  0.1898382  )
         5           Zn  tau(   5) = (  0.6666667  0.3333333  0.7503168  )
         6           Zn  tau(   6) = (  0.3333333  0.6666667  0.5003168  )
         7           O   tau(   7) = (  0.6666667  0.3333333  0.9398382  )
         8           O   tau(   8) = (  0.3333333  0.6666667  0.6898382  )

     number of k points=    17
                       cart. coord. in units 2pi/alat
        k(    1) = (   0.0000000   0.0000000   0.0000000), wk =   0.0185185
        k(    2) = (   0.0000000   0.0000000   0.1032402), wk =   0.0370370
        k(    3) = (   0.0000000   0.1924501   0.0000000), wk =   0.1111111
        k(    4) = (   0.0000000   0.1924501   0.1032402), wk =   0.1111111
        k(    5) = (   0.0000000   0.3849002   0.0000000), wk =   0.1111111
        k(    6) = (   0.0000000   0.3849002   0.1032402), wk =   0.1111111
        k(    7) = (   0.0000000  -0.5773503   0.0000000), wk =   0.0555556
        k(    8) = (   0.0000000  -0.5773503   0.1032402), wk =   0.1111111
        k(    9) = (   0.1666667   0.2886751   0.0000000), wk =   0.1111111
        k(   10) = (   0.1666667   0.2886751   0.1032402), wk =   0.2222222
        k(   11) = (   0.1666667   0.4811252   0.0000000), wk =   0.2222222
        k(   12) = (   0.1666667   0.4811252   0.1032402), wk =   0.2222222
        k(   13) = (   0.3333333   0.5773503   0.0000000), wk =   0.0370370
        k(   14) = (   0.3333333   0.5773503   0.1032402), wk =   0.0740741
        k(   15) = (   0.0000000  -0.1924501   0.1032402), wk =   0.1111111
        k(   16) = (   0.0000000  -0.3849002   0.1032402), wk =   0.1111111
        k(   17) = (  -0.1666667  -0.4811252   0.1032402), wk =   0.2222222

                       cryst. coord.
        k(    1) = (   0.0000000   0.0000000   0.0000000), wk =   0.0185185
        k(    2) = (   0.0000000   0.0000000   0.3333333), wk =   0.0370370
        k(    3) = (   0.0000000   0.1666667   0.0000000), wk =   0.1111111
        k(    4) = (   0.0000000   0.1666667   0.3333333), wk =   0.1111111
        k(    5) = (   0.0000000   0.3333333   0.0000000), wk =   0.1111111
        k(    6) = (   0.0000000   0.3333333   0.3333333), wk =   0.1111111
        k(    7) = (   0.0000000  -0.5000000   0.0000000), wk =   0.0555556
        k(    8) = (   0.0000000  -0.5000000   0.3333333), wk =   0.1111111
        k(    9) = (   0.1666667   0.1666667   0.0000000), wk =   0.1111111
        k(   10) = (   0.1666667   0.1666667   0.3333333), wk =   0.2222222
        k(   11) = (   0.1666667   0.3333333   0.0000000), wk =   0.2222222
        k(   12) = (   0.1666667   0.3333333   0.3333333), wk =   0.2222222
        k(   13) = (   0.3333333   0.3333333   0.0000000), wk =   0.0370370
        k(   14) = (   0.3333333   0.3333333   0.3333333), wk =   0.0740741
        k(   15) = (   0.0000000  -0.1666667   0.3333333), wk =   0.1111111
        k(   16) = (   0.0000000  -0.3333333   0.3333333), wk =   0.1111111
        k(   17) = (  -0.1666667  -0.3333333   0.3333333), wk =   0.2222222

     Check: negative core charge=   -0.000002

     Initial potential from superposition of free atoms

     starting charge      71.9851, renormalised to      72.0000
     Starting wfcs are   52 randomized atomic wfcs

     Self-consistent Calculation

     iteration #  1     ecut=    50.00 Ry     beta= 0.30
     Davidson diagonalization with overlap

     ethr =  1.00E-02,  avg # of iterations =  1.9

     total energy              =    -722.95837407 Ry
     estimated scf accuracy    <       1.38487244 Ry

[...]

     total energy              =    -723.27377576 Ry
     estimated scf accuracy    <       0.00000015 Ry

     iteration # 25     ecut=    50.00 Ry     beta= 0.30
     Davidson diagonalization with overlap

     ethr =  8.01E-11,  avg # of iterations =  6.7

     End of self-consistent calculation

          k = 0.0000 0.0000 0.0000 (  3879 PWs)   bands (ev):

   -10.9987 -10.6677 -10.6676 -10.3184   1.1297   1.1297   1.3159   1.3159
     1.3565   1.3852   1.3852   1.3852   1.3852   1.4391   1.5014   1.5014
     2.4283   2.4283   2.5469   2.5469   2.5469   2.5469   2.6249   2.6249
     2.8918   4.6600   4.6600   6.1249   6.1249   6.5107   6.5107   6.5107
     6.5107   6.8048   6.8872   6.8872

     occupation numbers
     1.0000   1.0000   1.0000   1.0000   1.0000   1.0000   1.0000   1.0000
     1.0000   1.0000   1.0000   1.0000   1.0000   1.0000   1.0000   1.0000
     1.0000   1.0000   1.0000   1.0000   1.0000   1.0000   1.0000   1.0000
     1.0000   1.0000   1.0000   1.0000   1.0000   1.0000   1.0000   1.0000
     1.0000   1.0000   1.0000   1.0000

[...]

          k = 0.0000-0.3849 0.1032 (  3931 PWs)   bands (ev):

[...]

          k =-0.1667-0.4811 0.1032 (  3957 PWs)   bands (ev):

   -10.3404 -10.2964 -10.1861 -10.1497   1.1038   1.1780   1.1967   1.3762
     1.5636   1.5839   1.7338   1.7730   1.8904   1.9133   1.9824   2.0290
     2.4172   2.4958   2.5394   2.5677   2.6805   2.6914   2.8117   2.8697
     3.1154   3.2568   3.5915   3.6971   4.2090   4.5349   4.6167   5.0816
     5.3812   5.5971   5.7985   5.8446

     occupation numbers
     1.0000   1.0000   1.0000   1.0000   1.0000   1.0000   1.0000   1.0000
     1.0000   1.0000   1.0000   1.0000   1.0000   1.0000   1.0000   1.0000
     1.0000   1.0000   1.0000   1.0000   1.0000   1.0000   1.0000   1.0000
     1.0000   1.0000   1.0000   1.0000   1.0000   1.0000   1.0000   1.0000
     1.0000   1.0000   1.0000   1.0000

     highest occupied level (ev):     6.8872

!    total energy              =    -723.27377580 Ry
     estimated scf accuracy    <          7.5E-09 Ry

     The total energy is the sum of the following terms:
     one-electron contribution =    -309.05054684 Ry
     hartree contribution      =     236.57851887 Ry
     xc contribution           =    -219.09228386 Ry
     ewald contribution        =    -431.70946397 Ry

     convergence has been achieved in  25 iterations

     Forces acting on atoms (cartesian axes, Ry/au):

     atom    1 type  1   force =     0.00000000    0.00000000    0.00006043
     atom    2 type  1   force =     0.00000000   -0.00000000    0.00005234
     atom    3 type  2   force =     0.00000000    0.00000000   -0.00006305
     atom    4 type  2   force =     0.00000000    0.00000000   -0.00006186
     atom    5 type  1   force =     0.00000000    0.00000000    0.00007235
     atom    6 type  1   force =     0.00000000   -0.00000000    0.00006236
     atom    7 type  2   force =     0.00000000   -0.00000000   -0.00006204
     atom    8 type  2   force =     0.00000000    0.00000000   -0.00006054
     The non-local contrib.  to forces
     atom    1 type  1   force =     0.00000000    0.00000000   -0.00483441
     atom    2 type  1   force =     0.00000000    0.00000000   -0.00483334
     atom    3 type  2   force =     0.00000000    0.00000000    0.00575235
     atom    4 type  2   force =     0.00000000    0.00000000    0.00575600
     atom    5 type  1   force =     0.00000000    0.00000000   -0.00482825
     atom    6 type  1   force =     0.00000000    0.00000000   -0.00483263
     atom    7 type  2   force =     0.00000000    0.00000000    0.00575252
     atom    8 type  2   force =    -0.00000000   -0.00000000    0.00575484
     The ionic contribution  to forces
     atom    1 type  1   force =    -0.00000000    0.00000000    0.06271747
     atom    2 type  1   force =     0.00000000   -0.00000000    0.06271747
     atom    3 type  2   force =    -0.00000000    0.00000000   -0.06271747
     atom    4 type  2   force =     0.00000000   -0.00000000   -0.06271747
     atom    5 type  1   force =    -0.00000000    0.00000000    0.06271747
     atom    6 type  1   force =     0.00000000   -0.00000000    0.06271747
     atom    7 type  2   force =    -0.00000000    0.00000000   -0.06271747
     atom    8 type  2   force =     0.00000000   -0.00000000   -0.06271747
     The local contribution  to forces
     atom    1 type  1   force =    -0.00000004    0.00000003   -0.05828654
     atom    2 type  1   force =     0.00000004   -0.00000003   -0.05828111
     atom    3 type  2   force =    -0.00000001    0.00000001    0.05697192
     atom    4 type  2   force =     0.00000001   -0.00000001    0.05696902
     atom    5 type  1   force =    -0.00000004    0.00000003   -0.05830405
     atom    6 type  1   force =     0.00000004   -0.00000003   -0.05828814
     atom    7 type  2   force =    -0.00000001    0.00000001    0.05696830
     atom    8 type  2   force =     0.00000001   -0.00000001    0.05695675
     The core correction contribution to forces
     atom    1 type  1   force =    -0.00000001    0.00000000    0.00046400
     atom    2 type  1   force =     0.00000001   -0.00000000    0.00046387
     atom    3 type  2   force =     0.00000000   -0.00000000   -0.00006497
     atom    4 type  2   force =    -0.00000000    0.00000000   -0.00006504
     atom    5 type  1   force =    -0.00000001    0.00000000    0.00046414
     atom    6 type  1   force =     0.00000001   -0.00000000    0.00046394
     atom    7 type  2   force =     0.00000000   -0.00000000   -0.00006500
     atom    8 type  2   force =    -0.00000000    0.00000000   -0.00006504
     The Hubbard contrib.    to forces
     atom    1 type  1   force =     0.00000000    0.00000000    0.00000000
     atom    2 type  1   force =     0.00000000    0.00000000    0.00000000
     atom    3 type  2   force =     0.00000000    0.00000000    0.00000000
     atom    4 type  2   force =     0.00000000    0.00000000    0.00000000
     atom    5 type  1   force =     0.00000000    0.00000000    0.00000000
     atom    6 type  1   force =     0.00000000    0.00000000    0.00000000
     atom    7 type  2   force =     0.00000000    0.00000000    0.00000000
     atom    8 type  2   force =     0.00000000    0.00000000    0.00000000
     The SCF correction term to forces
     atom    1 type  1   force =    -0.00000000    0.00000000   -0.00000058
     atom    2 type  1   force =     0.00000000   -0.00000000   -0.00001503
     atom    3 type  2   force =    -0.00000000    0.00000000   -0.00000535
     atom    4 type  2   force =     0.00000000   -0.00000000   -0.00000485
     atom    5 type  1   force =    -0.00000000    0.00000000    0.00002256
     atom    6 type  1   force =     0.00000000   -0.00000000    0.00000124
     atom    7 type  2   force =    -0.00000000    0.00000000   -0.00000086
     atom    8 type  2   force =     0.00000000   -0.00000000    0.00000989

     Total force =     0.000176     Total SCF correction =     0.000030
     SCF correction compared to forces is large: reduce conv_thr to get better values

     General routines

     Parallel routines

   This run was terminated on:  10:12:16  16Jul2025

   JOB DONE.
Note: The following floating-point exceptions are signalling: IEEE_INVALID_FLAG
Note: The following floating-point exceptions are signalling: IEEE_INVALID_FLAG
Note: The following floating-point exceptions are signalling: IEEE_INVALID_FLAG
Note: The following floating-point exceptions are signalling: IEEE_INVALID_FLAG