     Program PWSCF v.7.2 starts on 16Jul2025 at 14:27: 5

     Reading input from /home/jvc/QEspresso7.2/ZnO_database/scripts/cell113.in/ZnO-3.34-1.68-113.in
Warning: card &CELL ignored
Warning: card / ignored
Warning: card &FCP ignored
Warning: card / ignored
Warning: card &RISM ignored
Warning: card / ignored

     Current dimensions of program PWSCF are:
     Max number of different atomic species (ntypx) = 10
     Max number of k-points (npk) =  40000
     Max angular momentum in pseudopotentials (lmaxx) =  4
     file Zn.upf: wavefunction(s)  3D renormalized
     Found identity + (  0.0000  0.0000  0.3333) symmetry
     This is a supercell, fractional translations are disabled
     Message from routine setup:
     using ibrav=0 with symmetry is DISCOURAGED, use correct ibrav instead

     K-points division:     npool     =       2
     R & G space division:  proc/nbgrp/npool/nimage =       8
     Subspace diagonalization in iterative solution of the eigenvalue problem:
     a serial algorithm will be used

     Using Slab Decomposition

     bravais-lattice index     =            0
     lattice parameter (alat)  =       6.1788  a.u.
     unit-cell volume          =     989.3930 (a.u.)^3
     number of atoms/cell      =           12
     number of atomic types    =            2
     number of electrons       =       108.00
     number of Kohn-Sham states=           54
     kinetic-energy cutoff     =      50.0000  Ry
     charge density cutoff     =     400.0000  Ry
     scf convergence threshold =      1.0E-08
     mixing beta               =       0.3000
     number of iterations used =            8  plain     mixing
     Exchange-correlation= PBE
                           (   1   4   3   4   0   0   0)

     celldm(1)=   6.178822  celldm(2)=   0.000000  celldm(3)=   0.000000
     celldm(4)=   0.000000  celldm(5)=   0.000000  celldm(6)=   0.000000

     crystal axes: (cart. coord. in units of alat)
               a(1) = (   1.000000   0.000000   0.000000 )
               a(2) = (  -0.500000   0.866025   0.000000 )
               a(3) = (   0.000000   0.000000   4.843075 )

     reciprocal axes: (cart. coord. in units 2 pi/alat)
               b(1) = (  1.000000  0.577350 -0.000000 )
               b(2) = (  0.000000  1.154701  0.000000 )
               b(3) = (  0.000000 -0.000000  0.206480 )

     PseudoPot. # 1 for Zn read from file:
     /home/jvc/QEspresso7.2/ZnO_database/pseudos/Zn.upf
     MD5 check sum: 7f56cabf9682ed8c977c2f7d0c5985c5
     Pseudo is Ultrasoft + core correction, Zval = 12.0
     Generated using &quot;atomic&quot; code by A. Dal Corso  v.6.2.2
     Using radial grid of 1201 points,  6 beta functions with:
                l(1) =   0
                l(2) =   0
                l(3) =   1
                l(4) =   1
                l(5) =   2
                l(6) =   2
     Q(r) pseudized with 0 coefficients

     PseudoPot. # 2 for O  read from file:
     /home/jvc/QEspresso7.2/ZnO_database/pseudos/O.upf
     MD5 check sum: 91400c9766925bcf19f520983a725ff0
     Pseudo is Ultrasoft + core correction, Zval =  6.0
     Generated using &quot;atomic&quot; code by A. Dal Corso  v.6.3MaX
     Using radial grid of 1095 points,  4 beta functions with:
                l(1) =   0
                l(2) =   0
                l(3) =   1
                l(4) =   1
     Q(r) pseudized with 0 coefficients

     atomic species   valence    mass     pseudopotential
        Zn            12.00    65.38000     Zn( 1.00)
        O              6.00    15.99900     O ( 1.00)

      6 Sym. Ops. (no inversion) found

                                    s                        frac. trans.

      isym =  1     identity

 cryst.   s( 1) = (     1          0          0      )
                  (     0          1          0      )
                  (     0          0          1      )

 cart.    s( 1) = (  1.0000000  0.0000000  0.0000000 )
                  (  0.0000000  1.0000000  0.0000000 )
                  (  0.0000000  0.0000000  1.0000000 )

      isym =  2     120 deg rotation - cryst. axis [0,0,1]

[...]

      isym =  3     120 deg rotation - cryst. axis [0,0,-1]

[...]

      isym =  4     inv. 180 deg rotation - cart. axis [1,0,0]

[...]

      isym =  5     inv. 180 deg rotation - cryst. axis [0,1,0]

[...]

      isym =  6     inv. 180 deg rotation - cryst. axis [1,1,0]

 cryst.   s( 6) = (     0         -1          0      )
                  (    -1          0          0      )
                  (     0          0          1      )

 cart.    s( 6) = (  0.5000000 -0.8660254  0.0000000 )
                  ( -0.8660254 -0.5000000  0.0000000 )
                  (  0.0000000  0.0000000  1.0000000 )

   Cartesian axes

     site n.     atom                  positions (alat units)
         1           Zn  tau(   1) = (   0.5000000   0.2886751   0.8082020  )
         2           Zn  tau(   2) = (   0.0000000   0.5773503   0.0010228  )
         3           O   tau(   3) = (   0.5000000   0.2886751   1.4201130  )
         4           O   tau(   4) = (   0.0000000   0.5773503   0.6129338  )
         5           Zn  tau(   5) = (   0.5000000   0.2886751   2.4225604  )
         6           Zn  tau(   6) = (   0.0000000   0.5773503   1.6153812  )
         7           O   tau(   7) = (   0.5000000   0.2886751   3.0344713  )
         8           O   tau(   8) = (   0.0000000   0.5773503   2.2272921  )
         9           Zn  tau(   9) = (   0.5000000   0.2886751   4.0369187  )
        10           Zn  tau(  10) = (   0.0000000   0.5773503   3.2297395  )
        11           O   tau(  11) = (   0.5000000   0.2886751   4.6488297  )
        12           O   tau(  12) = (   0.0000000   0.5773503   3.8416505  )

   Crystallographic axes

     site n.     atom                  positions (cryst. coord.)
         1           Zn  tau(   1) = (  0.6666667  0.3333333  0.1668779  )
         2           Zn  tau(   2) = (  0.3333333  0.6666667  0.0002112  )
         3           O   tau(   3) = (  0.6666667  0.3333333  0.2932255  )
         4           O   tau(   4) = (  0.3333333  0.6666667  0.1265588  )
         5           Zn  tau(   5) = (  0.6666667  0.3333333  0.5002112  )
         6           Zn  tau(   6) = (  0.3333333  0.6666667  0.3335445  )
         7           O   tau(   7) = (  0.6666667  0.3333333  0.6265588  )
         8           O   tau(   8) = (  0.3333333  0.6666667  0.4598921  )
         9           Zn  tau(   9) = (  0.6666667  0.3333333  0.8335445  )
        10           Zn  tau(  10) = (  0.3333333  0.6666667  0.6668779  )
        11           O   tau(  11) = (  0.6666667  0.3333333  0.9598921  )
        12           O   tau(  12) = (  0.3333333  0.6666667  0.7932255  )

     number of k points=    14
                       cart. coord. in units 2pi/alat
        k(    1) = (   0.0000000   0.0000000   0.0000000), wk =   0.0277778
        k(    2) = (   0.0000000   0.0000000  -0.1032402), wk =   0.0277778
        k(    3) = (   0.0000000   0.1924501   0.0000000), wk =   0.1666667
        k(    4) = (   0.0000000   0.1924501  -0.1032402), wk =   0.1666667
        k(    5) = (   0.0000000   0.3849002   0.0000000), wk =   0.1666667
        k(    6) = (   0.0000000   0.3849002  -0.1032402), wk =   0.1666667
        k(    7) = (   0.0000000  -0.5773503   0.0000000), wk =   0.0833333
        k(    8) = (   0.0000000  -0.5773503  -0.1032402), wk =   0.0833333
        k(    9) = (   0.1666667   0.2886751   0.0000000), wk =   0.1666667
        k(   10) = (   0.1666667   0.2886751  -0.1032402), wk =   0.1666667
        k(   11) = (   0.1666667   0.4811252   0.0000000), wk =   0.3333333
        k(   12) = (   0.1666667   0.4811252  -0.1032402), wk =   0.3333333
        k(   13) = (   0.3333333   0.5773503   0.0000000), wk =   0.0555556
        k(   14) = (   0.3333333   0.5773503  -0.1032402), wk =   0.0555556

                       cryst. coord.
        k(    1) = (   0.0000000   0.0000000   0.0000000), wk =   0.0277778
        k(    2) = (   0.0000000   0.0000000  -0.5000000), wk =   0.0277778
        k(    3) = (   0.0000000   0.1666667   0.0000000), wk =   0.1666667
        k(    4) = (   0.0000000   0.1666667  -0.5000000), wk =   0.1666667
        k(    5) = (   0.0000000   0.3333333   0.0000000), wk =   0.1666667
        k(    6) = (   0.0000000   0.3333333  -0.5000000), wk =   0.1666667
        k(    7) = (   0.0000000  -0.5000000   0.0000000), wk =   0.0833333
        k(    8) = (   0.0000000  -0.5000000  -0.5000000), wk =   0.0833333
        k(    9) = (   0.1666667   0.1666667   0.0000000), wk =   0.1666667
        k(   10) = (   0.1666667   0.1666667  -0.5000000), wk =   0.1666667
        k(   11) = (   0.1666667   0.3333333   0.0000000), wk =   0.3333333
        k(   12) = (   0.1666667   0.3333333  -0.5000000), wk =   0.3333333
        k(   13) = (   0.3333333   0.3333333   0.0000000), wk =   0.0555556
        k(   14) = (   0.3333333   0.3333333  -0.5000000), wk =   0.0555556

     Check: negative core charge=   -0.000002

     Initial potential from superposition of free atoms

     starting charge     107.9776, renormalised to     108.0000
     Starting wfcs are   78 randomized atomic wfcs

     Self-consistent Calculation

     iteration #  1     ecut=    50.00 Ry     beta= 0.30
     Davidson diagonalization with overlap

     ethr =  1.00E-02,  avg # of iterations =  2.0

     total energy              =   -1084.43713375 Ry
     estimated scf accuracy    <       2.07791035 Ry

[...]

     c_bands:  2 eigenvalues not converged
     ethr =  3.04E-11,  avg # of iterations = 13.3

[...]

     total energy              =   -1084.91066370 Ry
     estimated scf accuracy    <       0.00000005 Ry

     iteration # 25     ecut=    50.00 Ry     beta= 0.30
     Davidson diagonalization with overlap

     ethr =  1.66E-11,  avg # of iterations =  4.3

     End of self-consistent calculation

          k = 0.0000 0.0000 0.0000 (  5833 PWs)   bands (ev):

   -10.9985 -10.8352 -10.8352 -10.4952 -10.4952 -10.3182   1.1614   1.1614
     1.2062   1.2062   1.3159   1.3159   1.3451   1.3451   1.3451   1.3451
     1.3565   1.4366   1.4366   1.4366   1.4366   1.4392   1.5014   1.5014
     2.4282   2.4282   2.4918   2.4918   2.4918   2.4918   2.5917   2.5917
     2.5917   2.5917   2.6248   2.6248   2.8918   3.8753   3.8753   5.4566
     5.4566   6.1251   6.1251   6.3189   6.3189   6.3189   6.3189   6.7003
     6.7003   6.7003   6.7003   6.8049   6.8873   6.8873

     occupation numbers
     1.0000   1.0000   1.0000   1.0000   1.0000   1.0000   1.0000   1.0000
     1.0000   1.0000   1.0000   1.0000   1.0000   1.0000   1.0000   1.0000
     1.0000   1.0000   1.0000   1.0000   1.0000   1.0000   1.0000   1.0000
     1.0000   1.0000   1.0000   1.0000   1.0000   1.0000   1.0000   1.0000
     1.0000   1.0000   1.0000   1.0000   1.0000   1.0000   1.0000   1.0000
     1.0000   1.0000   1.0000   1.0000   1.0000   1.0000   1.0000   1.0000
     1.0000   1.0000   1.0000   1.0000   1.0000   1.0000

[...]

          k = 0.3333 0.5774-0.1032 (  5910 PWs)   bands (ev):

   -10.1919 -10.1919 -10.1919 -10.1919 -10.1849 -10.1849   1.3081   1.3081
     1.3212   1.3212   1.5305   1.5305   1.5787   1.5787   1.5787   1.5787
     1.9187   1.9187   2.0556   2.0556   2.1585   2.1585   2.1585   2.1585
     2.3793   2.3793   2.4346   2.4346   2.4792   2.4792   2.6812   2.6812
     2.6812   2.6812   2.9255   2.9255   3.2429   3.2429   3.3685   3.3685
     3.3685   3.3685   3.4090   3.4090   4.2827   4.2827   5.0893   5.0893
     5.1982   5.1982   5.1982   5.1982   5.6818   5.6818

     occupation numbers
     1.0000   1.0000   1.0000   1.0000   1.0000   1.0000   1.0000   1.0000
     1.0000   1.0000   1.0000   1.0000   1.0000   1.0000   1.0000   1.0000
     1.0000   1.0000   1.0000   1.0000   1.0000   1.0000   1.0000   1.0000
     1.0000   1.0000   1.0000   1.0000   1.0000   1.0000   1.0000   1.0000
     1.0000   1.0000   1.0000   1.0000   1.0000   1.0000   1.0000   1.0000
     1.0000   1.0000   1.0000   1.0000   1.0000   1.0000   1.0000   1.0000
     1.0000   1.0000   1.0000   1.0000   1.0000   1.0000

     highest occupied level (ev):     6.8873

!    total energy              =   -1084.91066371 Ry
     estimated scf accuracy    <          4.0E-10 Ry

     The total energy is the sum of the following terms:
     one-electron contribution =    -463.57534680 Ry
     hartree contribution      =     354.86708506 Ry
     xc contribution           =    -328.63820602 Ry
     ewald contribution        =    -647.56419596 Ry

     convergence has been achieved in  25 iterations

     Forces acting on atoms (cartesian axes, Ry/au):

     atom    1 type  1   force =     0.00000000   -0.00000000    0.00006650
     atom    2 type  1   force =     0.00000000    0.00000000    0.00006725
     atom    3 type  2   force =     0.00000000    0.00000000   -0.00006367
     atom    4 type  2   force =     0.00000000    0.00000000   -0.00006355
     atom    5 type  1   force =     0.00000000    0.00000000    0.00005805
     atom    6 type  1   force =     0.00000000    0.00000000    0.00006896
     atom    7 type  2   force =     0.00000000    0.00000000   -0.00006382
     atom    8 type  2   force =     0.00000000   -0.00000000   -0.00006376
     atom    9 type  1   force =     0.00000000    0.00000000    0.00006082
     atom   10 type  1   force =     0.00000000    0.00000000    0.00005963
     atom   11 type  2   force =     0.00000000    0.00000000   -0.00006373
     atom   12 type  2   force =     0.00000000    0.00000000   -0.00006268
     The non-local contrib.  to forces
     atom    1 type  1   force =     0.00000000    0.00000000   -0.00483024
     atom    2 type  1   force =     0.00000000    0.00000000   -0.00483054
     atom    3 type  2   force =     0.00000000    0.00000000    0.00575335
     atom    4 type  2   force =     0.00000000    0.00000000    0.00575323
     atom    5 type  1   force =     0.00000000    0.00000000   -0.00483499
     atom    6 type  1   force =     0.00000000    0.00000000   -0.00483059
     atom    7 type  2   force =     0.00000000    0.00000000    0.00575500
     atom    8 type  2   force =     0.00000000    0.00000000    0.00575533
     atom    9 type  1   force =     0.00000000   -0.00000000   -0.00483522
     atom   10 type  1   force =     0.00000000   -0.00000000   -0.00483495
     atom   11 type  2   force =     0.00000000    0.00000000    0.00575353
     atom   12 type  2   force =     0.00000000    0.00000000    0.00575683
     The ionic contribution  to forces
     atom    1 type  1   force =    -0.00000000    0.00000000    0.06271746
     atom    2 type  1   force =     0.00000000   -0.00000000    0.06271750
     atom    3 type  2   force =    -0.00000000    0.00000000   -0.06271747
     atom    4 type  2   force =     0.00000000   -0.00000000   -0.06271748
     atom    5 type  1   force =    -0.00000000    0.00000000    0.06271750
     atom    6 type  1   force =     0.00000000   -0.00000000    0.06271746
     atom    7 type  2   force =    -0.00000000    0.00000000   -0.06271748
     atom    8 type  2   force =     0.00000000   -0.00000000   -0.06271746
     atom    9 type  1   force =    -0.00000000    0.00000000    0.06271746
     atom   10 type  1   force =     0.00000000   -0.00000000    0.06271746
     atom   11 type  2   force =    -0.00000000    0.00000000   -0.06271746
     atom   12 type  2   force =     0.00000000   -0.00000000   -0.06271747
     The local contribution  to forces
     atom    1 type  1   force =    -0.00000005    0.00000003   -0.05829491
     atom    2 type  1   force =     0.00000005   -0.00000003   -0.05829561
     atom    3 type  2   force =    -0.00000001    0.00000001    0.05696461
     atom    4 type  2   force =     0.00000001   -0.00000001    0.05695984
     atom    5 type  1   force =    -0.00000005    0.00000003   -0.05828348
     atom    6 type  1   force =     0.00000005   -0.00000003   -0.05829604
     atom    7 type  2   force =    -0.00000001    0.00000001    0.05696370
     atom    8 type  2   force =     0.00000001   -0.00000001    0.05696642
     atom    9 type  1   force =    -0.00000005    0.00000003   -0.05828446
     atom   10 type  1   force =     0.00000005   -0.00000003   -0.05828418
     atom   11 type  2   force =    -0.00000001    0.00000001    0.05695961
     atom   12 type  2   force =     0.00000001   -0.00000001    0.05696242
     The core correction contribution to forces
     atom    1 type  1   force =    -0.00000001    0.00000000    0.00046398
     atom    2 type  1   force =     0.00000001   -0.00000000    0.00046402
     atom    3 type  2   force =     0.00000000   -0.00000000   -0.00006502
     atom    4 type  2   force =    -0.00000000    0.00000000   -0.00006503
     atom    5 type  1   force =    -0.00000001    0.00000000    0.00046392
     atom    6 type  1   force =     0.00000001   -0.00000000    0.00046402
     atom    7 type  2   force =     0.00000000   -0.00000000   -0.00006505
     atom    8 type  2   force =    -0.00000000    0.00000000   -0.00006505
     atom    9 type  1   force =    -0.00000001    0.00000000    0.00046398
     atom   10 type  1   force =     0.00000001   -0.00000000    0.00046391
     atom   11 type  2   force =     0.00000000   -0.00000000   -0.00006504
     atom   12 type  2   force =    -0.00000000    0.00000000   -0.00006508
     The Hubbard contrib.    to forces
     atom    1 type  1   force =     0.00000000    0.00000000    0.00000000
     atom    2 type  1   force =     0.00000000    0.00000000    0.00000000
     atom    3 type  2   force =     0.00000000    0.00000000    0.00000000
     atom    4 type  2   force =     0.00000000    0.00000000    0.00000000
     atom    5 type  1   force =     0.00000000    0.00000000    0.00000000
     atom    6 type  1   force =     0.00000000    0.00000000    0.00000000
     atom    7 type  2   force =     0.00000000    0.00000000    0.00000000
     atom    8 type  2   force =     0.00000000    0.00000000    0.00000000
     atom    9 type  1   force =     0.00000000    0.00000000    0.00000000
     atom   10 type  1   force =     0.00000000    0.00000000    0.00000000
     atom   11 type  2   force =     0.00000000    0.00000000    0.00000000
     atom   12 type  2   force =     0.00000000    0.00000000    0.00000000
     The SCF correction term to forces
     atom    1 type  1   force =    -0.00000000    0.00000000    0.00001080
     atom    2 type  1   force =     0.00000000   -0.00000000    0.00001247
     atom    3 type  2   force =    -0.00000000    0.00000000    0.00000144
     atom    4 type  2   force =     0.00000000   -0.00000000    0.00000647
     atom    5 type  1   force =    -0.00000000    0.00000000   -0.00000431
     atom    6 type  1   force =     0.00000000   -0.00000000    0.00001469
     atom    7 type  2   force =    -0.00000000    0.00000000    0.00000060
     atom    8 type  2   force =     0.00000000   -0.00000000   -0.00000242
     atom    9 type  1   force =    -0.00000000    0.00000000   -0.00000037
     atom   10 type  1   force =     0.00000000   -0.00000000   -0.00000203
     atom   11 type  2   force =    -0.00000000    0.00000000    0.00000622
     atom   12 type  2   force =     0.00000000   -0.00000000    0.00000121

     Total force =     0.000220     Total SCF correction =     0.000025
     SCF correction compared to forces is large: reduce conv_thr to get better values

     General routines

     Parallel routines

   This run was terminated on:  14:28:49  16Jul2025

   JOB DONE.
Note: The following floating-point exceptions are signalling: IEEE_INVALID_FLAG
Note: The following floating-point exceptions are signalling: IEEE_INVALID_FLAG