     Program PWSCF v.7.0 starts on 27Aug2025 at 21:56:10

     K-points division:     npool     =      17

     Reading input from /home/jvc/QEspresso7.2/ZnO_database/scripts/cell131.in/ZnO-3.34-1.65-131.in
Warning: card &CELL ignored
Warning: card / ignored
Warning: card &FCP ignored
Warning: card / ignored
Warning: card &RISM ignored
Warning: card / ignored

     Current dimensions of program PWSCF are:
     Max number of different atomic species (ntypx) = 10
     Max number of k-points (npk) =  40000
     Max angular momentum in pseudopotentials (lmaxx) =  4
     file Zn.upf: wavefunction(s)  3D renormalized
     Found identity + (  0.0000  0.3333  0.0000) symmetry
     This is a supercell, fractional translations are disabled
     Message from routine setup:
     using ibrav=0 with symmetry is DISCOURAGED, use correct ibrav instead

     Subspace diagonalization in iterative solution of the eigenvalue problem:
     a serial algorithm will be used

     Using Slab Decomposition

     bravais-lattice index     =            0
     lattice parameter (alat)  =       6.3024  a.u.
     unit-cell volume          =    1070.9676 (a.u.)^3
     number of atoms/cell      =           12
     number of atomic types    =            2
     number of electrons       =       108.00
     number of Kohn-Sham states=           54
     kinetic-energy cutoff     =      50.0000  Ry
     charge density cutoff     =     400.0000  Ry
     scf convergence threshold =      1.0E-08
     mixing beta               =       0.3000
     number of iterations used =            8  plain     mixing
     Exchange-correlation= PBE
                           (   1   4   3   4   0   0   0)

     celldm(1)=   6.302431  celldm(2)=   0.000000  celldm(3)=   0.000000
     celldm(4)=   0.000000  celldm(5)=   0.000000  celldm(6)=   0.000000

     crystal axes: (cart. coord. in units of alat)
               a(1) = (   1.000000   0.000000   0.000000 )
               a(2) = (  -1.500000   2.598076   0.000000 )
               a(3) = (   0.000000   0.000000   1.646646 )

     reciprocal axes: (cart. coord. in units 2 pi/alat)
               b(1) = (  1.000000  0.577350 -0.000000 )
               b(2) = (  0.000000  0.384900  0.000000 )
               b(3) = (  0.000000 -0.000000  0.607295 )

     PseudoPot. # 1 for Zn read from file:
     /home/jvc/QEspresso7.2/ZnO_database/pseudos/Zn.upf
     MD5 check sum: 7f56cabf9682ed8c977c2f7d0c5985c5
     Pseudo is Ultrasoft + core correction, Zval = 12.0
     Generated using &quot;atomic&quot; code by A. Dal Corso  v.6.2.2
     Using radial grid of 1201 points,  6 beta functions with:
                l(1) =   0
                l(2) =   0
                l(3) =   1
                l(4) =   1
                l(5) =   2
                l(6) =   2
     Q(r) pseudized with 0 coefficients

     PseudoPot. # 2 for O  read from file:
     /home/jvc/QEspresso7.2/ZnO_database/pseudos/O.upf
     MD5 check sum: 91400c9766925bcf19f520983a725ff0
     Pseudo is Ultrasoft + core correction, Zval =  6.0
     Generated using &quot;atomic&quot; code by A. Dal Corso  v.6.3MaX
     Using radial grid of 1095 points,  4 beta functions with:
                l(1) =   0
                l(2) =   0
                l(3) =   1
                l(4) =   1
     Q(r) pseudized with 0 coefficients

     atomic species   valence    mass     pseudopotential
        Zn            12.00    65.38000     Zn( 1.00)
        O              6.00    15.99900     O ( 1.00)

      2 Sym. Ops. (no inversion) found

                                    s                        frac. trans.

      isym =  1     identity

 cryst.   s( 1) = (     1          0          0      )
                  (     0          1          0      )
                  (     0          0          1      )

 cart.    s( 1) = (  1.0000000  0.0000000  0.0000000 )
                  (  0.0000000  1.0000000  0.0000000 )
                  (  0.0000000  0.0000000  1.0000000 )

      isym =  2     inv. 180 deg rotation - cart. axis [1,0,0]

 cryst.   s( 2) = (    -1          0          0      )
                  (     3          1          0      )
                  (     0          0          1      )

 cart.    s( 2) = ( -1.0000000  0.0000000  0.0000000 )
                  (  0.0000000  1.0000000  0.0000000 )
                  (  0.0000000  0.0000000  1.0000000 )

   Cartesian axes

     site n.     atom                  positions (alat units)
         1           Zn  tau(   1) = (   0.5000000   0.2886751   0.8243661  )
         2           Zn  tau(   2) = (   0.0000000   0.5773503   0.0010433  )
         3           O   tau(   3) = (   0.5000000   0.2886751   1.4485152  )
         4           O   tau(   4) = (   0.0000000   0.5773503   0.6251925  )
         5           Zn  tau(   5) = (   0.0000000   1.1547005   0.8243661  )
         6           Zn  tau(   6) = (  -0.5000000   1.4433757   0.0010433  )
         7           O   tau(   7) = (   0.0000000   1.1547005   1.4485152  )
         8           O   tau(   8) = (  -0.5000000   1.4433757   0.6251925  )
         9           Zn  tau(   9) = (  -0.5000000   2.0207259   0.8243661  )
        10           Zn  tau(  10) = (  -1.0000000   2.3094011   0.0010433  )
        11           O   tau(  11) = (  -0.5000000   2.0207259   1.4485152  )
        12           O   tau(  12) = (  -1.0000000   2.3094011   0.6251925  )

   Crystallographic axes

     site n.     atom                  positions (cryst. coord.)
         1           Zn  tau(   1) = (  0.6666667  0.1111111  0.5006336  )
         2           Zn  tau(   2) = (  0.3333333  0.2222222  0.0006336  )
         3           O   tau(   3) = (  0.6666667  0.1111111  0.8796764  )
         4           O   tau(   4) = (  0.3333333  0.2222222  0.3796764  )
         5           Zn  tau(   5) = (  0.6666667  0.4444444  0.5006336  )
         6           Zn  tau(   6) = (  0.3333333  0.5555556  0.0006336  )
         7           O   tau(   7) = (  0.6666667  0.4444444  0.8796764  )
         8           O   tau(   8) = (  0.3333333  0.5555556  0.3796764  )
         9           Zn  tau(   9) = (  0.6666667  0.7777778  0.5006336  )
        10           Zn  tau(  10) = (  0.3333333  0.8888889  0.0006336  )
        11           O   tau(  11) = (  0.6666667  0.7777778  0.8796764  )
        12           O   tau(  12) = (  0.3333333  0.8888889  0.3796764  )

     number of k points=    68
                       cart. coord. in units 2pi/alat
        k(    1) = (   0.0000000   0.0000000   0.0000000), wk =   0.0092593
        k(    2) = (   0.0000000   0.0000000   0.1012159), wk =   0.0185185
        k(    3) = (   0.0000000   0.0000000   0.2024317), wk =   0.0185185
        k(    4) = (   0.0000000   0.0000000  -0.3036476), wk =   0.0092593
        k(    5) = (   0.0000000   0.0641500   0.0000000), wk =   0.0185185
        k(    6) = (   0.0000000   0.0641500   0.1012159), wk =   0.0185185
        k(    7) = (   0.0000000   0.0641500   0.2024317), wk =   0.0185185
        k(    8) = (   0.0000000   0.0641500  -0.3036476), wk =   0.0185185
        k(    9) = (   0.0000000   0.1283001   0.0000000), wk =   0.0185185
        k(   10) = (   0.0000000   0.1283001   0.1012159), wk =   0.0185185
        k(   11) = (   0.0000000   0.1283001   0.2024317), wk =   0.0185185
        k(   12) = (   0.0000000   0.1283001  -0.3036476), wk =   0.0185185
        k(   13) = (   0.0000000  -0.1924501   0.0000000), wk =   0.0092593
        k(   14) = (   0.0000000  -0.1924501   0.1012159), wk =   0.0185185
        k(   15) = (   0.0000000  -0.1924501   0.2024317), wk =   0.0185185
        k(   16) = (   0.0000000  -0.1924501  -0.3036476), wk =   0.0092593
        k(   17) = (   0.1666667   0.0962250   0.0000000), wk =   0.0370370
        k(   18) = (   0.1666667   0.0962250   0.1012159), wk =   0.0370370
        k(   19) = (   0.1666667   0.0962250   0.2024317), wk =   0.0370370
        k(   20) = (   0.1666667   0.0962250  -0.3036476), wk =   0.0370370
        k(   21) = (   0.1666667   0.1603751   0.0000000), wk =   0.0370370
        k(   22) = (   0.1666667   0.1603751   0.1012159), wk =   0.0370370
        k(   23) = (   0.1666667   0.1603751   0.2024317), wk =   0.0370370
        k(   24) = (   0.1666667   0.1603751  -0.3036476), wk =   0.0370370
        k(   25) = (   0.1666667  -0.0320750   0.0000000), wk =   0.0370370
        k(   26) = (   0.1666667  -0.0320750   0.1012159), wk =   0.0370370
        k(   27) = (   0.1666667  -0.0320750   0.2024317), wk =   0.0370370
        k(   28) = (   0.1666667  -0.0320750  -0.3036476), wk =   0.0370370
        k(   29) = (   0.3333333   0.1924501   0.0000000), wk =   0.0185185
        k(   30) = (   0.3333333   0.1924501   0.1012159), wk =   0.0370370
        k(   31) = (   0.3333333   0.1924501   0.2024317), wk =   0.0370370
        k(   32) = (   0.3333333   0.1924501  -0.3036476), wk =   0.0185185
        k(   33) = (   0.3333333   0.2566001   0.0000000), wk =   0.0370370
        k(   34) = (   0.3333333   0.2566001   0.1012159), wk =   0.0370370
        k(   35) = (   0.3333333   0.2566001   0.2024317), wk =   0.0370370
        k(   36) = (   0.3333333   0.2566001  -0.3036476), wk =   0.0370370
        k(   37) = (   0.3333333   0.3207501   0.0000000), wk =   0.0370370
        k(   38) = (   0.3333333   0.3207501   0.1012159), wk =   0.0370370
        k(   39) = (   0.3333333   0.3207501   0.2024317), wk =   0.0370370
        k(   40) = (   0.3333333   0.3207501  -0.3036476), wk =   0.0370370
        k(   41) = (   0.3333333  -0.0000000   0.0000000), wk =   0.0185185
        k(   42) = (   0.3333333  -0.0000000   0.1012159), wk =   0.0370370
        k(   43) = (   0.3333333  -0.0000000   0.2024317), wk =   0.0370370
        k(   44) = (   0.3333333  -0.0000000  -0.3036476), wk =   0.0185185
        k(   45) = (  -0.5000000  -0.2886751   0.0000000), wk =   0.0185185
        k(   46) = (  -0.5000000  -0.2886751   0.1012159), wk =   0.0370370
        k(   47) = (  -0.5000000  -0.2886751   0.2024317), wk =   0.0370370
        k(   48) = (  -0.5000000  -0.2886751  -0.3036476), wk =   0.0185185
        k(   49) = (  -0.5000000  -0.2245251   0.0000000), wk =   0.0370370
        k(   50) = (  -0.5000000  -0.2245251   0.1012159), wk =   0.0370370
        k(   51) = (  -0.5000000  -0.2245251   0.2024317), wk =   0.0370370
        k(   52) = (  -0.5000000  -0.2245251  -0.3036476), wk =   0.0370370
        k(   53) = (   0.0000000   0.0641500  -0.1012159), wk =   0.0185185
        k(   54) = (   0.0000000   0.0641500  -0.2024317), wk =   0.0185185
        k(   55) = (   0.0000000   0.1283001  -0.1012159), wk =   0.0185185
        k(   56) = (   0.0000000   0.1283001  -0.2024317), wk =   0.0185185
        k(   57) = (  -0.1666667   0.0962250  -0.1012159), wk =   0.0370370
        k(   58) = (  -0.1666667   0.0962250  -0.2024317), wk =   0.0370370
        k(   59) = (  -0.1666667   0.1603751  -0.1012159), wk =   0.0370370
        k(   60) = (  -0.1666667   0.1603751  -0.2024317), wk =   0.0370370
        k(   61) = (  -0.1666667  -0.0320750  -0.1012159), wk =   0.0370370
        k(   62) = (  -0.1666667  -0.0320750  -0.2024317), wk =   0.0370370
        k(   63) = (  -0.3333333   0.2566001  -0.1012159), wk =   0.0370370
        k(   64) = (  -0.3333333   0.2566001  -0.2024317), wk =   0.0370370
        k(   65) = (  -0.3333333   0.3207501  -0.1012159), wk =   0.0370370
        k(   66) = (  -0.3333333   0.3207501  -0.2024317), wk =   0.0370370
        k(   67) = (   0.5000000  -0.2245251  -0.1012159), wk =   0.0370370
        k(   68) = (   0.5000000  -0.2245251  -0.2024317), wk =   0.0370370

                       cryst. coord.
        k(    1) = (   0.0000000   0.0000000   0.0000000), wk =   0.0092593
        k(    2) = (   0.0000000   0.0000000   0.1666667), wk =   0.0185185
        k(    3) = (   0.0000000   0.0000000   0.3333333), wk =   0.0185185
        k(    4) = (   0.0000000   0.0000000  -0.5000000), wk =   0.0092593
        k(    5) = (   0.0000000   0.1666667   0.0000000), wk =   0.0185185
        k(    6) = (   0.0000000   0.1666667   0.1666667), wk =   0.0185185
        k(    7) = (   0.0000000   0.1666667   0.3333333), wk =   0.0185185
        k(    8) = (   0.0000000   0.1666667  -0.5000000), wk =   0.0185185
        k(    9) = (   0.0000000   0.3333333   0.0000000), wk =   0.0185185
        k(   10) = (   0.0000000   0.3333333   0.1666667), wk =   0.0185185
        k(   11) = (   0.0000000   0.3333333   0.3333333), wk =   0.0185185
        k(   12) = (   0.0000000   0.3333333  -0.5000000), wk =   0.0185185
        k(   13) = (   0.0000000  -0.5000000   0.0000000), wk =   0.0092593
        k(   14) = (   0.0000000  -0.5000000   0.1666667), wk =   0.0185185
        k(   15) = (   0.0000000  -0.5000000   0.3333333), wk =   0.0185185
        k(   16) = (   0.0000000  -0.5000000  -0.5000000), wk =   0.0092593
        k(   17) = (   0.1666667   0.0000000   0.0000000), wk =   0.0370370
        k(   18) = (   0.1666667   0.0000000   0.1666667), wk =   0.0370370
        k(   19) = (   0.1666667   0.0000000   0.3333333), wk =   0.0370370
        k(   20) = (   0.1666667   0.0000000  -0.5000000), wk =   0.0370370
        k(   21) = (   0.1666667   0.1666667   0.0000000), wk =   0.0370370
        k(   22) = (   0.1666667   0.1666667   0.1666667), wk =   0.0370370
        k(   23) = (   0.1666667   0.1666667   0.3333333), wk =   0.0370370
        k(   24) = (   0.1666667   0.1666667  -0.5000000), wk =   0.0370370
        k(   25) = (   0.1666667  -0.3333333   0.0000000), wk =   0.0370370
        k(   26) = (   0.1666667  -0.3333333   0.1666667), wk =   0.0370370
        k(   27) = (   0.1666667  -0.3333333   0.3333333), wk =   0.0370370
        k(   28) = (   0.1666667  -0.3333333  -0.5000000), wk =   0.0370370
        k(   29) = (   0.3333333   0.0000000   0.0000000), wk =   0.0185185
        k(   30) = (   0.3333333   0.0000000   0.1666667), wk =   0.0370370
        k(   31) = (   0.3333333   0.0000000   0.3333333), wk =   0.0370370
        k(   32) = (   0.3333333   0.0000000  -0.5000000), wk =   0.0185185
        k(   33) = (   0.3333333   0.1666667   0.0000000), wk =   0.0370370
        k(   34) = (   0.3333333   0.1666667   0.1666667), wk =   0.0370370
        k(   35) = (   0.3333333   0.1666667   0.3333333), wk =   0.0370370
        k(   36) = (   0.3333333   0.1666667  -0.5000000), wk =   0.0370370
        k(   37) = (   0.3333333   0.3333333   0.0000000), wk =   0.0370370
        k(   38) = (   0.3333333   0.3333333   0.1666667), wk =   0.0370370
        k(   39) = (   0.3333333   0.3333333   0.3333333), wk =   0.0370370
        k(   40) = (   0.3333333   0.3333333  -0.5000000), wk =   0.0370370
        k(   41) = (   0.3333333  -0.5000000   0.0000000), wk =   0.0185185
        k(   42) = (   0.3333333  -0.5000000   0.1666667), wk =   0.0370370
        k(   43) = (   0.3333333  -0.5000000   0.3333333), wk =   0.0370370
        k(   44) = (   0.3333333  -0.5000000  -0.5000000), wk =   0.0185185
        k(   45) = (  -0.5000000  -0.0000000   0.0000000), wk =   0.0185185
        k(   46) = (  -0.5000000  -0.0000000   0.1666667), wk =   0.0370370
        k(   47) = (  -0.5000000  -0.0000000   0.3333333), wk =   0.0370370
        k(   48) = (  -0.5000000  -0.0000000  -0.5000000), wk =   0.0185185
        k(   49) = (  -0.5000000   0.1666667   0.0000000), wk =   0.0370370
        k(   50) = (  -0.5000000   0.1666667   0.1666667), wk =   0.0370370
        k(   51) = (  -0.5000000   0.1666667   0.3333333), wk =   0.0370370
        k(   52) = (  -0.5000000   0.1666667  -0.5000000), wk =   0.0370370
        k(   53) = (   0.0000000   0.1666667  -0.1666667), wk =   0.0185185
        k(   54) = (   0.0000000   0.1666667  -0.3333333), wk =   0.0185185
        k(   55) = (   0.0000000   0.3333333  -0.1666667), wk =   0.0185185
        k(   56) = (   0.0000000   0.3333333  -0.3333333), wk =   0.0185185
        k(   57) = (  -0.1666667   0.5000000  -0.1666667), wk =   0.0370370
        k(   58) = (  -0.1666667   0.5000000  -0.3333333), wk =   0.0370370
        k(   59) = (  -0.1666667   0.6666667  -0.1666667), wk =   0.0370370
        k(   60) = (  -0.1666667   0.6666667  -0.3333333), wk =   0.0370370
        k(   61) = (  -0.1666667   0.1666667  -0.1666667), wk =   0.0370370
        k(   62) = (  -0.1666667   0.1666667  -0.3333333), wk =   0.0370370
        k(   63) = (  -0.3333333   1.1666667  -0.1666667), wk =   0.0370370
        k(   64) = (  -0.3333333   1.1666667  -0.3333333), wk =   0.0370370
        k(   65) = (  -0.3333333   1.3333333  -0.1666667), wk =   0.0370370
        k(   66) = (  -0.3333333   1.3333333  -0.3333333), wk =   0.0370370
        k(   67) = (   0.5000000  -1.3333333  -0.1666667), wk =   0.0370370
        k(   68) = (   0.5000000  -1.3333333  -0.3333333), wk =   0.0370370

     Check: negative core charge=   -0.000002

     Initial potential from superposition of free atoms

     starting charge     107.9776, renormalised to     108.0000
     Starting wfcs are   78 randomized atomic wfcs

     Self-consistent Calculation

     iteration #  1     ecut=    50.00 Ry     beta= 0.30
     Davidson diagonalization with overlap

     ethr =  1.00E-02,  avg # of iterations =  1.9

     total energy              =   -1084.38402537 Ry
     estimated scf accuracy    <       2.16726853 Ry

[...]

     total energy              =   -1084.88988921 Ry
     estimated scf accuracy    <       0.00000002 Ry

     iteration # 29     ecut=    50.00 Ry     beta= 0.30
     Davidson diagonalization with overlap

     ethr =  1.88E-11,  avg # of iterations =  3.0

     End of self-consistent calculation

          k = 0.0000 0.0000 0.0000 (  6377 PWs)   bands (ev):

   -11.5299 -11.1427 -11.1427 -10.9848 -10.8319 -10.8319   0.3373   0.3373
     0.5123   0.5126   0.5530   0.6073   0.6073   0.6633   0.6635   0.6961
     0.6961   0.8366   0.9096   0.9096   1.0098   1.0098   1.1770   1.1770
     1.3651   1.3651   1.4242   1.4242   1.4825   1.4825   1.5767   1.5767
     1.6004   1.6005   1.7830   1.7830   1.8659   2.1942   2.1942   2.8738
     2.8738   3.6291   3.6291   4.2481   4.2481   5.0699   5.0699   5.1610
     5.1615   5.2584   5.2584   5.6915   5.7956   5.7962

     occupation numbers
     1.0000   1.0000   1.0000   1.0000   1.0000   1.0000   1.0000   1.0000
     1.0000   1.0000   1.0000   1.0000   1.0000   1.0000   1.0000   1.0000
     1.0000   1.0000   1.0000   1.0000   1.0000   1.0000   1.0000   1.0000
     1.0000   1.0000   1.0000   1.0000   1.0000   1.0000   1.0000   1.0000
     1.0000   1.0000   1.0000   1.0000   1.0000   1.0000   1.0000   1.0000
     1.0000   1.0000   1.0000   1.0000   1.0000   1.0000   1.0000   1.0000
     1.0000   1.0000   1.0000   1.0000   1.0000   1.0000

[...]

          k =-0.5000-0.2887 0.0000 (  6406 PWs)   bands (ev):

[...]

          k =-0.3333 0.3208-0.2024 (  6409 PWs)   bands (ev):

[...]

          k = 0.5000-0.2245-0.2024 (  6407 PWs)   bands (ev):

   -10.9361 -10.9334 -10.9319 -10.8477 -10.8475 -10.8470   0.3303   0.3680
     0.4222   0.4713   0.4892   0.5334   0.7922   0.7933   0.8125   0.8682
     1.0012   1.0198   1.0255   1.0328   1.0330   1.0465   1.0515   1.0682
     1.4632   1.5128   1.5344   1.5462   1.5515   1.5606   1.6197   1.6346
     1.6449   1.6862   1.7158   1.7561   2.1539   2.2102   2.3714   2.3812
     2.4760   2.6845   3.5436   3.8512   3.9965   4.0625   4.2004   4.2211
     4.3517   4.5465   4.6902   4.8101   4.8189   4.8284

     occupation numbers
     1.0000   1.0000   1.0000   1.0000   1.0000   1.0000   1.0000   1.0000
     1.0000   1.0000   1.0000   1.0000   1.0000   1.0000   1.0000   1.0000
     1.0000   1.0000   1.0000   1.0000   1.0000   1.0000   1.0000   1.0000
     1.0000   1.0000   1.0000   1.0000   1.0000   1.0000   1.0000   1.0000
     1.0000   1.0000   1.0000   1.0000   1.0000   1.0000   1.0000   1.0000
     1.0000   1.0000   1.0000   1.0000   1.0000   1.0000   1.0000   1.0000
     1.0000   1.0000   1.0000   1.0000   1.0000   1.0000

     highest occupied level (ev):     5.7962

!    total energy              =   -1084.88988921 Ry
     estimated scf accuracy    <          4.2E-09 Ry

     The total energy is the sum of the following terms:
     one-electron contribution =    -490.49835140 Ry
     hartree contribution      =     364.48871709 Ry
     xc contribution           =    -328.17254892 Ry
     ewald contribution        =    -630.70770597 Ry

     convergence has been achieved in  29 iterations

     Forces acting on atoms (cartesian axes, Ry/au):

     atom    1 type  1   force =     0.00000000   -0.00000366    0.00276544
     atom    2 type  1   force =     0.00000000    0.00000418    0.00276854
     atom    3 type  2   force =     0.00000000    0.00000740   -0.00276500
     atom    4 type  2   force =     0.00000000   -0.00000353   -0.00276773
     atom    5 type  1   force =     0.00000000   -0.00000407    0.00276296
     atom    6 type  1   force =     0.00000000    0.00000263    0.00276873
     atom    7 type  2   force =     0.00000000    0.00000429   -0.00276553
     atom    8 type  2   force =     0.00000000   -0.00000603   -0.00276722
     atom    9 type  1   force =     0.00000000   -0.00000374    0.00276645
     atom   10 type  1   force =     0.00000000    0.00000339    0.00276630
     atom   11 type  2   force =     0.00000000    0.00000368   -0.00276562
     atom   12 type  2   force =     0.00000000   -0.00000453   -0.00276731
     The non-local contrib.  to forces
     atom    1 type  1   force =     0.00000000   -0.00000105    0.04908647
     atom    2 type  1   force =     0.00000000   -0.00000292    0.04908373
     atom    3 type  2   force =     0.00000000    0.00024208    0.05557766
     atom    4 type  2   force =     0.00000000   -0.00023937    0.05557568
     atom    5 type  1   force =     0.00000000    0.00000129    0.04908487
     atom    6 type  1   force =     0.00000000    0.00000044    0.04908462
     atom    7 type  2   force =     0.00000000    0.00023781    0.05557814
     atom    8 type  2   force =     0.00000000   -0.00024203    0.05557643
     atom    9 type  1   force =     0.00000000    0.00000198    0.04908511
     atom   10 type  1   force =     0.00000000   -0.00000008    0.04908292
     atom   11 type  2   force =     0.00000000    0.00024018    0.05557775
     atom   12 type  2   force =     0.00000000   -0.00024002    0.05557561
     The ionic contribution  to forces
     atom    1 type  1   force =    -0.00000000    0.00000001    0.44698223
     atom    2 type  1   force =     0.00000000    0.00000001    0.44698223
     atom    3 type  2   force =    -0.00000000    0.00000000   -0.44698223
     atom    4 type  2   force =     0.00000000    0.00000000   -0.44698223
     atom    5 type  1   force =    -0.00000001    0.00000001    0.44698223
     atom    6 type  1   force =     0.00000001   -0.00000001    0.44698223
     atom    7 type  2   force =    -0.00000001    0.00000000   -0.44698223
     atom    8 type  2   force =     0.00000001   -0.00000000   -0.44698223
     atom    9 type  1   force =    -0.00000000   -0.00000001    0.44698223
     atom   10 type  1   force =     0.00000000   -0.00000001    0.44698223
     atom   11 type  2   force =    -0.00000000   -0.00000000   -0.44698223
     atom   12 type  2   force =     0.00000000   -0.00000000   -0.44698223
     The local contribution  to forces
     atom    1 type  1   force =    -0.00000004   -0.00000848   -0.49004705
     atom    2 type  1   force =    -0.00000000    0.00001525   -0.49004378
     atom    3 type  2   force =    -0.00000001   -0.00022957    0.38912111
     atom    4 type  2   force =    -0.00000000    0.00023544    0.38912134
     atom    5 type  1   force =    -0.00000009   -0.00001223   -0.49004418
     atom    6 type  1   force =     0.00000009    0.00000943   -0.49004473
     atom    7 type  2   force =    -0.00000002   -0.00023192    0.38911669
     atom    8 type  2   force =     0.00000002    0.00023376    0.38912347
     atom    9 type  1   force =    -0.00000000   -0.00001343   -0.49004580
     atom   10 type  1   force =     0.00000004    0.00001084   -0.49004165
     atom   11 type  2   force =    -0.00000000   -0.00023520    0.38911953
     atom   12 type  2   force =     0.00000001    0.00023058    0.38912172
     The core correction contribution to forces
     atom    1 type  1   force =    -0.00000006    0.00000821   -0.00325863
     atom    2 type  1   force =     0.00000002   -0.00000816   -0.00325874
     atom    3 type  2   force =    -0.00000000   -0.00000274   -0.00047963
     atom    4 type  2   force =    -0.00000001    0.00000271   -0.00047960
     atom    5 type  1   force =     0.00000001    0.00000812   -0.00325862
     atom    6 type  1   force =    -0.00000001   -0.00000808   -0.00325873
     atom    7 type  2   force =     0.00000000   -0.00000269   -0.00047965
     atom    8 type  2   force =    -0.00000000    0.00000276   -0.00047960
     atom    9 type  1   force =    -0.00000002    0.00000816   -0.00325864
     atom   10 type  1   force =     0.00000006   -0.00000821   -0.00325871
     atom   11 type  2   force =     0.00000001   -0.00000273   -0.00047964
     atom   12 type  2   force =     0.00000000    0.00000271   -0.00047960
     The Hubbard contrib.    to forces
     atom    1 type  1   force =     0.00000000    0.00000000    0.00000000
     atom    2 type  1   force =     0.00000000    0.00000000    0.00000000
     atom    3 type  2   force =     0.00000000    0.00000000    0.00000000
     atom    4 type  2   force =     0.00000000    0.00000000    0.00000000
     atom    5 type  1   force =     0.00000000    0.00000000    0.00000000
     atom    6 type  1   force =     0.00000000    0.00000000    0.00000000
     atom    7 type  2   force =     0.00000000    0.00000000    0.00000000
     atom    8 type  2   force =     0.00000000    0.00000000    0.00000000
     atom    9 type  1   force =     0.00000000    0.00000000    0.00000000
     atom   10 type  1   force =     0.00000000    0.00000000    0.00000000
     atom   11 type  2   force =     0.00000000    0.00000000    0.00000000
     atom   12 type  2   force =     0.00000000    0.00000000    0.00000000
     The SCF correction term to forces
     atom    1 type  1   force =     0.00000000   -0.00000255    0.00000379
     atom    2 type  1   force =     0.00000000   -0.00000021    0.00000648
     atom    3 type  2   force =     0.00000000   -0.00000259   -0.00000055
     atom    4 type  2   force =     0.00000000   -0.00000251   -0.00000155
     atom    5 type  1   force =     0.00000000   -0.00000146    0.00000003
     atom    6 type  1   force =    -0.00000000    0.00000065    0.00000670
     atom    7 type  2   force =     0.00000000    0.00000089    0.00000289
     atom    8 type  2   force =    -0.00000000   -0.00000072   -0.00000392
     atom    9 type  1   force =    -0.00000000   -0.00000064    0.00000491
     atom   10 type  1   force =    -0.00000000    0.00000063    0.00000287
     atom   11 type  2   force =    -0.00000000    0.00000122    0.00000035
     atom   12 type  2   force =    -0.00000000    0.00000200   -0.00000145

     Total force =     0.009583     Total SCF correction =     0.000014

     General routines

     Parallel routines

   This run was terminated on:  22: 6:33  27Aug2025

   JOB DONE.