     Program PWSCF v.7.0 starts on 27Aug2025 at 15:59:17

     K-points division:     npool     =      17

     Reading input from /home/jvc/QEspresso7.2/ZnO_database/scripts/cell131.in/ZnO-3.14-1.58-131.in
Warning: card &CELL ignored
Warning: card / ignored
Warning: card &FCP ignored
Warning: card / ignored
Warning: card &RISM ignored
Warning: card / ignored

     Current dimensions of program PWSCF are:
     Max number of different atomic species (ntypx) = 10
     Max number of k-points (npk) =  40000
     Max angular momentum in pseudopotentials (lmaxx) =  4
     file Zn.upf: wavefunction(s)  3D renormalized
     Found identity + ( -0.0000  0.3333  0.0000) symmetry
     This is a supercell, fractional translations are disabled
     Message from routine setup:
     using ibrav=0 with symmetry is DISCOURAGED, use correct ibrav instead

     Subspace diagonalization in iterative solution of the eigenvalue problem:
     a serial algorithm will be used

     Using Slab Decomposition

     bravais-lattice index     =            0
     lattice parameter (alat)  =       5.9317  a.u.
     unit-cell volume          =     857.8580 (a.u.)^3
     number of atoms/cell      =           12
     number of atomic types    =            2
     number of electrons       =       108.00
     number of Kohn-Sham states=           54
     kinetic-energy cutoff     =      50.0000  Ry
     charge density cutoff     =     400.0000  Ry
     scf convergence threshold =      1.0E-08
     mixing beta               =       0.3000
     number of iterations used =            8  plain     mixing
     Exchange-correlation= PBE
                           (   1   4   3   4   0   0   0)

     celldm(1)=   5.931700  celldm(2)=   0.000000  celldm(3)=   0.000000
     celldm(4)=   0.000000  celldm(5)=   0.000000  celldm(6)=   0.000000

     crystal axes: (cart. coord. in units of alat)
               a(1) = (   1.000000   0.000000   0.000000 )
               a(2) = (  -1.500000   2.598076   0.000000 )
               a(3) = (   0.000000   0.000000   1.582071 )

     reciprocal axes: (cart. coord. in units 2 pi/alat)
               b(1) = (  1.000000  0.577350 -0.000000 )
               b(2) = (  0.000000  0.384900  0.000000 )
               b(3) = (  0.000000 -0.000000  0.632083 )

     PseudoPot. # 1 for Zn read from file:
     /home/jvc/QEspresso7.2/ZnO_database/pseudos/Zn.upf
     MD5 check sum: 7f56cabf9682ed8c977c2f7d0c5985c5
     Pseudo is Ultrasoft + core correction, Zval = 12.0
     Generated using &quot;atomic&quot; code by A. Dal Corso  v.6.2.2
     Using radial grid of 1201 points,  6 beta functions with:
                l(1) =   0
                l(2) =   0
                l(3) =   1
                l(4) =   1
                l(5) =   2
                l(6) =   2
     Q(r) pseudized with 0 coefficients

     PseudoPot. # 2 for O  read from file:
     /home/jvc/QEspresso7.2/ZnO_database/pseudos/O.upf
     MD5 check sum: 91400c9766925bcf19f520983a725ff0
     Pseudo is Ultrasoft + core correction, Zval =  6.0
     Generated using &quot;atomic&quot; code by A. Dal Corso  v.6.3MaX
     Using radial grid of 1095 points,  4 beta functions with:
                l(1) =   0
                l(2) =   0
                l(3) =   1
                l(4) =   1
     Q(r) pseudized with 0 coefficients

     atomic species   valence    mass     pseudopotential
        Zn            12.00    65.38000     Zn( 1.00)
        O              6.00    15.99900     O ( 1.00)

      2 Sym. Ops. (no inversion) found

                                    s                        frac. trans.

      isym =  1     identity

 cryst.   s( 1) = (     1          0          0      )
                  (     0          1          0      )
                  (     0          0          1      )

 cart.    s( 1) = (  1.0000000  0.0000000  0.0000000 )
                  (  0.0000000  1.0000000  0.0000000 )
                  (  0.0000000  0.0000000  1.0000000 )

      isym =  2     inv. 180 deg rotation - cart. axis [1,0,0]

 cryst.   s( 2) = (    -1          0          0      )
                  (     3          1          0      )
                  (     0          0          1      )

 cart.    s( 2) = ( -1.0000000  0.0000000  0.0000000 )
                  (  0.0000000  1.0000000  0.0000000 )
                  (  0.0000000  0.0000000  1.0000000 )

   Cartesian axes

     site n.     atom                  positions (alat units)
         1           Zn  tau(   1) = (   0.5000000   0.2886751   0.7920380  )
         2           Zn  tau(   2) = (   0.0000000   0.5773503   0.0010024  )
         3           O   tau(   3) = (   0.5000000   0.2886751   1.3917107  )
         4           O   tau(   4) = (   0.0000000   0.5773503   0.6006751  )
         5           Zn  tau(   5) = (   0.0000000   1.1547005   0.7920380  )
         6           Zn  tau(   6) = (  -0.5000000   1.4433757   0.0010024  )
         7           O   tau(   7) = (   0.0000000   1.1547005   1.3917107  )
         8           O   tau(   8) = (  -0.5000000   1.4433757   0.6006751  )
         9           Zn  tau(   9) = (  -0.5000000   2.0207259   0.7920380  )
        10           Zn  tau(  10) = (  -1.0000000   2.3094011   0.0010024  )
        11           O   tau(  11) = (  -0.5000000   2.0207259   1.3917107  )
        12           O   tau(  12) = (  -1.0000000   2.3094011   0.6006751  )

   Crystallographic axes

     site n.     atom                  positions (cryst. coord.)
         1           Zn  tau(   1) = (  0.6666667  0.1111111  0.5006336  )
         2           Zn  tau(   2) = (  0.3333333  0.2222222  0.0006336  )
         3           O   tau(   3) = (  0.6666667  0.1111111  0.8796764  )
         4           O   tau(   4) = (  0.3333333  0.2222222  0.3796764  )
         5           Zn  tau(   5) = (  0.6666667  0.4444444  0.5006336  )
         6           Zn  tau(   6) = (  0.3333333  0.5555556  0.0006336  )
         7           O   tau(   7) = (  0.6666667  0.4444444  0.8796764  )
         8           O   tau(   8) = (  0.3333333  0.5555556  0.3796764  )
         9           Zn  tau(   9) = (  0.6666667  0.7777778  0.5006336  )
        10           Zn  tau(  10) = (  0.3333333  0.8888889  0.0006336  )
        11           O   tau(  11) = (  0.6666667  0.7777778  0.8796764  )
        12           O   tau(  12) = (  0.3333333  0.8888889  0.3796764  )

     number of k points=    68
                       cart. coord. in units 2pi/alat
        k(    1) = (   0.0000000   0.0000000   0.0000000), wk =   0.0092593
        k(    2) = (   0.0000000   0.0000000   0.1053471), wk =   0.0185185
        k(    3) = (   0.0000000   0.0000000   0.2106943), wk =   0.0185185
        k(    4) = (   0.0000000   0.0000000  -0.3160414), wk =   0.0092593
        k(    5) = (   0.0000000   0.0641500   0.0000000), wk =   0.0185185
        k(    6) = (   0.0000000   0.0641500   0.1053471), wk =   0.0185185
        k(    7) = (   0.0000000   0.0641500   0.2106943), wk =   0.0185185
        k(    8) = (   0.0000000   0.0641500  -0.3160414), wk =   0.0185185
        k(    9) = (   0.0000000   0.1283001   0.0000000), wk =   0.0185185
        k(   10) = (   0.0000000   0.1283001   0.1053471), wk =   0.0185185
        k(   11) = (   0.0000000   0.1283001   0.2106943), wk =   0.0185185
        k(   12) = (   0.0000000   0.1283001  -0.3160414), wk =   0.0185185
        k(   13) = (   0.0000000  -0.1924501   0.0000000), wk =   0.0092593
        k(   14) = (   0.0000000  -0.1924501   0.1053471), wk =   0.0185185
        k(   15) = (   0.0000000  -0.1924501   0.2106943), wk =   0.0185185
        k(   16) = (   0.0000000  -0.1924501  -0.3160414), wk =   0.0092593
        k(   17) = (   0.1666667   0.0962250   0.0000000), wk =   0.0370370
        k(   18) = (   0.1666667   0.0962250   0.1053471), wk =   0.0370370
        k(   19) = (   0.1666667   0.0962250   0.2106943), wk =   0.0370370
        k(   20) = (   0.1666667   0.0962250  -0.3160414), wk =   0.0370370
        k(   21) = (   0.1666667   0.1603751   0.0000000), wk =   0.0370370
        k(   22) = (   0.1666667   0.1603751   0.1053471), wk =   0.0370370
        k(   23) = (   0.1666667   0.1603751   0.2106943), wk =   0.0370370
        k(   24) = (   0.1666667   0.1603751  -0.3160414), wk =   0.0370370
        k(   25) = (   0.1666667  -0.0320750   0.0000000), wk =   0.0370370
        k(   26) = (   0.1666667  -0.0320750   0.1053471), wk =   0.0370370
        k(   27) = (   0.1666667  -0.0320750   0.2106943), wk =   0.0370370
        k(   28) = (   0.1666667  -0.0320750  -0.3160414), wk =   0.0370370
        k(   29) = (   0.3333333   0.1924501   0.0000000), wk =   0.0185185
        k(   30) = (   0.3333333   0.1924501   0.1053471), wk =   0.0370370
        k(   31) = (   0.3333333   0.1924501   0.2106943), wk =   0.0370370
        k(   32) = (   0.3333333   0.1924501  -0.3160414), wk =   0.0185185
        k(   33) = (   0.3333333   0.2566001   0.0000000), wk =   0.0370370
        k(   34) = (   0.3333333   0.2566001   0.1053471), wk =   0.0370370
        k(   35) = (   0.3333333   0.2566001   0.2106943), wk =   0.0370370
        k(   36) = (   0.3333333   0.2566001  -0.3160414), wk =   0.0370370
        k(   37) = (   0.3333333   0.3207501   0.0000000), wk =   0.0370370
        k(   38) = (   0.3333333   0.3207501   0.1053471), wk =   0.0370370
        k(   39) = (   0.3333333   0.3207501   0.2106943), wk =   0.0370370
        k(   40) = (   0.3333333   0.3207501  -0.3160414), wk =   0.0370370
        k(   41) = (   0.3333333  -0.0000000   0.0000000), wk =   0.0185185
        k(   42) = (   0.3333333  -0.0000000   0.1053471), wk =   0.0370370
        k(   43) = (   0.3333333  -0.0000000   0.2106943), wk =   0.0370370
        k(   44) = (   0.3333333  -0.0000000  -0.3160414), wk =   0.0185185
        k(   45) = (  -0.5000000  -0.2886751   0.0000000), wk =   0.0185185
        k(   46) = (  -0.5000000  -0.2886751   0.1053471), wk =   0.0370370
        k(   47) = (  -0.5000000  -0.2886751   0.2106943), wk =   0.0370370
        k(   48) = (  -0.5000000  -0.2886751  -0.3160414), wk =   0.0185185
        k(   49) = (  -0.5000000  -0.2245251   0.0000000), wk =   0.0370370
        k(   50) = (  -0.5000000  -0.2245251   0.1053471), wk =   0.0370370
        k(   51) = (  -0.5000000  -0.2245251   0.2106943), wk =   0.0370370
        k(   52) = (  -0.5000000  -0.2245251  -0.3160414), wk =   0.0370370
        k(   53) = (   0.0000000   0.0641500  -0.1053471), wk =   0.0185185
        k(   54) = (   0.0000000   0.0641500  -0.2106943), wk =   0.0185185
        k(   55) = (   0.0000000   0.1283001  -0.1053471), wk =   0.0185185
        k(   56) = (   0.0000000   0.1283001  -0.2106943), wk =   0.0185185
        k(   57) = (  -0.1666667   0.0962250  -0.1053471), wk =   0.0370370
        k(   58) = (  -0.1666667   0.0962250  -0.2106943), wk =   0.0370370
        k(   59) = (  -0.1666667   0.1603751  -0.1053471), wk =   0.0370370
        k(   60) = (  -0.1666667   0.1603751  -0.2106943), wk =   0.0370370
        k(   61) = (  -0.1666667  -0.0320750  -0.1053471), wk =   0.0370370
        k(   62) = (  -0.1666667  -0.0320750  -0.2106943), wk =   0.0370370
        k(   63) = (  -0.3333333   0.2566001  -0.1053471), wk =   0.0370370
        k(   64) = (  -0.3333333   0.2566001  -0.2106943), wk =   0.0370370
        k(   65) = (  -0.3333333   0.3207501  -0.1053471), wk =   0.0370370
        k(   66) = (  -0.3333333   0.3207501  -0.2106943), wk =   0.0370370
        k(   67) = (   0.5000000  -0.2245251  -0.1053471), wk =   0.0370370
        k(   68) = (   0.5000000  -0.2245251  -0.2106943), wk =   0.0370370

                       cryst. coord.
        k(    1) = (   0.0000000   0.0000000   0.0000000), wk =   0.0092593
        k(    2) = (   0.0000000   0.0000000   0.1666667), wk =   0.0185185
        k(    3) = (   0.0000000   0.0000000   0.3333333), wk =   0.0185185
        k(    4) = (   0.0000000   0.0000000  -0.5000000), wk =   0.0092593
        k(    5) = (   0.0000000   0.1666667   0.0000000), wk =   0.0185185
        k(    6) = (   0.0000000   0.1666667   0.1666667), wk =   0.0185185
        k(    7) = (   0.0000000   0.1666667   0.3333333), wk =   0.0185185
        k(    8) = (   0.0000000   0.1666667  -0.5000000), wk =   0.0185185
        k(    9) = (   0.0000000   0.3333333   0.0000000), wk =   0.0185185
        k(   10) = (   0.0000000   0.3333333   0.1666667), wk =   0.0185185
        k(   11) = (   0.0000000   0.3333333   0.3333333), wk =   0.0185185
        k(   12) = (   0.0000000   0.3333333  -0.5000000), wk =   0.0185185
        k(   13) = (   0.0000000  -0.5000000   0.0000000), wk =   0.0092593
        k(   14) = (   0.0000000  -0.5000000   0.1666667), wk =   0.0185185
        k(   15) = (   0.0000000  -0.5000000   0.3333333), wk =   0.0185185
        k(   16) = (   0.0000000  -0.5000000  -0.5000000), wk =   0.0092593
        k(   17) = (   0.1666667  -0.0000000   0.0000000), wk =   0.0370370
        k(   18) = (   0.1666667  -0.0000000   0.1666667), wk =   0.0370370
        k(   19) = (   0.1666667  -0.0000000   0.3333333), wk =   0.0370370
        k(   20) = (   0.1666667  -0.0000000  -0.5000000), wk =   0.0370370
        k(   21) = (   0.1666667   0.1666667   0.0000000), wk =   0.0370370
        k(   22) = (   0.1666667   0.1666667   0.1666667), wk =   0.0370370
        k(   23) = (   0.1666667   0.1666667   0.3333333), wk =   0.0370370
        k(   24) = (   0.1666667   0.1666667  -0.5000000), wk =   0.0370370
        k(   25) = (   0.1666667  -0.3333333   0.0000000), wk =   0.0370370
        k(   26) = (   0.1666667  -0.3333333   0.1666667), wk =   0.0370370
        k(   27) = (   0.1666667  -0.3333333   0.3333333), wk =   0.0370370
        k(   28) = (   0.1666667  -0.3333333  -0.5000000), wk =   0.0370370
        k(   29) = (   0.3333333  -0.0000000   0.0000000), wk =   0.0185185
        k(   30) = (   0.3333333  -0.0000000   0.1666667), wk =   0.0370370
        k(   31) = (   0.3333333  -0.0000000   0.3333333), wk =   0.0370370
        k(   32) = (   0.3333333  -0.0000000  -0.5000000), wk =   0.0185185
        k(   33) = (   0.3333333   0.1666667   0.0000000), wk =   0.0370370
        k(   34) = (   0.3333333   0.1666667   0.1666667), wk =   0.0370370
        k(   35) = (   0.3333333   0.1666667   0.3333333), wk =   0.0370370
        k(   36) = (   0.3333333   0.1666667  -0.5000000), wk =   0.0370370
        k(   37) = (   0.3333333   0.3333333   0.0000000), wk =   0.0370370
        k(   38) = (   0.3333333   0.3333333   0.1666667), wk =   0.0370370
        k(   39) = (   0.3333333   0.3333333   0.3333333), wk =   0.0370370
        k(   40) = (   0.3333333   0.3333333  -0.5000000), wk =   0.0370370
        k(   41) = (   0.3333333  -0.5000000   0.0000000), wk =   0.0185185
        k(   42) = (   0.3333333  -0.5000000   0.1666667), wk =   0.0370370
        k(   43) = (   0.3333333  -0.5000000   0.3333333), wk =   0.0370370
        k(   44) = (   0.3333333  -0.5000000  -0.5000000), wk =   0.0185185
        k(   45) = (  -0.5000000   0.0000000   0.0000000), wk =   0.0185185
        k(   46) = (  -0.5000000   0.0000000   0.1666667), wk =   0.0370370
        k(   47) = (  -0.5000000   0.0000000   0.3333333), wk =   0.0370370
        k(   48) = (  -0.5000000   0.0000000  -0.5000000), wk =   0.0185185
        k(   49) = (  -0.5000000   0.1666667   0.0000000), wk =   0.0370370
        k(   50) = (  -0.5000000   0.1666667   0.1666667), wk =   0.0370370
        k(   51) = (  -0.5000000   0.1666667   0.3333333), wk =   0.0370370
        k(   52) = (  -0.5000000   0.1666667  -0.5000000), wk =   0.0370370
        k(   53) = (   0.0000000   0.1666667  -0.1666667), wk =   0.0185185
        k(   54) = (   0.0000000   0.1666667  -0.3333333), wk =   0.0185185
        k(   55) = (   0.0000000   0.3333333  -0.1666667), wk =   0.0185185
        k(   56) = (   0.0000000   0.3333333  -0.3333333), wk =   0.0185185
        k(   57) = (  -0.1666667   0.5000000  -0.1666667), wk =   0.0370370
        k(   58) = (  -0.1666667   0.5000000  -0.3333333), wk =   0.0370370
        k(   59) = (  -0.1666667   0.6666667  -0.1666667), wk =   0.0370370
        k(   60) = (  -0.1666667   0.6666667  -0.3333333), wk =   0.0370370
        k(   61) = (  -0.1666667   0.1666667  -0.1666667), wk =   0.0370370
        k(   62) = (  -0.1666667   0.1666667  -0.3333333), wk =   0.0370370
        k(   63) = (  -0.3333333   1.1666667  -0.1666667), wk =   0.0370370
        k(   64) = (  -0.3333333   1.1666667  -0.3333333), wk =   0.0370370
        k(   65) = (  -0.3333333   1.3333333  -0.1666667), wk =   0.0370370
        k(   66) = (  -0.3333333   1.3333333  -0.3333333), wk =   0.0370370
        k(   67) = (   0.5000000  -1.3333333  -0.1666667), wk =   0.0370370
        k(   68) = (   0.5000000  -1.3333333  -0.3333333), wk =   0.0370370

     Check: negative core charge=   -0.000002

     Initial potential from superposition of free atoms

     starting charge     107.9776, renormalised to     108.0000
     Starting wfcs are   78 randomized atomic wfcs

     Self-consistent Calculation

     iteration #  1     ecut=    50.00 Ry     beta= 0.30
     Davidson diagonalization with overlap

     ethr =  1.00E-02,  avg # of iterations =  2.0

     total energy              =   -1084.36560188 Ry
     estimated scf accuracy    <       2.01704737 Ry

[...]

     c_bands:  1 eigenvalues not converged
     ethr =  2.73E-09,  avg # of iterations = 10.7

[...]

     c_bands:  1 eigenvalues not converged
     ethr =  1.59E-09,  avg # of iterations = 13.4

[...]

     total energy              =   -1084.79296870 Ry
     estimated scf accuracy    <       0.00000075 Ry

     iteration # 26     ecut=    50.00 Ry     beta= 0.30
     Davidson diagonalization with overlap

     ethr =  4.02E-10,  avg # of iterations =  4.6

     End of self-consistent calculation

          k = 0.0000 0.0000 0.0000 (  5121 PWs)   bands (ev):

    -9.9650  -9.3729  -9.3729  -9.0131  -8.8242  -8.8242   2.3427   2.3427
     2.5729   2.7748   2.7748   2.8151   2.8153   2.8660   3.0607   3.0608
     3.0615   3.0615   3.2058   3.2058   3.5568   3.5568   3.5585   3.5585
     4.2265   4.2265   4.3633   4.3634   4.4627   4.4628   4.6552   4.6553
     4.6927   4.6927   4.7012   4.7012   4.9632   5.1502   5.1502   5.7102
     5.7102   6.7660   6.7660   6.9036   6.9036   8.1490   8.1492   8.2022
     8.2022   8.4419   8.4419   9.0589   9.1385   9.1388

     occupation numbers
     1.0000   1.0000   1.0000   1.0000   1.0000   1.0000   1.0000   1.0000
     1.0000   1.0000   1.0000   1.0000   1.0000   1.0000   1.0000   1.0000
     1.0000   1.0000   1.0000   1.0000   1.0000   1.0000   1.0000   1.0000
     1.0000   1.0000   1.0000   1.0000   1.0000   1.0000   1.0000   1.0000
     1.0000   1.0000   1.0000   1.0000   1.0000   1.0000   1.0000   1.0000
     1.0000   1.0000   1.0000   1.0000   1.0000   1.0000   1.0000   1.0000
     1.0000   1.0000   1.0000   1.0000   1.0000   1.0000

[...]

          k =-0.5000-0.2887 0.0000 (  5094 PWs)   bands (ev):

[...]

          k =-0.3333 0.3208-0.2107 (  5119 PWs)   bands (ev):

[...]

          k = 0.5000-0.2245-0.2107 (  5116 PWs)   bands (ev):

    -9.0316  -9.0262  -9.0233  -8.8749  -8.8743  -8.8733   2.2184   2.2588
     2.2690   2.3385   2.4223   2.4774   3.0462   3.1496   3.1512   3.2134
     3.2816   3.3285   3.4595   3.4810   3.5010   3.5579   3.5636   3.5677
     4.4207   4.5088   4.5546   4.5762   4.5773   4.5983   4.6889   4.7153
     4.7333   4.8002   4.8420   4.9060   5.1496   5.1614   5.2924   5.3066
     5.4598   5.7324   6.2174   6.5864   6.7984   6.9091   7.0683   7.0931
     7.3394   7.5218   7.6925   7.9121   7.9276   7.9343

     occupation numbers
     1.0000   1.0000   1.0000   1.0000   1.0000   1.0000   1.0000   1.0000
     1.0000   1.0000   1.0000   1.0000   1.0000   1.0000   1.0000   1.0000
     1.0000   1.0000   1.0000   1.0000   1.0000   1.0000   1.0000   1.0000
     1.0000   1.0000   1.0000   1.0000   1.0000   1.0000   1.0000   1.0000
     1.0000   1.0000   1.0000   1.0000   1.0000   1.0000   1.0000   1.0000
     1.0000   1.0000   1.0000   1.0000   1.0000   1.0000   1.0000   1.0000
     1.0000   1.0000   1.0000   1.0000   1.0000   1.0000

     highest occupied level (ev):     9.1388

!    total energy              =   -1084.79296884 Ry
     estimated scf accuracy    <          6.5E-09 Ry

     The total energy is the sum of the following terms:
     one-electron contribution =    -413.82090426 Ry
     hartree contribution      =     337.55309663 Ry
     xc contribution           =    -329.59203531 Ry
     ewald contribution        =    -678.93312589 Ry

     convergence has been achieved in  26 iterations

     Forces acting on atoms (cartesian axes, Ry/au):

     atom    1 type  1   force =     0.00000000   -0.00000673   -0.01314757
     atom    2 type  1   force =     0.00000000    0.00000941   -0.01314775
     atom    3 type  2   force =     0.00000000    0.00000159    0.01314483
     atom    4 type  2   force =     0.00000000   -0.00000102    0.01314500
     atom    5 type  1   force =     0.00000000   -0.00000863   -0.01314621
     atom    6 type  1   force =     0.00000000    0.00000493   -0.01313953
     atom    7 type  2   force =     0.00000000    0.00000163    0.01314495
     atom    8 type  2   force =     0.00000000   -0.00000038    0.01314587
     atom    9 type  1   force =     0.00000000   -0.00001196   -0.01314697
     atom   10 type  1   force =     0.00000000    0.00000776   -0.01314396
     atom   11 type  2   force =     0.00000000    0.00000182    0.01314549
     atom   12 type  2   force =     0.00000000    0.00000158    0.01314584
     The non-local contrib.  to forces
     atom    1 type  1   force =     0.00000000    0.00002600   -0.06768610
     atom    2 type  1   force =     0.00000000   -0.00002344   -0.06768660
     atom    3 type  2   force =     0.00000000    0.00019735   -0.04162140
     atom    4 type  2   force =     0.00000000   -0.00020303   -0.04162359
     atom    5 type  1   force =     0.00000000    0.00002408   -0.06768603
     atom    6 type  1   force =     0.00000000   -0.00002770   -0.06768619
     atom    7 type  2   force =     0.00000000    0.00020006   -0.04162386
     atom    8 type  2   force =     0.00000000   -0.00020101   -0.04162062
     atom    9 type  1   force =     0.00000000    0.00002413   -0.06768583
     atom   10 type  1   force =     0.00000000   -0.00002406   -0.06768704
     atom   11 type  2   force =     0.00000000    0.00020120   -0.04162286
     atom   12 type  2   force =     0.00000000   -0.00020242   -0.04162164
     The ionic contribution  to forces
     atom    1 type  1   force =    -0.00000000    0.00000001   -0.38870528
     atom    2 type  1   force =     0.00000000    0.00000001   -0.38870528
     atom    3 type  2   force =    -0.00000000    0.00000001    0.38870528
     atom    4 type  2   force =     0.00000000    0.00000000    0.38870528
     atom    5 type  1   force =    -0.00000001    0.00000001   -0.38870529
     atom    6 type  1   force =     0.00000001   -0.00000001   -0.38870529
     atom    7 type  2   force =    -0.00000001    0.00000000    0.38870529
     atom    8 type  2   force =     0.00000001   -0.00000000    0.38870529
     atom    9 type  1   force =    -0.00000000   -0.00000001   -0.38870528
     atom   10 type  1   force =     0.00000000   -0.00000001   -0.38870528
     atom   11 type  2   force =    -0.00000000   -0.00000000    0.38870528
     atom   12 type  2   force =     0.00000000   -0.00000001    0.38870528
     The local contribution  to forces
     atom    1 type  1   force =    -0.00000004   -0.00004783    0.43734514
     atom    2 type  1   force =     0.00000000    0.00004155    0.43734519
     atom    3 type  2   force =    -0.00000001   -0.00019810   -0.33419446
     atom    4 type  2   force =     0.00000000    0.00020216   -0.33419244
     atom    5 type  1   force =    -0.00000008   -0.00004285    0.43734454
     atom    6 type  1   force =     0.00000008    0.00005137    0.43734140
     atom    7 type  2   force =    -0.00000002   -0.00020094   -0.33418611
     atom    8 type  2   force =     0.00000002    0.00020017   -0.33418660
     atom    9 type  1   force =     0.00000000   -0.00004091    0.43734446
     atom   10 type  1   force =     0.00000004    0.00004421    0.43734585
     atom   11 type  2   force =     0.00000000   -0.00020251   -0.33419109
     atom   12 type  2   force =     0.00000001    0.00020043   -0.33419452
     The core correction contribution to forces
     atom    1 type  1   force =    -0.00000001    0.00000506    0.00589080
     atom    2 type  1   force =     0.00000000   -0.00000482    0.00589085
     atom    3 type  2   force =     0.00000000   -0.00000224    0.00026291
     atom    4 type  2   force =     0.00000000    0.00000234    0.00026293
     atom    5 type  1   force =    -0.00000001    0.00000501    0.00589078
     atom    6 type  1   force =     0.00000001   -0.00000495    0.00589074
     atom    7 type  2   force =     0.00000000   -0.00000230    0.00026298
     atom    8 type  2   force =    -0.00000000    0.00000230    0.00026291
     atom    9 type  1   force =     0.00000000    0.00000494    0.00589081
     atom   10 type  1   force =     0.00000001   -0.00000489    0.00589072
     atom   11 type  2   force =    -0.00000000   -0.00000231    0.00026293
     atom   12 type  2   force =    -0.00000000    0.00000232    0.00026290
     The Hubbard contrib.    to forces
     atom    1 type  1   force =     0.00000000    0.00000000    0.00000000
     atom    2 type  1   force =     0.00000000    0.00000000    0.00000000
     atom    3 type  2   force =     0.00000000    0.00000000    0.00000000
     atom    4 type  2   force =     0.00000000    0.00000000    0.00000000
     atom    5 type  1   force =     0.00000000    0.00000000    0.00000000
     atom    6 type  1   force =     0.00000000    0.00000000    0.00000000
     atom    7 type  2   force =     0.00000000    0.00000000    0.00000000
     atom    8 type  2   force =     0.00000000    0.00000000    0.00000000
     atom    9 type  1   force =     0.00000000    0.00000000    0.00000000
     atom   10 type  1   force =     0.00000000    0.00000000    0.00000000
     atom   11 type  2   force =     0.00000000    0.00000000    0.00000000
     atom   12 type  2   force =     0.00000000    0.00000000    0.00000000
     The SCF correction term to forces
     atom    1 type  1   force =    -0.00000000    0.00000879    0.00001587
     atom    2 type  1   force =     0.00000000   -0.00000514    0.00001609
     atom    3 type  2   force =    -0.00000000    0.00000332    0.00000050
     atom    4 type  2   force =     0.00000000   -0.00000373    0.00000081
     atom    5 type  1   force =    -0.00000000    0.00000388    0.00001779
     atom    6 type  1   force =     0.00000000   -0.00001502    0.00002781
     atom    7 type  2   force =    -0.00000000    0.00000355   -0.00000534
     atom    8 type  2   force =     0.00000000   -0.00000308   -0.00000710
     atom    9 type  1   force =    -0.00000000   -0.00000136    0.00001687
     atom   10 type  1   force =     0.00000000   -0.00000874    0.00001979
     atom   11 type  2   force =    -0.00000000    0.00000419   -0.00000078
     atom   12 type  2   force =     0.00000000    0.00000002    0.00000183

     Total force =     0.045537     Total SCF correction =     0.000053

     General routines

     Parallel routines

   This run was terminated on:  16: 8: 5  27Aug2025

   JOB DONE.