     Program PWSCF v.7.0 starts on 27Aug2025 at 18: 9: 0

     K-points division:     npool     =      17

     Reading input from /home/jvc/QEspresso7.2/ZnO_database/scripts/cell131.in/ZnO-3.20-1.71-131.in
Warning: card &CELL ignored
Warning: card / ignored
Warning: card &FCP ignored
Warning: card / ignored
Warning: card &RISM ignored
Warning: card / ignored

     Current dimensions of program PWSCF are:
     Max number of different atomic species (ntypx) = 10
     Max number of k-points (npk) =  40000
     Max angular momentum in pseudopotentials (lmaxx) =  4
     file Zn.upf: wavefunction(s)  3D renormalized
     Found identity + (  0.0000  0.3333  0.0000) symmetry
     This is a supercell, fractional translations are disabled
     Message from routine setup:
     using ibrav=0 with symmetry is DISCOURAGED, use correct ibrav instead

     Subspace diagonalization in iterative solution of the eigenvalue problem:
     a serial algorithm will be used

     Using Slab Decomposition

     bravais-lattice index     =            0
     lattice parameter (alat)  =       6.0553  a.u.
     unit-cell volume          =     987.0967 (a.u.)^3
     number of atoms/cell      =           12
     number of atomic types    =            2
     number of electrons       =       108.00
     number of Kohn-Sham states=           54
     kinetic-energy cutoff     =      50.0000  Ry
     charge density cutoff     =     400.0000  Ry
     scf convergence threshold =      1.0E-08
     mixing beta               =       0.3000
     number of iterations used =            8  plain     mixing
     Exchange-correlation= PBE
                           (   1   4   3   4   0   0   0)

     celldm(1)=   6.055277  celldm(2)=   0.000000  celldm(3)=   0.000000
     celldm(4)=   0.000000  celldm(5)=   0.000000  celldm(6)=   0.000000

     crystal axes: (cart. coord. in units of alat)
               a(1) = (   1.000000   0.000000   0.000000 )
               a(2) = (  -1.500000   2.598076   0.000000 )
               a(3) = (   0.000000   0.000000   1.711220 )

     reciprocal axes: (cart. coord. in units 2 pi/alat)
               b(1) = (  1.000000  0.577350 -0.000000 )
               b(2) = (  0.000000  0.384900  0.000000 )
               b(3) = (  0.000000 -0.000000  0.584378 )

     PseudoPot. # 1 for Zn read from file:
     /home/jvc/QEspresso7.2/ZnO_database/pseudos/Zn.upf
     MD5 check sum: 7f56cabf9682ed8c977c2f7d0c5985c5
     Pseudo is Ultrasoft + core correction, Zval = 12.0
     Generated using &quot;atomic&quot; code by A. Dal Corso  v.6.2.2
     Using radial grid of 1201 points,  6 beta functions with:
                l(1) =   0
                l(2) =   0
                l(3) =   1
                l(4) =   1
                l(5) =   2
                l(6) =   2
     Q(r) pseudized with 0 coefficients

     PseudoPot. # 2 for O  read from file:
     /home/jvc/QEspresso7.2/ZnO_database/pseudos/O.upf
     MD5 check sum: 91400c9766925bcf19f520983a725ff0
     Pseudo is Ultrasoft + core correction, Zval =  6.0
     Generated using &quot;atomic&quot; code by A. Dal Corso  v.6.3MaX
     Using radial grid of 1095 points,  4 beta functions with:
                l(1) =   0
                l(2) =   0
                l(3) =   1
                l(4) =   1
     Q(r) pseudized with 0 coefficients

     atomic species   valence    mass     pseudopotential
        Zn            12.00    65.38000     Zn( 1.00)
        O              6.00    15.99900     O ( 1.00)

      2 Sym. Ops. (no inversion) found

                                    s                        frac. trans.

      isym =  1     identity

 cryst.   s( 1) = (     1          0          0      )
                  (     0          1          0      )
                  (     0          0          1      )

 cart.    s( 1) = (  1.0000000  0.0000000  0.0000000 )
                  (  0.0000000  1.0000000  0.0000000 )
                  (  0.0000000  0.0000000  1.0000000 )

      isym =  2     inv. 180 deg rotation - cart. axis [1,0,0]

 cryst.   s( 2) = (    -1          0          0      )
                  (     3          1          0      )
                  (     0          0          1      )

 cart.    s( 2) = ( -1.0000000  0.0000000  0.0000000 )
                  (  0.0000000  1.0000000  0.0000000 )
                  (  0.0000000  0.0000000  1.0000000 )

   Cartesian axes

     site n.     atom                  positions (alat units)
         1           Zn  tau(   1) = (   0.5000000   0.2886751   0.8566941  )
         2           Zn  tau(   2) = (   0.0000000   0.5773503   0.0010842  )
         3           O   tau(   3) = (   0.5000000   0.2886751   1.5053197  )
         4           O   tau(   4) = (   0.0000000   0.5773503   0.6497098  )
         5           Zn  tau(   5) = (   0.0000000   1.1547005   0.8566941  )
         6           Zn  tau(   6) = (  -0.5000000   1.4433757   0.0010842  )
         7           O   tau(   7) = (   0.0000000   1.1547005   1.5053197  )
         8           O   tau(   8) = (  -0.5000000   1.4433757   0.6497098  )
         9           Zn  tau(   9) = (  -0.5000000   2.0207259   0.8566941  )
        10           Zn  tau(  10) = (  -1.0000000   2.3094011   0.0010842  )
        11           O   tau(  11) = (  -0.5000000   2.0207259   1.5053197  )
        12           O   tau(  12) = (  -1.0000000   2.3094011   0.6497098  )

   Crystallographic axes

     site n.     atom                  positions (cryst. coord.)
         1           Zn  tau(   1) = (  0.6666667  0.1111111  0.5006336  )
         2           Zn  tau(   2) = (  0.3333333  0.2222222  0.0006336  )
         3           O   tau(   3) = (  0.6666667  0.1111111  0.8796764  )
         4           O   tau(   4) = (  0.3333333  0.2222222  0.3796764  )
         5           Zn  tau(   5) = (  0.6666667  0.4444444  0.5006336  )
         6           Zn  tau(   6) = (  0.3333333  0.5555556  0.0006336  )
         7           O   tau(   7) = (  0.6666667  0.4444444  0.8796764  )
         8           O   tau(   8) = (  0.3333333  0.5555556  0.3796764  )
         9           Zn  tau(   9) = (  0.6666667  0.7777778  0.5006336  )
        10           Zn  tau(  10) = (  0.3333333  0.8888889  0.0006336  )
        11           O   tau(  11) = (  0.6666667  0.7777778  0.8796764  )
        12           O   tau(  12) = (  0.3333333  0.8888889  0.3796764  )

     number of k points=    68
                       cart. coord. in units 2pi/alat
        k(    1) = (   0.0000000   0.0000000   0.0000000), wk =   0.0092593
        k(    2) = (   0.0000000   0.0000000   0.0973964), wk =   0.0185185
        k(    3) = (   0.0000000   0.0000000   0.1947928), wk =   0.0185185
        k(    4) = (   0.0000000   0.0000000  -0.2921892), wk =   0.0092593
        k(    5) = (   0.0000000   0.0641500   0.0000000), wk =   0.0185185
        k(    6) = (   0.0000000   0.0641500   0.0973964), wk =   0.0185185
        k(    7) = (   0.0000000   0.0641500   0.1947928), wk =   0.0185185
        k(    8) = (   0.0000000   0.0641500  -0.2921892), wk =   0.0185185
        k(    9) = (   0.0000000   0.1283001   0.0000000), wk =   0.0185185
        k(   10) = (   0.0000000   0.1283001   0.0973964), wk =   0.0185185
        k(   11) = (   0.0000000   0.1283001   0.1947928), wk =   0.0185185
        k(   12) = (   0.0000000   0.1283001  -0.2921892), wk =   0.0185185
        k(   13) = (   0.0000000  -0.1924501   0.0000000), wk =   0.0092593
        k(   14) = (   0.0000000  -0.1924501   0.0973964), wk =   0.0185185
        k(   15) = (   0.0000000  -0.1924501   0.1947928), wk =   0.0185185
        k(   16) = (   0.0000000  -0.1924501  -0.2921892), wk =   0.0092593
        k(   17) = (   0.1666667   0.0962250   0.0000000), wk =   0.0370370
        k(   18) = (   0.1666667   0.0962250   0.0973964), wk =   0.0370370
        k(   19) = (   0.1666667   0.0962250   0.1947928), wk =   0.0370370
        k(   20) = (   0.1666667   0.0962250  -0.2921892), wk =   0.0370370
        k(   21) = (   0.1666667   0.1603751   0.0000000), wk =   0.0370370
        k(   22) = (   0.1666667   0.1603751   0.0973964), wk =   0.0370370
        k(   23) = (   0.1666667   0.1603751   0.1947928), wk =   0.0370370
        k(   24) = (   0.1666667   0.1603751  -0.2921892), wk =   0.0370370
        k(   25) = (   0.1666667  -0.0320750   0.0000000), wk =   0.0370370
        k(   26) = (   0.1666667  -0.0320750   0.0973964), wk =   0.0370370
        k(   27) = (   0.1666667  -0.0320750   0.1947928), wk =   0.0370370
        k(   28) = (   0.1666667  -0.0320750  -0.2921892), wk =   0.0370370
        k(   29) = (   0.3333333   0.1924501   0.0000000), wk =   0.0185185
        k(   30) = (   0.3333333   0.1924501   0.0973964), wk =   0.0370370
        k(   31) = (   0.3333333   0.1924501   0.1947928), wk =   0.0370370
        k(   32) = (   0.3333333   0.1924501  -0.2921892), wk =   0.0185185
        k(   33) = (   0.3333333   0.2566001   0.0000000), wk =   0.0370370
        k(   34) = (   0.3333333   0.2566001   0.0973964), wk =   0.0370370
        k(   35) = (   0.3333333   0.2566001   0.1947928), wk =   0.0370370
        k(   36) = (   0.3333333   0.2566001  -0.2921892), wk =   0.0370370
        k(   37) = (   0.3333333   0.3207501   0.0000000), wk =   0.0370370
        k(   38) = (   0.3333333   0.3207501   0.0973964), wk =   0.0370370
        k(   39) = (   0.3333333   0.3207501   0.1947928), wk =   0.0370370
        k(   40) = (   0.3333333   0.3207501  -0.2921892), wk =   0.0370370
        k(   41) = (   0.3333333  -0.0000000   0.0000000), wk =   0.0185185
        k(   42) = (   0.3333333  -0.0000000   0.0973964), wk =   0.0370370
        k(   43) = (   0.3333333  -0.0000000   0.1947928), wk =   0.0370370
        k(   44) = (   0.3333333  -0.0000000  -0.2921892), wk =   0.0185185
        k(   45) = (  -0.5000000  -0.2886751   0.0000000), wk =   0.0185185
        k(   46) = (  -0.5000000  -0.2886751   0.0973964), wk =   0.0370370
        k(   47) = (  -0.5000000  -0.2886751   0.1947928), wk =   0.0370370
        k(   48) = (  -0.5000000  -0.2886751  -0.2921892), wk =   0.0185185
        k(   49) = (  -0.5000000  -0.2245251   0.0000000), wk =   0.0370370
        k(   50) = (  -0.5000000  -0.2245251   0.0973964), wk =   0.0370370
        k(   51) = (  -0.5000000  -0.2245251   0.1947928), wk =   0.0370370
        k(   52) = (  -0.5000000  -0.2245251  -0.2921892), wk =   0.0370370
        k(   53) = (   0.0000000   0.0641500  -0.0973964), wk =   0.0185185
        k(   54) = (   0.0000000   0.0641500  -0.1947928), wk =   0.0185185
        k(   55) = (   0.0000000   0.1283001  -0.0973964), wk =   0.0185185
        k(   56) = (   0.0000000   0.1283001  -0.1947928), wk =   0.0185185
        k(   57) = (  -0.1666667   0.0962250  -0.0973964), wk =   0.0370370
        k(   58) = (  -0.1666667   0.0962250  -0.1947928), wk =   0.0370370
        k(   59) = (  -0.1666667   0.1603751  -0.0973964), wk =   0.0370370
        k(   60) = (  -0.1666667   0.1603751  -0.1947928), wk =   0.0370370
        k(   61) = (  -0.1666667  -0.0320750  -0.0973964), wk =   0.0370370
        k(   62) = (  -0.1666667  -0.0320750  -0.1947928), wk =   0.0370370
        k(   63) = (  -0.3333333   0.2566001  -0.0973964), wk =   0.0370370
        k(   64) = (  -0.3333333   0.2566001  -0.1947928), wk =   0.0370370
        k(   65) = (  -0.3333333   0.3207501  -0.0973964), wk =   0.0370370
        k(   66) = (  -0.3333333   0.3207501  -0.1947928), wk =   0.0370370
        k(   67) = (   0.5000000  -0.2245251  -0.0973964), wk =   0.0370370
        k(   68) = (   0.5000000  -0.2245251  -0.1947928), wk =   0.0370370

                       cryst. coord.
        k(    1) = (   0.0000000   0.0000000   0.0000000), wk =   0.0092593
        k(    2) = (   0.0000000   0.0000000   0.1666667), wk =   0.0185185
        k(    3) = (   0.0000000   0.0000000   0.3333333), wk =   0.0185185
        k(    4) = (   0.0000000   0.0000000  -0.5000000), wk =   0.0092593
        k(    5) = (   0.0000000   0.1666667   0.0000000), wk =   0.0185185
        k(    6) = (   0.0000000   0.1666667   0.1666667), wk =   0.0185185
        k(    7) = (   0.0000000   0.1666667   0.3333333), wk =   0.0185185
        k(    8) = (   0.0000000   0.1666667  -0.5000000), wk =   0.0185185
        k(    9) = (   0.0000000   0.3333333   0.0000000), wk =   0.0185185
        k(   10) = (   0.0000000   0.3333333   0.1666667), wk =   0.0185185
        k(   11) = (   0.0000000   0.3333333   0.3333333), wk =   0.0185185
        k(   12) = (   0.0000000   0.3333333  -0.5000000), wk =   0.0185185
        k(   13) = (   0.0000000  -0.5000000   0.0000000), wk =   0.0092593
        k(   14) = (   0.0000000  -0.5000000   0.1666667), wk =   0.0185185
        k(   15) = (   0.0000000  -0.5000000   0.3333333), wk =   0.0185185
        k(   16) = (   0.0000000  -0.5000000  -0.5000000), wk =   0.0092593
        k(   17) = (   0.1666667   0.0000000   0.0000000), wk =   0.0370370
        k(   18) = (   0.1666667   0.0000000   0.1666667), wk =   0.0370370
        k(   19) = (   0.1666667   0.0000000   0.3333333), wk =   0.0370370
        k(   20) = (   0.1666667   0.0000000  -0.5000000), wk =   0.0370370
        k(   21) = (   0.1666667   0.1666667   0.0000000), wk =   0.0370370
        k(   22) = (   0.1666667   0.1666667   0.1666667), wk =   0.0370370
        k(   23) = (   0.1666667   0.1666667   0.3333333), wk =   0.0370370
        k(   24) = (   0.1666667   0.1666667  -0.5000000), wk =   0.0370370
        k(   25) = (   0.1666667  -0.3333333   0.0000000), wk =   0.0370370
        k(   26) = (   0.1666667  -0.3333333   0.1666667), wk =   0.0370370
        k(   27) = (   0.1666667  -0.3333333   0.3333333), wk =   0.0370370
        k(   28) = (   0.1666667  -0.3333333  -0.5000000), wk =   0.0370370
        k(   29) = (   0.3333333   0.0000000   0.0000000), wk =   0.0185185
        k(   30) = (   0.3333333   0.0000000   0.1666667), wk =   0.0370370
        k(   31) = (   0.3333333   0.0000000   0.3333333), wk =   0.0370370
        k(   32) = (   0.3333333   0.0000000  -0.5000000), wk =   0.0185185
        k(   33) = (   0.3333333   0.1666667   0.0000000), wk =   0.0370370
        k(   34) = (   0.3333333   0.1666667   0.1666667), wk =   0.0370370
        k(   35) = (   0.3333333   0.1666667   0.3333333), wk =   0.0370370
        k(   36) = (   0.3333333   0.1666667  -0.5000000), wk =   0.0370370
        k(   37) = (   0.3333333   0.3333333   0.0000000), wk =   0.0370370
        k(   38) = (   0.3333333   0.3333333   0.1666667), wk =   0.0370370
        k(   39) = (   0.3333333   0.3333333   0.3333333), wk =   0.0370370
        k(   40) = (   0.3333333   0.3333333  -0.5000000), wk =   0.0370370
        k(   41) = (   0.3333333  -0.5000000   0.0000000), wk =   0.0185185
        k(   42) = (   0.3333333  -0.5000000   0.1666667), wk =   0.0370370
        k(   43) = (   0.3333333  -0.5000000   0.3333333), wk =   0.0370370
        k(   44) = (   0.3333333  -0.5000000  -0.5000000), wk =   0.0185185
        k(   45) = (  -0.5000000   0.0000000   0.0000000), wk =   0.0185185
        k(   46) = (  -0.5000000   0.0000000   0.1666667), wk =   0.0370370
        k(   47) = (  -0.5000000   0.0000000   0.3333333), wk =   0.0370370
        k(   48) = (  -0.5000000   0.0000000  -0.5000000), wk =   0.0185185
        k(   49) = (  -0.5000000   0.1666667   0.0000000), wk =   0.0370370
        k(   50) = (  -0.5000000   0.1666667   0.1666667), wk =   0.0370370
        k(   51) = (  -0.5000000   0.1666667   0.3333333), wk =   0.0370370
        k(   52) = (  -0.5000000   0.1666667  -0.5000000), wk =   0.0370370
        k(   53) = (   0.0000000   0.1666667  -0.1666667), wk =   0.0185185
        k(   54) = (   0.0000000   0.1666667  -0.3333333), wk =   0.0185185
        k(   55) = (   0.0000000   0.3333333  -0.1666667), wk =   0.0185185
        k(   56) = (   0.0000000   0.3333333  -0.3333333), wk =   0.0185185
        k(   57) = (  -0.1666667   0.5000000  -0.1666667), wk =   0.0370370
        k(   58) = (  -0.1666667   0.5000000  -0.3333333), wk =   0.0370370
        k(   59) = (  -0.1666667   0.6666667  -0.1666667), wk =   0.0370370
        k(   60) = (  -0.1666667   0.6666667  -0.3333333), wk =   0.0370370
        k(   61) = (  -0.1666667   0.1666667  -0.1666667), wk =   0.0370370
        k(   62) = (  -0.1666667   0.1666667  -0.3333333), wk =   0.0370370
        k(   63) = (  -0.3333333   1.1666667  -0.1666667), wk =   0.0370370
        k(   64) = (  -0.3333333   1.1666667  -0.3333333), wk =   0.0370370
        k(   65) = (  -0.3333333   1.3333333  -0.1666667), wk =   0.0370370
        k(   66) = (  -0.3333333   1.3333333  -0.3333333), wk =   0.0370370
        k(   67) = (   0.5000000  -1.3333333  -0.1666667), wk =   0.0370370
        k(   68) = (   0.5000000  -1.3333333  -0.3333333), wk =   0.0370370

     Check: negative core charge=   -0.000002

     Initial potential from superposition of free atoms

     starting charge     107.9776, renormalised to     108.0000
     Starting wfcs are   78 randomized atomic wfcs

     Self-consistent Calculation

     iteration #  1     ecut=    50.00 Ry     beta= 0.30
     Davidson diagonalization with overlap

     ethr =  1.00E-02,  avg # of iterations =  2.0

     total energy              =   -1084.42182422 Ry
     estimated scf accuracy    <       2.08208408 Ry

[...]

     total energy              =   -1084.89525485 Ry
     estimated scf accuracy    <       0.00000005 Ry

     iteration # 28     ecut=    50.00 Ry     beta= 0.30
     Davidson diagonalization with overlap

     ethr =  4.57E-11,  avg # of iterations =  6.2

     End of self-consistent calculation

          k = 0.0000 0.0000 0.0000 (  5907 PWs)   bands (ev):

   -10.9978 -10.5189 -10.5189 -10.4024 -10.1798 -10.1798   0.9988   0.9988
     1.2945   1.2948   1.3259   1.3281   1.3281   1.3599   1.4505   1.4508
     1.5260   1.5260   1.7683   1.7683   1.8558   1.8559   2.0158   2.0158
     2.3533   2.3533   2.4686   2.4687   2.5362   2.5363   2.6301   2.6301
     2.6592   2.6593   2.8560   2.8560   2.9658   3.1099   3.1099   3.8143
     3.8143   4.6881   4.6881   5.3239   5.3240   6.0888   6.0888   6.3361
     6.3361   6.3486   6.3491   6.7369   6.9822   6.9827

     occupation numbers
     1.0000   1.0000   1.0000   1.0000   1.0000   1.0000   1.0000   1.0000
     1.0000   1.0000   1.0000   1.0000   1.0000   1.0000   1.0000   1.0000
     1.0000   1.0000   1.0000   1.0000   1.0000   1.0000   1.0000   1.0000
     1.0000   1.0000   1.0000   1.0000   1.0000   1.0000   1.0000   1.0000
     1.0000   1.0000   1.0000   1.0000   1.0000   1.0000   1.0000   1.0000
     1.0000   1.0000   1.0000   1.0000   1.0000   1.0000   1.0000   1.0000
     1.0000   1.0000   1.0000   1.0000   1.0000   1.0000

[...]

          k =-0.5000-0.2887 0.0000 (  5872 PWs)   bands (ev):

[...]

          k =-0.3333 0.3208-0.1948 (  5887 PWs)   bands (ev):

[...]

          k = 0.5000-0.2245-0.1948 (  5916 PWs)   bands (ev):

   -10.2741 -10.2703 -10.2683 -10.1775 -10.1773 -10.1771   1.0114   1.0572
     1.0756   1.1445   1.2070   1.2516   1.6119   1.6308   1.6581   1.6853
     1.8465   1.8821   1.9032   1.9185   1.9208   1.9459   1.9473   1.9547
     2.4908   2.5522   2.5921   2.6045   2.6068   2.6248   2.6880   2.7059
     2.7176   2.7680   2.8010   2.8453   3.1226   3.1735   3.2917   3.3543
     3.4306   3.7088   4.4828   4.7969   4.8955   4.9128   5.1321   5.2166
     5.3386   5.5280   5.6502   5.7668   5.7734   5.7981

     occupation numbers
     1.0000   1.0000   1.0000   1.0000   1.0000   1.0000   1.0000   1.0000
     1.0000   1.0000   1.0000   1.0000   1.0000   1.0000   1.0000   1.0000
     1.0000   1.0000   1.0000   1.0000   1.0000   1.0000   1.0000   1.0000
     1.0000   1.0000   1.0000   1.0000   1.0000   1.0000   1.0000   1.0000
     1.0000   1.0000   1.0000   1.0000   1.0000   1.0000   1.0000   1.0000
     1.0000   1.0000   1.0000   1.0000   1.0000   1.0000   1.0000   1.0000
     1.0000   1.0000   1.0000   1.0000   1.0000   1.0000

     highest occupied level (ev):     6.9827

!    total energy              =   -1084.89525489 Ry
     estimated scf accuracy    <          5.7E-09 Ry

     The total energy is the sum of the following terms:
     one-electron contribution =    -463.29308263 Ry
     hartree contribution      =     354.80148537 Ry
     xc contribution           =    -328.65810733 Ry
     ewald contribution        =    -647.74555029 Ry

     convergence has been achieved in  28 iterations

     Forces acting on atoms (cartesian axes, Ry/au):

     atom    1 type  1   force =     0.00000000   -0.00004263    0.01437624
     atom    2 type  1   force =     0.00000000   -0.00004959    0.01437707
     atom    3 type  2   force =     0.00000000    0.00000924   -0.01436878
     atom    4 type  2   force =     0.00000000   -0.00000289   -0.01436936
     atom    5 type  1   force =     0.00000000    0.00003259    0.01434035
     atom    6 type  1   force =     0.00000000    0.00005510    0.01439810
     atom    7 type  2   force =     0.00000000    0.00000229   -0.01437252
     atom    8 type  2   force =     0.00000000   -0.00000788   -0.01436754
     atom    9 type  1   force =     0.00000000    0.00000088    0.01435607
     atom   10 type  1   force =     0.00000000    0.00000544    0.01436840
     atom   11 type  2   force =     0.00000000    0.00000015   -0.01437002
     atom   12 type  2   force =     0.00000000   -0.00000270   -0.01436800
     The non-local contrib.  to forces
     atom    1 type  1   force =     0.00000000   -0.00001076    0.15776406
     atom    2 type  1   force =     0.00000000   -0.00004127    0.15776595
     atom    3 type  2   force =     0.00000000    0.00025774    0.14917699
     atom    4 type  2   force =     0.00000000   -0.00022335    0.14917508
     atom    5 type  1   force =     0.00000000    0.00003257    0.15775001
     atom    6 type  1   force =     0.00000000    0.00001506    0.15777682
     atom    7 type  2   force =     0.00000000    0.00022635    0.14917134
     atom    8 type  2   force =     0.00000000   -0.00025230    0.14917539
     atom    9 type  1   force =     0.00000000    0.00001181    0.15775310
     atom   10 type  1   force =     0.00000000   -0.00000846    0.15775694
     atom   11 type  2   force =     0.00000000    0.00021793    0.14917590
     atom   12 type  2   force =     0.00000000   -0.00022440    0.14917832
     The ionic contribution  to forces
     atom    1 type  1   force =    -0.00000000    0.00000001    1.26932563
     atom    2 type  1   force =     0.00000000    0.00000001    1.26932563
     atom    3 type  2   force =    -0.00000000    0.00000000   -1.26932563
     atom    4 type  2   force =     0.00000000    0.00000000   -1.26932563
     atom    5 type  1   force =    -0.00000001    0.00000001    1.26932563
     atom    6 type  1   force =     0.00000001   -0.00000001    1.26932563
     atom    7 type  2   force =    -0.00000001    0.00000000   -1.26932563
     atom    8 type  2   force =     0.00000001   -0.00000000   -1.26932563
     atom    9 type  1   force =    -0.00000000   -0.00000001    1.26932563
     atom   10 type  1   force =     0.00000000   -0.00000001    1.26932563
     atom   11 type  2   force =    -0.00000000   -0.00000000   -1.26932563
     atom   12 type  2   force =     0.00000000   -0.00000000   -1.26932563
     The local contribution  to forces
     atom    1 type  1   force =    -0.00000004    0.00003511   -1.40143122
     atom    2 type  1   force =     0.00000000    0.00011816   -1.40142767
     atom    3 type  2   force =    -0.00000001   -0.00022528    1.10698417
     atom    4 type  2   force =     0.00000000    0.00024574    1.10698802
     atom    5 type  1   force =    -0.00000008   -0.00008750   -1.40137278
     atom    6 type  1   force =     0.00000008   -0.00005958   -1.40147084
     atom    7 type  2   force =    -0.00000002   -0.00023766    1.10698437
     atom    8 type  2   force =     0.00000002    0.00022183    1.10698867
     atom    9 type  1   force =     0.00000000   -0.00002908   -1.40139932
     atom   10 type  1   force =     0.00000004    0.00002238   -1.40141214
     atom   11 type  2   force =     0.00000000   -0.00023387    1.10697387
     atom   12 type  2   force =     0.00000001    0.00022864    1.10698083
     The core correction contribution to forces
     atom    1 type  1   force =    -0.00000001    0.00000869   -0.01129608
     atom    2 type  1   force =    -0.00000000   -0.00001056   -0.01129683
     atom    3 type  2   force =     0.00000000   -0.00000303   -0.00120810
     atom    4 type  2   force =    -0.00000000    0.00000255   -0.00120808
     atom    5 type  1   force =    -0.00000001    0.00000985   -0.01129762
     atom    6 type  1   force =     0.00000001   -0.00000786   -0.01129553
     atom    7 type  2   force =     0.00000000   -0.00000256   -0.00120803
     atom    8 type  2   force =    -0.00000000    0.00000293   -0.00120809
     atom    9 type  1   force =     0.00000000    0.00000926   -0.01129636
     atom   10 type  1   force =     0.00000001   -0.00000941   -0.01129641
     atom   11 type  2   force =     0.00000000   -0.00000246   -0.00120810
     atom   12 type  2   force =    -0.00000000    0.00000255   -0.00120813
     The Hubbard contrib.    to forces
     atom    1 type  1   force =     0.00000000    0.00000000    0.00000000
     atom    2 type  1   force =     0.00000000    0.00000000    0.00000000
     atom    3 type  2   force =     0.00000000    0.00000000    0.00000000
     atom    4 type  2   force =     0.00000000    0.00000000    0.00000000
     atom    5 type  1   force =     0.00000000    0.00000000    0.00000000
     atom    6 type  1   force =     0.00000000    0.00000000    0.00000000
     atom    7 type  2   force =     0.00000000    0.00000000    0.00000000
     atom    8 type  2   force =     0.00000000    0.00000000    0.00000000
     atom    9 type  1   force =     0.00000000    0.00000000    0.00000000
     atom   10 type  1   force =     0.00000000    0.00000000    0.00000000
     atom   11 type  2   force =     0.00000000    0.00000000    0.00000000
     atom   12 type  2   force =     0.00000000    0.00000000    0.00000000
     The SCF correction term to forces
     atom    1 type  1   force =    -0.00000000   -0.00007524    0.00001299
     atom    2 type  1   force =     0.00000000   -0.00011549    0.00000910
     atom    3 type  2   force =    -0.00000000   -0.00001977    0.00000291
     atom    4 type  2   force =     0.00000000   -0.00002740    0.00000037
     atom    5 type  1   force =    -0.00000000    0.00007809   -0.00006577
     atom    6 type  1   force =     0.00000000    0.00010792    0.00006115
     atom    7 type  2   force =    -0.00000000    0.00001659    0.00000454
     atom    8 type  2   force =     0.00000000    0.00002010    0.00000125
     atom    9 type  1   force =    -0.00000000    0.00000933   -0.00002787
     atom   10 type  1   force =     0.00000000    0.00000137   -0.00000650
     atom   11 type  2   force =    -0.00000000    0.00001899    0.00001307
     atom   12 type  2   force =     0.00000000   -0.00000905    0.00000573

     Total force =     0.049777     Total SCF correction =     0.000220

     General routines

     Parallel routines

   This run was terminated on:  18:18:48  27Aug2025

   JOB DONE.