     Program PWSCF v.7.0 starts on 27Aug2025 at 12:23:40

     K-points division:     npool     =      17

     Reading input from /home/jvc/QEspresso7.2/ZnO_database/scripts/cell131.in/ZnO-2.94-1.58-131.in
Warning: card &CELL ignored
Warning: card / ignored
Warning: card &FCP ignored
Warning: card / ignored
Warning: card &RISM ignored
Warning: card / ignored

     Current dimensions of program PWSCF are:
     Max number of different atomic species (ntypx) = 10
     Max number of k-points (npk) =  40000
     Max angular momentum in pseudopotentials (lmaxx) =  4
     file Zn.upf: wavefunction(s)  3D renormalized
     Found identity + (  0.0000  0.3333  0.0000) symmetry
     This is a supercell, fractional translations are disabled
     Message from routine setup:
     using ibrav=0 with symmetry is DISCOURAGED, use correct ibrav instead

     Subspace diagonalization in iterative solution of the eigenvalue problem:
     a serial algorithm will be used

     Using Slab Decomposition

     bravais-lattice index     =            0
     lattice parameter (alat)  =       5.5610  a.u.
     unit-cell volume          =     706.8532 (a.u.)^3
     number of atoms/cell      =           12
     number of atomic types    =            2
     number of electrons       =       108.00
     number of Kohn-Sham states=           54
     kinetic-energy cutoff     =      50.0000  Ry
     charge density cutoff     =     400.0000  Ry
     scf convergence threshold =      1.0E-08
     mixing beta               =       0.3000
     number of iterations used =            8  plain     mixing
     Exchange-correlation= PBE
                           (   1   4   3   4   0   0   0)

     celldm(1)=   5.560969  celldm(2)=   0.000000  celldm(3)=   0.000000
     celldm(4)=   0.000000  celldm(5)=   0.000000  celldm(6)=   0.000000

     crystal axes: (cart. coord. in units of alat)
               a(1) = (   1.000000   0.000000   0.000000 )
               a(2) = (  -1.500000   2.598076   0.000000 )
               a(3) = (   0.000000   0.000000   1.582071 )

     reciprocal axes: (cart. coord. in units 2 pi/alat)
               b(1) = (  1.000000  0.577350 -0.000000 )
               b(2) = (  0.000000  0.384900  0.000000 )
               b(3) = (  0.000000 -0.000000  0.632083 )

     PseudoPot. # 1 for Zn read from file:
     /home/jvc/QEspresso7.2/ZnO_database/pseudos/Zn.upf
     MD5 check sum: 7f56cabf9682ed8c977c2f7d0c5985c5
     Pseudo is Ultrasoft + core correction, Zval = 12.0
     Generated using &quot;atomic&quot; code by A. Dal Corso  v.6.2.2
     Using radial grid of 1201 points,  6 beta functions with:
                l(1) =   0
                l(2) =   0
                l(3) =   1
                l(4) =   1
                l(5) =   2
                l(6) =   2
     Q(r) pseudized with 0 coefficients

     PseudoPot. # 2 for O  read from file:
     /home/jvc/QEspresso7.2/ZnO_database/pseudos/O.upf
     MD5 check sum: 91400c9766925bcf19f520983a725ff0
     Pseudo is Ultrasoft + core correction, Zval =  6.0
     Generated using &quot;atomic&quot; code by A. Dal Corso  v.6.3MaX
     Using radial grid of 1095 points,  4 beta functions with:
                l(1) =   0
                l(2) =   0
                l(3) =   1
                l(4) =   1
     Q(r) pseudized with 0 coefficients

     atomic species   valence    mass     pseudopotential
        Zn            12.00    65.38000     Zn( 1.00)
        O              6.00    15.99900     O ( 1.00)

      2 Sym. Ops. (no inversion) found

                                    s                        frac. trans.

      isym =  1     identity

 cryst.   s( 1) = (     1          0          0      )
                  (     0          1          0      )
                  (     0          0          1      )

 cart.    s( 1) = (  1.0000000  0.0000000  0.0000000 )
                  (  0.0000000  1.0000000  0.0000000 )
                  (  0.0000000  0.0000000  1.0000000 )

      isym =  2     inv. 180 deg rotation - cart. axis [1,0,0]

 cryst.   s( 2) = (    -1          0          0      )
                  (     3          1          0      )
                  (     0          0          1      )

 cart.    s( 2) = ( -1.0000000 -0.0000000  0.0000000 )
                  (  0.0000000  1.0000000  0.0000000 )
                  (  0.0000000  0.0000000  1.0000000 )

   Cartesian axes

     site n.     atom                  positions (alat units)
         1           Zn  tau(   1) = (   0.5000000   0.2886751   0.7920380  )
         2           Zn  tau(   2) = (  -0.0000000   0.5773503   0.0010024  )
         3           O   tau(   3) = (   0.5000000   0.2886751   1.3917107  )
         4           O   tau(   4) = (  -0.0000000   0.5773503   0.6006751  )
         5           Zn  tau(   5) = (   0.0000000   1.1547005   0.7920380  )
         6           Zn  tau(   6) = (  -0.5000000   1.4433757   0.0010024  )
         7           O   tau(   7) = (   0.0000000   1.1547005   1.3917107  )
         8           O   tau(   8) = (  -0.5000000   1.4433757   0.6006751  )
         9           Zn  tau(   9) = (  -0.5000000   2.0207259   0.7920380  )
        10           Zn  tau(  10) = (  -1.0000000   2.3094011   0.0010024  )
        11           O   tau(  11) = (  -0.5000000   2.0207259   1.3917107  )
        12           O   tau(  12) = (  -1.0000000   2.3094011   0.6006751  )

   Crystallographic axes

     site n.     atom                  positions (cryst. coord.)
         1           Zn  tau(   1) = (  0.6666667  0.1111111  0.5006336  )
         2           Zn  tau(   2) = (  0.3333333  0.2222222  0.0006336  )
         3           O   tau(   3) = (  0.6666667  0.1111111  0.8796764  )
         4           O   tau(   4) = (  0.3333333  0.2222222  0.3796764  )
         5           Zn  tau(   5) = (  0.6666667  0.4444444  0.5006336  )
         6           Zn  tau(   6) = (  0.3333333  0.5555556  0.0006336  )
         7           O   tau(   7) = (  0.6666667  0.4444444  0.8796764  )
         8           O   tau(   8) = (  0.3333333  0.5555556  0.3796764  )
         9           Zn  tau(   9) = (  0.6666667  0.7777778  0.5006336  )
        10           Zn  tau(  10) = (  0.3333333  0.8888889  0.0006336  )
        11           O   tau(  11) = (  0.6666667  0.7777778  0.8796764  )
        12           O   tau(  12) = (  0.3333333  0.8888889  0.3796764  )

     number of k points=    68
                       cart. coord. in units 2pi/alat
        k(    1) = (   0.0000000   0.0000000   0.0000000), wk =   0.0092593
        k(    2) = (   0.0000000   0.0000000   0.1053471), wk =   0.0185185
        k(    3) = (   0.0000000   0.0000000   0.2106943), wk =   0.0185185
        k(    4) = (   0.0000000   0.0000000  -0.3160414), wk =   0.0092593
        k(    5) = (   0.0000000   0.0641500   0.0000000), wk =   0.0185185
        k(    6) = (   0.0000000   0.0641500   0.1053471), wk =   0.0185185
        k(    7) = (   0.0000000   0.0641500   0.2106943), wk =   0.0185185
        k(    8) = (   0.0000000   0.0641500  -0.3160414), wk =   0.0185185
        k(    9) = (   0.0000000   0.1283001   0.0000000), wk =   0.0185185
        k(   10) = (   0.0000000   0.1283001   0.1053471), wk =   0.0185185
        k(   11) = (   0.0000000   0.1283001   0.2106943), wk =   0.0185185
        k(   12) = (   0.0000000   0.1283001  -0.3160414), wk =   0.0185185
        k(   13) = (   0.0000000  -0.1924501   0.0000000), wk =   0.0092593
        k(   14) = (   0.0000000  -0.1924501   0.1053471), wk =   0.0185185
        k(   15) = (   0.0000000  -0.1924501   0.2106943), wk =   0.0185185
        k(   16) = (   0.0000000  -0.1924501  -0.3160414), wk =   0.0092593
        k(   17) = (   0.1666667   0.0962250   0.0000000), wk =   0.0370370
        k(   18) = (   0.1666667   0.0962250   0.1053471), wk =   0.0370370
        k(   19) = (   0.1666667   0.0962250   0.2106943), wk =   0.0370370
        k(   20) = (   0.1666667   0.0962250  -0.3160414), wk =   0.0370370
        k(   21) = (   0.1666667   0.1603751   0.0000000), wk =   0.0370370
        k(   22) = (   0.1666667   0.1603751   0.1053471), wk =   0.0370370
        k(   23) = (   0.1666667   0.1603751   0.2106943), wk =   0.0370370
        k(   24) = (   0.1666667   0.1603751  -0.3160414), wk =   0.0370370
        k(   25) = (   0.1666667  -0.0320750   0.0000000), wk =   0.0370370
        k(   26) = (   0.1666667  -0.0320750   0.1053471), wk =   0.0370370
        k(   27) = (   0.1666667  -0.0320750   0.2106943), wk =   0.0370370
        k(   28) = (   0.1666667  -0.0320750  -0.3160414), wk =   0.0370370
        k(   29) = (   0.3333333   0.1924501   0.0000000), wk =   0.0185185
        k(   30) = (   0.3333333   0.1924501   0.1053471), wk =   0.0370370
        k(   31) = (   0.3333333   0.1924501   0.2106943), wk =   0.0370370
        k(   32) = (   0.3333333   0.1924501  -0.3160414), wk =   0.0185185
        k(   33) = (   0.3333333   0.2566001   0.0000000), wk =   0.0370370
        k(   34) = (   0.3333333   0.2566001   0.1053471), wk =   0.0370370
        k(   35) = (   0.3333333   0.2566001   0.2106943), wk =   0.0370370
        k(   36) = (   0.3333333   0.2566001  -0.3160414), wk =   0.0370370
        k(   37) = (   0.3333333   0.3207501   0.0000000), wk =   0.0370370
        k(   38) = (   0.3333333   0.3207501   0.1053471), wk =   0.0370370
        k(   39) = (   0.3333333   0.3207501   0.2106943), wk =   0.0370370
        k(   40) = (   0.3333333   0.3207501  -0.3160414), wk =   0.0370370
        k(   41) = (   0.3333333   0.0000000   0.0000000), wk =   0.0185185
        k(   42) = (   0.3333333   0.0000000   0.1053471), wk =   0.0370370
        k(   43) = (   0.3333333   0.0000000   0.2106943), wk =   0.0370370
        k(   44) = (   0.3333333   0.0000000  -0.3160414), wk =   0.0185185
        k(   45) = (  -0.5000000  -0.2886751   0.0000000), wk =   0.0185185
        k(   46) = (  -0.5000000  -0.2886751   0.1053471), wk =   0.0370370
        k(   47) = (  -0.5000000  -0.2886751   0.2106943), wk =   0.0370370
        k(   48) = (  -0.5000000  -0.2886751  -0.3160414), wk =   0.0185185
        k(   49) = (  -0.5000000  -0.2245251   0.0000000), wk =   0.0370370
        k(   50) = (  -0.5000000  -0.2245251   0.1053471), wk =   0.0370370
        k(   51) = (  -0.5000000  -0.2245251   0.2106943), wk =   0.0370370
        k(   52) = (  -0.5000000  -0.2245251  -0.3160414), wk =   0.0370370
        k(   53) = (   0.0000000   0.0641500  -0.1053471), wk =   0.0185185
        k(   54) = (   0.0000000   0.0641500  -0.2106943), wk =   0.0185185
        k(   55) = (   0.0000000   0.1283001  -0.1053471), wk =   0.0185185
        k(   56) = (   0.0000000   0.1283001  -0.2106943), wk =   0.0185185
        k(   57) = (  -0.1666667   0.0962250  -0.1053471), wk =   0.0370370
        k(   58) = (  -0.1666667   0.0962250  -0.2106943), wk =   0.0370370
        k(   59) = (  -0.1666667   0.1603751  -0.1053471), wk =   0.0370370
        k(   60) = (  -0.1666667   0.1603751  -0.2106943), wk =   0.0370370
        k(   61) = (  -0.1666667  -0.0320750  -0.1053471), wk =   0.0370370
        k(   62) = (  -0.1666667  -0.0320750  -0.2106943), wk =   0.0370370
        k(   63) = (  -0.3333333   0.2566001  -0.1053471), wk =   0.0370370
        k(   64) = (  -0.3333333   0.2566001  -0.2106943), wk =   0.0370370
        k(   65) = (  -0.3333333   0.3207501  -0.1053471), wk =   0.0370370
        k(   66) = (  -0.3333333   0.3207501  -0.2106943), wk =   0.0370370
        k(   67) = (   0.5000000  -0.2245251  -0.1053471), wk =   0.0370370
        k(   68) = (   0.5000000  -0.2245251  -0.2106943), wk =   0.0370370

                       cryst. coord.
        k(    1) = (   0.0000000   0.0000000   0.0000000), wk =   0.0092593
        k(    2) = (   0.0000000   0.0000000   0.1666667), wk =   0.0185185
        k(    3) = (   0.0000000   0.0000000   0.3333333), wk =   0.0185185
        k(    4) = (   0.0000000   0.0000000  -0.5000000), wk =   0.0092593
        k(    5) = (   0.0000000   0.1666667   0.0000000), wk =   0.0185185
        k(    6) = (   0.0000000   0.1666667   0.1666667), wk =   0.0185185
        k(    7) = (   0.0000000   0.1666667   0.3333333), wk =   0.0185185
        k(    8) = (   0.0000000   0.1666667  -0.5000000), wk =   0.0185185
        k(    9) = (   0.0000000   0.3333333   0.0000000), wk =   0.0185185
        k(   10) = (   0.0000000   0.3333333   0.1666667), wk =   0.0185185
        k(   11) = (   0.0000000   0.3333333   0.3333333), wk =   0.0185185
        k(   12) = (   0.0000000   0.3333333  -0.5000000), wk =   0.0185185
        k(   13) = (   0.0000000  -0.5000000   0.0000000), wk =   0.0092593
        k(   14) = (   0.0000000  -0.5000000   0.1666667), wk =   0.0185185
        k(   15) = (   0.0000000  -0.5000000   0.3333333), wk =   0.0185185
        k(   16) = (   0.0000000  -0.5000000  -0.5000000), wk =   0.0092593
        k(   17) = (   0.1666667   0.0000000   0.0000000), wk =   0.0370370
        k(   18) = (   0.1666667   0.0000000   0.1666667), wk =   0.0370370
        k(   19) = (   0.1666667   0.0000000   0.3333333), wk =   0.0370370
        k(   20) = (   0.1666667   0.0000000  -0.5000000), wk =   0.0370370
        k(   21) = (   0.1666667   0.1666667   0.0000000), wk =   0.0370370
        k(   22) = (   0.1666667   0.1666667   0.1666667), wk =   0.0370370
        k(   23) = (   0.1666667   0.1666667   0.3333333), wk =   0.0370370
        k(   24) = (   0.1666667   0.1666667  -0.5000000), wk =   0.0370370
        k(   25) = (   0.1666667  -0.3333333   0.0000000), wk =   0.0370370
        k(   26) = (   0.1666667  -0.3333333   0.1666667), wk =   0.0370370
        k(   27) = (   0.1666667  -0.3333333   0.3333333), wk =   0.0370370
        k(   28) = (   0.1666667  -0.3333333  -0.5000000), wk =   0.0370370
        k(   29) = (   0.3333333   0.0000000   0.0000000), wk =   0.0185185
        k(   30) = (   0.3333333   0.0000000   0.1666667), wk =   0.0370370
        k(   31) = (   0.3333333   0.0000000   0.3333333), wk =   0.0370370
        k(   32) = (   0.3333333   0.0000000  -0.5000000), wk =   0.0185185
        k(   33) = (   0.3333333   0.1666667   0.0000000), wk =   0.0370370
        k(   34) = (   0.3333333   0.1666667   0.1666667), wk =   0.0370370
        k(   35) = (   0.3333333   0.1666667   0.3333333), wk =   0.0370370
        k(   36) = (   0.3333333   0.1666667  -0.5000000), wk =   0.0370370
        k(   37) = (   0.3333333   0.3333333   0.0000000), wk =   0.0370370
        k(   38) = (   0.3333333   0.3333333   0.1666667), wk =   0.0370370
        k(   39) = (   0.3333333   0.3333333   0.3333333), wk =   0.0370370
        k(   40) = (   0.3333333   0.3333333  -0.5000000), wk =   0.0370370
        k(   41) = (   0.3333333  -0.5000000   0.0000000), wk =   0.0185185
        k(   42) = (   0.3333333  -0.5000000   0.1666667), wk =   0.0370370
        k(   43) = (   0.3333333  -0.5000000   0.3333333), wk =   0.0370370
        k(   44) = (   0.3333333  -0.5000000  -0.5000000), wk =   0.0185185
        k(   45) = (  -0.5000000  -0.0000000   0.0000000), wk =   0.0185185
        k(   46) = (  -0.5000000  -0.0000000   0.1666667), wk =   0.0370370
        k(   47) = (  -0.5000000  -0.0000000   0.3333333), wk =   0.0370370
        k(   48) = (  -0.5000000  -0.0000000  -0.5000000), wk =   0.0185185
        k(   49) = (  -0.5000000   0.1666667   0.0000000), wk =   0.0370370
        k(   50) = (  -0.5000000   0.1666667   0.1666667), wk =   0.0370370
        k(   51) = (  -0.5000000   0.1666667   0.3333333), wk =   0.0370370
        k(   52) = (  -0.5000000   0.1666667  -0.5000000), wk =   0.0370370
        k(   53) = (   0.0000000   0.1666667  -0.1666667), wk =   0.0185185
        k(   54) = (   0.0000000   0.1666667  -0.3333333), wk =   0.0185185
        k(   55) = (   0.0000000   0.3333333  -0.1666667), wk =   0.0185185
        k(   56) = (   0.0000000   0.3333333  -0.3333333), wk =   0.0185185
        k(   57) = (  -0.1666667   0.5000000  -0.1666667), wk =   0.0370370
        k(   58) = (  -0.1666667   0.5000000  -0.3333333), wk =   0.0370370
        k(   59) = (  -0.1666667   0.6666667  -0.1666667), wk =   0.0370370
        k(   60) = (  -0.1666667   0.6666667  -0.3333333), wk =   0.0370370
        k(   61) = (  -0.1666667   0.1666667  -0.1666667), wk =   0.0370370
        k(   62) = (  -0.1666667   0.1666667  -0.3333333), wk =   0.0370370
        k(   63) = (  -0.3333333   1.1666667  -0.1666667), wk =   0.0370370
        k(   64) = (  -0.3333333   1.1666667  -0.3333333), wk =   0.0370370
        k(   65) = (  -0.3333333   1.3333333  -0.1666667), wk =   0.0370370
        k(   66) = (  -0.3333333   1.3333333  -0.3333333), wk =   0.0370370
        k(   67) = (   0.5000000  -1.3333333  -0.1666667), wk =   0.0370370
        k(   68) = (   0.5000000  -1.3333333  -0.3333333), wk =   0.0370370

     Check: negative core charge=   -0.000001

     Initial potential from superposition of free atoms

     starting charge     107.9776, renormalised to     108.0000
     Starting wfcs are   78 randomized atomic wfcs

     Self-consistent Calculation

     iteration #  1     ecut=    50.00 Ry     beta= 0.30
     Davidson diagonalization with overlap

     ethr =  1.00E-02,  avg # of iterations =  2.3

     total energy              =   -1083.82781634 Ry
     estimated scf accuracy    <       2.07244818 Ry

[...]

     c_bands:  1 eigenvalues not converged
     ethr =  3.08E-07,  avg # of iterations = 13.0

[...]

     total energy              =   -1084.20495010 Ry
     estimated scf accuracy    <       0.00000001 Ry

     iteration # 18     ecut=    50.00 Ry     beta= 0.30
     Davidson diagonalization with overlap

     ethr =  1.25E-11,  avg # of iterations =  4.9

     End of self-consistent calculation

          k = 0.0000 0.0000 0.0000 (  4213 PWs)   bands (ev):

    -8.3417  -7.4982  -7.4982  -6.9807  -6.7080  -6.7080   4.2648   4.2648
     4.3374   4.7853   4.7853   5.0193   5.0195   5.1073   5.3403   5.3404
     5.3440   5.3441   5.3819   5.3819   5.8572   5.8572   5.9733   5.9733
     7.0353   7.0353   7.3027   7.3027   7.4481   7.4481   7.6473   7.6473
     7.7433   7.7433   7.8154   7.8154   8.1954   8.4681   8.4681   8.8125
     8.8125  10.0074  10.0074  10.2109  10.2110  11.5790  11.5791  11.6514
    11.6514  11.9467  11.9467  12.6912  12.8584  12.8587

     occupation numbers
     1.0000   1.0000   1.0000   1.0000   1.0000   1.0000   1.0000   1.0000
     1.0000   1.0000   1.0000   1.0000   1.0000   1.0000   1.0000   1.0000
     1.0000   1.0000   1.0000   1.0000   1.0000   1.0000   1.0000   1.0000
     1.0000   1.0000   1.0000   1.0000   1.0000   1.0000   1.0000   1.0000
     1.0000   1.0000   1.0000   1.0000   1.0000   1.0000   1.0000   1.0000
     1.0000   1.0000   1.0000   1.0000   1.0000   1.0000   1.0000   1.0000
     1.0000   1.0000   1.0000   1.0000   1.0000   1.0000

[...]

          k =-0.5000-0.2887 0.0000 (  4220 PWs)   bands (ev):

[...]

          k =-0.3333 0.3208-0.2107 (  4225 PWs)   bands (ev):

[...]

          k = 0.5000-0.2245-0.2107 (  4228 PWs)   bands (ev):

    -7.0014  -6.9920  -6.9869  -6.7743  -6.7736  -6.7726   4.0422   4.0924
     4.1179   4.1891   4.3235   4.3789   5.2257   5.3228   5.4113   5.4982
     5.5205   5.5595   5.8292   5.8716   5.9133   5.9904   5.9905   5.9958
     7.3547   7.4905   7.5855   7.5956   7.6214   7.6533   7.7810   7.8172
     7.8447   7.9308   7.9841   8.0720   8.2365   8.2643   8.4057   8.4725
     8.6456   8.9267   9.3607   9.6801   9.9090  10.0066  10.2799  10.2983
    10.6378  10.8025  10.9943  11.2777  11.2891  11.2932

     occupation numbers
     1.0000   1.0000   1.0000   1.0000   1.0000   1.0000   1.0000   1.0000
     1.0000   1.0000   1.0000   1.0000   1.0000   1.0000   1.0000   1.0000
     1.0000   1.0000   1.0000   1.0000   1.0000   1.0000   1.0000   1.0000
     1.0000   1.0000   1.0000   1.0000   1.0000   1.0000   1.0000   1.0000
     1.0000   1.0000   1.0000   1.0000   1.0000   1.0000   1.0000   1.0000
     1.0000   1.0000   1.0000   1.0000   1.0000   1.0000   1.0000   1.0000
     1.0000   1.0000   1.0000   1.0000   1.0000   1.0000

     highest occupied level (ev):    12.8587

!    total energy              =   -1084.20495011 Ry
     estimated scf accuracy    <          1.6E-09 Ry

     The total energy is the sum of the following terms:
     one-electron contribution =    -342.64756007 Ry
     hartree contribution      =     313.81276589 Ry
     xc contribution           =    -331.17482164 Ry
     ewald contribution        =    -724.19533428 Ry

     convergence has been achieved in  18 iterations

     Forces acting on atoms (cartesian axes, Ry/au):

     atom    1 type  1   force =     0.00000000   -0.00002156   -0.02579843
     atom    2 type  1   force =     0.00000000    0.00003569   -0.02579838
     atom    3 type  2   force =     0.00000000    0.00000262    0.02579898
     atom    4 type  2   force =     0.00000000   -0.00000180    0.02579990
     atom    5 type  1   force =     0.00000000   -0.00002616   -0.02580553
     atom    6 type  1   force =     0.00000000    0.00002445   -0.02579842
     atom    7 type  2   force =     0.00000000    0.00000190    0.02579864
     atom    8 type  2   force =     0.00000000   -0.00000141    0.02580144
     atom    9 type  1   force =     0.00000000   -0.00003398   -0.02579613
     atom   10 type  1   force =     0.00000000    0.00002448   -0.02580104
     atom   11 type  2   force =     0.00000000   -0.00000083    0.02579965
     atom   12 type  2   force =     0.00000000   -0.00000340    0.02579933
     The non-local contrib.  to forces
     atom    1 type  1   force =     0.00000000    0.00003208   -0.07582899
     atom    2 type  1   force =     0.00000000   -0.00002817   -0.07582794
     atom    3 type  2   force =     0.00000000    0.00017635   -0.04152447
     atom    4 type  2   force =     0.00000000   -0.00017616   -0.04152350
     atom    5 type  1   force =     0.00000000    0.00002879   -0.07583066
     atom    6 type  1   force =     0.00000000   -0.00003194   -0.07582784
     atom    7 type  2   force =     0.00000000    0.00017587   -0.04152595
     atom    8 type  2   force =     0.00000000   -0.00017378   -0.04152253
     atom    9 type  1   force =     0.00000000    0.00003089   -0.07582824
     atom   10 type  1   force =     0.00000000   -0.00003207   -0.07582896
     atom   11 type  2   force =     0.00000000    0.00017437   -0.04152438
     atom   12 type  2   force =     0.00000000   -0.00017602   -0.04152455
     The ionic contribution  to forces
     atom    1 type  1   force =    -0.00000000    0.00000001   -0.44226023
     atom    2 type  1   force =     0.00000000    0.00000001   -0.44226023
     atom    3 type  2   force =    -0.00000000    0.00000001    0.44226023
     atom    4 type  2   force =     0.00000000    0.00000000    0.44226023
     atom    5 type  1   force =    -0.00000001    0.00000001   -0.44226024
     atom    6 type  1   force =     0.00000001   -0.00000001   -0.44226024
     atom    7 type  2   force =    -0.00000001    0.00000001    0.44226024
     atom    8 type  2   force =     0.00000001   -0.00000001    0.44226024
     atom    9 type  1   force =    -0.00000000   -0.00000001   -0.44226023
     atom   10 type  1   force =     0.00000000   -0.00000001   -0.44226023
     atom   11 type  2   force =    -0.00000000   -0.00000000    0.44226023
     atom   12 type  2   force =     0.00000000   -0.00000001    0.44226023
     The local contribution  to forces
     atom    1 type  1   force =    -0.00000004   -0.00005628    0.48429428
     atom    2 type  1   force =     0.00000000    0.00004202    0.48429293
     atom    3 type  2   force =    -0.00000001   -0.00017249   -0.37514533
     atom    4 type  2   force =    -0.00000000    0.00016038   -0.37514595
     atom    5 type  1   force =    -0.00000007   -0.00004995    0.48429985
     atom    6 type  1   force =     0.00000007    0.00005499    0.48429120
     atom    7 type  2   force =    -0.00000002   -0.00017271   -0.37514542
     atom    8 type  2   force =     0.00000002    0.00017146   -0.37514089
     atom    9 type  1   force =    -0.00000000   -0.00004612    0.48429255
     atom   10 type  1   force =     0.00000004    0.00005400    0.48429630
     atom   11 type  2   force =    -0.00000000   -0.00016658   -0.37514232
     atom   12 type  2   force =     0.00000001    0.00017300   -0.37514720
     The core correction contribution to forces
     atom    1 type  1   force =    -0.00000001    0.00000405    0.00799408
     atom    2 type  1   force =    -0.00000000   -0.00000407    0.00799408
     atom    3 type  2   force =     0.00000000   -0.00000199    0.00020875
     atom    4 type  2   force =    -0.00000000    0.00000197    0.00020874
     atom    5 type  1   force =    -0.00000001    0.00000416    0.00799419
     atom    6 type  1   force =     0.00000001   -0.00000407    0.00799415
     atom    7 type  2   force =     0.00000000   -0.00000200    0.00020877
     atom    8 type  2   force =    -0.00000000    0.00000196    0.00020875
     atom    9 type  1   force =    -0.00000000    0.00000398    0.00799405
     atom   10 type  1   force =     0.00000001   -0.00000408    0.00799409
     atom   11 type  2   force =     0.00000000   -0.00000197    0.00020877
     atom   12 type  2   force =    -0.00000000    0.00000200    0.00020875
     The Hubbard contrib.    to forces
     atom    1 type  1   force =     0.00000000    0.00000000    0.00000000
     atom    2 type  1   force =     0.00000000    0.00000000    0.00000000
     atom    3 type  2   force =     0.00000000    0.00000000    0.00000000
     atom    4 type  2   force =     0.00000000    0.00000000    0.00000000
     atom    5 type  1   force =     0.00000000    0.00000000    0.00000000
     atom    6 type  1   force =     0.00000000    0.00000000    0.00000000
     atom    7 type  2   force =     0.00000000    0.00000000    0.00000000
     atom    8 type  2   force =     0.00000000    0.00000000    0.00000000
     atom    9 type  1   force =     0.00000000    0.00000000    0.00000000
     atom   10 type  1   force =     0.00000000    0.00000000    0.00000000
     atom   11 type  2   force =     0.00000000    0.00000000    0.00000000
     atom   12 type  2   force =     0.00000000    0.00000000    0.00000000
     The SCF correction term to forces
     atom    1 type  1   force =    -0.00000000   -0.00000103    0.00000136
     atom    2 type  1   force =    -0.00000000    0.00002628    0.00000172
     atom    3 type  2   force =    -0.00000000    0.00000115   -0.00000127
     atom    4 type  2   force =     0.00000000    0.00001240   -0.00000069
     atom    5 type  1   force =    -0.00000000   -0.00000877   -0.00000975
     atom    6 type  1   force =     0.00000000    0.00000587    0.00000324
     atom    7 type  2   force =    -0.00000000    0.00000113   -0.00000008
     atom    8 type  2   force =     0.00000000   -0.00000065   -0.00000521
     atom    9 type  1   force =     0.00000000   -0.00002233    0.00000467
     atom   10 type  1   force =     0.00000000    0.00000703   -0.00000331
     atom   11 type  2   force =    -0.00000000   -0.00000627   -0.00000372
     atom   12 type  2   force =     0.00000000   -0.00000198    0.00000103

     Total force =     0.089373     Total SCF correction =     0.000042

     General routines

     Parallel routines

   This run was terminated on:  12:28:27  27Aug2025

   JOB DONE.