     Program PWSCF v.7.0 starts on 27Aug2025 at 13: 4: 7

     K-points division:     npool     =      17

     Reading input from /home/jvc/QEspresso7.2/ZnO_database/scripts/cell131.in/ZnO-3.01-1.45-131.in
Warning: card &CELL ignored
Warning: card / ignored
Warning: card &FCP ignored
Warning: card / ignored
Warning: card &RISM ignored
Warning: card / ignored

     Current dimensions of program PWSCF are:
     Max number of different atomic species (ntypx) = 10
     Max number of k-points (npk) =  40000
     Max angular momentum in pseudopotentials (lmaxx) =  4
     file Zn.upf: wavefunction(s)  3D renormalized
     Found identity + (  0.0000  0.3333  0.0000) symmetry
     This is a supercell, fractional translations are disabled
     Message from routine setup:
     using ibrav=0 with symmetry is DISCOURAGED, use correct ibrav instead

     Subspace diagonalization in iterative solution of the eigenvalue problem:
     a serial algorithm will be used

     Using Slab Decomposition

     bravais-lattice index     =            0
     lattice parameter (alat)  =       5.6845  a.u.
     unit-cell volume          =     693.3965 (a.u.)^3
     number of atoms/cell      =           12
     number of atomic types    =            2
     number of electrons       =       108.00
     number of Kohn-Sham states=           54
     kinetic-energy cutoff     =      50.0000  Ry
     charge density cutoff     =     400.0000  Ry
     scf convergence threshold =      1.0E-08
     mixing beta               =       0.3000
     number of iterations used =            8  plain     mixing
     Exchange-correlation= PBE
                           (   1   4   3   4   0   0   0)

     celldm(1)=   5.684546  celldm(2)=   0.000000  celldm(3)=   0.000000
     celldm(4)=   0.000000  celldm(5)=   0.000000  celldm(6)=   0.000000

     crystal axes: (cart. coord. in units of alat)
               a(1) = (   1.000000   0.000000   0.000000 )
               a(2) = (  -1.500000   2.598076   0.000000 )
               a(3) = (   0.000000   0.000000   1.452923 )

     reciprocal axes: (cart. coord. in units 2 pi/alat)
               b(1) = (  1.000000  0.577350 -0.000000 )
               b(2) = (  0.000000  0.384900  0.000000 )
               b(3) = (  0.000000 -0.000000  0.688268 )

     PseudoPot. # 1 for Zn read from file:
     /home/jvc/QEspresso7.2/ZnO_database/pseudos/Zn.upf
     MD5 check sum: 7f56cabf9682ed8c977c2f7d0c5985c5
     Pseudo is Ultrasoft + core correction, Zval = 12.0
     Generated using &quot;atomic&quot; code by A. Dal Corso  v.6.2.2
     Using radial grid of 1201 points,  6 beta functions with:
                l(1) =   0
                l(2) =   0
                l(3) =   1
                l(4) =   1
                l(5) =   2
                l(6) =   2
     Q(r) pseudized with 0 coefficients

     PseudoPot. # 2 for O  read from file:
     /home/jvc/QEspresso7.2/ZnO_database/pseudos/O.upf
     MD5 check sum: 91400c9766925bcf19f520983a725ff0
     Pseudo is Ultrasoft + core correction, Zval =  6.0
     Generated using &quot;atomic&quot; code by A. Dal Corso  v.6.3MaX
     Using radial grid of 1095 points,  4 beta functions with:
                l(1) =   0
                l(2) =   0
                l(3) =   1
                l(4) =   1
     Q(r) pseudized with 0 coefficients

     atomic species   valence    mass     pseudopotential
        Zn            12.00    65.38000     Zn( 1.00)
        O              6.00    15.99900     O ( 1.00)

      2 Sym. Ops. (no inversion) found

                                    s                        frac. trans.

      isym =  1     identity

 cryst.   s( 1) = (     1          0          0      )
                  (     0          1          0      )
                  (     0          0          1      )

 cart.    s( 1) = (  1.0000000  0.0000000  0.0000000 )
                  (  0.0000000  1.0000000  0.0000000 )
                  (  0.0000000  0.0000000  1.0000000 )

      isym =  2     inv. 180 deg rotation - cart. axis [1,0,0]

 cryst.   s( 2) = (    -1          0          0      )
                  (     3          1          0      )
                  (     0          0          1      )

 cart.    s( 2) = ( -1.0000000 -0.0000000  0.0000000 )
                  (  0.0000000  1.0000000  0.0000000 )
                  (  0.0000000  0.0000000  1.0000000 )

   Cartesian axes

     site n.     atom                  positions (alat units)
         1           Zn  tau(   1) = (   0.5000000   0.2886751   0.7273818  )
         2           Zn  tau(   2) = (  -0.0000000   0.5773503   0.0009206  )
         3           O   tau(   3) = (   0.5000000   0.2886751   1.2781017  )
         4           O   tau(   4) = (  -0.0000000   0.5773503   0.5516404  )
         5           Zn  tau(   5) = (   0.0000000   1.1547005   0.7273818  )
         6           Zn  tau(   6) = (  -0.5000000   1.4433757   0.0009206  )
         7           O   tau(   7) = (   0.0000000   1.1547005   1.2781017  )
         8           O   tau(   8) = (  -0.5000000   1.4433757   0.5516404  )
         9           Zn  tau(   9) = (  -0.5000000   2.0207259   0.7273818  )
        10           Zn  tau(  10) = (  -1.0000000   2.3094011   0.0009206  )
        11           O   tau(  11) = (  -0.5000000   2.0207259   1.2781017  )
        12           O   tau(  12) = (  -1.0000000   2.3094011   0.5516404  )

   Crystallographic axes

     site n.     atom                  positions (cryst. coord.)
         1           Zn  tau(   1) = (  0.6666667  0.1111111  0.5006336  )
         2           Zn  tau(   2) = (  0.3333333  0.2222222  0.0006336  )
         3           O   tau(   3) = (  0.6666667  0.1111111  0.8796764  )
         4           O   tau(   4) = (  0.3333333  0.2222222  0.3796764  )
         5           Zn  tau(   5) = (  0.6666667  0.4444444  0.5006336  )
         6           Zn  tau(   6) = (  0.3333333  0.5555556  0.0006336  )
         7           O   tau(   7) = (  0.6666667  0.4444444  0.8796764  )
         8           O   tau(   8) = (  0.3333333  0.5555556  0.3796764  )
         9           Zn  tau(   9) = (  0.6666667  0.7777778  0.5006336  )
        10           Zn  tau(  10) = (  0.3333333  0.8888889  0.0006336  )
        11           O   tau(  11) = (  0.6666667  0.7777778  0.8796764  )
        12           O   tau(  12) = (  0.3333333  0.8888889  0.3796764  )

     number of k points=    68
                       cart. coord. in units 2pi/alat
        k(    1) = (   0.0000000   0.0000000   0.0000000), wk =   0.0092593
        k(    2) = (   0.0000000   0.0000000   0.1147113), wk =   0.0185185
        k(    3) = (   0.0000000   0.0000000   0.2294226), wk =   0.0185185
        k(    4) = (   0.0000000   0.0000000  -0.3441340), wk =   0.0092593
        k(    5) = (   0.0000000   0.0641500   0.0000000), wk =   0.0185185
        k(    6) = (   0.0000000   0.0641500   0.1147113), wk =   0.0185185
        k(    7) = (   0.0000000   0.0641500   0.2294226), wk =   0.0185185
        k(    8) = (   0.0000000   0.0641500  -0.3441340), wk =   0.0185185
        k(    9) = (   0.0000000   0.1283001   0.0000000), wk =   0.0185185
        k(   10) = (   0.0000000   0.1283001   0.1147113), wk =   0.0185185
        k(   11) = (   0.0000000   0.1283001   0.2294226), wk =   0.0185185
        k(   12) = (   0.0000000   0.1283001  -0.3441340), wk =   0.0185185
        k(   13) = (   0.0000000  -0.1924501   0.0000000), wk =   0.0092593
        k(   14) = (   0.0000000  -0.1924501   0.1147113), wk =   0.0185185
        k(   15) = (   0.0000000  -0.1924501   0.2294226), wk =   0.0185185
        k(   16) = (   0.0000000  -0.1924501  -0.3441340), wk =   0.0092593
        k(   17) = (   0.1666667   0.0962250   0.0000000), wk =   0.0370370
        k(   18) = (   0.1666667   0.0962250   0.1147113), wk =   0.0370370
        k(   19) = (   0.1666667   0.0962250   0.2294226), wk =   0.0370370
        k(   20) = (   0.1666667   0.0962250  -0.3441340), wk =   0.0370370
        k(   21) = (   0.1666667   0.1603751   0.0000000), wk =   0.0370370
        k(   22) = (   0.1666667   0.1603751   0.1147113), wk =   0.0370370
        k(   23) = (   0.1666667   0.1603751   0.2294226), wk =   0.0370370
        k(   24) = (   0.1666667   0.1603751  -0.3441340), wk =   0.0370370
        k(   25) = (   0.1666667  -0.0320750   0.0000000), wk =   0.0370370
        k(   26) = (   0.1666667  -0.0320750   0.1147113), wk =   0.0370370
        k(   27) = (   0.1666667  -0.0320750   0.2294226), wk =   0.0370370
        k(   28) = (   0.1666667  -0.0320750  -0.3441340), wk =   0.0370370
        k(   29) = (   0.3333333   0.1924501   0.0000000), wk =   0.0185185
        k(   30) = (   0.3333333   0.1924501   0.1147113), wk =   0.0370370
        k(   31) = (   0.3333333   0.1924501   0.2294226), wk =   0.0370370
        k(   32) = (   0.3333333   0.1924501  -0.3441340), wk =   0.0185185
        k(   33) = (   0.3333333   0.2566001   0.0000000), wk =   0.0370370
        k(   34) = (   0.3333333   0.2566001   0.1147113), wk =   0.0370370
        k(   35) = (   0.3333333   0.2566001   0.2294226), wk =   0.0370370
        k(   36) = (   0.3333333   0.2566001  -0.3441340), wk =   0.0370370
        k(   37) = (   0.3333333   0.3207501   0.0000000), wk =   0.0370370
        k(   38) = (   0.3333333   0.3207501   0.1147113), wk =   0.0370370
        k(   39) = (   0.3333333   0.3207501   0.2294226), wk =   0.0370370
        k(   40) = (   0.3333333   0.3207501  -0.3441340), wk =   0.0370370
        k(   41) = (   0.3333333   0.0000000   0.0000000), wk =   0.0185185
        k(   42) = (   0.3333333   0.0000000   0.1147113), wk =   0.0370370
        k(   43) = (   0.3333333   0.0000000   0.2294226), wk =   0.0370370
        k(   44) = (   0.3333333   0.0000000  -0.3441340), wk =   0.0185185
        k(   45) = (  -0.5000000  -0.2886751   0.0000000), wk =   0.0185185
        k(   46) = (  -0.5000000  -0.2886751   0.1147113), wk =   0.0370370
        k(   47) = (  -0.5000000  -0.2886751   0.2294226), wk =   0.0370370
        k(   48) = (  -0.5000000  -0.2886751  -0.3441340), wk =   0.0185185
        k(   49) = (  -0.5000000  -0.2245251   0.0000000), wk =   0.0370370
        k(   50) = (  -0.5000000  -0.2245251   0.1147113), wk =   0.0370370
        k(   51) = (  -0.5000000  -0.2245251   0.2294226), wk =   0.0370370
        k(   52) = (  -0.5000000  -0.2245251  -0.3441340), wk =   0.0370370
        k(   53) = (   0.0000000   0.0641500  -0.1147113), wk =   0.0185185
        k(   54) = (   0.0000000   0.0641500  -0.2294226), wk =   0.0185185
        k(   55) = (   0.0000000   0.1283001  -0.1147113), wk =   0.0185185
        k(   56) = (   0.0000000   0.1283001  -0.2294226), wk =   0.0185185
        k(   57) = (  -0.1666667   0.0962250  -0.1147113), wk =   0.0370370
        k(   58) = (  -0.1666667   0.0962250  -0.2294226), wk =   0.0370370
        k(   59) = (  -0.1666667   0.1603751  -0.1147113), wk =   0.0370370
        k(   60) = (  -0.1666667   0.1603751  -0.2294226), wk =   0.0370370
        k(   61) = (  -0.1666667  -0.0320750  -0.1147113), wk =   0.0370370
        k(   62) = (  -0.1666667  -0.0320750  -0.2294226), wk =   0.0370370
        k(   63) = (  -0.3333333   0.2566001  -0.1147113), wk =   0.0370370
        k(   64) = (  -0.3333333   0.2566001  -0.2294226), wk =   0.0370370
        k(   65) = (  -0.3333333   0.3207501  -0.1147113), wk =   0.0370370
        k(   66) = (  -0.3333333   0.3207501  -0.2294226), wk =   0.0370370
        k(   67) = (   0.5000000  -0.2245251  -0.1147113), wk =   0.0370370
        k(   68) = (   0.5000000  -0.2245251  -0.2294226), wk =   0.0370370

                       cryst. coord.
        k(    1) = (   0.0000000   0.0000000   0.0000000), wk =   0.0092593
        k(    2) = (   0.0000000   0.0000000   0.1666667), wk =   0.0185185
        k(    3) = (   0.0000000   0.0000000   0.3333333), wk =   0.0185185
        k(    4) = (   0.0000000   0.0000000  -0.5000000), wk =   0.0092593
        k(    5) = (   0.0000000   0.1666667   0.0000000), wk =   0.0185185
        k(    6) = (   0.0000000   0.1666667   0.1666667), wk =   0.0185185
        k(    7) = (   0.0000000   0.1666667   0.3333333), wk =   0.0185185
        k(    8) = (   0.0000000   0.1666667  -0.5000000), wk =   0.0185185
        k(    9) = (   0.0000000   0.3333333   0.0000000), wk =   0.0185185
        k(   10) = (   0.0000000   0.3333333   0.1666667), wk =   0.0185185
        k(   11) = (   0.0000000   0.3333333   0.3333333), wk =   0.0185185
        k(   12) = (   0.0000000   0.3333333  -0.5000000), wk =   0.0185185
        k(   13) = (   0.0000000  -0.5000000   0.0000000), wk =   0.0092593
        k(   14) = (   0.0000000  -0.5000000   0.1666667), wk =   0.0185185
        k(   15) = (   0.0000000  -0.5000000   0.3333333), wk =   0.0185185
        k(   16) = (   0.0000000  -0.5000000  -0.5000000), wk =   0.0092593
        k(   17) = (   0.1666667   0.0000000   0.0000000), wk =   0.0370370
        k(   18) = (   0.1666667   0.0000000   0.1666667), wk =   0.0370370
        k(   19) = (   0.1666667   0.0000000   0.3333333), wk =   0.0370370
        k(   20) = (   0.1666667   0.0000000  -0.5000000), wk =   0.0370370
        k(   21) = (   0.1666667   0.1666667   0.0000000), wk =   0.0370370
        k(   22) = (   0.1666667   0.1666667   0.1666667), wk =   0.0370370
        k(   23) = (   0.1666667   0.1666667   0.3333333), wk =   0.0370370
        k(   24) = (   0.1666667   0.1666667  -0.5000000), wk =   0.0370370
        k(   25) = (   0.1666667  -0.3333333   0.0000000), wk =   0.0370370
        k(   26) = (   0.1666667  -0.3333333   0.1666667), wk =   0.0370370
        k(   27) = (   0.1666667  -0.3333333   0.3333333), wk =   0.0370370
        k(   28) = (   0.1666667  -0.3333333  -0.5000000), wk =   0.0370370
        k(   29) = (   0.3333333   0.0000000   0.0000000), wk =   0.0185185
        k(   30) = (   0.3333333   0.0000000   0.1666667), wk =   0.0370370
        k(   31) = (   0.3333333   0.0000000   0.3333333), wk =   0.0370370
        k(   32) = (   0.3333333   0.0000000  -0.5000000), wk =   0.0185185
        k(   33) = (   0.3333333   0.1666667   0.0000000), wk =   0.0370370
        k(   34) = (   0.3333333   0.1666667   0.1666667), wk =   0.0370370
        k(   35) = (   0.3333333   0.1666667   0.3333333), wk =   0.0370370
        k(   36) = (   0.3333333   0.1666667  -0.5000000), wk =   0.0370370
        k(   37) = (   0.3333333   0.3333333   0.0000000), wk =   0.0370370
        k(   38) = (   0.3333333   0.3333333   0.1666667), wk =   0.0370370
        k(   39) = (   0.3333333   0.3333333   0.3333333), wk =   0.0370370
        k(   40) = (   0.3333333   0.3333333  -0.5000000), wk =   0.0370370
        k(   41) = (   0.3333333  -0.5000000   0.0000000), wk =   0.0185185
        k(   42) = (   0.3333333  -0.5000000   0.1666667), wk =   0.0370370
        k(   43) = (   0.3333333  -0.5000000   0.3333333), wk =   0.0370370
        k(   44) = (   0.3333333  -0.5000000  -0.5000000), wk =   0.0185185
        k(   45) = (  -0.5000000  -0.0000000   0.0000000), wk =   0.0185185
        k(   46) = (  -0.5000000  -0.0000000   0.1666667), wk =   0.0370370
        k(   47) = (  -0.5000000  -0.0000000   0.3333333), wk =   0.0370370
        k(   48) = (  -0.5000000  -0.0000000  -0.5000000), wk =   0.0185185
        k(   49) = (  -0.5000000   0.1666667   0.0000000), wk =   0.0370370
        k(   50) = (  -0.5000000   0.1666667   0.1666667), wk =   0.0370370
        k(   51) = (  -0.5000000   0.1666667   0.3333333), wk =   0.0370370
        k(   52) = (  -0.5000000   0.1666667  -0.5000000), wk =   0.0370370
        k(   53) = (   0.0000000   0.1666667  -0.1666667), wk =   0.0185185
        k(   54) = (   0.0000000   0.1666667  -0.3333333), wk =   0.0185185
        k(   55) = (   0.0000000   0.3333333  -0.1666667), wk =   0.0185185
        k(   56) = (   0.0000000   0.3333333  -0.3333333), wk =   0.0185185
        k(   57) = (  -0.1666667   0.5000000  -0.1666667), wk =   0.0370370
        k(   58) = (  -0.1666667   0.5000000  -0.3333333), wk =   0.0370370
        k(   59) = (  -0.1666667   0.6666667  -0.1666667), wk =   0.0370370
        k(   60) = (  -0.1666667   0.6666667  -0.3333333), wk =   0.0370370
        k(   61) = (  -0.1666667   0.1666667  -0.1666667), wk =   0.0370370
        k(   62) = (  -0.1666667   0.1666667  -0.3333333), wk =   0.0370370
        k(   63) = (  -0.3333333   1.1666667  -0.1666667), wk =   0.0370370
        k(   64) = (  -0.3333333   1.1666667  -0.3333333), wk =   0.0370370
        k(   65) = (  -0.3333333   1.3333333  -0.1666667), wk =   0.0370370
        k(   66) = (  -0.3333333   1.3333333  -0.3333333), wk =   0.0370370
        k(   67) = (   0.5000000  -1.3333333  -0.1666667), wk =   0.0370370
        k(   68) = (   0.5000000  -1.3333333  -0.3333333), wk =   0.0370370

     Check: negative core charge=   -0.000001

     Initial potential from superposition of free atoms

     starting charge     107.9776, renormalised to     108.0000
     Starting wfcs are   78 randomized atomic wfcs

     Self-consistent Calculation

     iteration #  1     ecut=    50.00 Ry     beta= 0.30
     Davidson diagonalization with overlap

     ethr =  1.00E-02,  avg # of iterations =  2.3

     total energy              =   -1083.59163395 Ry
     estimated scf accuracy    <       2.15540844 Ry

[...]

     c_bands:  1 eigenvalues not converged
     ethr =  3.56E-09,  avg # of iterations = 13.3

[...]

     total energy              =   -1083.98439038 Ry
     estimated scf accuracy    <       0.00000087 Ry

     iteration # 15     ecut=    50.00 Ry     beta= 0.30
     Davidson diagonalization with overlap

     ethr =  8.03E-10,  avg # of iterations =  3.8

     End of self-consistent calculation

          k = 0.0000 0.0000 0.0000 (  4173 PWs)   bands (ev):

    -8.2105  -7.4022  -7.4022  -6.5968  -6.4622  -6.4622   4.5157   4.5157
     4.8127   5.0200   5.0200   5.2751   5.2752   5.3414   5.5390   5.5390
     5.6167   5.6168   5.6723   5.6724   6.2195   6.2195   6.2718   6.2718
     7.3406   7.3407   7.5122   7.5123   7.6987   7.6987   7.8477   7.8477
     8.0666   8.0666   8.1737   8.1738   8.5008   8.7929   8.7929   9.3076
     9.3076   9.9439   9.9439  10.5486  10.5486  11.5560  11.5562  12.1443
    12.1443  12.3378  12.3378  13.1519  13.1520  13.2027

     occupation numbers
     1.0000   1.0000   1.0000   1.0000   1.0000   1.0000   1.0000   1.0000
     1.0000   1.0000   1.0000   1.0000   1.0000   1.0000   1.0000   1.0000
     1.0000   1.0000   1.0000   1.0000   1.0000   1.0000   1.0000   1.0000
     1.0000   1.0000   1.0000   1.0000   1.0000   1.0000   1.0000   1.0000
     1.0000   1.0000   1.0000   1.0000   1.0000   1.0000   1.0000   1.0000
     1.0000   1.0000   1.0000   1.0000   1.0000   1.0000   1.0000   1.0000
     1.0000   1.0000   1.0000   1.0000   1.0000   1.0000

[...]

          k =-0.5000-0.2887 0.0000 (  4134 PWs)   bands (ev):

[...]

          k =-0.3333 0.3208-0.2294 (  4132 PWs)   bands (ev):

[...]

          k = 0.5000-0.2245-0.2294 (  4126 PWs)   bands (ev):

    -6.8617  -6.8527  -6.8478  -6.5904  -6.5889  -6.5864   4.1537   4.1984
     4.2218   4.2784   4.3907   4.4377   5.3866   5.4903   5.5677   5.6077
     5.6424   5.6873   5.9650   6.0190   6.0736   6.1712   6.1930   6.2058
     7.6426   7.7866   7.8726   7.8955   7.9119   7.9422   8.0967   8.1461
     8.1848   8.2474   8.2981   8.3902   8.7007   8.7015   8.8045   8.9023
     9.0733   9.2949   9.6416   9.9005  10.0818  10.6695  10.9812  10.9871
    11.1553  11.2106  11.3722  12.0213  12.0252  12.0257

     occupation numbers
     1.0000   1.0000   1.0000   1.0000   1.0000   1.0000   1.0000   1.0000
     1.0000   1.0000   1.0000   1.0000   1.0000   1.0000   1.0000   1.0000
     1.0000   1.0000   1.0000   1.0000   1.0000   1.0000   1.0000   1.0000
     1.0000   1.0000   1.0000   1.0000   1.0000   1.0000   1.0000   1.0000
     1.0000   1.0000   1.0000   1.0000   1.0000   1.0000   1.0000   1.0000
     1.0000   1.0000   1.0000   1.0000   1.0000   1.0000   1.0000   1.0000
     1.0000   1.0000   1.0000   1.0000   1.0000   1.0000

     highest occupied level (ev):    13.2027

!    total energy              =   -1083.98439075 Ry
     estimated scf accuracy    <          2.8E-09 Ry

     The total energy is the sum of the following terms:
     one-electron contribution =    -339.92199807 Ry
     hartree contribution      =     313.75926206 Ry
     xc contribution           =    -331.43471859 Ry
     ewald contribution        =    -726.38693615 Ry

     convergence has been achieved in  15 iterations

     Forces acting on atoms (cartesian axes, Ry/au):

     atom    1 type  1   force =     0.00000000    0.00001807   -0.17908462
     atom    2 type  1   force =     0.00000000    0.00003290   -0.17913218
     atom    3 type  2   force =     0.00000000    0.00001338    0.17910291
     atom    4 type  2   force =     0.00000000   -0.00000072    0.17911462
     atom    5 type  1   force =     0.00000000   -0.00000973   -0.17907598
     atom    6 type  1   force =     0.00000000    0.00002980   -0.17915037
     atom    7 type  2   force =     0.00000000    0.00000404    0.17909655
     atom    8 type  2   force =     0.00000000   -0.00000102    0.17911826
     atom    9 type  1   force =     0.00000000   -0.00005391   -0.17908782
     atom   10 type  1   force =     0.00000000   -0.00001781   -0.17910958
     atom   11 type  2   force =     0.00000000   -0.00000811    0.17910338
     atom   12 type  2   force =     0.00000000   -0.00000687    0.17910483
     The non-local contrib.  to forces
     atom    1 type  1   force =     0.00000000    0.00003172   -0.37106003
     atom    2 type  1   force =     0.00000000   -0.00001747   -0.37107343
     atom    3 type  2   force =     0.00000000    0.00015701   -0.19044695
     atom    4 type  2   force =     0.00000000   -0.00016083   -0.19044737
     atom    5 type  1   force =     0.00000000    0.00002856   -0.37106348
     atom    6 type  1   force =     0.00000000   -0.00001785   -0.37107833
     atom    7 type  2   force =     0.00000000    0.00015047   -0.19045066
     atom    8 type  2   force =     0.00000000   -0.00015072   -0.19044979
     atom    9 type  1   force =     0.00000000    0.00001147   -0.37106151
     atom   10 type  1   force =     0.00000000   -0.00003365   -0.37107128
     atom   11 type  2   force =     0.00000000    0.00015568   -0.19044639
     atom   12 type  2   force =     0.00000000   -0.00014925   -0.19045095
     The ionic contribution  to forces
     atom    1 type  1   force =    -0.00000000    0.00000001   -2.67035677
     atom    2 type  1   force =     0.00000000    0.00000001   -2.67035677
     atom    3 type  2   force =    -0.00000000    0.00000001    2.67035677
     atom    4 type  2   force =     0.00000000    0.00000000    2.67035677
     atom    5 type  1   force =    -0.00000001    0.00000001   -2.67035677
     atom    6 type  1   force =     0.00000001   -0.00000001   -2.67035677
     atom    7 type  2   force =    -0.00000001    0.00000001    2.67035677
     atom    8 type  2   force =     0.00000001   -0.00000001    2.67035677
     atom    9 type  1   force =    -0.00000000   -0.00000001   -2.67035677
     atom   10 type  1   force =     0.00000000   -0.00000001   -2.67035677
     atom   11 type  2   force =    -0.00000000   -0.00000000    2.67035677
     atom   12 type  2   force =     0.00000000   -0.00000001    2.67035677
     The local contribution  to forces
     atom    1 type  1   force =    -0.00000004   -0.00007002    2.82268979
     atom    2 type  1   force =    -0.00000000    0.00002957    2.82273196
     atom    3 type  2   force =    -0.00000001   -0.00017589   -2.30154739
     atom    4 type  2   force =    -0.00000000    0.00013416   -2.30156738
     atom    5 type  1   force =    -0.00000008   -0.00005143    2.82269538
     atom    6 type  1   force =     0.00000008    0.00002727    2.82274640
     atom    7 type  2   force =    -0.00000002   -0.00015097   -2.30152891
     atom    8 type  2   force =     0.00000002    0.00014642   -2.30157629
     atom    9 type  1   force =    -0.00000000   -0.00001034    2.82269522
     atom   10 type  1   force =     0.00000004    0.00007425    2.82271980
     atom   11 type  2   force =    -0.00000000   -0.00011976   -2.30154238
     atom   12 type  2   force =     0.00000001    0.00017473   -2.30156499
     The core correction contribution to forces
     atom    1 type  1   force =    -0.00000001    0.00000142    0.03961895
     atom    2 type  1   force =     0.00000000   -0.00000193    0.03961918
     atom    3 type  2   force =     0.00000000   -0.00000182    0.00073528
     atom    4 type  2   force =    -0.00000000    0.00000179    0.00073525
     atom    5 type  1   force =    -0.00000001    0.00000151    0.03961874
     atom    6 type  1   force =     0.00000001   -0.00000153    0.03961954
     atom    7 type  2   force =     0.00000000   -0.00000169    0.00073538
     atom    8 type  2   force =    -0.00000000    0.00000169    0.00073525
     atom    9 type  1   force =    -0.00000000    0.00000197    0.03961898
     atom   10 type  1   force =     0.00000001   -0.00000153    0.03961918
     atom   11 type  2   force =     0.00000000   -0.00000172    0.00073530
     atom   12 type  2   force =    -0.00000000    0.00000172    0.00073528
     The Hubbard contrib.    to forces
     atom    1 type  1   force =     0.00000000    0.00000000    0.00000000
     atom    2 type  1   force =     0.00000000    0.00000000    0.00000000
     atom    3 type  2   force =     0.00000000    0.00000000    0.00000000
     atom    4 type  2   force =     0.00000000    0.00000000    0.00000000
     atom    5 type  1   force =     0.00000000    0.00000000    0.00000000
     atom    6 type  1   force =     0.00000000    0.00000000    0.00000000
     atom    7 type  2   force =     0.00000000    0.00000000    0.00000000
     atom    8 type  2   force =     0.00000000    0.00000000    0.00000000
     atom    9 type  1   force =     0.00000000    0.00000000    0.00000000
     atom   10 type  1   force =     0.00000000    0.00000000    0.00000000
     atom   11 type  2   force =     0.00000000    0.00000000    0.00000000
     atom   12 type  2   force =     0.00000000    0.00000000    0.00000000
     The SCF correction term to forces
     atom    1 type  1   force =     0.00000000    0.00005510    0.00001678
     atom    2 type  1   force =    -0.00000000    0.00002287   -0.00005976
     atom    3 type  2   force =     0.00000000    0.00003423   -0.00000145
     atom    4 type  2   force =    -0.00000000    0.00002430    0.00003070
     atom    5 type  1   force =     0.00000000    0.00001178    0.00002350
     atom    6 type  1   force =    -0.00000000    0.00002209   -0.00008787
     atom    7 type  2   force =     0.00000000    0.00000637   -0.00002268
     atom    8 type  2   force =    -0.00000000    0.00000175    0.00004566
     atom    9 type  1   force =     0.00000000   -0.00005684    0.00000961
     atom   10 type  1   force =    -0.00000000   -0.00005671   -0.00002716
     atom   11 type  2   force =     0.00000000   -0.00004214   -0.00000656
     atom   12 type  2   force =    -0.00000000   -0.00003392    0.00002207

     Total force =     0.620444     Total SCF correction =     0.000180

     General routines

     Parallel routines

   This run was terminated on:  13: 8: 1  27Aug2025

   JOB DONE.