     Program PWSCF v.7.0 starts on 27Aug2025 at 23:59:13

     K-points division:     npool     =      17

     Reading input from /home/jvc/QEspresso7.2/ZnO_database/scripts/cell131.in/ZnO-3.40-1.65-131.in
Warning: card &CELL ignored
Warning: card / ignored
Warning: card &FCP ignored
Warning: card / ignored
Warning: card &RISM ignored
Warning: card / ignored

     Current dimensions of program PWSCF are:
     Max number of different atomic species (ntypx) = 10
     Max number of k-points (npk) =  40000
     Max angular momentum in pseudopotentials (lmaxx) =  4
     file Zn.upf: wavefunction(s)  3D renormalized
     Found identity + (  0.0000  0.3333  0.0000) symmetry
     This is a supercell, fractional translations are disabled
     Message from routine setup:
     using ibrav=0 with symmetry is DISCOURAGED, use correct ibrav instead

     Subspace diagonalization in iterative solution of the eigenvalue problem:
     a serial algorithm will be used

     Using Slab Decomposition

     bravais-lattice index     =            0
     lattice parameter (alat)  =       6.4260  a.u.
     unit-cell volume          =    1135.2090 (a.u.)^3
     number of atoms/cell      =           12
     number of atomic types    =            2
     number of electrons       =       108.00
     number of Kohn-Sham states=           54
     kinetic-energy cutoff     =      50.0000  Ry
     charge density cutoff     =     400.0000  Ry
     scf convergence threshold =      1.0E-08
     mixing beta               =       0.3000
     number of iterations used =            8  plain     mixing
     Exchange-correlation= PBE
                           (   1   4   3   4   0   0   0)

     celldm(1)=   6.426008  celldm(2)=   0.000000  celldm(3)=   0.000000
     celldm(4)=   0.000000  celldm(5)=   0.000000  celldm(6)=   0.000000

     crystal axes: (cart. coord. in units of alat)
               a(1) = (   1.000000   0.000000   0.000000 )
               a(2) = (  -1.500000   2.598076   0.000000 )
               a(3) = (   0.000000   0.000000   1.646646 )

     reciprocal axes: (cart. coord. in units 2 pi/alat)
               b(1) = (  1.000000  0.577350 -0.000000 )
               b(2) = (  0.000000  0.384900  0.000000 )
               b(3) = (  0.000000 -0.000000  0.607295 )

     PseudoPot. # 1 for Zn read from file:
     /home/jvc/QEspresso7.2/ZnO_database/pseudos/Zn.upf
     MD5 check sum: 7f56cabf9682ed8c977c2f7d0c5985c5
     Pseudo is Ultrasoft + core correction, Zval = 12.0
     Generated using &quot;atomic&quot; code by A. Dal Corso  v.6.2.2
     Using radial grid of 1201 points,  6 beta functions with:
                l(1) =   0
                l(2) =   0
                l(3) =   1
                l(4) =   1
                l(5) =   2
                l(6) =   2
     Q(r) pseudized with 0 coefficients

     PseudoPot. # 2 for O  read from file:
     /home/jvc/QEspresso7.2/ZnO_database/pseudos/O.upf
     MD5 check sum: 91400c9766925bcf19f520983a725ff0
     Pseudo is Ultrasoft + core correction, Zval =  6.0
     Generated using &quot;atomic&quot; code by A. Dal Corso  v.6.3MaX
     Using radial grid of 1095 points,  4 beta functions with:
                l(1) =   0
                l(2) =   0
                l(3) =   1
                l(4) =   1
     Q(r) pseudized with 0 coefficients

     atomic species   valence    mass     pseudopotential
        Zn            12.00    65.38000     Zn( 1.00)
        O              6.00    15.99900     O ( 1.00)

      2 Sym. Ops. (no inversion) found

                                    s                        frac. trans.

      isym =  1     identity

 cryst.   s( 1) = (     1          0          0      )
                  (     0          1          0      )
                  (     0          0          1      )

 cart.    s( 1) = (  1.0000000  0.0000000  0.0000000 )
                  (  0.0000000  1.0000000  0.0000000 )
                  (  0.0000000  0.0000000  1.0000000 )

      isym =  2     inv. 180 deg rotation - cart. axis [1,0,0]

 cryst.   s( 2) = (    -1          0          0      )
                  (     3          1          0      )
                  (     0          0          1      )

 cart.    s( 2) = ( -1.0000000  0.0000000  0.0000000 )
                  (  0.0000000  1.0000000  0.0000000 )
                  (  0.0000000  0.0000000  1.0000000 )

   Cartesian axes

     site n.     atom                  positions (alat units)
         1           Zn  tau(   1) = (   0.5000000   0.2886751   0.8243661  )
         2           Zn  tau(   2) = (   0.0000000   0.5773503   0.0010433  )
         3           O   tau(   3) = (   0.5000000   0.2886751   1.4485152  )
         4           O   tau(   4) = (   0.0000000   0.5773503   0.6251925  )
         5           Zn  tau(   5) = (   0.0000000   1.1547005   0.8243661  )
         6           Zn  tau(   6) = (  -0.5000000   1.4433757   0.0010433  )
         7           O   tau(   7) = (   0.0000000   1.1547005   1.4485152  )
         8           O   tau(   8) = (  -0.5000000   1.4433757   0.6251925  )
         9           Zn  tau(   9) = (  -0.5000000   2.0207259   0.8243661  )
        10           Zn  tau(  10) = (  -1.0000000   2.3094011   0.0010433  )
        11           O   tau(  11) = (  -0.5000000   2.0207259   1.4485152  )
        12           O   tau(  12) = (  -1.0000000   2.3094011   0.6251925  )

   Crystallographic axes

     site n.     atom                  positions (cryst. coord.)
         1           Zn  tau(   1) = (  0.6666667  0.1111111  0.5006336  )
         2           Zn  tau(   2) = (  0.3333333  0.2222222  0.0006336  )
         3           O   tau(   3) = (  0.6666667  0.1111111  0.8796764  )
         4           O   tau(   4) = (  0.3333333  0.2222222  0.3796764  )
         5           Zn  tau(   5) = (  0.6666667  0.4444444  0.5006336  )
         6           Zn  tau(   6) = (  0.3333333  0.5555556  0.0006336  )
         7           O   tau(   7) = (  0.6666667  0.4444444  0.8796764  )
         8           O   tau(   8) = (  0.3333333  0.5555556  0.3796764  )
         9           Zn  tau(   9) = (  0.6666667  0.7777778  0.5006336  )
        10           Zn  tau(  10) = (  0.3333333  0.8888889  0.0006336  )
        11           O   tau(  11) = (  0.6666667  0.7777778  0.8796764  )
        12           O   tau(  12) = (  0.3333333  0.8888889  0.3796764  )

     number of k points=    68
                       cart. coord. in units 2pi/alat
        k(    1) = (   0.0000000   0.0000000   0.0000000), wk =   0.0092593
        k(    2) = (   0.0000000   0.0000000   0.1012159), wk =   0.0185185
        k(    3) = (   0.0000000   0.0000000   0.2024317), wk =   0.0185185
        k(    4) = (   0.0000000   0.0000000  -0.3036476), wk =   0.0092593
        k(    5) = (   0.0000000   0.0641500   0.0000000), wk =   0.0185185
        k(    6) = (   0.0000000   0.0641500   0.1012159), wk =   0.0185185
        k(    7) = (   0.0000000   0.0641500   0.2024317), wk =   0.0185185
        k(    8) = (   0.0000000   0.0641500  -0.3036476), wk =   0.0185185
        k(    9) = (   0.0000000   0.1283001   0.0000000), wk =   0.0185185
        k(   10) = (   0.0000000   0.1283001   0.1012159), wk =   0.0185185
        k(   11) = (   0.0000000   0.1283001   0.2024317), wk =   0.0185185
        k(   12) = (   0.0000000   0.1283001  -0.3036476), wk =   0.0185185
        k(   13) = (   0.0000000  -0.1924501   0.0000000), wk =   0.0092593
        k(   14) = (   0.0000000  -0.1924501   0.1012159), wk =   0.0185185
        k(   15) = (   0.0000000  -0.1924501   0.2024317), wk =   0.0185185
        k(   16) = (   0.0000000  -0.1924501  -0.3036476), wk =   0.0092593
        k(   17) = (   0.1666667   0.0962250   0.0000000), wk =   0.0370370
        k(   18) = (   0.1666667   0.0962250   0.1012159), wk =   0.0370370
        k(   19) = (   0.1666667   0.0962250   0.2024317), wk =   0.0370370
        k(   20) = (   0.1666667   0.0962250  -0.3036476), wk =   0.0370370
        k(   21) = (   0.1666667   0.1603751   0.0000000), wk =   0.0370370
        k(   22) = (   0.1666667   0.1603751   0.1012159), wk =   0.0370370
        k(   23) = (   0.1666667   0.1603751   0.2024317), wk =   0.0370370
        k(   24) = (   0.1666667   0.1603751  -0.3036476), wk =   0.0370370
        k(   25) = (   0.1666667  -0.0320750   0.0000000), wk =   0.0370370
        k(   26) = (   0.1666667  -0.0320750   0.1012159), wk =   0.0370370
        k(   27) = (   0.1666667  -0.0320750   0.2024317), wk =   0.0370370
        k(   28) = (   0.1666667  -0.0320750  -0.3036476), wk =   0.0370370
        k(   29) = (   0.3333333   0.1924501   0.0000000), wk =   0.0185185
        k(   30) = (   0.3333333   0.1924501   0.1012159), wk =   0.0370370
        k(   31) = (   0.3333333   0.1924501   0.2024317), wk =   0.0370370
        k(   32) = (   0.3333333   0.1924501  -0.3036476), wk =   0.0185185
        k(   33) = (   0.3333333   0.2566001   0.0000000), wk =   0.0370370
        k(   34) = (   0.3333333   0.2566001   0.1012159), wk =   0.0370370
        k(   35) = (   0.3333333   0.2566001   0.2024317), wk =   0.0370370
        k(   36) = (   0.3333333   0.2566001  -0.3036476), wk =   0.0370370
        k(   37) = (   0.3333333   0.3207501   0.0000000), wk =   0.0370370
        k(   38) = (   0.3333333   0.3207501   0.1012159), wk =   0.0370370
        k(   39) = (   0.3333333   0.3207501   0.2024317), wk =   0.0370370
        k(   40) = (   0.3333333   0.3207501  -0.3036476), wk =   0.0370370
        k(   41) = (   0.3333333  -0.0000000   0.0000000), wk =   0.0185185
        k(   42) = (   0.3333333  -0.0000000   0.1012159), wk =   0.0370370
        k(   43) = (   0.3333333  -0.0000000   0.2024317), wk =   0.0370370
        k(   44) = (   0.3333333  -0.0000000  -0.3036476), wk =   0.0185185
        k(   45) = (  -0.5000000  -0.2886751   0.0000000), wk =   0.0185185
        k(   46) = (  -0.5000000  -0.2886751   0.1012159), wk =   0.0370370
        k(   47) = (  -0.5000000  -0.2886751   0.2024317), wk =   0.0370370
        k(   48) = (  -0.5000000  -0.2886751  -0.3036476), wk =   0.0185185
        k(   49) = (  -0.5000000  -0.2245251   0.0000000), wk =   0.0370370
        k(   50) = (  -0.5000000  -0.2245251   0.1012159), wk =   0.0370370
        k(   51) = (  -0.5000000  -0.2245251   0.2024317), wk =   0.0370370
        k(   52) = (  -0.5000000  -0.2245251  -0.3036476), wk =   0.0370370
        k(   53) = (   0.0000000   0.0641500  -0.1012159), wk =   0.0185185
        k(   54) = (   0.0000000   0.0641500  -0.2024317), wk =   0.0185185
        k(   55) = (   0.0000000   0.1283001  -0.1012159), wk =   0.0185185
        k(   56) = (   0.0000000   0.1283001  -0.2024317), wk =   0.0185185
        k(   57) = (  -0.1666667   0.0962250  -0.1012159), wk =   0.0370370
        k(   58) = (  -0.1666667   0.0962250  -0.2024317), wk =   0.0370370
        k(   59) = (  -0.1666667   0.1603751  -0.1012159), wk =   0.0370370
        k(   60) = (  -0.1666667   0.1603751  -0.2024317), wk =   0.0370370
        k(   61) = (  -0.1666667  -0.0320750  -0.1012159), wk =   0.0370370
        k(   62) = (  -0.1666667  -0.0320750  -0.2024317), wk =   0.0370370
        k(   63) = (  -0.3333333   0.2566001  -0.1012159), wk =   0.0370370
        k(   64) = (  -0.3333333   0.2566001  -0.2024317), wk =   0.0370370
        k(   65) = (  -0.3333333   0.3207501  -0.1012159), wk =   0.0370370
        k(   66) = (  -0.3333333   0.3207501  -0.2024317), wk =   0.0370370
        k(   67) = (   0.5000000  -0.2245251  -0.1012159), wk =   0.0370370
        k(   68) = (   0.5000000  -0.2245251  -0.2024317), wk =   0.0370370

                       cryst. coord.
        k(    1) = (   0.0000000   0.0000000   0.0000000), wk =   0.0092593
        k(    2) = (   0.0000000   0.0000000   0.1666667), wk =   0.0185185
        k(    3) = (   0.0000000   0.0000000   0.3333333), wk =   0.0185185
        k(    4) = (   0.0000000   0.0000000  -0.5000000), wk =   0.0092593
        k(    5) = (   0.0000000   0.1666667   0.0000000), wk =   0.0185185
        k(    6) = (   0.0000000   0.1666667   0.1666667), wk =   0.0185185
        k(    7) = (   0.0000000   0.1666667   0.3333333), wk =   0.0185185
        k(    8) = (   0.0000000   0.1666667  -0.5000000), wk =   0.0185185
        k(    9) = (   0.0000000   0.3333333   0.0000000), wk =   0.0185185
        k(   10) = (   0.0000000   0.3333333   0.1666667), wk =   0.0185185
        k(   11) = (   0.0000000   0.3333333   0.3333333), wk =   0.0185185
        k(   12) = (   0.0000000   0.3333333  -0.5000000), wk =   0.0185185
        k(   13) = (   0.0000000  -0.5000000   0.0000000), wk =   0.0092593
        k(   14) = (   0.0000000  -0.5000000   0.1666667), wk =   0.0185185
        k(   15) = (   0.0000000  -0.5000000   0.3333333), wk =   0.0185185
        k(   16) = (   0.0000000  -0.5000000  -0.5000000), wk =   0.0092593
        k(   17) = (   0.1666667   0.0000000   0.0000000), wk =   0.0370370
        k(   18) = (   0.1666667   0.0000000   0.1666667), wk =   0.0370370
        k(   19) = (   0.1666667   0.0000000   0.3333333), wk =   0.0370370
        k(   20) = (   0.1666667   0.0000000  -0.5000000), wk =   0.0370370
        k(   21) = (   0.1666667   0.1666667   0.0000000), wk =   0.0370370
        k(   22) = (   0.1666667   0.1666667   0.1666667), wk =   0.0370370
        k(   23) = (   0.1666667   0.1666667   0.3333333), wk =   0.0370370
        k(   24) = (   0.1666667   0.1666667  -0.5000000), wk =   0.0370370
        k(   25) = (   0.1666667  -0.3333333   0.0000000), wk =   0.0370370
        k(   26) = (   0.1666667  -0.3333333   0.1666667), wk =   0.0370370
        k(   27) = (   0.1666667  -0.3333333   0.3333333), wk =   0.0370370
        k(   28) = (   0.1666667  -0.3333333  -0.5000000), wk =   0.0370370
        k(   29) = (   0.3333333   0.0000000   0.0000000), wk =   0.0185185
        k(   30) = (   0.3333333   0.0000000   0.1666667), wk =   0.0370370
        k(   31) = (   0.3333333   0.0000000   0.3333333), wk =   0.0370370
        k(   32) = (   0.3333333   0.0000000  -0.5000000), wk =   0.0185185
        k(   33) = (   0.3333333   0.1666667   0.0000000), wk =   0.0370370
        k(   34) = (   0.3333333   0.1666667   0.1666667), wk =   0.0370370
        k(   35) = (   0.3333333   0.1666667   0.3333333), wk =   0.0370370
        k(   36) = (   0.3333333   0.1666667  -0.5000000), wk =   0.0370370
        k(   37) = (   0.3333333   0.3333333   0.0000000), wk =   0.0370370
        k(   38) = (   0.3333333   0.3333333   0.1666667), wk =   0.0370370
        k(   39) = (   0.3333333   0.3333333   0.3333333), wk =   0.0370370
        k(   40) = (   0.3333333   0.3333333  -0.5000000), wk =   0.0370370
        k(   41) = (   0.3333333  -0.5000000   0.0000000), wk =   0.0185185
        k(   42) = (   0.3333333  -0.5000000   0.1666667), wk =   0.0370370
        k(   43) = (   0.3333333  -0.5000000   0.3333333), wk =   0.0370370
        k(   44) = (   0.3333333  -0.5000000  -0.5000000), wk =   0.0185185
        k(   45) = (  -0.5000000   0.0000000   0.0000000), wk =   0.0185185
        k(   46) = (  -0.5000000   0.0000000   0.1666667), wk =   0.0370370
        k(   47) = (  -0.5000000   0.0000000   0.3333333), wk =   0.0370370
        k(   48) = (  -0.5000000   0.0000000  -0.5000000), wk =   0.0185185
        k(   49) = (  -0.5000000   0.1666667   0.0000000), wk =   0.0370370
        k(   50) = (  -0.5000000   0.1666667   0.1666667), wk =   0.0370370
        k(   51) = (  -0.5000000   0.1666667   0.3333333), wk =   0.0370370
        k(   52) = (  -0.5000000   0.1666667  -0.5000000), wk =   0.0370370
        k(   53) = (   0.0000000   0.1666667  -0.1666667), wk =   0.0185185
        k(   54) = (   0.0000000   0.1666667  -0.3333333), wk =   0.0185185
        k(   55) = (   0.0000000   0.3333333  -0.1666667), wk =   0.0185185
        k(   56) = (   0.0000000   0.3333333  -0.3333333), wk =   0.0185185
        k(   57) = (  -0.1666667   0.5000000  -0.1666667), wk =   0.0370370
        k(   58) = (  -0.1666667   0.5000000  -0.3333333), wk =   0.0370370
        k(   59) = (  -0.1666667   0.6666667  -0.1666667), wk =   0.0370370
        k(   60) = (  -0.1666667   0.6666667  -0.3333333), wk =   0.0370370
        k(   61) = (  -0.1666667   0.1666667  -0.1666667), wk =   0.0370370
        k(   62) = (  -0.1666667   0.1666667  -0.3333333), wk =   0.0370370
        k(   63) = (  -0.3333333   1.1666667  -0.1666667), wk =   0.0370370
        k(   64) = (  -0.3333333   1.1666667  -0.3333333), wk =   0.0370370
        k(   65) = (  -0.3333333   1.3333333  -0.1666667), wk =   0.0370370
        k(   66) = (  -0.3333333   1.3333333  -0.3333333), wk =   0.0370370
        k(   67) = (   0.5000000  -1.3333333  -0.1666667), wk =   0.0370370
        k(   68) = (   0.5000000  -1.3333333  -0.3333333), wk =   0.0370370

     Check: negative core charge=   -0.000002

     Initial potential from superposition of free atoms

     starting charge     107.9776, renormalised to     108.0000
     Starting wfcs are   78 randomized atomic wfcs

     Self-consistent Calculation

     iteration #  1     ecut=    50.00 Ry     beta= 0.30
     Davidson diagonalization with overlap

     ethr =  1.00E-02,  avg # of iterations =  1.7

     total energy              =   -1084.31213058 Ry
     estimated scf accuracy    <       2.25510895 Ry

[...]

     c_bands:  1 eigenvalues not converged
     ethr =  2.90E-11,  avg # of iterations = 11.4

[...]

     total energy              =   -1084.84559544 Ry
     estimated scf accuracy    <       0.00000018 Ry

     iteration # 38     ecut=    50.00 Ry     beta= 0.30
     Davidson diagonalization with overlap

     ethr =  2.90E-11,  avg # of iterations =  7.7

     End of self-consistent calculation

          k = 0.0000 0.0000 0.0000 (  6781 PWs)   bands (ev):

   -11.8995 -11.5601 -11.5600 -11.4232 -11.2890 -11.2889  -0.1647  -0.1646
    -0.0553  -0.0550  -0.0204   0.0590   0.0590   0.0786   0.0788   0.1079
     0.1080   0.3142   0.3142   0.3855   0.3855   0.4203   0.5424   0.5424
     0.6768   0.6768   0.7133   0.7133   0.7656   0.7656   0.8463   0.8463
     0.8669   0.8670   1.0341   1.0341   1.1717   1.6447   1.6447   2.2692
     2.2692   2.9534   2.9534   3.6348   3.6348   4.3891   4.3892   4.4678
     4.4683   4.5570   4.5571   4.9601   5.0465   5.0471

     occupation numbers
     1.0000   1.0000   1.0000   1.0000   1.0000   1.0000   1.0000   1.0000
     1.0000   1.0000   1.0000   1.0000   1.0000   1.0000   1.0000   1.0000
     1.0000   1.0000   1.0000   1.0000   1.0000   1.0000   1.0000   1.0000
     1.0000   1.0000   1.0000   1.0000   1.0000   1.0000   1.0000   1.0000
     1.0000   1.0000   1.0000   1.0000   1.0000   1.0000   1.0000   1.0000
     1.0000   1.0000   1.0000   1.0000   1.0000   1.0000   1.0000   1.0000
     1.0000   1.0000   1.0000   1.0000   1.0000   1.0000

[...]

          k =-0.5000-0.2887 0.0000 (  6786 PWs)   bands (ev):

[...]

          k =-0.3333 0.3208-0.2024 (  6772 PWs)   bands (ev):

[...]

          k = 0.5000-0.2245-0.2024 (  6776 PWs)   bands (ev):

   -11.3798 -11.3776 -11.3765 -11.3029 -11.3026 -11.3021  -0.1636  -0.1306
    -0.0623  -0.0271  -0.0232   0.0176   0.1975   0.2118   0.2183   0.2884
     0.3921   0.3978   0.3993   0.4088   0.4218   0.4310   0.4392   0.4755
     0.7529   0.7951   0.8114   0.8214   0.8268   0.8346   0.8885   0.9010
     0.9100   0.9441   0.9704   1.0061   1.5111   1.5783   1.7543   1.7583
     1.8428   2.0210   2.9676   3.2517   3.3854   3.4685   3.5893   3.6097
     3.7075   3.8984   4.0358   4.1504   4.1601   4.1709

     occupation numbers
     1.0000   1.0000   1.0000   1.0000   1.0000   1.0000   1.0000   1.0000
     1.0000   1.0000   1.0000   1.0000   1.0000   1.0000   1.0000   1.0000
     1.0000   1.0000   1.0000   1.0000   1.0000   1.0000   1.0000   1.0000
     1.0000   1.0000   1.0000   1.0000   1.0000   1.0000   1.0000   1.0000
     1.0000   1.0000   1.0000   1.0000   1.0000   1.0000   1.0000   1.0000
     1.0000   1.0000   1.0000   1.0000   1.0000   1.0000   1.0000   1.0000
     1.0000   1.0000   1.0000   1.0000   1.0000   1.0000

     highest occupied level (ev):     5.0471

!    total energy              =   -1084.84559547 Ry
     estimated scf accuracy    <          4.8E-09 Ry

     The total energy is the sum of the following terms:
     one-electron contribution =    -509.98055479 Ry
     hartree contribution      =     371.57034365 Ry
     xc contribution           =    -327.85667271 Ry
     ewald contribution        =    -618.57871163 Ry

     convergence has been achieved in  38 iterations

     Forces acting on atoms (cartesian axes, Ry/au):

     atom    1 type  1   force =     0.00000000   -0.00001389    0.00106477
     atom    2 type  1   force =     0.00000000   -0.00002853    0.00105838
     atom    3 type  2   force =     0.00000000    0.00000569   -0.00106026
     atom    4 type  2   force =     0.00000000   -0.00000414   -0.00106113
     atom    5 type  1   force =     0.00000000   -0.00000837    0.00104844
     atom    6 type  1   force =     0.00000000   -0.00001226    0.00108319
     atom    7 type  2   force =     0.00000000    0.00000735   -0.00106110
     atom    8 type  2   force =     0.00000000   -0.00000470   -0.00106156
     atom    9 type  1   force =     0.00000000    0.00001442    0.00103915
     atom   10 type  1   force =     0.00000000    0.00004308    0.00107280
     atom   11 type  2   force =     0.00000000    0.00000601   -0.00106125
     atom   12 type  2   force =     0.00000000   -0.00000466   -0.00106145
     The non-local contrib.  to forces
     atom    1 type  1   force =     0.00000000   -0.00001624    0.04748908
     atom    2 type  1   force =     0.00000000   -0.00000452    0.04748948
     atom    3 type  2   force =     0.00000000    0.00024602    0.05658583
     atom    4 type  2   force =     0.00000000   -0.00024147    0.05659151
     atom    5 type  1   force =     0.00000000   -0.00001443    0.04748244
     atom    6 type  1   force =     0.00000000    0.00000037    0.04750407
     atom    7 type  2   force =     0.00000000    0.00025680    0.05658323
     atom    8 type  2   force =     0.00000000   -0.00024537    0.05659068
     atom    9 type  1   force =     0.00000000    0.00000210    0.04748045
     atom   10 type  1   force =     0.00000000    0.00003165    0.04749747
     atom   11 type  2   force =     0.00000000    0.00024093    0.05658133
     atom   12 type  2   force =     0.00000000   -0.00025758    0.05659137
     The ionic contribution  to forces
     atom    1 type  1   force =    -0.00000000    0.00000001    0.42995591
     atom    2 type  1   force =     0.00000000    0.00000001    0.42995591
     atom    3 type  2   force =    -0.00000000    0.00000000   -0.42995591
     atom    4 type  2   force =     0.00000000    0.00000000   -0.42995591
     atom    5 type  1   force =    -0.00000001    0.00000001    0.42995591
     atom    6 type  1   force =     0.00000001   -0.00000001    0.42995591
     atom    7 type  2   force =    -0.00000001    0.00000000   -0.42995591
     atom    8 type  2   force =     0.00000001   -0.00000000   -0.42995591
     atom    9 type  1   force =    -0.00000000   -0.00000001    0.42995591
     atom   10 type  1   force =     0.00000000   -0.00000001    0.42995591
     atom   11 type  2   force =    -0.00000000   -0.00000000   -0.42995591
     atom   12 type  2   force =     0.00000000   -0.00000000   -0.42995591
     The local contribution  to forces
     atom    1 type  1   force =    -0.00000004    0.00001885   -0.47337753
     atom    2 type  1   force =     0.00000000    0.00004807   -0.47335595
     atom    3 type  2   force =    -0.00000001   -0.00022785    0.37279865
     atom    4 type  2   force =     0.00000000    0.00024396    0.37281613
     atom    5 type  1   force =    -0.00000009    0.00001199   -0.47334519
     atom    6 type  1   force =     0.00000009    0.00002121   -0.47340053
     atom    7 type  2   force =    -0.00000002   -0.00023602    0.37279746
     atom    8 type  2   force =     0.00000002    0.00024380    0.37282337
     atom    9 type  1   force =    -0.00000000   -0.00002296   -0.47333483
     atom   10 type  1   force =     0.00000004   -0.00007242   -0.47338263
     atom   11 type  2   force =    -0.00000000   -0.00024992    0.37279633
     atom   12 type  2   force =     0.00000001    0.00022284    0.37282089
     The core correction contribution to forces
     atom    1 type  1   force =    -0.00000003    0.00000868   -0.00301811
     atom    2 type  1   force =     0.00000006   -0.00000960   -0.00301958
     atom    3 type  2   force =     0.00000000   -0.00000275   -0.00050191
     atom    4 type  2   force =    -0.00000000    0.00000272   -0.00050195
     atom    5 type  1   force =    -0.00000001    0.00000863   -0.00301924
     atom    6 type  1   force =     0.00000001   -0.00000875   -0.00301883
     atom    7 type  2   force =     0.00000000   -0.00000292   -0.00050189
     atom    8 type  2   force =    -0.00000000    0.00000277   -0.00050193
     atom    9 type  1   force =    -0.00000006    0.00000853   -0.00301948
     atom   10 type  1   force =     0.00000003   -0.00000737   -0.00301898
     atom   11 type  2   force =     0.00000000   -0.00000271   -0.00050187
     atom   12 type  2   force =    -0.00000000    0.00000289   -0.00050194
     The Hubbard contrib.    to forces
     atom    1 type  1   force =     0.00000000    0.00000000    0.00000000
     atom    2 type  1   force =     0.00000000    0.00000000    0.00000000
     atom    3 type  2   force =     0.00000000    0.00000000    0.00000000
     atom    4 type  2   force =     0.00000000    0.00000000    0.00000000
     atom    5 type  1   force =     0.00000000    0.00000000    0.00000000
     atom    6 type  1   force =     0.00000000    0.00000000    0.00000000
     atom    7 type  2   force =     0.00000000    0.00000000    0.00000000
     atom    8 type  2   force =     0.00000000    0.00000000    0.00000000
     atom    9 type  1   force =     0.00000000    0.00000000    0.00000000
     atom   10 type  1   force =     0.00000000    0.00000000    0.00000000
     atom   11 type  2   force =     0.00000000    0.00000000    0.00000000
     atom   12 type  2   force =     0.00000000    0.00000000    0.00000000
     The SCF correction term to forces
     atom    1 type  1   force =    -0.00000000   -0.00002609    0.00001568
     atom    2 type  1   force =     0.00000000   -0.00006339   -0.00001123
     atom    3 type  2   force =    -0.00000000   -0.00001065    0.00001333
     atom    4 type  2   force =     0.00000000   -0.00001027   -0.00001066
     atom    5 type  1   force =     0.00000000   -0.00001548   -0.00002522
     atom    6 type  1   force =    -0.00000000   -0.00002600    0.00004283
     atom    7 type  2   force =     0.00000000   -0.00001143    0.00001626
     atom    8 type  2   force =    -0.00000000   -0.00000680   -0.00001752
     atom    9 type  1   force =    -0.00000000    0.00002584   -0.00004265
     atom   10 type  1   force =     0.00000000    0.00009032    0.00002129
     atom   11 type  2   force =    -0.00000000    0.00001680    0.00001913
     atom   12 type  2   force =     0.00000000    0.00002628   -0.00001561

     Total force =     0.003676     Total SCF correction =     0.000150

     General routines

     Parallel routines

   This run was terminated on:   0: 9:39  28Aug2025

   JOB DONE.