     Program PWSCF v.7.0 starts on 27Aug2025 at 15: 6:21

     K-points division:     npool     =      17

     Reading input from /home/jvc/QEspresso7.2/ZnO_database/scripts/cell131.in/ZnO-3.07-1.71-131.in
Warning: card &CELL ignored
Warning: card / ignored
Warning: card &FCP ignored
Warning: card / ignored
Warning: card &RISM ignored
Warning: card / ignored

     Current dimensions of program PWSCF are:
     Max number of different atomic species (ntypx) = 10
     Max number of k-points (npk) =  40000
     Max angular momentum in pseudopotentials (lmaxx) =  4
     file Zn.upf: wavefunction(s)  3D renormalized
     Found identity + (  0.0000  0.3333  0.0000) symmetry
     This is a supercell, fractional translations are disabled
     Message from routine setup:
     using ibrav=0 with symmetry is DISCOURAGED, use correct ibrav instead

     Subspace diagonalization in iterative solution of the eigenvalue problem:
     a serial algorithm will be used

     Using Slab Decomposition

     bravais-lattice index     =            0
     lattice parameter (alat)  =       5.8081  a.u.
     unit-cell volume          =     871.0941 (a.u.)^3
     number of atoms/cell      =           12
     number of atomic types    =            2
     number of electrons       =       108.00
     number of Kohn-Sham states=           54
     kinetic-energy cutoff     =      50.0000  Ry
     charge density cutoff     =     400.0000  Ry
     scf convergence threshold =      1.0E-08
     mixing beta               =       0.3000
     number of iterations used =            8  plain     mixing
     Exchange-correlation= PBE
                           (   1   4   3   4   0   0   0)

     celldm(1)=   5.808123  celldm(2)=   0.000000  celldm(3)=   0.000000
     celldm(4)=   0.000000  celldm(5)=   0.000000  celldm(6)=   0.000000

     crystal axes: (cart. coord. in units of alat)
               a(1) = (   1.000000   0.000000   0.000000 )
               a(2) = (  -1.500000   2.598076   0.000000 )
               a(3) = (   0.000000   0.000000   1.711220 )

     reciprocal axes: (cart. coord. in units 2 pi/alat)
               b(1) = (  1.000000  0.577350 -0.000000 )
               b(2) = (  0.000000  0.384900  0.000000 )
               b(3) = (  0.000000 -0.000000  0.584378 )

     PseudoPot. # 1 for Zn read from file:
     /home/jvc/QEspresso7.2/ZnO_database/pseudos/Zn.upf
     MD5 check sum: 7f56cabf9682ed8c977c2f7d0c5985c5
     Pseudo is Ultrasoft + core correction, Zval = 12.0
     Generated using &quot;atomic&quot; code by A. Dal Corso  v.6.2.2
     Using radial grid of 1201 points,  6 beta functions with:
                l(1) =   0
                l(2) =   0
                l(3) =   1
                l(4) =   1
                l(5) =   2
                l(6) =   2
     Q(r) pseudized with 0 coefficients

     PseudoPot. # 2 for O  read from file:
     /home/jvc/QEspresso7.2/ZnO_database/pseudos/O.upf
     MD5 check sum: 91400c9766925bcf19f520983a725ff0
     Pseudo is Ultrasoft + core correction, Zval =  6.0
     Generated using &quot;atomic&quot; code by A. Dal Corso  v.6.3MaX
     Using radial grid of 1095 points,  4 beta functions with:
                l(1) =   0
                l(2) =   0
                l(3) =   1
                l(4) =   1
     Q(r) pseudized with 0 coefficients

     atomic species   valence    mass     pseudopotential
        Zn            12.00    65.38000     Zn( 1.00)
        O              6.00    15.99900     O ( 1.00)

      2 Sym. Ops. (no inversion) found

                                    s                        frac. trans.

      isym =  1     identity

 cryst.   s( 1) = (     1          0          0      )
                  (     0          1          0      )
                  (     0          0          1      )

 cart.    s( 1) = (  1.0000000  0.0000000  0.0000000 )
                  (  0.0000000  1.0000000  0.0000000 )
                  (  0.0000000  0.0000000  1.0000000 )

      isym =  2     inv. 180 deg rotation - cart. axis [1,0,0]

 cryst.   s( 2) = (    -1          0          0      )
                  (     3          1          0      )
                  (     0          0          1      )

 cart.    s( 2) = ( -1.0000000  0.0000000  0.0000000 )
                  (  0.0000000  1.0000000  0.0000000 )
                  (  0.0000000  0.0000000  1.0000000 )

   Cartesian axes

     site n.     atom                  positions (alat units)
         1           Zn  tau(   1) = (   0.5000000   0.2886751   0.8566941  )
         2           Zn  tau(   2) = (   0.0000000   0.5773503   0.0010842  )
         3           O   tau(   3) = (   0.5000000   0.2886751   1.5053197  )
         4           O   tau(   4) = (   0.0000000   0.5773503   0.6497098  )
         5           Zn  tau(   5) = (   0.0000000   1.1547005   0.8566941  )
         6           Zn  tau(   6) = (  -0.5000000   1.4433757   0.0010842  )
         7           O   tau(   7) = (   0.0000000   1.1547005   1.5053197  )
         8           O   tau(   8) = (  -0.5000000   1.4433757   0.6497098  )
         9           Zn  tau(   9) = (  -0.5000000   2.0207259   0.8566941  )
        10           Zn  tau(  10) = (  -1.0000000   2.3094011   0.0010842  )
        11           O   tau(  11) = (  -0.5000000   2.0207259   1.5053197  )
        12           O   tau(  12) = (  -1.0000000   2.3094011   0.6497098  )

   Crystallographic axes

     site n.     atom                  positions (cryst. coord.)
         1           Zn  tau(   1) = (  0.6666667  0.1111111  0.5006336  )
         2           Zn  tau(   2) = (  0.3333333  0.2222222  0.0006336  )
         3           O   tau(   3) = (  0.6666667  0.1111111  0.8796764  )
         4           O   tau(   4) = (  0.3333333  0.2222222  0.3796764  )
         5           Zn  tau(   5) = (  0.6666667  0.4444444  0.5006336  )
         6           Zn  tau(   6) = (  0.3333333  0.5555556  0.0006336  )
         7           O   tau(   7) = (  0.6666667  0.4444444  0.8796764  )
         8           O   tau(   8) = (  0.3333333  0.5555556  0.3796764  )
         9           Zn  tau(   9) = (  0.6666667  0.7777778  0.5006336  )
        10           Zn  tau(  10) = (  0.3333333  0.8888889  0.0006336  )
        11           O   tau(  11) = (  0.6666667  0.7777778  0.8796764  )
        12           O   tau(  12) = (  0.3333333  0.8888889  0.3796764  )

     number of k points=    68
                       cart. coord. in units 2pi/alat
        k(    1) = (   0.0000000   0.0000000   0.0000000), wk =   0.0092593
        k(    2) = (   0.0000000   0.0000000   0.0973964), wk =   0.0185185
        k(    3) = (   0.0000000   0.0000000   0.1947928), wk =   0.0185185
        k(    4) = (   0.0000000   0.0000000  -0.2921892), wk =   0.0092593
        k(    5) = (   0.0000000   0.0641500   0.0000000), wk =   0.0185185
        k(    6) = (   0.0000000   0.0641500   0.0973964), wk =   0.0185185
        k(    7) = (   0.0000000   0.0641500   0.1947928), wk =   0.0185185
        k(    8) = (   0.0000000   0.0641500  -0.2921892), wk =   0.0185185
        k(    9) = (   0.0000000   0.1283001   0.0000000), wk =   0.0185185
        k(   10) = (   0.0000000   0.1283001   0.0973964), wk =   0.0185185
        k(   11) = (   0.0000000   0.1283001   0.1947928), wk =   0.0185185
        k(   12) = (   0.0000000   0.1283001  -0.2921892), wk =   0.0185185
        k(   13) = (   0.0000000  -0.1924501   0.0000000), wk =   0.0092593
        k(   14) = (   0.0000000  -0.1924501   0.0973964), wk =   0.0185185
        k(   15) = (   0.0000000  -0.1924501   0.1947928), wk =   0.0185185
        k(   16) = (   0.0000000  -0.1924501  -0.2921892), wk =   0.0092593
        k(   17) = (   0.1666667   0.0962250   0.0000000), wk =   0.0370370
        k(   18) = (   0.1666667   0.0962250   0.0973964), wk =   0.0370370
        k(   19) = (   0.1666667   0.0962250   0.1947928), wk =   0.0370370
        k(   20) = (   0.1666667   0.0962250  -0.2921892), wk =   0.0370370
        k(   21) = (   0.1666667   0.1603751   0.0000000), wk =   0.0370370
        k(   22) = (   0.1666667   0.1603751   0.0973964), wk =   0.0370370
        k(   23) = (   0.1666667   0.1603751   0.1947928), wk =   0.0370370
        k(   24) = (   0.1666667   0.1603751  -0.2921892), wk =   0.0370370
        k(   25) = (   0.1666667  -0.0320750   0.0000000), wk =   0.0370370
        k(   26) = (   0.1666667  -0.0320750   0.0973964), wk =   0.0370370
        k(   27) = (   0.1666667  -0.0320750   0.1947928), wk =   0.0370370
        k(   28) = (   0.1666667  -0.0320750  -0.2921892), wk =   0.0370370
        k(   29) = (   0.3333333   0.1924501   0.0000000), wk =   0.0185185
        k(   30) = (   0.3333333   0.1924501   0.0973964), wk =   0.0370370
        k(   31) = (   0.3333333   0.1924501   0.1947928), wk =   0.0370370
        k(   32) = (   0.3333333   0.1924501  -0.2921892), wk =   0.0185185
        k(   33) = (   0.3333333   0.2566001   0.0000000), wk =   0.0370370
        k(   34) = (   0.3333333   0.2566001   0.0973964), wk =   0.0370370
        k(   35) = (   0.3333333   0.2566001   0.1947928), wk =   0.0370370
        k(   36) = (   0.3333333   0.2566001  -0.2921892), wk =   0.0370370
        k(   37) = (   0.3333333   0.3207501   0.0000000), wk =   0.0370370
        k(   38) = (   0.3333333   0.3207501   0.0973964), wk =   0.0370370
        k(   39) = (   0.3333333   0.3207501   0.1947928), wk =   0.0370370
        k(   40) = (   0.3333333   0.3207501  -0.2921892), wk =   0.0370370
        k(   41) = (   0.3333333  -0.0000000   0.0000000), wk =   0.0185185
        k(   42) = (   0.3333333  -0.0000000   0.0973964), wk =   0.0370370
        k(   43) = (   0.3333333  -0.0000000   0.1947928), wk =   0.0370370
        k(   44) = (   0.3333333  -0.0000000  -0.2921892), wk =   0.0185185
        k(   45) = (  -0.5000000  -0.2886751   0.0000000), wk =   0.0185185
        k(   46) = (  -0.5000000  -0.2886751   0.0973964), wk =   0.0370370
        k(   47) = (  -0.5000000  -0.2886751   0.1947928), wk =   0.0370370
        k(   48) = (  -0.5000000  -0.2886751  -0.2921892), wk =   0.0185185
        k(   49) = (  -0.5000000  -0.2245251   0.0000000), wk =   0.0370370
        k(   50) = (  -0.5000000  -0.2245251   0.0973964), wk =   0.0370370
        k(   51) = (  -0.5000000  -0.2245251   0.1947928), wk =   0.0370370
        k(   52) = (  -0.5000000  -0.2245251  -0.2921892), wk =   0.0370370
        k(   53) = (   0.0000000   0.0641500  -0.0973964), wk =   0.0185185
        k(   54) = (   0.0000000   0.0641500  -0.1947928), wk =   0.0185185
        k(   55) = (   0.0000000   0.1283001  -0.0973964), wk =   0.0185185
        k(   56) = (   0.0000000   0.1283001  -0.1947928), wk =   0.0185185
        k(   57) = (  -0.1666667   0.0962250  -0.0973964), wk =   0.0370370
        k(   58) = (  -0.1666667   0.0962250  -0.1947928), wk =   0.0370370
        k(   59) = (  -0.1666667   0.1603751  -0.0973964), wk =   0.0370370
        k(   60) = (  -0.1666667   0.1603751  -0.1947928), wk =   0.0370370
        k(   61) = (  -0.1666667  -0.0320750  -0.0973964), wk =   0.0370370
        k(   62) = (  -0.1666667  -0.0320750  -0.1947928), wk =   0.0370370
        k(   63) = (  -0.3333333   0.2566001  -0.0973964), wk =   0.0370370
        k(   64) = (  -0.3333333   0.2566001  -0.1947928), wk =   0.0370370
        k(   65) = (  -0.3333333   0.3207501  -0.0973964), wk =   0.0370370
        k(   66) = (  -0.3333333   0.3207501  -0.1947928), wk =   0.0370370
        k(   67) = (   0.5000000  -0.2245251  -0.0973964), wk =   0.0370370
        k(   68) = (   0.5000000  -0.2245251  -0.1947928), wk =   0.0370370

                       cryst. coord.
        k(    1) = (   0.0000000   0.0000000   0.0000000), wk =   0.0092593
        k(    2) = (   0.0000000   0.0000000   0.1666667), wk =   0.0185185
        k(    3) = (   0.0000000   0.0000000   0.3333333), wk =   0.0185185
        k(    4) = (   0.0000000   0.0000000  -0.5000000), wk =   0.0092593
        k(    5) = (   0.0000000   0.1666667   0.0000000), wk =   0.0185185
        k(    6) = (   0.0000000   0.1666667   0.1666667), wk =   0.0185185
        k(    7) = (   0.0000000   0.1666667   0.3333333), wk =   0.0185185
        k(    8) = (   0.0000000   0.1666667  -0.5000000), wk =   0.0185185
        k(    9) = (   0.0000000   0.3333333   0.0000000), wk =   0.0185185
        k(   10) = (   0.0000000   0.3333333   0.1666667), wk =   0.0185185
        k(   11) = (   0.0000000   0.3333333   0.3333333), wk =   0.0185185
        k(   12) = (   0.0000000   0.3333333  -0.5000000), wk =   0.0185185
        k(   13) = (   0.0000000  -0.5000000   0.0000000), wk =   0.0092593
        k(   14) = (   0.0000000  -0.5000000   0.1666667), wk =   0.0185185
        k(   15) = (   0.0000000  -0.5000000   0.3333333), wk =   0.0185185
        k(   16) = (   0.0000000  -0.5000000  -0.5000000), wk =   0.0092593
        k(   17) = (   0.1666667   0.0000000   0.0000000), wk =   0.0370370
        k(   18) = (   0.1666667   0.0000000   0.1666667), wk =   0.0370370
        k(   19) = (   0.1666667   0.0000000   0.3333333), wk =   0.0370370
        k(   20) = (   0.1666667   0.0000000  -0.5000000), wk =   0.0370370
        k(   21) = (   0.1666667   0.1666667   0.0000000), wk =   0.0370370
        k(   22) = (   0.1666667   0.1666667   0.1666667), wk =   0.0370370
        k(   23) = (   0.1666667   0.1666667   0.3333333), wk =   0.0370370
        k(   24) = (   0.1666667   0.1666667  -0.5000000), wk =   0.0370370
        k(   25) = (   0.1666667  -0.3333333   0.0000000), wk =   0.0370370
        k(   26) = (   0.1666667  -0.3333333   0.1666667), wk =   0.0370370
        k(   27) = (   0.1666667  -0.3333333   0.3333333), wk =   0.0370370
        k(   28) = (   0.1666667  -0.3333333  -0.5000000), wk =   0.0370370
        k(   29) = (   0.3333333   0.0000000   0.0000000), wk =   0.0185185
        k(   30) = (   0.3333333   0.0000000   0.1666667), wk =   0.0370370
        k(   31) = (   0.3333333   0.0000000   0.3333333), wk =   0.0370370
        k(   32) = (   0.3333333   0.0000000  -0.5000000), wk =   0.0185185
        k(   33) = (   0.3333333   0.1666667   0.0000000), wk =   0.0370370
        k(   34) = (   0.3333333   0.1666667   0.1666667), wk =   0.0370370
        k(   35) = (   0.3333333   0.1666667   0.3333333), wk =   0.0370370
        k(   36) = (   0.3333333   0.1666667  -0.5000000), wk =   0.0370370
        k(   37) = (   0.3333333   0.3333333   0.0000000), wk =   0.0370370
        k(   38) = (   0.3333333   0.3333333   0.1666667), wk =   0.0370370
        k(   39) = (   0.3333333   0.3333333   0.3333333), wk =   0.0370370
        k(   40) = (   0.3333333   0.3333333  -0.5000000), wk =   0.0370370
        k(   41) = (   0.3333333  -0.5000000   0.0000000), wk =   0.0185185
        k(   42) = (   0.3333333  -0.5000000   0.1666667), wk =   0.0370370
        k(   43) = (   0.3333333  -0.5000000   0.3333333), wk =   0.0370370
        k(   44) = (   0.3333333  -0.5000000  -0.5000000), wk =   0.0185185
        k(   45) = (  -0.5000000   0.0000000   0.0000000), wk =   0.0185185
        k(   46) = (  -0.5000000   0.0000000   0.1666667), wk =   0.0370370
        k(   47) = (  -0.5000000   0.0000000   0.3333333), wk =   0.0370370
        k(   48) = (  -0.5000000   0.0000000  -0.5000000), wk =   0.0185185
        k(   49) = (  -0.5000000   0.1666667   0.0000000), wk =   0.0370370
        k(   50) = (  -0.5000000   0.1666667   0.1666667), wk =   0.0370370
        k(   51) = (  -0.5000000   0.1666667   0.3333333), wk =   0.0370370
        k(   52) = (  -0.5000000   0.1666667  -0.5000000), wk =   0.0370370
        k(   53) = (   0.0000000   0.1666667  -0.1666667), wk =   0.0185185
        k(   54) = (   0.0000000   0.1666667  -0.3333333), wk =   0.0185185
        k(   55) = (   0.0000000   0.3333333  -0.1666667), wk =   0.0185185
        k(   56) = (   0.0000000   0.3333333  -0.3333333), wk =   0.0185185
        k(   57) = (  -0.1666667   0.5000000  -0.1666667), wk =   0.0370370
        k(   58) = (  -0.1666667   0.5000000  -0.3333333), wk =   0.0370370
        k(   59) = (  -0.1666667   0.6666667  -0.1666667), wk =   0.0370370
        k(   60) = (  -0.1666667   0.6666667  -0.3333333), wk =   0.0370370
        k(   61) = (  -0.1666667   0.1666667  -0.1666667), wk =   0.0370370
        k(   62) = (  -0.1666667   0.1666667  -0.3333333), wk =   0.0370370
        k(   63) = (  -0.3333333   1.1666667  -0.1666667), wk =   0.0370370
        k(   64) = (  -0.3333333   1.1666667  -0.3333333), wk =   0.0370370
        k(   65) = (  -0.3333333   1.3333333  -0.1666667), wk =   0.0370370
        k(   66) = (  -0.3333333   1.3333333  -0.3333333), wk =   0.0370370
        k(   67) = (   0.5000000  -1.3333333  -0.1666667), wk =   0.0370370
        k(   68) = (   0.5000000  -1.3333333  -0.3333333), wk =   0.0370370

     Check: negative core charge=   -0.000002

     Initial potential from superposition of free atoms

     starting charge     107.9776, renormalised to     108.0000
     Starting wfcs are   78 randomized atomic wfcs

     Self-consistent Calculation

     iteration #  1     ecut=    50.00 Ry     beta= 0.30
     Davidson diagonalization with overlap

     ethr =  1.00E-02,  avg # of iterations =  2.0

     total energy              =   -1084.36681323 Ry
     estimated scf accuracy    <       2.02181502 Ry

[...]

     c_bands:  1 eigenvalues not converged
     c_bands:  1 eigenvalues not converged
     c_bands:  1 eigenvalues not converged
     ethr =  1.71E-11,  avg # of iterations = 18.3

[...]

     c_bands:  1 eigenvalues not converged
     ethr =  1.71E-11,  avg # of iterations = 14.5

[...]

     total energy              =   -1084.79711347 Ry
     estimated scf accuracy    <       0.00000005 Ry

     iteration # 34     ecut=    50.00 Ry     beta= 0.30
     Davidson diagonalization with overlap

     ethr =  1.71E-11,  avg # of iterations =  5.5

     End of self-consistent calculation

          k = 0.0000 0.0000 0.0000 (  5229 PWs)   bands (ev):

   -10.0952  -9.4789  -9.4789  -9.3189  -9.0348  -9.0348   2.1052   2.1052
     2.2678   2.5229   2.5229   2.5882   2.5885   2.6631   2.7795   2.7797
     2.8709   2.8709   3.0994   3.0994   3.2730   3.2731   3.3083   3.3083
     3.9911   3.9911   4.1718   4.1718   4.2583   4.2583   4.3904   4.3904
     4.4276   4.4277   4.5533   4.5533   4.7647   4.8327   4.8327   5.4794
     5.4794   6.5413   6.5413   7.0013   7.0013   7.8945   7.8945   8.2069
     8.2069   8.2088   8.2092   8.6640   8.9735   8.9739

     occupation numbers
     1.0000   1.0000   1.0000   1.0000   1.0000   1.0000   1.0000   1.0000
     1.0000   1.0000   1.0000   1.0000   1.0000   1.0000   1.0000   1.0000
     1.0000   1.0000   1.0000   1.0000   1.0000   1.0000   1.0000   1.0000
     1.0000   1.0000   1.0000   1.0000   1.0000   1.0000   1.0000   1.0000
     1.0000   1.0000   1.0000   1.0000   1.0000   1.0000   1.0000   1.0000
     1.0000   1.0000   1.0000   1.0000   1.0000   1.0000   1.0000   1.0000
     1.0000   1.0000   1.0000   1.0000   1.0000   1.0000

[...]

          k =-0.5000-0.2887 0.0000 (  5180 PWs)   bands (ev):

[...]

          k =-0.3333 0.3208-0.1948 (  5198 PWs)   bands (ev):

[...]

          k = 0.5000-0.2245-0.1948 (  5176 PWs)   bands (ev):

    -9.1595  -9.1538  -9.1508  -9.0325  -9.0324  -9.0323   2.0832   2.1262
     2.1391   2.2157   2.3201   2.3699   2.8991   2.9775   2.9810   3.0266
     3.1770   3.2538   3.3299   3.3331   3.3393   3.3422   3.3505   3.3568
     4.1833   4.2664   4.3312   4.3360   4.3515   4.3755   4.4534   4.4761
     4.4908   4.5561   4.5958   4.6499   4.8370   4.8736   4.9845   5.0511
     5.1535   5.4876   6.0810   6.4270   6.4780   6.5657   6.7896   6.8782
     7.0875   7.2581   7.3846   7.5125   7.5333   7.5657

     occupation numbers
     1.0000   1.0000   1.0000   1.0000   1.0000   1.0000   1.0000   1.0000
     1.0000   1.0000   1.0000   1.0000   1.0000   1.0000   1.0000   1.0000
     1.0000   1.0000   1.0000   1.0000   1.0000   1.0000   1.0000   1.0000
     1.0000   1.0000   1.0000   1.0000   1.0000   1.0000   1.0000   1.0000
     1.0000   1.0000   1.0000   1.0000   1.0000   1.0000   1.0000   1.0000
     1.0000   1.0000   1.0000   1.0000   1.0000   1.0000   1.0000   1.0000
     1.0000   1.0000   1.0000   1.0000   1.0000   1.0000

     highest occupied level (ev):     8.9739

!    total energy              =   -1084.79711348 Ry
     estimated scf accuracy    <          1.6E-09 Ry

     The total energy is the sum of the following terms:
     one-electron contribution =    -419.47049642 Ry
     hartree contribution      =     339.46772051 Ry
     xc contribution           =    -329.48514684 Ry
     ewald contribution        =    -675.30919073 Ry

     convergence has been achieved in  34 iterations

     Forces acting on atoms (cartesian axes, Ry/au):

     atom    1 type  1   force =     0.00000000   -0.00000068    0.03071786
     atom    2 type  1   force =     0.00000000    0.00002817    0.03072307
     atom    3 type  2   force =     0.00000000    0.00000326   -0.03072096
     atom    4 type  2   force =     0.00000000   -0.00000390   -0.03072097
     atom    5 type  1   force =     0.00000000   -0.00001190    0.03071970
     atom    6 type  1   force =     0.00000000   -0.00000262    0.03071943
     atom    7 type  2   force =     0.00000000    0.00000337   -0.03072021
     atom    8 type  2   force =     0.00000000   -0.00000312   -0.03072042
     atom    9 type  1   force =     0.00000000   -0.00001759    0.03072333
     atom   10 type  1   force =     0.00000000    0.00000459    0.03072043
     atom   11 type  2   force =     0.00000000    0.00000405   -0.03072051
     atom   12 type  2   force =     0.00000000   -0.00000362   -0.03072075
     The non-local contrib.  to forces
     atom    1 type  1   force =     0.00000000    0.00002791    0.16811298
     atom    2 type  1   force =     0.00000000   -0.00001264    0.16811444
     atom    3 type  2   force =     0.00000000    0.00021142    0.14091167
     atom    4 type  2   force =     0.00000000   -0.00022143    0.14091217
     atom    5 type  1   force =     0.00000000    0.00002005    0.16811180
     atom    6 type  1   force =     0.00000000   -0.00002692    0.16811251
     atom    7 type  2   force =     0.00000000    0.00021480    0.14091195
     atom    8 type  2   force =     0.00000000   -0.00021138    0.14091323
     atom    9 type  1   force =     0.00000000    0.00001772    0.16811473
     atom   10 type  1   force =     0.00000000   -0.00002617    0.16811456
     atom   11 type  2   force =     0.00000000    0.00022192    0.14091291
     atom   12 type  2   force =     0.00000000   -0.00021711    0.14091109
     The ionic contribution  to forces
     atom    1 type  1   force =    -0.00000000    0.00000001    1.37965181
     atom    2 type  1   force =     0.00000000    0.00000001    1.37965181
     atom    3 type  2   force =    -0.00000000    0.00000001   -1.37965181
     atom    4 type  2   force =     0.00000000    0.00000000   -1.37965181
     atom    5 type  1   force =    -0.00000001    0.00000001    1.37965180
     atom    6 type  1   force =     0.00000001   -0.00000001    1.37965180
     atom    7 type  2   force =    -0.00000001    0.00000000   -1.37965180
     atom    8 type  2   force =     0.00000001   -0.00000000   -1.37965180
     atom    9 type  1   force =    -0.00000000   -0.00000001    1.37965181
     atom   10 type  1   force =     0.00000000   -0.00000001    1.37965181
     atom   11 type  2   force =    -0.00000000   -0.00000000   -1.37965181
     atom   12 type  2   force =     0.00000000   -0.00000001   -1.37965181
     The local contribution  to forces
     atom    1 type  1   force =    -0.00000004   -0.00005618   -1.50367006
     atom    2 type  1   force =     0.00000000    0.00001387   -1.50367606
     atom    3 type  2   force =    -0.00000001   -0.00021847    1.20904953
     atom    4 type  2   force =     0.00000000    0.00020539    1.20905321
     atom    5 type  1   force =    -0.00000008   -0.00004005   -1.50367162
     atom    6 type  1   force =     0.00000008    0.00005846   -1.50367122
     atom    7 type  2   force =    -0.00000002   -0.00020705    1.20904716
     atom    8 type  2   force =     0.00000002    0.00021959    1.20904978
     atom    9 type  1   force =     0.00000000   -0.00002812   -1.50367672
     atom   10 type  1   force =     0.00000004    0.00005230   -1.50367452
     atom   11 type  2   force =     0.00000000   -0.00020737    1.20904941
     atom   12 type  2   force =     0.00000001    0.00021168    1.20905027
     The core correction contribution to forces
     atom    1 type  1   force =    -0.00000001    0.00000857   -0.01336767
     atom    2 type  1   force =     0.00000000   -0.00000820   -0.01336756
     atom    3 type  2   force =     0.00000000   -0.00000239   -0.00103122
     atom    4 type  2   force =     0.00000000    0.00000251   -0.00103121
     atom    5 type  1   force =    -0.00000001    0.00000869   -0.01336743
     atom    6 type  1   force =     0.00000001   -0.00000869   -0.01336756
     atom    7 type  2   force =     0.00000000   -0.00000242   -0.00103122
     atom    8 type  2   force =    -0.00000000    0.00000240   -0.00103123
     atom    9 type  1   force =     0.00000000    0.00000826   -0.01336759
     atom   10 type  1   force =     0.00000001   -0.00000859   -0.01336762
     atom   11 type  2   force =    -0.00000000   -0.00000252   -0.00103123
     atom   12 type  2   force =    -0.00000000    0.00000246   -0.00103121
     The Hubbard contrib.    to forces
     atom    1 type  1   force =     0.00000000    0.00000000    0.00000000
     atom    2 type  1   force =     0.00000000    0.00000000    0.00000000
     atom    3 type  2   force =     0.00000000    0.00000000    0.00000000
     atom    4 type  2   force =     0.00000000    0.00000000    0.00000000
     atom    5 type  1   force =     0.00000000    0.00000000    0.00000000
     atom    6 type  1   force =     0.00000000    0.00000000    0.00000000
     atom    7 type  2   force =     0.00000000    0.00000000    0.00000000
     atom    8 type  2   force =     0.00000000    0.00000000    0.00000000
     atom    9 type  1   force =     0.00000000    0.00000000    0.00000000
     atom   10 type  1   force =     0.00000000    0.00000000    0.00000000
     atom   11 type  2   force =     0.00000000    0.00000000    0.00000000
     atom   12 type  2   force =     0.00000000    0.00000000    0.00000000
     The SCF correction term to forces
     atom    1 type  1   force =    -0.00000000    0.00001886   -0.00001135
     atom    2 type  1   force =    -0.00000000    0.00003498   -0.00000171
     atom    3 type  2   force =    -0.00000000    0.00001255   -0.00000129
     atom    4 type  2   force =    -0.00000000    0.00000948   -0.00000548
     atom    5 type  1   force =    -0.00000000   -0.00000076   -0.00000700
     atom    6 type  1   force =     0.00000000   -0.00002562   -0.00000827
     atom    7 type  2   force =    -0.00000000   -0.00000212    0.00000155
     atom    8 type  2   force =     0.00000000   -0.00001388   -0.00000254
     atom    9 type  1   force =    -0.00000000   -0.00001559   -0.00000105
     atom   10 type  1   force =     0.00000000   -0.00001310   -0.00000596
     atom   11 type  2   force =    -0.00000000   -0.00000814   -0.00000194
     atom   12 type  2   force =     0.00000000   -0.00000080   -0.00000124

     Total force =     0.106419     Total SCF correction =     0.000059

     General routines

     Parallel routines

   This run was terminated on:  15:15:15  27Aug2025

   JOB DONE.