     Program PWSCF v.7.0 starts on 28Aug2025 at  1:48: 9

     K-points division:     npool     =      17

     Reading input from /home/jvc/QEspresso7.2/ZnO_database/scripts/cell131.in/ZnO-3.47-1.65-131.in
Warning: card &CELL ignored
Warning: card / ignored
Warning: card &FCP ignored
Warning: card / ignored
Warning: card &RISM ignored
Warning: card / ignored

     Current dimensions of program PWSCF are:
     Max number of different atomic species (ntypx) = 10
     Max number of k-points (npk) =  40000
     Max angular momentum in pseudopotentials (lmaxx) =  4
     file Zn.upf: wavefunction(s)  3D renormalized
     Found identity + ( -0.0000  0.3333  0.0000) symmetry
     This is a supercell, fractional translations are disabled
     Message from routine setup:
     using ibrav=0 with symmetry is DISCOURAGED, use correct ibrav instead

     Subspace diagonalization in iterative solution of the eigenvalue problem:
     a serial algorithm will be used

     Using Slab Decomposition

     bravais-lattice index     =            0
     lattice parameter (alat)  =       6.5496  a.u.
     unit-cell volume          =    1201.9694 (a.u.)^3
     number of atoms/cell      =           12
     number of atomic types    =            2
     number of electrons       =       108.00
     number of Kohn-Sham states=           54
     kinetic-energy cutoff     =      50.0000  Ry
     charge density cutoff     =     400.0000  Ry
     scf convergence threshold =      1.0E-08
     mixing beta               =       0.3000
     number of iterations used =            8  plain     mixing
     Exchange-correlation= PBE
                           (   1   4   3   4   0   0   0)

     celldm(1)=   6.549585  celldm(2)=   0.000000  celldm(3)=   0.000000
     celldm(4)=   0.000000  celldm(5)=   0.000000  celldm(6)=   0.000000

     crystal axes: (cart. coord. in units of alat)
               a(1) = (   1.000000   0.000000   0.000000 )
               a(2) = (  -1.500000   2.598076   0.000000 )
               a(3) = (   0.000000   0.000000   1.646646 )

     reciprocal axes: (cart. coord. in units 2 pi/alat)
               b(1) = (  1.000000  0.577350 -0.000000 )
               b(2) = (  0.000000  0.384900  0.000000 )
               b(3) = (  0.000000 -0.000000  0.607295 )

     PseudoPot. # 1 for Zn read from file:
     /home/jvc/QEspresso7.2/ZnO_database/pseudos/Zn.upf
     MD5 check sum: 7f56cabf9682ed8c977c2f7d0c5985c5
     Pseudo is Ultrasoft + core correction, Zval = 12.0
     Generated using &quot;atomic&quot; code by A. Dal Corso  v.6.2.2
     Using radial grid of 1201 points,  6 beta functions with:
                l(1) =   0
                l(2) =   0
                l(3) =   1
                l(4) =   1
                l(5) =   2
                l(6) =   2
     Q(r) pseudized with 0 coefficients

     PseudoPot. # 2 for O  read from file:
     /home/jvc/QEspresso7.2/ZnO_database/pseudos/O.upf
     MD5 check sum: 91400c9766925bcf19f520983a725ff0
     Pseudo is Ultrasoft + core correction, Zval =  6.0
     Generated using &quot;atomic&quot; code by A. Dal Corso  v.6.3MaX
     Using radial grid of 1095 points,  4 beta functions with:
                l(1) =   0
                l(2) =   0
                l(3) =   1
                l(4) =   1
     Q(r) pseudized with 0 coefficients

     atomic species   valence    mass     pseudopotential
        Zn            12.00    65.38000     Zn( 1.00)
        O              6.00    15.99900     O ( 1.00)

      2 Sym. Ops. (no inversion) found

                                    s                        frac. trans.

      isym =  1     identity

 cryst.   s( 1) = (     1          0          0      )
                  (     0          1          0      )
                  (     0          0          1      )

 cart.    s( 1) = (  1.0000000  0.0000000  0.0000000 )
                  (  0.0000000  1.0000000  0.0000000 )
                  (  0.0000000  0.0000000  1.0000000 )

      isym =  2     inv. 180 deg rotation - cart. axis [1,0,0]

 cryst.   s( 2) = (    -1          0          0      )
                  (     3          1          0      )
                  (     0          0          1      )

 cart.    s( 2) = ( -1.0000000  0.0000000  0.0000000 )
                  (  0.0000000  1.0000000  0.0000000 )
                  (  0.0000000  0.0000000  1.0000000 )

   Cartesian axes

     site n.     atom                  positions (alat units)
         1           Zn  tau(   1) = (   0.5000000   0.2886751   0.8243661  )
         2           Zn  tau(   2) = (  -0.0000000   0.5773503   0.0010433  )
         3           O   tau(   3) = (   0.5000000   0.2886751   1.4485152  )
         4           O   tau(   4) = (  -0.0000000   0.5773503   0.6251925  )
         5           Zn  tau(   5) = (   0.0000000   1.1547005   0.8243661  )
         6           Zn  tau(   6) = (  -0.5000000   1.4433757   0.0010433  )
         7           O   tau(   7) = (   0.0000000   1.1547005   1.4485152  )
         8           O   tau(   8) = (  -0.5000000   1.4433757   0.6251925  )
         9           Zn  tau(   9) = (  -0.5000000   2.0207259   0.8243661  )
        10           Zn  tau(  10) = (  -1.0000000   2.3094011   0.0010433  )
        11           O   tau(  11) = (  -0.5000000   2.0207259   1.4485152  )
        12           O   tau(  12) = (  -1.0000000   2.3094011   0.6251925  )

   Crystallographic axes

     site n.     atom                  positions (cryst. coord.)
         1           Zn  tau(   1) = (  0.6666667  0.1111111  0.5006336  )
         2           Zn  tau(   2) = (  0.3333333  0.2222222  0.0006336  )
         3           O   tau(   3) = (  0.6666667  0.1111111  0.8796764  )
         4           O   tau(   4) = (  0.3333333  0.2222222  0.3796764  )
         5           Zn  tau(   5) = (  0.6666667  0.4444444  0.5006336  )
         6           Zn  tau(   6) = (  0.3333333  0.5555556  0.0006336  )
         7           O   tau(   7) = (  0.6666667  0.4444444  0.8796764  )
         8           O   tau(   8) = (  0.3333333  0.5555556  0.3796764  )
         9           Zn  tau(   9) = (  0.6666667  0.7777778  0.5006336  )
        10           Zn  tau(  10) = (  0.3333333  0.8888889  0.0006336  )
        11           O   tau(  11) = (  0.6666667  0.7777778  0.8796764  )
        12           O   tau(  12) = (  0.3333333  0.8888889  0.3796764  )

     number of k points=    68
                       cart. coord. in units 2pi/alat
        k(    1) = (   0.0000000   0.0000000   0.0000000), wk =   0.0092593
        k(    2) = (   0.0000000   0.0000000   0.1012159), wk =   0.0185185
        k(    3) = (   0.0000000   0.0000000   0.2024317), wk =   0.0185185
        k(    4) = (   0.0000000   0.0000000  -0.3036476), wk =   0.0092593
        k(    5) = (   0.0000000   0.0641500   0.0000000), wk =   0.0185185
        k(    6) = (   0.0000000   0.0641500   0.1012159), wk =   0.0185185
        k(    7) = (   0.0000000   0.0641500   0.2024317), wk =   0.0185185
        k(    8) = (   0.0000000   0.0641500  -0.3036476), wk =   0.0185185
        k(    9) = (   0.0000000   0.1283001   0.0000000), wk =   0.0185185
        k(   10) = (   0.0000000   0.1283001   0.1012159), wk =   0.0185185
        k(   11) = (   0.0000000   0.1283001   0.2024317), wk =   0.0185185
        k(   12) = (   0.0000000   0.1283001  -0.3036476), wk =   0.0185185
        k(   13) = (   0.0000000  -0.1924501   0.0000000), wk =   0.0092593
        k(   14) = (   0.0000000  -0.1924501   0.1012159), wk =   0.0185185
        k(   15) = (   0.0000000  -0.1924501   0.2024317), wk =   0.0185185
        k(   16) = (   0.0000000  -0.1924501  -0.3036476), wk =   0.0092593
        k(   17) = (   0.1666667   0.0962250   0.0000000), wk =   0.0370370
        k(   18) = (   0.1666667   0.0962250   0.1012159), wk =   0.0370370
        k(   19) = (   0.1666667   0.0962250   0.2024317), wk =   0.0370370
        k(   20) = (   0.1666667   0.0962250  -0.3036476), wk =   0.0370370
        k(   21) = (   0.1666667   0.1603751   0.0000000), wk =   0.0370370
        k(   22) = (   0.1666667   0.1603751   0.1012159), wk =   0.0370370
        k(   23) = (   0.1666667   0.1603751   0.2024317), wk =   0.0370370
        k(   24) = (   0.1666667   0.1603751  -0.3036476), wk =   0.0370370
        k(   25) = (   0.1666667  -0.0320750   0.0000000), wk =   0.0370370
        k(   26) = (   0.1666667  -0.0320750   0.1012159), wk =   0.0370370
        k(   27) = (   0.1666667  -0.0320750   0.2024317), wk =   0.0370370
        k(   28) = (   0.1666667  -0.0320750  -0.3036476), wk =   0.0370370
        k(   29) = (   0.3333333   0.1924501   0.0000000), wk =   0.0185185
        k(   30) = (   0.3333333   0.1924501   0.1012159), wk =   0.0370370
        k(   31) = (   0.3333333   0.1924501   0.2024317), wk =   0.0370370
        k(   32) = (   0.3333333   0.1924501  -0.3036476), wk =   0.0185185
        k(   33) = (   0.3333333   0.2566001   0.0000000), wk =   0.0370370
        k(   34) = (   0.3333333   0.2566001   0.1012159), wk =   0.0370370
        k(   35) = (   0.3333333   0.2566001   0.2024317), wk =   0.0370370
        k(   36) = (   0.3333333   0.2566001  -0.3036476), wk =   0.0370370
        k(   37) = (   0.3333333   0.3207501   0.0000000), wk =   0.0370370
        k(   38) = (   0.3333333   0.3207501   0.1012159), wk =   0.0370370
        k(   39) = (   0.3333333   0.3207501   0.2024317), wk =   0.0370370
        k(   40) = (   0.3333333   0.3207501  -0.3036476), wk =   0.0370370
        k(   41) = (   0.3333333  -0.0000000   0.0000000), wk =   0.0185185
        k(   42) = (   0.3333333  -0.0000000   0.1012159), wk =   0.0370370
        k(   43) = (   0.3333333  -0.0000000   0.2024317), wk =   0.0370370
        k(   44) = (   0.3333333  -0.0000000  -0.3036476), wk =   0.0185185
        k(   45) = (  -0.5000000  -0.2886751   0.0000000), wk =   0.0185185
        k(   46) = (  -0.5000000  -0.2886751   0.1012159), wk =   0.0370370
        k(   47) = (  -0.5000000  -0.2886751   0.2024317), wk =   0.0370370
        k(   48) = (  -0.5000000  -0.2886751  -0.3036476), wk =   0.0185185
        k(   49) = (  -0.5000000  -0.2245251   0.0000000), wk =   0.0370370
        k(   50) = (  -0.5000000  -0.2245251   0.1012159), wk =   0.0370370
        k(   51) = (  -0.5000000  -0.2245251   0.2024317), wk =   0.0370370
        k(   52) = (  -0.5000000  -0.2245251  -0.3036476), wk =   0.0370370
        k(   53) = (   0.0000000   0.0641500  -0.1012159), wk =   0.0185185
        k(   54) = (   0.0000000   0.0641500  -0.2024317), wk =   0.0185185
        k(   55) = (   0.0000000   0.1283001  -0.1012159), wk =   0.0185185
        k(   56) = (   0.0000000   0.1283001  -0.2024317), wk =   0.0185185
        k(   57) = (  -0.1666667   0.0962250  -0.1012159), wk =   0.0370370
        k(   58) = (  -0.1666667   0.0962250  -0.2024317), wk =   0.0370370
        k(   59) = (  -0.1666667   0.1603751  -0.1012159), wk =   0.0370370
        k(   60) = (  -0.1666667   0.1603751  -0.2024317), wk =   0.0370370
        k(   61) = (  -0.1666667  -0.0320750  -0.1012159), wk =   0.0370370
        k(   62) = (  -0.1666667  -0.0320750  -0.2024317), wk =   0.0370370
        k(   63) = (  -0.3333333   0.2566001  -0.1012159), wk =   0.0370370
        k(   64) = (  -0.3333333   0.2566001  -0.2024317), wk =   0.0370370
        k(   65) = (  -0.3333333   0.3207501  -0.1012159), wk =   0.0370370
        k(   66) = (  -0.3333333   0.3207501  -0.2024317), wk =   0.0370370
        k(   67) = (   0.5000000  -0.2245251  -0.1012159), wk =   0.0370370
        k(   68) = (   0.5000000  -0.2245251  -0.2024317), wk =   0.0370370

                       cryst. coord.
        k(    1) = (   0.0000000   0.0000000   0.0000000), wk =   0.0092593
        k(    2) = (   0.0000000   0.0000000   0.1666667), wk =   0.0185185
        k(    3) = (   0.0000000   0.0000000   0.3333333), wk =   0.0185185
        k(    4) = (   0.0000000   0.0000000  -0.5000000), wk =   0.0092593
        k(    5) = (   0.0000000   0.1666667   0.0000000), wk =   0.0185185
        k(    6) = (   0.0000000   0.1666667   0.1666667), wk =   0.0185185
        k(    7) = (   0.0000000   0.1666667   0.3333333), wk =   0.0185185
        k(    8) = (   0.0000000   0.1666667  -0.5000000), wk =   0.0185185
        k(    9) = (   0.0000000   0.3333333   0.0000000), wk =   0.0185185
        k(   10) = (   0.0000000   0.3333333   0.1666667), wk =   0.0185185
        k(   11) = (   0.0000000   0.3333333   0.3333333), wk =   0.0185185
        k(   12) = (   0.0000000   0.3333333  -0.5000000), wk =   0.0185185
        k(   13) = (   0.0000000  -0.5000000   0.0000000), wk =   0.0092593
        k(   14) = (   0.0000000  -0.5000000   0.1666667), wk =   0.0185185
        k(   15) = (   0.0000000  -0.5000000   0.3333333), wk =   0.0185185
        k(   16) = (   0.0000000  -0.5000000  -0.5000000), wk =   0.0092593
        k(   17) = (   0.1666667  -0.0000000   0.0000000), wk =   0.0370370
        k(   18) = (   0.1666667  -0.0000000   0.1666667), wk =   0.0370370
        k(   19) = (   0.1666667  -0.0000000   0.3333333), wk =   0.0370370
        k(   20) = (   0.1666667  -0.0000000  -0.5000000), wk =   0.0370370
        k(   21) = (   0.1666667   0.1666667   0.0000000), wk =   0.0370370
        k(   22) = (   0.1666667   0.1666667   0.1666667), wk =   0.0370370
        k(   23) = (   0.1666667   0.1666667   0.3333333), wk =   0.0370370
        k(   24) = (   0.1666667   0.1666667  -0.5000000), wk =   0.0370370
        k(   25) = (   0.1666667  -0.3333333   0.0000000), wk =   0.0370370
        k(   26) = (   0.1666667  -0.3333333   0.1666667), wk =   0.0370370
        k(   27) = (   0.1666667  -0.3333333   0.3333333), wk =   0.0370370
        k(   28) = (   0.1666667  -0.3333333  -0.5000000), wk =   0.0370370
        k(   29) = (   0.3333333  -0.0000000   0.0000000), wk =   0.0185185
        k(   30) = (   0.3333333  -0.0000000   0.1666667), wk =   0.0370370
        k(   31) = (   0.3333333  -0.0000000   0.3333333), wk =   0.0370370
        k(   32) = (   0.3333333  -0.0000000  -0.5000000), wk =   0.0185185
        k(   33) = (   0.3333333   0.1666667   0.0000000), wk =   0.0370370
        k(   34) = (   0.3333333   0.1666667   0.1666667), wk =   0.0370370
        k(   35) = (   0.3333333   0.1666667   0.3333333), wk =   0.0370370
        k(   36) = (   0.3333333   0.1666667  -0.5000000), wk =   0.0370370
        k(   37) = (   0.3333333   0.3333333   0.0000000), wk =   0.0370370
        k(   38) = (   0.3333333   0.3333333   0.1666667), wk =   0.0370370
        k(   39) = (   0.3333333   0.3333333   0.3333333), wk =   0.0370370
        k(   40) = (   0.3333333   0.3333333  -0.5000000), wk =   0.0370370
        k(   41) = (   0.3333333  -0.5000000   0.0000000), wk =   0.0185185
        k(   42) = (   0.3333333  -0.5000000   0.1666667), wk =   0.0370370
        k(   43) = (   0.3333333  -0.5000000   0.3333333), wk =   0.0370370
        k(   44) = (   0.3333333  -0.5000000  -0.5000000), wk =   0.0185185
        k(   45) = (  -0.5000000   0.0000000   0.0000000), wk =   0.0185185
        k(   46) = (  -0.5000000   0.0000000   0.1666667), wk =   0.0370370
        k(   47) = (  -0.5000000   0.0000000   0.3333333), wk =   0.0370370
        k(   48) = (  -0.5000000   0.0000000  -0.5000000), wk =   0.0185185
        k(   49) = (  -0.5000000   0.1666667   0.0000000), wk =   0.0370370
        k(   50) = (  -0.5000000   0.1666667   0.1666667), wk =   0.0370370
        k(   51) = (  -0.5000000   0.1666667   0.3333333), wk =   0.0370370
        k(   52) = (  -0.5000000   0.1666667  -0.5000000), wk =   0.0370370
        k(   53) = (   0.0000000   0.1666667  -0.1666667), wk =   0.0185185
        k(   54) = (   0.0000000   0.1666667  -0.3333333), wk =   0.0185185
        k(   55) = (   0.0000000   0.3333333  -0.1666667), wk =   0.0185185
        k(   56) = (   0.0000000   0.3333333  -0.3333333), wk =   0.0185185
        k(   57) = (  -0.1666667   0.5000000  -0.1666667), wk =   0.0370370
        k(   58) = (  -0.1666667   0.5000000  -0.3333333), wk =   0.0370370
        k(   59) = (  -0.1666667   0.6666667  -0.1666667), wk =   0.0370370
        k(   60) = (  -0.1666667   0.6666667  -0.3333333), wk =   0.0370370
        k(   61) = (  -0.1666667   0.1666667  -0.1666667), wk =   0.0370370
        k(   62) = (  -0.1666667   0.1666667  -0.3333333), wk =   0.0370370
        k(   63) = (  -0.3333333   1.1666667  -0.1666667), wk =   0.0370370
        k(   64) = (  -0.3333333   1.1666667  -0.3333333), wk =   0.0370370
        k(   65) = (  -0.3333333   1.3333333  -0.1666667), wk =   0.0370370
        k(   66) = (  -0.3333333   1.3333333  -0.3333333), wk =   0.0370370
        k(   67) = (   0.5000000  -1.3333333  -0.1666667), wk =   0.0370370
        k(   68) = (   0.5000000  -1.3333333  -0.3333333), wk =   0.0370370

     Check: negative core charge=   -0.000002

     Initial potential from superposition of free atoms

     starting charge     107.9776, renormalised to     108.0000
     Starting wfcs are   78 randomized atomic wfcs

     Self-consistent Calculation

     iteration #  1     ecut=    50.00 Ry     beta= 0.30
     Davidson diagonalization with overlap

     ethr =  1.00E-02,  avg # of iterations =  1.6

     total energy              =   -1084.21821484 Ry
     estimated scf accuracy    <       2.35577983 Ry

[...]

     c_bands:  1 eigenvalues not converged
     c_bands:  1 eigenvalues not converged
     ethr =  6.78E-08,  avg # of iterations = 14.6

[...]

     c_bands:  1 eigenvalues not converged
     ethr =  6.78E-08,  avg # of iterations = 14.0

[...]

     total energy              =   -1084.78120365 Ry
     estimated scf accuracy    <       0.00000006 Ry

     iteration # 44     ecut=    50.00 Ry     beta= 0.30
     Davidson diagonalization with overlap

     ethr =  5.37E-11,  avg # of iterations =  5.2

     End of self-consistent calculation

          k = 0.0000 0.0000 0.0000 (  7197 PWs)   bands (ev):

   -12.2484 -11.9515 -11.9514 -11.8331 -11.7155 -11.7155  -0.6589  -0.6589
    -0.6020  -0.6017  -0.5742  -0.4847  -0.4845  -0.4778  -0.4777  -0.4586
    -0.4585  -0.2641  -0.2641  -0.2158  -0.2158  -0.0814  -0.0814  -0.0342
     0.0231   0.0231   0.0420   0.0421   0.0887   0.0887   0.1576   0.1576
     0.1753   0.1753   0.3235   0.3235   0.5861   1.1641   1.1641   1.7288
     1.7288   2.3543   2.3543   3.0788   3.0788   3.7701   3.7701   3.8367
     3.8374   3.9187   3.9187   4.2923   4.3640   4.3647

     occupation numbers
     1.0000   1.0000   1.0000   1.0000   1.0000   1.0000   1.0000   1.0000
     1.0000   1.0000   1.0000   1.0000   1.0000   1.0000   1.0000   1.0000
     1.0000   1.0000   1.0000   1.0000   1.0000   1.0000   1.0000   1.0000
     1.0000   1.0000   1.0000   1.0000   1.0000   1.0000   1.0000   1.0000
     1.0000   1.0000   1.0000   1.0000   1.0000   1.0000   1.0000   1.0000
     1.0000   1.0000   1.0000   1.0000   1.0000   1.0000   1.0000   1.0000
     1.0000   1.0000   1.0000   1.0000   1.0000   1.0000

[...]

          k =-0.5000-0.2887 0.0000 (  7164 PWs)   bands (ev):

[...]

          k =-0.3333 0.3208-0.2024 (  7175 PWs)   bands (ev):

[...]

          k = 0.5000-0.2245-0.2024 (  7169 PWs)   bands (ev):

   -11.7946 -11.7928 -11.7919 -11.7276 -11.7274 -11.7270  -0.6541  -0.6262
    -0.5513  -0.5423  -0.5212  -0.4969  -0.3769  -0.3670  -0.3430  -0.2771
    -0.2094  -0.2045  -0.2030  -0.1874  -0.1679  -0.1658  -0.1460  -0.1051
     0.0808   0.1166   0.1289   0.1373   0.1426   0.1495   0.1990   0.2091
     0.2173   0.2448   0.2680   0.2991   0.9513   1.0247   1.2078   1.2095
     1.2827   1.4321   2.4506   2.7114   2.8342   2.9291   3.0363   3.0560
     3.1261   3.3103   3.4413   3.5513   3.5617   3.5733

     occupation numbers
     1.0000   1.0000   1.0000   1.0000   1.0000   1.0000   1.0000   1.0000
     1.0000   1.0000   1.0000   1.0000   1.0000   1.0000   1.0000   1.0000
     1.0000   1.0000   1.0000   1.0000   1.0000   1.0000   1.0000   1.0000
     1.0000   1.0000   1.0000   1.0000   1.0000   1.0000   1.0000   1.0000
     1.0000   1.0000   1.0000   1.0000   1.0000   1.0000   1.0000   1.0000
     1.0000   1.0000   1.0000   1.0000   1.0000   1.0000   1.0000   1.0000
     1.0000   1.0000   1.0000   1.0000   1.0000   1.0000

     highest occupied level (ev):     4.3647

!    total energy              =   -1084.78120366 Ry
     estimated scf accuracy    <          4.8E-09 Ry

     The total energy is the sum of the following terms:
     one-electron contribution =    -528.79775610 Ry
     hartree contribution      =     378.49026372 Ry
     xc contribution           =    -327.56629609 Ry
     ewald contribution        =    -606.90741518 Ry

     convergence has been achieved in  44 iterations

     Forces acting on atoms (cartesian axes, Ry/au):

     atom    1 type  1   force =     0.00000000   -0.00001714   -0.00033459
     atom    2 type  1   force =     0.00000000   -0.00002514   -0.00035740
     atom    3 type  2   force =     0.00000000    0.00000861    0.00034835
     atom    4 type  2   force =     0.00000000   -0.00000725    0.00034848
     atom    5 type  1   force =     0.00000000    0.00003536   -0.00035488
     atom    6 type  1   force =     0.00000000    0.00002390   -0.00034030
     atom    7 type  2   force =     0.00000000    0.00000717    0.00034844
     atom    8 type  2   force =     0.00000000   -0.00000784    0.00034875
     atom    9 type  1   force =     0.00000000   -0.00000530   -0.00034779
     atom   10 type  1   force =     0.00000000   -0.00001269   -0.00035690
     atom   11 type  2   force =     0.00000000    0.00000671    0.00034899
     atom   12 type  2   force =     0.00000000   -0.00000640    0.00034884
     The non-local contrib.  to forces
     atom    1 type  1   force =     0.00000000   -0.00003361    0.04588372
     atom    2 type  1   force =     0.00000000    0.00000873    0.04587328
     atom    3 type  2   force =     0.00000000    0.00026668    0.05737595
     atom    4 type  2   force =     0.00000000   -0.00025526    0.05737570
     atom    5 type  1   force =     0.00000000   -0.00000337    0.04587470
     atom    6 type  1   force =     0.00000000    0.00003864    0.04587910
     atom    7 type  2   force =     0.00000000    0.00024876    0.05737705
     atom    8 type  2   force =     0.00000000   -0.00026569    0.05737619
     atom    9 type  1   force =     0.00000000   -0.00002837    0.04587527
     atom   10 type  1   force =     0.00000000    0.00001710    0.04587091
     atom   11 type  2   force =     0.00000000    0.00025237    0.05737718
     atom   12 type  2   force =     0.00000000   -0.00024666    0.05737694
     The ionic contribution  to forces
     atom    1 type  1   force =    -0.00000000    0.00000001    0.41388422
     atom    2 type  1   force =     0.00000000    0.00000001    0.41388422
     atom    3 type  2   force =    -0.00000000    0.00000000   -0.41388422
     atom    4 type  2   force =     0.00000000    0.00000000   -0.41388422
     atom    5 type  1   force =    -0.00000001    0.00000001    0.41388422
     atom    6 type  1   force =     0.00000001   -0.00000001    0.41388422
     atom    7 type  2   force =    -0.00000001    0.00000000   -0.41388422
     atom    8 type  2   force =     0.00000001   -0.00000000   -0.41388422
     atom    9 type  1   force =    -0.00000000   -0.00000001    0.41388422
     atom   10 type  1   force =     0.00000000   -0.00000001    0.41388422
     atom   11 type  2   force =    -0.00000000   -0.00000000   -0.41388422
     atom   12 type  2   force =     0.00000000   -0.00000000   -0.41388422
     The local contribution  to forces
     atom    1 type  1   force =    -0.00000005    0.00005159   -0.45733775
     atom    2 type  1   force =     0.00000000    0.00001846   -0.45730058
     atom    3 type  2   force =    -0.00000001   -0.00023777    0.35738180
     atom    4 type  2   force =     0.00000000    0.00025189    0.35737743
     atom    5 type  1   force =    -0.00000009   -0.00003455   -0.45730477
     atom    6 type  1   force =     0.00000009   -0.00006317   -0.45732802
     atom    7 type  2   force =    -0.00000002   -0.00025689    0.35737722
     atom    8 type  2   force =     0.00000002    0.00023318    0.35737704
     atom    9 type  1   force =     0.00000000    0.00003381   -0.45731509
     atom   10 type  1   force =     0.00000005   -0.00000431   -0.45730060
     atom   11 type  2   force =     0.00000000   -0.00024260    0.35737803
     atom   12 type  2   force =     0.00000001    0.00025079    0.35737539
     The core correction contribution to forces
     atom    1 type  1   force =     0.00000005    0.00000832   -0.00279542
     atom    2 type  1   force =     0.00000005   -0.00000937   -0.00279621
     atom    3 type  2   force =    -0.00000000   -0.00000302   -0.00052243
     atom    4 type  2   force =     0.00000000    0.00000291   -0.00052243
     atom    5 type  1   force =    -0.00000001    0.00000973   -0.00279611
     atom    6 type  1   force =     0.00000001   -0.00000854   -0.00279538
     atom    7 type  2   force =    -0.00000000   -0.00000280   -0.00052246
     atom    8 type  2   force =     0.00000000    0.00000299   -0.00052245
     atom    9 type  1   force =    -0.00000005    0.00000886   -0.00279560
     atom   10 type  1   force =    -0.00000005   -0.00000894   -0.00279590
     atom   11 type  2   force =    -0.00000000   -0.00000286   -0.00052245
     atom   12 type  2   force =     0.00000000    0.00000278   -0.00052246
     The Hubbard contrib.    to forces
     atom    1 type  1   force =     0.00000000    0.00000000    0.00000000
     atom    2 type  1   force =     0.00000000    0.00000000    0.00000000
     atom    3 type  2   force =     0.00000000    0.00000000    0.00000000
     atom    4 type  2   force =     0.00000000    0.00000000    0.00000000
     atom    5 type  1   force =     0.00000000    0.00000000    0.00000000
     atom    6 type  1   force =     0.00000000    0.00000000    0.00000000
     atom    7 type  2   force =     0.00000000    0.00000000    0.00000000
     atom    8 type  2   force =     0.00000000    0.00000000    0.00000000
     atom    9 type  1   force =     0.00000000    0.00000000    0.00000000
     atom   10 type  1   force =     0.00000000    0.00000000    0.00000000
     atom   11 type  2   force =     0.00000000    0.00000000    0.00000000
     atom   12 type  2   force =     0.00000000    0.00000000    0.00000000
     The SCF correction term to forces
     atom    1 type  1   force =     0.00000000   -0.00004370    0.00003065
     atom    2 type  1   force =     0.00000000   -0.00004322   -0.00001811
     atom    3 type  2   force =     0.00000000   -0.00001755   -0.00000275
     atom    4 type  2   force =     0.00000000   -0.00000705    0.00000201
     atom    5 type  1   force =     0.00000000    0.00006329   -0.00001292
     atom    6 type  1   force =    -0.00000000    0.00005673    0.00001978
     atom    7 type  2   force =     0.00000000    0.00001784    0.00000085
     atom    8 type  2   force =    -0.00000000    0.00002143    0.00000218
     atom    9 type  1   force =     0.00000000   -0.00001985    0.00000340
     atom   10 type  1   force =    -0.00000000   -0.00001680   -0.00001554
     atom   11 type  2   force =    -0.00000000   -0.00000045    0.00000046
     atom   12 type  2   force =    -0.00000000   -0.00001356    0.00000318

     Total force =     0.001209     Total SCF correction =     0.000123
     SCF correction compared to forces is large: reduce conv_thr to get better values

     General routines

     Parallel routines

   This run was terminated on:   2: 1:41  28Aug2025

   JOB DONE.