     Program PWSCF v.7.0 starts on 28Aug2025 at  6: 0:29

     K-points division:     npool     =      17

     Reading input from /home/jvc/QEspresso7.2/ZnO_database/scripts/cell131.in/ZnO-3.60-1.58-131.in
Warning: card &CELL ignored
Warning: card / ignored
Warning: card &FCP ignored
Warning: card / ignored
Warning: card &RISM ignored
Warning: card / ignored

     Current dimensions of program PWSCF are:
     Max number of different atomic species (ntypx) = 10
     Max number of k-points (npk) =  40000
     Max angular momentum in pseudopotentials (lmaxx) =  4
     file Zn.upf: wavefunction(s)  3D renormalized
     Found identity + ( -0.0000  0.3333  0.0000) symmetry
     This is a supercell, fractional translations are disabled
     Message from routine setup:
     using ibrav=0 with symmetry is DISCOURAGED, use correct ibrav instead

     Subspace diagonalization in iterative solution of the eigenvalue problem:
     a serial algorithm will be used

     Using Slab Decomposition

     bravais-lattice index     =            0
     lattice parameter (alat)  =       6.7967  a.u.
     unit-cell volume          =    1290.5646 (a.u.)^3
     number of atoms/cell      =           12
     number of atomic types    =            2
     number of electrons       =       108.00
     number of Kohn-Sham states=           54
     kinetic-energy cutoff     =      50.0000  Ry
     charge density cutoff     =     400.0000  Ry
     scf convergence threshold =      1.0E-08
     mixing beta               =       0.3000
     number of iterations used =            8  plain     mixing
     Exchange-correlation= PBE
                           (   1   4   3   4   0   0   0)

     celldm(1)=   6.796739  celldm(2)=   0.000000  celldm(3)=   0.000000
     celldm(4)=   0.000000  celldm(5)=   0.000000  celldm(6)=   0.000000

     crystal axes: (cart. coord. in units of alat)
               a(1) = (   1.000000   0.000000   0.000000 )
               a(2) = (  -1.500000   2.598076   0.000000 )
               a(3) = (   0.000000   0.000000   1.582071 )

     reciprocal axes: (cart. coord. in units 2 pi/alat)
               b(1) = (  1.000000  0.577350 -0.000000 )
               b(2) = (  0.000000  0.384900  0.000000 )
               b(3) = (  0.000000 -0.000000  0.632083 )

     PseudoPot. # 1 for Zn read from file:
     /home/jvc/QEspresso7.2/ZnO_database/pseudos/Zn.upf
     MD5 check sum: 7f56cabf9682ed8c977c2f7d0c5985c5
     Pseudo is Ultrasoft + core correction, Zval = 12.0
     Generated using &quot;atomic&quot; code by A. Dal Corso  v.6.2.2
     Using radial grid of 1201 points,  6 beta functions with:
                l(1) =   0
                l(2) =   0
                l(3) =   1
                l(4) =   1
                l(5) =   2
                l(6) =   2
     Q(r) pseudized with 0 coefficients

     PseudoPot. # 2 for O  read from file:
     /home/jvc/QEspresso7.2/ZnO_database/pseudos/O.upf
     MD5 check sum: 91400c9766925bcf19f520983a725ff0
     Pseudo is Ultrasoft + core correction, Zval =  6.0
     Generated using &quot;atomic&quot; code by A. Dal Corso  v.6.3MaX
     Using radial grid of 1095 points,  4 beta functions with:
                l(1) =   0
                l(2) =   0
                l(3) =   1
                l(4) =   1
     Q(r) pseudized with 0 coefficients

     atomic species   valence    mass     pseudopotential
        Zn            12.00    65.38000     Zn( 1.00)
        O              6.00    15.99900     O ( 1.00)

      2 Sym. Ops. (no inversion) found

                                    s                        frac. trans.

      isym =  1     identity

 cryst.   s( 1) = (     1          0          0      )
                  (     0          1          0      )
                  (     0          0          1      )

 cart.    s( 1) = (  1.0000000 -0.0000000  0.0000000 )
                  (  0.0000000  1.0000000  0.0000000 )
                  (  0.0000000  0.0000000  1.0000000 )

      isym =  2     inv. 180 deg rotation - cart. axis [1,0,0]

 cryst.   s( 2) = (    -1          0          0      )
                  (     3          1          0      )
                  (     0          0          1      )

 cart.    s( 2) = ( -1.0000000 -0.0000000  0.0000000 )
                  (  0.0000000  1.0000000  0.0000000 )
                  (  0.0000000  0.0000000  1.0000000 )

   Cartesian axes

     site n.     atom                  positions (alat units)
         1           Zn  tau(   1) = (   0.5000000   0.2886751   0.7920380  )
         2           Zn  tau(   2) = (  -0.0000000   0.5773503   0.0010024  )
         3           O   tau(   3) = (   0.5000000   0.2886751   1.3917107  )
         4           O   tau(   4) = (  -0.0000000   0.5773503   0.6006751  )
         5           Zn  tau(   5) = (   0.0000000   1.1547005   0.7920380  )
         6           Zn  tau(   6) = (  -0.5000000   1.4433757   0.0010024  )
         7           O   tau(   7) = (   0.0000000   1.1547005   1.3917107  )
         8           O   tau(   8) = (  -0.5000000   1.4433757   0.6006751  )
         9           Zn  tau(   9) = (  -0.5000000   2.0207259   0.7920380  )
        10           Zn  tau(  10) = (  -1.0000000   2.3094011   0.0010024  )
        11           O   tau(  11) = (  -0.5000000   2.0207259   1.3917107  )
        12           O   tau(  12) = (  -1.0000000   2.3094011   0.6006751  )

   Crystallographic axes

     site n.     atom                  positions (cryst. coord.)
         1           Zn  tau(   1) = (  0.6666667  0.1111111  0.5006336  )
         2           Zn  tau(   2) = (  0.3333333  0.2222222  0.0006336  )
         3           O   tau(   3) = (  0.6666667  0.1111111  0.8796764  )
         4           O   tau(   4) = (  0.3333333  0.2222222  0.3796764  )
         5           Zn  tau(   5) = (  0.6666667  0.4444444  0.5006336  )
         6           Zn  tau(   6) = (  0.3333333  0.5555556  0.0006336  )
         7           O   tau(   7) = (  0.6666667  0.4444444  0.8796764  )
         8           O   tau(   8) = (  0.3333333  0.5555556  0.3796764  )
         9           Zn  tau(   9) = (  0.6666667  0.7777778  0.5006336  )
        10           Zn  tau(  10) = (  0.3333333  0.8888889  0.0006336  )
        11           O   tau(  11) = (  0.6666667  0.7777778  0.8796764  )
        12           O   tau(  12) = (  0.3333333  0.8888889  0.3796764  )

     number of k points=    68
                       cart. coord. in units 2pi/alat
        k(    1) = (   0.0000000   0.0000000   0.0000000), wk =   0.0092593
        k(    2) = (   0.0000000   0.0000000   0.1053471), wk =   0.0185185
        k(    3) = (   0.0000000   0.0000000   0.2106943), wk =   0.0185185
        k(    4) = (   0.0000000   0.0000000  -0.3160414), wk =   0.0092593
        k(    5) = (   0.0000000   0.0641500   0.0000000), wk =   0.0185185
        k(    6) = (   0.0000000   0.0641500   0.1053471), wk =   0.0185185
        k(    7) = (   0.0000000   0.0641500   0.2106943), wk =   0.0185185
        k(    8) = (   0.0000000   0.0641500  -0.3160414), wk =   0.0185185
        k(    9) = (   0.0000000   0.1283001   0.0000000), wk =   0.0185185
        k(   10) = (   0.0000000   0.1283001   0.1053471), wk =   0.0185185
        k(   11) = (   0.0000000   0.1283001   0.2106943), wk =   0.0185185
        k(   12) = (   0.0000000   0.1283001  -0.3160414), wk =   0.0185185
        k(   13) = (   0.0000000  -0.1924501   0.0000000), wk =   0.0092593
        k(   14) = (   0.0000000  -0.1924501   0.1053471), wk =   0.0185185
        k(   15) = (   0.0000000  -0.1924501   0.2106943), wk =   0.0185185
        k(   16) = (   0.0000000  -0.1924501  -0.3160414), wk =   0.0092593
        k(   17) = (   0.1666667   0.0962250   0.0000000), wk =   0.0370370
        k(   18) = (   0.1666667   0.0962250   0.1053471), wk =   0.0370370
        k(   19) = (   0.1666667   0.0962250   0.2106943), wk =   0.0370370
        k(   20) = (   0.1666667   0.0962250  -0.3160414), wk =   0.0370370
        k(   21) = (   0.1666667   0.1603751   0.0000000), wk =   0.0370370
        k(   22) = (   0.1666667   0.1603751   0.1053471), wk =   0.0370370
        k(   23) = (   0.1666667   0.1603751   0.2106943), wk =   0.0370370
        k(   24) = (   0.1666667   0.1603751  -0.3160414), wk =   0.0370370
        k(   25) = (   0.1666667  -0.0320750   0.0000000), wk =   0.0370370
        k(   26) = (   0.1666667  -0.0320750   0.1053471), wk =   0.0370370
        k(   27) = (   0.1666667  -0.0320750   0.2106943), wk =   0.0370370
        k(   28) = (   0.1666667  -0.0320750  -0.3160414), wk =   0.0370370
        k(   29) = (   0.3333333   0.1924501   0.0000000), wk =   0.0185185
        k(   30) = (   0.3333333   0.1924501   0.1053471), wk =   0.0370370
        k(   31) = (   0.3333333   0.1924501   0.2106943), wk =   0.0370370
        k(   32) = (   0.3333333   0.1924501  -0.3160414), wk =   0.0185185
        k(   33) = (   0.3333333   0.2566001   0.0000000), wk =   0.0370370
        k(   34) = (   0.3333333   0.2566001   0.1053471), wk =   0.0370370
        k(   35) = (   0.3333333   0.2566001   0.2106943), wk =   0.0370370
        k(   36) = (   0.3333333   0.2566001  -0.3160414), wk =   0.0370370
        k(   37) = (   0.3333333   0.3207501   0.0000000), wk =   0.0370370
        k(   38) = (   0.3333333   0.3207501   0.1053471), wk =   0.0370370
        k(   39) = (   0.3333333   0.3207501   0.2106943), wk =   0.0370370
        k(   40) = (   0.3333333   0.3207501  -0.3160414), wk =   0.0370370
        k(   41) = (   0.3333333   0.0000000   0.0000000), wk =   0.0185185
        k(   42) = (   0.3333333   0.0000000   0.1053471), wk =   0.0370370
        k(   43) = (   0.3333333   0.0000000   0.2106943), wk =   0.0370370
        k(   44) = (   0.3333333   0.0000000  -0.3160414), wk =   0.0185185
        k(   45) = (  -0.5000000  -0.2886751   0.0000000), wk =   0.0185185
        k(   46) = (  -0.5000000  -0.2886751   0.1053471), wk =   0.0370370
        k(   47) = (  -0.5000000  -0.2886751   0.2106943), wk =   0.0370370
        k(   48) = (  -0.5000000  -0.2886751  -0.3160414), wk =   0.0185185
        k(   49) = (  -0.5000000  -0.2245251   0.0000000), wk =   0.0370370
        k(   50) = (  -0.5000000  -0.2245251   0.1053471), wk =   0.0370370
        k(   51) = (  -0.5000000  -0.2245251   0.2106943), wk =   0.0370370
        k(   52) = (  -0.5000000  -0.2245251  -0.3160414), wk =   0.0370370
        k(   53) = (   0.0000000   0.0641500  -0.1053471), wk =   0.0185185
        k(   54) = (   0.0000000   0.0641500  -0.2106943), wk =   0.0185185
        k(   55) = (   0.0000000   0.1283001  -0.1053471), wk =   0.0185185
        k(   56) = (   0.0000000   0.1283001  -0.2106943), wk =   0.0185185
        k(   57) = (  -0.1666667   0.0962250  -0.1053471), wk =   0.0370370
        k(   58) = (  -0.1666667   0.0962250  -0.2106943), wk =   0.0370370
        k(   59) = (  -0.1666667   0.1603751  -0.1053471), wk =   0.0370370
        k(   60) = (  -0.1666667   0.1603751  -0.2106943), wk =   0.0370370
        k(   61) = (  -0.1666667  -0.0320750  -0.1053471), wk =   0.0370370
        k(   62) = (  -0.1666667  -0.0320750  -0.2106943), wk =   0.0370370
        k(   63) = (  -0.3333333   0.2566001  -0.1053471), wk =   0.0370370
        k(   64) = (  -0.3333333   0.2566001  -0.2106943), wk =   0.0370370
        k(   65) = (  -0.3333333   0.3207501  -0.1053471), wk =   0.0370370
        k(   66) = (  -0.3333333   0.3207501  -0.2106943), wk =   0.0370370
        k(   67) = (   0.5000000  -0.2245251  -0.1053471), wk =   0.0370370
        k(   68) = (   0.5000000  -0.2245251  -0.2106943), wk =   0.0370370

                       cryst. coord.
        k(    1) = (   0.0000000   0.0000000   0.0000000), wk =   0.0092593
        k(    2) = (   0.0000000   0.0000000   0.1666667), wk =   0.0185185
        k(    3) = (   0.0000000   0.0000000   0.3333333), wk =   0.0185185
        k(    4) = (   0.0000000   0.0000000  -0.5000000), wk =   0.0092593
        k(    5) = (   0.0000000   0.1666667   0.0000000), wk =   0.0185185
        k(    6) = (   0.0000000   0.1666667   0.1666667), wk =   0.0185185
        k(    7) = (   0.0000000   0.1666667   0.3333333), wk =   0.0185185
        k(    8) = (   0.0000000   0.1666667  -0.5000000), wk =   0.0185185
        k(    9) = (   0.0000000   0.3333333   0.0000000), wk =   0.0185185
        k(   10) = (   0.0000000   0.3333333   0.1666667), wk =   0.0185185
        k(   11) = (   0.0000000   0.3333333   0.3333333), wk =   0.0185185
        k(   12) = (   0.0000000   0.3333333  -0.5000000), wk =   0.0185185
        k(   13) = (   0.0000000  -0.5000000   0.0000000), wk =   0.0092593
        k(   14) = (   0.0000000  -0.5000000   0.1666667), wk =   0.0185185
        k(   15) = (   0.0000000  -0.5000000   0.3333333), wk =   0.0185185
        k(   16) = (   0.0000000  -0.5000000  -0.5000000), wk =   0.0092593
        k(   17) = (   0.1666667  -0.0000000   0.0000000), wk =   0.0370370
        k(   18) = (   0.1666667  -0.0000000   0.1666667), wk =   0.0370370
        k(   19) = (   0.1666667  -0.0000000   0.3333333), wk =   0.0370370
        k(   20) = (   0.1666667  -0.0000000  -0.5000000), wk =   0.0370370
        k(   21) = (   0.1666667   0.1666667   0.0000000), wk =   0.0370370
        k(   22) = (   0.1666667   0.1666667   0.1666667), wk =   0.0370370
        k(   23) = (   0.1666667   0.1666667   0.3333333), wk =   0.0370370
        k(   24) = (   0.1666667   0.1666667  -0.5000000), wk =   0.0370370
        k(   25) = (   0.1666667  -0.3333333   0.0000000), wk =   0.0370370
        k(   26) = (   0.1666667  -0.3333333   0.1666667), wk =   0.0370370
        k(   27) = (   0.1666667  -0.3333333   0.3333333), wk =   0.0370370
        k(   28) = (   0.1666667  -0.3333333  -0.5000000), wk =   0.0370370
        k(   29) = (   0.3333333  -0.0000000   0.0000000), wk =   0.0185185
        k(   30) = (   0.3333333  -0.0000000   0.1666667), wk =   0.0370370
        k(   31) = (   0.3333333  -0.0000000   0.3333333), wk =   0.0370370
        k(   32) = (   0.3333333  -0.0000000  -0.5000000), wk =   0.0185185
        k(   33) = (   0.3333333   0.1666667   0.0000000), wk =   0.0370370
        k(   34) = (   0.3333333   0.1666667   0.1666667), wk =   0.0370370
        k(   35) = (   0.3333333   0.1666667   0.3333333), wk =   0.0370370
        k(   36) = (   0.3333333   0.1666667  -0.5000000), wk =   0.0370370
        k(   37) = (   0.3333333   0.3333333   0.0000000), wk =   0.0370370
        k(   38) = (   0.3333333   0.3333333   0.1666667), wk =   0.0370370
        k(   39) = (   0.3333333   0.3333333   0.3333333), wk =   0.0370370
        k(   40) = (   0.3333333   0.3333333  -0.5000000), wk =   0.0370370
        k(   41) = (   0.3333333  -0.5000000   0.0000000), wk =   0.0185185
        k(   42) = (   0.3333333  -0.5000000   0.1666667), wk =   0.0370370
        k(   43) = (   0.3333333  -0.5000000   0.3333333), wk =   0.0370370
        k(   44) = (   0.3333333  -0.5000000  -0.5000000), wk =   0.0185185
        k(   45) = (  -0.5000000   0.0000000   0.0000000), wk =   0.0185185
        k(   46) = (  -0.5000000   0.0000000   0.1666667), wk =   0.0370370
        k(   47) = (  -0.5000000   0.0000000   0.3333333), wk =   0.0370370
        k(   48) = (  -0.5000000   0.0000000  -0.5000000), wk =   0.0185185
        k(   49) = (  -0.5000000   0.1666667   0.0000000), wk =   0.0370370
        k(   50) = (  -0.5000000   0.1666667   0.1666667), wk =   0.0370370
        k(   51) = (  -0.5000000   0.1666667   0.3333333), wk =   0.0370370
        k(   52) = (  -0.5000000   0.1666667  -0.5000000), wk =   0.0370370
        k(   53) = (   0.0000000   0.1666667  -0.1666667), wk =   0.0185185
        k(   54) = (   0.0000000   0.1666667  -0.3333333), wk =   0.0185185
        k(   55) = (   0.0000000   0.3333333  -0.1666667), wk =   0.0185185
        k(   56) = (   0.0000000   0.3333333  -0.3333333), wk =   0.0185185
        k(   57) = (  -0.1666667   0.5000000  -0.1666667), wk =   0.0370370
        k(   58) = (  -0.1666667   0.5000000  -0.3333333), wk =   0.0370370
        k(   59) = (  -0.1666667   0.6666667  -0.1666667), wk =   0.0370370
        k(   60) = (  -0.1666667   0.6666667  -0.3333333), wk =   0.0370370
        k(   61) = (  -0.1666667   0.1666667  -0.1666667), wk =   0.0370370
        k(   62) = (  -0.1666667   0.1666667  -0.3333333), wk =   0.0370370
        k(   63) = (  -0.3333333   1.1666667  -0.1666667), wk =   0.0370370
        k(   64) = (  -0.3333333   1.1666667  -0.3333333), wk =   0.0370370
        k(   65) = (  -0.3333333   1.3333333  -0.1666667), wk =   0.0370370
        k(   66) = (  -0.3333333   1.3333333  -0.3333333), wk =   0.0370370
        k(   67) = (   0.5000000  -1.3333333  -0.1666667), wk =   0.0370370
        k(   68) = (   0.5000000  -1.3333333  -0.3333333), wk =   0.0370370

     Check: negative core charge=   -0.000002

     Initial potential from superposition of free atoms

     starting charge     107.9776, renormalised to     108.0000
     Starting wfcs are   78 randomized atomic wfcs

     Self-consistent Calculation

     iteration #  1     ecut=    50.00 Ry     beta= 0.30
     Davidson diagonalization with overlap

     ethr =  1.00E-02,  avg # of iterations =  1.4

     total energy              =   -1084.07331967 Ry
     estimated scf accuracy    <       2.49858994 Ry

[...]

     total energy              =   -1084.67617225 Ry
     estimated scf accuracy    <       0.00000003 Ry

     iteration # 22     ecut=    50.00 Ry     beta= 0.30
     Davidson diagonalization with overlap

     ethr =  1.05E-11,  avg # of iterations =  6.1

     End of self-consistent calculation

          k = 0.0000 0.0000 0.0000 (  7733 PWs)   bands (ev):

   -12.6628 -12.4226 -12.4225 -12.2790 -12.2041 -12.2040  -1.2692  -1.2692
    -1.2545  -1.2543  -1.2488  -1.1473  -1.1473  -1.1439  -1.1438  -1.1238
    -1.1238  -0.9751  -0.9751  -0.9262  -0.9262  -0.8485  -0.8485  -0.7666
    -0.7665  -0.7511  -0.7511  -0.7253  -0.7253  -0.6548  -0.6548  -0.6433
    -0.6394  -0.6394  -0.5167  -0.5167  -0.0011   0.6095   0.6095   1.1424
     1.1424   1.7016   1.7016   2.3603   2.3603   3.0262   3.0269   3.0630
     3.0630   3.2030   3.2031   3.5618   3.5625   3.5681

     occupation numbers
     1.0000   1.0000   1.0000   1.0000   1.0000   1.0000   1.0000   1.0000
     1.0000   1.0000   1.0000   1.0000   1.0000   1.0000   1.0000   1.0000
     1.0000   1.0000   1.0000   1.0000   1.0000   1.0000   1.0000   1.0000
     1.0000   1.0000   1.0000   1.0000   1.0000   1.0000   1.0000   1.0000
     1.0000   1.0000   1.0000   1.0000   1.0000   1.0000   1.0000   1.0000
     1.0000   1.0000   1.0000   1.0000   1.0000   1.0000   1.0000   1.0000
     1.0000   1.0000   1.0000   1.0000   1.0000   1.0000

[...]

          k =-0.5000-0.2887 0.0000 (  7682 PWs)   bands (ev):

[...]

          k =-0.3333 0.3208-0.2107 (  7705 PWs)   bands (ev):

[...]

          k = 0.5000-0.2245-0.2107 (  7705 PWs)   bands (ev):

   -12.2888 -12.2875 -12.2868 -12.2268 -12.2265 -12.2261  -1.2810  -1.2598
    -1.1948  -1.1800  -1.1650  -1.1628  -1.0772  -1.0696  -1.0524  -0.9792
    -0.9301  -0.9233  -0.9202  -0.9152  -0.9132  -0.9129  -0.8781  -0.8500
    -0.7218  -0.6944  -0.6884  -0.6812  -0.6790  -0.6684  -0.6239  -0.6157
    -0.6082  -0.5889  -0.5691  -0.5423   0.3649   0.4333   0.6038   0.6367
     0.6913   0.7913   1.8408   2.0814   2.2176   2.3649   2.4080   2.4275
     2.4960   2.6568   2.7793   2.9108   2.9273   2.9415

     occupation numbers
     1.0000   1.0000   1.0000   1.0000   1.0000   1.0000   1.0000   1.0000
     1.0000   1.0000   1.0000   1.0000   1.0000   1.0000   1.0000   1.0000
     1.0000   1.0000   1.0000   1.0000   1.0000   1.0000   1.0000   1.0000
     1.0000   1.0000   1.0000   1.0000   1.0000   1.0000   1.0000   1.0000
     1.0000   1.0000   1.0000   1.0000   1.0000   1.0000   1.0000   1.0000
     1.0000   1.0000   1.0000   1.0000   1.0000   1.0000   1.0000   1.0000
     1.0000   1.0000   1.0000   1.0000   1.0000   1.0000

     highest occupied level (ev):     3.5681

!    total energy              =   -1084.67617226 Ry
     estimated scf accuracy    <          1.2E-09 Ry

     The total energy is the sum of the following terms:
     one-electron contribution =    -552.16448136 Ry
     hartree contribution      =     387.24242831 Ry
     xc contribution           =    -327.23066388 Ry
     ewald contribution        =    -592.52345532 Ry

     convergence has been achieved in  22 iterations

     Forces acting on atoms (cartesian axes, Ry/au):

     atom    1 type  1   force =     0.00000000    0.00000551    0.00107757
     atom    2 type  1   force =     0.00000000   -0.00002437    0.00106719
     atom    3 type  2   force =     0.00000000    0.00000859   -0.00107117
     atom    4 type  2   force =     0.00000000   -0.00000705   -0.00107100
     atom    5 type  1   force =     0.00000000    0.00001179    0.00106695
     atom    6 type  1   force =     0.00000000   -0.00000786    0.00107616
     atom    7 type  2   force =     0.00000000    0.00000875   -0.00107066
     atom    8 type  2   force =     0.00000000   -0.00000806   -0.00107099
     atom    9 type  1   force =     0.00000000    0.00000997    0.00106948
     atom   10 type  1   force =     0.00000000    0.00000375    0.00106824
     atom   11 type  2   force =     0.00000000    0.00000738   -0.00107068
     atom   12 type  2   force =     0.00000000   -0.00000840   -0.00107110
     The non-local contrib.  to forces
     atom    1 type  1   force =     0.00000000   -0.00004490   -0.05479419
     atom    2 type  1   force =     0.00000000    0.00003246   -0.05480120
     atom    3 type  2   force =     0.00000000    0.00026014   -0.04579710
     atom    4 type  2   force =     0.00000000   -0.00025462   -0.04579789
     atom    5 type  1   force =     0.00000000   -0.00004027   -0.05479997
     atom    6 type  1   force =     0.00000000    0.00004237   -0.05479471
     atom    7 type  2   force =     0.00000000    0.00026166   -0.04579618
     atom    8 type  2   force =     0.00000000   -0.00025985   -0.04579855
     atom    9 type  1   force =     0.00000000   -0.00003970   -0.05480001
     atom   10 type  1   force =     0.00000000    0.00005042   -0.05479951
     atom   11 type  2   force =     0.00000000    0.00025464   -0.04579676
     atom   12 type  2   force =     0.00000000   -0.00026210   -0.04579775
     The ionic contribution  to forces
     atom    1 type  1   force =    -0.00000000    0.00000001   -0.29605850
     atom    2 type  1   force =     0.00000000    0.00000001   -0.29605850
     atom    3 type  2   force =    -0.00000000    0.00000000    0.29605850
     atom    4 type  2   force =     0.00000000    0.00000000    0.29605850
     atom    5 type  1   force =    -0.00000001    0.00000001   -0.29605851
     atom    6 type  1   force =     0.00000001   -0.00000001   -0.29605851
     atom    7 type  2   force =    -0.00000001    0.00000000    0.29605851
     atom    8 type  2   force =     0.00000001   -0.00000000    0.29605851
     atom    9 type  1   force =    -0.00000000   -0.00000001   -0.29605850
     atom   10 type  1   force =     0.00000000   -0.00000001   -0.29605850
     atom   11 type  2   force =    -0.00000000   -0.00000000    0.29605850
     atom   12 type  2   force =     0.00000000   -0.00000000    0.29605850
     The local contribution  to forces
     atom    1 type  1   force =    -0.00000005    0.00004759    0.34872058
     atom    2 type  1   force =     0.00000000   -0.00001238    0.34874507
     atom    3 type  2   force =    -0.00000001   -0.00024526   -0.25173238
     atom    4 type  2   force =     0.00000000    0.00024937   -0.25173428
     atom    5 type  1   force =    -0.00000010    0.00003475    0.34874369
     atom    6 type  1   force =     0.00000010   -0.00004275    0.34872395
     atom    7 type  2   force =    -0.00000003   -0.00025079   -0.25173275
     atom    8 type  2   force =     0.00000003    0.00024922   -0.25173197
     atom    9 type  1   force =     0.00000000    0.00003868    0.34874140
     atom   10 type  1   force =     0.00000005   -0.00006526    0.34873887
     atom   11 type  2   force =     0.00000000   -0.00025098   -0.25173380
     atom   12 type  2   force =     0.00000001    0.00025058   -0.25173255
     The core correction contribution to forces
     atom    1 type  1   force =    -0.00000001    0.00000819    0.00319180
     atom    2 type  1   force =    -0.00000000   -0.00000882    0.00319109
     atom    3 type  2   force =     0.00000000   -0.00000295    0.00039878
     atom    4 type  2   force =    -0.00000000    0.00000287    0.00039879
     atom    5 type  1   force =    -0.00000001    0.00000840    0.00319105
     atom    6 type  1   force =     0.00000001   -0.00000814    0.00319166
     atom    7 type  2   force =     0.00000000   -0.00000297    0.00039877
     atom    8 type  2   force =    -0.00000000    0.00000295    0.00039880
     atom    9 type  1   force =     0.00000000    0.00000813    0.00319115
     atom   10 type  1   force =     0.00000001   -0.00000774    0.00319135
     atom   11 type  2   force =     0.00000000   -0.00000288    0.00039877
     atom   12 type  2   force =    -0.00000000    0.00000299    0.00039879
     The Hubbard contrib.    to forces
     atom    1 type  1   force =     0.00000000    0.00000000    0.00000000
     atom    2 type  1   force =     0.00000000    0.00000000    0.00000000
     atom    3 type  2   force =     0.00000000    0.00000000    0.00000000
     atom    4 type  2   force =     0.00000000    0.00000000    0.00000000
     atom    5 type  1   force =     0.00000000    0.00000000    0.00000000
     atom    6 type  1   force =     0.00000000    0.00000000    0.00000000
     atom    7 type  2   force =     0.00000000    0.00000000    0.00000000
     atom    8 type  2   force =     0.00000000    0.00000000    0.00000000
     atom    9 type  1   force =     0.00000000    0.00000000    0.00000000
     atom   10 type  1   force =     0.00000000    0.00000000    0.00000000
     atom   11 type  2   force =     0.00000000    0.00000000    0.00000000
     atom   12 type  2   force =     0.00000000    0.00000000    0.00000000
     The SCF correction term to forces
     atom    1 type  1   force =    -0.00000000   -0.00000561    0.00001782
     atom    2 type  1   force =     0.00000000   -0.00003587   -0.00000933
     atom    3 type  2   force =    -0.00000000   -0.00000359    0.00000096
     atom    4 type  2   force =     0.00000000   -0.00000490    0.00000382
     atom    5 type  1   force =    -0.00000000    0.00000868   -0.00000938
     atom    6 type  1   force =     0.00000000    0.00000044    0.00001371
     atom    7 type  2   force =    -0.00000000    0.00000061    0.00000093
     atom    8 type  2   force =     0.00000000   -0.00000061    0.00000215
     atom    9 type  1   force =    -0.00000000    0.00000264   -0.00000463
     atom   10 type  1   force =     0.00000000    0.00002610   -0.00000403
     atom   11 type  2   force =    -0.00000000    0.00000637    0.00000254
     atom   12 type  2   force =     0.00000000   -0.00000009    0.00000184

     Total force =     0.003710     Total SCF correction =     0.000054

     General routines

     Parallel routines

   This run was terminated on:   6: 8:49  28Aug2025

   JOB DONE.