     Program PWSCF v.7.0 starts on 27Aug2025 at 12:57:20

     K-points division:     npool     =      17

     Reading input from /home/jvc/QEspresso7.2/ZnO_database/scripts/cell131.in/ZnO-2.94-1.78-131.in
Warning: card &CELL ignored
Warning: card / ignored
Warning: card &FCP ignored
Warning: card / ignored
Warning: card &RISM ignored
Warning: card / ignored

     Current dimensions of program PWSCF are:
     Max number of different atomic species (ntypx) = 10
     Max number of k-points (npk) =  40000
     Max angular momentum in pseudopotentials (lmaxx) =  4
     file Zn.upf: wavefunction(s)  3D renormalized
     Found identity + (  0.0000  0.3333  0.0000) symmetry
     This is a supercell, fractional translations are disabled
     Message from routine setup:
     using ibrav=0 with symmetry is DISCOURAGED, use correct ibrav instead

     Subspace diagonalization in iterative solution of the eigenvalue problem:
     a serial algorithm will be used

     Using Slab Decomposition

     bravais-lattice index     =            0
     lattice parameter (alat)  =       5.5610  a.u.
     unit-cell volume          =     793.4067 (a.u.)^3
     number of atoms/cell      =           12
     number of atomic types    =            2
     number of electrons       =       108.00
     number of Kohn-Sham states=           54
     kinetic-energy cutoff     =      50.0000  Ry
     charge density cutoff     =     400.0000  Ry
     scf convergence threshold =      1.0E-08
     mixing beta               =       0.3000
     number of iterations used =            8  plain     mixing
     Exchange-correlation= PBE
                           (   1   4   3   4   0   0   0)

     celldm(1)=   5.560969  celldm(2)=   0.000000  celldm(3)=   0.000000
     celldm(4)=   0.000000  celldm(5)=   0.000000  celldm(6)=   0.000000

     crystal axes: (cart. coord. in units of alat)
               a(1) = (   1.000000   0.000000   0.000000 )
               a(2) = (  -1.500000   2.598076   0.000000 )
               a(3) = (   0.000000   0.000000   1.775794 )

     reciprocal axes: (cart. coord. in units 2 pi/alat)
               b(1) = (  1.000000  0.577350 -0.000000 )
               b(2) = (  0.000000  0.384900  0.000000 )
               b(3) = (  0.000000 -0.000000  0.563128 )

     PseudoPot. # 1 for Zn read from file:
     /home/jvc/QEspresso7.2/ZnO_database/pseudos/Zn.upf
     MD5 check sum: 7f56cabf9682ed8c977c2f7d0c5985c5
     Pseudo is Ultrasoft + core correction, Zval = 12.0
     Generated using &quot;atomic&quot; code by A. Dal Corso  v.6.2.2
     Using radial grid of 1201 points,  6 beta functions with:
                l(1) =   0
                l(2) =   0
                l(3) =   1
                l(4) =   1
                l(5) =   2
                l(6) =   2
     Q(r) pseudized with 0 coefficients

     PseudoPot. # 2 for O  read from file:
     /home/jvc/QEspresso7.2/ZnO_database/pseudos/O.upf
     MD5 check sum: 91400c9766925bcf19f520983a725ff0
     Pseudo is Ultrasoft + core correction, Zval =  6.0
     Generated using &quot;atomic&quot; code by A. Dal Corso  v.6.3MaX
     Using radial grid of 1095 points,  4 beta functions with:
                l(1) =   0
                l(2) =   0
                l(3) =   1
                l(4) =   1
     Q(r) pseudized with 0 coefficients

     atomic species   valence    mass     pseudopotential
        Zn            12.00    65.38000     Zn( 1.00)
        O              6.00    15.99900     O ( 1.00)

      2 Sym. Ops. (no inversion) found

                                    s                        frac. trans.

      isym =  1     identity

 cryst.   s( 1) = (     1          0          0      )
                  (     0          1          0      )
                  (     0          0          1      )

 cart.    s( 1) = (  1.0000000  0.0000000  0.0000000 )
                  (  0.0000000  1.0000000  0.0000000 )
                  (  0.0000000  0.0000000  1.0000000 )

      isym =  2     inv. 180 deg rotation - cart. axis [1,0,0]

 cryst.   s( 2) = (    -1          0          0      )
                  (     3          1          0      )
                  (     0          0          1      )

 cart.    s( 2) = ( -1.0000000 -0.0000000  0.0000000 )
                  (  0.0000000  1.0000000  0.0000000 )
                  (  0.0000000  0.0000000  1.0000000 )

   Cartesian axes

     site n.     atom                  positions (alat units)
         1           Zn  tau(   1) = (   0.5000000   0.2886751   0.8890222  )
         2           Zn  tau(   2) = (  -0.0000000   0.5773503   0.0011251  )
         3           O   tau(   3) = (   0.5000000   0.2886751   1.5621243  )
         4           O   tau(   4) = (  -0.0000000   0.5773503   0.6742272  )
         5           Zn  tau(   5) = (   0.0000000   1.1547005   0.8890222  )
         6           Zn  tau(   6) = (  -0.5000000   1.4433757   0.0011251  )
         7           O   tau(   7) = (   0.0000000   1.1547005   1.5621243  )
         8           O   tau(   8) = (  -0.5000000   1.4433757   0.6742272  )
         9           Zn  tau(   9) = (  -0.5000000   2.0207259   0.8890222  )
        10           Zn  tau(  10) = (  -1.0000000   2.3094011   0.0011251  )
        11           O   tau(  11) = (  -0.5000000   2.0207259   1.5621243  )
        12           O   tau(  12) = (  -1.0000000   2.3094011   0.6742272  )

   Crystallographic axes

     site n.     atom                  positions (cryst. coord.)
         1           Zn  tau(   1) = (  0.6666667  0.1111111  0.5006336  )
         2           Zn  tau(   2) = (  0.3333333  0.2222222  0.0006336  )
         3           O   tau(   3) = (  0.6666667  0.1111111  0.8796764  )
         4           O   tau(   4) = (  0.3333333  0.2222222  0.3796764  )
         5           Zn  tau(   5) = (  0.6666667  0.4444444  0.5006336  )
         6           Zn  tau(   6) = (  0.3333333  0.5555556  0.0006336  )
         7           O   tau(   7) = (  0.6666667  0.4444444  0.8796764  )
         8           O   tau(   8) = (  0.3333333  0.5555556  0.3796764  )
         9           Zn  tau(   9) = (  0.6666667  0.7777778  0.5006336  )
        10           Zn  tau(  10) = (  0.3333333  0.8888889  0.0006336  )
        11           O   tau(  11) = (  0.6666667  0.7777778  0.8796764  )
        12           O   tau(  12) = (  0.3333333  0.8888889  0.3796764  )

     number of k points=    68
                       cart. coord. in units 2pi/alat
        k(    1) = (   0.0000000   0.0000000   0.0000000), wk =   0.0092593
        k(    2) = (   0.0000000   0.0000000   0.0938547), wk =   0.0185185
        k(    3) = (   0.0000000   0.0000000   0.1877094), wk =   0.0185185
        k(    4) = (   0.0000000   0.0000000  -0.2815642), wk =   0.0092593
        k(    5) = (   0.0000000   0.0641500   0.0000000), wk =   0.0185185
        k(    6) = (   0.0000000   0.0641500   0.0938547), wk =   0.0185185
        k(    7) = (   0.0000000   0.0641500   0.1877094), wk =   0.0185185
        k(    8) = (   0.0000000   0.0641500  -0.2815642), wk =   0.0185185
        k(    9) = (   0.0000000   0.1283001   0.0000000), wk =   0.0185185
        k(   10) = (   0.0000000   0.1283001   0.0938547), wk =   0.0185185
        k(   11) = (   0.0000000   0.1283001   0.1877094), wk =   0.0185185
        k(   12) = (   0.0000000   0.1283001  -0.2815642), wk =   0.0185185
        k(   13) = (   0.0000000  -0.1924501   0.0000000), wk =   0.0092593
        k(   14) = (   0.0000000  -0.1924501   0.0938547), wk =   0.0185185
        k(   15) = (   0.0000000  -0.1924501   0.1877094), wk =   0.0185185
        k(   16) = (   0.0000000  -0.1924501  -0.2815642), wk =   0.0092593
        k(   17) = (   0.1666667   0.0962250   0.0000000), wk =   0.0370370
        k(   18) = (   0.1666667   0.0962250   0.0938547), wk =   0.0370370
        k(   19) = (   0.1666667   0.0962250   0.1877094), wk =   0.0370370
        k(   20) = (   0.1666667   0.0962250  -0.2815642), wk =   0.0370370
        k(   21) = (   0.1666667   0.1603751   0.0000000), wk =   0.0370370
        k(   22) = (   0.1666667   0.1603751   0.0938547), wk =   0.0370370
        k(   23) = (   0.1666667   0.1603751   0.1877094), wk =   0.0370370
        k(   24) = (   0.1666667   0.1603751  -0.2815642), wk =   0.0370370
        k(   25) = (   0.1666667  -0.0320750   0.0000000), wk =   0.0370370
        k(   26) = (   0.1666667  -0.0320750   0.0938547), wk =   0.0370370
        k(   27) = (   0.1666667  -0.0320750   0.1877094), wk =   0.0370370
        k(   28) = (   0.1666667  -0.0320750  -0.2815642), wk =   0.0370370
        k(   29) = (   0.3333333   0.1924501   0.0000000), wk =   0.0185185
        k(   30) = (   0.3333333   0.1924501   0.0938547), wk =   0.0370370
        k(   31) = (   0.3333333   0.1924501   0.1877094), wk =   0.0370370
        k(   32) = (   0.3333333   0.1924501  -0.2815642), wk =   0.0185185
        k(   33) = (   0.3333333   0.2566001   0.0000000), wk =   0.0370370
        k(   34) = (   0.3333333   0.2566001   0.0938547), wk =   0.0370370
        k(   35) = (   0.3333333   0.2566001   0.1877094), wk =   0.0370370
        k(   36) = (   0.3333333   0.2566001  -0.2815642), wk =   0.0370370
        k(   37) = (   0.3333333   0.3207501   0.0000000), wk =   0.0370370
        k(   38) = (   0.3333333   0.3207501   0.0938547), wk =   0.0370370
        k(   39) = (   0.3333333   0.3207501   0.1877094), wk =   0.0370370
        k(   40) = (   0.3333333   0.3207501  -0.2815642), wk =   0.0370370
        k(   41) = (   0.3333333   0.0000000   0.0000000), wk =   0.0185185
        k(   42) = (   0.3333333   0.0000000   0.0938547), wk =   0.0370370
        k(   43) = (   0.3333333   0.0000000   0.1877094), wk =   0.0370370
        k(   44) = (   0.3333333   0.0000000  -0.2815642), wk =   0.0185185
        k(   45) = (  -0.5000000  -0.2886751   0.0000000), wk =   0.0185185
        k(   46) = (  -0.5000000  -0.2886751   0.0938547), wk =   0.0370370
        k(   47) = (  -0.5000000  -0.2886751   0.1877094), wk =   0.0370370
        k(   48) = (  -0.5000000  -0.2886751  -0.2815642), wk =   0.0185185
        k(   49) = (  -0.5000000  -0.2245251   0.0000000), wk =   0.0370370
        k(   50) = (  -0.5000000  -0.2245251   0.0938547), wk =   0.0370370
        k(   51) = (  -0.5000000  -0.2245251   0.1877094), wk =   0.0370370
        k(   52) = (  -0.5000000  -0.2245251  -0.2815642), wk =   0.0370370
        k(   53) = (   0.0000000   0.0641500  -0.0938547), wk =   0.0185185
        k(   54) = (   0.0000000   0.0641500  -0.1877094), wk =   0.0185185
        k(   55) = (   0.0000000   0.1283001  -0.0938547), wk =   0.0185185
        k(   56) = (   0.0000000   0.1283001  -0.1877094), wk =   0.0185185
        k(   57) = (  -0.1666667   0.0962250  -0.0938547), wk =   0.0370370
        k(   58) = (  -0.1666667   0.0962250  -0.1877094), wk =   0.0370370
        k(   59) = (  -0.1666667   0.1603751  -0.0938547), wk =   0.0370370
        k(   60) = (  -0.1666667   0.1603751  -0.1877094), wk =   0.0370370
        k(   61) = (  -0.1666667  -0.0320750  -0.0938547), wk =   0.0370370
        k(   62) = (  -0.1666667  -0.0320750  -0.1877094), wk =   0.0370370
        k(   63) = (  -0.3333333   0.2566001  -0.0938547), wk =   0.0370370
        k(   64) = (  -0.3333333   0.2566001  -0.1877094), wk =   0.0370370
        k(   65) = (  -0.3333333   0.3207501  -0.0938547), wk =   0.0370370
        k(   66) = (  -0.3333333   0.3207501  -0.1877094), wk =   0.0370370
        k(   67) = (   0.5000000  -0.2245251  -0.0938547), wk =   0.0370370
        k(   68) = (   0.5000000  -0.2245251  -0.1877094), wk =   0.0370370

                       cryst. coord.
        k(    1) = (   0.0000000   0.0000000   0.0000000), wk =   0.0092593
        k(    2) = (   0.0000000   0.0000000   0.1666667), wk =   0.0185185
        k(    3) = (   0.0000000   0.0000000   0.3333333), wk =   0.0185185
        k(    4) = (   0.0000000   0.0000000  -0.5000000), wk =   0.0092593
        k(    5) = (   0.0000000   0.1666667   0.0000000), wk =   0.0185185
        k(    6) = (   0.0000000   0.1666667   0.1666667), wk =   0.0185185
        k(    7) = (   0.0000000   0.1666667   0.3333333), wk =   0.0185185
        k(    8) = (   0.0000000   0.1666667  -0.5000000), wk =   0.0185185
        k(    9) = (   0.0000000   0.3333333   0.0000000), wk =   0.0185185
        k(   10) = (   0.0000000   0.3333333   0.1666667), wk =   0.0185185
        k(   11) = (   0.0000000   0.3333333   0.3333333), wk =   0.0185185
        k(   12) = (   0.0000000   0.3333333  -0.5000000), wk =   0.0185185
        k(   13) = (   0.0000000  -0.5000000   0.0000000), wk =   0.0092593
        k(   14) = (   0.0000000  -0.5000000   0.1666667), wk =   0.0185185
        k(   15) = (   0.0000000  -0.5000000   0.3333333), wk =   0.0185185
        k(   16) = (   0.0000000  -0.5000000  -0.5000000), wk =   0.0092593
        k(   17) = (   0.1666667   0.0000000   0.0000000), wk =   0.0370370
        k(   18) = (   0.1666667   0.0000000   0.1666667), wk =   0.0370370
        k(   19) = (   0.1666667   0.0000000   0.3333333), wk =   0.0370370
        k(   20) = (   0.1666667   0.0000000  -0.5000000), wk =   0.0370370
        k(   21) = (   0.1666667   0.1666667   0.0000000), wk =   0.0370370
        k(   22) = (   0.1666667   0.1666667   0.1666667), wk =   0.0370370
        k(   23) = (   0.1666667   0.1666667   0.3333333), wk =   0.0370370
        k(   24) = (   0.1666667   0.1666667  -0.5000000), wk =   0.0370370
        k(   25) = (   0.1666667  -0.3333333   0.0000000), wk =   0.0370370
        k(   26) = (   0.1666667  -0.3333333   0.1666667), wk =   0.0370370
        k(   27) = (   0.1666667  -0.3333333   0.3333333), wk =   0.0370370
        k(   28) = (   0.1666667  -0.3333333  -0.5000000), wk =   0.0370370
        k(   29) = (   0.3333333   0.0000000   0.0000000), wk =   0.0185185
        k(   30) = (   0.3333333   0.0000000   0.1666667), wk =   0.0370370
        k(   31) = (   0.3333333   0.0000000   0.3333333), wk =   0.0370370
        k(   32) = (   0.3333333   0.0000000  -0.5000000), wk =   0.0185185
        k(   33) = (   0.3333333   0.1666667   0.0000000), wk =   0.0370370
        k(   34) = (   0.3333333   0.1666667   0.1666667), wk =   0.0370370
        k(   35) = (   0.3333333   0.1666667   0.3333333), wk =   0.0370370
        k(   36) = (   0.3333333   0.1666667  -0.5000000), wk =   0.0370370
        k(   37) = (   0.3333333   0.3333333   0.0000000), wk =   0.0370370
        k(   38) = (   0.3333333   0.3333333   0.1666667), wk =   0.0370370
        k(   39) = (   0.3333333   0.3333333   0.3333333), wk =   0.0370370
        k(   40) = (   0.3333333   0.3333333  -0.5000000), wk =   0.0370370
        k(   41) = (   0.3333333  -0.5000000   0.0000000), wk =   0.0185185
        k(   42) = (   0.3333333  -0.5000000   0.1666667), wk =   0.0370370
        k(   43) = (   0.3333333  -0.5000000   0.3333333), wk =   0.0370370
        k(   44) = (   0.3333333  -0.5000000  -0.5000000), wk =   0.0185185
        k(   45) = (  -0.5000000  -0.0000000   0.0000000), wk =   0.0185185
        k(   46) = (  -0.5000000  -0.0000000   0.1666667), wk =   0.0370370
        k(   47) = (  -0.5000000  -0.0000000   0.3333333), wk =   0.0370370
        k(   48) = (  -0.5000000  -0.0000000  -0.5000000), wk =   0.0185185
        k(   49) = (  -0.5000000   0.1666667   0.0000000), wk =   0.0370370
        k(   50) = (  -0.5000000   0.1666667   0.1666667), wk =   0.0370370
        k(   51) = (  -0.5000000   0.1666667   0.3333333), wk =   0.0370370
        k(   52) = (  -0.5000000   0.1666667  -0.5000000), wk =   0.0370370
        k(   53) = (   0.0000000   0.1666667  -0.1666667), wk =   0.0185185
        k(   54) = (   0.0000000   0.1666667  -0.3333333), wk =   0.0185185
        k(   55) = (   0.0000000   0.3333333  -0.1666667), wk =   0.0185185
        k(   56) = (   0.0000000   0.3333333  -0.3333333), wk =   0.0185185
        k(   57) = (  -0.1666667   0.5000000  -0.1666667), wk =   0.0370370
        k(   58) = (  -0.1666667   0.5000000  -0.3333333), wk =   0.0370370
        k(   59) = (  -0.1666667   0.6666667  -0.1666667), wk =   0.0370370
        k(   60) = (  -0.1666667   0.6666667  -0.3333333), wk =   0.0370370
        k(   61) = (  -0.1666667   0.1666667  -0.1666667), wk =   0.0370370
        k(   62) = (  -0.1666667   0.1666667  -0.3333333), wk =   0.0370370
        k(   63) = (  -0.3333333   1.1666667  -0.1666667), wk =   0.0370370
        k(   64) = (  -0.3333333   1.1666667  -0.3333333), wk =   0.0370370
        k(   65) = (  -0.3333333   1.3333333  -0.1666667), wk =   0.0370370
        k(   66) = (  -0.3333333   1.3333333  -0.3333333), wk =   0.0370370
        k(   67) = (   0.5000000  -1.3333333  -0.1666667), wk =   0.0370370
        k(   68) = (   0.5000000  -1.3333333  -0.3333333), wk =   0.0370370

     Check: negative core charge=   -0.000001

     Initial potential from superposition of free atoms

     starting charge     107.9776, renormalised to     108.0000
     Starting wfcs are   78 randomized atomic wfcs

     Self-consistent Calculation

     iteration #  1     ecut=    50.00 Ry     beta= 0.30
     Davidson diagonalization with overlap

     ethr =  1.00E-02,  avg # of iterations =  2.0

     total energy              =   -1084.15293999 Ry
     estimated scf accuracy    <       2.03806940 Ry

[...]

     total energy              =   -1084.55806488 Ry
     estimated scf accuracy    <       0.00000005 Ry

     iteration # 26     ecut=    50.00 Ry     beta= 0.30
     Davidson diagonalization with overlap

     ethr =  3.08E-11,  avg # of iterations =  5.5

     End of self-consistent calculation

          k = 0.0000 0.0000 0.0000 (  4729 PWs)   bands (ev):

    -9.3788  -8.6193  -8.6193  -8.5243  -8.1309  -8.1309   2.9175   2.9175
     2.9504   3.3884   3.3885   3.5670   3.5673   3.6429   3.7638   3.7641
     3.9083   3.9083   4.1250   4.1250   4.2957   4.2957   4.3239   4.3239
     5.2765   5.2765   5.5375   5.5375   5.6378   5.6378   5.7709   5.7709
     5.8185   5.8185   5.9333   5.9333   6.2280   6.2280   6.2394   6.9108
     6.9108   8.1215   8.1215   8.5910   8.5910   9.3823   9.3823   9.8113
     9.8113   9.9334   9.9338  10.1995  10.7111  10.7116

     occupation numbers
     1.0000   1.0000   1.0000   1.0000   1.0000   1.0000   1.0000   1.0000
     1.0000   1.0000   1.0000   1.0000   1.0000   1.0000   1.0000   1.0000
     1.0000   1.0000   1.0000   1.0000   1.0000   1.0000   1.0000   1.0000
     1.0000   1.0000   1.0000   1.0000   1.0000   1.0000   1.0000   1.0000
     1.0000   1.0000   1.0000   1.0000   1.0000   1.0000   1.0000   1.0000
     1.0000   1.0000   1.0000   1.0000   1.0000   1.0000   1.0000   1.0000
     1.0000   1.0000   1.0000   1.0000   1.0000   1.0000

[...]

          k =-0.5000-0.2887 0.0000 (  4728 PWs)   bands (ev):

[...]

          k =-0.3333 0.3208-0.1877 (  4745 PWs)   bands (ev):

[...]

          k = 0.5000-0.2245-0.1877 (  4736 PWs)   bands (ev):

    -8.2391  -8.2314  -8.2272  -8.0996  -8.0988  -8.0984   2.9001   2.9464
     2.9695   3.0503   3.1852   3.2383   3.9086   3.9874   4.0179   4.0798
     4.2217   4.3181   4.4235   4.4407   4.4427   4.4542   4.4634   4.4711
     5.5074   5.6087   5.6972   5.7153   5.7379   5.7707   5.8634   5.8892
     5.9067   5.9725   6.0139   6.0697   6.1910   6.2495   6.3566   6.4587
     6.5454   6.9476   7.4830   7.7422   7.7972   7.9217   8.2369   8.3877
     8.5900   8.6845   8.7656   8.9263   9.0060   9.0857

     occupation numbers
     1.0000   1.0000   1.0000   1.0000   1.0000   1.0000   1.0000   1.0000
     1.0000   1.0000   1.0000   1.0000   1.0000   1.0000   1.0000   1.0000
     1.0000   1.0000   1.0000   1.0000   1.0000   1.0000   1.0000   1.0000
     1.0000   1.0000   1.0000   1.0000   1.0000   1.0000   1.0000   1.0000
     1.0000   1.0000   1.0000   1.0000   1.0000   1.0000   1.0000   1.0000
     1.0000   1.0000   1.0000   1.0000   1.0000   1.0000   1.0000   1.0000
     1.0000   1.0000   1.0000   1.0000   1.0000   1.0000

     highest occupied level (ev):    10.7116

!    total energy              =   -1084.55806489 Ry
     estimated scf accuracy    <          7.2E-10 Ry

     The total energy is the sum of the following terms:
     one-electron contribution =    -387.25872923 Ry
     hartree contribution      =     328.70257069 Ry
     xc contribution           =    -330.20794159 Ry
     ewald contribution        =    -695.79396476 Ry

     convergence has been achieved in  26 iterations

     Forces acting on atoms (cartesian axes, Ry/au):

     atom    1 type  1   force =     0.00000000   -0.00001292    0.07092384
     atom    2 type  1   force =     0.00000000    0.00001517    0.07092881
     atom    3 type  2   force =     0.00000000    0.00000290   -0.07092680
     atom    4 type  2   force =     0.00000000   -0.00000266   -0.07092629
     atom    5 type  1   force =     0.00000000   -0.00001229    0.07092515
     atom    6 type  1   force =     0.00000000    0.00001252    0.07092836
     atom    7 type  2   force =     0.00000000    0.00000261   -0.07092659
     atom    8 type  2   force =     0.00000000   -0.00000256   -0.07092669
     atom    9 type  1   force =     0.00000000   -0.00001431    0.07092304
     atom   10 type  1   force =     0.00000000    0.00001208    0.07093026
     atom   11 type  2   force =     0.00000000    0.00000244   -0.07092664
     atom   12 type  2   force =     0.00000000   -0.00000299   -0.07092645
     The non-local contrib.  to forces
     atom    1 type  1   force =     0.00000000    0.00001800    0.28756755
     atom    2 type  1   force =     0.00000000   -0.00001657    0.28757071
     atom    3 type  2   force =     0.00000000    0.00020836    0.21997591
     atom    4 type  2   force =     0.00000000   -0.00020919    0.21997771
     atom    5 type  1   force =     0.00000000    0.00001766    0.28756841
     atom    6 type  1   force =     0.00000000   -0.00001800    0.28757028
     atom    7 type  2   force =     0.00000000    0.00020884    0.21997640
     atom    8 type  2   force =     0.00000000   -0.00020876    0.21997676
     atom    9 type  1   force =     0.00000000    0.00001655    0.28756702
     atom   10 type  1   force =     0.00000000   -0.00001794    0.28757156
     atom   11 type  2   force =     0.00000000    0.00020894    0.21997619
     atom   12 type  2   force =     0.00000000   -0.00020903    0.21997753
     The ionic contribution  to forces
     atom    1 type  1   force =    -0.00000000    0.00000001    2.36194458
     atom    2 type  1   force =     0.00000000    0.00000001    2.36194458
     atom    3 type  2   force =    -0.00000000    0.00000001   -2.36194458
     atom    4 type  2   force =     0.00000000    0.00000000   -2.36194458
     atom    5 type  1   force =    -0.00000001    0.00000001    2.36194458
     atom    6 type  1   force =     0.00000001   -0.00000001    2.36194458
     atom    7 type  2   force =    -0.00000001    0.00000000   -2.36194458
     atom    8 type  2   force =     0.00000001   -0.00000000   -2.36194458
     atom    9 type  1   force =    -0.00000000   -0.00000001    2.36194458
     atom   10 type  1   force =     0.00000000   -0.00000001    2.36194458
     atom   11 type  2   force =    -0.00000000   -0.00000000   -2.36194458
     atom   12 type  2   force =     0.00000000   -0.00000001   -2.36194458
     The local contribution  to forces
     atom    1 type  1   force =    -0.00000004   -0.00004261   -2.55383858
     atom    2 type  1   force =     0.00000000    0.00003848   -2.55384667
     atom    3 type  2   force =    -0.00000001   -0.00020500    2.07251687
     atom    4 type  2   force =     0.00000000    0.00020350    2.07251939
     atom    5 type  1   force =    -0.00000007   -0.00004295   -2.55384089
     atom    6 type  1   force =     0.00000007    0.00004411   -2.55384575
     atom    7 type  2   force =    -0.00000002   -0.00020475    2.07251749
     atom    8 type  2   force =     0.00000002    0.00020448    2.07251996
     atom    9 type  1   force =    -0.00000000   -0.00004017   -2.55383754
     atom   10 type  1   force =     0.00000004    0.00004309   -2.55384879
     atom   11 type  2   force =    -0.00000000   -0.00020303    2.07251629
     atom   12 type  2   force =     0.00000001    0.00020507    2.07252049
     The core correction contribution to forces
     atom    1 type  1   force =    -0.00000001    0.00001032   -0.02474478
     atom    2 type  1   force =     0.00000000   -0.00001027   -0.02474475
     atom    3 type  2   force =     0.00000000   -0.00000237   -0.00147061
     atom    4 type  2   force =     0.00000000    0.00000238   -0.00147063
     atom    5 type  1   force =    -0.00000001    0.00001035   -0.02474475
     atom    6 type  1   force =     0.00000001   -0.00001040   -0.02474474
     atom    7 type  2   force =     0.00000000   -0.00000238   -0.00147062
     atom    8 type  2   force =    -0.00000000    0.00000237   -0.00147062
     atom    9 type  1   force =    -0.00000000    0.00001034   -0.02474478
     atom   10 type  1   force =     0.00000001   -0.00001034   -0.02474471
     atom   11 type  2   force =    -0.00000000   -0.00000237   -0.00147062
     atom   12 type  2   force =    -0.00000000    0.00000238   -0.00147063
     The Hubbard contrib.    to forces
     atom    1 type  1   force =     0.00000000    0.00000000    0.00000000
     atom    2 type  1   force =     0.00000000    0.00000000    0.00000000
     atom    3 type  2   force =     0.00000000    0.00000000    0.00000000
     atom    4 type  2   force =     0.00000000    0.00000000    0.00000000
     atom    5 type  1   force =     0.00000000    0.00000000    0.00000000
     atom    6 type  1   force =     0.00000000    0.00000000    0.00000000
     atom    7 type  2   force =     0.00000000    0.00000000    0.00000000
     atom    8 type  2   force =     0.00000000    0.00000000    0.00000000
     atom    9 type  1   force =     0.00000000    0.00000000    0.00000000
     atom   10 type  1   force =     0.00000000    0.00000000    0.00000000
     atom   11 type  2   force =     0.00000000    0.00000000    0.00000000
     atom   12 type  2   force =     0.00000000    0.00000000    0.00000000
     The SCF correction term to forces
     atom    1 type  1   force =    -0.00000000    0.00000133   -0.00000323
     atom    2 type  1   force =    -0.00000000    0.00000350    0.00000663
     atom    3 type  2   force =    -0.00000000    0.00000187   -0.00000269
     atom    4 type  2   force =     0.00000000    0.00000062   -0.00000648
     atom    5 type  1   force =    -0.00000000    0.00000261   -0.00000050
     atom    6 type  1   force =     0.00000000   -0.00000321    0.00000569
     atom    7 type  2   force =    -0.00000000    0.00000087   -0.00000359
     atom    8 type  2   force =     0.00000000   -0.00000067   -0.00000652
     atom    9 type  1   force =    -0.00000000   -0.00000105   -0.00000455
     atom   10 type  1   force =     0.00000000   -0.00000274    0.00000931
     atom   11 type  2   force =    -0.00000000   -0.00000113   -0.00000222
     atom   12 type  2   force =     0.00000000   -0.00000143   -0.00000757

     Total force =     0.245697     Total SCF correction =     0.000020

     General routines

     Parallel routines

   This run was terminated on:  13: 4: 6  27Aug2025

   JOB DONE.