     Program PWSCF v.7.0 starts on 27Aug2025 at 12:10:16

     K-points division:     npool     =      17

     Reading input from /home/jvc/QEspresso7.2/ZnO_database/scripts/cell131.in/ZnO-2.94-1.49-131.in
Warning: card &CELL ignored
Warning: card / ignored
Warning: card &FCP ignored
Warning: card / ignored
Warning: card &RISM ignored
Warning: card / ignored

     Current dimensions of program PWSCF are:
     Max number of different atomic species (ntypx) = 10
     Max number of k-points (npk) =  40000
     Max angular momentum in pseudopotentials (lmaxx) =  4
     file Zn.upf: wavefunction(s)  3D renormalized
     Found identity + (  0.0000  0.3333  0.0000) symmetry
     This is a supercell, fractional translations are disabled
     Message from routine setup:
     using ibrav=0 with symmetry is DISCOURAGED, use correct ibrav instead

     Subspace diagonalization in iterative solution of the eigenvalue problem:
     a serial algorithm will be used

     Using Slab Decomposition

     bravais-lattice index     =            0
     lattice parameter (alat)  =       5.5610  a.u.
     unit-cell volume          =     663.5765 (a.u.)^3
     number of atoms/cell      =           12
     number of atomic types    =            2
     number of electrons       =       108.00
     number of Kohn-Sham states=           54
     kinetic-energy cutoff     =      50.0000  Ry
     charge density cutoff     =     400.0000  Ry
     scf convergence threshold =      1.0E-08
     mixing beta               =       0.3000
     number of iterations used =            8  plain     mixing
     Exchange-correlation= PBE
                           (   1   4   3   4   0   0   0)

     celldm(1)=   5.560969  celldm(2)=   0.000000  celldm(3)=   0.000000
     celldm(4)=   0.000000  celldm(5)=   0.000000  celldm(6)=   0.000000

     crystal axes: (cart. coord. in units of alat)
               a(1) = (   1.000000   0.000000   0.000000 )
               a(2) = (  -1.500000   2.598076   0.000000 )
               a(3) = (   0.000000   0.000000   1.485210 )

     reciprocal axes: (cart. coord. in units 2 pi/alat)
               b(1) = (  1.000000  0.577350 -0.000000 )
               b(2) = (  0.000000  0.384900  0.000000 )
               b(3) = (  0.000000 -0.000000  0.673306 )

     PseudoPot. # 1 for Zn read from file:
     /home/jvc/QEspresso7.2/ZnO_database/pseudos/Zn.upf
     MD5 check sum: 7f56cabf9682ed8c977c2f7d0c5985c5
     Pseudo is Ultrasoft + core correction, Zval = 12.0
     Generated using &quot;atomic&quot; code by A. Dal Corso  v.6.2.2
     Using radial grid of 1201 points,  6 beta functions with:
                l(1) =   0
                l(2) =   0
                l(3) =   1
                l(4) =   1
                l(5) =   2
                l(6) =   2
     Q(r) pseudized with 0 coefficients

     PseudoPot. # 2 for O  read from file:
     /home/jvc/QEspresso7.2/ZnO_database/pseudos/O.upf
     MD5 check sum: 91400c9766925bcf19f520983a725ff0
     Pseudo is Ultrasoft + core correction, Zval =  6.0
     Generated using &quot;atomic&quot; code by A. Dal Corso  v.6.3MaX
     Using radial grid of 1095 points,  4 beta functions with:
                l(1) =   0
                l(2) =   0
                l(3) =   1
                l(4) =   1
     Q(r) pseudized with 0 coefficients

     atomic species   valence    mass     pseudopotential
        Zn            12.00    65.38000     Zn( 1.00)
        O              6.00    15.99900     O ( 1.00)

      2 Sym. Ops. (no inversion) found

                                    s                        frac. trans.

      isym =  1     identity

 cryst.   s( 1) = (     1          0          0      )
                  (     0          1          0      )
                  (     0          0          1      )

 cart.    s( 1) = (  1.0000000  0.0000000  0.0000000 )
                  (  0.0000000  1.0000000  0.0000000 )
                  (  0.0000000  0.0000000  1.0000000 )

      isym =  2     inv. 180 deg rotation - cart. axis [1,0,0]

 cryst.   s( 2) = (    -1          0          0      )
                  (     3          1          0      )
                  (     0          0          1      )

 cart.    s( 2) = ( -1.0000000 -0.0000000  0.0000000 )
                  (  0.0000000  1.0000000  0.0000000 )
                  (  0.0000000  0.0000000  1.0000000 )

   Cartesian axes

     site n.     atom                  positions (alat units)
         1           Zn  tau(   1) = (   0.5000000   0.2886751   0.7435459  )
         2           Zn  tau(   2) = (  -0.0000000   0.5773503   0.0009410  )
         3           O   tau(   3) = (   0.5000000   0.2886751   1.3065039  )
         4           O   tau(   4) = (  -0.0000000   0.5773503   0.5638991  )
         5           Zn  tau(   5) = (   0.0000000   1.1547005   0.7435459  )
         6           Zn  tau(   6) = (  -0.5000000   1.4433757   0.0009410  )
         7           O   tau(   7) = (   0.0000000   1.1547005   1.3065039  )
         8           O   tau(   8) = (  -0.5000000   1.4433757   0.5638991  )
         9           Zn  tau(   9) = (  -0.5000000   2.0207259   0.7435459  )
        10           Zn  tau(  10) = (  -1.0000000   2.3094011   0.0009410  )
        11           O   tau(  11) = (  -0.5000000   2.0207259   1.3065039  )
        12           O   tau(  12) = (  -1.0000000   2.3094011   0.5638991  )

   Crystallographic axes

     site n.     atom                  positions (cryst. coord.)
         1           Zn  tau(   1) = (  0.6666667  0.1111111  0.5006336  )
         2           Zn  tau(   2) = (  0.3333333  0.2222222  0.0006336  )
         3           O   tau(   3) = (  0.6666667  0.1111111  0.8796764  )
         4           O   tau(   4) = (  0.3333333  0.2222222  0.3796764  )
         5           Zn  tau(   5) = (  0.6666667  0.4444444  0.5006336  )
         6           Zn  tau(   6) = (  0.3333333  0.5555556  0.0006336  )
         7           O   tau(   7) = (  0.6666667  0.4444444  0.8796764  )
         8           O   tau(   8) = (  0.3333333  0.5555556  0.3796764  )
         9           Zn  tau(   9) = (  0.6666667  0.7777778  0.5006336  )
        10           Zn  tau(  10) = (  0.3333333  0.8888889  0.0006336  )
        11           O   tau(  11) = (  0.6666667  0.7777778  0.8796764  )
        12           O   tau(  12) = (  0.3333333  0.8888889  0.3796764  )

     number of k points=    68
                       cart. coord. in units 2pi/alat
        k(    1) = (   0.0000000   0.0000000   0.0000000), wk =   0.0092593
        k(    2) = (   0.0000000   0.0000000   0.1122176), wk =   0.0185185
        k(    3) = (   0.0000000   0.0000000   0.2244352), wk =   0.0185185
        k(    4) = (   0.0000000   0.0000000  -0.3366528), wk =   0.0092593
        k(    5) = (   0.0000000   0.0641500   0.0000000), wk =   0.0185185
        k(    6) = (   0.0000000   0.0641500   0.1122176), wk =   0.0185185
        k(    7) = (   0.0000000   0.0641500   0.2244352), wk =   0.0185185
        k(    8) = (   0.0000000   0.0641500  -0.3366528), wk =   0.0185185
        k(    9) = (   0.0000000   0.1283001   0.0000000), wk =   0.0185185
        k(   10) = (   0.0000000   0.1283001   0.1122176), wk =   0.0185185
        k(   11) = (   0.0000000   0.1283001   0.2244352), wk =   0.0185185
        k(   12) = (   0.0000000   0.1283001  -0.3366528), wk =   0.0185185
        k(   13) = (   0.0000000  -0.1924501   0.0000000), wk =   0.0092593
        k(   14) = (   0.0000000  -0.1924501   0.1122176), wk =   0.0185185
        k(   15) = (   0.0000000  -0.1924501   0.2244352), wk =   0.0185185
        k(   16) = (   0.0000000  -0.1924501  -0.3366528), wk =   0.0092593
        k(   17) = (   0.1666667   0.0962250   0.0000000), wk =   0.0370370
        k(   18) = (   0.1666667   0.0962250   0.1122176), wk =   0.0370370
        k(   19) = (   0.1666667   0.0962250   0.2244352), wk =   0.0370370
        k(   20) = (   0.1666667   0.0962250  -0.3366528), wk =   0.0370370
        k(   21) = (   0.1666667   0.1603751   0.0000000), wk =   0.0370370
        k(   22) = (   0.1666667   0.1603751   0.1122176), wk =   0.0370370
        k(   23) = (   0.1666667   0.1603751   0.2244352), wk =   0.0370370
        k(   24) = (   0.1666667   0.1603751  -0.3366528), wk =   0.0370370
        k(   25) = (   0.1666667  -0.0320750   0.0000000), wk =   0.0370370
        k(   26) = (   0.1666667  -0.0320750   0.1122176), wk =   0.0370370
        k(   27) = (   0.1666667  -0.0320750   0.2244352), wk =   0.0370370
        k(   28) = (   0.1666667  -0.0320750  -0.3366528), wk =   0.0370370
        k(   29) = (   0.3333333   0.1924501   0.0000000), wk =   0.0185185
        k(   30) = (   0.3333333   0.1924501   0.1122176), wk =   0.0370370
        k(   31) = (   0.3333333   0.1924501   0.2244352), wk =   0.0370370
        k(   32) = (   0.3333333   0.1924501  -0.3366528), wk =   0.0185185
        k(   33) = (   0.3333333   0.2566001   0.0000000), wk =   0.0370370
        k(   34) = (   0.3333333   0.2566001   0.1122176), wk =   0.0370370
        k(   35) = (   0.3333333   0.2566001   0.2244352), wk =   0.0370370
        k(   36) = (   0.3333333   0.2566001  -0.3366528), wk =   0.0370370
        k(   37) = (   0.3333333   0.3207501   0.0000000), wk =   0.0370370
        k(   38) = (   0.3333333   0.3207501   0.1122176), wk =   0.0370370
        k(   39) = (   0.3333333   0.3207501   0.2244352), wk =   0.0370370
        k(   40) = (   0.3333333   0.3207501  -0.3366528), wk =   0.0370370
        k(   41) = (   0.3333333   0.0000000   0.0000000), wk =   0.0185185
        k(   42) = (   0.3333333   0.0000000   0.1122176), wk =   0.0370370
        k(   43) = (   0.3333333   0.0000000   0.2244352), wk =   0.0370370
        k(   44) = (   0.3333333   0.0000000  -0.3366528), wk =   0.0185185
        k(   45) = (  -0.5000000  -0.2886751   0.0000000), wk =   0.0185185
        k(   46) = (  -0.5000000  -0.2886751   0.1122176), wk =   0.0370370
        k(   47) = (  -0.5000000  -0.2886751   0.2244352), wk =   0.0370370
        k(   48) = (  -0.5000000  -0.2886751  -0.3366528), wk =   0.0185185
        k(   49) = (  -0.5000000  -0.2245251   0.0000000), wk =   0.0370370
        k(   50) = (  -0.5000000  -0.2245251   0.1122176), wk =   0.0370370
        k(   51) = (  -0.5000000  -0.2245251   0.2244352), wk =   0.0370370
        k(   52) = (  -0.5000000  -0.2245251  -0.3366528), wk =   0.0370370
        k(   53) = (   0.0000000   0.0641500  -0.1122176), wk =   0.0185185
        k(   54) = (   0.0000000   0.0641500  -0.2244352), wk =   0.0185185
        k(   55) = (   0.0000000   0.1283001  -0.1122176), wk =   0.0185185
        k(   56) = (   0.0000000   0.1283001  -0.2244352), wk =   0.0185185
        k(   57) = (  -0.1666667   0.0962250  -0.1122176), wk =   0.0370370
        k(   58) = (  -0.1666667   0.0962250  -0.2244352), wk =   0.0370370
        k(   59) = (  -0.1666667   0.1603751  -0.1122176), wk =   0.0370370
        k(   60) = (  -0.1666667   0.1603751  -0.2244352), wk =   0.0370370
        k(   61) = (  -0.1666667  -0.0320750  -0.1122176), wk =   0.0370370
        k(   62) = (  -0.1666667  -0.0320750  -0.2244352), wk =   0.0370370
        k(   63) = (  -0.3333333   0.2566001  -0.1122176), wk =   0.0370370
        k(   64) = (  -0.3333333   0.2566001  -0.2244352), wk =   0.0370370
        k(   65) = (  -0.3333333   0.3207501  -0.1122176), wk =   0.0370370
        k(   66) = (  -0.3333333   0.3207501  -0.2244352), wk =   0.0370370
        k(   67) = (   0.5000000  -0.2245251  -0.1122176), wk =   0.0370370
        k(   68) = (   0.5000000  -0.2245251  -0.2244352), wk =   0.0370370

                       cryst. coord.
        k(    1) = (   0.0000000   0.0000000   0.0000000), wk =   0.0092593
        k(    2) = (   0.0000000   0.0000000   0.1666667), wk =   0.0185185
        k(    3) = (   0.0000000   0.0000000   0.3333333), wk =   0.0185185
        k(    4) = (   0.0000000   0.0000000  -0.5000000), wk =   0.0092593
        k(    5) = (   0.0000000   0.1666667   0.0000000), wk =   0.0185185
        k(    6) = (   0.0000000   0.1666667   0.1666667), wk =   0.0185185
        k(    7) = (   0.0000000   0.1666667   0.3333333), wk =   0.0185185
        k(    8) = (   0.0000000   0.1666667  -0.5000000), wk =   0.0185185
        k(    9) = (   0.0000000   0.3333333   0.0000000), wk =   0.0185185
        k(   10) = (   0.0000000   0.3333333   0.1666667), wk =   0.0185185
        k(   11) = (   0.0000000   0.3333333   0.3333333), wk =   0.0185185
        k(   12) = (   0.0000000   0.3333333  -0.5000000), wk =   0.0185185
        k(   13) = (   0.0000000  -0.5000000   0.0000000), wk =   0.0092593
        k(   14) = (   0.0000000  -0.5000000   0.1666667), wk =   0.0185185
        k(   15) = (   0.0000000  -0.5000000   0.3333333), wk =   0.0185185
        k(   16) = (   0.0000000  -0.5000000  -0.5000000), wk =   0.0092593
        k(   17) = (   0.1666667   0.0000000   0.0000000), wk =   0.0370370
        k(   18) = (   0.1666667   0.0000000   0.1666667), wk =   0.0370370
        k(   19) = (   0.1666667   0.0000000   0.3333333), wk =   0.0370370
        k(   20) = (   0.1666667   0.0000000  -0.5000000), wk =   0.0370370
        k(   21) = (   0.1666667   0.1666667   0.0000000), wk =   0.0370370
        k(   22) = (   0.1666667   0.1666667   0.1666667), wk =   0.0370370
        k(   23) = (   0.1666667   0.1666667   0.3333333), wk =   0.0370370
        k(   24) = (   0.1666667   0.1666667  -0.5000000), wk =   0.0370370
        k(   25) = (   0.1666667  -0.3333333   0.0000000), wk =   0.0370370
        k(   26) = (   0.1666667  -0.3333333   0.1666667), wk =   0.0370370
        k(   27) = (   0.1666667  -0.3333333   0.3333333), wk =   0.0370370
        k(   28) = (   0.1666667  -0.3333333  -0.5000000), wk =   0.0370370
        k(   29) = (   0.3333333   0.0000000   0.0000000), wk =   0.0185185
        k(   30) = (   0.3333333   0.0000000   0.1666667), wk =   0.0370370
        k(   31) = (   0.3333333   0.0000000   0.3333333), wk =   0.0370370
        k(   32) = (   0.3333333   0.0000000  -0.5000000), wk =   0.0185185
        k(   33) = (   0.3333333   0.1666667   0.0000000), wk =   0.0370370
        k(   34) = (   0.3333333   0.1666667   0.1666667), wk =   0.0370370
        k(   35) = (   0.3333333   0.1666667   0.3333333), wk =   0.0370370
        k(   36) = (   0.3333333   0.1666667  -0.5000000), wk =   0.0370370
        k(   37) = (   0.3333333   0.3333333   0.0000000), wk =   0.0370370
        k(   38) = (   0.3333333   0.3333333   0.1666667), wk =   0.0370370
        k(   39) = (   0.3333333   0.3333333   0.3333333), wk =   0.0370370
        k(   40) = (   0.3333333   0.3333333  -0.5000000), wk =   0.0370370
        k(   41) = (   0.3333333  -0.5000000   0.0000000), wk =   0.0185185
        k(   42) = (   0.3333333  -0.5000000   0.1666667), wk =   0.0370370
        k(   43) = (   0.3333333  -0.5000000   0.3333333), wk =   0.0370370
        k(   44) = (   0.3333333  -0.5000000  -0.5000000), wk =   0.0185185
        k(   45) = (  -0.5000000  -0.0000000   0.0000000), wk =   0.0185185
        k(   46) = (  -0.5000000  -0.0000000   0.1666667), wk =   0.0370370
        k(   47) = (  -0.5000000  -0.0000000   0.3333333), wk =   0.0370370
        k(   48) = (  -0.5000000  -0.0000000  -0.5000000), wk =   0.0185185
        k(   49) = (  -0.5000000   0.1666667   0.0000000), wk =   0.0370370
        k(   50) = (  -0.5000000   0.1666667   0.1666667), wk =   0.0370370
        k(   51) = (  -0.5000000   0.1666667   0.3333333), wk =   0.0370370
        k(   52) = (  -0.5000000   0.1666667  -0.5000000), wk =   0.0370370
        k(   53) = (   0.0000000   0.1666667  -0.1666667), wk =   0.0185185
        k(   54) = (   0.0000000   0.1666667  -0.3333333), wk =   0.0185185
        k(   55) = (   0.0000000   0.3333333  -0.1666667), wk =   0.0185185
        k(   56) = (   0.0000000   0.3333333  -0.3333333), wk =   0.0185185
        k(   57) = (  -0.1666667   0.5000000  -0.1666667), wk =   0.0370370
        k(   58) = (  -0.1666667   0.5000000  -0.3333333), wk =   0.0370370
        k(   59) = (  -0.1666667   0.6666667  -0.1666667), wk =   0.0370370
        k(   60) = (  -0.1666667   0.6666667  -0.3333333), wk =   0.0370370
        k(   61) = (  -0.1666667   0.1666667  -0.1666667), wk =   0.0370370
        k(   62) = (  -0.1666667   0.1666667  -0.3333333), wk =   0.0370370
        k(   63) = (  -0.3333333   1.1666667  -0.1666667), wk =   0.0370370
        k(   64) = (  -0.3333333   1.1666667  -0.3333333), wk =   0.0370370
        k(   65) = (  -0.3333333   1.3333333  -0.1666667), wk =   0.0370370
        k(   66) = (  -0.3333333   1.3333333  -0.3333333), wk =   0.0370370
        k(   67) = (   0.5000000  -1.3333333  -0.1666667), wk =   0.0370370
        k(   68) = (   0.5000000  -1.3333333  -0.3333333), wk =   0.0370370

     Initial potential from superposition of free atoms

     starting charge     107.9776, renormalised to     108.0000
     Starting wfcs are   78 randomized atomic wfcs

     Self-consistent Calculation

     iteration #  1     ecut=    50.00 Ry     beta= 0.30
     Davidson diagonalization with overlap

     ethr =  1.00E-02,  avg # of iterations =  2.5

     total energy              =   -1083.40871713 Ry
     estimated scf accuracy    <       2.17059254 Ry

[...]

     total energy              =   -1083.78631671 Ry
     estimated scf accuracy    <       0.00000015 Ry

     iteration # 18     ecut=    50.00 Ry     beta= 0.30
     Davidson diagonalization with overlap

     ethr =  1.39E-10,  avg # of iterations =  4.9

     End of self-consistent calculation

          k = 0.0000 0.0000 0.0000 (  3973 PWs)   bands (ev):

    -7.7745  -6.8868  -6.8867  -6.0943  -5.9069  -5.9069   4.9985   4.9985
     5.2186   5.5232   5.5232   5.8201   5.8202   5.9134   6.1198   6.1199
     6.1675   6.1676   6.2221   6.2222   6.7899   6.7899   6.8695   6.8695
     8.0298   8.0298   8.2678   8.2678   8.4594   8.4594   8.6271   8.6271
     8.8499   8.8499   8.9567   8.9567   9.3297   9.6585   9.6585  10.0669
    10.0669  10.8460  10.8461  11.4438  11.4438  12.5437  12.5438  13.0294
    13.0295  13.2464  13.2464  14.1309  14.1500  14.1502

     occupation numbers
     1.0000   1.0000   1.0000   1.0000   1.0000   1.0000   1.0000   1.0000
     1.0000   1.0000   1.0000   1.0000   1.0000   1.0000   1.0000   1.0000
     1.0000   1.0000   1.0000   1.0000   1.0000   1.0000   1.0000   1.0000
     1.0000   1.0000   1.0000   1.0000   1.0000   1.0000   1.0000   1.0000
     1.0000   1.0000   1.0000   1.0000   1.0000   1.0000   1.0000   1.0000
     1.0000   1.0000   1.0000   1.0000   1.0000   1.0000   1.0000   1.0000
     1.0000   1.0000   1.0000   1.0000   1.0000   1.0000

[...]

          k =-0.5000-0.2887 0.0000 (  3972 PWs)   bands (ev):

[...]

          k =-0.3333 0.3208-0.2244 (  3960 PWs)   bands (ev):

[...]

          k = 0.5000-0.2245-0.2244 (  3966 PWs)   bands (ev):

    -6.3098  -6.2994  -6.2937  -6.0267  -6.0254  -6.0232   4.6443   4.6980
     4.7214   4.7860   4.9154   4.9639   5.9495   6.0479   6.1512   6.1959
     6.2395   6.2843   6.5927   6.6501   6.7062   6.8073   6.8177   6.8264
     8.3830   8.5403   8.6415   8.6596   8.6847   8.7185   8.8787   8.9275
     8.9661   9.0415   9.0958   9.1945   9.4545   9.4667   9.5827   9.6931
     9.8689  10.0896  10.5008  10.7407  10.9317  11.4213  11.7396  11.7450
    11.9597  12.0527  12.2281  12.8132  12.8160  12.8188

     occupation numbers
     1.0000   1.0000   1.0000   1.0000   1.0000   1.0000   1.0000   1.0000
     1.0000   1.0000   1.0000   1.0000   1.0000   1.0000   1.0000   1.0000
     1.0000   1.0000   1.0000   1.0000   1.0000   1.0000   1.0000   1.0000
     1.0000   1.0000   1.0000   1.0000   1.0000   1.0000   1.0000   1.0000
     1.0000   1.0000   1.0000   1.0000   1.0000   1.0000   1.0000   1.0000
     1.0000   1.0000   1.0000   1.0000   1.0000   1.0000   1.0000   1.0000
     1.0000   1.0000   1.0000   1.0000   1.0000   1.0000

     highest occupied level (ev):    14.1502

!    total energy              =   -1083.78631677 Ry
     estimated scf accuracy    <          7.1E-10 Ry

     The total energy is the sum of the following terms:
     one-electron contribution =    -321.53199433 Ry
     hartree contribution      =     307.59885723 Ry
     xc contribution           =    -331.83224427 Ry
     ewald contribution        =    -738.02093540 Ry

     convergence has been achieved in  18 iterations

     Forces acting on atoms (cartesian axes, Ry/au):

     atom    1 type  1   force =     0.00000000   -0.00001282   -0.15381416
     atom    2 type  1   force =     0.00000000    0.00004249   -0.15380906
     atom    3 type  2   force =     0.00000000    0.00001012    0.15380993
     atom    4 type  2   force =     0.00000000   -0.00000029    0.15381150
     atom    5 type  1   force =     0.00000000   -0.00001009   -0.15380620
     atom    6 type  1   force =     0.00000000    0.00002145   -0.15382154
     atom    7 type  2   force =     0.00000000    0.00000508    0.15380945
     atom    8 type  2   force =     0.00000000   -0.00000239    0.15381461
     atom    9 type  1   force =     0.00000000   -0.00003150   -0.15381568
     atom   10 type  1   force =     0.00000000   -0.00000615   -0.15380246
     atom   11 type  2   force =     0.00000000   -0.00000250    0.15381035
     atom   12 type  2   force =     0.00000000   -0.00001339    0.15381326
     The non-local contrib.  to forces
     atom    1 type  1   force =     0.00000000    0.00002532   -0.30119751
     atom    2 type  1   force =     0.00000000   -0.00001759   -0.30119306
     atom    3 type  2   force =     0.00000000    0.00015917   -0.15044283
     atom    4 type  2   force =     0.00000000   -0.00015593   -0.15044461
     atom    5 type  1   force =     0.00000000    0.00002619   -0.30119312
     atom    6 type  1   force =     0.00000000   -0.00002412   -0.30119825
     atom    7 type  2   force =     0.00000000    0.00015373   -0.15044598
     atom    8 type  2   force =     0.00000000   -0.00015514   -0.15044113
     atom    9 type  1   force =     0.00000000    0.00002009   -0.30119558
     atom   10 type  1   force =     0.00000000   -0.00003379   -0.30119034
     atom   11 type  2   force =     0.00000000    0.00015567   -0.15044367
     atom   12 type  2   force =     0.00000000   -0.00016020   -0.15044051
     The ionic contribution  to forces
     atom    1 type  1   force =    -0.00000000    0.00000001   -2.15847727
     atom    2 type  1   force =     0.00000000    0.00000001   -2.15847727
     atom    3 type  2   force =    -0.00000000    0.00000001    2.15847727
     atom    4 type  2   force =     0.00000000    0.00000001    2.15847727
     atom    5 type  1   force =    -0.00000001    0.00000001   -2.15847728
     atom    6 type  1   force =     0.00000001   -0.00000001   -2.15847728
     atom    7 type  2   force =    -0.00000001    0.00000001    2.15847728
     atom    8 type  2   force =     0.00000001   -0.00000001    2.15847728
     atom    9 type  1   force =    -0.00000000   -0.00000001   -2.15847727
     atom   10 type  1   force =     0.00000000   -0.00000001   -2.15847727
     atom   11 type  2   force =    -0.00000000   -0.00000001    2.15847727
     atom   12 type  2   force =     0.00000000   -0.00000001    2.15847727
     The local contribution  to forces
     atom    1 type  1   force =    -0.00000004   -0.00004519    2.27263138
     atom    2 type  1   force =     0.00000000    0.00001846    2.27261576
     atom    3 type  2   force =    -0.00000001   -0.00015802   -1.85476327
     atom    4 type  2   force =     0.00000000    0.00013450   -1.85475997
     atom    5 type  1   force =    -0.00000007   -0.00005313    2.27261187
     atom    6 type  1   force =     0.00000007    0.00004718    2.27263111
     atom    7 type  2   force =    -0.00000002   -0.00015920   -1.85475788
     atom    8 type  2   force =     0.00000002    0.00014935   -1.85476459
     atom    9 type  1   force =    -0.00000000   -0.00004014    2.27262690
     atom   10 type  1   force =     0.00000004    0.00007554    2.27260056
     atom   11 type  2   force =    -0.00000000   -0.00013658   -1.85476000
     atom   12 type  2   force =     0.00000001    0.00017148   -1.85476390
     The core correction contribution to forces
     atom    1 type  1   force =    -0.00000001    0.00000175    0.03325141
     atom    2 type  1   force =    -0.00000000   -0.00000181    0.03325184
     atom    3 type  2   force =     0.00000000   -0.00000179    0.00053255
     atom    4 type  2   force =     0.00000000    0.00000171    0.00053258
     atom    5 type  1   force =    -0.00000001    0.00000204    0.03325188
     atom    6 type  1   force =     0.00000001   -0.00000223    0.03325171
     atom    7 type  2   force =     0.00000000   -0.00000173    0.00053260
     atom    8 type  2   force =    -0.00000000    0.00000174    0.00053253
     atom    9 type  1   force =    -0.00000000    0.00000248    0.03325148
     atom   10 type  1   force =     0.00000001   -0.00000213    0.03325212
     atom   11 type  2   force =    -0.00000000   -0.00000172    0.00053257
     atom   12 type  2   force =    -0.00000000    0.00000183    0.00053252
     The Hubbard contrib.    to forces
     atom    1 type  1   force =     0.00000000    0.00000000    0.00000000
     atom    2 type  1   force =     0.00000000    0.00000000    0.00000000
     atom    3 type  2   force =     0.00000000    0.00000000    0.00000000
     atom    4 type  2   force =     0.00000000    0.00000000    0.00000000
     atom    5 type  1   force =     0.00000000    0.00000000    0.00000000
     atom    6 type  1   force =     0.00000000    0.00000000    0.00000000
     atom    7 type  2   force =     0.00000000    0.00000000    0.00000000
     atom    8 type  2   force =     0.00000000    0.00000000    0.00000000
     atom    9 type  1   force =     0.00000000    0.00000000    0.00000000
     atom   10 type  1   force =     0.00000000    0.00000000    0.00000000
     atom   11 type  2   force =     0.00000000    0.00000000    0.00000000
     atom   12 type  2   force =     0.00000000    0.00000000    0.00000000
     The SCF correction term to forces
     atom    1 type  1   force =     0.00000000    0.00000575   -0.00002468
     atom    2 type  1   force =    -0.00000000    0.00004388   -0.00000884
     atom    3 type  2   force =     0.00000000    0.00001121    0.00000371
     atom    4 type  2   force =    -0.00000000    0.00001987    0.00000372
     atom    5 type  1   force =     0.00000000    0.00001527   -0.00000207
     atom    6 type  1   force =    -0.00000000    0.00000110   -0.00003135
     atom    7 type  2   force =     0.00000000    0.00001275    0.00000092
     atom    8 type  2   force =    -0.00000000    0.00000212    0.00000802
     atom    9 type  1   force =    -0.00000000   -0.00001346   -0.00002371
     atom   10 type  1   force =    -0.00000000   -0.00004530    0.00000997
     atom   11 type  2   force =     0.00000000   -0.00001941    0.00000166
     atom   12 type  2   force =    -0.00000000   -0.00002603    0.00000538

     Total force =     0.532819     Total SCF correction =     0.000093

     General routines

     Parallel routines

   This run was terminated on:  12:14: 9  27Aug2025

   JOB DONE.