     Program PWSCF v.7.0 starts on 27Aug2025 at 17:10: 4

     K-points division:     npool     =      17

     Reading input from /home/jvc/QEspresso7.2/ZnO_database/scripts/cell131.in/ZnO-3.20-1.49-131.in
Warning: card &CELL ignored
Warning: card / ignored
Warning: card &FCP ignored
Warning: card / ignored
Warning: card &RISM ignored
Warning: card / ignored

     Current dimensions of program PWSCF are:
     Max number of different atomic species (ntypx) = 10
     Max number of k-points (npk) =  40000
     Max angular momentum in pseudopotentials (lmaxx) =  4
     file Zn.upf: wavefunction(s)  3D renormalized
     Found identity + (  0.0000  0.3333  0.0000) symmetry
     This is a supercell, fractional translations are disabled
     Message from routine setup:
     using ibrav=0 with symmetry is DISCOURAGED, use correct ibrav instead

     Subspace diagonalization in iterative solution of the eigenvalue problem:
     a serial algorithm will be used

     Using Slab Decomposition

     bravais-lattice index     =            0
     lattice parameter (alat)  =       6.0553  a.u.
     unit-cell volume          =     856.7255 (a.u.)^3
     number of atoms/cell      =           12
     number of atomic types    =            2
     number of electrons       =       108.00
     number of Kohn-Sham states=           54
     kinetic-energy cutoff     =      50.0000  Ry
     charge density cutoff     =     400.0000  Ry
     scf convergence threshold =      1.0E-08
     mixing beta               =       0.3000
     number of iterations used =            8  plain     mixing
     Exchange-correlation= PBE
                           (   1   4   3   4   0   0   0)

     celldm(1)=   6.055277  celldm(2)=   0.000000  celldm(3)=   0.000000
     celldm(4)=   0.000000  celldm(5)=   0.000000  celldm(6)=   0.000000

     crystal axes: (cart. coord. in units of alat)
               a(1) = (   1.000000   0.000000   0.000000 )
               a(2) = (  -1.500000   2.598076   0.000000 )
               a(3) = (   0.000000   0.000000   1.485210 )

     reciprocal axes: (cart. coord. in units 2 pi/alat)
               b(1) = (  1.000000  0.577350 -0.000000 )
               b(2) = (  0.000000  0.384900  0.000000 )
               b(3) = (  0.000000 -0.000000  0.673306 )

     PseudoPot. # 1 for Zn read from file:
     /home/jvc/QEspresso7.2/ZnO_database/pseudos/Zn.upf
     MD5 check sum: 7f56cabf9682ed8c977c2f7d0c5985c5
     Pseudo is Ultrasoft + core correction, Zval = 12.0
     Generated using &quot;atomic&quot; code by A. Dal Corso  v.6.2.2
     Using radial grid of 1201 points,  6 beta functions with:
                l(1) =   0
                l(2) =   0
                l(3) =   1
                l(4) =   1
                l(5) =   2
                l(6) =   2
     Q(r) pseudized with 0 coefficients

     PseudoPot. # 2 for O  read from file:
     /home/jvc/QEspresso7.2/ZnO_database/pseudos/O.upf
     MD5 check sum: 91400c9766925bcf19f520983a725ff0
     Pseudo is Ultrasoft + core correction, Zval =  6.0
     Generated using &quot;atomic&quot; code by A. Dal Corso  v.6.3MaX
     Using radial grid of 1095 points,  4 beta functions with:
                l(1) =   0
                l(2) =   0
                l(3) =   1
                l(4) =   1
     Q(r) pseudized with 0 coefficients

     atomic species   valence    mass     pseudopotential
        Zn            12.00    65.38000     Zn( 1.00)
        O              6.00    15.99900     O ( 1.00)

      2 Sym. Ops. (no inversion) found

                                    s                        frac. trans.

      isym =  1     identity

 cryst.   s( 1) = (     1          0          0      )
                  (     0          1          0      )
                  (     0          0          1      )

 cart.    s( 1) = (  1.0000000  0.0000000  0.0000000 )
                  (  0.0000000  1.0000000  0.0000000 )
                  (  0.0000000  0.0000000  1.0000000 )

      isym =  2     inv. 180 deg rotation - cart. axis [1,0,0]

 cryst.   s( 2) = (    -1          0          0      )
                  (     3          1          0      )
                  (     0          0          1      )

 cart.    s( 2) = ( -1.0000000  0.0000000  0.0000000 )
                  (  0.0000000  1.0000000  0.0000000 )
                  (  0.0000000  0.0000000  1.0000000 )

   Cartesian axes

     site n.     atom                  positions (alat units)
         1           Zn  tau(   1) = (   0.5000000   0.2886751   0.7435459  )
         2           Zn  tau(   2) = (   0.0000000   0.5773503   0.0009410  )
         3           O   tau(   3) = (   0.5000000   0.2886751   1.3065039  )
         4           O   tau(   4) = (   0.0000000   0.5773503   0.5638991  )
         5           Zn  tau(   5) = (   0.0000000   1.1547005   0.7435459  )
         6           Zn  tau(   6) = (  -0.5000000   1.4433757   0.0009410  )
         7           O   tau(   7) = (   0.0000000   1.1547005   1.3065039  )
         8           O   tau(   8) = (  -0.5000000   1.4433757   0.5638991  )
         9           Zn  tau(   9) = (  -0.5000000   2.0207259   0.7435459  )
        10           Zn  tau(  10) = (  -1.0000000   2.3094011   0.0009410  )
        11           O   tau(  11) = (  -0.5000000   2.0207259   1.3065039  )
        12           O   tau(  12) = (  -1.0000000   2.3094011   0.5638991  )

   Crystallographic axes

     site n.     atom                  positions (cryst. coord.)
         1           Zn  tau(   1) = (  0.6666667  0.1111111  0.5006336  )
         2           Zn  tau(   2) = (  0.3333333  0.2222222  0.0006336  )
         3           O   tau(   3) = (  0.6666667  0.1111111  0.8796764  )
         4           O   tau(   4) = (  0.3333333  0.2222222  0.3796764  )
         5           Zn  tau(   5) = (  0.6666667  0.4444444  0.5006336  )
         6           Zn  tau(   6) = (  0.3333333  0.5555556  0.0006336  )
         7           O   tau(   7) = (  0.6666667  0.4444444  0.8796764  )
         8           O   tau(   8) = (  0.3333333  0.5555556  0.3796764  )
         9           Zn  tau(   9) = (  0.6666667  0.7777778  0.5006336  )
        10           Zn  tau(  10) = (  0.3333333  0.8888889  0.0006336  )
        11           O   tau(  11) = (  0.6666667  0.7777778  0.8796764  )
        12           O   tau(  12) = (  0.3333333  0.8888889  0.3796764  )

     number of k points=    68
                       cart. coord. in units 2pi/alat
        k(    1) = (   0.0000000   0.0000000   0.0000000), wk =   0.0092593
        k(    2) = (   0.0000000   0.0000000   0.1122176), wk =   0.0185185
        k(    3) = (   0.0000000   0.0000000   0.2244352), wk =   0.0185185
        k(    4) = (   0.0000000   0.0000000  -0.3366528), wk =   0.0092593
        k(    5) = (   0.0000000   0.0641500   0.0000000), wk =   0.0185185
        k(    6) = (   0.0000000   0.0641500   0.1122176), wk =   0.0185185
        k(    7) = (   0.0000000   0.0641500   0.2244352), wk =   0.0185185
        k(    8) = (   0.0000000   0.0641500  -0.3366528), wk =   0.0185185
        k(    9) = (   0.0000000   0.1283001   0.0000000), wk =   0.0185185
        k(   10) = (   0.0000000   0.1283001   0.1122176), wk =   0.0185185
        k(   11) = (   0.0000000   0.1283001   0.2244352), wk =   0.0185185
        k(   12) = (   0.0000000   0.1283001  -0.3366528), wk =   0.0185185
        k(   13) = (   0.0000000  -0.1924501   0.0000000), wk =   0.0092593
        k(   14) = (   0.0000000  -0.1924501   0.1122176), wk =   0.0185185
        k(   15) = (   0.0000000  -0.1924501   0.2244352), wk =   0.0185185
        k(   16) = (   0.0000000  -0.1924501  -0.3366528), wk =   0.0092593
        k(   17) = (   0.1666667   0.0962250   0.0000000), wk =   0.0370370
        k(   18) = (   0.1666667   0.0962250   0.1122176), wk =   0.0370370
        k(   19) = (   0.1666667   0.0962250   0.2244352), wk =   0.0370370
        k(   20) = (   0.1666667   0.0962250  -0.3366528), wk =   0.0370370
        k(   21) = (   0.1666667   0.1603751   0.0000000), wk =   0.0370370
        k(   22) = (   0.1666667   0.1603751   0.1122176), wk =   0.0370370
        k(   23) = (   0.1666667   0.1603751   0.2244352), wk =   0.0370370
        k(   24) = (   0.1666667   0.1603751  -0.3366528), wk =   0.0370370
        k(   25) = (   0.1666667  -0.0320750   0.0000000), wk =   0.0370370
        k(   26) = (   0.1666667  -0.0320750   0.1122176), wk =   0.0370370
        k(   27) = (   0.1666667  -0.0320750   0.2244352), wk =   0.0370370
        k(   28) = (   0.1666667  -0.0320750  -0.3366528), wk =   0.0370370
        k(   29) = (   0.3333333   0.1924501   0.0000000), wk =   0.0185185
        k(   30) = (   0.3333333   0.1924501   0.1122176), wk =   0.0370370
        k(   31) = (   0.3333333   0.1924501   0.2244352), wk =   0.0370370
        k(   32) = (   0.3333333   0.1924501  -0.3366528), wk =   0.0185185
        k(   33) = (   0.3333333   0.2566001   0.0000000), wk =   0.0370370
        k(   34) = (   0.3333333   0.2566001   0.1122176), wk =   0.0370370
        k(   35) = (   0.3333333   0.2566001   0.2244352), wk =   0.0370370
        k(   36) = (   0.3333333   0.2566001  -0.3366528), wk =   0.0370370
        k(   37) = (   0.3333333   0.3207501   0.0000000), wk =   0.0370370
        k(   38) = (   0.3333333   0.3207501   0.1122176), wk =   0.0370370
        k(   39) = (   0.3333333   0.3207501   0.2244352), wk =   0.0370370
        k(   40) = (   0.3333333   0.3207501  -0.3366528), wk =   0.0370370
        k(   41) = (   0.3333333  -0.0000000   0.0000000), wk =   0.0185185
        k(   42) = (   0.3333333  -0.0000000   0.1122176), wk =   0.0370370
        k(   43) = (   0.3333333  -0.0000000   0.2244352), wk =   0.0370370
        k(   44) = (   0.3333333  -0.0000000  -0.3366528), wk =   0.0185185
        k(   45) = (  -0.5000000  -0.2886751   0.0000000), wk =   0.0185185
        k(   46) = (  -0.5000000  -0.2886751   0.1122176), wk =   0.0370370
        k(   47) = (  -0.5000000  -0.2886751   0.2244352), wk =   0.0370370
        k(   48) = (  -0.5000000  -0.2886751  -0.3366528), wk =   0.0185185
        k(   49) = (  -0.5000000  -0.2245251   0.0000000), wk =   0.0370370
        k(   50) = (  -0.5000000  -0.2245251   0.1122176), wk =   0.0370370
        k(   51) = (  -0.5000000  -0.2245251   0.2244352), wk =   0.0370370
        k(   52) = (  -0.5000000  -0.2245251  -0.3366528), wk =   0.0370370
        k(   53) = (   0.0000000   0.0641500  -0.1122176), wk =   0.0185185
        k(   54) = (   0.0000000   0.0641500  -0.2244352), wk =   0.0185185
        k(   55) = (   0.0000000   0.1283001  -0.1122176), wk =   0.0185185
        k(   56) = (   0.0000000   0.1283001  -0.2244352), wk =   0.0185185
        k(   57) = (  -0.1666667   0.0962250  -0.1122176), wk =   0.0370370
        k(   58) = (  -0.1666667   0.0962250  -0.2244352), wk =   0.0370370
        k(   59) = (  -0.1666667   0.1603751  -0.1122176), wk =   0.0370370
        k(   60) = (  -0.1666667   0.1603751  -0.2244352), wk =   0.0370370
        k(   61) = (  -0.1666667  -0.0320750  -0.1122176), wk =   0.0370370
        k(   62) = (  -0.1666667  -0.0320750  -0.2244352), wk =   0.0370370
        k(   63) = (  -0.3333333   0.2566001  -0.1122176), wk =   0.0370370
        k(   64) = (  -0.3333333   0.2566001  -0.2244352), wk =   0.0370370
        k(   65) = (  -0.3333333   0.3207501  -0.1122176), wk =   0.0370370
        k(   66) = (  -0.3333333   0.3207501  -0.2244352), wk =   0.0370370
        k(   67) = (   0.5000000  -0.2245251  -0.1122176), wk =   0.0370370
        k(   68) = (   0.5000000  -0.2245251  -0.2244352), wk =   0.0370370

                       cryst. coord.
        k(    1) = (   0.0000000   0.0000000   0.0000000), wk =   0.0092593
        k(    2) = (   0.0000000   0.0000000   0.1666667), wk =   0.0185185
        k(    3) = (   0.0000000   0.0000000   0.3333333), wk =   0.0185185
        k(    4) = (   0.0000000   0.0000000  -0.5000000), wk =   0.0092593
        k(    5) = (   0.0000000   0.1666667   0.0000000), wk =   0.0185185
        k(    6) = (   0.0000000   0.1666667   0.1666667), wk =   0.0185185
        k(    7) = (   0.0000000   0.1666667   0.3333333), wk =   0.0185185
        k(    8) = (   0.0000000   0.1666667  -0.5000000), wk =   0.0185185
        k(    9) = (   0.0000000   0.3333333   0.0000000), wk =   0.0185185
        k(   10) = (   0.0000000   0.3333333   0.1666667), wk =   0.0185185
        k(   11) = (   0.0000000   0.3333333   0.3333333), wk =   0.0185185
        k(   12) = (   0.0000000   0.3333333  -0.5000000), wk =   0.0185185
        k(   13) = (   0.0000000  -0.5000000   0.0000000), wk =   0.0092593
        k(   14) = (   0.0000000  -0.5000000   0.1666667), wk =   0.0185185
        k(   15) = (   0.0000000  -0.5000000   0.3333333), wk =   0.0185185
        k(   16) = (   0.0000000  -0.5000000  -0.5000000), wk =   0.0092593
        k(   17) = (   0.1666667   0.0000000   0.0000000), wk =   0.0370370
        k(   18) = (   0.1666667   0.0000000   0.1666667), wk =   0.0370370
        k(   19) = (   0.1666667   0.0000000   0.3333333), wk =   0.0370370
        k(   20) = (   0.1666667   0.0000000  -0.5000000), wk =   0.0370370
        k(   21) = (   0.1666667   0.1666667   0.0000000), wk =   0.0370370
        k(   22) = (   0.1666667   0.1666667   0.1666667), wk =   0.0370370
        k(   23) = (   0.1666667   0.1666667   0.3333333), wk =   0.0370370
        k(   24) = (   0.1666667   0.1666667  -0.5000000), wk =   0.0370370
        k(   25) = (   0.1666667  -0.3333333   0.0000000), wk =   0.0370370
        k(   26) = (   0.1666667  -0.3333333   0.1666667), wk =   0.0370370
        k(   27) = (   0.1666667  -0.3333333   0.3333333), wk =   0.0370370
        k(   28) = (   0.1666667  -0.3333333  -0.5000000), wk =   0.0370370
        k(   29) = (   0.3333333   0.0000000   0.0000000), wk =   0.0185185
        k(   30) = (   0.3333333   0.0000000   0.1666667), wk =   0.0370370
        k(   31) = (   0.3333333   0.0000000   0.3333333), wk =   0.0370370
        k(   32) = (   0.3333333   0.0000000  -0.5000000), wk =   0.0185185
        k(   33) = (   0.3333333   0.1666667   0.0000000), wk =   0.0370370
        k(   34) = (   0.3333333   0.1666667   0.1666667), wk =   0.0370370
        k(   35) = (   0.3333333   0.1666667   0.3333333), wk =   0.0370370
        k(   36) = (   0.3333333   0.1666667  -0.5000000), wk =   0.0370370
        k(   37) = (   0.3333333   0.3333333   0.0000000), wk =   0.0370370
        k(   38) = (   0.3333333   0.3333333   0.1666667), wk =   0.0370370
        k(   39) = (   0.3333333   0.3333333   0.3333333), wk =   0.0370370
        k(   40) = (   0.3333333   0.3333333  -0.5000000), wk =   0.0370370
        k(   41) = (   0.3333333  -0.5000000   0.0000000), wk =   0.0185185
        k(   42) = (   0.3333333  -0.5000000   0.1666667), wk =   0.0370370
        k(   43) = (   0.3333333  -0.5000000   0.3333333), wk =   0.0370370
        k(   44) = (   0.3333333  -0.5000000  -0.5000000), wk =   0.0185185
        k(   45) = (  -0.5000000   0.0000000   0.0000000), wk =   0.0185185
        k(   46) = (  -0.5000000   0.0000000   0.1666667), wk =   0.0370370
        k(   47) = (  -0.5000000   0.0000000   0.3333333), wk =   0.0370370
        k(   48) = (  -0.5000000   0.0000000  -0.5000000), wk =   0.0185185
        k(   49) = (  -0.5000000   0.1666667   0.0000000), wk =   0.0370370
        k(   50) = (  -0.5000000   0.1666667   0.1666667), wk =   0.0370370
        k(   51) = (  -0.5000000   0.1666667   0.3333333), wk =   0.0370370
        k(   52) = (  -0.5000000   0.1666667  -0.5000000), wk =   0.0370370
        k(   53) = (   0.0000000   0.1666667  -0.1666667), wk =   0.0185185
        k(   54) = (   0.0000000   0.1666667  -0.3333333), wk =   0.0185185
        k(   55) = (   0.0000000   0.3333333  -0.1666667), wk =   0.0185185
        k(   56) = (   0.0000000   0.3333333  -0.3333333), wk =   0.0185185
        k(   57) = (  -0.1666667   0.5000000  -0.1666667), wk =   0.0370370
        k(   58) = (  -0.1666667   0.5000000  -0.3333333), wk =   0.0370370
        k(   59) = (  -0.1666667   0.6666667  -0.1666667), wk =   0.0370370
        k(   60) = (  -0.1666667   0.6666667  -0.3333333), wk =   0.0370370
        k(   61) = (  -0.1666667   0.1666667  -0.1666667), wk =   0.0370370
        k(   62) = (  -0.1666667   0.1666667  -0.3333333), wk =   0.0370370
        k(   63) = (  -0.3333333   1.1666667  -0.1666667), wk =   0.0370370
        k(   64) = (  -0.3333333   1.1666667  -0.3333333), wk =   0.0370370
        k(   65) = (  -0.3333333   1.3333333  -0.1666667), wk =   0.0370370
        k(   66) = (  -0.3333333   1.3333333  -0.3333333), wk =   0.0370370
        k(   67) = (   0.5000000  -1.3333333  -0.1666667), wk =   0.0370370
        k(   68) = (   0.5000000  -1.3333333  -0.3333333), wk =   0.0370370

     Check: negative core charge=   -0.000002

     Initial potential from superposition of free atoms

     starting charge     107.9776, renormalised to     108.0000
     Starting wfcs are   78 randomized atomic wfcs

     Self-consistent Calculation

     iteration #  1     ecut=    50.00 Ry     beta= 0.30
     Davidson diagonalization with overlap

     ethr =  1.00E-02,  avg # of iterations =  2.0

     total energy              =   -1084.31000647 Ry
     estimated scf accuracy    <       2.04890087 Ry

[...]

     total energy              =   -1084.74346691 Ry
     estimated scf accuracy    <       0.00000011 Ry

     iteration # 24     ecut=    50.00 Ry     beta= 0.30
     Davidson diagonalization with overlap

     ethr =  8.57E-11,  avg # of iterations =  3.6

     End of self-consistent calculation

          k = 0.0000 0.0000 0.0000 (  5125 PWs)   bands (ev):

    -9.9794  -9.4177  -9.4176  -8.9068  -8.7975  -8.7974   2.3905   2.3905
     2.7292   2.8294   2.8294   2.8537   2.8539   2.8688   3.0598   3.0599
     3.1414   3.1415   3.1672   3.1673   3.6197   3.6198   3.6274   3.6275
     4.2630   4.2630   4.3341   4.3341   4.4481   4.4482   4.6356   4.6357
     4.6778   4.6779   4.7372   4.7372   4.9500   5.1691   5.1691   5.7925
     5.7926   6.6711   6.6712   6.7843   6.7843   7.9237   7.9239   8.2702
     8.2703   8.4791   8.4793   9.0959   9.0962   9.1514

     occupation numbers
     1.0000   1.0000   1.0000   1.0000   1.0000   1.0000   1.0000   1.0000
     1.0000   1.0000   1.0000   1.0000   1.0000   1.0000   1.0000   1.0000
     1.0000   1.0000   1.0000   1.0000   1.0000   1.0000   1.0000   1.0000
     1.0000   1.0000   1.0000   1.0000   1.0000   1.0000   1.0000   1.0000
     1.0000   1.0000   1.0000   1.0000   1.0000   1.0000   1.0000   1.0000
     1.0000   1.0000   1.0000   1.0000   1.0000   1.0000   1.0000   1.0000
     1.0000   1.0000   1.0000   1.0000   1.0000   1.0000

[...]

          k =-0.5000-0.2887 0.0000 (  5116 PWs)   bands (ev):

[...]

          k =-0.3333 0.3208-0.2244 (  5116 PWs)   bands (ev):

[...]

          k = 0.5000-0.2245-0.2244 (  5135 PWs)   bands (ev):

    -9.0627  -9.0577  -9.0550  -8.8853  -8.8844  -8.8828   2.1791   2.2182
     2.2230   2.2851   2.3474   2.4013   3.0228   3.1311   3.1408   3.1974
     3.2161   3.2431   3.4003   3.4312   3.4701   3.5485   3.5750   3.5868
     4.4265   4.5164   4.5530   4.5771   4.5809   4.5994   4.7016   4.7327
     4.7552   4.8075   4.8469   4.9128   5.2334   5.2369   5.3422   5.4033
     5.5391   5.7643   6.1817   6.5221   6.7163   7.1166   7.2528   7.2883
     7.4450   7.5709   7.7266   8.1342   8.1452   8.1538

     occupation numbers
     1.0000   1.0000   1.0000   1.0000   1.0000   1.0000   1.0000   1.0000
     1.0000   1.0000   1.0000   1.0000   1.0000   1.0000   1.0000   1.0000
     1.0000   1.0000   1.0000   1.0000   1.0000   1.0000   1.0000   1.0000
     1.0000   1.0000   1.0000   1.0000   1.0000   1.0000   1.0000   1.0000
     1.0000   1.0000   1.0000   1.0000   1.0000   1.0000   1.0000   1.0000
     1.0000   1.0000   1.0000   1.0000   1.0000   1.0000   1.0000   1.0000
     1.0000   1.0000   1.0000   1.0000   1.0000   1.0000

     highest occupied level (ev):     9.1514

!    total energy              =   -1084.74346692 Ry
     estimated scf accuracy    <          8.2E-09 Ry

     The total energy is the sum of the following terms:
     one-electron contribution =    -416.11594418 Ry
     hartree contribution      =     338.78793426 Ry
     xc contribution           =    -329.64112857 Ry
     ewald contribution        =    -677.77432842 Ry

     convergence has been achieved in  24 iterations

     Forces acting on atoms (cartesian axes, Ry/au):

     atom    1 type  1   force =     0.00000000    0.00000991   -0.06647614
     atom    2 type  1   force =     0.00000000    0.00004290   -0.06647359
     atom    3 type  2   force =     0.00000000    0.00000616    0.06646920
     atom    4 type  2   force =     0.00000000    0.00000161    0.06647340
     atom    5 type  1   force =     0.00000000   -0.00001001   -0.06646687
     atom    6 type  1   force =     0.00000000    0.00000057   -0.06647643
     atom    7 type  2   force =     0.00000000   -0.00000262    0.06647466
     atom    8 type  2   force =     0.00000000   -0.00000049    0.06647881
     atom    9 type  1   force =     0.00000000   -0.00003377   -0.06647195
     atom   10 type  1   force =     0.00000000   -0.00000957   -0.06647283
     atom   11 type  2   force =     0.00000000   -0.00000125    0.06647077
     atom   12 type  2   force =     0.00000000   -0.00000344    0.06647097
     The non-local contrib.  to forces
     atom    1 type  1   force =     0.00000000    0.00002194   -0.26603212
     atom    2 type  1   force =     0.00000000   -0.00001098   -0.26603266
     atom    3 type  2   force =     0.00000000    0.00018396   -0.17494950
     atom    4 type  2   force =     0.00000000   -0.00020829   -0.17495314
     atom    5 type  1   force =     0.00000000    0.00001272   -0.26603440
     atom    6 type  1   force =     0.00000000   -0.00001309   -0.26603427
     atom    7 type  2   force =     0.00000000    0.00018474   -0.17494665
     atom    8 type  2   force =     0.00000000   -0.00018002   -0.17494714
     atom    9 type  1   force =     0.00000000    0.00001041   -0.26603231
     atom   10 type  1   force =     0.00000000   -0.00002291   -0.26603135
     atom   11 type  2   force =     0.00000000    0.00020507   -0.17495222
     atom   12 type  2   force =     0.00000000   -0.00018438   -0.17495055
     The ionic contribution  to forces
     atom    1 type  1   force =    -0.00000000    0.00000001   -1.82045668
     atom    2 type  1   force =     0.00000000    0.00000001   -1.82045667
     atom    3 type  2   force =    -0.00000000    0.00000001    1.82045668
     atom    4 type  2   force =     0.00000000    0.00000000    1.82045667
     atom    5 type  1   force =    -0.00000001    0.00000001   -1.82045668
     atom    6 type  1   force =     0.00000001   -0.00000001   -1.82045668
     atom    7 type  2   force =    -0.00000001    0.00000001    1.82045668
     atom    8 type  2   force =     0.00000001   -0.00000001    1.82045668
     atom    9 type  1   force =    -0.00000000   -0.00000001   -1.82045667
     atom   10 type  1   force =     0.00000000   -0.00000001   -1.82045668
     atom   11 type  2   force =    -0.00000000   -0.00000000    1.82045667
     atom   12 type  2   force =     0.00000000   -0.00000001    1.82045668
     The local contribution  to forces
     atom    1 type  1   force =    -0.00000004   -0.00005743    1.99701567
     atom    2 type  1   force =     0.00000000   -0.00000100    1.99700979
     atom    3 type  2   force =    -0.00000001   -0.00019519   -1.58013440
     atom    4 type  2   force =     0.00000000    0.00018927   -1.58013095
     atom    5 type  1   force =    -0.00000008   -0.00003111    1.99700397
     atom    6 type  1   force =     0.00000008    0.00004133    1.99701536
     atom    7 type  2   force =    -0.00000002   -0.00019286   -1.58013123
     atom    8 type  2   force =     0.00000002    0.00018762   -1.58013160
     atom    9 type  1   force =     0.00000000   -0.00000773    1.99700916
     atom   10 type  1   force =     0.00000004    0.00005800    1.99701079
     atom   11 type  2   force =     0.00000000   -0.00018796   -1.58013187
     atom   12 type  2   force =     0.00000001    0.00018977   -1.58013383
     The core correction contribution to forces
     atom    1 type  1   force =    -0.00000001    0.00000346    0.02301713
     atom    2 type  1   force =    -0.00000000   -0.00000291    0.02301741
     atom    3 type  2   force =     0.00000000   -0.00000211    0.00110231
     atom    4 type  2   force =    -0.00000000    0.00000246    0.00110237
     atom    5 type  1   force =    -0.00000001    0.00000345    0.02301750
     atom    6 type  1   force =     0.00000001   -0.00000365    0.02301718
     atom    7 type  2   force =     0.00000000   -0.00000214    0.00110227
     atom    8 type  2   force =    -0.00000000    0.00000205    0.00110229
     atom    9 type  1   force =     0.00000000    0.00000314    0.02301737
     atom   10 type  1   force =     0.00000001   -0.00000341    0.02301719
     atom   11 type  2   force =     0.00000000   -0.00000241    0.00110236
     atom   12 type  2   force =    -0.00000000    0.00000210    0.00110233
     The Hubbard contrib.    to forces
     atom    1 type  1   force =     0.00000000    0.00000000    0.00000000
     atom    2 type  1   force =     0.00000000    0.00000000    0.00000000
     atom    3 type  2   force =     0.00000000    0.00000000    0.00000000
     atom    4 type  2   force =     0.00000000    0.00000000    0.00000000
     atom    5 type  1   force =     0.00000000    0.00000000    0.00000000
     atom    6 type  1   force =     0.00000000    0.00000000    0.00000000
     atom    7 type  2   force =     0.00000000    0.00000000    0.00000000
     atom    8 type  2   force =     0.00000000    0.00000000    0.00000000
     atom    9 type  1   force =     0.00000000    0.00000000    0.00000000
     atom   10 type  1   force =     0.00000000    0.00000000    0.00000000
     atom   11 type  2   force =     0.00000000    0.00000000    0.00000000
     atom   12 type  2   force =     0.00000000    0.00000000    0.00000000
     The SCF correction term to forces
     atom    1 type  1   force =    -0.00000000    0.00004189   -0.00002031
     atom    2 type  1   force =    -0.00000000    0.00005773   -0.00001161
     atom    3 type  2   force =     0.00000000    0.00001945   -0.00000605
     atom    4 type  2   force =     0.00000000    0.00001812   -0.00000172
     atom    5 type  1   force =    -0.00000000    0.00000488    0.00000258
     atom    6 type  1   force =     0.00000000   -0.00002406   -0.00001818
     atom    7 type  2   force =    -0.00000000    0.00000758   -0.00000657
     atom    8 type  2   force =    -0.00000000   -0.00001019   -0.00000159
     atom    9 type  1   force =     0.00000000   -0.00003964   -0.00000966
     atom   10 type  1   force =     0.00000000   -0.00004129   -0.00001296
     atom   11 type  2   force =    -0.00000000   -0.00001600   -0.00000433
     atom   12 type  2   force =    -0.00000000   -0.00001098   -0.00000382

     Total force =     0.230269     Total SCF correction =     0.000107

     General routines

     Parallel routines

   This run was terminated on:  17:17:50  27Aug2025

   JOB DONE.