     Program PWSCF v.7.0 starts on 28Aug2025 at  6:18: 6

     K-points division:     npool     =      17

     Reading input from /home/jvc/QEspresso7.2/ZnO_database/scripts/cell131.in/ZnO-3.60-1.65-131.in
Warning: card &CELL ignored
Warning: card / ignored
Warning: card &FCP ignored
Warning: card / ignored
Warning: card &RISM ignored
Warning: card / ignored

     Current dimensions of program PWSCF are:
     Max number of different atomic species (ntypx) = 10
     Max number of k-points (npk) =  40000
     Max angular momentum in pseudopotentials (lmaxx) =  4
     file Zn.upf: wavefunction(s)  3D renormalized
     Found identity + (  0.0000  0.3333  0.0000) symmetry
     This is a supercell, fractional translations are disabled
     Message from routine setup:
     using ibrav=0 with symmetry is DISCOURAGED, use correct ibrav instead

     Subspace diagonalization in iterative solution of the eigenvalue problem:
     a serial algorithm will be used

     Using Slab Decomposition

     bravais-lattice index     =            0
     lattice parameter (alat)  =       6.7967  a.u.
     unit-cell volume          =    1343.2407 (a.u.)^3
     number of atoms/cell      =           12
     number of atomic types    =            2
     number of electrons       =       108.00
     number of Kohn-Sham states=           54
     kinetic-energy cutoff     =      50.0000  Ry
     charge density cutoff     =     400.0000  Ry
     scf convergence threshold =      1.0E-08
     mixing beta               =       0.3000
     number of iterations used =            8  plain     mixing
     Exchange-correlation= PBE
                           (   1   4   3   4   0   0   0)

     celldm(1)=   6.796739  celldm(2)=   0.000000  celldm(3)=   0.000000
     celldm(4)=   0.000000  celldm(5)=   0.000000  celldm(6)=   0.000000

     crystal axes: (cart. coord. in units of alat)
               a(1) = (   1.000000   0.000000   0.000000 )
               a(2) = (  -1.500000   2.598076   0.000000 )
               a(3) = (   0.000000   0.000000   1.646646 )

     reciprocal axes: (cart. coord. in units 2 pi/alat)
               b(1) = (  1.000000  0.577350 -0.000000 )
               b(2) = (  0.000000  0.384900  0.000000 )
               b(3) = (  0.000000 -0.000000  0.607295 )

     PseudoPot. # 1 for Zn read from file:
     /home/jvc/QEspresso7.2/ZnO_database/pseudos/Zn.upf
     MD5 check sum: 7f56cabf9682ed8c977c2f7d0c5985c5
     Pseudo is Ultrasoft + core correction, Zval = 12.0
     Generated using &quot;atomic&quot; code by A. Dal Corso  v.6.2.2
     Using radial grid of 1201 points,  6 beta functions with:
                l(1) =   0
                l(2) =   0
                l(3) =   1
                l(4) =   1
                l(5) =   2
                l(6) =   2
     Q(r) pseudized with 0 coefficients

     PseudoPot. # 2 for O  read from file:
     /home/jvc/QEspresso7.2/ZnO_database/pseudos/O.upf
     MD5 check sum: 91400c9766925bcf19f520983a725ff0
     Pseudo is Ultrasoft + core correction, Zval =  6.0
     Generated using &quot;atomic&quot; code by A. Dal Corso  v.6.3MaX
     Using radial grid of 1095 points,  4 beta functions with:
                l(1) =   0
                l(2) =   0
                l(3) =   1
                l(4) =   1
     Q(r) pseudized with 0 coefficients

     atomic species   valence    mass     pseudopotential
        Zn            12.00    65.38000     Zn( 1.00)
        O              6.00    15.99900     O ( 1.00)

      2 Sym. Ops. (no inversion) found

                                    s                        frac. trans.

      isym =  1     identity

 cryst.   s( 1) = (     1          0          0      )
                  (     0          1          0      )
                  (     0          0          1      )

 cart.    s( 1) = (  1.0000000  0.0000000  0.0000000 )
                  (  0.0000000  1.0000000  0.0000000 )
                  (  0.0000000  0.0000000  1.0000000 )

      isym =  2     inv. 180 deg rotation - cart. axis [1,0,0]

 cryst.   s( 2) = (    -1          0          0      )
                  (     3          1          0      )
                  (     0          0          1      )

 cart.    s( 2) = ( -1.0000000 -0.0000000  0.0000000 )
                  (  0.0000000  1.0000000  0.0000000 )
                  (  0.0000000  0.0000000  1.0000000 )

   Cartesian axes

     site n.     atom                  positions (alat units)
         1           Zn  tau(   1) = (   0.5000000   0.2886751   0.8243661  )
         2           Zn  tau(   2) = (  -0.0000000   0.5773503   0.0010433  )
         3           O   tau(   3) = (   0.5000000   0.2886751   1.4485152  )
         4           O   tau(   4) = (  -0.0000000   0.5773503   0.6251925  )
         5           Zn  tau(   5) = (   0.0000000   1.1547005   0.8243661  )
         6           Zn  tau(   6) = (  -0.5000000   1.4433757   0.0010433  )
         7           O   tau(   7) = (   0.0000000   1.1547005   1.4485152  )
         8           O   tau(   8) = (  -0.5000000   1.4433757   0.6251925  )
         9           Zn  tau(   9) = (  -0.5000000   2.0207259   0.8243661  )
        10           Zn  tau(  10) = (  -1.0000000   2.3094011   0.0010433  )
        11           O   tau(  11) = (  -0.5000000   2.0207259   1.4485152  )
        12           O   tau(  12) = (  -1.0000000   2.3094011   0.6251925  )

   Crystallographic axes

     site n.     atom                  positions (cryst. coord.)
         1           Zn  tau(   1) = (  0.6666667  0.1111111  0.5006336  )
         2           Zn  tau(   2) = (  0.3333333  0.2222222  0.0006336  )
         3           O   tau(   3) = (  0.6666667  0.1111111  0.8796764  )
         4           O   tau(   4) = (  0.3333333  0.2222222  0.3796764  )
         5           Zn  tau(   5) = (  0.6666667  0.4444444  0.5006336  )
         6           Zn  tau(   6) = (  0.3333333  0.5555556  0.0006336  )
         7           O   tau(   7) = (  0.6666667  0.4444444  0.8796764  )
         8           O   tau(   8) = (  0.3333333  0.5555556  0.3796764  )
         9           Zn  tau(   9) = (  0.6666667  0.7777778  0.5006336  )
        10           Zn  tau(  10) = (  0.3333333  0.8888889  0.0006336  )
        11           O   tau(  11) = (  0.6666667  0.7777778  0.8796764  )
        12           O   tau(  12) = (  0.3333333  0.8888889  0.3796764  )

     number of k points=    68
                       cart. coord. in units 2pi/alat
        k(    1) = (   0.0000000   0.0000000   0.0000000), wk =   0.0092593
        k(    2) = (   0.0000000   0.0000000   0.1012159), wk =   0.0185185
        k(    3) = (   0.0000000   0.0000000   0.2024317), wk =   0.0185185
        k(    4) = (   0.0000000   0.0000000  -0.3036476), wk =   0.0092593
        k(    5) = (   0.0000000   0.0641500   0.0000000), wk =   0.0185185
        k(    6) = (   0.0000000   0.0641500   0.1012159), wk =   0.0185185
        k(    7) = (   0.0000000   0.0641500   0.2024317), wk =   0.0185185
        k(    8) = (   0.0000000   0.0641500  -0.3036476), wk =   0.0185185
        k(    9) = (   0.0000000   0.1283001   0.0000000), wk =   0.0185185
        k(   10) = (   0.0000000   0.1283001   0.1012159), wk =   0.0185185
        k(   11) = (   0.0000000   0.1283001   0.2024317), wk =   0.0185185
        k(   12) = (   0.0000000   0.1283001  -0.3036476), wk =   0.0185185
        k(   13) = (   0.0000000  -0.1924501   0.0000000), wk =   0.0092593
        k(   14) = (   0.0000000  -0.1924501   0.1012159), wk =   0.0185185
        k(   15) = (   0.0000000  -0.1924501   0.2024317), wk =   0.0185185
        k(   16) = (   0.0000000  -0.1924501  -0.3036476), wk =   0.0092593
        k(   17) = (   0.1666667   0.0962250   0.0000000), wk =   0.0370370
        k(   18) = (   0.1666667   0.0962250   0.1012159), wk =   0.0370370
        k(   19) = (   0.1666667   0.0962250   0.2024317), wk =   0.0370370
        k(   20) = (   0.1666667   0.0962250  -0.3036476), wk =   0.0370370
        k(   21) = (   0.1666667   0.1603751   0.0000000), wk =   0.0370370
        k(   22) = (   0.1666667   0.1603751   0.1012159), wk =   0.0370370
        k(   23) = (   0.1666667   0.1603751   0.2024317), wk =   0.0370370
        k(   24) = (   0.1666667   0.1603751  -0.3036476), wk =   0.0370370
        k(   25) = (   0.1666667  -0.0320750   0.0000000), wk =   0.0370370
        k(   26) = (   0.1666667  -0.0320750   0.1012159), wk =   0.0370370
        k(   27) = (   0.1666667  -0.0320750   0.2024317), wk =   0.0370370
        k(   28) = (   0.1666667  -0.0320750  -0.3036476), wk =   0.0370370
        k(   29) = (   0.3333333   0.1924501   0.0000000), wk =   0.0185185
        k(   30) = (   0.3333333   0.1924501   0.1012159), wk =   0.0370370
        k(   31) = (   0.3333333   0.1924501   0.2024317), wk =   0.0370370
        k(   32) = (   0.3333333   0.1924501  -0.3036476), wk =   0.0185185
        k(   33) = (   0.3333333   0.2566001   0.0000000), wk =   0.0370370
        k(   34) = (   0.3333333   0.2566001   0.1012159), wk =   0.0370370
        k(   35) = (   0.3333333   0.2566001   0.2024317), wk =   0.0370370
        k(   36) = (   0.3333333   0.2566001  -0.3036476), wk =   0.0370370
        k(   37) = (   0.3333333   0.3207501   0.0000000), wk =   0.0370370
        k(   38) = (   0.3333333   0.3207501   0.1012159), wk =   0.0370370
        k(   39) = (   0.3333333   0.3207501   0.2024317), wk =   0.0370370
        k(   40) = (   0.3333333   0.3207501  -0.3036476), wk =   0.0370370
        k(   41) = (   0.3333333   0.0000000   0.0000000), wk =   0.0185185
        k(   42) = (   0.3333333   0.0000000   0.1012159), wk =   0.0370370
        k(   43) = (   0.3333333   0.0000000   0.2024317), wk =   0.0370370
        k(   44) = (   0.3333333   0.0000000  -0.3036476), wk =   0.0185185
        k(   45) = (  -0.5000000  -0.2886751   0.0000000), wk =   0.0185185
        k(   46) = (  -0.5000000  -0.2886751   0.1012159), wk =   0.0370370
        k(   47) = (  -0.5000000  -0.2886751   0.2024317), wk =   0.0370370
        k(   48) = (  -0.5000000  -0.2886751  -0.3036476), wk =   0.0185185
        k(   49) = (  -0.5000000  -0.2245251   0.0000000), wk =   0.0370370
        k(   50) = (  -0.5000000  -0.2245251   0.1012159), wk =   0.0370370
        k(   51) = (  -0.5000000  -0.2245251   0.2024317), wk =   0.0370370
        k(   52) = (  -0.5000000  -0.2245251  -0.3036476), wk =   0.0370370
        k(   53) = (   0.0000000   0.0641500  -0.1012159), wk =   0.0185185
        k(   54) = (   0.0000000   0.0641500  -0.2024317), wk =   0.0185185
        k(   55) = (   0.0000000   0.1283001  -0.1012159), wk =   0.0185185
        k(   56) = (   0.0000000   0.1283001  -0.2024317), wk =   0.0185185
        k(   57) = (  -0.1666667   0.0962250  -0.1012159), wk =   0.0370370
        k(   58) = (  -0.1666667   0.0962250  -0.2024317), wk =   0.0370370
        k(   59) = (  -0.1666667   0.1603751  -0.1012159), wk =   0.0370370
        k(   60) = (  -0.1666667   0.1603751  -0.2024317), wk =   0.0370370
        k(   61) = (  -0.1666667  -0.0320750  -0.1012159), wk =   0.0370370
        k(   62) = (  -0.1666667  -0.0320750  -0.2024317), wk =   0.0370370
        k(   63) = (  -0.3333333   0.2566001  -0.1012159), wk =   0.0370370
        k(   64) = (  -0.3333333   0.2566001  -0.2024317), wk =   0.0370370
        k(   65) = (  -0.3333333   0.3207501  -0.1012159), wk =   0.0370370
        k(   66) = (  -0.3333333   0.3207501  -0.2024317), wk =   0.0370370
        k(   67) = (   0.5000000  -0.2245251  -0.1012159), wk =   0.0370370
        k(   68) = (   0.5000000  -0.2245251  -0.2024317), wk =   0.0370370

                       cryst. coord.
        k(    1) = (   0.0000000   0.0000000   0.0000000), wk =   0.0092593
        k(    2) = (   0.0000000   0.0000000   0.1666667), wk =   0.0185185
        k(    3) = (   0.0000000   0.0000000   0.3333333), wk =   0.0185185
        k(    4) = (   0.0000000   0.0000000  -0.5000000), wk =   0.0092593
        k(    5) = (   0.0000000   0.1666667   0.0000000), wk =   0.0185185
        k(    6) = (   0.0000000   0.1666667   0.1666667), wk =   0.0185185
        k(    7) = (   0.0000000   0.1666667   0.3333333), wk =   0.0185185
        k(    8) = (   0.0000000   0.1666667  -0.5000000), wk =   0.0185185
        k(    9) = (   0.0000000   0.3333333   0.0000000), wk =   0.0185185
        k(   10) = (   0.0000000   0.3333333   0.1666667), wk =   0.0185185
        k(   11) = (   0.0000000   0.3333333   0.3333333), wk =   0.0185185
        k(   12) = (   0.0000000   0.3333333  -0.5000000), wk =   0.0185185
        k(   13) = (   0.0000000  -0.5000000   0.0000000), wk =   0.0092593
        k(   14) = (   0.0000000  -0.5000000   0.1666667), wk =   0.0185185
        k(   15) = (   0.0000000  -0.5000000   0.3333333), wk =   0.0185185
        k(   16) = (   0.0000000  -0.5000000  -0.5000000), wk =   0.0092593
        k(   17) = (   0.1666667  -0.0000000   0.0000000), wk =   0.0370370
        k(   18) = (   0.1666667  -0.0000000   0.1666667), wk =   0.0370370
        k(   19) = (   0.1666667  -0.0000000   0.3333333), wk =   0.0370370
        k(   20) = (   0.1666667  -0.0000000  -0.5000000), wk =   0.0370370
        k(   21) = (   0.1666667   0.1666667   0.0000000), wk =   0.0370370
        k(   22) = (   0.1666667   0.1666667   0.1666667), wk =   0.0370370
        k(   23) = (   0.1666667   0.1666667   0.3333333), wk =   0.0370370
        k(   24) = (   0.1666667   0.1666667  -0.5000000), wk =   0.0370370
        k(   25) = (   0.1666667  -0.3333333   0.0000000), wk =   0.0370370
        k(   26) = (   0.1666667  -0.3333333   0.1666667), wk =   0.0370370
        k(   27) = (   0.1666667  -0.3333333   0.3333333), wk =   0.0370370
        k(   28) = (   0.1666667  -0.3333333  -0.5000000), wk =   0.0370370
        k(   29) = (   0.3333333  -0.0000000   0.0000000), wk =   0.0185185
        k(   30) = (   0.3333333  -0.0000000   0.1666667), wk =   0.0370370
        k(   31) = (   0.3333333  -0.0000000   0.3333333), wk =   0.0370370
        k(   32) = (   0.3333333  -0.0000000  -0.5000000), wk =   0.0185185
        k(   33) = (   0.3333333   0.1666667   0.0000000), wk =   0.0370370
        k(   34) = (   0.3333333   0.1666667   0.1666667), wk =   0.0370370
        k(   35) = (   0.3333333   0.1666667   0.3333333), wk =   0.0370370
        k(   36) = (   0.3333333   0.1666667  -0.5000000), wk =   0.0370370
        k(   37) = (   0.3333333   0.3333333   0.0000000), wk =   0.0370370
        k(   38) = (   0.3333333   0.3333333   0.1666667), wk =   0.0370370
        k(   39) = (   0.3333333   0.3333333   0.3333333), wk =   0.0370370
        k(   40) = (   0.3333333   0.3333333  -0.5000000), wk =   0.0370370
        k(   41) = (   0.3333333  -0.5000000   0.0000000), wk =   0.0185185
        k(   42) = (   0.3333333  -0.5000000   0.1666667), wk =   0.0370370
        k(   43) = (   0.3333333  -0.5000000   0.3333333), wk =   0.0370370
        k(   44) = (   0.3333333  -0.5000000  -0.5000000), wk =   0.0185185
        k(   45) = (  -0.5000000   0.0000000   0.0000000), wk =   0.0185185
        k(   46) = (  -0.5000000   0.0000000   0.1666667), wk =   0.0370370
        k(   47) = (  -0.5000000   0.0000000   0.3333333), wk =   0.0370370
        k(   48) = (  -0.5000000   0.0000000  -0.5000000), wk =   0.0185185
        k(   49) = (  -0.5000000   0.1666667   0.0000000), wk =   0.0370370
        k(   50) = (  -0.5000000   0.1666667   0.1666667), wk =   0.0370370
        k(   51) = (  -0.5000000   0.1666667   0.3333333), wk =   0.0370370
        k(   52) = (  -0.5000000   0.1666667  -0.5000000), wk =   0.0370370
        k(   53) = (   0.0000000   0.1666667  -0.1666667), wk =   0.0185185
        k(   54) = (   0.0000000   0.1666667  -0.3333333), wk =   0.0185185
        k(   55) = (   0.0000000   0.3333333  -0.1666667), wk =   0.0185185
        k(   56) = (   0.0000000   0.3333333  -0.3333333), wk =   0.0185185
        k(   57) = (  -0.1666667   0.5000000  -0.1666667), wk =   0.0370370
        k(   58) = (  -0.1666667   0.5000000  -0.3333333), wk =   0.0370370
        k(   59) = (  -0.1666667   0.6666667  -0.1666667), wk =   0.0370370
        k(   60) = (  -0.1666667   0.6666667  -0.3333333), wk =   0.0370370
        k(   61) = (  -0.1666667   0.1666667  -0.1666667), wk =   0.0370370
        k(   62) = (  -0.1666667   0.1666667  -0.3333333), wk =   0.0370370
        k(   63) = (  -0.3333333   1.1666667  -0.1666667), wk =   0.0370370
        k(   64) = (  -0.3333333   1.1666667  -0.3333333), wk =   0.0370370
        k(   65) = (  -0.3333333   1.3333333  -0.1666667), wk =   0.0370370
        k(   66) = (  -0.3333333   1.3333333  -0.3333333), wk =   0.0370370
        k(   67) = (   0.5000000  -1.3333333  -0.1666667), wk =   0.0370370
        k(   68) = (   0.5000000  -1.3333333  -0.3333333), wk =   0.0370370

     Check: negative core charge=   -0.000002

     Initial potential from superposition of free atoms

     starting charge     107.9776, renormalised to     108.0000
     Starting wfcs are   78 randomized atomic wfcs

     Self-consistent Calculation

     iteration #  1     ecut=    50.00 Ry     beta= 0.30
     Davidson diagonalization with overlap

     ethr =  1.00E-02,  avg # of iterations =  1.2

     total energy              =   -1083.97590133 Ry
     estimated scf accuracy    <       2.59765495 Ry

[...]

     c_bands:  2 eigenvalues not converged
     c_bands:  1 eigenvalues not converged
     ethr =  1.00E-07,  avg # of iterations = 15.9

[...]

     c_bands:  1 eigenvalues not converged
     c_bands:  1 eigenvalues not converged
     ethr =  8.40E-11,  avg # of iterations = 15.5

[...]

     total energy              =   -1084.60803248 Ry
     estimated scf accuracy    <       0.00000002 Ry

     iteration # 31     ecut=    50.00 Ry     beta= 0.30
     Davidson diagonalization with overlap

     ethr =  1.39E-11,  avg # of iterations =  5.5

     End of self-consistent calculation

          k = 0.0000 0.0000 0.0000 (  8029 PWs)   bands (ev):

   -12.8917 -12.6660 -12.6659 -12.5780 -12.4881 -12.4881  -1.6380  -1.6377
    -1.6303  -1.6303  -1.6207  -1.5495  -1.5493  -1.5301  -1.5301  -1.5132
    -1.5132  -1.3691  -1.3691  -1.3489  -1.3488  -1.2647  -1.2647  -1.1926
    -1.1925  -1.1906  -1.1906  -1.1558  -1.1558  -1.1193  -1.1065  -1.1065
    -1.0927  -1.0927  -0.9807  -0.9807  -0.2182   0.3437   0.3437   0.8056
     0.8056   1.3654   1.3654   2.1148   2.1148   2.6936   2.6937   2.7385
     2.7394   2.8082   2.8082   3.1248   3.1749   3.1758

     occupation numbers
     1.0000   1.0000   1.0000   1.0000   1.0000   1.0000   1.0000   1.0000
     1.0000   1.0000   1.0000   1.0000   1.0000   1.0000   1.0000   1.0000
     1.0000   1.0000   1.0000   1.0000   1.0000   1.0000   1.0000   1.0000
     1.0000   1.0000   1.0000   1.0000   1.0000   1.0000   1.0000   1.0000
     1.0000   1.0000   1.0000   1.0000   1.0000   1.0000   1.0000   1.0000
     1.0000   1.0000   1.0000   1.0000   1.0000   1.0000   1.0000   1.0000
     1.0000   1.0000   1.0000   1.0000   1.0000   1.0000

[...]

          k =-0.5000-0.2887 0.0000 (  8042 PWs)   bands (ev):

[...]

          k =-0.3333 0.3208-0.2024 (  8007 PWs)   bands (ev):

[...]

          k = 0.5000-0.2245-0.2024 (  8004 PWs)   bands (ev):

   -12.5477 -12.5466 -12.5459 -12.4972 -12.4971 -12.4968  -1.6255  -1.6063
    -1.5571  -1.5389  -1.5223  -1.5170  -1.4659  -1.4616  -1.4249  -1.3700
    -1.3466  -1.3422  -1.3324  -1.3128  -1.3024  -1.3009  -1.2657  -1.2355
    -1.1574  -1.1317  -1.1249  -1.1191  -1.1150  -1.1089  -1.0677  -1.0610
    -1.0542  -1.0374  -1.0197  -0.9962   0.0583   0.1303   0.3011   0.3066
     0.3561   0.4593   1.5651   1.7830   1.8860   1.9909   2.0788   2.0966
     2.1263   2.2918   2.4093   2.5109   2.5223   2.5343

     occupation numbers
     1.0000   1.0000   1.0000   1.0000   1.0000   1.0000   1.0000   1.0000
     1.0000   1.0000   1.0000   1.0000   1.0000   1.0000   1.0000   1.0000
     1.0000   1.0000   1.0000   1.0000   1.0000   1.0000   1.0000   1.0000
     1.0000   1.0000   1.0000   1.0000   1.0000   1.0000   1.0000   1.0000
     1.0000   1.0000   1.0000   1.0000   1.0000   1.0000   1.0000   1.0000
     1.0000   1.0000   1.0000   1.0000   1.0000   1.0000   1.0000   1.0000
     1.0000   1.0000   1.0000   1.0000   1.0000   1.0000

     highest occupied level (ev):     3.1758

!    total energy              =   -1084.60803248 Ry
     estimated scf accuracy    <          1.3E-10 Ry

     The total energy is the sum of the following terms:
     one-electron contribution =    -564.57716718 Ry
     hartree contribution      =     391.85792248 Ry
     xc contribution           =    -327.05073315 Ry
     ewald contribution        =    -584.83805463 Ry

     convergence has been achieved in  31 iterations

     Forces acting on atoms (cartesian axes, Ry/au):

     atom    1 type  1   force =     0.00000000    0.00001136   -0.00243014
     atom    2 type  1   force =     0.00000000   -0.00001188   -0.00243149
     atom    3 type  2   force =     0.00000000    0.00001243    0.00243046
     atom    4 type  2   force =     0.00000000   -0.00001212    0.00243057
     atom    5 type  1   force =     0.00000000    0.00001968   -0.00243219
     atom    6 type  1   force =     0.00000000   -0.00000981   -0.00242888
     atom    7 type  2   force =     0.00000000    0.00001218    0.00243075
     atom    8 type  2   force =     0.00000000   -0.00001211    0.00243084
     atom    9 type  1   force =     0.00000000    0.00000917   -0.00243266
     atom   10 type  1   force =     0.00000000   -0.00001840   -0.00242887
     atom   11 type  2   force =     0.00000000    0.00001174    0.00243092
     atom   12 type  2   force =     0.00000000   -0.00001225    0.00243068
     The non-local contrib.  to forces
     atom    1 type  1   force =     0.00000000   -0.00005428    0.04268585
     atom    2 type  1   force =     0.00000000    0.00005411    0.04268531
     atom    3 type  2   force =     0.00000000    0.00027093    0.05846918
     atom    4 type  2   force =     0.00000000   -0.00027081    0.05846930
     atom    5 type  1   force =     0.00000000   -0.00005145    0.04268489
     atom    6 type  1   force =     0.00000000    0.00005585    0.04268539
     atom    7 type  2   force =     0.00000000    0.00026849    0.05846973
     atom    8 type  2   force =     0.00000000   -0.00027146    0.05847007
     atom    9 type  1   force =     0.00000000   -0.00005618    0.04268444
     atom   10 type  1   force =     0.00000000    0.00005165    0.04268562
     atom   11 type  2   force =     0.00000000    0.00027030    0.05846981
     atom   12 type  2   force =     0.00000000   -0.00026866    0.05847001
     The ionic contribution  to forces
     atom    1 type  1   force =    -0.00000000    0.00000001    0.38433083
     atom    2 type  1   force =     0.00000000    0.00000001    0.38433084
     atom    3 type  2   force =    -0.00000000    0.00000000   -0.38433083
     atom    4 type  2   force =     0.00000000    0.00000000   -0.38433084
     atom    5 type  1   force =    -0.00000001    0.00000001    0.38433083
     atom    6 type  1   force =     0.00000001   -0.00000001    0.38433083
     atom    7 type  2   force =    -0.00000001    0.00000000   -0.38433083
     atom    8 type  2   force =     0.00000001   -0.00000000   -0.38433083
     atom    9 type  1   force =    -0.00000000   -0.00000001    0.38433084
     atom   10 type  1   force =     0.00000000   -0.00000001    0.38433083
     atom   11 type  2   force =    -0.00000000   -0.00000000   -0.38433084
     atom   12 type  2   force =     0.00000000   -0.00000000   -0.38433083
     The local contribution  to forces
     atom    1 type  1   force =    -0.00000005    0.00006009   -0.42704836
     atom    2 type  1   force =     0.00000000   -0.00005844   -0.42704599
     atom    3 type  2   force =    -0.00000001   -0.00025576    0.32884826
     atom    4 type  2   force =     0.00000000    0.00025436    0.32884824
     atom    5 type  1   force =    -0.00000010    0.00004815   -0.42704580
     atom    6 type  1   force =     0.00000010   -0.00006158   -0.42704885
     atom    7 type  2   force =    -0.00000003   -0.00025687    0.32884766
     atom    8 type  2   force =     0.00000003    0.00025398    0.32884796
     atom    9 type  1   force =     0.00000000    0.00006261   -0.42704480
     atom   10 type  1   force =     0.00000005   -0.00005064   -0.42704863
     atom   11 type  2   force =     0.00000000   -0.00025193    0.32884777
     atom   12 type  2   force =     0.00000001    0.00025787    0.32884821
     The core correction contribution to forces
     atom    1 type  1   force =    -0.00000001    0.00000985   -0.00240171
     atom    2 type  1   force =     0.00000000   -0.00000994   -0.00240179
     atom    3 type  2   force =     0.00000000   -0.00000306   -0.00055565
     atom    4 type  2   force =     0.00000000    0.00000306   -0.00055565
     atom    5 type  1   force =    -0.00000001    0.00001012   -0.00240173
     atom    6 type  1   force =     0.00000001   -0.00000997   -0.00240167
     atom    7 type  2   force =     0.00000000   -0.00000303   -0.00055565
     atom    8 type  2   force =    -0.00000000    0.00000307   -0.00055566
     atom    9 type  1   force =    -0.00000000    0.00000997   -0.00240174
     atom   10 type  1   force =     0.00000001   -0.00001002   -0.00240171
     atom   11 type  2   force =    -0.00000000   -0.00000305   -0.00055565
     atom   12 type  2   force =    -0.00000000    0.00000303   -0.00055566
     The Hubbard contrib.    to forces
     atom    1 type  1   force =     0.00000000    0.00000000    0.00000000
     atom    2 type  1   force =     0.00000000    0.00000000    0.00000000
     atom    3 type  2   force =     0.00000000    0.00000000    0.00000000
     atom    4 type  2   force =     0.00000000    0.00000000    0.00000000
     atom    5 type  1   force =     0.00000000    0.00000000    0.00000000
     atom    6 type  1   force =     0.00000000    0.00000000    0.00000000
     atom    7 type  2   force =     0.00000000    0.00000000    0.00000000
     atom    8 type  2   force =     0.00000000    0.00000000    0.00000000
     atom    9 type  1   force =     0.00000000    0.00000000    0.00000000
     atom   10 type  1   force =     0.00000000    0.00000000    0.00000000
     atom   11 type  2   force =     0.00000000    0.00000000    0.00000000
     atom   12 type  2   force =     0.00000000    0.00000000    0.00000000
     The SCF correction term to forces
     atom    1 type  1   force =     0.00000000   -0.00000437    0.00000395
     atom    2 type  1   force =     0.00000000    0.00000231    0.00000085
     atom    3 type  2   force =     0.00000000    0.00000026    0.00000020
     atom    4 type  2   force =    -0.00000000    0.00000122    0.00000022
     atom    5 type  1   force =     0.00000000    0.00001279    0.00000032
     atom    6 type  1   force =    -0.00000000    0.00000584    0.00000613
     atom    7 type  2   force =     0.00000000    0.00000352    0.00000055
     atom    8 type  2   force =    -0.00000000    0.00000224   -0.00000000
     atom    9 type  1   force =     0.00000000   -0.00000727   -0.00000069
     atom   10 type  1   force =    -0.00000000   -0.00000945    0.00000572
     atom   11 type  2   force =    -0.00000000   -0.00000364    0.00000053
     atom   12 type  2   force =    -0.00000000   -0.00000455   -0.00000034

     Total force =     0.008420     Total SCF correction =     0.000022

     General routines

     Parallel routines

   This run was terminated on:   6:32:22  28Aug2025

   JOB DONE.