     Program PWSCF v.7.0 starts on 27Aug2025 at 12:14:11

     K-points division:     npool     =      17

     Reading input from /home/jvc/QEspresso7.2/ZnO_database/scripts/cell131.in/ZnO-2.94-1.52-131.in
Warning: card &CELL ignored
Warning: card / ignored
Warning: card &FCP ignored
Warning: card / ignored
Warning: card &RISM ignored
Warning: card / ignored

     Current dimensions of program PWSCF are:
     Max number of different atomic species (ntypx) = 10
     Max number of k-points (npk) =  40000
     Max angular momentum in pseudopotentials (lmaxx) =  4
     file Zn.upf: wavefunction(s)  3D renormalized
     Found identity + (  0.0000  0.3333  0.0000) symmetry
     This is a supercell, fractional translations are disabled
     Message from routine setup:
     using ibrav=0 with symmetry is DISCOURAGED, use correct ibrav instead

     Subspace diagonalization in iterative solution of the eigenvalue problem:
     a serial algorithm will be used

     Using Slab Decomposition

     bravais-lattice index     =            0
     lattice parameter (alat)  =       5.5610  a.u.
     unit-cell volume          =     678.0021 (a.u.)^3
     number of atoms/cell      =           12
     number of atomic types    =            2
     number of electrons       =       108.00
     number of Kohn-Sham states=           54
     kinetic-energy cutoff     =      50.0000  Ry
     charge density cutoff     =     400.0000  Ry
     scf convergence threshold =      1.0E-08
     mixing beta               =       0.3000
     number of iterations used =            8  plain     mixing
     Exchange-correlation= PBE
                           (   1   4   3   4   0   0   0)

     celldm(1)=   5.560969  celldm(2)=   0.000000  celldm(3)=   0.000000
     celldm(4)=   0.000000  celldm(5)=   0.000000  celldm(6)=   0.000000

     crystal axes: (cart. coord. in units of alat)
               a(1) = (   1.000000   0.000000   0.000000 )
               a(2) = (  -1.500000   2.598076   0.000000 )
               a(3) = (   0.000000   0.000000   1.517497 )

     reciprocal axes: (cart. coord. in units 2 pi/alat)
               b(1) = (  1.000000  0.577350 -0.000000 )
               b(2) = (  0.000000  0.384900  0.000000 )
               b(3) = (  0.000000 -0.000000  0.658980 )

     PseudoPot. # 1 for Zn read from file:
     /home/jvc/QEspresso7.2/ZnO_database/pseudos/Zn.upf
     MD5 check sum: 7f56cabf9682ed8c977c2f7d0c5985c5
     Pseudo is Ultrasoft + core correction, Zval = 12.0
     Generated using &quot;atomic&quot; code by A. Dal Corso  v.6.2.2
     Using radial grid of 1201 points,  6 beta functions with:
                l(1) =   0
                l(2) =   0
                l(3) =   1
                l(4) =   1
                l(5) =   2
                l(6) =   2
     Q(r) pseudized with 0 coefficients

     PseudoPot. # 2 for O  read from file:
     /home/jvc/QEspresso7.2/ZnO_database/pseudos/O.upf
     MD5 check sum: 91400c9766925bcf19f520983a725ff0
     Pseudo is Ultrasoft + core correction, Zval =  6.0
     Generated using &quot;atomic&quot; code by A. Dal Corso  v.6.3MaX
     Using radial grid of 1095 points,  4 beta functions with:
                l(1) =   0
                l(2) =   0
                l(3) =   1
                l(4) =   1
     Q(r) pseudized with 0 coefficients

     atomic species   valence    mass     pseudopotential
        Zn            12.00    65.38000     Zn( 1.00)
        O              6.00    15.99900     O ( 1.00)

      2 Sym. Ops. (no inversion) found

                                    s                        frac. trans.

      isym =  1     identity

 cryst.   s( 1) = (     1          0          0      )
                  (     0          1          0      )
                  (     0          0          1      )

 cart.    s( 1) = (  1.0000000  0.0000000  0.0000000 )
                  (  0.0000000  1.0000000  0.0000000 )
                  (  0.0000000  0.0000000  1.0000000 )

      isym =  2     inv. 180 deg rotation - cart. axis [1,0,0]

 cryst.   s( 2) = (    -1          0          0      )
                  (     3          1          0      )
                  (     0          0          1      )

 cart.    s( 2) = ( -1.0000000 -0.0000000  0.0000000 )
                  (  0.0000000  1.0000000  0.0000000 )
                  (  0.0000000  0.0000000  1.0000000 )

   Cartesian axes

     site n.     atom                  positions (alat units)
         1           Zn  tau(   1) = (   0.5000000   0.2886751   0.7597099  )
         2           Zn  tau(   2) = (  -0.0000000   0.5773503   0.0009615  )
         3           O   tau(   3) = (   0.5000000   0.2886751   1.3349062  )
         4           O   tau(   4) = (  -0.0000000   0.5773503   0.5761578  )
         5           Zn  tau(   5) = (   0.0000000   1.1547005   0.7597099  )
         6           Zn  tau(   6) = (  -0.5000000   1.4433757   0.0009615  )
         7           O   tau(   7) = (   0.0000000   1.1547005   1.3349062  )
         8           O   tau(   8) = (  -0.5000000   1.4433757   0.5761578  )
         9           Zn  tau(   9) = (  -0.5000000   2.0207259   0.7597099  )
        10           Zn  tau(  10) = (  -1.0000000   2.3094011   0.0009615  )
        11           O   tau(  11) = (  -0.5000000   2.0207259   1.3349062  )
        12           O   tau(  12) = (  -1.0000000   2.3094011   0.5761578  )

   Crystallographic axes

     site n.     atom                  positions (cryst. coord.)
         1           Zn  tau(   1) = (  0.6666667  0.1111111  0.5006336  )
         2           Zn  tau(   2) = (  0.3333333  0.2222222  0.0006336  )
         3           O   tau(   3) = (  0.6666667  0.1111111  0.8796764  )
         4           O   tau(   4) = (  0.3333333  0.2222222  0.3796764  )
         5           Zn  tau(   5) = (  0.6666667  0.4444444  0.5006336  )
         6           Zn  tau(   6) = (  0.3333333  0.5555556  0.0006336  )
         7           O   tau(   7) = (  0.6666667  0.4444444  0.8796764  )
         8           O   tau(   8) = (  0.3333333  0.5555556  0.3796764  )
         9           Zn  tau(   9) = (  0.6666667  0.7777778  0.5006336  )
        10           Zn  tau(  10) = (  0.3333333  0.8888889  0.0006336  )
        11           O   tau(  11) = (  0.6666667  0.7777778  0.8796764  )
        12           O   tau(  12) = (  0.3333333  0.8888889  0.3796764  )

     number of k points=    68
                       cart. coord. in units 2pi/alat
        k(    1) = (   0.0000000   0.0000000   0.0000000), wk =   0.0092593
        k(    2) = (   0.0000000   0.0000000   0.1098300), wk =   0.0185185
        k(    3) = (   0.0000000   0.0000000   0.2196600), wk =   0.0185185
        k(    4) = (   0.0000000   0.0000000  -0.3294900), wk =   0.0092593
        k(    5) = (   0.0000000   0.0641500   0.0000000), wk =   0.0185185
        k(    6) = (   0.0000000   0.0641500   0.1098300), wk =   0.0185185
        k(    7) = (   0.0000000   0.0641500   0.2196600), wk =   0.0185185
        k(    8) = (   0.0000000   0.0641500  -0.3294900), wk =   0.0185185
        k(    9) = (   0.0000000   0.1283001   0.0000000), wk =   0.0185185
        k(   10) = (   0.0000000   0.1283001   0.1098300), wk =   0.0185185
        k(   11) = (   0.0000000   0.1283001   0.2196600), wk =   0.0185185
        k(   12) = (   0.0000000   0.1283001  -0.3294900), wk =   0.0185185
        k(   13) = (   0.0000000  -0.1924501   0.0000000), wk =   0.0092593
        k(   14) = (   0.0000000  -0.1924501   0.1098300), wk =   0.0185185
        k(   15) = (   0.0000000  -0.1924501   0.2196600), wk =   0.0185185
        k(   16) = (   0.0000000  -0.1924501  -0.3294900), wk =   0.0092593
        k(   17) = (   0.1666667   0.0962250   0.0000000), wk =   0.0370370
        k(   18) = (   0.1666667   0.0962250   0.1098300), wk =   0.0370370
        k(   19) = (   0.1666667   0.0962250   0.2196600), wk =   0.0370370
        k(   20) = (   0.1666667   0.0962250  -0.3294900), wk =   0.0370370
        k(   21) = (   0.1666667   0.1603751   0.0000000), wk =   0.0370370
        k(   22) = (   0.1666667   0.1603751   0.1098300), wk =   0.0370370
        k(   23) = (   0.1666667   0.1603751   0.2196600), wk =   0.0370370
        k(   24) = (   0.1666667   0.1603751  -0.3294900), wk =   0.0370370
        k(   25) = (   0.1666667  -0.0320750   0.0000000), wk =   0.0370370
        k(   26) = (   0.1666667  -0.0320750   0.1098300), wk =   0.0370370
        k(   27) = (   0.1666667  -0.0320750   0.2196600), wk =   0.0370370
        k(   28) = (   0.1666667  -0.0320750  -0.3294900), wk =   0.0370370
        k(   29) = (   0.3333333   0.1924501   0.0000000), wk =   0.0185185
        k(   30) = (   0.3333333   0.1924501   0.1098300), wk =   0.0370370
        k(   31) = (   0.3333333   0.1924501   0.2196600), wk =   0.0370370
        k(   32) = (   0.3333333   0.1924501  -0.3294900), wk =   0.0185185
        k(   33) = (   0.3333333   0.2566001   0.0000000), wk =   0.0370370
        k(   34) = (   0.3333333   0.2566001   0.1098300), wk =   0.0370370
        k(   35) = (   0.3333333   0.2566001   0.2196600), wk =   0.0370370
        k(   36) = (   0.3333333   0.2566001  -0.3294900), wk =   0.0370370
        k(   37) = (   0.3333333   0.3207501   0.0000000), wk =   0.0370370
        k(   38) = (   0.3333333   0.3207501   0.1098300), wk =   0.0370370
        k(   39) = (   0.3333333   0.3207501   0.2196600), wk =   0.0370370
        k(   40) = (   0.3333333   0.3207501  -0.3294900), wk =   0.0370370
        k(   41) = (   0.3333333   0.0000000   0.0000000), wk =   0.0185185
        k(   42) = (   0.3333333   0.0000000   0.1098300), wk =   0.0370370
        k(   43) = (   0.3333333   0.0000000   0.2196600), wk =   0.0370370
        k(   44) = (   0.3333333   0.0000000  -0.3294900), wk =   0.0185185
        k(   45) = (  -0.5000000  -0.2886751   0.0000000), wk =   0.0185185
        k(   46) = (  -0.5000000  -0.2886751   0.1098300), wk =   0.0370370
        k(   47) = (  -0.5000000  -0.2886751   0.2196600), wk =   0.0370370
        k(   48) = (  -0.5000000  -0.2886751  -0.3294900), wk =   0.0185185
        k(   49) = (  -0.5000000  -0.2245251   0.0000000), wk =   0.0370370
        k(   50) = (  -0.5000000  -0.2245251   0.1098300), wk =   0.0370370
        k(   51) = (  -0.5000000  -0.2245251   0.2196600), wk =   0.0370370
        k(   52) = (  -0.5000000  -0.2245251  -0.3294900), wk =   0.0370370
        k(   53) = (   0.0000000   0.0641500  -0.1098300), wk =   0.0185185
        k(   54) = (   0.0000000   0.0641500  -0.2196600), wk =   0.0185185
        k(   55) = (   0.0000000   0.1283001  -0.1098300), wk =   0.0185185
        k(   56) = (   0.0000000   0.1283001  -0.2196600), wk =   0.0185185
        k(   57) = (  -0.1666667   0.0962250  -0.1098300), wk =   0.0370370
        k(   58) = (  -0.1666667   0.0962250  -0.2196600), wk =   0.0370370
        k(   59) = (  -0.1666667   0.1603751  -0.1098300), wk =   0.0370370
        k(   60) = (  -0.1666667   0.1603751  -0.2196600), wk =   0.0370370
        k(   61) = (  -0.1666667  -0.0320750  -0.1098300), wk =   0.0370370
        k(   62) = (  -0.1666667  -0.0320750  -0.2196600), wk =   0.0370370
        k(   63) = (  -0.3333333   0.2566001  -0.1098300), wk =   0.0370370
        k(   64) = (  -0.3333333   0.2566001  -0.2196600), wk =   0.0370370
        k(   65) = (  -0.3333333   0.3207501  -0.1098300), wk =   0.0370370
        k(   66) = (  -0.3333333   0.3207501  -0.2196600), wk =   0.0370370
        k(   67) = (   0.5000000  -0.2245251  -0.1098300), wk =   0.0370370
        k(   68) = (   0.5000000  -0.2245251  -0.2196600), wk =   0.0370370

                       cryst. coord.
        k(    1) = (   0.0000000   0.0000000   0.0000000), wk =   0.0092593
        k(    2) = (   0.0000000   0.0000000   0.1666667), wk =   0.0185185
        k(    3) = (   0.0000000   0.0000000   0.3333333), wk =   0.0185185
        k(    4) = (   0.0000000   0.0000000  -0.5000000), wk =   0.0092593
        k(    5) = (   0.0000000   0.1666667   0.0000000), wk =   0.0185185
        k(    6) = (   0.0000000   0.1666667   0.1666667), wk =   0.0185185
        k(    7) = (   0.0000000   0.1666667   0.3333333), wk =   0.0185185
        k(    8) = (   0.0000000   0.1666667  -0.5000000), wk =   0.0185185
        k(    9) = (   0.0000000   0.3333333   0.0000000), wk =   0.0185185
        k(   10) = (   0.0000000   0.3333333   0.1666667), wk =   0.0185185
        k(   11) = (   0.0000000   0.3333333   0.3333333), wk =   0.0185185
        k(   12) = (   0.0000000   0.3333333  -0.5000000), wk =   0.0185185
        k(   13) = (   0.0000000  -0.5000000   0.0000000), wk =   0.0092593
        k(   14) = (   0.0000000  -0.5000000   0.1666667), wk =   0.0185185
        k(   15) = (   0.0000000  -0.5000000   0.3333333), wk =   0.0185185
        k(   16) = (   0.0000000  -0.5000000  -0.5000000), wk =   0.0092593
        k(   17) = (   0.1666667   0.0000000   0.0000000), wk =   0.0370370
        k(   18) = (   0.1666667   0.0000000   0.1666667), wk =   0.0370370
        k(   19) = (   0.1666667   0.0000000   0.3333333), wk =   0.0370370
        k(   20) = (   0.1666667   0.0000000  -0.5000000), wk =   0.0370370
        k(   21) = (   0.1666667   0.1666667   0.0000000), wk =   0.0370370
        k(   22) = (   0.1666667   0.1666667   0.1666667), wk =   0.0370370
        k(   23) = (   0.1666667   0.1666667   0.3333333), wk =   0.0370370
        k(   24) = (   0.1666667   0.1666667  -0.5000000), wk =   0.0370370
        k(   25) = (   0.1666667  -0.3333333   0.0000000), wk =   0.0370370
        k(   26) = (   0.1666667  -0.3333333   0.1666667), wk =   0.0370370
        k(   27) = (   0.1666667  -0.3333333   0.3333333), wk =   0.0370370
        k(   28) = (   0.1666667  -0.3333333  -0.5000000), wk =   0.0370370
        k(   29) = (   0.3333333   0.0000000   0.0000000), wk =   0.0185185
        k(   30) = (   0.3333333   0.0000000   0.1666667), wk =   0.0370370
        k(   31) = (   0.3333333   0.0000000   0.3333333), wk =   0.0370370
        k(   32) = (   0.3333333   0.0000000  -0.5000000), wk =   0.0185185
        k(   33) = (   0.3333333   0.1666667   0.0000000), wk =   0.0370370
        k(   34) = (   0.3333333   0.1666667   0.1666667), wk =   0.0370370
        k(   35) = (   0.3333333   0.1666667   0.3333333), wk =   0.0370370
        k(   36) = (   0.3333333   0.1666667  -0.5000000), wk =   0.0370370
        k(   37) = (   0.3333333   0.3333333   0.0000000), wk =   0.0370370
        k(   38) = (   0.3333333   0.3333333   0.1666667), wk =   0.0370370
        k(   39) = (   0.3333333   0.3333333   0.3333333), wk =   0.0370370
        k(   40) = (   0.3333333   0.3333333  -0.5000000), wk =   0.0370370
        k(   41) = (   0.3333333  -0.5000000   0.0000000), wk =   0.0185185
        k(   42) = (   0.3333333  -0.5000000   0.1666667), wk =   0.0370370
        k(   43) = (   0.3333333  -0.5000000   0.3333333), wk =   0.0370370
        k(   44) = (   0.3333333  -0.5000000  -0.5000000), wk =   0.0185185
        k(   45) = (  -0.5000000  -0.0000000   0.0000000), wk =   0.0185185
        k(   46) = (  -0.5000000  -0.0000000   0.1666667), wk =   0.0370370
        k(   47) = (  -0.5000000  -0.0000000   0.3333333), wk =   0.0370370
        k(   48) = (  -0.5000000  -0.0000000  -0.5000000), wk =   0.0185185
        k(   49) = (  -0.5000000   0.1666667   0.0000000), wk =   0.0370370
        k(   50) = (  -0.5000000   0.1666667   0.1666667), wk =   0.0370370
        k(   51) = (  -0.5000000   0.1666667   0.3333333), wk =   0.0370370
        k(   52) = (  -0.5000000   0.1666667  -0.5000000), wk =   0.0370370
        k(   53) = (   0.0000000   0.1666667  -0.1666667), wk =   0.0185185
        k(   54) = (   0.0000000   0.1666667  -0.3333333), wk =   0.0185185
        k(   55) = (   0.0000000   0.3333333  -0.1666667), wk =   0.0185185
        k(   56) = (   0.0000000   0.3333333  -0.3333333), wk =   0.0185185
        k(   57) = (  -0.1666667   0.5000000  -0.1666667), wk =   0.0370370
        k(   58) = (  -0.1666667   0.5000000  -0.3333333), wk =   0.0370370
        k(   59) = (  -0.1666667   0.6666667  -0.1666667), wk =   0.0370370
        k(   60) = (  -0.1666667   0.6666667  -0.3333333), wk =   0.0370370
        k(   61) = (  -0.1666667   0.1666667  -0.1666667), wk =   0.0370370
        k(   62) = (  -0.1666667   0.1666667  -0.3333333), wk =   0.0370370
        k(   63) = (  -0.3333333   1.1666667  -0.1666667), wk =   0.0370370
        k(   64) = (  -0.3333333   1.1666667  -0.3333333), wk =   0.0370370
        k(   65) = (  -0.3333333   1.3333333  -0.1666667), wk =   0.0370370
        k(   66) = (  -0.3333333   1.3333333  -0.3333333), wk =   0.0370370
        k(   67) = (   0.5000000  -1.3333333  -0.1666667), wk =   0.0370370
        k(   68) = (   0.5000000  -1.3333333  -0.3333333), wk =   0.0370370

     Initial potential from superposition of free atoms

     starting charge     107.9776, renormalised to     108.0000
     Starting wfcs are   78 randomized atomic wfcs

     Self-consistent Calculation

     iteration #  1     ecut=    50.00 Ry     beta= 0.30
     Davidson diagonalization with overlap

     ethr =  1.00E-02,  avg # of iterations =  2.4

     total energy              =   -1083.57690124 Ry
     estimated scf accuracy    <       2.12419459 Ry

[...]

     total energy              =   -1083.95232543 Ry
     estimated scf accuracy    <       0.00000043 Ry

     iteration # 19     ecut=    50.00 Ry     beta= 0.30
     Davidson diagonalization with overlap

     ethr =  4.27E-11,  avg # of iterations =  7.5

     End of self-consistent calculation

          k = 0.0000 0.0000 0.0000 (  4073 PWs)   bands (ev):

    -7.9677  -7.0946  -7.0946  -6.3981  -6.1803  -6.1803   4.7511   4.7511
     4.9064   5.2748   5.2748   5.5478   5.5479   5.6397   5.8576   5.8576
     5.8888   5.8888   5.9215   5.9216   6.4659   6.4660   6.5667   6.5668
     7.6880   7.6880   7.9392   7.9393   8.1135   8.1135   8.2907   8.2908
     8.4712   8.4713   8.5654   8.5654   8.9380   9.2612   9.2612   9.6173
     9.6173  10.5535  10.5535  11.0168  11.0168  12.2088  12.2089  12.5483
    12.5484  12.7931  12.7931  13.6344  13.7007  13.7009

     occupation numbers
     1.0000   1.0000   1.0000   1.0000   1.0000   1.0000   1.0000   1.0000
     1.0000   1.0000   1.0000   1.0000   1.0000   1.0000   1.0000   1.0000
     1.0000   1.0000   1.0000   1.0000   1.0000   1.0000   1.0000   1.0000
     1.0000   1.0000   1.0000   1.0000   1.0000   1.0000   1.0000   1.0000
     1.0000   1.0000   1.0000   1.0000   1.0000   1.0000   1.0000   1.0000
     1.0000   1.0000   1.0000   1.0000   1.0000   1.0000   1.0000   1.0000
     1.0000   1.0000   1.0000   1.0000   1.0000   1.0000

[...]

          k =-0.5000-0.2887 0.0000 (  4060 PWs)   bands (ev):

[...]

          k =-0.3333 0.3208-0.2197 (  4044 PWs)   bands (ev):

[...]

          k = 0.5000-0.2245-0.2197 (  4048 PWs)   bands (ev):

    -6.5463  -6.5362  -6.5307  -6.2828  -6.2817  -6.2799   4.4409   4.4933
     4.5178   4.5844   4.7160   4.7668   5.7042   5.8024   5.9023   5.9578
     6.0049   6.0298   6.3334   6.3862   6.4385   6.5350   6.5410   6.5472
     8.0321   8.1821   8.2793   8.2963   8.3200   8.3531   8.5016   8.5452
     8.5793   8.6607   8.7146   8.8101   9.0310   9.0488   9.1726   9.2716
     9.4457   9.6854  10.1042  10.3727  10.5767  10.9307  11.2178  11.2296
    11.4868  11.6160  11.7987  12.2697  12.2765  12.2787

     occupation numbers
     1.0000   1.0000   1.0000   1.0000   1.0000   1.0000   1.0000   1.0000
     1.0000   1.0000   1.0000   1.0000   1.0000   1.0000   1.0000   1.0000
     1.0000   1.0000   1.0000   1.0000   1.0000   1.0000   1.0000   1.0000
     1.0000   1.0000   1.0000   1.0000   1.0000   1.0000   1.0000   1.0000
     1.0000   1.0000   1.0000   1.0000   1.0000   1.0000   1.0000   1.0000
     1.0000   1.0000   1.0000   1.0000   1.0000   1.0000   1.0000   1.0000
     1.0000   1.0000   1.0000   1.0000   1.0000   1.0000

     highest occupied level (ev):    13.7009

!    total energy              =   -1083.95232549 Ry
     estimated scf accuracy    <          5.8E-09 Ry

     The total energy is the sum of the following terms:
     one-electron contribution =    -328.45886520 Ry
     hartree contribution      =     309.56017562 Ry
     xc contribution           =    -331.59659093 Ry
     ewald contribution        =    -733.45704498 Ry

     convergence has been achieved in  19 iterations

     Forces acting on atoms (cartesian axes, Ry/au):

     atom    1 type  1   force =     0.00000000   -0.00003527   -0.10227245
     atom    2 type  1   force =     0.00000000    0.00000537   -0.10227094
     atom    3 type  2   force =     0.00000000    0.00000443    0.10227071
     atom    4 type  2   force =     0.00000000   -0.00000119    0.10227256
     atom    5 type  1   force =     0.00000000   -0.00001683   -0.10227863
     atom    6 type  1   force =     0.00000000    0.00003089   -0.10226739
     atom    7 type  2   force =     0.00000000    0.00000136    0.10227182
     atom    8 type  2   force =     0.00000000   -0.00000101    0.10227198
     atom    9 type  1   force =     0.00000000   -0.00000870   -0.10227285
     atom   10 type  1   force =     0.00000000    0.00002228   -0.10226659
     atom   11 type  2   force =     0.00000000    0.00000316    0.10227118
     atom   12 type  2   force =     0.00000000   -0.00000449    0.10227061
     The non-local contrib.  to forces
     atom    1 type  1   force =     0.00000000    0.00002153   -0.22286959
     atom    2 type  1   force =     0.00000000   -0.00003684   -0.22286824
     atom    3 type  2   force =     0.00000000    0.00017236   -0.11663953
     atom    4 type  2   force =     0.00000000   -0.00015769   -0.11664108
     atom    5 type  1   force =     0.00000000    0.00003174   -0.22287071
     atom    6 type  1   force =     0.00000000   -0.00002362   -0.22286621
     atom    7 type  2   force =     0.00000000    0.00016206   -0.11664059
     atom    8 type  2   force =     0.00000000   -0.00016761   -0.11664132
     atom    9 type  1   force =     0.00000000    0.00003428   -0.22287086
     atom   10 type  1   force =     0.00000000   -0.00002701   -0.22286747
     atom   11 type  2   force =     0.00000000    0.00015651   -0.11663939
     atom   12 type  2   force =     0.00000000   -0.00016528   -0.11663964
     The ionic contribution  to forces
     atom    1 type  1   force =    -0.00000000    0.00000001   -1.55809773
     atom    2 type  1   force =     0.00000000    0.00000001   -1.55809773
     atom    3 type  2   force =    -0.00000000    0.00000001    1.55809773
     atom    4 type  2   force =     0.00000000    0.00000000    1.55809773
     atom    5 type  1   force =    -0.00000001    0.00000001   -1.55809773
     atom    6 type  1   force =     0.00000001   -0.00000001   -1.55809773
     atom    7 type  2   force =    -0.00000001    0.00000001    1.55809773
     atom    8 type  2   force =     0.00000001   -0.00000001    1.55809773
     atom    9 type  1   force =    -0.00000000   -0.00000001   -1.55809773
     atom   10 type  1   force =     0.00000000   -0.00000001   -1.55809773
     atom   11 type  2   force =    -0.00000000   -0.00000000    1.55809773
     atom   12 type  2   force =     0.00000000   -0.00000001    1.55809773
     The local contribution  to forces
     atom    1 type  1   force =    -0.00000004   -0.00002893    1.65470811
     atom    2 type  1   force =     0.00000000    0.00007107    1.65470466
     atom    3 type  2   force =    -0.00000001   -0.00015983   -1.33966144
     atom    4 type  2   force =     0.00000000    0.00016282   -1.33966599
     atom    5 type  1   force =    -0.00000007   -0.00005580    1.65471459
     atom    6 type  1   force =     0.00000007    0.00003334    1.65469780
     atom    7 type  2   force =    -0.00000002   -0.00016156   -1.33966257
     atom    8 type  2   force =     0.00000002    0.00015511   -1.33965622
     atom    9 type  1   force =    -0.00000000   -0.00006556    1.65471151
     atom   10 type  1   force =     0.00000004    0.00004692    1.65469856
     atom   11 type  2   force =    -0.00000000   -0.00015877   -1.33966943
     atom   12 type  2   force =     0.00000001    0.00015804   -1.33965913
     The core correction contribution to forces
     atom    1 type  1   force =    -0.00000001    0.00000248    0.02398693
     atom    2 type  1   force =    -0.00000000   -0.00000265    0.02398703
     atom    3 type  2   force =     0.00000000   -0.00000199    0.00047829
     atom    4 type  2   force =    -0.00000000    0.00000178    0.00047829
     atom    5 type  1   force =    -0.00000001    0.00000253    0.02398685
     atom    6 type  1   force =     0.00000001   -0.00000233    0.02398709
     atom    7 type  2   force =     0.00000000   -0.00000184    0.00047830
     atom    8 type  2   force =    -0.00000000    0.00000190    0.00047833
     atom    9 type  1   force =    -0.00000000    0.00000268    0.02398687
     atom   10 type  1   force =     0.00000001   -0.00000267    0.02398714
     atom   11 type  2   force =     0.00000000   -0.00000175    0.00047826
     atom   12 type  2   force =    -0.00000000    0.00000188    0.00047830
     The Hubbard contrib.    to forces
     atom    1 type  1   force =     0.00000000    0.00000000    0.00000000
     atom    2 type  1   force =     0.00000000    0.00000000    0.00000000
     atom    3 type  2   force =     0.00000000    0.00000000    0.00000000
     atom    4 type  2   force =     0.00000000    0.00000000    0.00000000
     atom    5 type  1   force =     0.00000000    0.00000000    0.00000000
     atom    6 type  1   force =     0.00000000    0.00000000    0.00000000
     atom    7 type  2   force =     0.00000000    0.00000000    0.00000000
     atom    8 type  2   force =     0.00000000    0.00000000    0.00000000
     atom    9 type  1   force =     0.00000000    0.00000000    0.00000000
     atom   10 type  1   force =     0.00000000    0.00000000    0.00000000
     atom   11 type  2   force =     0.00000000    0.00000000    0.00000000
     atom   12 type  2   force =     0.00000000    0.00000000    0.00000000
     The SCF correction term to forces
     atom    1 type  1   force =     0.00000000   -0.00003061    0.00000655
     atom    2 type  1   force =     0.00000000   -0.00002647    0.00001006
     atom    3 type  2   force =     0.00000000   -0.00000636    0.00000238
     atom    4 type  2   force =    -0.00000000   -0.00000834    0.00001034
     atom    5 type  1   force =     0.00000000    0.00000445   -0.00000490
     atom    6 type  1   force =    -0.00000000    0.00002327    0.00001839
     atom    7 type  2   force =     0.00000000    0.00000246    0.00000567
     atom    8 type  2   force =    -0.00000000    0.00000936    0.00000018
     atom    9 type  1   force =    -0.00000000    0.00001968    0.00000409
     atom   10 type  1   force =    -0.00000000    0.00000481    0.00001961
     atom   11 type  2   force =     0.00000000    0.00000695    0.00001074
     atom   12 type  2   force =    -0.00000000    0.00000063    0.00000006

     Total force =     0.354279     Total SCF correction =     0.000063

     General routines

     Parallel routines

   This run was terminated on:  12:19:15  27Aug2025

   JOB DONE.