     Program PWSCF v.7.0 starts on 27Aug2025 at 19:59: 1

     K-points division:     npool     =      17

     Reading input from /home/jvc/QEspresso7.2/ZnO_database/scripts/cell131.in/ZnO-3.27-1.68-131.in
Warning: card &CELL ignored
Warning: card / ignored
Warning: card &FCP ignored
Warning: card / ignored
Warning: card &RISM ignored
Warning: card / ignored

     Current dimensions of program PWSCF are:
     Max number of different atomic species (ntypx) = 10
     Max number of k-points (npk) =  40000
     Max angular momentum in pseudopotentials (lmaxx) =  4
     file Zn.upf: wavefunction(s)  3D renormalized
     Found identity + ( -0.0000  0.3333  0.0000) symmetry
     This is a supercell, fractional translations are disabled
     Message from routine setup:
     using ibrav=0 with symmetry is DISCOURAGED, use correct ibrav instead

     Subspace diagonalization in iterative solution of the eigenvalue problem:
     a serial algorithm will be used

     Using Slab Decomposition

     bravais-lattice index     =            0
     lattice parameter (alat)  =       6.1789  a.u.
     unit-cell volume          =    1028.9848 (a.u.)^3
     number of atoms/cell      =           12
     number of atomic types    =            2
     number of electrons       =       108.00
     number of Kohn-Sham states=           54
     kinetic-energy cutoff     =      50.0000  Ry
     charge density cutoff     =     400.0000  Ry
     scf convergence threshold =      1.0E-08
     mixing beta               =       0.3000
     number of iterations used =            8  plain     mixing
     Exchange-correlation= PBE
                           (   1   4   3   4   0   0   0)

     celldm(1)=   6.178854  celldm(2)=   0.000000  celldm(3)=   0.000000
     celldm(4)=   0.000000  celldm(5)=   0.000000  celldm(6)=   0.000000

     crystal axes: (cart. coord. in units of alat)
               a(1) = (   1.000000   0.000000   0.000000 )
               a(2) = (  -1.500000   2.598076   0.000000 )
               a(3) = (   0.000000   0.000000   1.678933 )

     reciprocal axes: (cart. coord. in units 2 pi/alat)
               b(1) = (  1.000000  0.577350 -0.000000 )
               b(2) = (  0.000000  0.384900  0.000000 )
               b(3) = (  0.000000 -0.000000  0.595616 )

     PseudoPot. # 1 for Zn read from file:
     /home/jvc/QEspresso7.2/ZnO_database/pseudos/Zn.upf
     MD5 check sum: 7f56cabf9682ed8c977c2f7d0c5985c5
     Pseudo is Ultrasoft + core correction, Zval = 12.0
     Generated using &quot;atomic&quot; code by A. Dal Corso  v.6.2.2
     Using radial grid of 1201 points,  6 beta functions with:
                l(1) =   0
                l(2) =   0
                l(3) =   1
                l(4) =   1
                l(5) =   2
                l(6) =   2
     Q(r) pseudized with 0 coefficients

     PseudoPot. # 2 for O  read from file:
     /home/jvc/QEspresso7.2/ZnO_database/pseudos/O.upf
     MD5 check sum: 91400c9766925bcf19f520983a725ff0
     Pseudo is Ultrasoft + core correction, Zval =  6.0
     Generated using &quot;atomic&quot; code by A. Dal Corso  v.6.3MaX
     Using radial grid of 1095 points,  4 beta functions with:
                l(1) =   0
                l(2) =   0
                l(3) =   1
                l(4) =   1
     Q(r) pseudized with 0 coefficients

     atomic species   valence    mass     pseudopotential
        Zn            12.00    65.38000     Zn( 1.00)
        O              6.00    15.99900     O ( 1.00)

      2 Sym. Ops. (no inversion) found

                                    s                        frac. trans.

      isym =  1     identity

 cryst.   s( 1) = (     1          0          0      )
                  (     0          1          0      )
                  (     0          0          1      )

 cart.    s( 1) = (  1.0000000  0.0000000  0.0000000 )
                  (  0.0000000  1.0000000  0.0000000 )
                  (  0.0000000  0.0000000  1.0000000 )

      isym =  2     inv. 180 deg rotation - cart. axis [1,0,0]

 cryst.   s( 2) = (    -1          0          0      )
                  (     3          1          0      )
                  (     0          0          1      )

 cart.    s( 2) = ( -1.0000000  0.0000000  0.0000000 )
                  (  0.0000000  1.0000000  0.0000000 )
                  (  0.0000000  0.0000000  1.0000000 )

   Cartesian axes

     site n.     atom                  positions (alat units)
         1           Zn  tau(   1) = (   0.5000000   0.2886751   0.8405301  )
         2           Zn  tau(   2) = (  -0.0000000   0.5773503   0.0010637  )
         3           O   tau(   3) = (   0.5000000   0.2886751   1.4769175  )
         4           O   tau(   4) = (  -0.0000000   0.5773503   0.6374511  )
         5           Zn  tau(   5) = (   0.0000000   1.1547005   0.8405301  )
         6           Zn  tau(   6) = (  -0.5000000   1.4433757   0.0010637  )
         7           O   tau(   7) = (   0.0000000   1.1547005   1.4769175  )
         8           O   tau(   8) = (  -0.5000000   1.4433757   0.6374511  )
         9           Zn  tau(   9) = (  -0.5000000   2.0207259   0.8405301  )
        10           Zn  tau(  10) = (  -1.0000000   2.3094011   0.0010637  )
        11           O   tau(  11) = (  -0.5000000   2.0207259   1.4769175  )
        12           O   tau(  12) = (  -1.0000000   2.3094011   0.6374511  )

   Crystallographic axes

     site n.     atom                  positions (cryst. coord.)
         1           Zn  tau(   1) = (  0.6666667  0.1111111  0.5006336  )
         2           Zn  tau(   2) = (  0.3333333  0.2222222  0.0006336  )
         3           O   tau(   3) = (  0.6666667  0.1111111  0.8796764  )
         4           O   tau(   4) = (  0.3333333  0.2222222  0.3796764  )
         5           Zn  tau(   5) = (  0.6666667  0.4444444  0.5006336  )
         6           Zn  tau(   6) = (  0.3333333  0.5555556  0.0006336  )
         7           O   tau(   7) = (  0.6666667  0.4444444  0.8796764  )
         8           O   tau(   8) = (  0.3333333  0.5555556  0.3796764  )
         9           Zn  tau(   9) = (  0.6666667  0.7777778  0.5006336  )
        10           Zn  tau(  10) = (  0.3333333  0.8888889  0.0006336  )
        11           O   tau(  11) = (  0.6666667  0.7777778  0.8796764  )
        12           O   tau(  12) = (  0.3333333  0.8888889  0.3796764  )

     number of k points=    68
                       cart. coord. in units 2pi/alat
        k(    1) = (   0.0000000   0.0000000   0.0000000), wk =   0.0092593
        k(    2) = (   0.0000000   0.0000000   0.0992694), wk =   0.0185185
        k(    3) = (   0.0000000   0.0000000   0.1985388), wk =   0.0185185
        k(    4) = (   0.0000000   0.0000000  -0.2978082), wk =   0.0092593
        k(    5) = (   0.0000000   0.0641500   0.0000000), wk =   0.0185185
        k(    6) = (   0.0000000   0.0641500   0.0992694), wk =   0.0185185
        k(    7) = (   0.0000000   0.0641500   0.1985388), wk =   0.0185185
        k(    8) = (   0.0000000   0.0641500  -0.2978082), wk =   0.0185185
        k(    9) = (   0.0000000   0.1283001   0.0000000), wk =   0.0185185
        k(   10) = (   0.0000000   0.1283001   0.0992694), wk =   0.0185185
        k(   11) = (   0.0000000   0.1283001   0.1985388), wk =   0.0185185
        k(   12) = (   0.0000000   0.1283001  -0.2978082), wk =   0.0185185
        k(   13) = (   0.0000000  -0.1924501   0.0000000), wk =   0.0092593
        k(   14) = (   0.0000000  -0.1924501   0.0992694), wk =   0.0185185
        k(   15) = (   0.0000000  -0.1924501   0.1985388), wk =   0.0185185
        k(   16) = (   0.0000000  -0.1924501  -0.2978082), wk =   0.0092593
        k(   17) = (   0.1666667   0.0962250   0.0000000), wk =   0.0370370
        k(   18) = (   0.1666667   0.0962250   0.0992694), wk =   0.0370370
        k(   19) = (   0.1666667   0.0962250   0.1985388), wk =   0.0370370
        k(   20) = (   0.1666667   0.0962250  -0.2978082), wk =   0.0370370
        k(   21) = (   0.1666667   0.1603751   0.0000000), wk =   0.0370370
        k(   22) = (   0.1666667   0.1603751   0.0992694), wk =   0.0370370
        k(   23) = (   0.1666667   0.1603751   0.1985388), wk =   0.0370370
        k(   24) = (   0.1666667   0.1603751  -0.2978082), wk =   0.0370370
        k(   25) = (   0.1666667  -0.0320750   0.0000000), wk =   0.0370370
        k(   26) = (   0.1666667  -0.0320750   0.0992694), wk =   0.0370370
        k(   27) = (   0.1666667  -0.0320750   0.1985388), wk =   0.0370370
        k(   28) = (   0.1666667  -0.0320750  -0.2978082), wk =   0.0370370
        k(   29) = (   0.3333333   0.1924501   0.0000000), wk =   0.0185185
        k(   30) = (   0.3333333   0.1924501   0.0992694), wk =   0.0370370
        k(   31) = (   0.3333333   0.1924501   0.1985388), wk =   0.0370370
        k(   32) = (   0.3333333   0.1924501  -0.2978082), wk =   0.0185185
        k(   33) = (   0.3333333   0.2566001   0.0000000), wk =   0.0370370
        k(   34) = (   0.3333333   0.2566001   0.0992694), wk =   0.0370370
        k(   35) = (   0.3333333   0.2566001   0.1985388), wk =   0.0370370
        k(   36) = (   0.3333333   0.2566001  -0.2978082), wk =   0.0370370
        k(   37) = (   0.3333333   0.3207501   0.0000000), wk =   0.0370370
        k(   38) = (   0.3333333   0.3207501   0.0992694), wk =   0.0370370
        k(   39) = (   0.3333333   0.3207501   0.1985388), wk =   0.0370370
        k(   40) = (   0.3333333   0.3207501  -0.2978082), wk =   0.0370370
        k(   41) = (   0.3333333   0.0000000   0.0000000), wk =   0.0185185
        k(   42) = (   0.3333333   0.0000000   0.0992694), wk =   0.0370370
        k(   43) = (   0.3333333   0.0000000   0.1985388), wk =   0.0370370
        k(   44) = (   0.3333333   0.0000000  -0.2978082), wk =   0.0185185
        k(   45) = (  -0.5000000  -0.2886751   0.0000000), wk =   0.0185185
        k(   46) = (  -0.5000000  -0.2886751   0.0992694), wk =   0.0370370
        k(   47) = (  -0.5000000  -0.2886751   0.1985388), wk =   0.0370370
        k(   48) = (  -0.5000000  -0.2886751  -0.2978082), wk =   0.0185185
        k(   49) = (  -0.5000000  -0.2245251   0.0000000), wk =   0.0370370
        k(   50) = (  -0.5000000  -0.2245251   0.0992694), wk =   0.0370370
        k(   51) = (  -0.5000000  -0.2245251   0.1985388), wk =   0.0370370
        k(   52) = (  -0.5000000  -0.2245251  -0.2978082), wk =   0.0370370
        k(   53) = (   0.0000000   0.0641500  -0.0992694), wk =   0.0185185
        k(   54) = (   0.0000000   0.0641500  -0.1985388), wk =   0.0185185
        k(   55) = (   0.0000000   0.1283001  -0.0992694), wk =   0.0185185
        k(   56) = (   0.0000000   0.1283001  -0.1985388), wk =   0.0185185
        k(   57) = (  -0.1666667   0.0962250  -0.0992694), wk =   0.0370370
        k(   58) = (  -0.1666667   0.0962250  -0.1985388), wk =   0.0370370
        k(   59) = (  -0.1666667   0.1603751  -0.0992694), wk =   0.0370370
        k(   60) = (  -0.1666667   0.1603751  -0.1985388), wk =   0.0370370
        k(   61) = (  -0.1666667  -0.0320750  -0.0992694), wk =   0.0370370
        k(   62) = (  -0.1666667  -0.0320750  -0.1985388), wk =   0.0370370
        k(   63) = (  -0.3333333   0.2566001  -0.0992694), wk =   0.0370370
        k(   64) = (  -0.3333333   0.2566001  -0.1985388), wk =   0.0370370
        k(   65) = (  -0.3333333   0.3207501  -0.0992694), wk =   0.0370370
        k(   66) = (  -0.3333333   0.3207501  -0.1985388), wk =   0.0370370
        k(   67) = (   0.5000000  -0.2245251  -0.0992694), wk =   0.0370370
        k(   68) = (   0.5000000  -0.2245251  -0.1985388), wk =   0.0370370

                       cryst. coord.
        k(    1) = (   0.0000000   0.0000000   0.0000000), wk =   0.0092593
        k(    2) = (   0.0000000   0.0000000   0.1666667), wk =   0.0185185
        k(    3) = (   0.0000000   0.0000000   0.3333333), wk =   0.0185185
        k(    4) = (   0.0000000   0.0000000  -0.5000000), wk =   0.0092593
        k(    5) = (   0.0000000   0.1666667   0.0000000), wk =   0.0185185
        k(    6) = (   0.0000000   0.1666667   0.1666667), wk =   0.0185185
        k(    7) = (   0.0000000   0.1666667   0.3333333), wk =   0.0185185
        k(    8) = (   0.0000000   0.1666667  -0.5000000), wk =   0.0185185
        k(    9) = (   0.0000000   0.3333333   0.0000000), wk =   0.0185185
        k(   10) = (   0.0000000   0.3333333   0.1666667), wk =   0.0185185
        k(   11) = (   0.0000000   0.3333333   0.3333333), wk =   0.0185185
        k(   12) = (   0.0000000   0.3333333  -0.5000000), wk =   0.0185185
        k(   13) = (   0.0000000  -0.5000000   0.0000000), wk =   0.0092593
        k(   14) = (   0.0000000  -0.5000000   0.1666667), wk =   0.0185185
        k(   15) = (   0.0000000  -0.5000000   0.3333333), wk =   0.0185185
        k(   16) = (   0.0000000  -0.5000000  -0.5000000), wk =   0.0092593
        k(   17) = (   0.1666667   0.0000000   0.0000000), wk =   0.0370370
        k(   18) = (   0.1666667   0.0000000   0.1666667), wk =   0.0370370
        k(   19) = (   0.1666667   0.0000000   0.3333333), wk =   0.0370370
        k(   20) = (   0.1666667   0.0000000  -0.5000000), wk =   0.0370370
        k(   21) = (   0.1666667   0.1666667   0.0000000), wk =   0.0370370
        k(   22) = (   0.1666667   0.1666667   0.1666667), wk =   0.0370370
        k(   23) = (   0.1666667   0.1666667   0.3333333), wk =   0.0370370
        k(   24) = (   0.1666667   0.1666667  -0.5000000), wk =   0.0370370
        k(   25) = (   0.1666667  -0.3333333   0.0000000), wk =   0.0370370
        k(   26) = (   0.1666667  -0.3333333   0.1666667), wk =   0.0370370
        k(   27) = (   0.1666667  -0.3333333   0.3333333), wk =   0.0370370
        k(   28) = (   0.1666667  -0.3333333  -0.5000000), wk =   0.0370370
        k(   29) = (   0.3333333   0.0000000   0.0000000), wk =   0.0185185
        k(   30) = (   0.3333333   0.0000000   0.1666667), wk =   0.0370370
        k(   31) = (   0.3333333   0.0000000   0.3333333), wk =   0.0370370
        k(   32) = (   0.3333333   0.0000000  -0.5000000), wk =   0.0185185
        k(   33) = (   0.3333333   0.1666667   0.0000000), wk =   0.0370370
        k(   34) = (   0.3333333   0.1666667   0.1666667), wk =   0.0370370
        k(   35) = (   0.3333333   0.1666667   0.3333333), wk =   0.0370370
        k(   36) = (   0.3333333   0.1666667  -0.5000000), wk =   0.0370370
        k(   37) = (   0.3333333   0.3333333   0.0000000), wk =   0.0370370
        k(   38) = (   0.3333333   0.3333333   0.1666667), wk =   0.0370370
        k(   39) = (   0.3333333   0.3333333   0.3333333), wk =   0.0370370
        k(   40) = (   0.3333333   0.3333333  -0.5000000), wk =   0.0370370
        k(   41) = (   0.3333333  -0.5000000   0.0000000), wk =   0.0185185
        k(   42) = (   0.3333333  -0.5000000   0.1666667), wk =   0.0370370
        k(   43) = (   0.3333333  -0.5000000   0.3333333), wk =   0.0370370
        k(   44) = (   0.3333333  -0.5000000  -0.5000000), wk =   0.0185185
        k(   45) = (  -0.5000000   0.0000000   0.0000000), wk =   0.0185185
        k(   46) = (  -0.5000000   0.0000000   0.1666667), wk =   0.0370370
        k(   47) = (  -0.5000000   0.0000000   0.3333333), wk =   0.0370370
        k(   48) = (  -0.5000000   0.0000000  -0.5000000), wk =   0.0185185
        k(   49) = (  -0.5000000   0.1666667   0.0000000), wk =   0.0370370
        k(   50) = (  -0.5000000   0.1666667   0.1666667), wk =   0.0370370
        k(   51) = (  -0.5000000   0.1666667   0.3333333), wk =   0.0370370
        k(   52) = (  -0.5000000   0.1666667  -0.5000000), wk =   0.0370370
        k(   53) = (   0.0000000   0.1666667  -0.1666667), wk =   0.0185185
        k(   54) = (   0.0000000   0.1666667  -0.3333333), wk =   0.0185185
        k(   55) = (   0.0000000   0.3333333  -0.1666667), wk =   0.0185185
        k(   56) = (   0.0000000   0.3333333  -0.3333333), wk =   0.0185185
        k(   57) = (  -0.1666667   0.5000000  -0.1666667), wk =   0.0370370
        k(   58) = (  -0.1666667   0.5000000  -0.3333333), wk =   0.0370370
        k(   59) = (  -0.1666667   0.6666667  -0.1666667), wk =   0.0370370
        k(   60) = (  -0.1666667   0.6666667  -0.3333333), wk =   0.0370370
        k(   61) = (  -0.1666667   0.1666667  -0.1666667), wk =   0.0370370
        k(   62) = (  -0.1666667   0.1666667  -0.3333333), wk =   0.0370370
        k(   63) = (  -0.3333333   1.1666667  -0.1666667), wk =   0.0370370
        k(   64) = (  -0.3333333   1.1666667  -0.3333333), wk =   0.0370370
        k(   65) = (  -0.3333333   1.3333333  -0.1666667), wk =   0.0370370
        k(   66) = (  -0.3333333   1.3333333  -0.3333333), wk =   0.0370370
        k(   67) = (   0.5000000  -1.3333333  -0.1666667), wk =   0.0370370
        k(   68) = (   0.5000000  -1.3333333  -0.3333333), wk =   0.0370370

     Check: negative core charge=   -0.000002

     Initial potential from superposition of free atoms

     starting charge     107.9776, renormalised to     108.0000
     Starting wfcs are   78 randomized atomic wfcs

     Self-consistent Calculation

     iteration #  1     ecut=    50.00 Ry     beta= 0.30
     Davidson diagonalization with overlap

     ethr =  1.00E-02,  avg # of iterations =  2.0

     total energy              =   -1084.41286644 Ry
     estimated scf accuracy    <       2.11916438 Ry

[...]

     c_bands:  1 eigenvalues not converged
     ethr =  1.66E-04,  avg # of iterations = 12.1

[...]

     c_bands:  1 eigenvalues not converged
     ethr =  2.35E-06,  avg # of iterations =  8.1

[...]

     total energy              =   -1084.90137339 Ry
     estimated scf accuracy    <       0.00000062 Ry

     iteration # 25     ecut=    50.00 Ry     beta= 0.30
     Davidson diagonalization with overlap

     ethr =  3.25E-10,  avg # of iterations =  5.3

     End of self-consistent calculation

          k = 0.0000 0.0000 0.0000 (  6117 PWs)   bands (ev):

   -11.2721 -10.8416 -10.8416 -10.7029 -10.5173 -10.5172   0.6629   0.6629
     0.8941   0.8944   0.9480   0.9624   0.9624   1.0481   1.0483   1.0730
     1.1014   1.1015   1.3280   1.3280   1.4232   1.4232   1.5953   1.5953
     1.8433   1.8433   1.9304   1.9304   1.9932   1.9932   2.0866   2.0866
     2.1132   2.1132   2.3050   2.3050   2.3970   2.6252   2.6252   3.3189
     3.3189   4.1315   4.1315   4.7607   4.7607   5.5577   5.5578   5.7286
     5.7291   5.7713   5.7713   6.1922   6.3619   6.3624

     occupation numbers
     1.0000   1.0000   1.0000   1.0000   1.0000   1.0000   1.0000   1.0000
     1.0000   1.0000   1.0000   1.0000   1.0000   1.0000   1.0000   1.0000
     1.0000   1.0000   1.0000   1.0000   1.0000   1.0000   1.0000   1.0000
     1.0000   1.0000   1.0000   1.0000   1.0000   1.0000   1.0000   1.0000
     1.0000   1.0000   1.0000   1.0000   1.0000   1.0000   1.0000   1.0000
     1.0000   1.0000   1.0000   1.0000   1.0000   1.0000   1.0000   1.0000
     1.0000   1.0000   1.0000   1.0000   1.0000   1.0000

[...]

          k =-0.5000-0.2887 0.0000 (  6154 PWs)   bands (ev):

[...]

          k =-0.3333 0.3208-0.1985 (  6147 PWs)   bands (ev):

[...]

          k = 0.5000-0.2245-0.1985 (  6161 PWs)   bands (ev):

   -10.6170 -10.6138 -10.6121 -10.5247 -10.5245 -10.5241   0.6663   0.7080
     0.7444   0.8033   0.8432   0.8879   1.1943   1.2019   1.2253   1.2680
     1.4157   1.4445   1.4496   1.4641   1.4652   1.4861   1.4886   1.5004
     1.9617   2.0173   2.0467   2.0601   2.0628   2.0755   2.1367   2.1531
     2.1639   2.2106   2.2419   2.2843   2.6167   2.6697   2.8084   2.8440
     2.9298   3.1727   3.9903   4.3039   4.4347   4.4594   4.6404   4.6920
     4.8192   5.0153   5.1527   5.2714   5.2750   5.2753

     occupation numbers
     1.0000   1.0000   1.0000   1.0000   1.0000   1.0000   1.0000   1.0000
     1.0000   1.0000   1.0000   1.0000   1.0000   1.0000   1.0000   1.0000
     1.0000   1.0000   1.0000   1.0000   1.0000   1.0000   1.0000   1.0000
     1.0000   1.0000   1.0000   1.0000   1.0000   1.0000   1.0000   1.0000
     1.0000   1.0000   1.0000   1.0000   1.0000   1.0000   1.0000   1.0000
     1.0000   1.0000   1.0000   1.0000   1.0000   1.0000   1.0000   1.0000
     1.0000   1.0000   1.0000   1.0000   1.0000   1.0000

     highest occupied level (ev):     6.3624

!    total energy              =   -1084.90137348 Ry
     estimated scf accuracy    <          9.9E-09 Ry

     The total energy is the sum of the following terms:
     one-electron contribution =    -477.12294124 Ry
     hartree contribution      =     359.68877207 Ry
     xc contribution           =    -328.40349931 Ry
     ewald contribution        =    -639.06370501 Ry

     convergence has been achieved in  25 iterations

     Forces acting on atoms (cartesian axes, Ry/au):

     atom    1 type  1   force =     0.00000000   -0.00003165    0.00741846
     atom    2 type  1   force =     0.00000000   -0.00002404    0.00744170
     atom    3 type  2   force =     0.00000000    0.00001392   -0.00743423
     atom    4 type  2   force =     0.00000000    0.00000188   -0.00742944
     atom    5 type  1   force =     0.00000000    0.00001613    0.00743078
     atom    6 type  1   force =     0.00000000    0.00002963    0.00743279
     atom    7 type  2   force =     0.00000000   -0.00000056   -0.00743547
     atom    8 type  2   force =     0.00000000   -0.00001163   -0.00742928
     atom    9 type  1   force =     0.00000000    0.00000970    0.00742853
     atom   10 type  1   force =     0.00000000   -0.00000187    0.00743242
     atom   11 type  2   force =     0.00000000    0.00000222   -0.00742786
     atom   12 type  2   force =     0.00000000   -0.00000372   -0.00742843
     The non-local contrib.  to forces
     atom    1 type  1   force =     0.00000000   -0.00002148    0.10312371
     atom    2 type  1   force =     0.00000000   -0.00003159    0.10314928
     atom    3 type  2   force =     0.00000000    0.00026173    0.10326926
     atom    4 type  2   force =     0.00000000   -0.00022034    0.10327521
     atom    5 type  1   force =     0.00000000    0.00002965    0.10313030
     atom    6 type  1   force =     0.00000000    0.00002298    0.10314105
     atom    7 type  2   force =     0.00000000    0.00022003    0.10326771
     atom    8 type  2   force =     0.00000000   -0.00025994    0.10327389
     atom    9 type  1   force =     0.00000000    0.00001629    0.10313230
     atom   10 type  1   force =     0.00000000   -0.00001340    0.10313785
     atom   11 type  2   force =     0.00000000    0.00022575    0.10328035
     atom   12 type  2   force =     0.00000000   -0.00023149    0.10327724
     The ionic contribution  to forces
     atom    1 type  1   force =    -0.00000000    0.00000001    0.85008146
     atom    2 type  1   force =     0.00000000    0.00000001    0.85008146
     atom    3 type  2   force =    -0.00000000    0.00000000   -0.85008146
     atom    4 type  2   force =     0.00000000    0.00000000   -0.85008146
     atom    5 type  1   force =    -0.00000001    0.00000001    0.85008146
     atom    6 type  1   force =     0.00000001   -0.00000001    0.85008146
     atom    7 type  2   force =    -0.00000001    0.00000000   -0.85008146
     atom    8 type  2   force =     0.00000001   -0.00000000   -0.85008146
     atom    9 type  1   force =    -0.00000000   -0.00000001    0.85008146
     atom   10 type  1   force =     0.00000000   -0.00000001    0.85008146
     atom   11 type  2   force =    -0.00000000   -0.00000000   -0.85008146
     atom   12 type  2   force =     0.00000000   -0.00000000   -0.85008146
     The local contribution  to forces
     atom    1 type  1   force =    -0.00000004    0.00004852   -0.93862207
     atom    2 type  1   force =     0.00000000    0.00007656   -0.93868137
     atom    3 type  2   force =    -0.00000001   -0.00021673    0.74022568
     atom    4 type  2   force =     0.00000000    0.00024615    0.74023483
     atom    5 type  1   force =    -0.00000009   -0.00006568   -0.93863829
     atom    6 type  1   force =     0.00000009   -0.00005332   -0.93866417
     atom    7 type  2   force =    -0.00000002   -0.00023821    0.74022412
     atom    8 type  2   force =     0.00000002    0.00021239    0.74023209
     atom    9 type  1   force =     0.00000000   -0.00005176   -0.93864566
     atom   10 type  1   force =     0.00000004    0.00004332   -0.93866179
     atom   11 type  2   force =     0.00000000   -0.00023053    0.74022758
     atom   12 type  2   force =     0.00000001    0.00022460    0.74023547
     The core correction contribution to forces
     atom    1 type  1   force =    -0.00000001    0.00000788   -0.00712916
     atom    2 type  1   force =     0.00000000   -0.00000899   -0.00712864
     atom    3 type  2   force =     0.00000000   -0.00000298   -0.00085982
     atom    4 type  2   force =     0.00000000    0.00000246   -0.00085990
     atom    5 type  1   force =    -0.00000001    0.00000873   -0.00712943
     atom    6 type  1   force =     0.00000001   -0.00000751   -0.00712859
     atom    7 type  2   force =     0.00000000   -0.00000245   -0.00085983
     atom    8 type  2   force =    -0.00000000    0.00000294   -0.00085989
     atom    9 type  1   force =    -0.00000000    0.00000957   -0.00712874
     atom   10 type  1   force =     0.00000001   -0.00000967   -0.00712828
     atom   11 type  2   force =    -0.00000000   -0.00000252   -0.00085995
     atom   12 type  2   force =    -0.00000000    0.00000258   -0.00085989
     The Hubbard contrib.    to forces
     atom    1 type  1   force =     0.00000000    0.00000000    0.00000000
     atom    2 type  1   force =     0.00000000    0.00000000    0.00000000
     atom    3 type  2   force =     0.00000000    0.00000000    0.00000000
     atom    4 type  2   force =     0.00000000    0.00000000    0.00000000
     atom    5 type  1   force =     0.00000000    0.00000000    0.00000000
     atom    6 type  1   force =     0.00000000    0.00000000    0.00000000
     atom    7 type  2   force =     0.00000000    0.00000000    0.00000000
     atom    8 type  2   force =     0.00000000    0.00000000    0.00000000
     atom    9 type  1   force =     0.00000000    0.00000000    0.00000000
     atom   10 type  1   force =     0.00000000    0.00000000    0.00000000
     atom   11 type  2   force =     0.00000000    0.00000000    0.00000000
     atom   12 type  2   force =     0.00000000    0.00000000    0.00000000
     The SCF correction term to forces
     atom    1 type  1   force =    -0.00000000   -0.00006683   -0.00003473
     atom    2 type  1   force =     0.00000000   -0.00006029    0.00002171
     atom    3 type  2   force =    -0.00000000   -0.00002835    0.00001285
     atom    4 type  2   force =     0.00000000   -0.00002666    0.00000262
     atom    5 type  1   force =    -0.00000000    0.00004316   -0.00001252
     atom    6 type  1   force =     0.00000000    0.00006723    0.00000379
     atom    7 type  2   force =    -0.00000000    0.00001980    0.00001474
     atom    8 type  2   force =     0.00000000    0.00003273    0.00000682
     atom    9 type  1   force =    -0.00000000    0.00003534   -0.00001008
     atom   10 type  1   force =     0.00000000   -0.00002238    0.00000391
     atom   11 type  2   force =    -0.00000000    0.00000927    0.00000637
     atom   12 type  2   force =     0.00000000    0.00000033    0.00000096

     Total force =     0.025741     Total SCF correction =     0.000147

     General routines

     Parallel routines

   This run was terminated on:  20: 8: 5  27Aug2025

   JOB DONE.