     Program PWSCF v.7.0 starts on 27Aug2025 at 23:46:11

     K-points division:     npool     =      17

     Reading input from /home/jvc/QEspresso7.2/ZnO_database/scripts/cell131.in/ZnO-3.40-1.61-131.in
Warning: card &CELL ignored
Warning: card / ignored
Warning: card &FCP ignored
Warning: card / ignored
Warning: card &RISM ignored
Warning: card / ignored

     Current dimensions of program PWSCF are:
     Max number of different atomic species (ntypx) = 10
     Max number of k-points (npk) =  40000
     Max angular momentum in pseudopotentials (lmaxx) =  4
     file Zn.upf: wavefunction(s)  3D renormalized
     Found identity + (  0.0000  0.3333  0.0000) symmetry
     This is a supercell, fractional translations are disabled
     Message from routine setup:
     using ibrav=0 with symmetry is DISCOURAGED, use correct ibrav instead

     Subspace diagonalization in iterative solution of the eigenvalue problem:
     a serial algorithm will be used

     Using Slab Decomposition

     bravais-lattice index     =            0
     lattice parameter (alat)  =       6.4260  a.u.
     unit-cell volume          =    1112.9500 (a.u.)^3
     number of atoms/cell      =           12
     number of atomic types    =            2
     number of electrons       =       108.00
     number of Kohn-Sham states=           54
     kinetic-energy cutoff     =      50.0000  Ry
     charge density cutoff     =     400.0000  Ry
     scf convergence threshold =      1.0E-08
     mixing beta               =       0.3000
     number of iterations used =            8  plain     mixing
     Exchange-correlation= PBE
                           (   1   4   3   4   0   0   0)

     celldm(1)=   6.426008  celldm(2)=   0.000000  celldm(3)=   0.000000
     celldm(4)=   0.000000  celldm(5)=   0.000000  celldm(6)=   0.000000

     crystal axes: (cart. coord. in units of alat)
               a(1) = (   1.000000   0.000000   0.000000 )
               a(2) = (  -1.500000   2.598076   0.000000 )
               a(3) = (   0.000000   0.000000   1.614358 )

     reciprocal axes: (cart. coord. in units 2 pi/alat)
               b(1) = (  1.000000  0.577350 -0.000000 )
               b(2) = (  0.000000  0.384900  0.000000 )
               b(3) = (  0.000000 -0.000000  0.619441 )

     PseudoPot. # 1 for Zn read from file:
     /home/jvc/QEspresso7.2/ZnO_database/pseudos/Zn.upf
     MD5 check sum: 7f56cabf9682ed8c977c2f7d0c5985c5
     Pseudo is Ultrasoft + core correction, Zval = 12.0
     Generated using &quot;atomic&quot; code by A. Dal Corso  v.6.2.2
     Using radial grid of 1201 points,  6 beta functions with:
                l(1) =   0
                l(2) =   0
                l(3) =   1
                l(4) =   1
                l(5) =   2
                l(6) =   2
     Q(r) pseudized with 0 coefficients

     PseudoPot. # 2 for O  read from file:
     /home/jvc/QEspresso7.2/ZnO_database/pseudos/O.upf
     MD5 check sum: 91400c9766925bcf19f520983a725ff0
     Pseudo is Ultrasoft + core correction, Zval =  6.0
     Generated using &quot;atomic&quot; code by A. Dal Corso  v.6.3MaX
     Using radial grid of 1095 points,  4 beta functions with:
                l(1) =   0
                l(2) =   0
                l(3) =   1
                l(4) =   1
     Q(r) pseudized with 0 coefficients

     atomic species   valence    mass     pseudopotential
        Zn            12.00    65.38000     Zn( 1.00)
        O              6.00    15.99900     O ( 1.00)

      2 Sym. Ops. (no inversion) found

                                    s                        frac. trans.

      isym =  1     identity

 cryst.   s( 1) = (     1          0          0      )
                  (     0          1          0      )
                  (     0          0          1      )

 cart.    s( 1) = (  1.0000000  0.0000000  0.0000000 )
                  (  0.0000000  1.0000000  0.0000000 )
                  (  0.0000000  0.0000000  1.0000000 )

      isym =  2     inv. 180 deg rotation - cart. axis [1,0,0]

 cryst.   s( 2) = (    -1          0          0      )
                  (     3          1          0      )
                  (     0          0          1      )

 cart.    s( 2) = ( -1.0000000  0.0000000  0.0000000 )
                  (  0.0000000  1.0000000  0.0000000 )
                  (  0.0000000  0.0000000  1.0000000 )

   Cartesian axes

     site n.     atom                  positions (alat units)
         1           Zn  tau(   1) = (   0.5000000   0.2886751   0.8082020  )
         2           Zn  tau(   2) = (   0.0000000   0.5773503   0.0010228  )
         3           O   tau(   3) = (   0.5000000   0.2886751   1.4201130  )
         4           O   tau(   4) = (   0.0000000   0.5773503   0.6129338  )
         5           Zn  tau(   5) = (   0.0000000   1.1547005   0.8082020  )
         6           Zn  tau(   6) = (  -0.5000000   1.4433757   0.0010228  )
         7           O   tau(   7) = (   0.0000000   1.1547005   1.4201130  )
         8           O   tau(   8) = (  -0.5000000   1.4433757   0.6129338  )
         9           Zn  tau(   9) = (  -0.5000000   2.0207259   0.8082020  )
        10           Zn  tau(  10) = (  -1.0000000   2.3094011   0.0010228  )
        11           O   tau(  11) = (  -0.5000000   2.0207259   1.4201130  )
        12           O   tau(  12) = (  -1.0000000   2.3094011   0.6129338  )

   Crystallographic axes

     site n.     atom                  positions (cryst. coord.)
         1           Zn  tau(   1) = (  0.6666667  0.1111111  0.5006336  )
         2           Zn  tau(   2) = (  0.3333333  0.2222222  0.0006336  )
         3           O   tau(   3) = (  0.6666667  0.1111111  0.8796764  )
         4           O   tau(   4) = (  0.3333333  0.2222222  0.3796764  )
         5           Zn  tau(   5) = (  0.6666667  0.4444444  0.5006336  )
         6           Zn  tau(   6) = (  0.3333333  0.5555556  0.0006336  )
         7           O   tau(   7) = (  0.6666667  0.4444444  0.8796764  )
         8           O   tau(   8) = (  0.3333333  0.5555556  0.3796764  )
         9           Zn  tau(   9) = (  0.6666667  0.7777778  0.5006336  )
        10           Zn  tau(  10) = (  0.3333333  0.8888889  0.0006336  )
        11           O   tau(  11) = (  0.6666667  0.7777778  0.8796764  )
        12           O   tau(  12) = (  0.3333333  0.8888889  0.3796764  )

     number of k points=    68
                       cart. coord. in units 2pi/alat
        k(    1) = (   0.0000000   0.0000000   0.0000000), wk =   0.0092593
        k(    2) = (   0.0000000   0.0000000   0.1032402), wk =   0.0185185
        k(    3) = (   0.0000000   0.0000000   0.2064804), wk =   0.0185185
        k(    4) = (   0.0000000   0.0000000  -0.3097206), wk =   0.0092593
        k(    5) = (   0.0000000   0.0641500   0.0000000), wk =   0.0185185
        k(    6) = (   0.0000000   0.0641500   0.1032402), wk =   0.0185185
        k(    7) = (   0.0000000   0.0641500   0.2064804), wk =   0.0185185
        k(    8) = (   0.0000000   0.0641500  -0.3097206), wk =   0.0185185
        k(    9) = (   0.0000000   0.1283001   0.0000000), wk =   0.0185185
        k(   10) = (   0.0000000   0.1283001   0.1032402), wk =   0.0185185
        k(   11) = (   0.0000000   0.1283001   0.2064804), wk =   0.0185185
        k(   12) = (   0.0000000   0.1283001  -0.3097206), wk =   0.0185185
        k(   13) = (   0.0000000  -0.1924501   0.0000000), wk =   0.0092593
        k(   14) = (   0.0000000  -0.1924501   0.1032402), wk =   0.0185185
        k(   15) = (   0.0000000  -0.1924501   0.2064804), wk =   0.0185185
        k(   16) = (   0.0000000  -0.1924501  -0.3097206), wk =   0.0092593
        k(   17) = (   0.1666667   0.0962250   0.0000000), wk =   0.0370370
        k(   18) = (   0.1666667   0.0962250   0.1032402), wk =   0.0370370
        k(   19) = (   0.1666667   0.0962250   0.2064804), wk =   0.0370370
        k(   20) = (   0.1666667   0.0962250  -0.3097206), wk =   0.0370370
        k(   21) = (   0.1666667   0.1603751   0.0000000), wk =   0.0370370
        k(   22) = (   0.1666667   0.1603751   0.1032402), wk =   0.0370370
        k(   23) = (   0.1666667   0.1603751   0.2064804), wk =   0.0370370
        k(   24) = (   0.1666667   0.1603751  -0.3097206), wk =   0.0370370
        k(   25) = (   0.1666667  -0.0320750   0.0000000), wk =   0.0370370
        k(   26) = (   0.1666667  -0.0320750   0.1032402), wk =   0.0370370
        k(   27) = (   0.1666667  -0.0320750   0.2064804), wk =   0.0370370
        k(   28) = (   0.1666667  -0.0320750  -0.3097206), wk =   0.0370370
        k(   29) = (   0.3333333   0.1924501   0.0000000), wk =   0.0185185
        k(   30) = (   0.3333333   0.1924501   0.1032402), wk =   0.0370370
        k(   31) = (   0.3333333   0.1924501   0.2064804), wk =   0.0370370
        k(   32) = (   0.3333333   0.1924501  -0.3097206), wk =   0.0185185
        k(   33) = (   0.3333333   0.2566001   0.0000000), wk =   0.0370370
        k(   34) = (   0.3333333   0.2566001   0.1032402), wk =   0.0370370
        k(   35) = (   0.3333333   0.2566001   0.2064804), wk =   0.0370370
        k(   36) = (   0.3333333   0.2566001  -0.3097206), wk =   0.0370370
        k(   37) = (   0.3333333   0.3207501   0.0000000), wk =   0.0370370
        k(   38) = (   0.3333333   0.3207501   0.1032402), wk =   0.0370370
        k(   39) = (   0.3333333   0.3207501   0.2064804), wk =   0.0370370
        k(   40) = (   0.3333333   0.3207501  -0.3097206), wk =   0.0370370
        k(   41) = (   0.3333333  -0.0000000   0.0000000), wk =   0.0185185
        k(   42) = (   0.3333333  -0.0000000   0.1032402), wk =   0.0370370
        k(   43) = (   0.3333333  -0.0000000   0.2064804), wk =   0.0370370
        k(   44) = (   0.3333333  -0.0000000  -0.3097206), wk =   0.0185185
        k(   45) = (  -0.5000000  -0.2886751   0.0000000), wk =   0.0185185
        k(   46) = (  -0.5000000  -0.2886751   0.1032402), wk =   0.0370370
        k(   47) = (  -0.5000000  -0.2886751   0.2064804), wk =   0.0370370
        k(   48) = (  -0.5000000  -0.2886751  -0.3097206), wk =   0.0185185
        k(   49) = (  -0.5000000  -0.2245251   0.0000000), wk =   0.0370370
        k(   50) = (  -0.5000000  -0.2245251   0.1032402), wk =   0.0370370
        k(   51) = (  -0.5000000  -0.2245251   0.2064804), wk =   0.0370370
        k(   52) = (  -0.5000000  -0.2245251  -0.3097206), wk =   0.0370370
        k(   53) = (   0.0000000   0.0641500  -0.1032402), wk =   0.0185185
        k(   54) = (   0.0000000   0.0641500  -0.2064804), wk =   0.0185185
        k(   55) = (   0.0000000   0.1283001  -0.1032402), wk =   0.0185185
        k(   56) = (   0.0000000   0.1283001  -0.2064804), wk =   0.0185185
        k(   57) = (  -0.1666667   0.0962250  -0.1032402), wk =   0.0370370
        k(   58) = (  -0.1666667   0.0962250  -0.2064804), wk =   0.0370370
        k(   59) = (  -0.1666667   0.1603751  -0.1032402), wk =   0.0370370
        k(   60) = (  -0.1666667   0.1603751  -0.2064804), wk =   0.0370370
        k(   61) = (  -0.1666667  -0.0320750  -0.1032402), wk =   0.0370370
        k(   62) = (  -0.1666667  -0.0320750  -0.2064804), wk =   0.0370370
        k(   63) = (  -0.3333333   0.2566001  -0.1032402), wk =   0.0370370
        k(   64) = (  -0.3333333   0.2566001  -0.2064804), wk =   0.0370370
        k(   65) = (  -0.3333333   0.3207501  -0.1032402), wk =   0.0370370
        k(   66) = (  -0.3333333   0.3207501  -0.2064804), wk =   0.0370370
        k(   67) = (   0.5000000  -0.2245251  -0.1032402), wk =   0.0370370
        k(   68) = (   0.5000000  -0.2245251  -0.2064804), wk =   0.0370370

                       cryst. coord.
        k(    1) = (   0.0000000   0.0000000   0.0000000), wk =   0.0092593
        k(    2) = (   0.0000000   0.0000000   0.1666667), wk =   0.0185185
        k(    3) = (   0.0000000   0.0000000   0.3333333), wk =   0.0185185
        k(    4) = (   0.0000000   0.0000000  -0.5000000), wk =   0.0092593
        k(    5) = (   0.0000000   0.1666667   0.0000000), wk =   0.0185185
        k(    6) = (   0.0000000   0.1666667   0.1666667), wk =   0.0185185
        k(    7) = (   0.0000000   0.1666667   0.3333333), wk =   0.0185185
        k(    8) = (   0.0000000   0.1666667  -0.5000000), wk =   0.0185185
        k(    9) = (   0.0000000   0.3333333   0.0000000), wk =   0.0185185
        k(   10) = (   0.0000000   0.3333333   0.1666667), wk =   0.0185185
        k(   11) = (   0.0000000   0.3333333   0.3333333), wk =   0.0185185
        k(   12) = (   0.0000000   0.3333333  -0.5000000), wk =   0.0185185
        k(   13) = (   0.0000000  -0.5000000   0.0000000), wk =   0.0092593
        k(   14) = (   0.0000000  -0.5000000   0.1666667), wk =   0.0185185
        k(   15) = (   0.0000000  -0.5000000   0.3333333), wk =   0.0185185
        k(   16) = (   0.0000000  -0.5000000  -0.5000000), wk =   0.0092593
        k(   17) = (   0.1666667   0.0000000   0.0000000), wk =   0.0370370
        k(   18) = (   0.1666667   0.0000000   0.1666667), wk =   0.0370370
        k(   19) = (   0.1666667   0.0000000   0.3333333), wk =   0.0370370
        k(   20) = (   0.1666667   0.0000000  -0.5000000), wk =   0.0370370
        k(   21) = (   0.1666667   0.1666667   0.0000000), wk =   0.0370370
        k(   22) = (   0.1666667   0.1666667   0.1666667), wk =   0.0370370
        k(   23) = (   0.1666667   0.1666667   0.3333333), wk =   0.0370370
        k(   24) = (   0.1666667   0.1666667  -0.5000000), wk =   0.0370370
        k(   25) = (   0.1666667  -0.3333333   0.0000000), wk =   0.0370370
        k(   26) = (   0.1666667  -0.3333333   0.1666667), wk =   0.0370370
        k(   27) = (   0.1666667  -0.3333333   0.3333333), wk =   0.0370370
        k(   28) = (   0.1666667  -0.3333333  -0.5000000), wk =   0.0370370
        k(   29) = (   0.3333333   0.0000000   0.0000000), wk =   0.0185185
        k(   30) = (   0.3333333   0.0000000   0.1666667), wk =   0.0370370
        k(   31) = (   0.3333333   0.0000000   0.3333333), wk =   0.0370370
        k(   32) = (   0.3333333   0.0000000  -0.5000000), wk =   0.0185185
        k(   33) = (   0.3333333   0.1666667   0.0000000), wk =   0.0370370
        k(   34) = (   0.3333333   0.1666667   0.1666667), wk =   0.0370370
        k(   35) = (   0.3333333   0.1666667   0.3333333), wk =   0.0370370
        k(   36) = (   0.3333333   0.1666667  -0.5000000), wk =   0.0370370
        k(   37) = (   0.3333333   0.3333333   0.0000000), wk =   0.0370370
        k(   38) = (   0.3333333   0.3333333   0.1666667), wk =   0.0370370
        k(   39) = (   0.3333333   0.3333333   0.3333333), wk =   0.0370370
        k(   40) = (   0.3333333   0.3333333  -0.5000000), wk =   0.0370370
        k(   41) = (   0.3333333  -0.5000000   0.0000000), wk =   0.0185185
        k(   42) = (   0.3333333  -0.5000000   0.1666667), wk =   0.0370370
        k(   43) = (   0.3333333  -0.5000000   0.3333333), wk =   0.0370370
        k(   44) = (   0.3333333  -0.5000000  -0.5000000), wk =   0.0185185
        k(   45) = (  -0.5000000   0.0000000   0.0000000), wk =   0.0185185
        k(   46) = (  -0.5000000   0.0000000   0.1666667), wk =   0.0370370
        k(   47) = (  -0.5000000   0.0000000   0.3333333), wk =   0.0370370
        k(   48) = (  -0.5000000   0.0000000  -0.5000000), wk =   0.0185185
        k(   49) = (  -0.5000000   0.1666667   0.0000000), wk =   0.0370370
        k(   50) = (  -0.5000000   0.1666667   0.1666667), wk =   0.0370370
        k(   51) = (  -0.5000000   0.1666667   0.3333333), wk =   0.0370370
        k(   52) = (  -0.5000000   0.1666667  -0.5000000), wk =   0.0370370
        k(   53) = (   0.0000000   0.1666667  -0.1666667), wk =   0.0185185
        k(   54) = (   0.0000000   0.1666667  -0.3333333), wk =   0.0185185
        k(   55) = (   0.0000000   0.3333333  -0.1666667), wk =   0.0185185
        k(   56) = (   0.0000000   0.3333333  -0.3333333), wk =   0.0185185
        k(   57) = (  -0.1666667   0.5000000  -0.1666667), wk =   0.0370370
        k(   58) = (  -0.1666667   0.5000000  -0.3333333), wk =   0.0370370
        k(   59) = (  -0.1666667   0.6666667  -0.1666667), wk =   0.0370370
        k(   60) = (  -0.1666667   0.6666667  -0.3333333), wk =   0.0370370
        k(   61) = (  -0.1666667   0.1666667  -0.1666667), wk =   0.0370370
        k(   62) = (  -0.1666667   0.1666667  -0.3333333), wk =   0.0370370
        k(   63) = (  -0.3333333   1.1666667  -0.1666667), wk =   0.0370370
        k(   64) = (  -0.3333333   1.1666667  -0.3333333), wk =   0.0370370
        k(   65) = (  -0.3333333   1.3333333  -0.1666667), wk =   0.0370370
        k(   66) = (  -0.3333333   1.3333333  -0.3333333), wk =   0.0370370
        k(   67) = (   0.5000000  -1.3333333  -0.1666667), wk =   0.0370370
        k(   68) = (   0.5000000  -1.3333333  -0.3333333), wk =   0.0370370

     Check: negative core charge=   -0.000002

     Initial potential from superposition of free atoms

     starting charge     107.9776, renormalised to     108.0000
     Starting wfcs are   78 randomized atomic wfcs

     Self-consistent Calculation

     iteration #  1     ecut=    50.00 Ry     beta= 0.30
     Davidson diagonalization with overlap

     ethr =  1.00E-02,  avg # of iterations =  1.8

     total energy              =   -1084.34079327 Ry
     estimated scf accuracy    <       2.22206218 Ry

[...]

     total energy              =   -1084.86439784 Ry
     estimated scf accuracy    <       0.00000002 Ry

     iteration # 45     ecut=    50.00 Ry     beta= 0.30
     Davidson diagonalization with overlap

     ethr =  2.17E-11,  avg # of iterations =  5.7

     End of self-consistent calculation

          k = 0.0000 0.0000 0.0000 (  6645 PWs)   bands (ev):

   -11.7733 -11.4246 -11.4246 -11.2503 -11.1263 -11.1263   0.0193   0.0193
     0.1475   0.1478   0.1749   0.2623   0.2623   0.2957   0.2959   0.3095
     0.3095   0.5113   0.5113   0.6122   0.6138   0.6138   0.7621   0.7621
     0.9170   0.9170   0.9478   0.9479   1.0028   1.0028   1.0967   1.0967
     1.1191   1.1191   1.2895   1.2895   1.3730   1.8127   1.8127   2.4749
     2.4749   3.1776   3.1776   3.7818   3.7819   4.6208   4.6208   4.6415
     4.6420   4.7929   4.7929   5.2295   5.2789   5.2795

     occupation numbers
     1.0000   1.0000   1.0000   1.0000   1.0000   1.0000   1.0000   1.0000
     1.0000   1.0000   1.0000   1.0000   1.0000   1.0000   1.0000   1.0000
     1.0000   1.0000   1.0000   1.0000   1.0000   1.0000   1.0000   1.0000
     1.0000   1.0000   1.0000   1.0000   1.0000   1.0000   1.0000   1.0000
     1.0000   1.0000   1.0000   1.0000   1.0000   1.0000   1.0000   1.0000
     1.0000   1.0000   1.0000   1.0000   1.0000   1.0000   1.0000   1.0000
     1.0000   1.0000   1.0000   1.0000   1.0000   1.0000

[...]

          k =-0.5000-0.2887 0.0000 (  6642 PWs)   bands (ev):

[...]

          k =-0.3333 0.3208-0.2065 (  6634 PWs)   bands (ev):

[...]

          k = 0.5000-0.2245-0.2065 (  6650 PWs)   bands (ev):

   -11.2341 -11.2318 -11.2305 -11.1493 -11.1490 -11.1485   0.0021   0.0358
     0.1056   0.1436   0.1455   0.1861   0.4004   0.4065   0.4180   0.4844
     0.5997   0.6119   0.6228   0.6235   0.6243   0.6271   0.6356   0.6569
     0.9930   1.0373   1.0526   1.0636   1.0687   1.0782   1.1345   1.1481
     1.1578   1.1937   1.2212   1.2592   1.7347   1.7942   1.9634   1.9778
     2.0669   2.2428   3.1392   3.4370   3.5933   3.7003   3.8000   3.8053
     3.9317   4.1195   4.2621   4.3946   4.4093   4.4219

     occupation numbers
     1.0000   1.0000   1.0000   1.0000   1.0000   1.0000   1.0000   1.0000
     1.0000   1.0000   1.0000   1.0000   1.0000   1.0000   1.0000   1.0000
     1.0000   1.0000   1.0000   1.0000   1.0000   1.0000   1.0000   1.0000
     1.0000   1.0000   1.0000   1.0000   1.0000   1.0000   1.0000   1.0000
     1.0000   1.0000   1.0000   1.0000   1.0000   1.0000   1.0000   1.0000
     1.0000   1.0000   1.0000   1.0000   1.0000   1.0000   1.0000   1.0000
     1.0000   1.0000   1.0000   1.0000   1.0000   1.0000

     highest occupied level (ev):     5.2795

!    total energy              =   -1084.86439785 Ry
     estimated scf accuracy    <          6.8E-10 Ry

     The total energy is the sum of the following terms:
     one-electron contribution =    -503.45140083 Ry
     hartree contribution      =     369.20320027 Ry
     xc contribution           =    -327.96155346 Ry
     ewald contribution        =    -622.65464383 Ry

     convergence has been achieved in  45 iterations

     Forces acting on atoms (cartesian axes, Ry/au):

     atom    1 type  1   force =     0.00000000    0.00001774   -0.00009818
     atom    2 type  1   force =     0.00000000    0.00000680   -0.00008764
     atom    3 type  2   force =     0.00000000    0.00000333    0.00009404
     atom    4 type  2   force =     0.00000000   -0.00000364    0.00009463
     atom    5 type  1   force =     0.00000000   -0.00001778   -0.00009779
     atom    6 type  1   force =     0.00000000   -0.00001971   -0.00009649
     atom    7 type  2   force =     0.00000000    0.00000510    0.00009430
     atom    8 type  2   force =     0.00000000   -0.00000281    0.00009441
     atom    9 type  1   force =     0.00000000    0.00000388   -0.00008922
     atom   10 type  1   force =     0.00000000    0.00000858   -0.00009752
     atom   11 type  2   force =     0.00000000    0.00000431    0.00009540
     atom   12 type  2   force =     0.00000000   -0.00000580    0.00009405
     The non-local contrib.  to forces
     atom    1 type  1   force =     0.00000000    0.00000616   -0.00455807
     atom    2 type  1   force =     0.00000000    0.00001192   -0.00455369
     atom    3 type  2   force =     0.00000000    0.00023206    0.00625216
     atom    4 type  2   force =     0.00000000   -0.00024223    0.00625358
     atom    5 type  1   force =     0.00000000   -0.00002011   -0.00455773
     atom    6 type  1   force =     0.00000000   -0.00000863   -0.00455517
     atom    7 type  2   force =     0.00000000    0.00024978    0.00625198
     atom    8 type  2   force =     0.00000000   -0.00022886    0.00625147
     atom    9 type  1   force =     0.00000000   -0.00000336   -0.00455237
     atom   10 type  1   force =     0.00000000    0.00001518   -0.00455465
     atom   11 type  2   force =     0.00000000    0.00024308    0.00625445
     atom   12 type  2   force =     0.00000000   -0.00025298    0.00624975
     The ionic contribution  to forces
     atom    1 type  1   force =    -0.00000000    0.00000001    0.05798523
     atom    2 type  1   force =     0.00000000    0.00000001    0.05798523
     atom    3 type  2   force =    -0.00000000    0.00000000   -0.05798523
     atom    4 type  2   force =     0.00000000    0.00000000   -0.05798523
     atom    5 type  1   force =    -0.00000001    0.00000001    0.05798522
     atom    6 type  1   force =     0.00000001   -0.00000001    0.05798522
     atom    7 type  2   force =    -0.00000001    0.00000000   -0.05798522
     atom    8 type  2   force =     0.00000001   -0.00000000   -0.05798522
     atom    9 type  1   force =    -0.00000000   -0.00000001    0.05798523
     atom   10 type  1   force =     0.00000000   -0.00000001    0.05798523
     atom   11 type  2   force =    -0.00000000   -0.00000000   -0.05798523
     atom   12 type  2   force =     0.00000000   -0.00000000   -0.05798523
     The local contribution  to forces
     atom    1 type  1   force =    -0.00000004   -0.00003124   -0.05387376
     atom    2 type  1   force =     0.00000000   -0.00000880   -0.05388427
     atom    3 type  2   force =    -0.00000001   -0.00024409    0.05189895
     atom    4 type  2   force =     0.00000000    0.00023012    0.05189771
     atom    5 type  1   force =    -0.00000009    0.00002542   -0.05387355
     atom    6 type  1   force =     0.00000009    0.00003733   -0.05387745
     atom    7 type  2   force =    -0.00000002   -0.00023028    0.05189553
     atom    8 type  2   force =     0.00000002    0.00024646    0.05190056
     atom    9 type  1   force =     0.00000000   -0.00001013   -0.05388411
     atom   10 type  1   force =     0.00000004   -0.00001534   -0.05387807
     atom   11 type  2   force =     0.00000000   -0.00023551    0.05190636
     atom   12 type  2   force =     0.00000001    0.00023897    0.05189867
     The core correction contribution to forces
     atom    1 type  1   force =    -0.00000003    0.00000789    0.00035348
     atom    2 type  1   force =     0.00000005   -0.00000760    0.00035342
     atom    3 type  2   force =    -0.00000000   -0.00000262   -0.00007026
     atom    4 type  2   force =    -0.00000000    0.00000275   -0.00007029
     atom    5 type  1   force =     0.00000000    0.00000759    0.00035350
     atom    6 type  1   force =    -0.00000000   -0.00000789    0.00035343
     atom    7 type  2   force =    -0.00000000   -0.00000284   -0.00007027
     atom    8 type  2   force =     0.00000000    0.00000261   -0.00007025
     atom    9 type  1   force =    -0.00000005    0.00000747    0.00035319
     atom   10 type  1   force =     0.00000003   -0.00000756    0.00035348
     atom   11 type  2   force =     0.00000000   -0.00000276   -0.00007027
     atom   12 type  2   force =     0.00000000    0.00000288   -0.00007023
     The Hubbard contrib.    to forces
     atom    1 type  1   force =     0.00000000    0.00000000    0.00000000
     atom    2 type  1   force =     0.00000000    0.00000000    0.00000000
     atom    3 type  2   force =     0.00000000    0.00000000    0.00000000
     atom    4 type  2   force =     0.00000000    0.00000000    0.00000000
     atom    5 type  1   force =     0.00000000    0.00000000    0.00000000
     atom    6 type  1   force =     0.00000000    0.00000000    0.00000000
     atom    7 type  2   force =     0.00000000    0.00000000    0.00000000
     atom    8 type  2   force =     0.00000000    0.00000000    0.00000000
     atom    9 type  1   force =     0.00000000    0.00000000    0.00000000
     atom   10 type  1   force =     0.00000000    0.00000000    0.00000000
     atom   11 type  2   force =     0.00000000    0.00000000    0.00000000
     atom   12 type  2   force =     0.00000000    0.00000000    0.00000000
     The SCF correction term to forces
     atom    1 type  1   force =    -0.00000000    0.00003518   -0.00000320
     atom    2 type  1   force =     0.00000000    0.00001154    0.00001352
     atom    3 type  2   force =    -0.00000000    0.00001823    0.00000028
     atom    4 type  2   force =    -0.00000000    0.00000597    0.00000071
     atom    5 type  1   force =    -0.00000000   -0.00003042   -0.00000339
     atom    6 type  1   force =     0.00000000   -0.00004026   -0.00000067
     atom    7 type  2   force =    -0.00000000   -0.00001130    0.00000414
     atom    8 type  2   force =     0.00000000   -0.00002275   -0.00000029
     atom    9 type  1   force =    -0.00000000    0.00001016    0.00001069
     atom   10 type  1   force =     0.00000000    0.00001655   -0.00000165
     atom   11 type  2   force =     0.00000000   -0.00000025   -0.00000806
     atom   12 type  2   force =     0.00000000    0.00000558    0.00000294

     Total force =     0.000329     Total SCF correction =     0.000076
     SCF correction compared to forces is large: reduce conv_thr to get better values

     General routines

     Parallel routines

   This run was terminated on:  23:59:12  27Aug2025

   JOB DONE.