     Program PWSCF v.7.0 starts on 27Aug2025 at 22: 6:35

     K-points division:     npool     =      17

     Reading input from /home/jvc/QEspresso7.2/ZnO_database/scripts/cell131.in/ZnO-3.34-1.68-131.in
Warning: card &CELL ignored
Warning: card / ignored
Warning: card &FCP ignored
Warning: card / ignored
Warning: card &RISM ignored
Warning: card / ignored

     Current dimensions of program PWSCF are:
     Max number of different atomic species (ntypx) = 10
     Max number of k-points (npk) =  40000
     Max angular momentum in pseudopotentials (lmaxx) =  4
     file Zn.upf: wavefunction(s)  3D renormalized
     Found identity + (  0.0000  0.3333  0.0000) symmetry
     This is a supercell, fractional translations are disabled
     Message from routine setup:
     using ibrav=0 with symmetry is DISCOURAGED, use correct ibrav instead

     Subspace diagonalization in iterative solution of the eigenvalue problem:
     a serial algorithm will be used

     Using Slab Decomposition

     bravais-lattice index     =            0
     lattice parameter (alat)  =       6.3024  a.u.
     unit-cell volume          =    1091.9669 (a.u.)^3
     number of atoms/cell      =           12
     number of atomic types    =            2
     number of electrons       =       108.00
     number of Kohn-Sham states=           54
     kinetic-energy cutoff     =      50.0000  Ry
     charge density cutoff     =     400.0000  Ry
     scf convergence threshold =      1.0E-08
     mixing beta               =       0.3000
     number of iterations used =            8  plain     mixing
     Exchange-correlation= PBE
                           (   1   4   3   4   0   0   0)

     celldm(1)=   6.302431  celldm(2)=   0.000000  celldm(3)=   0.000000
     celldm(4)=   0.000000  celldm(5)=   0.000000  celldm(6)=   0.000000

     crystal axes: (cart. coord. in units of alat)
               a(1) = (   1.000000   0.000000   0.000000 )
               a(2) = (  -1.500000   2.598076   0.000000 )
               a(3) = (   0.000000   0.000000   1.678933 )

     reciprocal axes: (cart. coord. in units 2 pi/alat)
               b(1) = (  1.000000  0.577350 -0.000000 )
               b(2) = (  0.000000  0.384900  0.000000 )
               b(3) = (  0.000000 -0.000000  0.595616 )

     PseudoPot. # 1 for Zn read from file:
     /home/jvc/QEspresso7.2/ZnO_database/pseudos/Zn.upf
     MD5 check sum: 7f56cabf9682ed8c977c2f7d0c5985c5
     Pseudo is Ultrasoft + core correction, Zval = 12.0
     Generated using &quot;atomic&quot; code by A. Dal Corso  v.6.2.2
     Using radial grid of 1201 points,  6 beta functions with:
                l(1) =   0
                l(2) =   0
                l(3) =   1
                l(4) =   1
                l(5) =   2
                l(6) =   2
     Q(r) pseudized with 0 coefficients

     PseudoPot. # 2 for O  read from file:
     /home/jvc/QEspresso7.2/ZnO_database/pseudos/O.upf
     MD5 check sum: 91400c9766925bcf19f520983a725ff0
     Pseudo is Ultrasoft + core correction, Zval =  6.0
     Generated using &quot;atomic&quot; code by A. Dal Corso  v.6.3MaX
     Using radial grid of 1095 points,  4 beta functions with:
                l(1) =   0
                l(2) =   0
                l(3) =   1
                l(4) =   1
     Q(r) pseudized with 0 coefficients

     atomic species   valence    mass     pseudopotential
        Zn            12.00    65.38000     Zn( 1.00)
        O              6.00    15.99900     O ( 1.00)

      2 Sym. Ops. (no inversion) found

                                    s                        frac. trans.

      isym =  1     identity

 cryst.   s( 1) = (     1          0          0      )
                  (     0          1          0      )
                  (     0          0          1      )

 cart.    s( 1) = (  1.0000000  0.0000000  0.0000000 )
                  (  0.0000000  1.0000000  0.0000000 )
                  (  0.0000000  0.0000000  1.0000000 )

      isym =  2     inv. 180 deg rotation - cart. axis [1,0,0]

 cryst.   s( 2) = (    -1          0          0      )
                  (     3          1          0      )
                  (     0          0          1      )

 cart.    s( 2) = ( -1.0000000  0.0000000  0.0000000 )
                  (  0.0000000  1.0000000  0.0000000 )
                  (  0.0000000  0.0000000  1.0000000 )

   Cartesian axes

     site n.     atom                  positions (alat units)
         1           Zn  tau(   1) = (   0.5000000   0.2886751   0.8405301  )
         2           Zn  tau(   2) = (   0.0000000   0.5773503   0.0010637  )
         3           O   tau(   3) = (   0.5000000   0.2886751   1.4769175  )
         4           O   tau(   4) = (   0.0000000   0.5773503   0.6374511  )
         5           Zn  tau(   5) = (   0.0000000   1.1547005   0.8405301  )
         6           Zn  tau(   6) = (  -0.5000000   1.4433757   0.0010637  )
         7           O   tau(   7) = (   0.0000000   1.1547005   1.4769175  )
         8           O   tau(   8) = (  -0.5000000   1.4433757   0.6374511  )
         9           Zn  tau(   9) = (  -0.5000000   2.0207259   0.8405301  )
        10           Zn  tau(  10) = (  -1.0000000   2.3094011   0.0010637  )
        11           O   tau(  11) = (  -0.5000000   2.0207259   1.4769175  )
        12           O   tau(  12) = (  -1.0000000   2.3094011   0.6374511  )

   Crystallographic axes

     site n.     atom                  positions (cryst. coord.)
         1           Zn  tau(   1) = (  0.6666667  0.1111111  0.5006336  )
         2           Zn  tau(   2) = (  0.3333333  0.2222222  0.0006336  )
         3           O   tau(   3) = (  0.6666667  0.1111111  0.8796764  )
         4           O   tau(   4) = (  0.3333333  0.2222222  0.3796764  )
         5           Zn  tau(   5) = (  0.6666667  0.4444444  0.5006336  )
         6           Zn  tau(   6) = (  0.3333333  0.5555556  0.0006336  )
         7           O   tau(   7) = (  0.6666667  0.4444444  0.8796764  )
         8           O   tau(   8) = (  0.3333333  0.5555556  0.3796764  )
         9           Zn  tau(   9) = (  0.6666667  0.7777778  0.5006336  )
        10           Zn  tau(  10) = (  0.3333333  0.8888889  0.0006336  )
        11           O   tau(  11) = (  0.6666667  0.7777778  0.8796764  )
        12           O   tau(  12) = (  0.3333333  0.8888889  0.3796764  )

     number of k points=    68
                       cart. coord. in units 2pi/alat
        k(    1) = (   0.0000000   0.0000000   0.0000000), wk =   0.0092593
        k(    2) = (   0.0000000   0.0000000   0.0992694), wk =   0.0185185
        k(    3) = (   0.0000000   0.0000000   0.1985388), wk =   0.0185185
        k(    4) = (   0.0000000   0.0000000  -0.2978082), wk =   0.0092593
        k(    5) = (   0.0000000   0.0641500   0.0000000), wk =   0.0185185
        k(    6) = (   0.0000000   0.0641500   0.0992694), wk =   0.0185185
        k(    7) = (   0.0000000   0.0641500   0.1985388), wk =   0.0185185
        k(    8) = (   0.0000000   0.0641500  -0.2978082), wk =   0.0185185
        k(    9) = (   0.0000000   0.1283001   0.0000000), wk =   0.0185185
        k(   10) = (   0.0000000   0.1283001   0.0992694), wk =   0.0185185
        k(   11) = (   0.0000000   0.1283001   0.1985388), wk =   0.0185185
        k(   12) = (   0.0000000   0.1283001  -0.2978082), wk =   0.0185185
        k(   13) = (   0.0000000  -0.1924501   0.0000000), wk =   0.0092593
        k(   14) = (   0.0000000  -0.1924501   0.0992694), wk =   0.0185185
        k(   15) = (   0.0000000  -0.1924501   0.1985388), wk =   0.0185185
        k(   16) = (   0.0000000  -0.1924501  -0.2978082), wk =   0.0092593
        k(   17) = (   0.1666667   0.0962250   0.0000000), wk =   0.0370370
        k(   18) = (   0.1666667   0.0962250   0.0992694), wk =   0.0370370
        k(   19) = (   0.1666667   0.0962250   0.1985388), wk =   0.0370370
        k(   20) = (   0.1666667   0.0962250  -0.2978082), wk =   0.0370370
        k(   21) = (   0.1666667   0.1603751   0.0000000), wk =   0.0370370
        k(   22) = (   0.1666667   0.1603751   0.0992694), wk =   0.0370370
        k(   23) = (   0.1666667   0.1603751   0.1985388), wk =   0.0370370
        k(   24) = (   0.1666667   0.1603751  -0.2978082), wk =   0.0370370
        k(   25) = (   0.1666667  -0.0320750   0.0000000), wk =   0.0370370
        k(   26) = (   0.1666667  -0.0320750   0.0992694), wk =   0.0370370
        k(   27) = (   0.1666667  -0.0320750   0.1985388), wk =   0.0370370
        k(   28) = (   0.1666667  -0.0320750  -0.2978082), wk =   0.0370370
        k(   29) = (   0.3333333   0.1924501   0.0000000), wk =   0.0185185
        k(   30) = (   0.3333333   0.1924501   0.0992694), wk =   0.0370370
        k(   31) = (   0.3333333   0.1924501   0.1985388), wk =   0.0370370
        k(   32) = (   0.3333333   0.1924501  -0.2978082), wk =   0.0185185
        k(   33) = (   0.3333333   0.2566001   0.0000000), wk =   0.0370370
        k(   34) = (   0.3333333   0.2566001   0.0992694), wk =   0.0370370
        k(   35) = (   0.3333333   0.2566001   0.1985388), wk =   0.0370370
        k(   36) = (   0.3333333   0.2566001  -0.2978082), wk =   0.0370370
        k(   37) = (   0.3333333   0.3207501   0.0000000), wk =   0.0370370
        k(   38) = (   0.3333333   0.3207501   0.0992694), wk =   0.0370370
        k(   39) = (   0.3333333   0.3207501   0.1985388), wk =   0.0370370
        k(   40) = (   0.3333333   0.3207501  -0.2978082), wk =   0.0370370
        k(   41) = (   0.3333333  -0.0000000   0.0000000), wk =   0.0185185
        k(   42) = (   0.3333333  -0.0000000   0.0992694), wk =   0.0370370
        k(   43) = (   0.3333333  -0.0000000   0.1985388), wk =   0.0370370
        k(   44) = (   0.3333333  -0.0000000  -0.2978082), wk =   0.0185185
        k(   45) = (  -0.5000000  -0.2886751   0.0000000), wk =   0.0185185
        k(   46) = (  -0.5000000  -0.2886751   0.0992694), wk =   0.0370370
        k(   47) = (  -0.5000000  -0.2886751   0.1985388), wk =   0.0370370
        k(   48) = (  -0.5000000  -0.2886751  -0.2978082), wk =   0.0185185
        k(   49) = (  -0.5000000  -0.2245251   0.0000000), wk =   0.0370370
        k(   50) = (  -0.5000000  -0.2245251   0.0992694), wk =   0.0370370
        k(   51) = (  -0.5000000  -0.2245251   0.1985388), wk =   0.0370370
        k(   52) = (  -0.5000000  -0.2245251  -0.2978082), wk =   0.0370370
        k(   53) = (   0.0000000   0.0641500  -0.0992694), wk =   0.0185185
        k(   54) = (   0.0000000   0.0641500  -0.1985388), wk =   0.0185185
        k(   55) = (   0.0000000   0.1283001  -0.0992694), wk =   0.0185185
        k(   56) = (   0.0000000   0.1283001  -0.1985388), wk =   0.0185185
        k(   57) = (  -0.1666667   0.0962250  -0.0992694), wk =   0.0370370
        k(   58) = (  -0.1666667   0.0962250  -0.1985388), wk =   0.0370370
        k(   59) = (  -0.1666667   0.1603751  -0.0992694), wk =   0.0370370
        k(   60) = (  -0.1666667   0.1603751  -0.1985388), wk =   0.0370370
        k(   61) = (  -0.1666667  -0.0320750  -0.0992694), wk =   0.0370370
        k(   62) = (  -0.1666667  -0.0320750  -0.1985388), wk =   0.0370370
        k(   63) = (  -0.3333333   0.2566001  -0.0992694), wk =   0.0370370
        k(   64) = (  -0.3333333   0.2566001  -0.1985388), wk =   0.0370370
        k(   65) = (  -0.3333333   0.3207501  -0.0992694), wk =   0.0370370
        k(   66) = (  -0.3333333   0.3207501  -0.1985388), wk =   0.0370370
        k(   67) = (   0.5000000  -0.2245251  -0.0992694), wk =   0.0370370
        k(   68) = (   0.5000000  -0.2245251  -0.1985388), wk =   0.0370370

                       cryst. coord.
        k(    1) = (   0.0000000   0.0000000   0.0000000), wk =   0.0092593
        k(    2) = (   0.0000000   0.0000000   0.1666667), wk =   0.0185185
        k(    3) = (   0.0000000   0.0000000   0.3333333), wk =   0.0185185
        k(    4) = (   0.0000000   0.0000000  -0.5000000), wk =   0.0092593
        k(    5) = (   0.0000000   0.1666667   0.0000000), wk =   0.0185185
        k(    6) = (   0.0000000   0.1666667   0.1666667), wk =   0.0185185
        k(    7) = (   0.0000000   0.1666667   0.3333333), wk =   0.0185185
        k(    8) = (   0.0000000   0.1666667  -0.5000000), wk =   0.0185185
        k(    9) = (   0.0000000   0.3333333   0.0000000), wk =   0.0185185
        k(   10) = (   0.0000000   0.3333333   0.1666667), wk =   0.0185185
        k(   11) = (   0.0000000   0.3333333   0.3333333), wk =   0.0185185
        k(   12) = (   0.0000000   0.3333333  -0.5000000), wk =   0.0185185
        k(   13) = (   0.0000000  -0.5000000   0.0000000), wk =   0.0092593
        k(   14) = (   0.0000000  -0.5000000   0.1666667), wk =   0.0185185
        k(   15) = (   0.0000000  -0.5000000   0.3333333), wk =   0.0185185
        k(   16) = (   0.0000000  -0.5000000  -0.5000000), wk =   0.0092593
        k(   17) = (   0.1666667   0.0000000   0.0000000), wk =   0.0370370
        k(   18) = (   0.1666667   0.0000000   0.1666667), wk =   0.0370370
        k(   19) = (   0.1666667   0.0000000   0.3333333), wk =   0.0370370
        k(   20) = (   0.1666667   0.0000000  -0.5000000), wk =   0.0370370
        k(   21) = (   0.1666667   0.1666667   0.0000000), wk =   0.0370370
        k(   22) = (   0.1666667   0.1666667   0.1666667), wk =   0.0370370
        k(   23) = (   0.1666667   0.1666667   0.3333333), wk =   0.0370370
        k(   24) = (   0.1666667   0.1666667  -0.5000000), wk =   0.0370370
        k(   25) = (   0.1666667  -0.3333333   0.0000000), wk =   0.0370370
        k(   26) = (   0.1666667  -0.3333333   0.1666667), wk =   0.0370370
        k(   27) = (   0.1666667  -0.3333333   0.3333333), wk =   0.0370370
        k(   28) = (   0.1666667  -0.3333333  -0.5000000), wk =   0.0370370
        k(   29) = (   0.3333333   0.0000000   0.0000000), wk =   0.0185185
        k(   30) = (   0.3333333   0.0000000   0.1666667), wk =   0.0370370
        k(   31) = (   0.3333333   0.0000000   0.3333333), wk =   0.0370370
        k(   32) = (   0.3333333   0.0000000  -0.5000000), wk =   0.0185185
        k(   33) = (   0.3333333   0.1666667   0.0000000), wk =   0.0370370
        k(   34) = (   0.3333333   0.1666667   0.1666667), wk =   0.0370370
        k(   35) = (   0.3333333   0.1666667   0.3333333), wk =   0.0370370
        k(   36) = (   0.3333333   0.1666667  -0.5000000), wk =   0.0370370
        k(   37) = (   0.3333333   0.3333333   0.0000000), wk =   0.0370370
        k(   38) = (   0.3333333   0.3333333   0.1666667), wk =   0.0370370
        k(   39) = (   0.3333333   0.3333333   0.3333333), wk =   0.0370370
        k(   40) = (   0.3333333   0.3333333  -0.5000000), wk =   0.0370370
        k(   41) = (   0.3333333  -0.5000000   0.0000000), wk =   0.0185185
        k(   42) = (   0.3333333  -0.5000000   0.1666667), wk =   0.0370370
        k(   43) = (   0.3333333  -0.5000000   0.3333333), wk =   0.0370370
        k(   44) = (   0.3333333  -0.5000000  -0.5000000), wk =   0.0185185
        k(   45) = (  -0.5000000  -0.0000000   0.0000000), wk =   0.0185185
        k(   46) = (  -0.5000000  -0.0000000   0.1666667), wk =   0.0370370
        k(   47) = (  -0.5000000  -0.0000000   0.3333333), wk =   0.0370370
        k(   48) = (  -0.5000000  -0.0000000  -0.5000000), wk =   0.0185185
        k(   49) = (  -0.5000000   0.1666667   0.0000000), wk =   0.0370370
        k(   50) = (  -0.5000000   0.1666667   0.1666667), wk =   0.0370370
        k(   51) = (  -0.5000000   0.1666667   0.3333333), wk =   0.0370370
        k(   52) = (  -0.5000000   0.1666667  -0.5000000), wk =   0.0370370
        k(   53) = (   0.0000000   0.1666667  -0.1666667), wk =   0.0185185
        k(   54) = (   0.0000000   0.1666667  -0.3333333), wk =   0.0185185
        k(   55) = (   0.0000000   0.3333333  -0.1666667), wk =   0.0185185
        k(   56) = (   0.0000000   0.3333333  -0.3333333), wk =   0.0185185
        k(   57) = (  -0.1666667   0.5000000  -0.1666667), wk =   0.0370370
        k(   58) = (  -0.1666667   0.5000000  -0.3333333), wk =   0.0370370
        k(   59) = (  -0.1666667   0.6666667  -0.1666667), wk =   0.0370370
        k(   60) = (  -0.1666667   0.6666667  -0.3333333), wk =   0.0370370
        k(   61) = (  -0.1666667   0.1666667  -0.1666667), wk =   0.0370370
        k(   62) = (  -0.1666667   0.1666667  -0.3333333), wk =   0.0370370
        k(   63) = (  -0.3333333   1.1666667  -0.1666667), wk =   0.0370370
        k(   64) = (  -0.3333333   1.1666667  -0.3333333), wk =   0.0370370
        k(   65) = (  -0.3333333   1.3333333  -0.1666667), wk =   0.0370370
        k(   66) = (  -0.3333333   1.3333333  -0.3333333), wk =   0.0370370
        k(   67) = (   0.5000000  -1.3333333  -0.1666667), wk =   0.0370370
        k(   68) = (   0.5000000  -1.3333333  -0.3333333), wk =   0.0370370

     Check: negative core charge=   -0.000002

     Initial potential from superposition of free atoms

     starting charge     107.9776, renormalised to     108.0000
     Starting wfcs are   78 randomized atomic wfcs

     Self-consistent Calculation

     iteration #  1     ecut=    50.00 Ry     beta= 0.30
     Davidson diagonalization with overlap

     ethr =  1.00E-02,  avg # of iterations =  1.9

     total energy              =   -1084.35890081 Ry
     estimated scf accuracy    <       2.19710356 Ry

[...]

     c_bands:  1 eigenvalues not converged
     ethr =  1.97E-06,  avg # of iterations = 13.5

[...]

     c_bands:  1 eigenvalues not converged
     c_bands:  1 eigenvalues not converged
     ethr =  1.50E-08,  avg # of iterations = 15.6

[...]

     total energy              =   -1084.87394960 Ry
     estimated scf accuracy    <       0.00000004 Ry

     iteration # 40     ecut=    50.00 Ry     beta= 0.30
     Davidson diagonalization with overlap

     ethr =  3.40E-11,  avg # of iterations =  5.5

     End of self-consistent calculation

          k = 0.0000 0.0000 0.0000 (  6517 PWs)   bands (ev):

   -11.6594 -11.2816 -11.2816 -11.1623 -10.9989 -10.9989   0.1536   0.1536
     0.3092   0.3095   0.3566   0.4050   0.4050   0.4459   0.4461   0.4939
     0.4939   0.6538   0.7138   0.7138   0.7810   0.7810   0.9603   0.9603
     1.1246   1.1246   1.1871   1.1871   1.2427   1.2427   1.3226   1.3226
     1.3457   1.3457   1.5254   1.5254   1.6491   2.0143   2.0143   2.6617
     2.6617   3.3970   3.3970   4.0951   4.0951   4.8294   4.8294   4.9805
     4.9811   5.0178   5.0178   5.4100   5.5574   5.5580

     occupation numbers
     1.0000   1.0000   1.0000   1.0000   1.0000   1.0000   1.0000   1.0000
     1.0000   1.0000   1.0000   1.0000   1.0000   1.0000   1.0000   1.0000
     1.0000   1.0000   1.0000   1.0000   1.0000   1.0000   1.0000   1.0000
     1.0000   1.0000   1.0000   1.0000   1.0000   1.0000   1.0000   1.0000
     1.0000   1.0000   1.0000   1.0000   1.0000   1.0000   1.0000   1.0000
     1.0000   1.0000   1.0000   1.0000   1.0000   1.0000   1.0000   1.0000
     1.0000   1.0000   1.0000   1.0000   1.0000   1.0000

[...]

          k =-0.5000-0.2887 0.0000 (  6534 PWs)   bands (ev):

[...]

          k =-0.3333 0.3208-0.1985 (  6530 PWs)   bands (ev):

[...]

          k = 0.5000-0.2245-0.1985 (  6532 PWs)   bands (ev):

   -11.0856 -11.0830 -11.0816 -11.0052 -11.0050 -11.0047   0.1655   0.2023
     0.2564   0.3045   0.3190   0.3666   0.5891   0.6045   0.6057   0.6741
     0.7911   0.8006   0.8048   0.8186   0.8358   0.8520   0.8546   0.8896
     1.2203   1.2677   1.2902   1.3014   1.3062   1.3151   1.3713   1.3851
     1.3947   1.4334   1.4615   1.4992   1.9183   1.9839   2.1390   2.1667
     2.2425   2.4536   3.3650   3.6558   3.7766   3.8253   3.9836   4.0325
     4.1236   4.3190   4.4522   4.5661   4.5673   4.5724

     occupation numbers
     1.0000   1.0000   1.0000   1.0000   1.0000   1.0000   1.0000   1.0000
     1.0000   1.0000   1.0000   1.0000   1.0000   1.0000   1.0000   1.0000
     1.0000   1.0000   1.0000   1.0000   1.0000   1.0000   1.0000   1.0000
     1.0000   1.0000   1.0000   1.0000   1.0000   1.0000   1.0000   1.0000
     1.0000   1.0000   1.0000   1.0000   1.0000   1.0000   1.0000   1.0000
     1.0000   1.0000   1.0000   1.0000   1.0000   1.0000   1.0000   1.0000
     1.0000   1.0000   1.0000   1.0000   1.0000   1.0000

     highest occupied level (ev):     5.5580

!    total energy              =   -1084.87394961 Ry
     estimated scf accuracy    <          9.9E-10 Ry

     The total energy is the sum of the following terms:
     one-electron contribution =    -497.20497122 Ry
     hartree contribution      =     366.93127262 Ry
     xc contribution           =    -328.06720689 Ry
     ewald contribution        =    -626.53304412 Ry

     convergence has been achieved in  40 iterations

     Forces acting on atoms (cartesian axes, Ry/au):

     atom    1 type  1   force =     0.00000000   -0.00000239    0.00371111
     atom    2 type  1   force =     0.00000000   -0.00000071    0.00370515
     atom    3 type  2   force =     0.00000000    0.00000514   -0.00370812
     atom    4 type  2   force =     0.00000000   -0.00000577   -0.00370886
     atom    5 type  1   force =     0.00000000   -0.00000404    0.00370900
     atom    6 type  1   force =     0.00000000   -0.00000127    0.00371195
     atom    7 type  2   force =     0.00000000    0.00000597   -0.00370852
     atom    8 type  2   force =     0.00000000   -0.00000490   -0.00370897
     atom    9 type  1   force =     0.00000000    0.00000271    0.00370649
     atom   10 type  1   force =     0.00000000    0.00000364    0.00370764
     atom   11 type  2   force =     0.00000000    0.00000575   -0.00370819
     atom   12 type  2   force =     0.00000000   -0.00000414   -0.00370868
     The non-local contrib.  to forces
     atom    1 type  1   force =     0.00000000   -0.00000206    0.09987405
     atom    2 type  1   force =     0.00000000    0.00000280    0.09987250
     atom    3 type  2   force =     0.00000000    0.00024526    0.10526623
     atom    4 type  2   force =     0.00000000   -0.00024710    0.10526387
     atom    5 type  1   force =     0.00000000   -0.00000314    0.09987368
     atom    6 type  1   force =     0.00000000    0.00000152    0.09987334
     atom    7 type  2   force =     0.00000000    0.00024441    0.10526547
     atom    8 type  2   force =     0.00000000   -0.00024447    0.10526577
     atom    9 type  1   force =     0.00000000   -0.00000148    0.09987410
     atom   10 type  1   force =     0.00000000    0.00000131    0.09987279
     atom   11 type  2   force =     0.00000000    0.00024517    0.10526613
     atom   12 type  2   force =     0.00000000   -0.00024248    0.10526532
     The ionic contribution  to forces
     atom    1 type  1   force =    -0.00000000    0.00000001    0.81707176
     atom    2 type  1   force =     0.00000000    0.00000001    0.81707176
     atom    3 type  2   force =    -0.00000000    0.00000000   -0.81707176
     atom    4 type  2   force =     0.00000000    0.00000000   -0.81707176
     atom    5 type  1   force =    -0.00000001    0.00000001    0.81707176
     atom    6 type  1   force =     0.00000001   -0.00000001    0.81707176
     atom    7 type  2   force =    -0.00000001    0.00000000   -0.81707176
     atom    8 type  2   force =     0.00000001   -0.00000000   -0.81707176
     atom    9 type  1   force =    -0.00000000   -0.00000001    0.81707176
     atom   10 type  1   force =     0.00000000   -0.00000001    0.81707176
     atom   11 type  2   force =    -0.00000000   -0.00000000   -0.81707176
     atom   12 type  2   force =     0.00000000   -0.00000000   -0.81707176
     The local contribution  to forces
     atom    1 type  1   force =    -0.00000004   -0.00000741   -0.90666304
     atom    2 type  1   force =    -0.00000000    0.00000902   -0.90665654
     atom    3 type  2   force =    -0.00000001   -0.00023576    0.70900677
     atom    4 type  2   force =     0.00000000    0.00023839    0.70900808
     atom    5 type  1   force =    -0.00000009   -0.00000619   -0.90666056
     atom    6 type  1   force =     0.00000009    0.00000953   -0.90666119
     atom    7 type  2   force =    -0.00000002   -0.00023428    0.70900874
     atom    8 type  2   force =     0.00000002    0.00023635    0.70900671
     atom    9 type  1   force =    -0.00000000   -0.00001077   -0.90666037
     atom   10 type  1   force =     0.00000004    0.00000806   -0.90665803
     atom   11 type  2   force =    -0.00000000   -0.00024043    0.70900724
     atom   12 type  2   force =     0.00000001    0.00023265    0.70900765
     The core correction contribution to forces
     atom    1 type  1   force =    -0.00000005    0.00000913   -0.00657680
     atom    2 type  1   force =     0.00000001   -0.00000915   -0.00657686
     atom    3 type  2   force =    -0.00000000   -0.00000277   -0.00090625
     atom    4 type  2   force =    -0.00000001    0.00000279   -0.00090621
     atom    5 type  1   force =     0.00000002    0.00000914   -0.00657680
     atom    6 type  1   force =    -0.00000002   -0.00000900   -0.00657686
     atom    7 type  2   force =     0.00000000   -0.00000276   -0.00090624
     atom    8 type  2   force =    -0.00000000    0.00000276   -0.00090625
     atom    9 type  1   force =    -0.00000001    0.00000910   -0.00657680
     atom   10 type  1   force =     0.00000005   -0.00000913   -0.00657687
     atom   11 type  2   force =     0.00000001   -0.00000277   -0.00090625
     atom   12 type  2   force =     0.00000000    0.00000272   -0.00090623
     The Hubbard contrib.    to forces
     atom    1 type  1   force =     0.00000000    0.00000000    0.00000000
     atom    2 type  1   force =     0.00000000    0.00000000    0.00000000
     atom    3 type  2   force =     0.00000000    0.00000000    0.00000000
     atom    4 type  2   force =     0.00000000    0.00000000    0.00000000
     atom    5 type  1   force =     0.00000000    0.00000000    0.00000000
     atom    6 type  1   force =     0.00000000    0.00000000    0.00000000
     atom    7 type  2   force =     0.00000000    0.00000000    0.00000000
     atom    8 type  2   force =     0.00000000    0.00000000    0.00000000
     atom    9 type  1   force =     0.00000000    0.00000000    0.00000000
     atom   10 type  1   force =     0.00000000    0.00000000    0.00000000
     atom   11 type  2   force =     0.00000000    0.00000000    0.00000000
     atom   12 type  2   force =     0.00000000    0.00000000    0.00000000
     The SCF correction term to forces
     atom    1 type  1   force =    -0.00000000   -0.00000244    0.00000746
     atom    2 type  1   force =    -0.00000000   -0.00000377   -0.00000339
     atom    3 type  2   force =    -0.00000000   -0.00000198   -0.00000078
     atom    4 type  2   force =    -0.00000000   -0.00000024   -0.00000050
     atom    5 type  1   force =     0.00000000   -0.00000424    0.00000326
     atom    6 type  1   force =    -0.00000000   -0.00000369    0.00000724
     atom    7 type  2   force =     0.00000000   -0.00000178   -0.00000241
     atom    8 type  2   force =    -0.00000000    0.00000009   -0.00000111
     atom    9 type  1   force =     0.00000000    0.00000549    0.00000012
     atom   10 type  1   force =     0.00000000    0.00000304    0.00000032
     atom   11 type  2   force =     0.00000000    0.00000342   -0.00000122
     atom   12 type  2   force =     0.00000000    0.00000259   -0.00000132

     Total force =     0.012847     Total SCF correction =     0.000016

     General routines

     Parallel routines

   This run was terminated on:  22:23: 3  27Aug2025

   JOB DONE.