     Program PWSCF v.7.0 starts on 28Aug2025 at  8: 8:19

     K-points division:     npool     =      17

     Reading input from ZnO-3.34-1.55-131.in
Warning: card &CELL ignored
Warning: card / ignored
Warning: card &FCP ignored
Warning: card / ignored
Warning: card &RISM ignored
Warning: card / ignored

     Current dimensions of program PWSCF are:
     Max number of different atomic species (ntypx) = 10
     Max number of k-points (npk) =  40000
     Max angular momentum in pseudopotentials (lmaxx) =  4
     file Zn.upf: wavefunction(s)  3D renormalized
     Found identity + (  0.0000  0.3333  0.0000) symmetry
     This is a supercell, fractional translations are disabled
     Message from routine setup:
     using ibrav=0 with symmetry is DISCOURAGED, use correct ibrav instead

     Subspace diagonalization in iterative solution of the eigenvalue problem:
     a serial algorithm will be used

     Using Slab Decomposition

     bravais-lattice index     =            0
     lattice parameter (alat)  =       6.3024  a.u.
     unit-cell volume          =    1007.9695 (a.u.)^3
     number of atoms/cell      =           12
     number of atomic types    =            2
     number of electrons       =       108.00
     number of Kohn-Sham states=           54
     kinetic-energy cutoff     =      50.0000  Ry
     charge density cutoff     =     400.0000  Ry
     scf convergence threshold =      1.0E-08
     mixing beta               =       0.3000
     number of iterations used =            8  plain     mixing
     Exchange-correlation= PBE
                           (   1   4   3   4   0   0   0)

     celldm(1)=   6.302431  celldm(2)=   0.000000  celldm(3)=   0.000000
     celldm(4)=   0.000000  celldm(5)=   0.000000  celldm(6)=   0.000000

     crystal axes: (cart. coord. in units of alat)
               a(1) = (   1.000000   0.000000   0.000000 )
               a(2) = (  -1.500000   2.598076   0.000000 )
               a(3) = (   0.000000   0.000000   1.549784 )

     reciprocal axes: (cart. coord. in units 2 pi/alat)
               b(1) = (  1.000000  0.577350 -0.000000 )
               b(2) = (  0.000000  0.384900  0.000000 )
               b(3) = (  0.000000 -0.000000  0.645251 )

     PseudoPot. # 1 for Zn read from file:
     /home/jvc/QEspresso7.2/ZnO_database/pseudos/Zn.upf
     MD5 check sum: 7f56cabf9682ed8c977c2f7d0c5985c5
     Pseudo is Ultrasoft + core correction, Zval = 12.0
     Generated using &quot;atomic&quot; code by A. Dal Corso  v.6.2.2
     Using radial grid of 1201 points,  6 beta functions with:
                l(1) =   0
                l(2) =   0
                l(3) =   1
                l(4) =   1
                l(5) =   2
                l(6) =   2
     Q(r) pseudized with 0 coefficients

     PseudoPot. # 2 for O  read from file:
     /home/jvc/QEspresso7.2/ZnO_database/pseudos/O.upf
     MD5 check sum: 91400c9766925bcf19f520983a725ff0
     Pseudo is Ultrasoft + core correction, Zval =  6.0
     Generated using &quot;atomic&quot; code by A. Dal Corso  v.6.3MaX
     Using radial grid of 1095 points,  4 beta functions with:
                l(1) =   0
                l(2) =   0
                l(3) =   1
                l(4) =   1
     Q(r) pseudized with 0 coefficients

     atomic species   valence    mass     pseudopotential
        Zn            12.00    65.38000     Zn( 1.00)
        O              6.00    15.99900     O ( 1.00)

      2 Sym. Ops. (no inversion) found

                                    s                        frac. trans.

      isym =  1     identity

 cryst.   s( 1) = (     1          0          0      )
                  (     0          1          0      )
                  (     0          0          1      )

 cart.    s( 1) = (  1.0000000  0.0000000  0.0000000 )
                  (  0.0000000  1.0000000  0.0000000 )
                  (  0.0000000  0.0000000  1.0000000 )

      isym =  2     inv. 180 deg rotation - cart. axis [1,0,0]

 cryst.   s( 2) = (    -1          0          0      )
                  (     3          1          0      )
                  (     0          0          1      )

 cart.    s( 2) = ( -1.0000000  0.0000000  0.0000000 )
                  (  0.0000000  1.0000000  0.0000000 )
                  (  0.0000000  0.0000000  1.0000000 )

   Cartesian axes

     site n.     atom                  positions (alat units)
         1           Zn  tau(   1) = (   0.5000000   0.2886751   0.7758739  )
         2           Zn  tau(   2) = (   0.0000000   0.5773503   0.0009819  )
         3           O   tau(   3) = (   0.5000000   0.2886751   1.3633085  )
         4           O   tau(   4) = (   0.0000000   0.5773503   0.5884164  )
         5           Zn  tau(   5) = (   0.0000000   1.1547005   0.7758739  )
         6           Zn  tau(   6) = (  -0.5000000   1.4433757   0.0009819  )
         7           O   tau(   7) = (   0.0000000   1.1547005   1.3633085  )
         8           O   tau(   8) = (  -0.5000000   1.4433757   0.5884164  )
         9           Zn  tau(   9) = (  -0.5000000   2.0207259   0.7758739  )
        10           Zn  tau(  10) = (  -1.0000000   2.3094011   0.0009819  )
        11           O   tau(  11) = (  -0.5000000   2.0207259   1.3633085  )
        12           O   tau(  12) = (  -1.0000000   2.3094011   0.5884164  )

   Crystallographic axes

     site n.     atom                  positions (cryst. coord.)
         1           Zn  tau(   1) = (  0.6666667  0.1111111  0.5006336  )
         2           Zn  tau(   2) = (  0.3333333  0.2222222  0.0006336  )
         3           O   tau(   3) = (  0.6666667  0.1111111  0.8796764  )
         4           O   tau(   4) = (  0.3333333  0.2222222  0.3796764  )
         5           Zn  tau(   5) = (  0.6666667  0.4444444  0.5006336  )
         6           Zn  tau(   6) = (  0.3333333  0.5555556  0.0006336  )
         7           O   tau(   7) = (  0.6666667  0.4444444  0.8796764  )
         8           O   tau(   8) = (  0.3333333  0.5555556  0.3796764  )
         9           Zn  tau(   9) = (  0.6666667  0.7777778  0.5006336  )
        10           Zn  tau(  10) = (  0.3333333  0.8888889  0.0006336  )
        11           O   tau(  11) = (  0.6666667  0.7777778  0.8796764  )
        12           O   tau(  12) = (  0.3333333  0.8888889  0.3796764  )

     number of k points=    68
                       cart. coord. in units 2pi/alat
        k(    1) = (   0.0000000   0.0000000   0.0000000), wk =   0.0092593
        k(    2) = (   0.0000000   0.0000000   0.1075419), wk =   0.0185185
        k(    3) = (   0.0000000   0.0000000   0.2150837), wk =   0.0185185
        k(    4) = (   0.0000000   0.0000000  -0.3226256), wk =   0.0092593
        k(    5) = (   0.0000000   0.0641500   0.0000000), wk =   0.0185185
        k(    6) = (   0.0000000   0.0641500   0.1075419), wk =   0.0185185
        k(    7) = (   0.0000000   0.0641500   0.2150837), wk =   0.0185185
        k(    8) = (   0.0000000   0.0641500  -0.3226256), wk =   0.0185185
        k(    9) = (   0.0000000   0.1283001   0.0000000), wk =   0.0185185
        k(   10) = (   0.0000000   0.1283001   0.1075419), wk =   0.0185185
        k(   11) = (   0.0000000   0.1283001   0.2150837), wk =   0.0185185
        k(   12) = (   0.0000000   0.1283001  -0.3226256), wk =   0.0185185
        k(   13) = (   0.0000000  -0.1924501   0.0000000), wk =   0.0092593
        k(   14) = (   0.0000000  -0.1924501   0.1075419), wk =   0.0185185
        k(   15) = (   0.0000000  -0.1924501   0.2150837), wk =   0.0185185
        k(   16) = (   0.0000000  -0.1924501  -0.3226256), wk =   0.0092593
        k(   17) = (   0.1666667   0.0962250   0.0000000), wk =   0.0370370
        k(   18) = (   0.1666667   0.0962250   0.1075419), wk =   0.0370370
        k(   19) = (   0.1666667   0.0962250   0.2150837), wk =   0.0370370
        k(   20) = (   0.1666667   0.0962250  -0.3226256), wk =   0.0370370
        k(   21) = (   0.1666667   0.1603751   0.0000000), wk =   0.0370370
        k(   22) = (   0.1666667   0.1603751   0.1075419), wk =   0.0370370
        k(   23) = (   0.1666667   0.1603751   0.2150837), wk =   0.0370370
        k(   24) = (   0.1666667   0.1603751  -0.3226256), wk =   0.0370370
        k(   25) = (   0.1666667  -0.0320750   0.0000000), wk =   0.0370370
        k(   26) = (   0.1666667  -0.0320750   0.1075419), wk =   0.0370370
        k(   27) = (   0.1666667  -0.0320750   0.2150837), wk =   0.0370370
        k(   28) = (   0.1666667  -0.0320750  -0.3226256), wk =   0.0370370
        k(   29) = (   0.3333333   0.1924501   0.0000000), wk =   0.0185185
        k(   30) = (   0.3333333   0.1924501   0.1075419), wk =   0.0370370
        k(   31) = (   0.3333333   0.1924501   0.2150837), wk =   0.0370370
        k(   32) = (   0.3333333   0.1924501  -0.3226256), wk =   0.0185185
        k(   33) = (   0.3333333   0.2566001   0.0000000), wk =   0.0370370
        k(   34) = (   0.3333333   0.2566001   0.1075419), wk =   0.0370370
        k(   35) = (   0.3333333   0.2566001   0.2150837), wk =   0.0370370
        k(   36) = (   0.3333333   0.2566001  -0.3226256), wk =   0.0370370
        k(   37) = (   0.3333333   0.3207501   0.0000000), wk =   0.0370370
        k(   38) = (   0.3333333   0.3207501   0.1075419), wk =   0.0370370
        k(   39) = (   0.3333333   0.3207501   0.2150837), wk =   0.0370370
        k(   40) = (   0.3333333   0.3207501  -0.3226256), wk =   0.0370370
        k(   41) = (   0.3333333  -0.0000000   0.0000000), wk =   0.0185185
        k(   42) = (   0.3333333  -0.0000000   0.1075419), wk =   0.0370370
        k(   43) = (   0.3333333  -0.0000000   0.2150837), wk =   0.0370370
        k(   44) = (   0.3333333  -0.0000000  -0.3226256), wk =   0.0185185
        k(   45) = (  -0.5000000  -0.2886751   0.0000000), wk =   0.0185185
        k(   46) = (  -0.5000000  -0.2886751   0.1075419), wk =   0.0370370
        k(   47) = (  -0.5000000  -0.2886751   0.2150837), wk =   0.0370370
        k(   48) = (  -0.5000000  -0.2886751  -0.3226256), wk =   0.0185185
        k(   49) = (  -0.5000000  -0.2245251   0.0000000), wk =   0.0370370
        k(   50) = (  -0.5000000  -0.2245251   0.1075419), wk =   0.0370370
        k(   51) = (  -0.5000000  -0.2245251   0.2150837), wk =   0.0370370
        k(   52) = (  -0.5000000  -0.2245251  -0.3226256), wk =   0.0370370
        k(   53) = (   0.0000000   0.0641500  -0.1075419), wk =   0.0185185
        k(   54) = (   0.0000000   0.0641500  -0.2150837), wk =   0.0185185
        k(   55) = (   0.0000000   0.1283001  -0.1075419), wk =   0.0185185
        k(   56) = (   0.0000000   0.1283001  -0.2150837), wk =   0.0185185
        k(   57) = (  -0.1666667   0.0962250  -0.1075419), wk =   0.0370370
        k(   58) = (  -0.1666667   0.0962250  -0.2150837), wk =   0.0370370
        k(   59) = (  -0.1666667   0.1603751  -0.1075419), wk =   0.0370370
        k(   60) = (  -0.1666667   0.1603751  -0.2150837), wk =   0.0370370
        k(   61) = (  -0.1666667  -0.0320750  -0.1075419), wk =   0.0370370
        k(   62) = (  -0.1666667  -0.0320750  -0.2150837), wk =   0.0370370
        k(   63) = (  -0.3333333   0.2566001  -0.1075419), wk =   0.0370370
        k(   64) = (  -0.3333333   0.2566001  -0.2150837), wk =   0.0370370
        k(   65) = (  -0.3333333   0.3207501  -0.1075419), wk =   0.0370370
        k(   66) = (  -0.3333333   0.3207501  -0.2150837), wk =   0.0370370
        k(   67) = (   0.5000000  -0.2245251  -0.1075419), wk =   0.0370370
        k(   68) = (   0.5000000  -0.2245251  -0.2150837), wk =   0.0370370

                       cryst. coord.
        k(    1) = (   0.0000000   0.0000000   0.0000000), wk =   0.0092593
        k(    2) = (   0.0000000   0.0000000   0.1666667), wk =   0.0185185
        k(    3) = (   0.0000000   0.0000000   0.3333333), wk =   0.0185185
        k(    4) = (   0.0000000   0.0000000  -0.5000000), wk =   0.0092593
        k(    5) = (   0.0000000   0.1666667   0.0000000), wk =   0.0185185
        k(    6) = (   0.0000000   0.1666667   0.1666667), wk =   0.0185185
        k(    7) = (   0.0000000   0.1666667   0.3333333), wk =   0.0185185
        k(    8) = (   0.0000000   0.1666667  -0.5000000), wk =   0.0185185
        k(    9) = (   0.0000000   0.3333333   0.0000000), wk =   0.0185185
        k(   10) = (   0.0000000   0.3333333   0.1666667), wk =   0.0185185
        k(   11) = (   0.0000000   0.3333333   0.3333333), wk =   0.0185185
        k(   12) = (   0.0000000   0.3333333  -0.5000000), wk =   0.0185185
        k(   13) = (   0.0000000  -0.5000000   0.0000000), wk =   0.0092593
        k(   14) = (   0.0000000  -0.5000000   0.1666667), wk =   0.0185185
        k(   15) = (   0.0000000  -0.5000000   0.3333333), wk =   0.0185185
        k(   16) = (   0.0000000  -0.5000000  -0.5000000), wk =   0.0092593
        k(   17) = (   0.1666667  -0.0000000   0.0000000), wk =   0.0370370
        k(   18) = (   0.1666667  -0.0000000   0.1666667), wk =   0.0370370
        k(   19) = (   0.1666667  -0.0000000   0.3333333), wk =   0.0370370
        k(   20) = (   0.1666667  -0.0000000  -0.5000000), wk =   0.0370370
        k(   21) = (   0.1666667   0.1666667   0.0000000), wk =   0.0370370
        k(   22) = (   0.1666667   0.1666667   0.1666667), wk =   0.0370370
        k(   23) = (   0.1666667   0.1666667   0.3333333), wk =   0.0370370
        k(   24) = (   0.1666667   0.1666667  -0.5000000), wk =   0.0370370
        k(   25) = (   0.1666667  -0.3333333   0.0000000), wk =   0.0370370
        k(   26) = (   0.1666667  -0.3333333   0.1666667), wk =   0.0370370
        k(   27) = (   0.1666667  -0.3333333   0.3333333), wk =   0.0370370
        k(   28) = (   0.1666667  -0.3333333  -0.5000000), wk =   0.0370370
        k(   29) = (   0.3333333  -0.0000000   0.0000000), wk =   0.0185185
        k(   30) = (   0.3333333  -0.0000000   0.1666667), wk =   0.0370370
        k(   31) = (   0.3333333  -0.0000000   0.3333333), wk =   0.0370370
        k(   32) = (   0.3333333  -0.0000000  -0.5000000), wk =   0.0185185
        k(   33) = (   0.3333333   0.1666667   0.0000000), wk =   0.0370370
        k(   34) = (   0.3333333   0.1666667   0.1666667), wk =   0.0370370
        k(   35) = (   0.3333333   0.1666667   0.3333333), wk =   0.0370370
        k(   36) = (   0.3333333   0.1666667  -0.5000000), wk =   0.0370370
        k(   37) = (   0.3333333   0.3333333   0.0000000), wk =   0.0370370
        k(   38) = (   0.3333333   0.3333333   0.1666667), wk =   0.0370370
        k(   39) = (   0.3333333   0.3333333   0.3333333), wk =   0.0370370
        k(   40) = (   0.3333333   0.3333333  -0.5000000), wk =   0.0370370
        k(   41) = (   0.3333333  -0.5000000   0.0000000), wk =   0.0185185
        k(   42) = (   0.3333333  -0.5000000   0.1666667), wk =   0.0370370
        k(   43) = (   0.3333333  -0.5000000   0.3333333), wk =   0.0370370
        k(   44) = (   0.3333333  -0.5000000  -0.5000000), wk =   0.0185185
        k(   45) = (  -0.5000000   0.0000000   0.0000000), wk =   0.0185185
        k(   46) = (  -0.5000000   0.0000000   0.1666667), wk =   0.0370370
        k(   47) = (  -0.5000000   0.0000000   0.3333333), wk =   0.0370370
        k(   48) = (  -0.5000000   0.0000000  -0.5000000), wk =   0.0185185
        k(   49) = (  -0.5000000   0.1666667   0.0000000), wk =   0.0370370
        k(   50) = (  -0.5000000   0.1666667   0.1666667), wk =   0.0370370
        k(   51) = (  -0.5000000   0.1666667   0.3333333), wk =   0.0370370
        k(   52) = (  -0.5000000   0.1666667  -0.5000000), wk =   0.0370370
        k(   53) = (   0.0000000   0.1666667  -0.1666667), wk =   0.0185185
        k(   54) = (   0.0000000   0.1666667  -0.3333333), wk =   0.0185185
        k(   55) = (   0.0000000   0.3333333  -0.1666667), wk =   0.0185185
        k(   56) = (   0.0000000   0.3333333  -0.3333333), wk =   0.0185185
        k(   57) = (  -0.1666667   0.5000000  -0.1666667), wk =   0.0370370
        k(   58) = (  -0.1666667   0.5000000  -0.3333333), wk =   0.0370370
        k(   59) = (  -0.1666667   0.6666667  -0.1666667), wk =   0.0370370
        k(   60) = (  -0.1666667   0.6666667  -0.3333333), wk =   0.0370370
        k(   61) = (  -0.1666667   0.1666667  -0.1666667), wk =   0.0370370
        k(   62) = (  -0.1666667   0.1666667  -0.3333333), wk =   0.0370370
        k(   63) = (  -0.3333333   1.1666667  -0.1666667), wk =   0.0370370
        k(   64) = (  -0.3333333   1.1666667  -0.3333333), wk =   0.0370370
        k(   65) = (  -0.3333333   1.3333333  -0.1666667), wk =   0.0370370
        k(   66) = (  -0.3333333   1.3333333  -0.3333333), wk =   0.0370370
        k(   67) = (   0.5000000  -1.3333333  -0.1666667), wk =   0.0370370
        k(   68) = (   0.5000000  -1.3333333  -0.3333333), wk =   0.0370370

     Check: negative core charge=   -0.000002

     Initial potential from superposition of free atoms

     starting charge     107.9776, renormalised to     108.0000
     Starting wfcs are   78 randomized atomic wfcs

     Self-consistent Calculation

     iteration #  1     ecut=    50.00 Ry     beta= 0.30
     Davidson diagonalization with overlap

     ethr =  1.00E-02,  avg # of iterations =  2.0

     total energy              =   -1084.41999046 Ry
     estimated scf accuracy    <       2.10488802 Ry

[...]

     c_bands:  5 eigenvalues not converged
     c_bands:  1 eigenvalues not converged
     c_bands:  1 eigenvalues not converged
     ethr =  1.29E-10,  avg # of iterations = 16.7

[...]

     c_bands:  1 eigenvalues not converged
     ethr =  1.29E-10,  avg # of iterations = 13.7

[...]

     total energy              =   -1084.90336497 Ry
     estimated scf accuracy    <       0.00000001 Ry

     iteration # 38     ecut=    50.00 Ry     beta= 0.30
     Davidson diagonalization with overlap

     ethr =  1.21E-11,  avg # of iterations =  2.0

     End of self-consistent calculation

          k = 0.0000 0.0000 0.0000 (  5959 PWs)   bands (ev):

   -11.1306 -10.7122 -10.7122 -10.4176 -10.3030 -10.3030   0.9047   0.9047
     1.1479   1.1481   1.1641   1.2371   1.2371   1.3247   1.3247   1.3488
     1.3489   1.3913   1.4995   1.4995   1.7291   1.7291   1.8484   1.8484
     2.1325   2.1325   2.1696   2.1696   2.2420   2.2420   2.3835   2.3836
     2.4163   2.4163   2.5490   2.5490   2.6049   2.8482   2.8482   3.5888
     3.5888   4.4047   4.4047   4.7399   4.7399   5.7417   5.7420   5.8623
     5.8623   6.0570   6.0570   6.5805   6.5809   6.5864

     occupation numbers
     1.0000   1.0000   1.0000   1.0000   1.0000   1.0000   1.0000   1.0000
     1.0000   1.0000   1.0000   1.0000   1.0000   1.0000   1.0000   1.0000
     1.0000   1.0000   1.0000   1.0000   1.0000   1.0000   1.0000   1.0000
     1.0000   1.0000   1.0000   1.0000   1.0000   1.0000   1.0000   1.0000
     1.0000   1.0000   1.0000   1.0000   1.0000   1.0000   1.0000   1.0000
     1.0000   1.0000   1.0000   1.0000   1.0000   1.0000   1.0000   1.0000
     1.0000   1.0000   1.0000   1.0000   1.0000   1.0000

[...]

          k =-0.5000-0.2887 0.0000 (  6018 PWs)   bands (ev):

[...]

          k =-0.3333 0.3208-0.2151 (  6024 PWs)   bands (ev):

[...]

          k = 0.5000-0.2245-0.2151 (  6036 PWs)   bands (ev):

   -10.4677 -10.4646 -10.4629 -10.3512 -10.3507 -10.3498   0.8197   0.8578
     0.9061   0.9558   0.9727   1.0268   1.3720   1.4163   1.4495   1.4745
     1.5681   1.6043   1.6471   1.6600   1.6682   1.7122   1.7216   1.7275
     2.2312   2.2896   2.3088   2.3241   2.3291   2.3428   2.4122   2.4317
     2.4453   2.4889   2.5213   2.5695   2.9402   2.9726   3.1082   3.1500
     3.2553   3.4502   4.1412   4.4747   4.6689   4.8683   4.9324   4.9729
     5.1238   5.2983   5.4489   5.6685   5.6850   5.6982

     occupation numbers
     1.0000   1.0000   1.0000   1.0000   1.0000   1.0000   1.0000   1.0000
     1.0000   1.0000   1.0000   1.0000   1.0000   1.0000   1.0000   1.0000
     1.0000   1.0000   1.0000   1.0000   1.0000   1.0000   1.0000   1.0000
     1.0000   1.0000   1.0000   1.0000   1.0000   1.0000   1.0000   1.0000
     1.0000   1.0000   1.0000   1.0000   1.0000   1.0000   1.0000   1.0000
     1.0000   1.0000   1.0000   1.0000   1.0000   1.0000   1.0000   1.0000
     1.0000   1.0000   1.0000   1.0000   1.0000   1.0000

     highest occupied level (ev):     6.5864

!    total energy              =   -1084.90336497 Ry
     estimated scf accuracy    <          3.6E-09 Ry

     The total energy is the sum of the following terms:
     one-electron contribution =    -470.87281478 Ry
     hartree contribution      =     357.60217679 Ry
     xc contribution           =    -328.53336658 Ry
     ewald contribution        =    -643.09936039 Ry

     convergence has been achieved in  38 iterations

     Forces acting on atoms (cartesian axes, Ry/au):

     atom    1 type  1   force =     0.00000000   -0.00000715   -0.01302731
     atom    2 type  1   force =     0.00000000    0.00001059   -0.01302396
     atom    3 type  2   force =     0.00000000    0.00000163    0.01302484
     atom    4 type  2   force =     0.00000000   -0.00000181    0.01302662
     atom    5 type  1   force =     0.00000000   -0.00000821   -0.01302619
     atom    6 type  1   force =     0.00000000    0.00000677   -0.01302542
     atom    7 type  2   force =     0.00000000    0.00000167    0.01302461
     atom    8 type  2   force =     0.00000000   -0.00000170    0.01302645
     atom    9 type  1   force =     0.00000000   -0.00000875   -0.01302699
     atom   10 type  1   force =     0.00000000    0.00000618   -0.01302395
     atom   11 type  2   force =     0.00000000    0.00000230    0.01302491
     atom   12 type  2   force =     0.00000000   -0.00000152    0.01302639
     The non-local contrib.  to forces
     atom    1 type  1   force =     0.00000000    0.00000595   -0.12124452
     atom    2 type  1   force =     0.00000000   -0.00000354   -0.12124107
     atom    3 type  2   force =     0.00000000    0.00021855   -0.09170433
     atom    4 type  2   force =     0.00000000   -0.00021965   -0.09170231
     atom    5 type  1   force =     0.00000000    0.00000623   -0.12124358
     atom    6 type  1   force =     0.00000000   -0.00000550   -0.12124180
     atom    7 type  2   force =     0.00000000    0.00021775   -0.09170445
     atom    8 type  2   force =     0.00000000   -0.00021866   -0.09170207
     atom    9 type  1   force =     0.00000000    0.00000403   -0.12124368
     atom   10 type  1   force =     0.00000000   -0.00000699   -0.12124096
     atom   11 type  2   force =     0.00000000    0.00022026   -0.09170417
     atom   12 type  2   force =     0.00000000   -0.00021838   -0.09170236
     The ionic contribution  to forces
     atom    1 type  1   force =    -0.00000000    0.00000001   -0.76824287
     atom    2 type  1   force =     0.00000000    0.00000001   -0.76824287
     atom    3 type  2   force =    -0.00000000    0.00000000    0.76824287
     atom    4 type  2   force =     0.00000000    0.00000000    0.76824287
     atom    5 type  1   force =    -0.00000001    0.00000001   -0.76824288
     atom    6 type  1   force =     0.00000001   -0.00000001   -0.76824288
     atom    7 type  2   force =    -0.00000001    0.00000000    0.76824288
     atom    8 type  2   force =     0.00000001   -0.00000000    0.76824288
     atom    9 type  1   force =    -0.00000000   -0.00000001   -0.76824287
     atom   10 type  1   force =     0.00000000   -0.00000001   -0.76824287
     atom   11 type  2   force =    -0.00000000   -0.00000000    0.76824287
     atom   12 type  2   force =     0.00000000   -0.00000000    0.76824287
     The local contribution  to forces
     atom    1 type  1   force =    -0.00000004   -0.00002009    0.86753384
     atom    2 type  1   force =     0.00000000    0.00001373    0.86752714
     atom    3 type  2   force =    -0.00000001   -0.00021563   -0.66420834
     atom    4 type  2   force =     0.00000000    0.00021415   -0.66420542
     atom    5 type  1   force =    -0.00000009   -0.00001987    0.86753076
     atom    6 type  1   force =     0.00000009    0.00001992    0.86752929
     atom    7 type  2   force =    -0.00000002   -0.00021361   -0.66420799
     atom    8 type  2   force =     0.00000002    0.00021468   -0.66420571
     atom    9 type  1   force =     0.00000000   -0.00001621    0.86753174
     atom   10 type  1   force =     0.00000004    0.00002284    0.86752724
     atom   11 type  2   force =     0.00000000   -0.00021504   -0.66420751
     atom   12 type  2   force =     0.00000001    0.00021449   -0.66420612
     The core correction contribution to forces
     atom    1 type  1   force =    -0.00000006    0.00000576    0.00892543
     atom    2 type  1   force =     0.00000004   -0.00000557    0.00892543
     atom    3 type  2   force =    -0.00000000   -0.00000249    0.00069325
     atom    4 type  2   force =     0.00000000    0.00000249    0.00069324
     atom    5 type  1   force =     0.00000002    0.00000563    0.00892553
     atom    6 type  1   force =    -0.00000002   -0.00000563    0.00892539
     atom    7 type  2   force =    -0.00000000   -0.00000249    0.00069327
     atom    8 type  2   force =     0.00000000    0.00000251    0.00069324
     atom    9 type  1   force =    -0.00000004    0.00000565    0.00892550
     atom   10 type  1   force =     0.00000006   -0.00000581    0.00892542
     atom   11 type  2   force =    -0.00000000   -0.00000251    0.00069326
     atom   12 type  2   force =     0.00000000    0.00000248    0.00069323
     The Hubbard contrib.    to forces
     atom    1 type  1   force =     0.00000000    0.00000000    0.00000000
     atom    2 type  1   force =     0.00000000    0.00000000    0.00000000
     atom    3 type  2   force =     0.00000000    0.00000000    0.00000000
     atom    4 type  2   force =     0.00000000    0.00000000    0.00000000
     atom    5 type  1   force =     0.00000000    0.00000000    0.00000000
     atom    6 type  1   force =     0.00000000    0.00000000    0.00000000
     atom    7 type  2   force =     0.00000000    0.00000000    0.00000000
     atom    8 type  2   force =     0.00000000    0.00000000    0.00000000
     atom    9 type  1   force =     0.00000000    0.00000000    0.00000000
     atom   10 type  1   force =     0.00000000    0.00000000    0.00000000
     atom   11 type  2   force =     0.00000000    0.00000000    0.00000000
     atom   12 type  2   force =     0.00000000    0.00000000    0.00000000
     The SCF correction term to forces
     atom    1 type  1   force =     0.00000000    0.00000109    0.00000085
     atom    2 type  1   force =     0.00000000    0.00000583    0.00000743
     atom    3 type  2   force =    -0.00000000    0.00000106    0.00000142
     atom    4 type  2   force =    -0.00000000    0.00000107   -0.00000172
     atom    5 type  1   force =     0.00000000   -0.00000035    0.00000401
     atom    6 type  1   force =    -0.00000000   -0.00000215    0.00000460
     atom    7 type  2   force =    -0.00000000   -0.00000012    0.00000094
     atom    8 type  2   force =     0.00000000   -0.00000036   -0.00000186
     atom    9 type  1   force =    -0.00000000   -0.00000234    0.00000235
     atom   10 type  1   force =    -0.00000000   -0.00000399    0.00000726
     atom   11 type  2   force =     0.00000000   -0.00000054    0.00000048
     atom   12 type  2   force =     0.00000000   -0.00000023   -0.00000120

     Total force =     0.045122     Total SCF correction =     0.000015

     General routines

     Parallel routines

   This run was terminated on:   8:15:51  28Aug2025

   JOB DONE.