     Program PWSCF v.7.0 starts on 27Aug2025 at 13: 8: 2

     K-points division:     npool     =      17

     Reading input from /home/jvc/QEspresso7.2/ZnO_database/scripts/cell131.in/ZnO-3.01-1.49-131.in
Warning: card &CELL ignored
Warning: card / ignored
Warning: card &FCP ignored
Warning: card / ignored
Warning: card &RISM ignored
Warning: card / ignored

     Current dimensions of program PWSCF are:
     Max number of different atomic species (ntypx) = 10
     Max number of k-points (npk) =  40000
     Max angular momentum in pseudopotentials (lmaxx) =  4
     file Zn.upf: wavefunction(s)  3D renormalized
     Found identity + (  0.0000  0.3333  0.0000) symmetry
     This is a supercell, fractional translations are disabled
     Message from routine setup:
     using ibrav=0 with symmetry is DISCOURAGED, use correct ibrav instead

     Subspace diagonalization in iterative solution of the eigenvalue problem:
     a serial algorithm will be used

     Using Slab Decomposition

     bravais-lattice index     =            0
     lattice parameter (alat)  =       5.6845  a.u.
     unit-cell volume          =     708.8053 (a.u.)^3
     number of atoms/cell      =           12
     number of atomic types    =            2
     number of electrons       =       108.00
     number of Kohn-Sham states=           54
     kinetic-energy cutoff     =      50.0000  Ry
     charge density cutoff     =     400.0000  Ry
     scf convergence threshold =      1.0E-08
     mixing beta               =       0.3000
     number of iterations used =            8  plain     mixing
     Exchange-correlation= PBE
                           (   1   4   3   4   0   0   0)

     celldm(1)=   5.684546  celldm(2)=   0.000000  celldm(3)=   0.000000
     celldm(4)=   0.000000  celldm(5)=   0.000000  celldm(6)=   0.000000

     crystal axes: (cart. coord. in units of alat)
               a(1) = (   1.000000   0.000000   0.000000 )
               a(2) = (  -1.500000   2.598076   0.000000 )
               a(3) = (   0.000000   0.000000   1.485210 )

     reciprocal axes: (cart. coord. in units 2 pi/alat)
               b(1) = (  1.000000  0.577350 -0.000000 )
               b(2) = (  0.000000  0.384900  0.000000 )
               b(3) = (  0.000000 -0.000000  0.673306 )

     PseudoPot. # 1 for Zn read from file:
     /home/jvc/QEspresso7.2/ZnO_database/pseudos/Zn.upf
     MD5 check sum: 7f56cabf9682ed8c977c2f7d0c5985c5
     Pseudo is Ultrasoft + core correction, Zval = 12.0
     Generated using &quot;atomic&quot; code by A. Dal Corso  v.6.2.2
     Using radial grid of 1201 points,  6 beta functions with:
                l(1) =   0
                l(2) =   0
                l(3) =   1
                l(4) =   1
                l(5) =   2
                l(6) =   2
     Q(r) pseudized with 0 coefficients

     PseudoPot. # 2 for O  read from file:
     /home/jvc/QEspresso7.2/ZnO_database/pseudos/O.upf
     MD5 check sum: 91400c9766925bcf19f520983a725ff0
     Pseudo is Ultrasoft + core correction, Zval =  6.0
     Generated using &quot;atomic&quot; code by A. Dal Corso  v.6.3MaX
     Using radial grid of 1095 points,  4 beta functions with:
                l(1) =   0
                l(2) =   0
                l(3) =   1
                l(4) =   1
     Q(r) pseudized with 0 coefficients

     atomic species   valence    mass     pseudopotential
        Zn            12.00    65.38000     Zn( 1.00)
        O              6.00    15.99900     O ( 1.00)

      2 Sym. Ops. (no inversion) found

                                    s                        frac. trans.

      isym =  1     identity

 cryst.   s( 1) = (     1          0          0      )
                  (     0          1          0      )
                  (     0          0          1      )

 cart.    s( 1) = (  1.0000000  0.0000000  0.0000000 )
                  (  0.0000000  1.0000000  0.0000000 )
                  (  0.0000000  0.0000000  1.0000000 )

      isym =  2     inv. 180 deg rotation - cart. axis [1,0,0]

 cryst.   s( 2) = (    -1          0          0      )
                  (     3          1          0      )
                  (     0          0          1      )

 cart.    s( 2) = ( -1.0000000 -0.0000000  0.0000000 )
                  (  0.0000000  1.0000000  0.0000000 )
                  (  0.0000000  0.0000000  1.0000000 )

   Cartesian axes

     site n.     atom                  positions (alat units)
         1           Zn  tau(   1) = (   0.5000000   0.2886751   0.7435459  )
         2           Zn  tau(   2) = (  -0.0000000   0.5773503   0.0009410  )
         3           O   tau(   3) = (   0.5000000   0.2886751   1.3065039  )
         4           O   tau(   4) = (  -0.0000000   0.5773503   0.5638991  )
         5           Zn  tau(   5) = (   0.0000000   1.1547005   0.7435459  )
         6           Zn  tau(   6) = (  -0.5000000   1.4433757   0.0009410  )
         7           O   tau(   7) = (   0.0000000   1.1547005   1.3065039  )
         8           O   tau(   8) = (  -0.5000000   1.4433757   0.5638991  )
         9           Zn  tau(   9) = (  -0.5000000   2.0207259   0.7435459  )
        10           Zn  tau(  10) = (  -1.0000000   2.3094011   0.0009410  )
        11           O   tau(  11) = (  -0.5000000   2.0207259   1.3065039  )
        12           O   tau(  12) = (  -1.0000000   2.3094011   0.5638991  )

   Crystallographic axes

     site n.     atom                  positions (cryst. coord.)
         1           Zn  tau(   1) = (  0.6666667  0.1111111  0.5006336  )
         2           Zn  tau(   2) = (  0.3333333  0.2222222  0.0006336  )
         3           O   tau(   3) = (  0.6666667  0.1111111  0.8796764  )
         4           O   tau(   4) = (  0.3333333  0.2222222  0.3796764  )
         5           Zn  tau(   5) = (  0.6666667  0.4444444  0.5006336  )
         6           Zn  tau(   6) = (  0.3333333  0.5555556  0.0006336  )
         7           O   tau(   7) = (  0.6666667  0.4444444  0.8796764  )
         8           O   tau(   8) = (  0.3333333  0.5555556  0.3796764  )
         9           Zn  tau(   9) = (  0.6666667  0.7777778  0.5006336  )
        10           Zn  tau(  10) = (  0.3333333  0.8888889  0.0006336  )
        11           O   tau(  11) = (  0.6666667  0.7777778  0.8796764  )
        12           O   tau(  12) = (  0.3333333  0.8888889  0.3796764  )

     number of k points=    68
                       cart. coord. in units 2pi/alat
        k(    1) = (   0.0000000   0.0000000   0.0000000), wk =   0.0092593
        k(    2) = (   0.0000000   0.0000000   0.1122176), wk =   0.0185185
        k(    3) = (   0.0000000   0.0000000   0.2244352), wk =   0.0185185
        k(    4) = (   0.0000000   0.0000000  -0.3366528), wk =   0.0092593
        k(    5) = (   0.0000000   0.0641500   0.0000000), wk =   0.0185185
        k(    6) = (   0.0000000   0.0641500   0.1122176), wk =   0.0185185
        k(    7) = (   0.0000000   0.0641500   0.2244352), wk =   0.0185185
        k(    8) = (   0.0000000   0.0641500  -0.3366528), wk =   0.0185185
        k(    9) = (   0.0000000   0.1283001   0.0000000), wk =   0.0185185
        k(   10) = (   0.0000000   0.1283001   0.1122176), wk =   0.0185185
        k(   11) = (   0.0000000   0.1283001   0.2244352), wk =   0.0185185
        k(   12) = (   0.0000000   0.1283001  -0.3366528), wk =   0.0185185
        k(   13) = (   0.0000000  -0.1924501   0.0000000), wk =   0.0092593
        k(   14) = (   0.0000000  -0.1924501   0.1122176), wk =   0.0185185
        k(   15) = (   0.0000000  -0.1924501   0.2244352), wk =   0.0185185
        k(   16) = (   0.0000000  -0.1924501  -0.3366528), wk =   0.0092593
        k(   17) = (   0.1666667   0.0962250   0.0000000), wk =   0.0370370
        k(   18) = (   0.1666667   0.0962250   0.1122176), wk =   0.0370370
        k(   19) = (   0.1666667   0.0962250   0.2244352), wk =   0.0370370
        k(   20) = (   0.1666667   0.0962250  -0.3366528), wk =   0.0370370
        k(   21) = (   0.1666667   0.1603751   0.0000000), wk =   0.0370370
        k(   22) = (   0.1666667   0.1603751   0.1122176), wk =   0.0370370
        k(   23) = (   0.1666667   0.1603751   0.2244352), wk =   0.0370370
        k(   24) = (   0.1666667   0.1603751  -0.3366528), wk =   0.0370370
        k(   25) = (   0.1666667  -0.0320750   0.0000000), wk =   0.0370370
        k(   26) = (   0.1666667  -0.0320750   0.1122176), wk =   0.0370370
        k(   27) = (   0.1666667  -0.0320750   0.2244352), wk =   0.0370370
        k(   28) = (   0.1666667  -0.0320750  -0.3366528), wk =   0.0370370
        k(   29) = (   0.3333333   0.1924501   0.0000000), wk =   0.0185185
        k(   30) = (   0.3333333   0.1924501   0.1122176), wk =   0.0370370
        k(   31) = (   0.3333333   0.1924501   0.2244352), wk =   0.0370370
        k(   32) = (   0.3333333   0.1924501  -0.3366528), wk =   0.0185185
        k(   33) = (   0.3333333   0.2566001   0.0000000), wk =   0.0370370
        k(   34) = (   0.3333333   0.2566001   0.1122176), wk =   0.0370370
        k(   35) = (   0.3333333   0.2566001   0.2244352), wk =   0.0370370
        k(   36) = (   0.3333333   0.2566001  -0.3366528), wk =   0.0370370
        k(   37) = (   0.3333333   0.3207501   0.0000000), wk =   0.0370370
        k(   38) = (   0.3333333   0.3207501   0.1122176), wk =   0.0370370
        k(   39) = (   0.3333333   0.3207501   0.2244352), wk =   0.0370370
        k(   40) = (   0.3333333   0.3207501  -0.3366528), wk =   0.0370370
        k(   41) = (   0.3333333   0.0000000   0.0000000), wk =   0.0185185
        k(   42) = (   0.3333333   0.0000000   0.1122176), wk =   0.0370370
        k(   43) = (   0.3333333   0.0000000   0.2244352), wk =   0.0370370
        k(   44) = (   0.3333333   0.0000000  -0.3366528), wk =   0.0185185
        k(   45) = (  -0.5000000  -0.2886751   0.0000000), wk =   0.0185185
        k(   46) = (  -0.5000000  -0.2886751   0.1122176), wk =   0.0370370
        k(   47) = (  -0.5000000  -0.2886751   0.2244352), wk =   0.0370370
        k(   48) = (  -0.5000000  -0.2886751  -0.3366528), wk =   0.0185185
        k(   49) = (  -0.5000000  -0.2245251   0.0000000), wk =   0.0370370
        k(   50) = (  -0.5000000  -0.2245251   0.1122176), wk =   0.0370370
        k(   51) = (  -0.5000000  -0.2245251   0.2244352), wk =   0.0370370
        k(   52) = (  -0.5000000  -0.2245251  -0.3366528), wk =   0.0370370
        k(   53) = (   0.0000000   0.0641500  -0.1122176), wk =   0.0185185
        k(   54) = (   0.0000000   0.0641500  -0.2244352), wk =   0.0185185
        k(   55) = (   0.0000000   0.1283001  -0.1122176), wk =   0.0185185
        k(   56) = (   0.0000000   0.1283001  -0.2244352), wk =   0.0185185
        k(   57) = (  -0.1666667   0.0962250  -0.1122176), wk =   0.0370370
        k(   58) = (  -0.1666667   0.0962250  -0.2244352), wk =   0.0370370
        k(   59) = (  -0.1666667   0.1603751  -0.1122176), wk =   0.0370370
        k(   60) = (  -0.1666667   0.1603751  -0.2244352), wk =   0.0370370
        k(   61) = (  -0.1666667  -0.0320750  -0.1122176), wk =   0.0370370
        k(   62) = (  -0.1666667  -0.0320750  -0.2244352), wk =   0.0370370
        k(   63) = (  -0.3333333   0.2566001  -0.1122176), wk =   0.0370370
        k(   64) = (  -0.3333333   0.2566001  -0.2244352), wk =   0.0370370
        k(   65) = (  -0.3333333   0.3207501  -0.1122176), wk =   0.0370370
        k(   66) = (  -0.3333333   0.3207501  -0.2244352), wk =   0.0370370
        k(   67) = (   0.5000000  -0.2245251  -0.1122176), wk =   0.0370370
        k(   68) = (   0.5000000  -0.2245251  -0.2244352), wk =   0.0370370

                       cryst. coord.
        k(    1) = (   0.0000000   0.0000000   0.0000000), wk =   0.0092593
        k(    2) = (   0.0000000   0.0000000   0.1666667), wk =   0.0185185
        k(    3) = (   0.0000000   0.0000000   0.3333333), wk =   0.0185185
        k(    4) = (   0.0000000   0.0000000  -0.5000000), wk =   0.0092593
        k(    5) = (   0.0000000   0.1666667   0.0000000), wk =   0.0185185
        k(    6) = (   0.0000000   0.1666667   0.1666667), wk =   0.0185185
        k(    7) = (   0.0000000   0.1666667   0.3333333), wk =   0.0185185
        k(    8) = (   0.0000000   0.1666667  -0.5000000), wk =   0.0185185
        k(    9) = (   0.0000000   0.3333333   0.0000000), wk =   0.0185185
        k(   10) = (   0.0000000   0.3333333   0.1666667), wk =   0.0185185
        k(   11) = (   0.0000000   0.3333333   0.3333333), wk =   0.0185185
        k(   12) = (   0.0000000   0.3333333  -0.5000000), wk =   0.0185185
        k(   13) = (   0.0000000  -0.5000000   0.0000000), wk =   0.0092593
        k(   14) = (   0.0000000  -0.5000000   0.1666667), wk =   0.0185185
        k(   15) = (   0.0000000  -0.5000000   0.3333333), wk =   0.0185185
        k(   16) = (   0.0000000  -0.5000000  -0.5000000), wk =   0.0092593
        k(   17) = (   0.1666667   0.0000000   0.0000000), wk =   0.0370370
        k(   18) = (   0.1666667   0.0000000   0.1666667), wk =   0.0370370
        k(   19) = (   0.1666667   0.0000000   0.3333333), wk =   0.0370370
        k(   20) = (   0.1666667   0.0000000  -0.5000000), wk =   0.0370370
        k(   21) = (   0.1666667   0.1666667   0.0000000), wk =   0.0370370
        k(   22) = (   0.1666667   0.1666667   0.1666667), wk =   0.0370370
        k(   23) = (   0.1666667   0.1666667   0.3333333), wk =   0.0370370
        k(   24) = (   0.1666667   0.1666667  -0.5000000), wk =   0.0370370
        k(   25) = (   0.1666667  -0.3333333   0.0000000), wk =   0.0370370
        k(   26) = (   0.1666667  -0.3333333   0.1666667), wk =   0.0370370
        k(   27) = (   0.1666667  -0.3333333   0.3333333), wk =   0.0370370
        k(   28) = (   0.1666667  -0.3333333  -0.5000000), wk =   0.0370370
        k(   29) = (   0.3333333   0.0000000   0.0000000), wk =   0.0185185
        k(   30) = (   0.3333333   0.0000000   0.1666667), wk =   0.0370370
        k(   31) = (   0.3333333   0.0000000   0.3333333), wk =   0.0370370
        k(   32) = (   0.3333333   0.0000000  -0.5000000), wk =   0.0185185
        k(   33) = (   0.3333333   0.1666667   0.0000000), wk =   0.0370370
        k(   34) = (   0.3333333   0.1666667   0.1666667), wk =   0.0370370
        k(   35) = (   0.3333333   0.1666667   0.3333333), wk =   0.0370370
        k(   36) = (   0.3333333   0.1666667  -0.5000000), wk =   0.0370370
        k(   37) = (   0.3333333   0.3333333   0.0000000), wk =   0.0370370
        k(   38) = (   0.3333333   0.3333333   0.1666667), wk =   0.0370370
        k(   39) = (   0.3333333   0.3333333   0.3333333), wk =   0.0370370
        k(   40) = (   0.3333333   0.3333333  -0.5000000), wk =   0.0370370
        k(   41) = (   0.3333333  -0.5000000   0.0000000), wk =   0.0185185
        k(   42) = (   0.3333333  -0.5000000   0.1666667), wk =   0.0370370
        k(   43) = (   0.3333333  -0.5000000   0.3333333), wk =   0.0370370
        k(   44) = (   0.3333333  -0.5000000  -0.5000000), wk =   0.0185185
        k(   45) = (  -0.5000000   0.0000000   0.0000000), wk =   0.0185185
        k(   46) = (  -0.5000000   0.0000000   0.1666667), wk =   0.0370370
        k(   47) = (  -0.5000000   0.0000000   0.3333333), wk =   0.0370370
        k(   48) = (  -0.5000000   0.0000000  -0.5000000), wk =   0.0185185
        k(   49) = (  -0.5000000   0.1666667   0.0000000), wk =   0.0370370
        k(   50) = (  -0.5000000   0.1666667   0.1666667), wk =   0.0370370
        k(   51) = (  -0.5000000   0.1666667   0.3333333), wk =   0.0370370
        k(   52) = (  -0.5000000   0.1666667  -0.5000000), wk =   0.0370370
        k(   53) = (   0.0000000   0.1666667  -0.1666667), wk =   0.0185185
        k(   54) = (   0.0000000   0.1666667  -0.3333333), wk =   0.0185185
        k(   55) = (   0.0000000   0.3333333  -0.1666667), wk =   0.0185185
        k(   56) = (   0.0000000   0.3333333  -0.3333333), wk =   0.0185185
        k(   57) = (  -0.1666667   0.5000000  -0.1666667), wk =   0.0370370
        k(   58) = (  -0.1666667   0.5000000  -0.3333333), wk =   0.0370370
        k(   59) = (  -0.1666667   0.6666667  -0.1666667), wk =   0.0370370
        k(   60) = (  -0.1666667   0.6666667  -0.3333333), wk =   0.0370370
        k(   61) = (  -0.1666667   0.1666667  -0.1666667), wk =   0.0370370
        k(   62) = (  -0.1666667   0.1666667  -0.3333333), wk =   0.0370370
        k(   63) = (  -0.3333333   1.1666667  -0.1666667), wk =   0.0370370
        k(   64) = (  -0.3333333   1.1666667  -0.3333333), wk =   0.0370370
        k(   65) = (  -0.3333333   1.3333333  -0.1666667), wk =   0.0370370
        k(   66) = (  -0.3333333   1.3333333  -0.3333333), wk =   0.0370370
        k(   67) = (   0.5000000  -1.3333333  -0.1666667), wk =   0.0370370
        k(   68) = (   0.5000000  -1.3333333  -0.3333333), wk =   0.0370370

     Check: negative core charge=   -0.000001

     Initial potential from superposition of free atoms

     starting charge     107.9776, renormalised to     108.0000
     Starting wfcs are   78 randomized atomic wfcs

     Self-consistent Calculation

     iteration #  1     ecut=    50.00 Ry     beta= 0.30
     Davidson diagonalization with overlap

     ethr =  1.00E-02,  avg # of iterations =  2.3

     total energy              =   -1083.75405369 Ry
     estimated scf accuracy    <       2.11273623 Ry

[...]

     c_bands:  1 eigenvalues not converged
     ethr =  1.17E-09,  avg # of iterations = 14.3

[...]

     c_bands:  1 eigenvalues not converged
     ethr =  1.17E-09,  avg # of iterations = 13.6

[...]

     total energy              =   -1084.14487926 Ry
     estimated scf accuracy    <       0.00000003 Ry

     iteration # 20     ecut=    50.00 Ry     beta= 0.30
     Davidson diagonalization with overlap

     ethr =  2.37E-11,  avg # of iterations =  4.1

     End of self-consistent calculation

          k = 0.0000 0.0000 0.0000 (  4257 PWs)   bands (ev):

    -8.3946  -7.6005  -7.6005  -6.8879  -6.7235  -6.7235   4.2786   4.2786
     4.5066   4.7815   4.7815   5.0098   5.0100   5.0791   5.2837   5.2838
     5.3411   5.3411   5.3791   5.3792   5.9042   5.9042   5.9787   5.9787
     6.9997   6.9997   7.1899   7.1899   7.3579   7.3579   7.5184   7.5184
     7.6983   7.6983   7.7913   7.7913   8.1135   8.4082   8.4082   8.8616
     8.8616   9.6571   9.6571  10.1277  10.1277  11.2301  11.2302  11.6748
    11.6748  11.8913  11.8913  12.7125  12.7127  12.7207

     occupation numbers
     1.0000   1.0000   1.0000   1.0000   1.0000   1.0000   1.0000   1.0000
     1.0000   1.0000   1.0000   1.0000   1.0000   1.0000   1.0000   1.0000
     1.0000   1.0000   1.0000   1.0000   1.0000   1.0000   1.0000   1.0000
     1.0000   1.0000   1.0000   1.0000   1.0000   1.0000   1.0000   1.0000
     1.0000   1.0000   1.0000   1.0000   1.0000   1.0000   1.0000   1.0000
     1.0000   1.0000   1.0000   1.0000   1.0000   1.0000   1.0000   1.0000
     1.0000   1.0000   1.0000   1.0000   1.0000   1.0000

[...]

          k =-0.5000-0.2887 0.0000 (  4206 PWs)   bands (ev):

[...]

          k =-0.3333 0.3208-0.2244 (  4220 PWs)   bands (ev):

[...]

          k = 0.5000-0.2245-0.2244 (  4226 PWs)   bands (ev):

    -7.0881  -7.0794  -7.0747  -6.8357  -6.8344  -6.8323   3.9602   4.0037
     4.0281   4.0868   4.2017   4.2508   5.1484   5.2520   5.3263   5.3768
     5.4149   5.4409   5.7147   5.7647   5.8161   5.9100   5.9276   5.9382
     7.2983   7.4356   7.5164   7.5394   7.5536   7.5830   7.7262   7.7701
     7.8039   7.8744   7.9248   8.0140   8.2839   8.2879   8.3990   8.4863
     8.6560   8.8942   9.2554   9.5404   9.7326  10.1952  10.4627  10.4758
    10.6751  10.7783  10.9489  11.4836  11.4905  11.4910

     occupation numbers
     1.0000   1.0000   1.0000   1.0000   1.0000   1.0000   1.0000   1.0000
     1.0000   1.0000   1.0000   1.0000   1.0000   1.0000   1.0000   1.0000
     1.0000   1.0000   1.0000   1.0000   1.0000   1.0000   1.0000   1.0000
     1.0000   1.0000   1.0000   1.0000   1.0000   1.0000   1.0000   1.0000
     1.0000   1.0000   1.0000   1.0000   1.0000   1.0000   1.0000   1.0000
     1.0000   1.0000   1.0000   1.0000   1.0000   1.0000   1.0000   1.0000
     1.0000   1.0000   1.0000   1.0000   1.0000   1.0000

     highest occupied level (ev):    12.7207

!    total energy              =   -1084.14487927 Ry
     estimated scf accuracy    <          8.6E-11 Ry

     The total energy is the sum of the following terms:
     one-electron contribution =    -346.59039871 Ry
     hartree contribution      =     315.62221288 Ry
     xc contribution           =    -331.19969143 Ry
     ewald contribution        =    -721.97700202 Ry

     convergence has been achieved in  20 iterations

     Forces acting on atoms (cartesian axes, Ry/au):

     atom    1 type  1   force =     0.00000000   -0.00001781   -0.12650072
     atom    2 type  1   force =     0.00000000    0.00001571   -0.12649659
     atom    3 type  2   force =     0.00000000    0.00000258    0.12649845
     atom    4 type  2   force =     0.00000000   -0.00000212    0.12649906
     atom    5 type  1   force =     0.00000000   -0.00002005   -0.12649864
     atom    6 type  1   force =     0.00000000    0.00001871   -0.12649799
     atom    7 type  2   force =     0.00000000    0.00000276    0.12649841
     atom    8 type  2   force =     0.00000000   -0.00000301    0.12649870
     atom    9 type  1   force =     0.00000000   -0.00001523   -0.12649946
     atom   10 type  1   force =     0.00000000    0.00001970   -0.12649787
     atom   11 type  2   force =     0.00000000    0.00000223    0.12649826
     atom   12 type  2   force =     0.00000000   -0.00000348    0.12649838
     The non-local contrib.  to forces
     atom    1 type  1   force =     0.00000000    0.00002382   -0.29179462
     atom    2 type  1   force =     0.00000000   -0.00002581   -0.29179199
     atom    3 type  2   force =     0.00000000    0.00016426   -0.15702047
     atom    4 type  2   force =     0.00000000   -0.00016199   -0.15701985
     atom    5 type  1   force =     0.00000000    0.00002325   -0.29179361
     atom    6 type  1   force =     0.00000000   -0.00002410   -0.29179340
     atom    7 type  2   force =     0.00000000    0.00016580   -0.15702054
     atom    8 type  2   force =     0.00000000   -0.00016495   -0.15702015
     atom    9 type  1   force =     0.00000000    0.00002646   -0.29179396
     atom   10 type  1   force =     0.00000000   -0.00002305   -0.29179330
     atom   11 type  2   force =     0.00000000    0.00016286   -0.15702076
     atom   12 type  2   force =     0.00000000   -0.00016517   -0.15702073
     The ionic contribution  to forces
     atom    1 type  1   force =    -0.00000000    0.00000001   -2.06565051
     atom    2 type  1   force =     0.00000000    0.00000001   -2.06565051
     atom    3 type  2   force =    -0.00000000    0.00000001    2.06565051
     atom    4 type  2   force =     0.00000000    0.00000000    2.06565051
     atom    5 type  1   force =    -0.00000001    0.00000001   -2.06565051
     atom    6 type  1   force =     0.00000001   -0.00000001   -2.06565051
     atom    7 type  2   force =    -0.00000001    0.00000001    2.06565051
     atom    8 type  2   force =     0.00000001   -0.00000001    2.06565051
     atom    9 type  1   force =    -0.00000000   -0.00000001   -2.06565051
     atom   10 type  1   force =     0.00000000   -0.00000001   -2.06565051
     atom   11 type  2   force =    -0.00000000   -0.00000000    2.06565051
     atom   12 type  2   force =     0.00000000   -0.00000001    2.06565051
     The local contribution  to forces
     atom    1 type  1   force =    -0.00000004   -0.00004407    2.20068753
     atom    2 type  1   force =     0.00000000    0.00004780    2.20067976
     atom    3 type  2   force =    -0.00000001   -0.00015768   -1.78280979
     atom    4 type  2   force =     0.00000000    0.00015890   -1.78280833
     atom    5 type  1   force =    -0.00000008   -0.00004062    2.20068476
     atom    6 type  1   force =     0.00000008    0.00004384    2.20068421
     atom    7 type  2   force =    -0.00000002   -0.00015874   -1.78280980
     atom    8 type  2   force =     0.00000002    0.00015745   -1.78281007
     atom    9 type  1   force =     0.00000000   -0.00004972    2.20068580
     atom   10 type  1   force =     0.00000004    0.00004138    2.20068282
     atom   11 type  2   force =     0.00000000   -0.00015863   -1.78280818
     atom   12 type  2   force =     0.00000001    0.00015827   -1.78280978
     The core correction contribution to forces
     atom    1 type  1   force =    -0.00000001    0.00000235    0.03026347
     atom    2 type  1   force =     0.00000000   -0.00000233    0.03026357
     atom    3 type  2   force =     0.00000000   -0.00000186    0.00068923
     atom    4 type  2   force =     0.00000000    0.00000183    0.00068923
     atom    5 type  1   force =    -0.00000001    0.00000222    0.03026349
     atom    6 type  1   force =     0.00000001   -0.00000233    0.03026349
     atom    7 type  2   force =     0.00000000   -0.00000188    0.00068923
     atom    8 type  2   force =    -0.00000000    0.00000187    0.00068922
     atom    9 type  1   force =    -0.00000000    0.00000236    0.03026348
     atom   10 type  1   force =     0.00000001   -0.00000232    0.03026355
     atom   11 type  2   force =    -0.00000000   -0.00000184    0.00068924
     atom   12 type  2   force =    -0.00000000    0.00000188    0.00068923
     The Hubbard contrib.    to forces
     atom    1 type  1   force =     0.00000000    0.00000000    0.00000000
     atom    2 type  1   force =     0.00000000    0.00000000    0.00000000
     atom    3 type  2   force =     0.00000000    0.00000000    0.00000000
     atom    4 type  2   force =     0.00000000    0.00000000    0.00000000
     atom    5 type  1   force =     0.00000000    0.00000000    0.00000000
     atom    6 type  1   force =     0.00000000    0.00000000    0.00000000
     atom    7 type  2   force =     0.00000000    0.00000000    0.00000000
     atom    8 type  2   force =     0.00000000    0.00000000    0.00000000
     atom    9 type  1   force =     0.00000000    0.00000000    0.00000000
     atom   10 type  1   force =     0.00000000    0.00000000    0.00000000
     atom   11 type  2   force =     0.00000000    0.00000000    0.00000000
     atom   12 type  2   force =     0.00000000    0.00000000    0.00000000
     The SCF correction term to forces
     atom    1 type  1   force =    -0.00000000    0.00000029   -0.00000273
     atom    2 type  1   force =     0.00000000   -0.00000374    0.00000644
     atom    3 type  2   force =    -0.00000000   -0.00000191   -0.00000716
     atom    4 type  2   force =     0.00000000   -0.00000064   -0.00000864
     atom    5 type  1   force =    -0.00000000   -0.00000467    0.00000110
     atom    6 type  1   force =     0.00000000    0.00000154    0.00000209
     atom    7 type  2   force =    -0.00000000   -0.00000219   -0.00000713
     atom    8 type  2   force =     0.00000000    0.00000286   -0.00000695
     atom    9 type  1   force =    -0.00000000    0.00000591   -0.00000041
     atom   10 type  1   force =     0.00000000    0.00000392    0.00000344
     atom   11 type  2   force =    -0.00000000    0.00000008   -0.00000869
     atom   12 type  2   force =     0.00000000    0.00000178   -0.00000698

     Total force =     0.438204     Total SCF correction =     0.000023

     General routines

     Parallel routines

   This run was terminated on:  13:13:29  27Aug2025

   JOB DONE.