     Program PWSCF v.7.0 starts on 27Aug2025 at 14:58: 5

     K-points division:     npool     =      17

     Reading input from /home/jvc/QEspresso7.2/ZnO_database/scripts/cell131.in/ZnO-3.07-1.68-131.in
Warning: card &CELL ignored
Warning: card / ignored
Warning: card &FCP ignored
Warning: card / ignored
Warning: card &RISM ignored
Warning: card / ignored

     Current dimensions of program PWSCF are:
     Max number of different atomic species (ntypx) = 10
     Max number of k-points (npk) =  40000
     Max angular momentum in pseudopotentials (lmaxx) =  4
     file Zn.upf: wavefunction(s)  3D renormalized
     Found identity + (  0.0000  0.3333  0.0000) symmetry
     This is a supercell, fractional translations are disabled
     Message from routine setup:
     using ibrav=0 with symmetry is DISCOURAGED, use correct ibrav instead

     Subspace diagonalization in iterative solution of the eigenvalue problem:
     a serial algorithm will be used

     Using Slab Decomposition

     bravais-lattice index     =            0
     lattice parameter (alat)  =       5.8081  a.u.
     unit-cell volume          =     854.6583 (a.u.)^3
     number of atoms/cell      =           12
     number of atomic types    =            2
     number of electrons       =       108.00
     number of Kohn-Sham states=           54
     kinetic-energy cutoff     =      50.0000  Ry
     charge density cutoff     =     400.0000  Ry
     scf convergence threshold =      1.0E-08
     mixing beta               =       0.3000
     number of iterations used =            8  plain     mixing
     Exchange-correlation= PBE
                           (   1   4   3   4   0   0   0)

     celldm(1)=   5.808123  celldm(2)=   0.000000  celldm(3)=   0.000000
     celldm(4)=   0.000000  celldm(5)=   0.000000  celldm(6)=   0.000000

     crystal axes: (cart. coord. in units of alat)
               a(1) = (   1.000000   0.000000   0.000000 )
               a(2) = (  -1.500000   2.598076   0.000000 )
               a(3) = (   0.000000   0.000000   1.678933 )

     reciprocal axes: (cart. coord. in units 2 pi/alat)
               b(1) = (  1.000000  0.577350 -0.000000 )
               b(2) = (  0.000000  0.384900  0.000000 )
               b(3) = (  0.000000 -0.000000  0.595616 )

     PseudoPot. # 1 for Zn read from file:
     /home/jvc/QEspresso7.2/ZnO_database/pseudos/Zn.upf
     MD5 check sum: 7f56cabf9682ed8c977c2f7d0c5985c5
     Pseudo is Ultrasoft + core correction, Zval = 12.0
     Generated using &quot;atomic&quot; code by A. Dal Corso  v.6.2.2
     Using radial grid of 1201 points,  6 beta functions with:
                l(1) =   0
                l(2) =   0
                l(3) =   1
                l(4) =   1
                l(5) =   2
                l(6) =   2
     Q(r) pseudized with 0 coefficients

     PseudoPot. # 2 for O  read from file:
     /home/jvc/QEspresso7.2/ZnO_database/pseudos/O.upf
     MD5 check sum: 91400c9766925bcf19f520983a725ff0
     Pseudo is Ultrasoft + core correction, Zval =  6.0
     Generated using &quot;atomic&quot; code by A. Dal Corso  v.6.3MaX
     Using radial grid of 1095 points,  4 beta functions with:
                l(1) =   0
                l(2) =   0
                l(3) =   1
                l(4) =   1
     Q(r) pseudized with 0 coefficients

     atomic species   valence    mass     pseudopotential
        Zn            12.00    65.38000     Zn( 1.00)
        O              6.00    15.99900     O ( 1.00)

      2 Sym. Ops. (no inversion) found

                                    s                        frac. trans.

      isym =  1     identity

 cryst.   s( 1) = (     1          0          0      )
                  (     0          1          0      )
                  (     0          0          1      )

 cart.    s( 1) = (  1.0000000  0.0000000  0.0000000 )
                  (  0.0000000  1.0000000  0.0000000 )
                  (  0.0000000  0.0000000  1.0000000 )

      isym =  2     inv. 180 deg rotation - cart. axis [1,0,0]

 cryst.   s( 2) = (    -1          0          0      )
                  (     3          1          0      )
                  (     0          0          1      )

 cart.    s( 2) = ( -1.0000000  0.0000000  0.0000000 )
                  (  0.0000000  1.0000000  0.0000000 )
                  (  0.0000000  0.0000000  1.0000000 )

   Cartesian axes

     site n.     atom                  positions (alat units)
         1           Zn  tau(   1) = (   0.5000000   0.2886751   0.8405301  )
         2           Zn  tau(   2) = (   0.0000000   0.5773503   0.0010637  )
         3           O   tau(   3) = (   0.5000000   0.2886751   1.4769175  )
         4           O   tau(   4) = (   0.0000000   0.5773503   0.6374511  )
         5           Zn  tau(   5) = (   0.0000000   1.1547005   0.8405301  )
         6           Zn  tau(   6) = (  -0.5000000   1.4433757   0.0010637  )
         7           O   tau(   7) = (   0.0000000   1.1547005   1.4769175  )
         8           O   tau(   8) = (  -0.5000000   1.4433757   0.6374511  )
         9           Zn  tau(   9) = (  -0.5000000   2.0207259   0.8405301  )
        10           Zn  tau(  10) = (  -1.0000000   2.3094011   0.0010637  )
        11           O   tau(  11) = (  -0.5000000   2.0207259   1.4769175  )
        12           O   tau(  12) = (  -1.0000000   2.3094011   0.6374511  )

   Crystallographic axes

     site n.     atom                  positions (cryst. coord.)
         1           Zn  tau(   1) = (  0.6666667  0.1111111  0.5006336  )
         2           Zn  tau(   2) = (  0.3333333  0.2222222  0.0006336  )
         3           O   tau(   3) = (  0.6666667  0.1111111  0.8796764  )
         4           O   tau(   4) = (  0.3333333  0.2222222  0.3796764  )
         5           Zn  tau(   5) = (  0.6666667  0.4444444  0.5006336  )
         6           Zn  tau(   6) = (  0.3333333  0.5555556  0.0006336  )
         7           O   tau(   7) = (  0.6666667  0.4444444  0.8796764  )
         8           O   tau(   8) = (  0.3333333  0.5555556  0.3796764  )
         9           Zn  tau(   9) = (  0.6666667  0.7777778  0.5006336  )
        10           Zn  tau(  10) = (  0.3333333  0.8888889  0.0006336  )
        11           O   tau(  11) = (  0.6666667  0.7777778  0.8796764  )
        12           O   tau(  12) = (  0.3333333  0.8888889  0.3796764  )

     number of k points=    68
                       cart. coord. in units 2pi/alat
        k(    1) = (   0.0000000   0.0000000   0.0000000), wk =   0.0092593
        k(    2) = (   0.0000000   0.0000000   0.0992694), wk =   0.0185185
        k(    3) = (   0.0000000   0.0000000   0.1985388), wk =   0.0185185
        k(    4) = (   0.0000000   0.0000000  -0.2978082), wk =   0.0092593
        k(    5) = (   0.0000000   0.0641500   0.0000000), wk =   0.0185185
        k(    6) = (   0.0000000   0.0641500   0.0992694), wk =   0.0185185
        k(    7) = (   0.0000000   0.0641500   0.1985388), wk =   0.0185185
        k(    8) = (   0.0000000   0.0641500  -0.2978082), wk =   0.0185185
        k(    9) = (   0.0000000   0.1283001   0.0000000), wk =   0.0185185
        k(   10) = (   0.0000000   0.1283001   0.0992694), wk =   0.0185185
        k(   11) = (   0.0000000   0.1283001   0.1985388), wk =   0.0185185
        k(   12) = (   0.0000000   0.1283001  -0.2978082), wk =   0.0185185
        k(   13) = (   0.0000000  -0.1924501   0.0000000), wk =   0.0092593
        k(   14) = (   0.0000000  -0.1924501   0.0992694), wk =   0.0185185
        k(   15) = (   0.0000000  -0.1924501   0.1985388), wk =   0.0185185
        k(   16) = (   0.0000000  -0.1924501  -0.2978082), wk =   0.0092593
        k(   17) = (   0.1666667   0.0962250   0.0000000), wk =   0.0370370
        k(   18) = (   0.1666667   0.0962250   0.0992694), wk =   0.0370370
        k(   19) = (   0.1666667   0.0962250   0.1985388), wk =   0.0370370
        k(   20) = (   0.1666667   0.0962250  -0.2978082), wk =   0.0370370
        k(   21) = (   0.1666667   0.1603751   0.0000000), wk =   0.0370370
        k(   22) = (   0.1666667   0.1603751   0.0992694), wk =   0.0370370
        k(   23) = (   0.1666667   0.1603751   0.1985388), wk =   0.0370370
        k(   24) = (   0.1666667   0.1603751  -0.2978082), wk =   0.0370370
        k(   25) = (   0.1666667  -0.0320750   0.0000000), wk =   0.0370370
        k(   26) = (   0.1666667  -0.0320750   0.0992694), wk =   0.0370370
        k(   27) = (   0.1666667  -0.0320750   0.1985388), wk =   0.0370370
        k(   28) = (   0.1666667  -0.0320750  -0.2978082), wk =   0.0370370
        k(   29) = (   0.3333333   0.1924501   0.0000000), wk =   0.0185185
        k(   30) = (   0.3333333   0.1924501   0.0992694), wk =   0.0370370
        k(   31) = (   0.3333333   0.1924501   0.1985388), wk =   0.0370370
        k(   32) = (   0.3333333   0.1924501  -0.2978082), wk =   0.0185185
        k(   33) = (   0.3333333   0.2566001   0.0000000), wk =   0.0370370
        k(   34) = (   0.3333333   0.2566001   0.0992694), wk =   0.0370370
        k(   35) = (   0.3333333   0.2566001   0.1985388), wk =   0.0370370
        k(   36) = (   0.3333333   0.2566001  -0.2978082), wk =   0.0370370
        k(   37) = (   0.3333333   0.3207501   0.0000000), wk =   0.0370370
        k(   38) = (   0.3333333   0.3207501   0.0992694), wk =   0.0370370
        k(   39) = (   0.3333333   0.3207501   0.1985388), wk =   0.0370370
        k(   40) = (   0.3333333   0.3207501  -0.2978082), wk =   0.0370370
        k(   41) = (   0.3333333  -0.0000000   0.0000000), wk =   0.0185185
        k(   42) = (   0.3333333  -0.0000000   0.0992694), wk =   0.0370370
        k(   43) = (   0.3333333  -0.0000000   0.1985388), wk =   0.0370370
        k(   44) = (   0.3333333  -0.0000000  -0.2978082), wk =   0.0185185
        k(   45) = (  -0.5000000  -0.2886751   0.0000000), wk =   0.0185185
        k(   46) = (  -0.5000000  -0.2886751   0.0992694), wk =   0.0370370
        k(   47) = (  -0.5000000  -0.2886751   0.1985388), wk =   0.0370370
        k(   48) = (  -0.5000000  -0.2886751  -0.2978082), wk =   0.0185185
        k(   49) = (  -0.5000000  -0.2245251   0.0000000), wk =   0.0370370
        k(   50) = (  -0.5000000  -0.2245251   0.0992694), wk =   0.0370370
        k(   51) = (  -0.5000000  -0.2245251   0.1985388), wk =   0.0370370
        k(   52) = (  -0.5000000  -0.2245251  -0.2978082), wk =   0.0370370
        k(   53) = (   0.0000000   0.0641500  -0.0992694), wk =   0.0185185
        k(   54) = (   0.0000000   0.0641500  -0.1985388), wk =   0.0185185
        k(   55) = (   0.0000000   0.1283001  -0.0992694), wk =   0.0185185
        k(   56) = (   0.0000000   0.1283001  -0.1985388), wk =   0.0185185
        k(   57) = (  -0.1666667   0.0962250  -0.0992694), wk =   0.0370370
        k(   58) = (  -0.1666667   0.0962250  -0.1985388), wk =   0.0370370
        k(   59) = (  -0.1666667   0.1603751  -0.0992694), wk =   0.0370370
        k(   60) = (  -0.1666667   0.1603751  -0.1985388), wk =   0.0370370
        k(   61) = (  -0.1666667  -0.0320750  -0.0992694), wk =   0.0370370
        k(   62) = (  -0.1666667  -0.0320750  -0.1985388), wk =   0.0370370
        k(   63) = (  -0.3333333   0.2566001  -0.0992694), wk =   0.0370370
        k(   64) = (  -0.3333333   0.2566001  -0.1985388), wk =   0.0370370
        k(   65) = (  -0.3333333   0.3207501  -0.0992694), wk =   0.0370370
        k(   66) = (  -0.3333333   0.3207501  -0.1985388), wk =   0.0370370
        k(   67) = (   0.5000000  -0.2245251  -0.0992694), wk =   0.0370370
        k(   68) = (   0.5000000  -0.2245251  -0.1985388), wk =   0.0370370

                       cryst. coord.
        k(    1) = (   0.0000000   0.0000000   0.0000000), wk =   0.0092593
        k(    2) = (   0.0000000   0.0000000   0.1666667), wk =   0.0185185
        k(    3) = (   0.0000000   0.0000000   0.3333333), wk =   0.0185185
        k(    4) = (   0.0000000   0.0000000  -0.5000000), wk =   0.0092593
        k(    5) = (   0.0000000   0.1666667   0.0000000), wk =   0.0185185
        k(    6) = (   0.0000000   0.1666667   0.1666667), wk =   0.0185185
        k(    7) = (   0.0000000   0.1666667   0.3333333), wk =   0.0185185
        k(    8) = (   0.0000000   0.1666667  -0.5000000), wk =   0.0185185
        k(    9) = (   0.0000000   0.3333333   0.0000000), wk =   0.0185185
        k(   10) = (   0.0000000   0.3333333   0.1666667), wk =   0.0185185
        k(   11) = (   0.0000000   0.3333333   0.3333333), wk =   0.0185185
        k(   12) = (   0.0000000   0.3333333  -0.5000000), wk =   0.0185185
        k(   13) = (   0.0000000  -0.5000000   0.0000000), wk =   0.0092593
        k(   14) = (   0.0000000  -0.5000000   0.1666667), wk =   0.0185185
        k(   15) = (   0.0000000  -0.5000000   0.3333333), wk =   0.0185185
        k(   16) = (   0.0000000  -0.5000000  -0.5000000), wk =   0.0092593
        k(   17) = (   0.1666667   0.0000000   0.0000000), wk =   0.0370370
        k(   18) = (   0.1666667   0.0000000   0.1666667), wk =   0.0370370
        k(   19) = (   0.1666667   0.0000000   0.3333333), wk =   0.0370370
        k(   20) = (   0.1666667   0.0000000  -0.5000000), wk =   0.0370370
        k(   21) = (   0.1666667   0.1666667   0.0000000), wk =   0.0370370
        k(   22) = (   0.1666667   0.1666667   0.1666667), wk =   0.0370370
        k(   23) = (   0.1666667   0.1666667   0.3333333), wk =   0.0370370
        k(   24) = (   0.1666667   0.1666667  -0.5000000), wk =   0.0370370
        k(   25) = (   0.1666667  -0.3333333   0.0000000), wk =   0.0370370
        k(   26) = (   0.1666667  -0.3333333   0.1666667), wk =   0.0370370
        k(   27) = (   0.1666667  -0.3333333   0.3333333), wk =   0.0370370
        k(   28) = (   0.1666667  -0.3333333  -0.5000000), wk =   0.0370370
        k(   29) = (   0.3333333   0.0000000   0.0000000), wk =   0.0185185
        k(   30) = (   0.3333333   0.0000000   0.1666667), wk =   0.0370370
        k(   31) = (   0.3333333   0.0000000   0.3333333), wk =   0.0370370
        k(   32) = (   0.3333333   0.0000000  -0.5000000), wk =   0.0185185
        k(   33) = (   0.3333333   0.1666667   0.0000000), wk =   0.0370370
        k(   34) = (   0.3333333   0.1666667   0.1666667), wk =   0.0370370
        k(   35) = (   0.3333333   0.1666667   0.3333333), wk =   0.0370370
        k(   36) = (   0.3333333   0.1666667  -0.5000000), wk =   0.0370370
        k(   37) = (   0.3333333   0.3333333   0.0000000), wk =   0.0370370
        k(   38) = (   0.3333333   0.3333333   0.1666667), wk =   0.0370370
        k(   39) = (   0.3333333   0.3333333   0.3333333), wk =   0.0370370
        k(   40) = (   0.3333333   0.3333333  -0.5000000), wk =   0.0370370
        k(   41) = (   0.3333333  -0.5000000   0.0000000), wk =   0.0185185
        k(   42) = (   0.3333333  -0.5000000   0.1666667), wk =   0.0370370
        k(   43) = (   0.3333333  -0.5000000   0.3333333), wk =   0.0370370
        k(   44) = (   0.3333333  -0.5000000  -0.5000000), wk =   0.0185185
        k(   45) = (  -0.5000000   0.0000000   0.0000000), wk =   0.0185185
        k(   46) = (  -0.5000000   0.0000000   0.1666667), wk =   0.0370370
        k(   47) = (  -0.5000000   0.0000000   0.3333333), wk =   0.0370370
        k(   48) = (  -0.5000000   0.0000000  -0.5000000), wk =   0.0185185
        k(   49) = (  -0.5000000   0.1666667   0.0000000), wk =   0.0370370
        k(   50) = (  -0.5000000   0.1666667   0.1666667), wk =   0.0370370
        k(   51) = (  -0.5000000   0.1666667   0.3333333), wk =   0.0370370
        k(   52) = (  -0.5000000   0.1666667  -0.5000000), wk =   0.0370370
        k(   53) = (   0.0000000   0.1666667  -0.1666667), wk =   0.0185185
        k(   54) = (   0.0000000   0.1666667  -0.3333333), wk =   0.0185185
        k(   55) = (   0.0000000   0.3333333  -0.1666667), wk =   0.0185185
        k(   56) = (   0.0000000   0.3333333  -0.3333333), wk =   0.0185185
        k(   57) = (  -0.1666667   0.5000000  -0.1666667), wk =   0.0370370
        k(   58) = (  -0.1666667   0.5000000  -0.3333333), wk =   0.0370370
        k(   59) = (  -0.1666667   0.6666667  -0.1666667), wk =   0.0370370
        k(   60) = (  -0.1666667   0.6666667  -0.3333333), wk =   0.0370370
        k(   61) = (  -0.1666667   0.1666667  -0.1666667), wk =   0.0370370
        k(   62) = (  -0.1666667   0.1666667  -0.3333333), wk =   0.0370370
        k(   63) = (  -0.3333333   1.1666667  -0.1666667), wk =   0.0370370
        k(   64) = (  -0.3333333   1.1666667  -0.3333333), wk =   0.0370370
        k(   65) = (  -0.3333333   1.3333333  -0.1666667), wk =   0.0370370
        k(   66) = (  -0.3333333   1.3333333  -0.3333333), wk =   0.0370370
        k(   67) = (   0.5000000  -1.3333333  -0.1666667), wk =   0.0370370
        k(   68) = (   0.5000000  -1.3333333  -0.3333333), wk =   0.0370370

     Check: negative core charge=   -0.000002

     Initial potential from superposition of free atoms

     starting charge     107.9776, renormalised to     108.0000
     Starting wfcs are   78 randomized atomic wfcs

     Self-consistent Calculation

     iteration #  1     ecut=    50.00 Ry     beta= 0.30
     Davidson diagonalization with overlap

     ethr =  1.00E-02,  avg # of iterations =  2.0

     total energy              =   -1084.35388161 Ry
     estimated scf accuracy    <       2.01861455 Ry

[...]

     total energy              =   -1084.77888148 Ry
     estimated scf accuracy    <       0.00000005 Ry

     iteration # 26     ecut=    50.00 Ry     beta= 0.30
     Davidson diagonalization with overlap

     ethr =  4.58E-11,  avg # of iterations =  5.2

     End of self-consistent calculation

          k = 0.0000 0.0000 0.0000 (  5111 PWs)   bands (ev):

    -9.9422  -9.3137  -9.3137  -9.0985  -8.8296  -8.8296   2.3077   2.3077
     2.4650   2.7389   2.7389   2.8105   2.8107   2.8828   3.0189   3.0191
     3.0913   3.0913   3.2916   3.2916   3.5253   3.5253   3.5342   3.5342
     4.2592   4.2592   4.4404   4.4405   4.5318   4.5318   4.6845   4.6845
     4.7242   4.7242   4.8051   4.8051   5.0496   5.1535   5.1535   5.7513
     5.7513   6.8413   6.8413   7.2012   7.2012   8.2114   8.2114   8.4419
     8.4422   8.5097   8.5097   9.0217   9.2767   9.2771

     occupation numbers
     1.0000   1.0000   1.0000   1.0000   1.0000   1.0000   1.0000   1.0000
     1.0000   1.0000   1.0000   1.0000   1.0000   1.0000   1.0000   1.0000
     1.0000   1.0000   1.0000   1.0000   1.0000   1.0000   1.0000   1.0000
     1.0000   1.0000   1.0000   1.0000   1.0000   1.0000   1.0000   1.0000
     1.0000   1.0000   1.0000   1.0000   1.0000   1.0000   1.0000   1.0000
     1.0000   1.0000   1.0000   1.0000   1.0000   1.0000   1.0000   1.0000
     1.0000   1.0000   1.0000   1.0000   1.0000   1.0000

[...]

          k =-0.5000-0.2887 0.0000 (  5064 PWs)   bands (ev):

[...]

          k =-0.3333 0.3208-0.1985 (  5102 PWs)   bands (ev):

[...]

          k = 0.5000-0.2245-0.1985 (  5085 PWs)   bands (ev):

    -8.9791  -8.9733  -8.9701  -8.8408  -8.8406  -8.8403   2.2575   2.2989
     2.3138   2.3885   2.4929   2.5454   3.1003   3.1880   3.1941   3.2499
     3.3745   3.4460   3.5498   3.5560   3.5592   3.5711   3.5798   3.5918
     4.4619   4.5489   4.6121   4.6203   4.6337   4.6573   4.7397   4.7636
     4.7796   4.8486   4.8903   4.9488   5.1374   5.1667   5.2902   5.3321
     5.4574   5.7810   6.3304   6.6933   6.7911   6.8611   7.0681   7.1198
     7.3762   7.5559   7.7063   7.8418   7.8524   7.8627

     occupation numbers
     1.0000   1.0000   1.0000   1.0000   1.0000   1.0000   1.0000   1.0000
     1.0000   1.0000   1.0000   1.0000   1.0000   1.0000   1.0000   1.0000
     1.0000   1.0000   1.0000   1.0000   1.0000   1.0000   1.0000   1.0000
     1.0000   1.0000   1.0000   1.0000   1.0000   1.0000   1.0000   1.0000
     1.0000   1.0000   1.0000   1.0000   1.0000   1.0000   1.0000   1.0000
     1.0000   1.0000   1.0000   1.0000   1.0000   1.0000   1.0000   1.0000
     1.0000   1.0000   1.0000   1.0000   1.0000   1.0000

     highest occupied level (ev):     9.2771

!    total energy              =   -1084.77888150 Ry
     estimated scf accuracy    <          8.6E-09 Ry

     The total energy is the sum of the following terms:
     one-electron contribution =    -412.24388102 Ry
     hartree contribution      =     336.93703959 Ry
     xc contribution           =    -329.61703474 Ry
     ewald contribution        =    -679.85500533 Ry

     convergence has been achieved in  26 iterations

     Forces acting on atoms (cartesian axes, Ry/au):

     atom    1 type  1   force =     0.00000000   -0.00001265    0.02388546
     atom    2 type  1   force =     0.00000000    0.00001324    0.02388605
     atom    3 type  2   force =     0.00000000    0.00000311   -0.02388500
     atom    4 type  2   force =     0.00000000   -0.00000240   -0.02388544
     atom    5 type  1   force =     0.00000000   -0.00001371    0.02388409
     atom    6 type  1   force =     0.00000000    0.00001104    0.02388568
     atom    7 type  2   force =     0.00000000    0.00000362   -0.02388547
     atom    8 type  2   force =     0.00000000   -0.00000278   -0.02388511
     atom    9 type  1   force =     0.00000000   -0.00001289    0.02388515
     atom   10 type  1   force =     0.00000000    0.00001271    0.02388634
     atom   11 type  2   force =     0.00000000    0.00000330   -0.02388575
     atom   12 type  2   force =     0.00000000   -0.00000258   -0.02388602
     The non-local contrib.  to forces
     atom    1 type  1   force =     0.00000000    0.00002498    0.11321067
     atom    2 type  1   force =     0.00000000   -0.00002493    0.11321129
     atom    3 type  2   force =     0.00000000    0.00020999    0.09420050
     atom    4 type  2   force =     0.00000000   -0.00021122    0.09420096
     atom    5 type  1   force =     0.00000000    0.00002524    0.11321081
     atom    6 type  1   force =     0.00000000   -0.00002594    0.11321156
     atom    7 type  2   force =     0.00000000    0.00021092    0.09420104
     atom    8 type  2   force =     0.00000000   -0.00021199    0.09420189
     atom    9 type  1   force =     0.00000000    0.00002576    0.11321055
     atom   10 type  1   force =     0.00000000   -0.00002519    0.11321116
     atom   11 type  2   force =     0.00000000    0.00020997    0.09420017
     atom   12 type  2   force =     0.00000000   -0.00021119    0.09420174
     The ionic contribution  to forces
     atom    1 type  1   force =    -0.00000000    0.00000001    0.96206593
     atom    2 type  1   force =     0.00000000    0.00000001    0.96206594
     atom    3 type  2   force =    -0.00000000    0.00000001   -0.96206593
     atom    4 type  2   force =     0.00000000    0.00000000   -0.96206594
     atom    5 type  1   force =    -0.00000001    0.00000001    0.96206593
     atom    6 type  1   force =     0.00000001   -0.00000001    0.96206593
     atom    7 type  2   force =    -0.00000001    0.00000000   -0.96206593
     atom    8 type  2   force =     0.00000001   -0.00000000   -0.96206593
     atom    9 type  1   force =    -0.00000000   -0.00000001    0.96206594
     atom   10 type  1   force =     0.00000000   -0.00000001    0.96206593
     atom   11 type  2   force =    -0.00000000   -0.00000000   -0.96206594
     atom   12 type  2   force =     0.00000000   -0.00000001   -0.96206593
     The local contribution  to forces
     atom    1 type  1   force =    -0.00000004   -0.00004384   -1.04228507
     atom    2 type  1   force =     0.00000000    0.00004333   -1.04228760
     atom    3 type  2   force =    -0.00000001   -0.00020177    0.84465342
     atom    4 type  2   force =     0.00000000    0.00020366    0.84465508
     atom    5 type  1   force =    -0.00000008   -0.00004263   -1.04228554
     atom    6 type  1   force =     0.00000008    0.00004572   -1.04228704
     atom    7 type  2   force =    -0.00000002   -0.00020222    0.84465254
     atom    8 type  2   force =     0.00000002    0.00020433    0.84465352
     atom    9 type  1   force =     0.00000000   -0.00004533   -1.04228521
     atom   10 type  1   force =     0.00000004    0.00004405   -1.04228745
     atom   11 type  2   force =     0.00000000   -0.00020312    0.84465379
     atom   12 type  2   force =     0.00000001    0.00020371    0.84465439
     The core correction contribution to forces
     atom    1 type  1   force =    -0.00000001    0.00000740   -0.00911081
     atom    2 type  1   force =    -0.00000000   -0.00000738   -0.00911071
     atom    3 type  2   force =     0.00000000   -0.00000236   -0.00067519
     atom    4 type  2   force =     0.00000000    0.00000238   -0.00067520
     atom    5 type  1   force =    -0.00000001    0.00000734   -0.00911075
     atom    6 type  1   force =     0.00000001   -0.00000737   -0.00911079
     atom    7 type  2   force =     0.00000000   -0.00000238   -0.00067520
     atom    8 type  2   force =    -0.00000000    0.00000239   -0.00067521
     atom    9 type  1   force =     0.00000000    0.00000745   -0.00911074
     atom   10 type  1   force =     0.00000001   -0.00000739   -0.00911074
     atom   11 type  2   force =    -0.00000000   -0.00000237   -0.00067518
     atom   12 type  2   force =    -0.00000000    0.00000238   -0.00067520
     The Hubbard contrib.    to forces
     atom    1 type  1   force =     0.00000000    0.00000000    0.00000000
     atom    2 type  1   force =     0.00000000    0.00000000    0.00000000
     atom    3 type  2   force =     0.00000000    0.00000000    0.00000000
     atom    4 type  2   force =     0.00000000    0.00000000    0.00000000
     atom    5 type  1   force =     0.00000000    0.00000000    0.00000000
     atom    6 type  1   force =     0.00000000    0.00000000    0.00000000
     atom    7 type  2   force =     0.00000000    0.00000000    0.00000000
     atom    8 type  2   force =     0.00000000    0.00000000    0.00000000
     atom    9 type  1   force =     0.00000000    0.00000000    0.00000000
     atom   10 type  1   force =     0.00000000    0.00000000    0.00000000
     atom   11 type  2   force =     0.00000000    0.00000000    0.00000000
     atom   12 type  2   force =     0.00000000    0.00000000    0.00000000
     The SCF correction term to forces
     atom    1 type  1   force =    -0.00000000   -0.00000151    0.00000705
     atom    2 type  1   force =     0.00000000    0.00000188    0.00000945
     atom    3 type  2   force =    -0.00000000   -0.00000308    0.00000453
     atom    4 type  2   force =     0.00000000    0.00000245    0.00000198
     atom    5 type  1   force =    -0.00000000   -0.00000399    0.00000595
     atom    6 type  1   force =     0.00000000   -0.00000169    0.00000835
     atom    7 type  2   force =    -0.00000000   -0.00000303    0.00000440
     atom    8 type  2   force =     0.00000000    0.00000217    0.00000294
     atom    9 type  1   force =    -0.00000000   -0.00000108    0.00000693
     atom   10 type  1   force =     0.00000000    0.00000093    0.00000975
     atom   11 type  2   force =    -0.00000000   -0.00000151    0.00000374
     atom   12 type  2   force =     0.00000000    0.00000219    0.00000131

     Total force =     0.082742     Total SCF correction =     0.000023

     General routines

     Parallel routines

   This run was terminated on:  15: 6:20  27Aug2025

   JOB DONE.