     Program PWSCF v.7.0 starts on 27Aug2025 at 17: 3:59

     K-points division:     npool     =      17

     Reading input from /home/jvc/QEspresso7.2/ZnO_database/scripts/cell131.in/ZnO-3.20-1.45-131.in
Warning: card &CELL ignored
Warning: card / ignored
Warning: card &FCP ignored
Warning: card / ignored
Warning: card &RISM ignored
Warning: card / ignored

     Current dimensions of program PWSCF are:
     Max number of different atomic species (ntypx) = 10
     Max number of k-points (npk) =  40000
     Max angular momentum in pseudopotentials (lmaxx) =  4
     file Zn.upf: wavefunction(s)  3D renormalized
     Found identity + (  0.0000  0.3333  0.0000) symmetry
     This is a supercell, fractional translations are disabled
     Message from routine setup:
     using ibrav=0 with symmetry is DISCOURAGED, use correct ibrav instead

     Subspace diagonalization in iterative solution of the eigenvalue problem:
     a serial algorithm will be used

     Using Slab Decomposition

     bravais-lattice index     =            0
     lattice parameter (alat)  =       6.0553  a.u.
     unit-cell volume          =     838.1010 (a.u.)^3
     number of atoms/cell      =           12
     number of atomic types    =            2
     number of electrons       =       108.00
     number of Kohn-Sham states=           54
     kinetic-energy cutoff     =      50.0000  Ry
     charge density cutoff     =     400.0000  Ry
     scf convergence threshold =      1.0E-08
     mixing beta               =       0.3000
     number of iterations used =            8  plain     mixing
     Exchange-correlation= PBE
                           (   1   4   3   4   0   0   0)

     celldm(1)=   6.055277  celldm(2)=   0.000000  celldm(3)=   0.000000
     celldm(4)=   0.000000  celldm(5)=   0.000000  celldm(6)=   0.000000

     crystal axes: (cart. coord. in units of alat)
               a(1) = (   1.000000   0.000000   0.000000 )
               a(2) = (  -1.500000   2.598076   0.000000 )
               a(3) = (   0.000000   0.000000   1.452923 )

     reciprocal axes: (cart. coord. in units 2 pi/alat)
               b(1) = (  1.000000  0.577350 -0.000000 )
               b(2) = (  0.000000  0.384900  0.000000 )
               b(3) = (  0.000000 -0.000000  0.688268 )

     PseudoPot. # 1 for Zn read from file:
     /home/jvc/QEspresso7.2/ZnO_database/pseudos/Zn.upf
     MD5 check sum: 7f56cabf9682ed8c977c2f7d0c5985c5
     Pseudo is Ultrasoft + core correction, Zval = 12.0
     Generated using &quot;atomic&quot; code by A. Dal Corso  v.6.2.2
     Using radial grid of 1201 points,  6 beta functions with:
                l(1) =   0
                l(2) =   0
                l(3) =   1
                l(4) =   1
                l(5) =   2
                l(6) =   2
     Q(r) pseudized with 0 coefficients

     PseudoPot. # 2 for O  read from file:
     /home/jvc/QEspresso7.2/ZnO_database/pseudos/O.upf
     MD5 check sum: 91400c9766925bcf19f520983a725ff0
     Pseudo is Ultrasoft + core correction, Zval =  6.0
     Generated using &quot;atomic&quot; code by A. Dal Corso  v.6.3MaX
     Using radial grid of 1095 points,  4 beta functions with:
                l(1) =   0
                l(2) =   0
                l(3) =   1
                l(4) =   1
     Q(r) pseudized with 0 coefficients

     atomic species   valence    mass     pseudopotential
        Zn            12.00    65.38000     Zn( 1.00)
        O              6.00    15.99900     O ( 1.00)

      2 Sym. Ops. (no inversion) found

                                    s                        frac. trans.

      isym =  1     identity

 cryst.   s( 1) = (     1          0          0      )
                  (     0          1          0      )
                  (     0          0          1      )

 cart.    s( 1) = (  1.0000000  0.0000000  0.0000000 )
                  (  0.0000000  1.0000000  0.0000000 )
                  (  0.0000000  0.0000000  1.0000000 )

      isym =  2     inv. 180 deg rotation - cart. axis [1,0,0]

 cryst.   s( 2) = (    -1          0          0      )
                  (     3          1          0      )
                  (     0          0          1      )

 cart.    s( 2) = ( -1.0000000  0.0000000  0.0000000 )
                  (  0.0000000  1.0000000  0.0000000 )
                  (  0.0000000  0.0000000  1.0000000 )

   Cartesian axes

     site n.     atom                  positions (alat units)
         1           Zn  tau(   1) = (   0.5000000   0.2886751   0.7273818  )
         2           Zn  tau(   2) = (   0.0000000   0.5773503   0.0009206  )
         3           O   tau(   3) = (   0.5000000   0.2886751   1.2781017  )
         4           O   tau(   4) = (   0.0000000   0.5773503   0.5516404  )
         5           Zn  tau(   5) = (   0.0000000   1.1547005   0.7273818  )
         6           Zn  tau(   6) = (  -0.5000000   1.4433757   0.0009206  )
         7           O   tau(   7) = (   0.0000000   1.1547005   1.2781017  )
         8           O   tau(   8) = (  -0.5000000   1.4433757   0.5516404  )
         9           Zn  tau(   9) = (  -0.5000000   2.0207259   0.7273818  )
        10           Zn  tau(  10) = (  -1.0000000   2.3094011   0.0009206  )
        11           O   tau(  11) = (  -0.5000000   2.0207259   1.2781017  )
        12           O   tau(  12) = (  -1.0000000   2.3094011   0.5516404  )

   Crystallographic axes

     site n.     atom                  positions (cryst. coord.)
         1           Zn  tau(   1) = (  0.6666667  0.1111111  0.5006336  )
         2           Zn  tau(   2) = (  0.3333333  0.2222222  0.0006336  )
         3           O   tau(   3) = (  0.6666667  0.1111111  0.8796764  )
         4           O   tau(   4) = (  0.3333333  0.2222222  0.3796764  )
         5           Zn  tau(   5) = (  0.6666667  0.4444444  0.5006336  )
         6           Zn  tau(   6) = (  0.3333333  0.5555556  0.0006336  )
         7           O   tau(   7) = (  0.6666667  0.4444444  0.8796764  )
         8           O   tau(   8) = (  0.3333333  0.5555556  0.3796764  )
         9           Zn  tau(   9) = (  0.6666667  0.7777778  0.5006336  )
        10           Zn  tau(  10) = (  0.3333333  0.8888889  0.0006336  )
        11           O   tau(  11) = (  0.6666667  0.7777778  0.8796764  )
        12           O   tau(  12) = (  0.3333333  0.8888889  0.3796764  )

     number of k points=    68
                       cart. coord. in units 2pi/alat
        k(    1) = (   0.0000000   0.0000000   0.0000000), wk =   0.0092593
        k(    2) = (   0.0000000   0.0000000   0.1147113), wk =   0.0185185
        k(    3) = (   0.0000000   0.0000000   0.2294226), wk =   0.0185185
        k(    4) = (   0.0000000   0.0000000  -0.3441340), wk =   0.0092593
        k(    5) = (   0.0000000   0.0641500   0.0000000), wk =   0.0185185
        k(    6) = (   0.0000000   0.0641500   0.1147113), wk =   0.0185185
        k(    7) = (   0.0000000   0.0641500   0.2294226), wk =   0.0185185
        k(    8) = (   0.0000000   0.0641500  -0.3441340), wk =   0.0185185
        k(    9) = (   0.0000000   0.1283001   0.0000000), wk =   0.0185185
        k(   10) = (   0.0000000   0.1283001   0.1147113), wk =   0.0185185
        k(   11) = (   0.0000000   0.1283001   0.2294226), wk =   0.0185185
        k(   12) = (   0.0000000   0.1283001  -0.3441340), wk =   0.0185185
        k(   13) = (   0.0000000  -0.1924501   0.0000000), wk =   0.0092593
        k(   14) = (   0.0000000  -0.1924501   0.1147113), wk =   0.0185185
        k(   15) = (   0.0000000  -0.1924501   0.2294226), wk =   0.0185185
        k(   16) = (   0.0000000  -0.1924501  -0.3441340), wk =   0.0092593
        k(   17) = (   0.1666667   0.0962250   0.0000000), wk =   0.0370370
        k(   18) = (   0.1666667   0.0962250   0.1147113), wk =   0.0370370
        k(   19) = (   0.1666667   0.0962250   0.2294226), wk =   0.0370370
        k(   20) = (   0.1666667   0.0962250  -0.3441340), wk =   0.0370370
        k(   21) = (   0.1666667   0.1603751   0.0000000), wk =   0.0370370
        k(   22) = (   0.1666667   0.1603751   0.1147113), wk =   0.0370370
        k(   23) = (   0.1666667   0.1603751   0.2294226), wk =   0.0370370
        k(   24) = (   0.1666667   0.1603751  -0.3441340), wk =   0.0370370
        k(   25) = (   0.1666667  -0.0320750   0.0000000), wk =   0.0370370
        k(   26) = (   0.1666667  -0.0320750   0.1147113), wk =   0.0370370
        k(   27) = (   0.1666667  -0.0320750   0.2294226), wk =   0.0370370
        k(   28) = (   0.1666667  -0.0320750  -0.3441340), wk =   0.0370370
        k(   29) = (   0.3333333   0.1924501   0.0000000), wk =   0.0185185
        k(   30) = (   0.3333333   0.1924501   0.1147113), wk =   0.0370370
        k(   31) = (   0.3333333   0.1924501   0.2294226), wk =   0.0370370
        k(   32) = (   0.3333333   0.1924501  -0.3441340), wk =   0.0185185
        k(   33) = (   0.3333333   0.2566001   0.0000000), wk =   0.0370370
        k(   34) = (   0.3333333   0.2566001   0.1147113), wk =   0.0370370
        k(   35) = (   0.3333333   0.2566001   0.2294226), wk =   0.0370370
        k(   36) = (   0.3333333   0.2566001  -0.3441340), wk =   0.0370370
        k(   37) = (   0.3333333   0.3207501   0.0000000), wk =   0.0370370
        k(   38) = (   0.3333333   0.3207501   0.1147113), wk =   0.0370370
        k(   39) = (   0.3333333   0.3207501   0.2294226), wk =   0.0370370
        k(   40) = (   0.3333333   0.3207501  -0.3441340), wk =   0.0370370
        k(   41) = (   0.3333333  -0.0000000   0.0000000), wk =   0.0185185
        k(   42) = (   0.3333333  -0.0000000   0.1147113), wk =   0.0370370
        k(   43) = (   0.3333333  -0.0000000   0.2294226), wk =   0.0370370
        k(   44) = (   0.3333333  -0.0000000  -0.3441340), wk =   0.0185185
        k(   45) = (  -0.5000000  -0.2886751   0.0000000), wk =   0.0185185
        k(   46) = (  -0.5000000  -0.2886751   0.1147113), wk =   0.0370370
        k(   47) = (  -0.5000000  -0.2886751   0.2294226), wk =   0.0370370
        k(   48) = (  -0.5000000  -0.2886751  -0.3441340), wk =   0.0185185
        k(   49) = (  -0.5000000  -0.2245251   0.0000000), wk =   0.0370370
        k(   50) = (  -0.5000000  -0.2245251   0.1147113), wk =   0.0370370
        k(   51) = (  -0.5000000  -0.2245251   0.2294226), wk =   0.0370370
        k(   52) = (  -0.5000000  -0.2245251  -0.3441340), wk =   0.0370370
        k(   53) = (   0.0000000   0.0641500  -0.1147113), wk =   0.0185185
        k(   54) = (   0.0000000   0.0641500  -0.2294226), wk =   0.0185185
        k(   55) = (   0.0000000   0.1283001  -0.1147113), wk =   0.0185185
        k(   56) = (   0.0000000   0.1283001  -0.2294226), wk =   0.0185185
        k(   57) = (  -0.1666667   0.0962250  -0.1147113), wk =   0.0370370
        k(   58) = (  -0.1666667   0.0962250  -0.2294226), wk =   0.0370370
        k(   59) = (  -0.1666667   0.1603751  -0.1147113), wk =   0.0370370
        k(   60) = (  -0.1666667   0.1603751  -0.2294226), wk =   0.0370370
        k(   61) = (  -0.1666667  -0.0320750  -0.1147113), wk =   0.0370370
        k(   62) = (  -0.1666667  -0.0320750  -0.2294226), wk =   0.0370370
        k(   63) = (  -0.3333333   0.2566001  -0.1147113), wk =   0.0370370
        k(   64) = (  -0.3333333   0.2566001  -0.2294226), wk =   0.0370370
        k(   65) = (  -0.3333333   0.3207501  -0.1147113), wk =   0.0370370
        k(   66) = (  -0.3333333   0.3207501  -0.2294226), wk =   0.0370370
        k(   67) = (   0.5000000  -0.2245251  -0.1147113), wk =   0.0370370
        k(   68) = (   0.5000000  -0.2245251  -0.2294226), wk =   0.0370370

                       cryst. coord.
        k(    1) = (   0.0000000   0.0000000   0.0000000), wk =   0.0092593
        k(    2) = (   0.0000000   0.0000000   0.1666667), wk =   0.0185185
        k(    3) = (   0.0000000   0.0000000   0.3333333), wk =   0.0185185
        k(    4) = (   0.0000000   0.0000000  -0.5000000), wk =   0.0092593
        k(    5) = (   0.0000000   0.1666667   0.0000000), wk =   0.0185185
        k(    6) = (   0.0000000   0.1666667   0.1666667), wk =   0.0185185
        k(    7) = (   0.0000000   0.1666667   0.3333333), wk =   0.0185185
        k(    8) = (   0.0000000   0.1666667  -0.5000000), wk =   0.0185185
        k(    9) = (   0.0000000   0.3333333   0.0000000), wk =   0.0185185
        k(   10) = (   0.0000000   0.3333333   0.1666667), wk =   0.0185185
        k(   11) = (   0.0000000   0.3333333   0.3333333), wk =   0.0185185
        k(   12) = (   0.0000000   0.3333333  -0.5000000), wk =   0.0185185
        k(   13) = (   0.0000000  -0.5000000   0.0000000), wk =   0.0092593
        k(   14) = (   0.0000000  -0.5000000   0.1666667), wk =   0.0185185
        k(   15) = (   0.0000000  -0.5000000   0.3333333), wk =   0.0185185
        k(   16) = (   0.0000000  -0.5000000  -0.5000000), wk =   0.0092593
        k(   17) = (   0.1666667   0.0000000   0.0000000), wk =   0.0370370
        k(   18) = (   0.1666667   0.0000000   0.1666667), wk =   0.0370370
        k(   19) = (   0.1666667   0.0000000   0.3333333), wk =   0.0370370
        k(   20) = (   0.1666667   0.0000000  -0.5000000), wk =   0.0370370
        k(   21) = (   0.1666667   0.1666667   0.0000000), wk =   0.0370370
        k(   22) = (   0.1666667   0.1666667   0.1666667), wk =   0.0370370
        k(   23) = (   0.1666667   0.1666667   0.3333333), wk =   0.0370370
        k(   24) = (   0.1666667   0.1666667  -0.5000000), wk =   0.0370370
        k(   25) = (   0.1666667  -0.3333333   0.0000000), wk =   0.0370370
        k(   26) = (   0.1666667  -0.3333333   0.1666667), wk =   0.0370370
        k(   27) = (   0.1666667  -0.3333333   0.3333333), wk =   0.0370370
        k(   28) = (   0.1666667  -0.3333333  -0.5000000), wk =   0.0370370
        k(   29) = (   0.3333333   0.0000000   0.0000000), wk =   0.0185185
        k(   30) = (   0.3333333   0.0000000   0.1666667), wk =   0.0370370
        k(   31) = (   0.3333333   0.0000000   0.3333333), wk =   0.0370370
        k(   32) = (   0.3333333   0.0000000  -0.5000000), wk =   0.0185185
        k(   33) = (   0.3333333   0.1666667   0.0000000), wk =   0.0370370
        k(   34) = (   0.3333333   0.1666667   0.1666667), wk =   0.0370370
        k(   35) = (   0.3333333   0.1666667   0.3333333), wk =   0.0370370
        k(   36) = (   0.3333333   0.1666667  -0.5000000), wk =   0.0370370
        k(   37) = (   0.3333333   0.3333333   0.0000000), wk =   0.0370370
        k(   38) = (   0.3333333   0.3333333   0.1666667), wk =   0.0370370
        k(   39) = (   0.3333333   0.3333333   0.3333333), wk =   0.0370370
        k(   40) = (   0.3333333   0.3333333  -0.5000000), wk =   0.0370370
        k(   41) = (   0.3333333  -0.5000000   0.0000000), wk =   0.0185185
        k(   42) = (   0.3333333  -0.5000000   0.1666667), wk =   0.0370370
        k(   43) = (   0.3333333  -0.5000000   0.3333333), wk =   0.0370370
        k(   44) = (   0.3333333  -0.5000000  -0.5000000), wk =   0.0185185
        k(   45) = (  -0.5000000  -0.0000000   0.0000000), wk =   0.0185185
        k(   46) = (  -0.5000000  -0.0000000   0.1666667), wk =   0.0370370
        k(   47) = (  -0.5000000  -0.0000000   0.3333333), wk =   0.0370370
        k(   48) = (  -0.5000000  -0.0000000  -0.5000000), wk =   0.0185185
        k(   49) = (  -0.5000000   0.1666667   0.0000000), wk =   0.0370370
        k(   50) = (  -0.5000000   0.1666667   0.1666667), wk =   0.0370370
        k(   51) = (  -0.5000000   0.1666667   0.3333333), wk =   0.0370370
        k(   52) = (  -0.5000000   0.1666667  -0.5000000), wk =   0.0370370
        k(   53) = (   0.0000000   0.1666667  -0.1666667), wk =   0.0185185
        k(   54) = (   0.0000000   0.1666667  -0.3333333), wk =   0.0185185
        k(   55) = (   0.0000000   0.3333333  -0.1666667), wk =   0.0185185
        k(   56) = (   0.0000000   0.3333333  -0.3333333), wk =   0.0185185
        k(   57) = (  -0.1666667   0.5000000  -0.1666667), wk =   0.0370370
        k(   58) = (  -0.1666667   0.5000000  -0.3333333), wk =   0.0370370
        k(   59) = (  -0.1666667   0.6666667  -0.1666667), wk =   0.0370370
        k(   60) = (  -0.1666667   0.6666667  -0.3333333), wk =   0.0370370
        k(   61) = (  -0.1666667   0.1666667  -0.1666667), wk =   0.0370370
        k(   62) = (  -0.1666667   0.1666667  -0.3333333), wk =   0.0370370
        k(   63) = (  -0.3333333   1.1666667  -0.1666667), wk =   0.0370370
        k(   64) = (  -0.3333333   1.1666667  -0.3333333), wk =   0.0370370
        k(   65) = (  -0.3333333   1.3333333  -0.1666667), wk =   0.0370370
        k(   66) = (  -0.3333333   1.3333333  -0.3333333), wk =   0.0370370
        k(   67) = (   0.5000000  -1.3333333  -0.1666667), wk =   0.0370370
        k(   68) = (   0.5000000  -1.3333333  -0.3333333), wk =   0.0370370

     Check: negative core charge=   -0.000001

     Initial potential from superposition of free atoms

     starting charge     107.9776, renormalised to     108.0000
     Starting wfcs are   78 randomized atomic wfcs

     Self-consistent Calculation

     iteration #  1     ecut=    50.00 Ry     beta= 0.30
     Davidson diagonalization with overlap

     ethr =  1.00E-02,  avg # of iterations =  2.0

     total energy              =   -1084.23809355 Ry
     estimated scf accuracy    <       2.06492408 Ry

[...]

     total energy              =   -1084.66862641 Ry
     estimated scf accuracy    <       0.00000002 Ry

     iteration # 21     ecut=    50.00 Ry     beta= 0.30
     Davidson diagonalization with overlap

     ethr =  1.01E-11,  avg # of iterations =  6.1

     End of self-consistent calculation

          k = 0.0000 0.0000 0.0000 (  4991 PWs)   bands (ev):

    -9.8259  -9.2513  -9.2513  -8.6679  -8.5807  -8.5807   2.5986   2.5986
     2.9689   3.0474   3.0474   3.0935   3.0936   3.0984   3.2920   3.2920
     3.3927   3.3927   3.4048   3.4049   3.8877   3.8877   3.8886   3.8886
     4.5715   4.5715   4.6252   4.6253   4.7517   4.7517   4.9173   4.9173
     5.0020   5.0020   5.0701   5.0701   5.2829   5.5051   5.5051   6.1524
     6.1524   6.8997   6.8997   7.1413   7.1413   8.1867   8.1869   8.6463
     8.6463   8.8504   8.8504   9.4576   9.4579   9.5469

     occupation numbers
     1.0000   1.0000   1.0000   1.0000   1.0000   1.0000   1.0000   1.0000
     1.0000   1.0000   1.0000   1.0000   1.0000   1.0000   1.0000   1.0000
     1.0000   1.0000   1.0000   1.0000   1.0000   1.0000   1.0000   1.0000
     1.0000   1.0000   1.0000   1.0000   1.0000   1.0000   1.0000   1.0000
     1.0000   1.0000   1.0000   1.0000   1.0000   1.0000   1.0000   1.0000
     1.0000   1.0000   1.0000   1.0000   1.0000   1.0000   1.0000   1.0000
     1.0000   1.0000   1.0000   1.0000   1.0000   1.0000

[...]

          k =-0.5000-0.2887 0.0000 (  5016 PWs)   bands (ev):

[...]

          k =-0.3333 0.3208-0.2294 (  5001 PWs)   bands (ev):

[...]

          k = 0.5000-0.2245-0.2294 (  5017 PWs)   bands (ev):

    -8.8749  -8.8697  -8.8669  -8.6827  -8.6817  -8.6799   2.3466   2.3806
     2.3897   2.4460   2.5084   2.5604   3.2379   3.3524   3.3587   3.4210
     3.4232   3.4434   3.6210   3.6563   3.7011   3.7865   3.8200   3.8341
     4.7312   4.8266   4.8660   4.8916   4.8950   4.9144   5.0254   5.0602
     5.0860   5.1327   5.1723   5.2403   5.5860   5.5870   5.6857   5.7607
     5.8948   6.1098   6.4858   6.8124   6.9985   7.5028   7.6680   7.7014
     7.8385   7.9253   8.0760   8.5698   8.5788   8.5864

     occupation numbers
     1.0000   1.0000   1.0000   1.0000   1.0000   1.0000   1.0000   1.0000
     1.0000   1.0000   1.0000   1.0000   1.0000   1.0000   1.0000   1.0000
     1.0000   1.0000   1.0000   1.0000   1.0000   1.0000   1.0000   1.0000
     1.0000   1.0000   1.0000   1.0000   1.0000   1.0000   1.0000   1.0000
     1.0000   1.0000   1.0000   1.0000   1.0000   1.0000   1.0000   1.0000
     1.0000   1.0000   1.0000   1.0000   1.0000   1.0000   1.0000   1.0000
     1.0000   1.0000   1.0000   1.0000   1.0000   1.0000

     highest occupied level (ev):     9.5469

!    total energy              =   -1084.66862642 Ry
     estimated scf accuracy    <          4.0E-10 Ry

     The total energy is the sum of the following terms:
     one-electron contribution =    -409.80478653 Ry
     hartree contribution      =     336.87804652 Ry
     xc contribution           =    -329.82761982 Ry
     ewald contribution        =    -681.91426659 Ry

     convergence has been achieved in  21 iterations

     Forces acting on atoms (cartesian axes, Ry/au):

     atom    1 type  1   force =     0.00000000   -0.00001648   -0.09681943
     atom    2 type  1   force =     0.00000000    0.00001111   -0.09682017
     atom    3 type  2   force =     0.00000000    0.00000149    0.09681956
     atom    4 type  2   force =     0.00000000    0.00000035    0.09681968
     atom    5 type  1   force =     0.00000000   -0.00001502   -0.09681963
     atom    6 type  1   force =     0.00000000    0.00001553   -0.09681951
     atom    7 type  2   force =     0.00000000    0.00000071    0.09682002
     atom    8 type  2   force =     0.00000000   -0.00000059    0.09682014
     atom    9 type  1   force =     0.00000000   -0.00001161   -0.09682104
     atom   10 type  1   force =     0.00000000    0.00001611   -0.09681887
     atom   11 type  2   force =     0.00000000   -0.00000033    0.09681961
     atom   12 type  2   force =     0.00000000   -0.00000127    0.09681963
     The non-local contrib.  to forces
     atom    1 type  1   force =     0.00000000    0.00001075   -0.33938154
     atom    2 type  1   force =     0.00000000   -0.00001483   -0.33938207
     atom    3 type  2   force =     0.00000000    0.00017924   -0.21529854
     atom    4 type  2   force =     0.00000000   -0.00017531   -0.21529831
     atom    5 type  1   force =     0.00000000    0.00001206   -0.33938169
     atom    6 type  1   force =     0.00000000   -0.00001233   -0.33938151
     atom    7 type  2   force =     0.00000000    0.00017923   -0.21529782
     atom    8 type  2   force =     0.00000000   -0.00017891   -0.21529769
     atom    9 type  1   force =     0.00000000    0.00001493   -0.33938291
     atom   10 type  1   force =     0.00000000   -0.00001072   -0.33938141
     atom   11 type  2   force =     0.00000000    0.00017538   -0.21529876
     atom   12 type  2   force =     0.00000000   -0.00017952   -0.21529802
     The ionic contribution  to forces
     atom    1 type  1   force =    -0.00000000    0.00000001   -2.35338397
     atom    2 type  1   force =     0.00000000    0.00000001   -2.35338397
     atom    3 type  2   force =    -0.00000000    0.00000001    2.35338397
     atom    4 type  2   force =     0.00000000    0.00000000    2.35338397
     atom    5 type  1   force =    -0.00000001    0.00000001   -2.35338398
     atom    6 type  1   force =     0.00000001   -0.00000001   -2.35338398
     atom    7 type  2   force =    -0.00000001    0.00000001    2.35338398
     atom    8 type  2   force =     0.00000001   -0.00000001    2.35338398
     atom    9 type  1   force =    -0.00000000   -0.00000001   -2.35338397
     atom   10 type  1   force =     0.00000000   -0.00000001   -2.35338397
     atom   11 type  2   force =    -0.00000000   -0.00000000    2.35338397
     atom   12 type  2   force =     0.00000000   -0.00000001    2.35338397
     The local contribution  to forces
     atom    1 type  1   force =    -0.00000004   -0.00002509    2.56574072
     atom    2 type  1   force =     0.00000000    0.00003448    2.56574243
     atom    3 type  2   force =    -0.00000001   -0.00017456   -2.04255642
     atom    4 type  2   force =     0.00000000    0.00017388   -2.04255675
     atom    5 type  1   force =    -0.00000008   -0.00002777    2.56574173
     atom    6 type  1   force =     0.00000008    0.00002798    2.56574142
     atom    7 type  2   force =    -0.00000002   -0.00017653   -2.04255712
     atom    8 type  2   force =     0.00000002    0.00017470   -2.04255693
     atom    9 type  1   force =     0.00000000   -0.00003433    2.56574408
     atom   10 type  1   force =     0.00000004    0.00002512    2.56574011
     atom   11 type  2   force =     0.00000000   -0.00017408   -2.04255685
     atom   12 type  2   force =     0.00000001    0.00017554   -2.04255657
     The core correction contribution to forces
     atom    1 type  1   force =    -0.00000001    0.00000281    0.03020865
     atom    2 type  1   force =    -0.00000000   -0.00000287    0.03020861
     atom    3 type  2   force =     0.00000000   -0.00000204    0.00128841
     atom    4 type  2   force =    -0.00000000    0.00000199    0.00128841
     atom    5 type  1   force =    -0.00000001    0.00000279    0.03020861
     atom    6 type  1   force =     0.00000001   -0.00000280    0.03020860
     atom    7 type  2   force =     0.00000000   -0.00000205    0.00128840
     atom    8 type  2   force =    -0.00000000    0.00000204    0.00128840
     atom    9 type  1   force =     0.00000000    0.00000288    0.03020862
     atom   10 type  1   force =     0.00000001   -0.00000278    0.03020865
     atom   11 type  2   force =     0.00000000   -0.00000199    0.00128841
     atom   12 type  2   force =    -0.00000000    0.00000205    0.00128841
     The Hubbard contrib.    to forces
     atom    1 type  1   force =     0.00000000    0.00000000    0.00000000
     atom    2 type  1   force =     0.00000000    0.00000000    0.00000000
     atom    3 type  2   force =     0.00000000    0.00000000    0.00000000
     atom    4 type  2   force =     0.00000000    0.00000000    0.00000000
     atom    5 type  1   force =     0.00000000    0.00000000    0.00000000
     atom    6 type  1   force =     0.00000000    0.00000000    0.00000000
     atom    7 type  2   force =     0.00000000    0.00000000    0.00000000
     atom    8 type  2   force =     0.00000000    0.00000000    0.00000000
     atom    9 type  1   force =     0.00000000    0.00000000    0.00000000
     atom   10 type  1   force =     0.00000000    0.00000000    0.00000000
     atom   11 type  2   force =     0.00000000    0.00000000    0.00000000
     atom   12 type  2   force =     0.00000000    0.00000000    0.00000000
     The SCF correction term to forces
     atom    1 type  1   force =    -0.00000000   -0.00000498   -0.00000641
     atom    2 type  1   force =     0.00000000   -0.00000571   -0.00000829
     atom    3 type  2   force =    -0.00000000   -0.00000118   -0.00000099
     atom    4 type  2   force =     0.00000000   -0.00000024   -0.00000076
     atom    5 type  1   force =    -0.00000000   -0.00000214   -0.00000743
     atom    6 type  1   force =     0.00000000    0.00000266   -0.00000717
     atom    7 type  2   force =    -0.00000000    0.00000002   -0.00000055
     atom    8 type  2   force =     0.00000000    0.00000156   -0.00000075
     atom    9 type  1   force =    -0.00000000    0.00000490   -0.00000998
     atom   10 type  1   force =     0.00000000    0.00000448   -0.00000538
     atom   11 type  2   force =    -0.00000000    0.00000032   -0.00000030
     atom   12 type  2   force =     0.00000000    0.00000063   -0.00000128

     Total force =     0.335394     Total SCF correction =     0.000022

     General routines

     Parallel routines

   This run was terminated on:  17:10: 3  27Aug2025

   JOB DONE.