     Program PWSCF v.7.0 starts on 27Aug2025 at 19: 1:27

     K-points division:     npool     =      17

     Reading input from /home/jvc/QEspresso7.2/ZnO_database/scripts/cell131.in/ZnO-3.27-1.52-131.in
Warning: card &CELL ignored
Warning: card / ignored
Warning: card &FCP ignored
Warning: card / ignored
Warning: card &RISM ignored
Warning: card / ignored

     Current dimensions of program PWSCF are:
     Max number of different atomic species (ntypx) = 10
     Max number of k-points (npk) =  40000
     Max angular momentum in pseudopotentials (lmaxx) =  4
     file Zn.upf: wavefunction(s)  3D renormalized
     Found identity + ( -0.0000  0.3333  0.0000) symmetry
     This is a supercell, fractional translations are disabled
     Message from routine setup:
     using ibrav=0 with symmetry is DISCOURAGED, use correct ibrav instead

     Subspace diagonalization in iterative solution of the eigenvalue problem:
     a serial algorithm will be used

     Using Slab Decomposition

     bravais-lattice index     =            0
     lattice parameter (alat)  =       6.1789  a.u.
     unit-cell volume          =     930.0440 (a.u.)^3
     number of atoms/cell      =           12
     number of atomic types    =            2
     number of electrons       =       108.00
     number of Kohn-Sham states=           54
     kinetic-energy cutoff     =      50.0000  Ry
     charge density cutoff     =     400.0000  Ry
     scf convergence threshold =      1.0E-08
     mixing beta               =       0.3000
     number of iterations used =            8  plain     mixing
     Exchange-correlation= PBE
                           (   1   4   3   4   0   0   0)

     celldm(1)=   6.178854  celldm(2)=   0.000000  celldm(3)=   0.000000
     celldm(4)=   0.000000  celldm(5)=   0.000000  celldm(6)=   0.000000

     crystal axes: (cart. coord. in units of alat)
               a(1) = (   1.000000   0.000000   0.000000 )
               a(2) = (  -1.500000   2.598076   0.000000 )
               a(3) = (   0.000000   0.000000   1.517497 )

     reciprocal axes: (cart. coord. in units 2 pi/alat)
               b(1) = (  1.000000  0.577350 -0.000000 )
               b(2) = (  0.000000  0.384900  0.000000 )
               b(3) = (  0.000000 -0.000000  0.658980 )

     PseudoPot. # 1 for Zn read from file:
     /home/jvc/QEspresso7.2/ZnO_database/pseudos/Zn.upf
     MD5 check sum: 7f56cabf9682ed8c977c2f7d0c5985c5
     Pseudo is Ultrasoft + core correction, Zval = 12.0
     Generated using &quot;atomic&quot; code by A. Dal Corso  v.6.2.2
     Using radial grid of 1201 points,  6 beta functions with:
                l(1) =   0
                l(2) =   0
                l(3) =   1
                l(4) =   1
                l(5) =   2
                l(6) =   2
     Q(r) pseudized with 0 coefficients

     PseudoPot. # 2 for O  read from file:
     /home/jvc/QEspresso7.2/ZnO_database/pseudos/O.upf
     MD5 check sum: 91400c9766925bcf19f520983a725ff0
     Pseudo is Ultrasoft + core correction, Zval =  6.0
     Generated using &quot;atomic&quot; code by A. Dal Corso  v.6.3MaX
     Using radial grid of 1095 points,  4 beta functions with:
                l(1) =   0
                l(2) =   0
                l(3) =   1
                l(4) =   1
     Q(r) pseudized with 0 coefficients

     atomic species   valence    mass     pseudopotential
        Zn            12.00    65.38000     Zn( 1.00)
        O              6.00    15.99900     O ( 1.00)

      2 Sym. Ops. (no inversion) found

                                    s                        frac. trans.

      isym =  1     identity

 cryst.   s( 1) = (     1          0          0      )
                  (     0          1          0      )
                  (     0          0          1      )

 cart.    s( 1) = (  1.0000000  0.0000000  0.0000000 )
                  (  0.0000000  1.0000000  0.0000000 )
                  (  0.0000000  0.0000000  1.0000000 )

      isym =  2     inv. 180 deg rotation - cart. axis [1,0,0]

 cryst.   s( 2) = (    -1          0          0      )
                  (     3          1          0      )
                  (     0          0          1      )

 cart.    s( 2) = ( -1.0000000  0.0000000  0.0000000 )
                  (  0.0000000  1.0000000  0.0000000 )
                  (  0.0000000  0.0000000  1.0000000 )

   Cartesian axes

     site n.     atom                  positions (alat units)
         1           Zn  tau(   1) = (   0.5000000   0.2886751   0.7597099  )
         2           Zn  tau(   2) = (  -0.0000000   0.5773503   0.0009615  )
         3           O   tau(   3) = (   0.5000000   0.2886751   1.3349062  )
         4           O   tau(   4) = (  -0.0000000   0.5773503   0.5761578  )
         5           Zn  tau(   5) = (   0.0000000   1.1547005   0.7597099  )
         6           Zn  tau(   6) = (  -0.5000000   1.4433757   0.0009615  )
         7           O   tau(   7) = (   0.0000000   1.1547005   1.3349062  )
         8           O   tau(   8) = (  -0.5000000   1.4433757   0.5761578  )
         9           Zn  tau(   9) = (  -0.5000000   2.0207259   0.7597099  )
        10           Zn  tau(  10) = (  -1.0000000   2.3094011   0.0009615  )
        11           O   tau(  11) = (  -0.5000000   2.0207259   1.3349062  )
        12           O   tau(  12) = (  -1.0000000   2.3094011   0.5761578  )

   Crystallographic axes

     site n.     atom                  positions (cryst. coord.)
         1           Zn  tau(   1) = (  0.6666667  0.1111111  0.5006336  )
         2           Zn  tau(   2) = (  0.3333333  0.2222222  0.0006336  )
         3           O   tau(   3) = (  0.6666667  0.1111111  0.8796764  )
         4           O   tau(   4) = (  0.3333333  0.2222222  0.3796764  )
         5           Zn  tau(   5) = (  0.6666667  0.4444444  0.5006336  )
         6           Zn  tau(   6) = (  0.3333333  0.5555556  0.0006336  )
         7           O   tau(   7) = (  0.6666667  0.4444444  0.8796764  )
         8           O   tau(   8) = (  0.3333333  0.5555556  0.3796764  )
         9           Zn  tau(   9) = (  0.6666667  0.7777778  0.5006336  )
        10           Zn  tau(  10) = (  0.3333333  0.8888889  0.0006336  )
        11           O   tau(  11) = (  0.6666667  0.7777778  0.8796764  )
        12           O   tau(  12) = (  0.3333333  0.8888889  0.3796764  )

     number of k points=    68
                       cart. coord. in units 2pi/alat
        k(    1) = (   0.0000000   0.0000000   0.0000000), wk =   0.0092593
        k(    2) = (   0.0000000   0.0000000   0.1098300), wk =   0.0185185
        k(    3) = (   0.0000000   0.0000000   0.2196600), wk =   0.0185185
        k(    4) = (   0.0000000   0.0000000  -0.3294900), wk =   0.0092593
        k(    5) = (   0.0000000   0.0641500   0.0000000), wk =   0.0185185
        k(    6) = (   0.0000000   0.0641500   0.1098300), wk =   0.0185185
        k(    7) = (   0.0000000   0.0641500   0.2196600), wk =   0.0185185
        k(    8) = (   0.0000000   0.0641500  -0.3294900), wk =   0.0185185
        k(    9) = (   0.0000000   0.1283001   0.0000000), wk =   0.0185185
        k(   10) = (   0.0000000   0.1283001   0.1098300), wk =   0.0185185
        k(   11) = (   0.0000000   0.1283001   0.2196600), wk =   0.0185185
        k(   12) = (   0.0000000   0.1283001  -0.3294900), wk =   0.0185185
        k(   13) = (   0.0000000  -0.1924501   0.0000000), wk =   0.0092593
        k(   14) = (   0.0000000  -0.1924501   0.1098300), wk =   0.0185185
        k(   15) = (   0.0000000  -0.1924501   0.2196600), wk =   0.0185185
        k(   16) = (   0.0000000  -0.1924501  -0.3294900), wk =   0.0092593
        k(   17) = (   0.1666667   0.0962250   0.0000000), wk =   0.0370370
        k(   18) = (   0.1666667   0.0962250   0.1098300), wk =   0.0370370
        k(   19) = (   0.1666667   0.0962250   0.2196600), wk =   0.0370370
        k(   20) = (   0.1666667   0.0962250  -0.3294900), wk =   0.0370370
        k(   21) = (   0.1666667   0.1603751   0.0000000), wk =   0.0370370
        k(   22) = (   0.1666667   0.1603751   0.1098300), wk =   0.0370370
        k(   23) = (   0.1666667   0.1603751   0.2196600), wk =   0.0370370
        k(   24) = (   0.1666667   0.1603751  -0.3294900), wk =   0.0370370
        k(   25) = (   0.1666667  -0.0320750   0.0000000), wk =   0.0370370
        k(   26) = (   0.1666667  -0.0320750   0.1098300), wk =   0.0370370
        k(   27) = (   0.1666667  -0.0320750   0.2196600), wk =   0.0370370
        k(   28) = (   0.1666667  -0.0320750  -0.3294900), wk =   0.0370370
        k(   29) = (   0.3333333   0.1924501   0.0000000), wk =   0.0185185
        k(   30) = (   0.3333333   0.1924501   0.1098300), wk =   0.0370370
        k(   31) = (   0.3333333   0.1924501   0.2196600), wk =   0.0370370
        k(   32) = (   0.3333333   0.1924501  -0.3294900), wk =   0.0185185
        k(   33) = (   0.3333333   0.2566001   0.0000000), wk =   0.0370370
        k(   34) = (   0.3333333   0.2566001   0.1098300), wk =   0.0370370
        k(   35) = (   0.3333333   0.2566001   0.2196600), wk =   0.0370370
        k(   36) = (   0.3333333   0.2566001  -0.3294900), wk =   0.0370370
        k(   37) = (   0.3333333   0.3207501   0.0000000), wk =   0.0370370
        k(   38) = (   0.3333333   0.3207501   0.1098300), wk =   0.0370370
        k(   39) = (   0.3333333   0.3207501   0.2196600), wk =   0.0370370
        k(   40) = (   0.3333333   0.3207501  -0.3294900), wk =   0.0370370
        k(   41) = (   0.3333333   0.0000000   0.0000000), wk =   0.0185185
        k(   42) = (   0.3333333   0.0000000   0.1098300), wk =   0.0370370
        k(   43) = (   0.3333333   0.0000000   0.2196600), wk =   0.0370370
        k(   44) = (   0.3333333   0.0000000  -0.3294900), wk =   0.0185185
        k(   45) = (  -0.5000000  -0.2886751   0.0000000), wk =   0.0185185
        k(   46) = (  -0.5000000  -0.2886751   0.1098300), wk =   0.0370370
        k(   47) = (  -0.5000000  -0.2886751   0.2196600), wk =   0.0370370
        k(   48) = (  -0.5000000  -0.2886751  -0.3294900), wk =   0.0185185
        k(   49) = (  -0.5000000  -0.2245251   0.0000000), wk =   0.0370370
        k(   50) = (  -0.5000000  -0.2245251   0.1098300), wk =   0.0370370
        k(   51) = (  -0.5000000  -0.2245251   0.2196600), wk =   0.0370370
        k(   52) = (  -0.5000000  -0.2245251  -0.3294900), wk =   0.0370370
        k(   53) = (   0.0000000   0.0641500  -0.1098300), wk =   0.0185185
        k(   54) = (   0.0000000   0.0641500  -0.2196600), wk =   0.0185185
        k(   55) = (   0.0000000   0.1283001  -0.1098300), wk =   0.0185185
        k(   56) = (   0.0000000   0.1283001  -0.2196600), wk =   0.0185185
        k(   57) = (  -0.1666667   0.0962250  -0.1098300), wk =   0.0370370
        k(   58) = (  -0.1666667   0.0962250  -0.2196600), wk =   0.0370370
        k(   59) = (  -0.1666667   0.1603751  -0.1098300), wk =   0.0370370
        k(   60) = (  -0.1666667   0.1603751  -0.2196600), wk =   0.0370370
        k(   61) = (  -0.1666667  -0.0320750  -0.1098300), wk =   0.0370370
        k(   62) = (  -0.1666667  -0.0320750  -0.2196600), wk =   0.0370370
        k(   63) = (  -0.3333333   0.2566001  -0.1098300), wk =   0.0370370
        k(   64) = (  -0.3333333   0.2566001  -0.2196600), wk =   0.0370370
        k(   65) = (  -0.3333333   0.3207501  -0.1098300), wk =   0.0370370
        k(   66) = (  -0.3333333   0.3207501  -0.2196600), wk =   0.0370370
        k(   67) = (   0.5000000  -0.2245251  -0.1098300), wk =   0.0370370
        k(   68) = (   0.5000000  -0.2245251  -0.2196600), wk =   0.0370370

                       cryst. coord.
        k(    1) = (   0.0000000   0.0000000   0.0000000), wk =   0.0092593
        k(    2) = (   0.0000000   0.0000000   0.1666667), wk =   0.0185185
        k(    3) = (   0.0000000   0.0000000   0.3333333), wk =   0.0185185
        k(    4) = (   0.0000000   0.0000000  -0.5000000), wk =   0.0092593
        k(    5) = (   0.0000000   0.1666667   0.0000000), wk =   0.0185185
        k(    6) = (   0.0000000   0.1666667   0.1666667), wk =   0.0185185
        k(    7) = (   0.0000000   0.1666667   0.3333333), wk =   0.0185185
        k(    8) = (   0.0000000   0.1666667  -0.5000000), wk =   0.0185185
        k(    9) = (   0.0000000   0.3333333   0.0000000), wk =   0.0185185
        k(   10) = (   0.0000000   0.3333333   0.1666667), wk =   0.0185185
        k(   11) = (   0.0000000   0.3333333   0.3333333), wk =   0.0185185
        k(   12) = (   0.0000000   0.3333333  -0.5000000), wk =   0.0185185
        k(   13) = (   0.0000000  -0.5000000   0.0000000), wk =   0.0092593
        k(   14) = (   0.0000000  -0.5000000   0.1666667), wk =   0.0185185
        k(   15) = (   0.0000000  -0.5000000   0.3333333), wk =   0.0185185
        k(   16) = (   0.0000000  -0.5000000  -0.5000000), wk =   0.0092593
        k(   17) = (   0.1666667   0.0000000   0.0000000), wk =   0.0370370
        k(   18) = (   0.1666667   0.0000000   0.1666667), wk =   0.0370370
        k(   19) = (   0.1666667   0.0000000   0.3333333), wk =   0.0370370
        k(   20) = (   0.1666667   0.0000000  -0.5000000), wk =   0.0370370
        k(   21) = (   0.1666667   0.1666667   0.0000000), wk =   0.0370370
        k(   22) = (   0.1666667   0.1666667   0.1666667), wk =   0.0370370
        k(   23) = (   0.1666667   0.1666667   0.3333333), wk =   0.0370370
        k(   24) = (   0.1666667   0.1666667  -0.5000000), wk =   0.0370370
        k(   25) = (   0.1666667  -0.3333333   0.0000000), wk =   0.0370370
        k(   26) = (   0.1666667  -0.3333333   0.1666667), wk =   0.0370370
        k(   27) = (   0.1666667  -0.3333333   0.3333333), wk =   0.0370370
        k(   28) = (   0.1666667  -0.3333333  -0.5000000), wk =   0.0370370
        k(   29) = (   0.3333333   0.0000000   0.0000000), wk =   0.0185185
        k(   30) = (   0.3333333   0.0000000   0.1666667), wk =   0.0370370
        k(   31) = (   0.3333333   0.0000000   0.3333333), wk =   0.0370370
        k(   32) = (   0.3333333   0.0000000  -0.5000000), wk =   0.0185185
        k(   33) = (   0.3333333   0.1666667   0.0000000), wk =   0.0370370
        k(   34) = (   0.3333333   0.1666667   0.1666667), wk =   0.0370370
        k(   35) = (   0.3333333   0.1666667   0.3333333), wk =   0.0370370
        k(   36) = (   0.3333333   0.1666667  -0.5000000), wk =   0.0370370
        k(   37) = (   0.3333333   0.3333333   0.0000000), wk =   0.0370370
        k(   38) = (   0.3333333   0.3333333   0.1666667), wk =   0.0370370
        k(   39) = (   0.3333333   0.3333333   0.3333333), wk =   0.0370370
        k(   40) = (   0.3333333   0.3333333  -0.5000000), wk =   0.0370370
        k(   41) = (   0.3333333  -0.5000000   0.0000000), wk =   0.0185185
        k(   42) = (   0.3333333  -0.5000000   0.1666667), wk =   0.0370370
        k(   43) = (   0.3333333  -0.5000000   0.3333333), wk =   0.0370370
        k(   44) = (   0.3333333  -0.5000000  -0.5000000), wk =   0.0185185
        k(   45) = (  -0.5000000   0.0000000   0.0000000), wk =   0.0185185
        k(   46) = (  -0.5000000   0.0000000   0.1666667), wk =   0.0370370
        k(   47) = (  -0.5000000   0.0000000   0.3333333), wk =   0.0370370
        k(   48) = (  -0.5000000   0.0000000  -0.5000000), wk =   0.0185185
        k(   49) = (  -0.5000000   0.1666667   0.0000000), wk =   0.0370370
        k(   50) = (  -0.5000000   0.1666667   0.1666667), wk =   0.0370370
        k(   51) = (  -0.5000000   0.1666667   0.3333333), wk =   0.0370370
        k(   52) = (  -0.5000000   0.1666667  -0.5000000), wk =   0.0370370
        k(   53) = (   0.0000000   0.1666667  -0.1666667), wk =   0.0185185
        k(   54) = (   0.0000000   0.1666667  -0.3333333), wk =   0.0185185
        k(   55) = (   0.0000000   0.3333333  -0.1666667), wk =   0.0185185
        k(   56) = (   0.0000000   0.3333333  -0.3333333), wk =   0.0185185
        k(   57) = (  -0.1666667   0.5000000  -0.1666667), wk =   0.0370370
        k(   58) = (  -0.1666667   0.5000000  -0.3333333), wk =   0.0370370
        k(   59) = (  -0.1666667   0.6666667  -0.1666667), wk =   0.0370370
        k(   60) = (  -0.1666667   0.6666667  -0.3333333), wk =   0.0370370
        k(   61) = (  -0.1666667   0.1666667  -0.1666667), wk =   0.0370370
        k(   62) = (  -0.1666667   0.1666667  -0.3333333), wk =   0.0370370
        k(   63) = (  -0.3333333   1.1666667  -0.1666667), wk =   0.0370370
        k(   64) = (  -0.3333333   1.1666667  -0.3333333), wk =   0.0370370
        k(   65) = (  -0.3333333   1.3333333  -0.1666667), wk =   0.0370370
        k(   66) = (  -0.3333333   1.3333333  -0.3333333), wk =   0.0370370
        k(   67) = (   0.5000000  -1.3333333  -0.1666667), wk =   0.0370370
        k(   68) = (   0.5000000  -1.3333333  -0.3333333), wk =   0.0370370

     Check: negative core charge=   -0.000002

     Initial potential from superposition of free atoms

     starting charge     107.9776, renormalised to     108.0000
     Starting wfcs are   78 randomized atomic wfcs

     Self-consistent Calculation

     iteration #  1     ecut=    50.00 Ry     beta= 0.30
     Davidson diagonalization with overlap

     ethr =  1.00E-02,  avg # of iterations =  2.0

     total energy              =   -1084.40966034 Ry
     estimated scf accuracy    <       2.06339333 Ry

[...]

     total energy              =   -1084.86546535 Ry
     estimated scf accuracy    <       0.00000026 Ry

     iteration # 27     ecut=    50.00 Ry     beta= 0.30
     Davidson diagonalization with overlap

     ethr =  6.22E-11,  avg # of iterations =  6.3

     End of self-consistent calculation

          k = 0.0000 0.0000 0.0000 (  5543 PWs)   bands (ev):

   -10.5774 -10.0913 -10.0913  -9.6987  -9.5851  -9.5850   1.6293   1.6293
     1.9790   1.9792   1.9925   2.0233   2.0233   2.0239   2.1710   2.1710
     2.2213   2.2215   2.3122   2.3122   2.6523   2.6523   2.7192   2.7192
     3.1632   3.1632   3.2161   3.2161   3.3071   3.3071   3.4893   3.4893
     3.5325   3.5325   3.5526   3.5526   3.7263   3.9319   3.9319   4.6193
     4.6193   5.5265   5.5265   5.6478   5.6478   6.7715   6.7718   6.9929
     6.9929   7.1987   7.1987   7.7670   7.7673   7.7970

     occupation numbers
     1.0000   1.0000   1.0000   1.0000   1.0000   1.0000   1.0000   1.0000
     1.0000   1.0000   1.0000   1.0000   1.0000   1.0000   1.0000   1.0000
     1.0000   1.0000   1.0000   1.0000   1.0000   1.0000   1.0000   1.0000
     1.0000   1.0000   1.0000   1.0000   1.0000   1.0000   1.0000   1.0000
     1.0000   1.0000   1.0000   1.0000   1.0000   1.0000   1.0000   1.0000
     1.0000   1.0000   1.0000   1.0000   1.0000   1.0000   1.0000   1.0000
     1.0000   1.0000   1.0000   1.0000   1.0000   1.0000

[...]

          k =-0.5000-0.2887 0.0000 (  5590 PWs)   bands (ev):

[...]

          k =-0.3333 0.3208-0.2197 (  5569 PWs)   bands (ev):

[...]

          k = 0.5000-0.2245-0.2197 (  5568 PWs)   bands (ev):

    -9.7961  -9.7922  -9.7900  -9.6517  -9.6510  -9.6499   1.4858   1.5269
     1.5475   1.6064   1.6458   1.7024   2.1781   2.2562   2.2917   2.3049
     2.3737   2.4042   2.5012   2.5226   2.5478   2.6116   2.6294   2.6381
     3.2913   3.3644   3.3906   3.4100   3.4149   3.4307   3.5146   3.5392
     3.5565   3.6058   3.6415   3.6981   4.0301   4.0455   4.1627   4.2130
     4.3343   4.5470   5.0892   5.4346   5.6335   5.9207   6.0089   6.0504
     6.2101   6.3670   6.5211   6.8221   6.8363   6.8478

     occupation numbers
     1.0000   1.0000   1.0000   1.0000   1.0000   1.0000   1.0000   1.0000
     1.0000   1.0000   1.0000   1.0000   1.0000   1.0000   1.0000   1.0000
     1.0000   1.0000   1.0000   1.0000   1.0000   1.0000   1.0000   1.0000
     1.0000   1.0000   1.0000   1.0000   1.0000   1.0000   1.0000   1.0000
     1.0000   1.0000   1.0000   1.0000   1.0000   1.0000   1.0000   1.0000
     1.0000   1.0000   1.0000   1.0000   1.0000   1.0000   1.0000   1.0000
     1.0000   1.0000   1.0000   1.0000   1.0000   1.0000

     highest occupied level (ev):     7.7970

!    total energy              =   -1084.86546539 Ry
     estimated scf accuracy    <          9.4E-10 Ry

     The total energy is the sum of the following terms:
     one-electron contribution =    -443.92327411 Ry
     hartree contribution      =     348.22131958 Ry
     xc contribution           =    -329.05217039 Ry
     ewald contribution        =    -660.11134048 Ry

     convergence has been achieved in  27 iterations

     Forces acting on atoms (cartesian axes, Ry/au):

     atom    1 type  1   force =     0.00000000   -0.00000969   -0.03271889
     atom    2 type  1   force =     0.00000000    0.00001221   -0.03272059
     atom    3 type  2   force =     0.00000000    0.00000005    0.03272004
     atom    4 type  2   force =     0.00000000   -0.00000219    0.03272086
     atom    5 type  1   force =     0.00000000   -0.00001266   -0.03272419
     atom    6 type  1   force =     0.00000000    0.00000986   -0.03272114
     atom    7 type  2   force =     0.00000000    0.00000119    0.03272047
     atom    8 type  2   force =     0.00000000   -0.00000072    0.03272042
     atom    9 type  1   force =     0.00000000   -0.00001088   -0.03272049
     atom   10 type  1   force =     0.00000000    0.00001296   -0.03271801
     atom   11 type  2   force =     0.00000000    0.00000135    0.03272039
     atom   12 type  2   force =     0.00000000   -0.00000148    0.03272115
     The non-local contrib.  to forces
     atom    1 type  1   force =     0.00000000    0.00001294   -0.18996466
     atom    2 type  1   force =     0.00000000   -0.00000860   -0.18996459
     atom    3 type  2   force =     0.00000000    0.00020132   -0.13584002
     atom    4 type  2   force =     0.00000000   -0.00020446   -0.13584143
     atom    5 type  1   force =     0.00000000    0.00001010   -0.18996485
     atom    6 type  1   force =     0.00000000   -0.00001135   -0.18996532
     atom    7 type  2   force =     0.00000000    0.00020168   -0.13584125
     atom    8 type  2   force =     0.00000000   -0.00020108   -0.13584113
     atom    9 type  1   force =     0.00000000    0.00001086   -0.18996395
     atom   10 type  1   force =     0.00000000   -0.00001221   -0.18996553
     atom   11 type  2   force =     0.00000000    0.00020348   -0.13584077
     atom   12 type  2   force =     0.00000000   -0.00020232   -0.13584003
     The ionic contribution  to forces
     atom    1 type  1   force =    -0.00000000    0.00000001   -1.26205916
     atom    2 type  1   force =     0.00000000    0.00000001   -1.26205916
     atom    3 type  2   force =    -0.00000000    0.00000001    1.26205916
     atom    4 type  2   force =     0.00000000    0.00000000    1.26205916
     atom    5 type  1   force =    -0.00000001    0.00000001   -1.26205916
     atom    6 type  1   force =     0.00000001   -0.00000001   -1.26205916
     atom    7 type  2   force =    -0.00000001    0.00000000    1.26205916
     atom    8 type  2   force =     0.00000001   -0.00000000    1.26205916
     atom    9 type  1   force =    -0.00000000   -0.00000001   -1.26205916
     atom   10 type  1   force =     0.00000000   -0.00000001   -1.26205916
     atom   11 type  2   force =    -0.00000000   -0.00000000    1.26205916
     atom   12 type  2   force =     0.00000000   -0.00000001    1.26205916
     The local contribution  to forces
     atom    1 type  1   force =    -0.00000004   -0.00002954    1.40417275
     atom    2 type  1   force =     0.00000000    0.00002251    1.40417582
     atom    3 type  2   force =    -0.00000001   -0.00019992   -1.09444412
     atom    4 type  2   force =     0.00000000    0.00019963   -1.09444851
     atom    5 type  1   force =    -0.00000009   -0.00002583    1.40417575
     atom    6 type  1   force =     0.00000009    0.00002752    1.40417544
     atom    7 type  2   force =    -0.00000002   -0.00019915   -1.09444379
     atom    8 type  2   force =     0.00000002    0.00020040   -1.09444701
     atom    9 type  1   force =     0.00000000   -0.00002609    1.40417354
     atom   10 type  1   force =     0.00000004    0.00002776    1.40417540
     atom   11 type  2   force =     0.00000000   -0.00020175   -1.09444396
     atom   12 type  2   force =     0.00000001    0.00020006   -1.09444860
     The core correction contribution to forces
     atom    1 type  1   force =    -0.00000001    0.00000453    0.01512557
     atom    2 type  1   force =    -0.00000000   -0.00000451    0.01512552
     atom    3 type  2   force =     0.00000000   -0.00000229    0.00095138
     atom    4 type  2   force =    -0.00000000    0.00000232    0.00095140
     atom    5 type  1   force =    -0.00000001    0.00000461    0.01512560
     atom    6 type  1   force =     0.00000001   -0.00000459    0.01512560
     atom    7 type  2   force =     0.00000000   -0.00000229    0.00095140
     atom    8 type  2   force =    -0.00000000    0.00000229    0.00095140
     atom    9 type  1   force =     0.00000000    0.00000451    0.01512555
     atom   10 type  1   force =     0.00000001   -0.00000462    0.01512550
     atom   11 type  2   force =     0.00000000   -0.00000232    0.00095140
     atom   12 type  2   force =    -0.00000000    0.00000230    0.00095138
     The Hubbard contrib.    to forces
     atom    1 type  1   force =     0.00000000    0.00000000    0.00000000
     atom    2 type  1   force =     0.00000000    0.00000000    0.00000000
     atom    3 type  2   force =     0.00000000    0.00000000    0.00000000
     atom    4 type  2   force =     0.00000000    0.00000000    0.00000000
     atom    5 type  1   force =     0.00000000    0.00000000    0.00000000
     atom    6 type  1   force =     0.00000000    0.00000000    0.00000000
     atom    7 type  2   force =     0.00000000    0.00000000    0.00000000
     atom    8 type  2   force =     0.00000000    0.00000000    0.00000000
     atom    9 type  1   force =     0.00000000    0.00000000    0.00000000
     atom   10 type  1   force =     0.00000000    0.00000000    0.00000000
     atom   11 type  2   force =     0.00000000    0.00000000    0.00000000
     atom   12 type  2   force =     0.00000000    0.00000000    0.00000000
     The SCF correction term to forces
     atom    1 type  1   force =    -0.00000000    0.00000259    0.00001108
     atom    2 type  1   force =     0.00000000    0.00000302    0.00000628
     atom    3 type  2   force =    -0.00000000    0.00000115   -0.00000189
     atom    4 type  2   force =     0.00000000    0.00000053    0.00000472
     atom    5 type  1   force =    -0.00000000   -0.00000133    0.00000295
     atom    6 type  1   force =     0.00000000   -0.00000150    0.00000677
     atom    7 type  2   force =    -0.00000000    0.00000116   -0.00000059
     atom    8 type  2   force =     0.00000000   -0.00000211    0.00000246
     atom    9 type  1   force =    -0.00000000    0.00000006    0.00000801
     atom   10 type  1   force =     0.00000000    0.00000225    0.00001024
     atom   11 type  2   force =    -0.00000000    0.00000216   -0.00000097
     atom   12 type  2   force =     0.00000000   -0.00000130    0.00000371

     Total force =     0.113347     Total SCF correction =     0.000022

     General routines

     Parallel routines

   This run was terminated on:  19:10:17  27Aug2025

   JOB DONE.