     Program PWSCF v.7.0 starts on 27Aug2025 at 12: 5:34

     K-points division:     npool     =      17

     Reading input from /home/jvc/QEspresso7.2/ZnO_database/scripts/cell131.in/ZnO-2.94-1.45-131.in
Warning: card &CELL ignored
Warning: card / ignored
Warning: card &FCP ignored
Warning: card / ignored
Warning: card &RISM ignored
Warning: card / ignored

     Current dimensions of program PWSCF are:
     Max number of different atomic species (ntypx) = 10
     Max number of k-points (npk) =  40000
     Max angular momentum in pseudopotentials (lmaxx) =  4
     file Zn.upf: wavefunction(s)  3D renormalized
     Found identity + (  0.0000  0.3333  0.0000) symmetry
     This is a supercell, fractional translations are disabled
     Message from routine setup:
     using ibrav=0 with symmetry is DISCOURAGED, use correct ibrav instead

     Subspace diagonalization in iterative solution of the eigenvalue problem:
     a serial algorithm will be used

     Using Slab Decomposition

     bravais-lattice index     =            0
     lattice parameter (alat)  =       5.5610  a.u.
     unit-cell volume          =     649.1509 (a.u.)^3
     number of atoms/cell      =           12
     number of atomic types    =            2
     number of electrons       =       108.00
     number of Kohn-Sham states=           54
     kinetic-energy cutoff     =      50.0000  Ry
     charge density cutoff     =     400.0000  Ry
     scf convergence threshold =      1.0E-08
     mixing beta               =       0.3000
     number of iterations used =            8  plain     mixing
     Exchange-correlation= PBE
                           (   1   4   3   4   0   0   0)

     celldm(1)=   5.560969  celldm(2)=   0.000000  celldm(3)=   0.000000
     celldm(4)=   0.000000  celldm(5)=   0.000000  celldm(6)=   0.000000

     crystal axes: (cart. coord. in units of alat)
               a(1) = (   1.000000   0.000000   0.000000 )
               a(2) = (  -1.500000   2.598076   0.000000 )
               a(3) = (   0.000000   0.000000   1.452923 )

     reciprocal axes: (cart. coord. in units 2 pi/alat)
               b(1) = (  1.000000  0.577350 -0.000000 )
               b(2) = (  0.000000  0.384900  0.000000 )
               b(3) = (  0.000000 -0.000000  0.688268 )

     PseudoPot. # 1 for Zn read from file:
     /home/jvc/QEspresso7.2/ZnO_database/pseudos/Zn.upf
     MD5 check sum: 7f56cabf9682ed8c977c2f7d0c5985c5
     Pseudo is Ultrasoft + core correction, Zval = 12.0
     Generated using &quot;atomic&quot; code by A. Dal Corso  v.6.2.2
     Using radial grid of 1201 points,  6 beta functions with:
                l(1) =   0
                l(2) =   0
                l(3) =   1
                l(4) =   1
                l(5) =   2
                l(6) =   2
     Q(r) pseudized with 0 coefficients

     PseudoPot. # 2 for O  read from file:
     /home/jvc/QEspresso7.2/ZnO_database/pseudos/O.upf
     MD5 check sum: 91400c9766925bcf19f520983a725ff0
     Pseudo is Ultrasoft + core correction, Zval =  6.0
     Generated using &quot;atomic&quot; code by A. Dal Corso  v.6.3MaX
     Using radial grid of 1095 points,  4 beta functions with:
                l(1) =   0
                l(2) =   0
                l(3) =   1
                l(4) =   1
     Q(r) pseudized with 0 coefficients

     atomic species   valence    mass     pseudopotential
        Zn            12.00    65.38000     Zn( 1.00)
        O              6.00    15.99900     O ( 1.00)

      2 Sym. Ops. (no inversion) found

                                    s                        frac. trans.

      isym =  1     identity

 cryst.   s( 1) = (     1          0          0      )
                  (     0          1          0      )
                  (     0          0          1      )

 cart.    s( 1) = (  1.0000000  0.0000000  0.0000000 )
                  (  0.0000000  1.0000000  0.0000000 )
                  (  0.0000000  0.0000000  1.0000000 )

      isym =  2     inv. 180 deg rotation - cart. axis [1,0,0]

 cryst.   s( 2) = (    -1          0          0      )
                  (     3          1          0      )
                  (     0          0          1      )

 cart.    s( 2) = ( -1.0000000 -0.0000000  0.0000000 )
                  (  0.0000000  1.0000000  0.0000000 )
                  (  0.0000000  0.0000000  1.0000000 )

   Cartesian axes

     site n.     atom                  positions (alat units)
         1           Zn  tau(   1) = (   0.5000000   0.2886751   0.7273818  )
         2           Zn  tau(   2) = (  -0.0000000   0.5773503   0.0009206  )
         3           O   tau(   3) = (   0.5000000   0.2886751   1.2781017  )
         4           O   tau(   4) = (  -0.0000000   0.5773503   0.5516404  )
         5           Zn  tau(   5) = (   0.0000000   1.1547005   0.7273818  )
         6           Zn  tau(   6) = (  -0.5000000   1.4433757   0.0009206  )
         7           O   tau(   7) = (   0.0000000   1.1547005   1.2781017  )
         8           O   tau(   8) = (  -0.5000000   1.4433757   0.5516404  )
         9           Zn  tau(   9) = (  -0.5000000   2.0207259   0.7273818  )
        10           Zn  tau(  10) = (  -1.0000000   2.3094011   0.0009206  )
        11           O   tau(  11) = (  -0.5000000   2.0207259   1.2781017  )
        12           O   tau(  12) = (  -1.0000000   2.3094011   0.5516404  )

   Crystallographic axes

     site n.     atom                  positions (cryst. coord.)
         1           Zn  tau(   1) = (  0.6666667  0.1111111  0.5006336  )
         2           Zn  tau(   2) = (  0.3333333  0.2222222  0.0006336  )
         3           O   tau(   3) = (  0.6666667  0.1111111  0.8796764  )
         4           O   tau(   4) = (  0.3333333  0.2222222  0.3796764  )
         5           Zn  tau(   5) = (  0.6666667  0.4444444  0.5006336  )
         6           Zn  tau(   6) = (  0.3333333  0.5555556  0.0006336  )
         7           O   tau(   7) = (  0.6666667  0.4444444  0.8796764  )
         8           O   tau(   8) = (  0.3333333  0.5555556  0.3796764  )
         9           Zn  tau(   9) = (  0.6666667  0.7777778  0.5006336  )
        10           Zn  tau(  10) = (  0.3333333  0.8888889  0.0006336  )
        11           O   tau(  11) = (  0.6666667  0.7777778  0.8796764  )
        12           O   tau(  12) = (  0.3333333  0.8888889  0.3796764  )

     number of k points=    68
                       cart. coord. in units 2pi/alat
        k(    1) = (   0.0000000   0.0000000   0.0000000), wk =   0.0092593
        k(    2) = (   0.0000000   0.0000000   0.1147113), wk =   0.0185185
        k(    3) = (   0.0000000   0.0000000   0.2294226), wk =   0.0185185
        k(    4) = (   0.0000000   0.0000000  -0.3441340), wk =   0.0092593
        k(    5) = (   0.0000000   0.0641500   0.0000000), wk =   0.0185185
        k(    6) = (   0.0000000   0.0641500   0.1147113), wk =   0.0185185
        k(    7) = (   0.0000000   0.0641500   0.2294226), wk =   0.0185185
        k(    8) = (   0.0000000   0.0641500  -0.3441340), wk =   0.0185185
        k(    9) = (   0.0000000   0.1283001   0.0000000), wk =   0.0185185
        k(   10) = (   0.0000000   0.1283001   0.1147113), wk =   0.0185185
        k(   11) = (   0.0000000   0.1283001   0.2294226), wk =   0.0185185
        k(   12) = (   0.0000000   0.1283001  -0.3441340), wk =   0.0185185
        k(   13) = (   0.0000000  -0.1924501   0.0000000), wk =   0.0092593
        k(   14) = (   0.0000000  -0.1924501   0.1147113), wk =   0.0185185
        k(   15) = (   0.0000000  -0.1924501   0.2294226), wk =   0.0185185
        k(   16) = (   0.0000000  -0.1924501  -0.3441340), wk =   0.0092593
        k(   17) = (   0.1666667   0.0962250   0.0000000), wk =   0.0370370
        k(   18) = (   0.1666667   0.0962250   0.1147113), wk =   0.0370370
        k(   19) = (   0.1666667   0.0962250   0.2294226), wk =   0.0370370
        k(   20) = (   0.1666667   0.0962250  -0.3441340), wk =   0.0370370
        k(   21) = (   0.1666667   0.1603751   0.0000000), wk =   0.0370370
        k(   22) = (   0.1666667   0.1603751   0.1147113), wk =   0.0370370
        k(   23) = (   0.1666667   0.1603751   0.2294226), wk =   0.0370370
        k(   24) = (   0.1666667   0.1603751  -0.3441340), wk =   0.0370370
        k(   25) = (   0.1666667  -0.0320750   0.0000000), wk =   0.0370370
        k(   26) = (   0.1666667  -0.0320750   0.1147113), wk =   0.0370370
        k(   27) = (   0.1666667  -0.0320750   0.2294226), wk =   0.0370370
        k(   28) = (   0.1666667  -0.0320750  -0.3441340), wk =   0.0370370
        k(   29) = (   0.3333333   0.1924501   0.0000000), wk =   0.0185185
        k(   30) = (   0.3333333   0.1924501   0.1147113), wk =   0.0370370
        k(   31) = (   0.3333333   0.1924501   0.2294226), wk =   0.0370370
        k(   32) = (   0.3333333   0.1924501  -0.3441340), wk =   0.0185185
        k(   33) = (   0.3333333   0.2566001   0.0000000), wk =   0.0370370
        k(   34) = (   0.3333333   0.2566001   0.1147113), wk =   0.0370370
        k(   35) = (   0.3333333   0.2566001   0.2294226), wk =   0.0370370
        k(   36) = (   0.3333333   0.2566001  -0.3441340), wk =   0.0370370
        k(   37) = (   0.3333333   0.3207501   0.0000000), wk =   0.0370370
        k(   38) = (   0.3333333   0.3207501   0.1147113), wk =   0.0370370
        k(   39) = (   0.3333333   0.3207501   0.2294226), wk =   0.0370370
        k(   40) = (   0.3333333   0.3207501  -0.3441340), wk =   0.0370370
        k(   41) = (   0.3333333   0.0000000   0.0000000), wk =   0.0185185
        k(   42) = (   0.3333333   0.0000000   0.1147113), wk =   0.0370370
        k(   43) = (   0.3333333   0.0000000   0.2294226), wk =   0.0370370
        k(   44) = (   0.3333333   0.0000000  -0.3441340), wk =   0.0185185
        k(   45) = (  -0.5000000  -0.2886751   0.0000000), wk =   0.0185185
        k(   46) = (  -0.5000000  -0.2886751   0.1147113), wk =   0.0370370
        k(   47) = (  -0.5000000  -0.2886751   0.2294226), wk =   0.0370370
        k(   48) = (  -0.5000000  -0.2886751  -0.3441340), wk =   0.0185185
        k(   49) = (  -0.5000000  -0.2245251   0.0000000), wk =   0.0370370
        k(   50) = (  -0.5000000  -0.2245251   0.1147113), wk =   0.0370370
        k(   51) = (  -0.5000000  -0.2245251   0.2294226), wk =   0.0370370
        k(   52) = (  -0.5000000  -0.2245251  -0.3441340), wk =   0.0370370
        k(   53) = (   0.0000000   0.0641500  -0.1147113), wk =   0.0185185
        k(   54) = (   0.0000000   0.0641500  -0.2294226), wk =   0.0185185
        k(   55) = (   0.0000000   0.1283001  -0.1147113), wk =   0.0185185
        k(   56) = (   0.0000000   0.1283001  -0.2294226), wk =   0.0185185
        k(   57) = (  -0.1666667   0.0962250  -0.1147113), wk =   0.0370370
        k(   58) = (  -0.1666667   0.0962250  -0.2294226), wk =   0.0370370
        k(   59) = (  -0.1666667   0.1603751  -0.1147113), wk =   0.0370370
        k(   60) = (  -0.1666667   0.1603751  -0.2294226), wk =   0.0370370
        k(   61) = (  -0.1666667  -0.0320750  -0.1147113), wk =   0.0370370
        k(   62) = (  -0.1666667  -0.0320750  -0.2294226), wk =   0.0370370
        k(   63) = (  -0.3333333   0.2566001  -0.1147113), wk =   0.0370370
        k(   64) = (  -0.3333333   0.2566001  -0.2294226), wk =   0.0370370
        k(   65) = (  -0.3333333   0.3207501  -0.1147113), wk =   0.0370370
        k(   66) = (  -0.3333333   0.3207501  -0.2294226), wk =   0.0370370
        k(   67) = (   0.5000000  -0.2245251  -0.1147113), wk =   0.0370370
        k(   68) = (   0.5000000  -0.2245251  -0.2294226), wk =   0.0370370

                       cryst. coord.
        k(    1) = (   0.0000000   0.0000000   0.0000000), wk =   0.0092593
        k(    2) = (   0.0000000   0.0000000   0.1666667), wk =   0.0185185
        k(    3) = (   0.0000000   0.0000000   0.3333333), wk =   0.0185185
        k(    4) = (   0.0000000   0.0000000  -0.5000000), wk =   0.0092593
        k(    5) = (   0.0000000   0.1666667   0.0000000), wk =   0.0185185
        k(    6) = (   0.0000000   0.1666667   0.1666667), wk =   0.0185185
        k(    7) = (   0.0000000   0.1666667   0.3333333), wk =   0.0185185
        k(    8) = (   0.0000000   0.1666667  -0.5000000), wk =   0.0185185
        k(    9) = (   0.0000000   0.3333333   0.0000000), wk =   0.0185185
        k(   10) = (   0.0000000   0.3333333   0.1666667), wk =   0.0185185
        k(   11) = (   0.0000000   0.3333333   0.3333333), wk =   0.0185185
        k(   12) = (   0.0000000   0.3333333  -0.5000000), wk =   0.0185185
        k(   13) = (   0.0000000  -0.5000000   0.0000000), wk =   0.0092593
        k(   14) = (   0.0000000  -0.5000000   0.1666667), wk =   0.0185185
        k(   15) = (   0.0000000  -0.5000000   0.3333333), wk =   0.0185185
        k(   16) = (   0.0000000  -0.5000000  -0.5000000), wk =   0.0092593
        k(   17) = (   0.1666667   0.0000000   0.0000000), wk =   0.0370370
        k(   18) = (   0.1666667   0.0000000   0.1666667), wk =   0.0370370
        k(   19) = (   0.1666667   0.0000000   0.3333333), wk =   0.0370370
        k(   20) = (   0.1666667   0.0000000  -0.5000000), wk =   0.0370370
        k(   21) = (   0.1666667   0.1666667   0.0000000), wk =   0.0370370
        k(   22) = (   0.1666667   0.1666667   0.1666667), wk =   0.0370370
        k(   23) = (   0.1666667   0.1666667   0.3333333), wk =   0.0370370
        k(   24) = (   0.1666667   0.1666667  -0.5000000), wk =   0.0370370
        k(   25) = (   0.1666667  -0.3333333   0.0000000), wk =   0.0370370
        k(   26) = (   0.1666667  -0.3333333   0.1666667), wk =   0.0370370
        k(   27) = (   0.1666667  -0.3333333   0.3333333), wk =   0.0370370
        k(   28) = (   0.1666667  -0.3333333  -0.5000000), wk =   0.0370370
        k(   29) = (   0.3333333   0.0000000   0.0000000), wk =   0.0185185
        k(   30) = (   0.3333333   0.0000000   0.1666667), wk =   0.0370370
        k(   31) = (   0.3333333   0.0000000   0.3333333), wk =   0.0370370
        k(   32) = (   0.3333333   0.0000000  -0.5000000), wk =   0.0185185
        k(   33) = (   0.3333333   0.1666667   0.0000000), wk =   0.0370370
        k(   34) = (   0.3333333   0.1666667   0.1666667), wk =   0.0370370
        k(   35) = (   0.3333333   0.1666667   0.3333333), wk =   0.0370370
        k(   36) = (   0.3333333   0.1666667  -0.5000000), wk =   0.0370370
        k(   37) = (   0.3333333   0.3333333   0.0000000), wk =   0.0370370
        k(   38) = (   0.3333333   0.3333333   0.1666667), wk =   0.0370370
        k(   39) = (   0.3333333   0.3333333   0.3333333), wk =   0.0370370
        k(   40) = (   0.3333333   0.3333333  -0.5000000), wk =   0.0370370
        k(   41) = (   0.3333333  -0.5000000   0.0000000), wk =   0.0185185
        k(   42) = (   0.3333333  -0.5000000   0.1666667), wk =   0.0370370
        k(   43) = (   0.3333333  -0.5000000   0.3333333), wk =   0.0370370
        k(   44) = (   0.3333333  -0.5000000  -0.5000000), wk =   0.0185185
        k(   45) = (  -0.5000000  -0.0000000   0.0000000), wk =   0.0185185
        k(   46) = (  -0.5000000  -0.0000000   0.1666667), wk =   0.0370370
        k(   47) = (  -0.5000000  -0.0000000   0.3333333), wk =   0.0370370
        k(   48) = (  -0.5000000  -0.0000000  -0.5000000), wk =   0.0185185
        k(   49) = (  -0.5000000   0.1666667   0.0000000), wk =   0.0370370
        k(   50) = (  -0.5000000   0.1666667   0.1666667), wk =   0.0370370
        k(   51) = (  -0.5000000   0.1666667   0.3333333), wk =   0.0370370
        k(   52) = (  -0.5000000   0.1666667  -0.5000000), wk =   0.0370370
        k(   53) = (   0.0000000   0.1666667  -0.1666667), wk =   0.0185185
        k(   54) = (   0.0000000   0.1666667  -0.3333333), wk =   0.0185185
        k(   55) = (   0.0000000   0.3333333  -0.1666667), wk =   0.0185185
        k(   56) = (   0.0000000   0.3333333  -0.3333333), wk =   0.0185185
        k(   57) = (  -0.1666667   0.5000000  -0.1666667), wk =   0.0370370
        k(   58) = (  -0.1666667   0.5000000  -0.3333333), wk =   0.0370370
        k(   59) = (  -0.1666667   0.6666667  -0.1666667), wk =   0.0370370
        k(   60) = (  -0.1666667   0.6666667  -0.3333333), wk =   0.0370370
        k(   61) = (  -0.1666667   0.1666667  -0.1666667), wk =   0.0370370
        k(   62) = (  -0.1666667   0.1666667  -0.3333333), wk =   0.0370370
        k(   63) = (  -0.3333333   1.1666667  -0.1666667), wk =   0.0370370
        k(   64) = (  -0.3333333   1.1666667  -0.3333333), wk =   0.0370370
        k(   65) = (  -0.3333333   1.3333333  -0.1666667), wk =   0.0370370
        k(   66) = (  -0.3333333   1.3333333  -0.3333333), wk =   0.0370370
        k(   67) = (   0.5000000  -1.3333333  -0.1666667), wk =   0.0370370
        k(   68) = (   0.5000000  -1.3333333  -0.3333333), wk =   0.0370370

     Initial potential from superposition of free atoms

     starting charge     107.9776, renormalised to     108.0000
     Starting wfcs are   78 randomized atomic wfcs

     Self-consistent Calculation

     iteration #  1     ecut=    50.00 Ry     beta= 0.30
     Davidson diagonalization with overlap

     ethr =  1.00E-02,  avg # of iterations =  2.6

     total energy              =   -1083.20293315 Ry
     estimated scf accuracy    <       2.23196642 Ry

[...]

     total energy              =   -1083.58755590 Ry
     estimated scf accuracy    <       0.00000080 Ry

     iteration # 22     ecut=    50.00 Ry     beta= 0.30
     Davidson diagonalization with overlap

     ethr =  2.03E-10,  avg # of iterations =  6.6

     End of self-consistent calculation

          k = 0.0000 0.0000 0.0000 (  3837 PWs)   bands (ev):

    -7.5766  -6.6745  -6.6745  -5.7820  -5.6273  -5.6273   5.2478   5.2478
     5.5524   5.7743   5.7743   6.0970   6.0971   6.1928   6.3850   6.3850
     6.4658   6.4658   6.5289   6.5290   7.1278   7.1278   7.1749   7.1749
     8.3834   8.3834   8.6029   8.6030   8.8146   8.8146   8.9733   8.9733
     9.2374   9.2375   9.3596   9.3596   9.7394  10.0601  10.0601  10.5465
    10.5465  11.1542  11.1542  11.8885  11.8885  12.8940  12.8941  13.5349
    13.5350  13.7214  13.7214  14.6196  14.6198  14.6452

     occupation numbers
     1.0000   1.0000   1.0000   1.0000   1.0000   1.0000   1.0000   1.0000
     1.0000   1.0000   1.0000   1.0000   1.0000   1.0000   1.0000   1.0000
     1.0000   1.0000   1.0000   1.0000   1.0000   1.0000   1.0000   1.0000
     1.0000   1.0000   1.0000   1.0000   1.0000   1.0000   1.0000   1.0000
     1.0000   1.0000   1.0000   1.0000   1.0000   1.0000   1.0000   1.0000
     1.0000   1.0000   1.0000   1.0000   1.0000   1.0000   1.0000   1.0000
     1.0000   1.0000   1.0000   1.0000   1.0000   1.0000

[...]

          k =-0.5000-0.2887 0.0000 (  3888 PWs)   bands (ev):

[...]

          k =-0.3333 0.3208-0.2294 (  3880 PWs)   bands (ev):

[...]

          k = 0.5000-0.2245-0.2294 (  3873 PWs)   bands (ev):

    -6.0667  -6.0560  -6.0502  -5.7633  -5.7618  -5.7591   4.8508   4.9057
     4.9278   4.9907   5.1172   5.1640   6.1982   6.2967   6.4019   6.4394
     6.4792   6.5410   6.8560   6.9172   6.9761   7.0804   7.0939   7.1046
     8.7426   8.9070   9.0148   9.0319   9.0602   9.0951   9.2677   9.3226
     9.3671   9.4332   9.4880   9.5899   9.8974   9.9034  10.0125  10.1317
    10.3097  10.5127  10.9154  11.1266  11.3060  11.9280  12.2923  12.2970
    12.4730  12.5153  12.6795  13.3889  13.3897  13.3926

     occupation numbers
     1.0000   1.0000   1.0000   1.0000   1.0000   1.0000   1.0000   1.0000
     1.0000   1.0000   1.0000   1.0000   1.0000   1.0000   1.0000   1.0000
     1.0000   1.0000   1.0000   1.0000   1.0000   1.0000   1.0000   1.0000
     1.0000   1.0000   1.0000   1.0000   1.0000   1.0000   1.0000   1.0000
     1.0000   1.0000   1.0000   1.0000   1.0000   1.0000   1.0000   1.0000
     1.0000   1.0000   1.0000   1.0000   1.0000   1.0000   1.0000   1.0000
     1.0000   1.0000   1.0000   1.0000   1.0000   1.0000

     highest occupied level (ev):    14.6452

!    total energy              =   -1083.58755606 Ry
     estimated scf accuracy    <          2.5E-09 Ry

     The total energy is the sum of the following terms:
     one-electron contribution =    -314.73101147 Ry
     hartree contribution      =     305.75940973 Ry
     xc contribution           =    -332.08708626 Ry
     ewald contribution        =    -742.52886807 Ry

     convergence has been achieved in  22 iterations

     Forces acting on atoms (cartesian axes, Ry/au):

     atom    1 type  1   force =     0.00000000   -0.00002080   -0.21628168
     atom    2 type  1   force =     0.00000000    0.00001672   -0.21628093
     atom    3 type  2   force =     0.00000000    0.00000406    0.21627966
     atom    4 type  2   force =     0.00000000   -0.00000335    0.21628158
     atom    5 type  1   force =     0.00000000   -0.00001617   -0.21627916
     atom    6 type  1   force =     0.00000000    0.00002025   -0.21628170
     atom    7 type  2   force =     0.00000000    0.00000308    0.21628107
     atom    8 type  2   force =     0.00000000   -0.00000254    0.21628080
     atom    9 type  1   force =     0.00000000   -0.00001769   -0.21627963
     atom   10 type  1   force =     0.00000000    0.00001681   -0.21628139
     atom   11 type  2   force =     0.00000000    0.00000387    0.21628070
     atom   12 type  2   force =     0.00000000   -0.00000424    0.21628067
     The non-local contrib.  to forces
     atom    1 type  1   force =     0.00000000    0.00002296   -0.38232256
     atom    2 type  1   force =     0.00000000   -0.00002558   -0.38232216
     atom    3 type  2   force =     0.00000000    0.00014782   -0.18136124
     atom    4 type  2   force =     0.00000000   -0.00014648   -0.18135992
     atom    5 type  1   force =     0.00000000    0.00002501   -0.38232188
     atom    6 type  1   force =     0.00000000   -0.00002331   -0.38232203
     atom    7 type  2   force =     0.00000000    0.00014649   -0.18135955
     atom    8 type  2   force =     0.00000000   -0.00014701   -0.18136104
     atom    9 type  1   force =     0.00000000    0.00002388   -0.38232270
     atom   10 type  1   force =     0.00000000   -0.00002289   -0.38232223
     atom   11 type  2   force =     0.00000000    0.00014641   -0.18136052
     atom   12 type  2   force =     0.00000000   -0.00014816   -0.18136060
     The ionic contribution  to forces
     atom    1 type  1   force =    -0.00000000    0.00000001   -2.79035799
     atom    2 type  1   force =     0.00000000    0.00000001   -2.79035798
     atom    3 type  2   force =    -0.00000000    0.00000001    2.79035799
     atom    4 type  2   force =     0.00000000    0.00000001    2.79035798
     atom    5 type  1   force =    -0.00000001    0.00000001   -2.79035799
     atom    6 type  1   force =     0.00000001   -0.00000001   -2.79035799
     atom    7 type  2   force =    -0.00000001    0.00000001    2.79035799
     atom    8 type  2   force =     0.00000001   -0.00000001    2.79035799
     atom    9 type  1   force =    -0.00000000   -0.00000001   -2.79035798
     atom   10 type  1   force =     0.00000000   -0.00000001   -2.79035799
     atom   11 type  2   force =    -0.00000000   -0.00000001    2.79035798
     atom   12 type  2   force =     0.00000000   -0.00000001    2.79035799
     The local contribution  to forces
     atom    1 type  1   force =    -0.00000004   -0.00004189    2.91292673
     atom    2 type  1   force =     0.00000000    0.00004755    2.91292540
     atom    3 type  2   force =    -0.00000001   -0.00014104   -2.39325988
     atom    4 type  2   force =     0.00000000    0.00014483   -2.39325922
     atom    5 type  1   force =    -0.00000008   -0.00004670    2.91292441
     atom    6 type  1   force =     0.00000008    0.00004204    2.91292575
     atom    7 type  2   force =    -0.00000002   -0.00014449   -2.39325943
     atom    8 type  2   force =     0.00000002    0.00014339   -2.39325740
     atom    9 type  1   force =    -0.00000000   -0.00004490    2.91292590
     atom   10 type  1   force =     0.00000004    0.00004322    2.91292534
     atom   11 type  2   force =    -0.00000000   -0.00014435   -2.39325948
     atom   12 type  2   force =     0.00000001    0.00014232   -2.39325627
     The core correction contribution to forces
     atom    1 type  1   force =    -0.00000001    0.00000144    0.04347154
     atom    2 type  1   force =    -0.00000000   -0.00000144    0.04347155
     atom    3 type  2   force =     0.00000000   -0.00000166    0.00052939
     atom    4 type  2   force =    -0.00000000    0.00000165    0.00052937
     atom    5 type  1   force =    -0.00000001    0.00000136    0.04347147
     atom    6 type  1   force =     0.00000001   -0.00000147    0.04347153
     atom    7 type  2   force =     0.00000000   -0.00000165    0.00052937
     atom    8 type  2   force =    -0.00000000    0.00000165    0.00052940
     atom    9 type  1   force =    -0.00000000    0.00000146    0.04347150
     atom   10 type  1   force =     0.00000001   -0.00000141    0.04347155
     atom   11 type  2   force =     0.00000000   -0.00000165    0.00052937
     atom   12 type  2   force =    -0.00000000    0.00000166    0.00052939
     The Hubbard contrib.    to forces
     atom    1 type  1   force =     0.00000000    0.00000000    0.00000000
     atom    2 type  1   force =     0.00000000    0.00000000    0.00000000
     atom    3 type  2   force =     0.00000000    0.00000000    0.00000000
     atom    4 type  2   force =     0.00000000    0.00000000    0.00000000
     atom    5 type  1   force =     0.00000000    0.00000000    0.00000000
     atom    6 type  1   force =     0.00000000    0.00000000    0.00000000
     atom    7 type  2   force =     0.00000000    0.00000000    0.00000000
     atom    8 type  2   force =     0.00000000    0.00000000    0.00000000
     atom    9 type  1   force =     0.00000000    0.00000000    0.00000000
     atom   10 type  1   force =     0.00000000    0.00000000    0.00000000
     atom   11 type  2   force =     0.00000000    0.00000000    0.00000000
     atom   12 type  2   force =     0.00000000    0.00000000    0.00000000
     The SCF correction term to forces
     atom    1 type  1   force =     0.00000000   -0.00000323    0.00000283
     atom    2 type  1   force =    -0.00000000   -0.00000374    0.00000451
     atom    3 type  2   force =     0.00000000   -0.00000099    0.00001564
     atom    4 type  2   force =     0.00000000   -0.00000327    0.00001560
     atom    5 type  1   force =     0.00000000    0.00000424    0.00000707
     atom    6 type  1   force =    -0.00000000    0.00000308    0.00000327
     atom    7 type  2   force =     0.00000000    0.00000281    0.00001493
     atom    8 type  2   force =    -0.00000000   -0.00000049    0.00001409
     atom    9 type  1   force =    -0.00000000    0.00000197    0.00000590
     atom   10 type  1   force =    -0.00000000   -0.00000201    0.00000417
     atom   11 type  2   force =     0.00000000    0.00000356    0.00001558
     atom   12 type  2   force =     0.00000000    0.00000003    0.00001239

     Total force =     0.749218     Total SCF correction =     0.000039

     General routines

     Parallel routines

   This run was terminated on:  12:10:15  27Aug2025

   JOB DONE.