     Program PWSCF v.7.0 starts on 28Aug2025 at  6: 8:50

     K-points division:     npool     =      17

     Reading input from /home/jvc/QEspresso7.2/ZnO_database/scripts/cell131.in/ZnO-3.60-1.61-131.in
Warning: card &CELL ignored
Warning: card / ignored
Warning: card &FCP ignored
Warning: card / ignored
Warning: card &RISM ignored
Warning: card / ignored

     Current dimensions of program PWSCF are:
     Max number of different atomic species (ntypx) = 10
     Max number of k-points (npk) =  40000
     Max angular momentum in pseudopotentials (lmaxx) =  4
     file Zn.upf: wavefunction(s)  3D renormalized
     Found identity + (  0.0000  0.3333  0.0000) symmetry
     This is a supercell, fractional translations are disabled
     Message from routine setup:
     using ibrav=0 with symmetry is DISCOURAGED, use correct ibrav instead

     Subspace diagonalization in iterative solution of the eigenvalue problem:
     a serial algorithm will be used

     Using Slab Decomposition

     bravais-lattice index     =            0
     lattice parameter (alat)  =       6.7967  a.u.
     unit-cell volume          =    1316.9027 (a.u.)^3
     number of atoms/cell      =           12
     number of atomic types    =            2
     number of electrons       =       108.00
     number of Kohn-Sham states=           54
     kinetic-energy cutoff     =      50.0000  Ry
     charge density cutoff     =     400.0000  Ry
     scf convergence threshold =      1.0E-08
     mixing beta               =       0.3000
     number of iterations used =            8  plain     mixing
     Exchange-correlation= PBE
                           (   1   4   3   4   0   0   0)

     celldm(1)=   6.796739  celldm(2)=   0.000000  celldm(3)=   0.000000
     celldm(4)=   0.000000  celldm(5)=   0.000000  celldm(6)=   0.000000

     crystal axes: (cart. coord. in units of alat)
               a(1) = (   1.000000   0.000000   0.000000 )
               a(2) = (  -1.500000   2.598076   0.000000 )
               a(3) = (   0.000000   0.000000   1.614358 )

     reciprocal axes: (cart. coord. in units 2 pi/alat)
               b(1) = (  1.000000  0.577350 -0.000000 )
               b(2) = (  0.000000  0.384900  0.000000 )
               b(3) = (  0.000000 -0.000000  0.619441 )

     PseudoPot. # 1 for Zn read from file:
     /home/jvc/QEspresso7.2/ZnO_database/pseudos/Zn.upf
     MD5 check sum: 7f56cabf9682ed8c977c2f7d0c5985c5
     Pseudo is Ultrasoft + core correction, Zval = 12.0
     Generated using &quot;atomic&quot; code by A. Dal Corso  v.6.2.2
     Using radial grid of 1201 points,  6 beta functions with:
                l(1) =   0
                l(2) =   0
                l(3) =   1
                l(4) =   1
                l(5) =   2
                l(6) =   2
     Q(r) pseudized with 0 coefficients

     PseudoPot. # 2 for O  read from file:
     /home/jvc/QEspresso7.2/ZnO_database/pseudos/O.upf
     MD5 check sum: 91400c9766925bcf19f520983a725ff0
     Pseudo is Ultrasoft + core correction, Zval =  6.0
     Generated using &quot;atomic&quot; code by A. Dal Corso  v.6.3MaX
     Using radial grid of 1095 points,  4 beta functions with:
                l(1) =   0
                l(2) =   0
                l(3) =   1
                l(4) =   1
     Q(r) pseudized with 0 coefficients

     atomic species   valence    mass     pseudopotential
        Zn            12.00    65.38000     Zn( 1.00)
        O              6.00    15.99900     O ( 1.00)

      2 Sym. Ops. (no inversion) found

                                    s                        frac. trans.

      isym =  1     identity

 cryst.   s( 1) = (     1          0          0      )
                  (     0          1          0      )
                  (     0          0          1      )

 cart.    s( 1) = (  1.0000000  0.0000000  0.0000000 )
                  (  0.0000000  1.0000000  0.0000000 )
                  (  0.0000000  0.0000000  1.0000000 )

      isym =  2     inv. 180 deg rotation - cart. axis [1,0,0]

 cryst.   s( 2) = (    -1          0          0      )
                  (     3          1          0      )
                  (     0          0          1      )

 cart.    s( 2) = ( -1.0000000 -0.0000000  0.0000000 )
                  (  0.0000000  1.0000000  0.0000000 )
                  (  0.0000000  0.0000000  1.0000000 )

   Cartesian axes

     site n.     atom                  positions (alat units)
         1           Zn  tau(   1) = (   0.5000000   0.2886751   0.8082020  )
         2           Zn  tau(   2) = (  -0.0000000   0.5773503   0.0010228  )
         3           O   tau(   3) = (   0.5000000   0.2886751   1.4201130  )
         4           O   tau(   4) = (  -0.0000000   0.5773503   0.6129338  )
         5           Zn  tau(   5) = (   0.0000000   1.1547005   0.8082020  )
         6           Zn  tau(   6) = (  -0.5000000   1.4433757   0.0010228  )
         7           O   tau(   7) = (   0.0000000   1.1547005   1.4201130  )
         8           O   tau(   8) = (  -0.5000000   1.4433757   0.6129338  )
         9           Zn  tau(   9) = (  -0.5000000   2.0207259   0.8082020  )
        10           Zn  tau(  10) = (  -1.0000000   2.3094011   0.0010228  )
        11           O   tau(  11) = (  -0.5000000   2.0207259   1.4201130  )
        12           O   tau(  12) = (  -1.0000000   2.3094011   0.6129338  )

   Crystallographic axes

     site n.     atom                  positions (cryst. coord.)
         1           Zn  tau(   1) = (  0.6666667  0.1111111  0.5006336  )
         2           Zn  tau(   2) = (  0.3333333  0.2222222  0.0006336  )
         3           O   tau(   3) = (  0.6666667  0.1111111  0.8796764  )
         4           O   tau(   4) = (  0.3333333  0.2222222  0.3796764  )
         5           Zn  tau(   5) = (  0.6666667  0.4444444  0.5006336  )
         6           Zn  tau(   6) = (  0.3333333  0.5555556  0.0006336  )
         7           O   tau(   7) = (  0.6666667  0.4444444  0.8796764  )
         8           O   tau(   8) = (  0.3333333  0.5555556  0.3796764  )
         9           Zn  tau(   9) = (  0.6666667  0.7777778  0.5006336  )
        10           Zn  tau(  10) = (  0.3333333  0.8888889  0.0006336  )
        11           O   tau(  11) = (  0.6666667  0.7777778  0.8796764  )
        12           O   tau(  12) = (  0.3333333  0.8888889  0.3796764  )

     number of k points=    68
                       cart. coord. in units 2pi/alat
        k(    1) = (   0.0000000   0.0000000   0.0000000), wk =   0.0092593
        k(    2) = (   0.0000000   0.0000000   0.1032402), wk =   0.0185185
        k(    3) = (   0.0000000   0.0000000   0.2064804), wk =   0.0185185
        k(    4) = (   0.0000000   0.0000000  -0.3097206), wk =   0.0092593
        k(    5) = (   0.0000000   0.0641500   0.0000000), wk =   0.0185185
        k(    6) = (   0.0000000   0.0641500   0.1032402), wk =   0.0185185
        k(    7) = (   0.0000000   0.0641500   0.2064804), wk =   0.0185185
        k(    8) = (   0.0000000   0.0641500  -0.3097206), wk =   0.0185185
        k(    9) = (   0.0000000   0.1283001   0.0000000), wk =   0.0185185
        k(   10) = (   0.0000000   0.1283001   0.1032402), wk =   0.0185185
        k(   11) = (   0.0000000   0.1283001   0.2064804), wk =   0.0185185
        k(   12) = (   0.0000000   0.1283001  -0.3097206), wk =   0.0185185
        k(   13) = (   0.0000000  -0.1924501   0.0000000), wk =   0.0092593
        k(   14) = (   0.0000000  -0.1924501   0.1032402), wk =   0.0185185
        k(   15) = (   0.0000000  -0.1924501   0.2064804), wk =   0.0185185
        k(   16) = (   0.0000000  -0.1924501  -0.3097206), wk =   0.0092593
        k(   17) = (   0.1666667   0.0962250   0.0000000), wk =   0.0370370
        k(   18) = (   0.1666667   0.0962250   0.1032402), wk =   0.0370370
        k(   19) = (   0.1666667   0.0962250   0.2064804), wk =   0.0370370
        k(   20) = (   0.1666667   0.0962250  -0.3097206), wk =   0.0370370
        k(   21) = (   0.1666667   0.1603751   0.0000000), wk =   0.0370370
        k(   22) = (   0.1666667   0.1603751   0.1032402), wk =   0.0370370
        k(   23) = (   0.1666667   0.1603751   0.2064804), wk =   0.0370370
        k(   24) = (   0.1666667   0.1603751  -0.3097206), wk =   0.0370370
        k(   25) = (   0.1666667  -0.0320750   0.0000000), wk =   0.0370370
        k(   26) = (   0.1666667  -0.0320750   0.1032402), wk =   0.0370370
        k(   27) = (   0.1666667  -0.0320750   0.2064804), wk =   0.0370370
        k(   28) = (   0.1666667  -0.0320750  -0.3097206), wk =   0.0370370
        k(   29) = (   0.3333333   0.1924501   0.0000000), wk =   0.0185185
        k(   30) = (   0.3333333   0.1924501   0.1032402), wk =   0.0370370
        k(   31) = (   0.3333333   0.1924501   0.2064804), wk =   0.0370370
        k(   32) = (   0.3333333   0.1924501  -0.3097206), wk =   0.0185185
        k(   33) = (   0.3333333   0.2566001   0.0000000), wk =   0.0370370
        k(   34) = (   0.3333333   0.2566001   0.1032402), wk =   0.0370370
        k(   35) = (   0.3333333   0.2566001   0.2064804), wk =   0.0370370
        k(   36) = (   0.3333333   0.2566001  -0.3097206), wk =   0.0370370
        k(   37) = (   0.3333333   0.3207501   0.0000000), wk =   0.0370370
        k(   38) = (   0.3333333   0.3207501   0.1032402), wk =   0.0370370
        k(   39) = (   0.3333333   0.3207501   0.2064804), wk =   0.0370370
        k(   40) = (   0.3333333   0.3207501  -0.3097206), wk =   0.0370370
        k(   41) = (   0.3333333   0.0000000   0.0000000), wk =   0.0185185
        k(   42) = (   0.3333333   0.0000000   0.1032402), wk =   0.0370370
        k(   43) = (   0.3333333   0.0000000   0.2064804), wk =   0.0370370
        k(   44) = (   0.3333333   0.0000000  -0.3097206), wk =   0.0185185
        k(   45) = (  -0.5000000  -0.2886751   0.0000000), wk =   0.0185185
        k(   46) = (  -0.5000000  -0.2886751   0.1032402), wk =   0.0370370
        k(   47) = (  -0.5000000  -0.2886751   0.2064804), wk =   0.0370370
        k(   48) = (  -0.5000000  -0.2886751  -0.3097206), wk =   0.0185185
        k(   49) = (  -0.5000000  -0.2245251   0.0000000), wk =   0.0370370
        k(   50) = (  -0.5000000  -0.2245251   0.1032402), wk =   0.0370370
        k(   51) = (  -0.5000000  -0.2245251   0.2064804), wk =   0.0370370
        k(   52) = (  -0.5000000  -0.2245251  -0.3097206), wk =   0.0370370
        k(   53) = (   0.0000000   0.0641500  -0.1032402), wk =   0.0185185
        k(   54) = (   0.0000000   0.0641500  -0.2064804), wk =   0.0185185
        k(   55) = (   0.0000000   0.1283001  -0.1032402), wk =   0.0185185
        k(   56) = (   0.0000000   0.1283001  -0.2064804), wk =   0.0185185
        k(   57) = (  -0.1666667   0.0962250  -0.1032402), wk =   0.0370370
        k(   58) = (  -0.1666667   0.0962250  -0.2064804), wk =   0.0370370
        k(   59) = (  -0.1666667   0.1603751  -0.1032402), wk =   0.0370370
        k(   60) = (  -0.1666667   0.1603751  -0.2064804), wk =   0.0370370
        k(   61) = (  -0.1666667  -0.0320750  -0.1032402), wk =   0.0370370
        k(   62) = (  -0.1666667  -0.0320750  -0.2064804), wk =   0.0370370
        k(   63) = (  -0.3333333   0.2566001  -0.1032402), wk =   0.0370370
        k(   64) = (  -0.3333333   0.2566001  -0.2064804), wk =   0.0370370
        k(   65) = (  -0.3333333   0.3207501  -0.1032402), wk =   0.0370370
        k(   66) = (  -0.3333333   0.3207501  -0.2064804), wk =   0.0370370
        k(   67) = (   0.5000000  -0.2245251  -0.1032402), wk =   0.0370370
        k(   68) = (   0.5000000  -0.2245251  -0.2064804), wk =   0.0370370

                       cryst. coord.
        k(    1) = (   0.0000000   0.0000000   0.0000000), wk =   0.0092593
        k(    2) = (   0.0000000   0.0000000   0.1666667), wk =   0.0185185
        k(    3) = (   0.0000000   0.0000000   0.3333333), wk =   0.0185185
        k(    4) = (   0.0000000   0.0000000  -0.5000000), wk =   0.0092593
        k(    5) = (   0.0000000   0.1666667   0.0000000), wk =   0.0185185
        k(    6) = (   0.0000000   0.1666667   0.1666667), wk =   0.0185185
        k(    7) = (   0.0000000   0.1666667   0.3333333), wk =   0.0185185
        k(    8) = (   0.0000000   0.1666667  -0.5000000), wk =   0.0185185
        k(    9) = (   0.0000000   0.3333333   0.0000000), wk =   0.0185185
        k(   10) = (   0.0000000   0.3333333   0.1666667), wk =   0.0185185
        k(   11) = (   0.0000000   0.3333333   0.3333333), wk =   0.0185185
        k(   12) = (   0.0000000   0.3333333  -0.5000000), wk =   0.0185185
        k(   13) = (   0.0000000  -0.5000000   0.0000000), wk =   0.0092593
        k(   14) = (   0.0000000  -0.5000000   0.1666667), wk =   0.0185185
        k(   15) = (   0.0000000  -0.5000000   0.3333333), wk =   0.0185185
        k(   16) = (   0.0000000  -0.5000000  -0.5000000), wk =   0.0092593
        k(   17) = (   0.1666667  -0.0000000   0.0000000), wk =   0.0370370
        k(   18) = (   0.1666667  -0.0000000   0.1666667), wk =   0.0370370
        k(   19) = (   0.1666667  -0.0000000   0.3333333), wk =   0.0370370
        k(   20) = (   0.1666667  -0.0000000  -0.5000000), wk =   0.0370370
        k(   21) = (   0.1666667   0.1666667   0.0000000), wk =   0.0370370
        k(   22) = (   0.1666667   0.1666667   0.1666667), wk =   0.0370370
        k(   23) = (   0.1666667   0.1666667   0.3333333), wk =   0.0370370
        k(   24) = (   0.1666667   0.1666667  -0.5000000), wk =   0.0370370
        k(   25) = (   0.1666667  -0.3333333   0.0000000), wk =   0.0370370
        k(   26) = (   0.1666667  -0.3333333   0.1666667), wk =   0.0370370
        k(   27) = (   0.1666667  -0.3333333   0.3333333), wk =   0.0370370
        k(   28) = (   0.1666667  -0.3333333  -0.5000000), wk =   0.0370370
        k(   29) = (   0.3333333  -0.0000000   0.0000000), wk =   0.0185185
        k(   30) = (   0.3333333  -0.0000000   0.1666667), wk =   0.0370370
        k(   31) = (   0.3333333  -0.0000000   0.3333333), wk =   0.0370370
        k(   32) = (   0.3333333  -0.0000000  -0.5000000), wk =   0.0185185
        k(   33) = (   0.3333333   0.1666667   0.0000000), wk =   0.0370370
        k(   34) = (   0.3333333   0.1666667   0.1666667), wk =   0.0370370
        k(   35) = (   0.3333333   0.1666667   0.3333333), wk =   0.0370370
        k(   36) = (   0.3333333   0.1666667  -0.5000000), wk =   0.0370370
        k(   37) = (   0.3333333   0.3333333   0.0000000), wk =   0.0370370
        k(   38) = (   0.3333333   0.3333333   0.1666667), wk =   0.0370370
        k(   39) = (   0.3333333   0.3333333   0.3333333), wk =   0.0370370
        k(   40) = (   0.3333333   0.3333333  -0.5000000), wk =   0.0370370
        k(   41) = (   0.3333333  -0.5000000   0.0000000), wk =   0.0185185
        k(   42) = (   0.3333333  -0.5000000   0.1666667), wk =   0.0370370
        k(   43) = (   0.3333333  -0.5000000   0.3333333), wk =   0.0370370
        k(   44) = (   0.3333333  -0.5000000  -0.5000000), wk =   0.0185185
        k(   45) = (  -0.5000000   0.0000000   0.0000000), wk =   0.0185185
        k(   46) = (  -0.5000000   0.0000000   0.1666667), wk =   0.0370370
        k(   47) = (  -0.5000000   0.0000000   0.3333333), wk =   0.0370370
        k(   48) = (  -0.5000000   0.0000000  -0.5000000), wk =   0.0185185
        k(   49) = (  -0.5000000   0.1666667   0.0000000), wk =   0.0370370
        k(   50) = (  -0.5000000   0.1666667   0.1666667), wk =   0.0370370
        k(   51) = (  -0.5000000   0.1666667   0.3333333), wk =   0.0370370
        k(   52) = (  -0.5000000   0.1666667  -0.5000000), wk =   0.0370370
        k(   53) = (   0.0000000   0.1666667  -0.1666667), wk =   0.0185185
        k(   54) = (   0.0000000   0.1666667  -0.3333333), wk =   0.0185185
        k(   55) = (   0.0000000   0.3333333  -0.1666667), wk =   0.0185185
        k(   56) = (   0.0000000   0.3333333  -0.3333333), wk =   0.0185185
        k(   57) = (  -0.1666667   0.5000000  -0.1666667), wk =   0.0370370
        k(   58) = (  -0.1666667   0.5000000  -0.3333333), wk =   0.0370370
        k(   59) = (  -0.1666667   0.6666667  -0.1666667), wk =   0.0370370
        k(   60) = (  -0.1666667   0.6666667  -0.3333333), wk =   0.0370370
        k(   61) = (  -0.1666667   0.1666667  -0.1666667), wk =   0.0370370
        k(   62) = (  -0.1666667   0.1666667  -0.3333333), wk =   0.0370370
        k(   63) = (  -0.3333333   1.1666667  -0.1666667), wk =   0.0370370
        k(   64) = (  -0.3333333   1.1666667  -0.3333333), wk =   0.0370370
        k(   65) = (  -0.3333333   1.3333333  -0.1666667), wk =   0.0370370
        k(   66) = (  -0.3333333   1.3333333  -0.3333333), wk =   0.0370370
        k(   67) = (   0.5000000  -1.3333333  -0.1666667), wk =   0.0370370
        k(   68) = (   0.5000000  -1.3333333  -0.3333333), wk =   0.0370370

     Check: negative core charge=   -0.000002

     Initial potential from superposition of free atoms

     starting charge     107.9776, renormalised to     108.0000
     Starting wfcs are   78 randomized atomic wfcs

     Self-consistent Calculation

     iteration #  1     ecut=    50.00 Ry     beta= 0.30
     Davidson diagonalization with overlap

     ethr =  1.00E-02,  avg # of iterations =  1.3

     total energy              =   -1084.02600590 Ry
     estimated scf accuracy    <       2.54721996 Ry

[...]

     c_bands:  1 eigenvalues not converged
     c_bands:  1 eigenvalues not converged
     ethr =  1.17E-06,  avg # of iterations = 16.4

[...]

     c_bands:  1 eigenvalues not converged
     ethr =  1.17E-06,  avg # of iterations =  6.3

[...]

     total energy              =   -1084.64324545 Ry
     estimated scf accuracy    <       0.00000005 Ry

     iteration # 23     ecut=    50.00 Ry     beta= 0.30
     Davidson diagonalization with overlap

     ethr =  4.35E-11,  avg # of iterations =  7.0

     End of self-consistent calculation

          k = 0.0000 0.0000 0.0000 (  7893 PWs)   bands (ev):

   -12.7779 -12.5451 -12.5451 -12.4307 -12.3478 -12.3478  -1.4511  -1.4511
    -1.4486  -1.4483  -1.4361  -1.3497  -1.3496  -1.3409  -1.3409  -1.3207
    -1.3207  -1.1739  -1.1739  -1.1406  -1.1406  -1.0596  -1.0596  -0.9826
    -0.9825  -0.9745  -0.9745  -0.9440  -0.9439  -0.8857  -0.8841  -0.8841
    -0.8702  -0.8702  -0.7521  -0.7520  -0.1115   0.4738   0.4738   0.9704
     0.9704   1.5272   1.5272   2.2358   2.2358   2.8742   2.8742   2.8801
     2.8809   3.0005   3.0005   3.3465   3.3637   3.3646

     occupation numbers
     1.0000   1.0000   1.0000   1.0000   1.0000   1.0000   1.0000   1.0000
     1.0000   1.0000   1.0000   1.0000   1.0000   1.0000   1.0000   1.0000
     1.0000   1.0000   1.0000   1.0000   1.0000   1.0000   1.0000   1.0000
     1.0000   1.0000   1.0000   1.0000   1.0000   1.0000   1.0000   1.0000
     1.0000   1.0000   1.0000   1.0000   1.0000   1.0000   1.0000   1.0000
     1.0000   1.0000   1.0000   1.0000   1.0000   1.0000   1.0000   1.0000
     1.0000   1.0000   1.0000   1.0000   1.0000   1.0000

[...]

          k =-0.5000-0.2887 0.0000 (  7838 PWs)   bands (ev):

[...]

          k =-0.3333 0.3208-0.2065 (  7856 PWs)   bands (ev):

[...]

          k = 0.5000-0.2245-0.2065 (  7858 PWs)   bands (ev):

   -12.4195 -12.4183 -12.4176 -12.3635 -12.3633 -12.3629  -1.4534  -1.4332
    -1.3753  -1.3595  -1.3426  -1.3418  -1.2736  -1.2677  -1.2396  -1.1755
    -1.1402  -1.1352  -1.1296  -1.1151  -1.1102  -1.1087  -1.0731  -1.0430
    -0.9428  -0.9164  -0.9100  -0.9036  -0.9005  -0.8922  -0.8494  -0.8421
    -0.8351  -0.8167  -0.7978  -0.7727   0.2057   0.2762   0.4502   0.4635
     0.5183   0.6201   1.6998   1.9295   2.0491   2.1722   2.2459   2.2466
     2.3056   2.4696   2.5903   2.7039   2.7184   2.7317

     occupation numbers
     1.0000   1.0000   1.0000   1.0000   1.0000   1.0000   1.0000   1.0000
     1.0000   1.0000   1.0000   1.0000   1.0000   1.0000   1.0000   1.0000
     1.0000   1.0000   1.0000   1.0000   1.0000   1.0000   1.0000   1.0000
     1.0000   1.0000   1.0000   1.0000   1.0000   1.0000   1.0000   1.0000
     1.0000   1.0000   1.0000   1.0000   1.0000   1.0000   1.0000   1.0000
     1.0000   1.0000   1.0000   1.0000   1.0000   1.0000   1.0000   1.0000
     1.0000   1.0000   1.0000   1.0000   1.0000   1.0000

     highest occupied level (ev):     3.3646

!    total energy              =   -1084.64324547 Ry
     estimated scf accuracy    <          2.7E-09 Ry

     The total energy is the sum of the following terms:
     one-electron contribution =    -558.32908411 Ry
     hartree contribution      =     389.51509512 Ry
     xc contribution           =    -327.13759323 Ry
     ewald contribution        =    -588.69166326 Ry

     convergence has been achieved in  23 iterations

     Forces acting on atoms (cartesian axes, Ry/au):

     atom    1 type  1   force =     0.00000000    0.00001183   -0.00007863
     atom    2 type  1   force =     0.00000000   -0.00001470   -0.00008800
     atom    3 type  2   force =     0.00000000    0.00000994    0.00008320
     atom    4 type  2   force =     0.00000000   -0.00001035    0.00008419
     atom    5 type  1   force =     0.00000000    0.00002298   -0.00008175
     atom    6 type  1   force =     0.00000000   -0.00000903   -0.00008532
     atom    7 type  2   force =     0.00000000    0.00001032    0.00008310
     atom    8 type  2   force =     0.00000000   -0.00000944    0.00008342
     atom    9 type  1   force =     0.00000000    0.00001252   -0.00008931
     atom   10 type  1   force =     0.00000000   -0.00002472   -0.00007873
     atom   11 type  2   force =     0.00000000    0.00001007    0.00008394
     atom   12 type  2   force =     0.00000000   -0.00000943    0.00008390
     The non-local contrib.  to forces
     atom    1 type  1   force =     0.00000000   -0.00004618   -0.00462009
     atom    2 type  1   force =     0.00000000    0.00004679   -0.00462200
     atom    3 type  2   force =     0.00000000    0.00026474    0.00645482
     atom    4 type  2   force =     0.00000000   -0.00026651    0.00645584
     atom    5 type  1   force =     0.00000000   -0.00004338   -0.00462026
     atom    6 type  1   force =     0.00000000    0.00005125   -0.00462428
     atom    7 type  2   force =     0.00000000    0.00026301    0.00645553
     atom    8 type  2   force =     0.00000000   -0.00026519    0.00645634
     atom    9 type  1   force =     0.00000000   -0.00004945   -0.00462364
     atom   10 type  1   force =     0.00000000    0.00004206   -0.00462115
     atom   11 type  2   force =     0.00000000    0.00026557    0.00645526
     atom   12 type  2   force =     0.00000000   -0.00026086    0.00645737
     The ionic contribution  to forces
     atom    1 type  1   force =    -0.00000000    0.00000001    0.05183208
     atom    2 type  1   force =     0.00000000    0.00000001    0.05183208
     atom    3 type  2   force =    -0.00000000    0.00000000   -0.05183208
     atom    4 type  2   force =     0.00000000    0.00000000   -0.05183208
     atom    5 type  1   force =    -0.00000001    0.00000001    0.05183208
     atom    6 type  1   force =     0.00000001   -0.00000001    0.05183208
     atom    7 type  2   force =    -0.00000001    0.00000000   -0.05183208
     atom    8 type  2   force =     0.00000001   -0.00000000   -0.05183208
     atom    9 type  1   force =    -0.00000000   -0.00000001    0.05183208
     atom   10 type  1   force =     0.00000000   -0.00000001    0.05183208
     atom   11 type  2   force =    -0.00000000   -0.00000000   -0.05183208
     atom   12 type  2   force =     0.00000000   -0.00000000   -0.05183208
     The local contribution  to forces
     atom    1 type  1   force =    -0.00000005    0.00004761   -0.04755849
     atom    2 type  1   force =     0.00000000   -0.00004813   -0.04754973
     atom    3 type  2   force =    -0.00000001   -0.00025245    0.04554471
     atom    4 type  2   force =     0.00000000    0.00025518    0.04553784
     atom    5 type  1   force =    -0.00000010    0.00003626   -0.04755757
     atom    6 type  1   force =     0.00000010   -0.00005488   -0.04754947
     atom    7 type  2   force =    -0.00000003   -0.00025814    0.04554169
     atom    8 type  2   force =     0.00000003    0.00024604    0.04553529
     atom    9 type  1   force =     0.00000000    0.00005217   -0.04754931
     atom   10 type  1   force =     0.00000005   -0.00003353   -0.04755730
     atom   11 type  2   force =     0.00000000   -0.00024567    0.04553958
     atom   12 type  2   force =     0.00000001    0.00025581    0.04553585
     The core correction contribution to forces
     atom    1 type  1   force =    -0.00000001    0.00000888    0.00025570
     atom    2 type  1   force =    -0.00000000   -0.00000892    0.00025567
     atom    3 type  2   force =     0.00000000   -0.00000299   -0.00007220
     atom    4 type  2   force =     0.00000000    0.00000302   -0.00007224
     atom    5 type  1   force =    -0.00000001    0.00000917    0.00025582
     atom    6 type  1   force =     0.00000001   -0.00000907    0.00025578
     atom    7 type  2   force =     0.00000000   -0.00000296   -0.00007222
     atom    8 type  2   force =    -0.00000000    0.00000298   -0.00007225
     atom    9 type  1   force =     0.00000000    0.00000904    0.00025580
     atom   10 type  1   force =     0.00000001   -0.00000914    0.00025571
     atom   11 type  2   force =    -0.00000000   -0.00000298   -0.00007222
     atom   12 type  2   force =    -0.00000000    0.00000293   -0.00007227
     The Hubbard contrib.    to forces
     atom    1 type  1   force =     0.00000000    0.00000000    0.00000000
     atom    2 type  1   force =     0.00000000    0.00000000    0.00000000
     atom    3 type  2   force =     0.00000000    0.00000000    0.00000000
     atom    4 type  2   force =     0.00000000    0.00000000    0.00000000
     atom    5 type  1   force =     0.00000000    0.00000000    0.00000000
     atom    6 type  1   force =     0.00000000    0.00000000    0.00000000
     atom    7 type  2   force =     0.00000000    0.00000000    0.00000000
     atom    8 type  2   force =     0.00000000    0.00000000    0.00000000
     atom    9 type  1   force =     0.00000000    0.00000000    0.00000000
     atom   10 type  1   force =     0.00000000    0.00000000    0.00000000
     atom   11 type  2   force =     0.00000000    0.00000000    0.00000000
     atom   12 type  2   force =     0.00000000    0.00000000    0.00000000
     The SCF correction term to forces
     atom    1 type  1   force =    -0.00000000    0.00000154    0.00001290
     atom    2 type  1   force =     0.00000000   -0.00000442   -0.00000328
     atom    3 type  2   force =    -0.00000000    0.00000067   -0.00001131
     atom    4 type  2   force =     0.00000000   -0.00000202   -0.00000443
     atom    5 type  1   force =    -0.00000000    0.00002095    0.00000891
     atom    6 type  1   force =     0.00000000    0.00000370    0.00000131
     atom    7 type  2   force =    -0.00000000    0.00000844   -0.00000908
     atom    8 type  2   force =     0.00000000    0.00000675   -0.00000313
     atom    9 type  1   force =    -0.00000000    0.00000079   -0.00000350
     atom   10 type  1   force =     0.00000000   -0.00002407    0.00001267
     atom   11 type  2   force =    -0.00000000   -0.00000681   -0.00000585
     atom   12 type  2   force =     0.00000000   -0.00000728   -0.00000423

     Total force =     0.000294     Total SCF correction =     0.000045
     SCF correction compared to forces is large: reduce conv_thr to get better values

     General routines

     Parallel routines

   This run was terminated on:   6:18: 5  28Aug2025

   JOB DONE.