     Program PWSCF v.7.0 starts on 27Aug2025 at 22:23: 4

     K-points division:     npool     =      17

     Reading input from /home/jvc/QEspresso7.2/ZnO_database/scripts/cell131.in/ZnO-3.34-1.71-131.in
Warning: card &CELL ignored
Warning: card / ignored
Warning: card &FCP ignored
Warning: card / ignored
Warning: card &RISM ignored
Warning: card / ignored

     Current dimensions of program PWSCF are:
     Max number of different atomic species (ntypx) = 10
     Max number of k-points (npk) =  40000
     Max angular momentum in pseudopotentials (lmaxx) =  4
     file Zn.upf: wavefunction(s)  3D renormalized
     Found identity + (  0.0000  0.3333  0.0000) symmetry
     This is a supercell, fractional translations are disabled
     Message from routine setup:
     using ibrav=0 with symmetry is DISCOURAGED, use correct ibrav instead

     Subspace diagonalization in iterative solution of the eigenvalue problem:
     a serial algorithm will be used

     Using Slab Decomposition

     bravais-lattice index     =            0
     lattice parameter (alat)  =       6.3024  a.u.
     unit-cell volume          =    1112.9663 (a.u.)^3
     number of atoms/cell      =           12
     number of atomic types    =            2
     number of electrons       =       108.00
     number of Kohn-Sham states=           54
     kinetic-energy cutoff     =      50.0000  Ry
     charge density cutoff     =     400.0000  Ry
     scf convergence threshold =      1.0E-08
     mixing beta               =       0.3000
     number of iterations used =            8  plain     mixing
     Exchange-correlation= PBE
                           (   1   4   3   4   0   0   0)

     celldm(1)=   6.302431  celldm(2)=   0.000000  celldm(3)=   0.000000
     celldm(4)=   0.000000  celldm(5)=   0.000000  celldm(6)=   0.000000

     crystal axes: (cart. coord. in units of alat)
               a(1) = (   1.000000   0.000000   0.000000 )
               a(2) = (  -1.500000   2.598076   0.000000 )
               a(3) = (   0.000000   0.000000   1.711220 )

     reciprocal axes: (cart. coord. in units 2 pi/alat)
               b(1) = (  1.000000  0.577350 -0.000000 )
               b(2) = (  0.000000  0.384900  0.000000 )
               b(3) = (  0.000000 -0.000000  0.584378 )

     PseudoPot. # 1 for Zn read from file:
     /home/jvc/QEspresso7.2/ZnO_database/pseudos/Zn.upf
     MD5 check sum: 7f56cabf9682ed8c977c2f7d0c5985c5
     Pseudo is Ultrasoft + core correction, Zval = 12.0
     Generated using &quot;atomic&quot; code by A. Dal Corso  v.6.2.2
     Using radial grid of 1201 points,  6 beta functions with:
                l(1) =   0
                l(2) =   0
                l(3) =   1
                l(4) =   1
                l(5) =   2
                l(6) =   2
     Q(r) pseudized with 0 coefficients

     PseudoPot. # 2 for O  read from file:
     /home/jvc/QEspresso7.2/ZnO_database/pseudos/O.upf
     MD5 check sum: 91400c9766925bcf19f520983a725ff0
     Pseudo is Ultrasoft + core correction, Zval =  6.0
     Generated using &quot;atomic&quot; code by A. Dal Corso  v.6.3MaX
     Using radial grid of 1095 points,  4 beta functions with:
                l(1) =   0
                l(2) =   0
                l(3) =   1
                l(4) =   1
     Q(r) pseudized with 0 coefficients

     atomic species   valence    mass     pseudopotential
        Zn            12.00    65.38000     Zn( 1.00)
        O              6.00    15.99900     O ( 1.00)

      2 Sym. Ops. (no inversion) found

                                    s                        frac. trans.

      isym =  1     identity

 cryst.   s( 1) = (     1          0          0      )
                  (     0          1          0      )
                  (     0          0          1      )

 cart.    s( 1) = (  1.0000000  0.0000000  0.0000000 )
                  (  0.0000000  1.0000000  0.0000000 )
                  (  0.0000000  0.0000000  1.0000000 )

      isym =  2     inv. 180 deg rotation - cart. axis [1,0,0]

 cryst.   s( 2) = (    -1          0          0      )
                  (     3          1          0      )
                  (     0          0          1      )

 cart.    s( 2) = ( -1.0000000  0.0000000  0.0000000 )
                  (  0.0000000  1.0000000  0.0000000 )
                  (  0.0000000  0.0000000  1.0000000 )

   Cartesian axes

     site n.     atom                  positions (alat units)
         1           Zn  tau(   1) = (   0.5000000   0.2886751   0.8566941  )
         2           Zn  tau(   2) = (   0.0000000   0.5773503   0.0010842  )
         3           O   tau(   3) = (   0.5000000   0.2886751   1.5053197  )
         4           O   tau(   4) = (   0.0000000   0.5773503   0.6497098  )
         5           Zn  tau(   5) = (   0.0000000   1.1547005   0.8566941  )
         6           Zn  tau(   6) = (  -0.5000000   1.4433757   0.0010842  )
         7           O   tau(   7) = (   0.0000000   1.1547005   1.5053197  )
         8           O   tau(   8) = (  -0.5000000   1.4433757   0.6497098  )
         9           Zn  tau(   9) = (  -0.5000000   2.0207259   0.8566941  )
        10           Zn  tau(  10) = (  -1.0000000   2.3094011   0.0010842  )
        11           O   tau(  11) = (  -0.5000000   2.0207259   1.5053197  )
        12           O   tau(  12) = (  -1.0000000   2.3094011   0.6497098  )

   Crystallographic axes

     site n.     atom                  positions (cryst. coord.)
         1           Zn  tau(   1) = (  0.6666667  0.1111111  0.5006336  )
         2           Zn  tau(   2) = (  0.3333333  0.2222222  0.0006336  )
         3           O   tau(   3) = (  0.6666667  0.1111111  0.8796764  )
         4           O   tau(   4) = (  0.3333333  0.2222222  0.3796764  )
         5           Zn  tau(   5) = (  0.6666667  0.4444444  0.5006336  )
         6           Zn  tau(   6) = (  0.3333333  0.5555556  0.0006336  )
         7           O   tau(   7) = (  0.6666667  0.4444444  0.8796764  )
         8           O   tau(   8) = (  0.3333333  0.5555556  0.3796764  )
         9           Zn  tau(   9) = (  0.6666667  0.7777778  0.5006336  )
        10           Zn  tau(  10) = (  0.3333333  0.8888889  0.0006336  )
        11           O   tau(  11) = (  0.6666667  0.7777778  0.8796764  )
        12           O   tau(  12) = (  0.3333333  0.8888889  0.3796764  )

     number of k points=    68
                       cart. coord. in units 2pi/alat
        k(    1) = (   0.0000000   0.0000000   0.0000000), wk =   0.0092593
        k(    2) = (   0.0000000   0.0000000   0.0973964), wk =   0.0185185
        k(    3) = (   0.0000000   0.0000000   0.1947928), wk =   0.0185185
        k(    4) = (   0.0000000   0.0000000  -0.2921892), wk =   0.0092593
        k(    5) = (   0.0000000   0.0641500   0.0000000), wk =   0.0185185
        k(    6) = (   0.0000000   0.0641500   0.0973964), wk =   0.0185185
        k(    7) = (   0.0000000   0.0641500   0.1947928), wk =   0.0185185
        k(    8) = (   0.0000000   0.0641500  -0.2921892), wk =   0.0185185
        k(    9) = (   0.0000000   0.1283001   0.0000000), wk =   0.0185185
        k(   10) = (   0.0000000   0.1283001   0.0973964), wk =   0.0185185
        k(   11) = (   0.0000000   0.1283001   0.1947928), wk =   0.0185185
        k(   12) = (   0.0000000   0.1283001  -0.2921892), wk =   0.0185185
        k(   13) = (   0.0000000  -0.1924501   0.0000000), wk =   0.0092593
        k(   14) = (   0.0000000  -0.1924501   0.0973964), wk =   0.0185185
        k(   15) = (   0.0000000  -0.1924501   0.1947928), wk =   0.0185185
        k(   16) = (   0.0000000  -0.1924501  -0.2921892), wk =   0.0092593
        k(   17) = (   0.1666667   0.0962250   0.0000000), wk =   0.0370370
        k(   18) = (   0.1666667   0.0962250   0.0973964), wk =   0.0370370
        k(   19) = (   0.1666667   0.0962250   0.1947928), wk =   0.0370370
        k(   20) = (   0.1666667   0.0962250  -0.2921892), wk =   0.0370370
        k(   21) = (   0.1666667   0.1603751   0.0000000), wk =   0.0370370
        k(   22) = (   0.1666667   0.1603751   0.0973964), wk =   0.0370370
        k(   23) = (   0.1666667   0.1603751   0.1947928), wk =   0.0370370
        k(   24) = (   0.1666667   0.1603751  -0.2921892), wk =   0.0370370
        k(   25) = (   0.1666667  -0.0320750   0.0000000), wk =   0.0370370
        k(   26) = (   0.1666667  -0.0320750   0.0973964), wk =   0.0370370
        k(   27) = (   0.1666667  -0.0320750   0.1947928), wk =   0.0370370
        k(   28) = (   0.1666667  -0.0320750  -0.2921892), wk =   0.0370370
        k(   29) = (   0.3333333   0.1924501   0.0000000), wk =   0.0185185
        k(   30) = (   0.3333333   0.1924501   0.0973964), wk =   0.0370370
        k(   31) = (   0.3333333   0.1924501   0.1947928), wk =   0.0370370
        k(   32) = (   0.3333333   0.1924501  -0.2921892), wk =   0.0185185
        k(   33) = (   0.3333333   0.2566001   0.0000000), wk =   0.0370370
        k(   34) = (   0.3333333   0.2566001   0.0973964), wk =   0.0370370
        k(   35) = (   0.3333333   0.2566001   0.1947928), wk =   0.0370370
        k(   36) = (   0.3333333   0.2566001  -0.2921892), wk =   0.0370370
        k(   37) = (   0.3333333   0.3207501   0.0000000), wk =   0.0370370
        k(   38) = (   0.3333333   0.3207501   0.0973964), wk =   0.0370370
        k(   39) = (   0.3333333   0.3207501   0.1947928), wk =   0.0370370
        k(   40) = (   0.3333333   0.3207501  -0.2921892), wk =   0.0370370
        k(   41) = (   0.3333333  -0.0000000   0.0000000), wk =   0.0185185
        k(   42) = (   0.3333333  -0.0000000   0.0973964), wk =   0.0370370
        k(   43) = (   0.3333333  -0.0000000   0.1947928), wk =   0.0370370
        k(   44) = (   0.3333333  -0.0000000  -0.2921892), wk =   0.0185185
        k(   45) = (  -0.5000000  -0.2886751   0.0000000), wk =   0.0185185
        k(   46) = (  -0.5000000  -0.2886751   0.0973964), wk =   0.0370370
        k(   47) = (  -0.5000000  -0.2886751   0.1947928), wk =   0.0370370
        k(   48) = (  -0.5000000  -0.2886751  -0.2921892), wk =   0.0185185
        k(   49) = (  -0.5000000  -0.2245251   0.0000000), wk =   0.0370370
        k(   50) = (  -0.5000000  -0.2245251   0.0973964), wk =   0.0370370
        k(   51) = (  -0.5000000  -0.2245251   0.1947928), wk =   0.0370370
        k(   52) = (  -0.5000000  -0.2245251  -0.2921892), wk =   0.0370370
        k(   53) = (   0.0000000   0.0641500  -0.0973964), wk =   0.0185185
        k(   54) = (   0.0000000   0.0641500  -0.1947928), wk =   0.0185185
        k(   55) = (   0.0000000   0.1283001  -0.0973964), wk =   0.0185185
        k(   56) = (   0.0000000   0.1283001  -0.1947928), wk =   0.0185185
        k(   57) = (  -0.1666667   0.0962250  -0.0973964), wk =   0.0370370
        k(   58) = (  -0.1666667   0.0962250  -0.1947928), wk =   0.0370370
        k(   59) = (  -0.1666667   0.1603751  -0.0973964), wk =   0.0370370
        k(   60) = (  -0.1666667   0.1603751  -0.1947928), wk =   0.0370370
        k(   61) = (  -0.1666667  -0.0320750  -0.0973964), wk =   0.0370370
        k(   62) = (  -0.1666667  -0.0320750  -0.1947928), wk =   0.0370370
        k(   63) = (  -0.3333333   0.2566001  -0.0973964), wk =   0.0370370
        k(   64) = (  -0.3333333   0.2566001  -0.1947928), wk =   0.0370370
        k(   65) = (  -0.3333333   0.3207501  -0.0973964), wk =   0.0370370
        k(   66) = (  -0.3333333   0.3207501  -0.1947928), wk =   0.0370370
        k(   67) = (   0.5000000  -0.2245251  -0.0973964), wk =   0.0370370
        k(   68) = (   0.5000000  -0.2245251  -0.1947928), wk =   0.0370370

                       cryst. coord.
        k(    1) = (   0.0000000   0.0000000   0.0000000), wk =   0.0092593
        k(    2) = (   0.0000000   0.0000000   0.1666667), wk =   0.0185185
        k(    3) = (   0.0000000   0.0000000   0.3333333), wk =   0.0185185
        k(    4) = (   0.0000000   0.0000000  -0.5000000), wk =   0.0092593
        k(    5) = (   0.0000000   0.1666667   0.0000000), wk =   0.0185185
        k(    6) = (   0.0000000   0.1666667   0.1666667), wk =   0.0185185
        k(    7) = (   0.0000000   0.1666667   0.3333333), wk =   0.0185185
        k(    8) = (   0.0000000   0.1666667  -0.5000000), wk =   0.0185185
        k(    9) = (   0.0000000   0.3333333   0.0000000), wk =   0.0185185
        k(   10) = (   0.0000000   0.3333333   0.1666667), wk =   0.0185185
        k(   11) = (   0.0000000   0.3333333   0.3333333), wk =   0.0185185
        k(   12) = (   0.0000000   0.3333333  -0.5000000), wk =   0.0185185
        k(   13) = (   0.0000000  -0.5000000   0.0000000), wk =   0.0092593
        k(   14) = (   0.0000000  -0.5000000   0.1666667), wk =   0.0185185
        k(   15) = (   0.0000000  -0.5000000   0.3333333), wk =   0.0185185
        k(   16) = (   0.0000000  -0.5000000  -0.5000000), wk =   0.0092593
        k(   17) = (   0.1666667  -0.0000000   0.0000000), wk =   0.0370370
        k(   18) = (   0.1666667  -0.0000000   0.1666667), wk =   0.0370370
        k(   19) = (   0.1666667  -0.0000000   0.3333333), wk =   0.0370370
        k(   20) = (   0.1666667  -0.0000000  -0.5000000), wk =   0.0370370
        k(   21) = (   0.1666667   0.1666667   0.0000000), wk =   0.0370370
        k(   22) = (   0.1666667   0.1666667   0.1666667), wk =   0.0370370
        k(   23) = (   0.1666667   0.1666667   0.3333333), wk =   0.0370370
        k(   24) = (   0.1666667   0.1666667  -0.5000000), wk =   0.0370370
        k(   25) = (   0.1666667  -0.3333333   0.0000000), wk =   0.0370370
        k(   26) = (   0.1666667  -0.3333333   0.1666667), wk =   0.0370370
        k(   27) = (   0.1666667  -0.3333333   0.3333333), wk =   0.0370370
        k(   28) = (   0.1666667  -0.3333333  -0.5000000), wk =   0.0370370
        k(   29) = (   0.3333333  -0.0000000   0.0000000), wk =   0.0185185
        k(   30) = (   0.3333333  -0.0000000   0.1666667), wk =   0.0370370
        k(   31) = (   0.3333333  -0.0000000   0.3333333), wk =   0.0370370
        k(   32) = (   0.3333333  -0.0000000  -0.5000000), wk =   0.0185185
        k(   33) = (   0.3333333   0.1666667   0.0000000), wk =   0.0370370
        k(   34) = (   0.3333333   0.1666667   0.1666667), wk =   0.0370370
        k(   35) = (   0.3333333   0.1666667   0.3333333), wk =   0.0370370
        k(   36) = (   0.3333333   0.1666667  -0.5000000), wk =   0.0370370
        k(   37) = (   0.3333333   0.3333333   0.0000000), wk =   0.0370370
        k(   38) = (   0.3333333   0.3333333   0.1666667), wk =   0.0370370
        k(   39) = (   0.3333333   0.3333333   0.3333333), wk =   0.0370370
        k(   40) = (   0.3333333   0.3333333  -0.5000000), wk =   0.0370370
        k(   41) = (   0.3333333  -0.5000000   0.0000000), wk =   0.0185185
        k(   42) = (   0.3333333  -0.5000000   0.1666667), wk =   0.0370370
        k(   43) = (   0.3333333  -0.5000000   0.3333333), wk =   0.0370370
        k(   44) = (   0.3333333  -0.5000000  -0.5000000), wk =   0.0185185
        k(   45) = (  -0.5000000   0.0000000   0.0000000), wk =   0.0185185
        k(   46) = (  -0.5000000   0.0000000   0.1666667), wk =   0.0370370
        k(   47) = (  -0.5000000   0.0000000   0.3333333), wk =   0.0370370
        k(   48) = (  -0.5000000   0.0000000  -0.5000000), wk =   0.0185185
        k(   49) = (  -0.5000000   0.1666667   0.0000000), wk =   0.0370370
        k(   50) = (  -0.5000000   0.1666667   0.1666667), wk =   0.0370370
        k(   51) = (  -0.5000000   0.1666667   0.3333333), wk =   0.0370370
        k(   52) = (  -0.5000000   0.1666667  -0.5000000), wk =   0.0370370
        k(   53) = (   0.0000000   0.1666667  -0.1666667), wk =   0.0185185
        k(   54) = (   0.0000000   0.1666667  -0.3333333), wk =   0.0185185
        k(   55) = (   0.0000000   0.3333333  -0.1666667), wk =   0.0185185
        k(   56) = (   0.0000000   0.3333333  -0.3333333), wk =   0.0185185
        k(   57) = (  -0.1666667   0.5000000  -0.1666667), wk =   0.0370370
        k(   58) = (  -0.1666667   0.5000000  -0.3333333), wk =   0.0370370
        k(   59) = (  -0.1666667   0.6666667  -0.1666667), wk =   0.0370370
        k(   60) = (  -0.1666667   0.6666667  -0.3333333), wk =   0.0370370
        k(   61) = (  -0.1666667   0.1666667  -0.1666667), wk =   0.0370370
        k(   62) = (  -0.1666667   0.1666667  -0.3333333), wk =   0.0370370
        k(   63) = (  -0.3333333   1.1666667  -0.1666667), wk =   0.0370370
        k(   64) = (  -0.3333333   1.1666667  -0.3333333), wk =   0.0370370
        k(   65) = (  -0.3333333   1.3333333  -0.1666667), wk =   0.0370370
        k(   66) = (  -0.3333333   1.3333333  -0.3333333), wk =   0.0370370
        k(   67) = (   0.5000000  -1.3333333  -0.1666667), wk =   0.0370370
        k(   68) = (   0.5000000  -1.3333333  -0.3333333), wk =   0.0370370

     Check: negative core charge=   -0.000002

     Initial potential from superposition of free atoms

     starting charge     107.9776, renormalised to     108.0000
     Starting wfcs are   78 randomized atomic wfcs

     Self-consistent Calculation

     iteration #  1     ecut=    50.00 Ry     beta= 0.30
     Davidson diagonalization with overlap

     ethr =  1.00E-02,  avg # of iterations =  1.8

     total energy              =   -1084.32856863 Ry
     estimated scf accuracy    <       2.23279706 Ry

[...]

     c_bands:  1 eigenvalues not converged
     c_bands:  1 eigenvalues not converged
     ethr =  8.01E-09,  avg # of iterations = 15.0

[...]

     c_bands:  1 eigenvalues not converged
     ethr =  1.56E-11,  avg # of iterations = 11.9

[...]

     total energy              =   -1084.85397383 Ry
     estimated scf accuracy    <       0.00000008 Ry

     iteration # 29     ecut=    50.00 Ry     beta= 0.30
     Davidson diagonalization with overlap

     ethr =  1.56E-11,  avg # of iterations =  7.8

     End of self-consistent calculation

          k = 0.0000 0.0000 0.0000 (  6635 PWs)   bands (ev):

   -11.7868 -11.4179 -11.4179 -11.3339 -11.1611 -11.1611  -0.0268  -0.0268
     0.1109   0.1111   0.1633   0.2066   0.2066   0.2345   0.2347   0.2956
     0.2957   0.4702   0.5194   0.5194   0.5579   0.5579   0.7476   0.7476
     0.8910   0.8910   0.9555   0.9555   1.0096   1.0096   1.0767   1.0767
     1.0991   1.0991   1.2710   1.2710   1.4467   1.8471   1.8472   2.4604
     2.4605   3.1775   3.1775   3.9468   3.9468   4.5994   4.5994   4.7888
     4.7888   4.8060   4.8066   5.1347   5.3298   5.3304

     occupation numbers
     1.0000   1.0000   1.0000   1.0000   1.0000   1.0000   1.0000   1.0000
     1.0000   1.0000   1.0000   1.0000   1.0000   1.0000   1.0000   1.0000
     1.0000   1.0000   1.0000   1.0000   1.0000   1.0000   1.0000   1.0000
     1.0000   1.0000   1.0000   1.0000   1.0000   1.0000   1.0000   1.0000
     1.0000   1.0000   1.0000   1.0000   1.0000   1.0000   1.0000   1.0000
     1.0000   1.0000   1.0000   1.0000   1.0000   1.0000   1.0000   1.0000
     1.0000   1.0000   1.0000   1.0000   1.0000   1.0000

[...]

          k =-0.5000-0.2887 0.0000 (  6650 PWs)   bands (ev):

[...]

          k =-0.3333 0.3208-0.1948 (  6650 PWs)   bands (ev):

[...]

          k = 0.5000-0.2245-0.1948 (  6657 PWs)   bands (ev):

   -11.2317 -11.2292 -11.2279 -11.1587 -11.1585 -11.1583   0.0002   0.0360
     0.0890   0.1359   0.1447   0.2000   0.3891   0.4025   0.4164   0.4847
     0.5732   0.5799   0.5912   0.6116   0.6503   0.6593   0.6620   0.7119
     0.9837   1.0292   1.0528   1.0635   1.0677   1.0771   1.1305   1.1433
     1.1524   1.1878   1.2142   1.2494   1.6964   1.7709   1.9193   1.9651
     2.0214   2.2342   3.1951   3.4663   3.5657   3.6024   3.7839   3.8576
     3.9080   4.1016   4.2206   4.3290   4.3313   4.3438

     occupation numbers
     1.0000   1.0000   1.0000   1.0000   1.0000   1.0000   1.0000   1.0000
     1.0000   1.0000   1.0000   1.0000   1.0000   1.0000   1.0000   1.0000
     1.0000   1.0000   1.0000   1.0000   1.0000   1.0000   1.0000   1.0000
     1.0000   1.0000   1.0000   1.0000   1.0000   1.0000   1.0000   1.0000
     1.0000   1.0000   1.0000   1.0000   1.0000   1.0000   1.0000   1.0000
     1.0000   1.0000   1.0000   1.0000   1.0000   1.0000   1.0000   1.0000
     1.0000   1.0000   1.0000   1.0000   1.0000   1.0000

     highest occupied level (ev):     5.3304

!    total energy              =   -1084.85397384 Ry
     estimated scf accuracy    <          4.3E-10 Ry

     The total energy is the sum of the following terms:
     one-electron contribution =    -503.98140913 Ry
     hartree contribution      =     369.43986058 Ry
     xc contribution           =    -327.96866128 Ry
     ewald contribution        =    -622.34376401 Ry

     convergence has been achieved in  29 iterations

     Forces acting on atoms (cartesian axes, Ry/au):

     atom    1 type  1   force =     0.00000000    0.00001033    0.00311496
     atom    2 type  1   force =     0.00000000    0.00000317    0.00311768
     atom    3 type  2   force =     0.00000000    0.00000703   -0.00311595
     atom    4 type  2   force =     0.00000000   -0.00000634   -0.00311565
     atom    5 type  1   force =     0.00000000   -0.00000212    0.00311527
     atom    6 type  1   force =     0.00000000    0.00000032    0.00311501
     atom    7 type  2   force =     0.00000000    0.00000693   -0.00311581
     atom    8 type  2   force =     0.00000000   -0.00000668   -0.00311584
     atom    9 type  1   force =     0.00000000   -0.00000662    0.00311914
     atom   10 type  1   force =     0.00000000   -0.00000616    0.00311312
     atom   11 type  2   force =     0.00000000    0.00000688   -0.00311581
     atom   12 type  2   force =     0.00000000   -0.00000674   -0.00311612
     The non-local contrib.  to forces
     atom    1 type  1   force =     0.00000000   -0.00000222    0.14783410
     atom    2 type  1   force =     0.00000000    0.00000888    0.14783557
     atom    3 type  2   force =     0.00000000    0.00024911    0.15477850
     atom    4 type  2   force =     0.00000000   -0.00024983    0.15477920
     atom    5 type  1   force =     0.00000000   -0.00000735    0.14783332
     atom    6 type  1   force =     0.00000000    0.00000731    0.14783338
     atom    7 type  2   force =     0.00000000    0.00025083    0.15477881
     atom    8 type  2   force =     0.00000000   -0.00025058    0.15477901
     atom    9 type  1   force =     0.00000000   -0.00000948    0.14783601
     atom   10 type  1   force =     0.00000000    0.00000313    0.14783326
     atom   11 type  2   force =     0.00000000    0.00025037    0.15477848
     atom   12 type  2   force =     0.00000000   -0.00025008    0.15477923
     The ionic contribution  to forces
     atom    1 type  1   force =    -0.00000000    0.00000001    1.17172274
     atom    2 type  1   force =     0.00000000    0.00000001    1.17172274
     atom    3 type  2   force =    -0.00000000    0.00000000   -1.17172274
     atom    4 type  2   force =     0.00000000    0.00000000   -1.17172274
     atom    5 type  1   force =    -0.00000001    0.00000001    1.17172274
     atom    6 type  1   force =     0.00000001   -0.00000001    1.17172274
     atom    7 type  2   force =    -0.00000001    0.00000000   -1.17172274
     atom    8 type  2   force =     0.00000001   -0.00000000   -1.17172274
     atom    9 type  1   force =    -0.00000000   -0.00000001    1.17172274
     atom   10 type  1   force =     0.00000000   -0.00000001    1.17172274
     atom   11 type  2   force =    -0.00000000   -0.00000000   -1.17172274
     atom   12 type  2   force =     0.00000000   -0.00000000   -1.17172274
     The local contribution  to forces
     atom    1 type  1   force =    -0.00000004   -0.00001675   -1.30685500
     atom    2 type  1   force =     0.00000000   -0.00000383   -1.30686049
     atom    3 type  2   force =    -0.00000001   -0.00024308    1.01516872
     atom    4 type  2   force =     0.00000000    0.00023581    1.01517056
     atom    5 type  1   force =    -0.00000009    0.00000148   -1.30685474
     atom    6 type  1   force =     0.00000009   -0.00000048   -1.30685407
     atom    7 type  2   force =    -0.00000002   -0.00024178    1.01516871
     atom    8 type  2   force =     0.00000002    0.00024221    1.01517027
     atom    9 type  1   force =     0.00000000    0.00000831   -1.30686370
     atom   10 type  1   force =     0.00000004    0.00001194   -1.30685041
     atom   11 type  2   force =     0.00000000   -0.00023575    1.01516982
     atom   12 type  2   force =     0.00000001    0.00024322    1.01517008
     The core correction contribution to forces
     atom    1 type  1   force =    -0.00000005    0.00001034   -0.00958322
     atom    2 type  1   force =     0.00000000   -0.00001000   -0.00958310
     atom    3 type  2   force =    -0.00000000   -0.00000282   -0.00134290
     atom    4 type  2   force =    -0.00000001    0.00000281   -0.00134290
     atom    5 type  1   force =     0.00000001    0.00000994   -0.00958319
     atom    6 type  1   force =    -0.00000001   -0.00000990   -0.00958322
     atom    7 type  2   force =    -0.00000000   -0.00000284   -0.00134290
     atom    8 type  2   force =     0.00000000    0.00000283   -0.00134290
     atom    9 type  1   force =    -0.00000000    0.00000990   -0.00958299
     atom   10 type  1   force =     0.00000005   -0.00001024   -0.00958337
     atom   11 type  2   force =     0.00000001   -0.00000281   -0.00134290
     atom   12 type  2   force =     0.00000000    0.00000283   -0.00134290
     The Hubbard contrib.    to forces
     atom    1 type  1   force =     0.00000000    0.00000000    0.00000000
     atom    2 type  1   force =     0.00000000    0.00000000    0.00000000
     atom    3 type  2   force =     0.00000000    0.00000000    0.00000000
     atom    4 type  2   force =     0.00000000    0.00000000    0.00000000
     atom    5 type  1   force =     0.00000000    0.00000000    0.00000000
     atom    6 type  1   force =     0.00000000    0.00000000    0.00000000
     atom    7 type  2   force =     0.00000000    0.00000000    0.00000000
     atom    8 type  2   force =     0.00000000    0.00000000    0.00000000
     atom    9 type  1   force =     0.00000000    0.00000000    0.00000000
     atom   10 type  1   force =     0.00000000    0.00000000    0.00000000
     atom   11 type  2   force =     0.00000000    0.00000000    0.00000000
     atom   12 type  2   force =     0.00000000    0.00000000    0.00000000
     The SCF correction term to forces
     atom    1 type  1   force =    -0.00000000    0.00001876   -0.00000521
     atom    2 type  1   force =    -0.00000000    0.00000792    0.00000141
     atom    3 type  2   force =    -0.00000000    0.00000363    0.00000093
     atom    4 type  2   force =     0.00000000    0.00000470   -0.00000132
     atom    5 type  1   force =    -0.00000000   -0.00000637   -0.00000441
     atom    6 type  1   force =     0.00000000    0.00000322   -0.00000536
     atom    7 type  2   force =    -0.00000000    0.00000053    0.00000076
     atom    8 type  2   force =     0.00000000   -0.00000132   -0.00000103
     atom    9 type  1   force =     0.00000000   -0.00001552    0.00000553
     atom   10 type  1   force =     0.00000000   -0.00001116   -0.00001065
     atom   11 type  2   force =    -0.00000000   -0.00000510   -0.00000001
     atom   12 type  2   force =     0.00000000   -0.00000289   -0.00000134

     Total force =     0.010794     Total SCF correction =     0.000034

     General routines

     Parallel routines

   This run was terminated on:  22:36: 9  27Aug2025

   JOB DONE.