     Program PWSCF v.7.0 starts on 27Aug2025 at 14:48:38

     K-points division:     npool     =      17

     Reading input from /home/jvc/QEspresso7.2/ZnO_database/scripts/cell131.in/ZnO-3.07-1.65-131.in
Warning: card &CELL ignored
Warning: card / ignored
Warning: card &FCP ignored
Warning: card / ignored
Warning: card &RISM ignored
Warning: card / ignored

     Current dimensions of program PWSCF are:
     Max number of different atomic species (ntypx) = 10
     Max number of k-points (npk) =  40000
     Max angular momentum in pseudopotentials (lmaxx) =  4
     file Zn.upf: wavefunction(s)  3D renormalized
     Found identity + (  0.0000  0.3333  0.0000) symmetry
     This is a supercell, fractional translations are disabled
     Message from routine setup:
     using ibrav=0 with symmetry is DISCOURAGED, use correct ibrav instead

     Subspace diagonalization in iterative solution of the eigenvalue problem:
     a serial algorithm will be used

     Using Slab Decomposition

     bravais-lattice index     =            0
     lattice parameter (alat)  =       5.8081  a.u.
     unit-cell volume          =     838.2226 (a.u.)^3
     number of atoms/cell      =           12
     number of atomic types    =            2
     number of electrons       =       108.00
     number of Kohn-Sham states=           54
     kinetic-energy cutoff     =      50.0000  Ry
     charge density cutoff     =     400.0000  Ry
     scf convergence threshold =      1.0E-08
     mixing beta               =       0.3000
     number of iterations used =            8  plain     mixing
     Exchange-correlation= PBE
                           (   1   4   3   4   0   0   0)

     celldm(1)=   5.808123  celldm(2)=   0.000000  celldm(3)=   0.000000
     celldm(4)=   0.000000  celldm(5)=   0.000000  celldm(6)=   0.000000

     crystal axes: (cart. coord. in units of alat)
               a(1) = (   1.000000   0.000000   0.000000 )
               a(2) = (  -1.500000   2.598076   0.000000 )
               a(3) = (   0.000000   0.000000   1.646646 )

     reciprocal axes: (cart. coord. in units 2 pi/alat)
               b(1) = (  1.000000  0.577350 -0.000000 )
               b(2) = (  0.000000  0.384900  0.000000 )
               b(3) = (  0.000000 -0.000000  0.607295 )

     PseudoPot. # 1 for Zn read from file:
     /home/jvc/QEspresso7.2/ZnO_database/pseudos/Zn.upf
     MD5 check sum: 7f56cabf9682ed8c977c2f7d0c5985c5
     Pseudo is Ultrasoft + core correction, Zval = 12.0
     Generated using &quot;atomic&quot; code by A. Dal Corso  v.6.2.2
     Using radial grid of 1201 points,  6 beta functions with:
                l(1) =   0
                l(2) =   0
                l(3) =   1
                l(4) =   1
                l(5) =   2
                l(6) =   2
     Q(r) pseudized with 0 coefficients

     PseudoPot. # 2 for O  read from file:
     /home/jvc/QEspresso7.2/ZnO_database/pseudos/O.upf
     MD5 check sum: 91400c9766925bcf19f520983a725ff0
     Pseudo is Ultrasoft + core correction, Zval =  6.0
     Generated using &quot;atomic&quot; code by A. Dal Corso  v.6.3MaX
     Using radial grid of 1095 points,  4 beta functions with:
                l(1) =   0
                l(2) =   0
                l(3) =   1
                l(4) =   1
     Q(r) pseudized with 0 coefficients

     atomic species   valence    mass     pseudopotential
        Zn            12.00    65.38000     Zn( 1.00)
        O              6.00    15.99900     O ( 1.00)

      2 Sym. Ops. (no inversion) found

                                    s                        frac. trans.

      isym =  1     identity

 cryst.   s( 1) = (     1          0          0      )
                  (     0          1          0      )
                  (     0          0          1      )

 cart.    s( 1) = (  1.0000000  0.0000000  0.0000000 )
                  (  0.0000000  1.0000000  0.0000000 )
                  (  0.0000000  0.0000000  1.0000000 )

      isym =  2     inv. 180 deg rotation - cart. axis [1,0,0]

 cryst.   s( 2) = (    -1          0          0      )
                  (     3          1          0      )
                  (     0          0          1      )

 cart.    s( 2) = ( -1.0000000  0.0000000  0.0000000 )
                  (  0.0000000  1.0000000  0.0000000 )
                  (  0.0000000  0.0000000  1.0000000 )

   Cartesian axes

     site n.     atom                  positions (alat units)
         1           Zn  tau(   1) = (   0.5000000   0.2886751   0.8243661  )
         2           Zn  tau(   2) = (   0.0000000   0.5773503   0.0010433  )
         3           O   tau(   3) = (   0.5000000   0.2886751   1.4485152  )
         4           O   tau(   4) = (   0.0000000   0.5773503   0.6251925  )
         5           Zn  tau(   5) = (   0.0000000   1.1547005   0.8243661  )
         6           Zn  tau(   6) = (  -0.5000000   1.4433757   0.0010433  )
         7           O   tau(   7) = (   0.0000000   1.1547005   1.4485152  )
         8           O   tau(   8) = (  -0.5000000   1.4433757   0.6251925  )
         9           Zn  tau(   9) = (  -0.5000000   2.0207259   0.8243661  )
        10           Zn  tau(  10) = (  -1.0000000   2.3094011   0.0010433  )
        11           O   tau(  11) = (  -0.5000000   2.0207259   1.4485152  )
        12           O   tau(  12) = (  -1.0000000   2.3094011   0.6251925  )

   Crystallographic axes

     site n.     atom                  positions (cryst. coord.)
         1           Zn  tau(   1) = (  0.6666667  0.1111111  0.5006336  )
         2           Zn  tau(   2) = (  0.3333333  0.2222222  0.0006336  )
         3           O   tau(   3) = (  0.6666667  0.1111111  0.8796764  )
         4           O   tau(   4) = (  0.3333333  0.2222222  0.3796764  )
         5           Zn  tau(   5) = (  0.6666667  0.4444444  0.5006336  )
         6           Zn  tau(   6) = (  0.3333333  0.5555556  0.0006336  )
         7           O   tau(   7) = (  0.6666667  0.4444444  0.8796764  )
         8           O   tau(   8) = (  0.3333333  0.5555556  0.3796764  )
         9           Zn  tau(   9) = (  0.6666667  0.7777778  0.5006336  )
        10           Zn  tau(  10) = (  0.3333333  0.8888889  0.0006336  )
        11           O   tau(  11) = (  0.6666667  0.7777778  0.8796764  )
        12           O   tau(  12) = (  0.3333333  0.8888889  0.3796764  )

     number of k points=    68
                       cart. coord. in units 2pi/alat
        k(    1) = (   0.0000000   0.0000000   0.0000000), wk =   0.0092593
        k(    2) = (   0.0000000   0.0000000   0.1012159), wk =   0.0185185
        k(    3) = (   0.0000000   0.0000000   0.2024317), wk =   0.0185185
        k(    4) = (   0.0000000   0.0000000  -0.3036476), wk =   0.0092593
        k(    5) = (   0.0000000   0.0641500   0.0000000), wk =   0.0185185
        k(    6) = (   0.0000000   0.0641500   0.1012159), wk =   0.0185185
        k(    7) = (   0.0000000   0.0641500   0.2024317), wk =   0.0185185
        k(    8) = (   0.0000000   0.0641500  -0.3036476), wk =   0.0185185
        k(    9) = (   0.0000000   0.1283001   0.0000000), wk =   0.0185185
        k(   10) = (   0.0000000   0.1283001   0.1012159), wk =   0.0185185
        k(   11) = (   0.0000000   0.1283001   0.2024317), wk =   0.0185185
        k(   12) = (   0.0000000   0.1283001  -0.3036476), wk =   0.0185185
        k(   13) = (   0.0000000  -0.1924501   0.0000000), wk =   0.0092593
        k(   14) = (   0.0000000  -0.1924501   0.1012159), wk =   0.0185185
        k(   15) = (   0.0000000  -0.1924501   0.2024317), wk =   0.0185185
        k(   16) = (   0.0000000  -0.1924501  -0.3036476), wk =   0.0092593
        k(   17) = (   0.1666667   0.0962250   0.0000000), wk =   0.0370370
        k(   18) = (   0.1666667   0.0962250   0.1012159), wk =   0.0370370
        k(   19) = (   0.1666667   0.0962250   0.2024317), wk =   0.0370370
        k(   20) = (   0.1666667   0.0962250  -0.3036476), wk =   0.0370370
        k(   21) = (   0.1666667   0.1603751   0.0000000), wk =   0.0370370
        k(   22) = (   0.1666667   0.1603751   0.1012159), wk =   0.0370370
        k(   23) = (   0.1666667   0.1603751   0.2024317), wk =   0.0370370
        k(   24) = (   0.1666667   0.1603751  -0.3036476), wk =   0.0370370
        k(   25) = (   0.1666667  -0.0320750   0.0000000), wk =   0.0370370
        k(   26) = (   0.1666667  -0.0320750   0.1012159), wk =   0.0370370
        k(   27) = (   0.1666667  -0.0320750   0.2024317), wk =   0.0370370
        k(   28) = (   0.1666667  -0.0320750  -0.3036476), wk =   0.0370370
        k(   29) = (   0.3333333   0.1924501   0.0000000), wk =   0.0185185
        k(   30) = (   0.3333333   0.1924501   0.1012159), wk =   0.0370370
        k(   31) = (   0.3333333   0.1924501   0.2024317), wk =   0.0370370
        k(   32) = (   0.3333333   0.1924501  -0.3036476), wk =   0.0185185
        k(   33) = (   0.3333333   0.2566001   0.0000000), wk =   0.0370370
        k(   34) = (   0.3333333   0.2566001   0.1012159), wk =   0.0370370
        k(   35) = (   0.3333333   0.2566001   0.2024317), wk =   0.0370370
        k(   36) = (   0.3333333   0.2566001  -0.3036476), wk =   0.0370370
        k(   37) = (   0.3333333   0.3207501   0.0000000), wk =   0.0370370
        k(   38) = (   0.3333333   0.3207501   0.1012159), wk =   0.0370370
        k(   39) = (   0.3333333   0.3207501   0.2024317), wk =   0.0370370
        k(   40) = (   0.3333333   0.3207501  -0.3036476), wk =   0.0370370
        k(   41) = (   0.3333333  -0.0000000   0.0000000), wk =   0.0185185
        k(   42) = (   0.3333333  -0.0000000   0.1012159), wk =   0.0370370
        k(   43) = (   0.3333333  -0.0000000   0.2024317), wk =   0.0370370
        k(   44) = (   0.3333333  -0.0000000  -0.3036476), wk =   0.0185185
        k(   45) = (  -0.5000000  -0.2886751   0.0000000), wk =   0.0185185
        k(   46) = (  -0.5000000  -0.2886751   0.1012159), wk =   0.0370370
        k(   47) = (  -0.5000000  -0.2886751   0.2024317), wk =   0.0370370
        k(   48) = (  -0.5000000  -0.2886751  -0.3036476), wk =   0.0185185
        k(   49) = (  -0.5000000  -0.2245251   0.0000000), wk =   0.0370370
        k(   50) = (  -0.5000000  -0.2245251   0.1012159), wk =   0.0370370
        k(   51) = (  -0.5000000  -0.2245251   0.2024317), wk =   0.0370370
        k(   52) = (  -0.5000000  -0.2245251  -0.3036476), wk =   0.0370370
        k(   53) = (   0.0000000   0.0641500  -0.1012159), wk =   0.0185185
        k(   54) = (   0.0000000   0.0641500  -0.2024317), wk =   0.0185185
        k(   55) = (   0.0000000   0.1283001  -0.1012159), wk =   0.0185185
        k(   56) = (   0.0000000   0.1283001  -0.2024317), wk =   0.0185185
        k(   57) = (  -0.1666667   0.0962250  -0.1012159), wk =   0.0370370
        k(   58) = (  -0.1666667   0.0962250  -0.2024317), wk =   0.0370370
        k(   59) = (  -0.1666667   0.1603751  -0.1012159), wk =   0.0370370
        k(   60) = (  -0.1666667   0.1603751  -0.2024317), wk =   0.0370370
        k(   61) = (  -0.1666667  -0.0320750  -0.1012159), wk =   0.0370370
        k(   62) = (  -0.1666667  -0.0320750  -0.2024317), wk =   0.0370370
        k(   63) = (  -0.3333333   0.2566001  -0.1012159), wk =   0.0370370
        k(   64) = (  -0.3333333   0.2566001  -0.2024317), wk =   0.0370370
        k(   65) = (  -0.3333333   0.3207501  -0.1012159), wk =   0.0370370
        k(   66) = (  -0.3333333   0.3207501  -0.2024317), wk =   0.0370370
        k(   67) = (   0.5000000  -0.2245251  -0.1012159), wk =   0.0370370
        k(   68) = (   0.5000000  -0.2245251  -0.2024317), wk =   0.0370370

                       cryst. coord.
        k(    1) = (   0.0000000   0.0000000   0.0000000), wk =   0.0092593
        k(    2) = (   0.0000000   0.0000000   0.1666667), wk =   0.0185185
        k(    3) = (   0.0000000   0.0000000   0.3333333), wk =   0.0185185
        k(    4) = (   0.0000000   0.0000000  -0.5000000), wk =   0.0092593
        k(    5) = (   0.0000000   0.1666667   0.0000000), wk =   0.0185185
        k(    6) = (   0.0000000   0.1666667   0.1666667), wk =   0.0185185
        k(    7) = (   0.0000000   0.1666667   0.3333333), wk =   0.0185185
        k(    8) = (   0.0000000   0.1666667  -0.5000000), wk =   0.0185185
        k(    9) = (   0.0000000   0.3333333   0.0000000), wk =   0.0185185
        k(   10) = (   0.0000000   0.3333333   0.1666667), wk =   0.0185185
        k(   11) = (   0.0000000   0.3333333   0.3333333), wk =   0.0185185
        k(   12) = (   0.0000000   0.3333333  -0.5000000), wk =   0.0185185
        k(   13) = (   0.0000000  -0.5000000   0.0000000), wk =   0.0092593
        k(   14) = (   0.0000000  -0.5000000   0.1666667), wk =   0.0185185
        k(   15) = (   0.0000000  -0.5000000   0.3333333), wk =   0.0185185
        k(   16) = (   0.0000000  -0.5000000  -0.5000000), wk =   0.0092593
        k(   17) = (   0.1666667   0.0000000   0.0000000), wk =   0.0370370
        k(   18) = (   0.1666667   0.0000000   0.1666667), wk =   0.0370370
        k(   19) = (   0.1666667   0.0000000   0.3333333), wk =   0.0370370
        k(   20) = (   0.1666667   0.0000000  -0.5000000), wk =   0.0370370
        k(   21) = (   0.1666667   0.1666667   0.0000000), wk =   0.0370370
        k(   22) = (   0.1666667   0.1666667   0.1666667), wk =   0.0370370
        k(   23) = (   0.1666667   0.1666667   0.3333333), wk =   0.0370370
        k(   24) = (   0.1666667   0.1666667  -0.5000000), wk =   0.0370370
        k(   25) = (   0.1666667  -0.3333333   0.0000000), wk =   0.0370370
        k(   26) = (   0.1666667  -0.3333333   0.1666667), wk =   0.0370370
        k(   27) = (   0.1666667  -0.3333333   0.3333333), wk =   0.0370370
        k(   28) = (   0.1666667  -0.3333333  -0.5000000), wk =   0.0370370
        k(   29) = (   0.3333333   0.0000000   0.0000000), wk =   0.0185185
        k(   30) = (   0.3333333   0.0000000   0.1666667), wk =   0.0370370
        k(   31) = (   0.3333333   0.0000000   0.3333333), wk =   0.0370370
        k(   32) = (   0.3333333   0.0000000  -0.5000000), wk =   0.0185185
        k(   33) = (   0.3333333   0.1666667   0.0000000), wk =   0.0370370
        k(   34) = (   0.3333333   0.1666667   0.1666667), wk =   0.0370370
        k(   35) = (   0.3333333   0.1666667   0.3333333), wk =   0.0370370
        k(   36) = (   0.3333333   0.1666667  -0.5000000), wk =   0.0370370
        k(   37) = (   0.3333333   0.3333333   0.0000000), wk =   0.0370370
        k(   38) = (   0.3333333   0.3333333   0.1666667), wk =   0.0370370
        k(   39) = (   0.3333333   0.3333333   0.3333333), wk =   0.0370370
        k(   40) = (   0.3333333   0.3333333  -0.5000000), wk =   0.0370370
        k(   41) = (   0.3333333  -0.5000000   0.0000000), wk =   0.0185185
        k(   42) = (   0.3333333  -0.5000000   0.1666667), wk =   0.0370370
        k(   43) = (   0.3333333  -0.5000000   0.3333333), wk =   0.0370370
        k(   44) = (   0.3333333  -0.5000000  -0.5000000), wk =   0.0185185
        k(   45) = (  -0.5000000   0.0000000   0.0000000), wk =   0.0185185
        k(   46) = (  -0.5000000   0.0000000   0.1666667), wk =   0.0370370
        k(   47) = (  -0.5000000   0.0000000   0.3333333), wk =   0.0370370
        k(   48) = (  -0.5000000   0.0000000  -0.5000000), wk =   0.0185185
        k(   49) = (  -0.5000000   0.1666667   0.0000000), wk =   0.0370370
        k(   50) = (  -0.5000000   0.1666667   0.1666667), wk =   0.0370370
        k(   51) = (  -0.5000000   0.1666667   0.3333333), wk =   0.0370370
        k(   52) = (  -0.5000000   0.1666667  -0.5000000), wk =   0.0370370
        k(   53) = (   0.0000000   0.1666667  -0.1666667), wk =   0.0185185
        k(   54) = (   0.0000000   0.1666667  -0.3333333), wk =   0.0185185
        k(   55) = (   0.0000000   0.3333333  -0.1666667), wk =   0.0185185
        k(   56) = (   0.0000000   0.3333333  -0.3333333), wk =   0.0185185
        k(   57) = (  -0.1666667   0.5000000  -0.1666667), wk =   0.0370370
        k(   58) = (  -0.1666667   0.5000000  -0.3333333), wk =   0.0370370
        k(   59) = (  -0.1666667   0.6666667  -0.1666667), wk =   0.0370370
        k(   60) = (  -0.1666667   0.6666667  -0.3333333), wk =   0.0370370
        k(   61) = (  -0.1666667   0.1666667  -0.1666667), wk =   0.0370370
        k(   62) = (  -0.1666667   0.1666667  -0.3333333), wk =   0.0370370
        k(   63) = (  -0.3333333   1.1666667  -0.1666667), wk =   0.0370370
        k(   64) = (  -0.3333333   1.1666667  -0.3333333), wk =   0.0370370
        k(   65) = (  -0.3333333   1.3333333  -0.1666667), wk =   0.0370370
        k(   66) = (  -0.3333333   1.3333333  -0.3333333), wk =   0.0370370
        k(   67) = (   0.5000000  -1.3333333  -0.1666667), wk =   0.0370370
        k(   68) = (   0.5000000  -1.3333333  -0.3333333), wk =   0.0370370

     Check: negative core charge=   -0.000002

     Initial potential from superposition of free atoms

     starting charge     107.9776, renormalised to     108.0000
     Starting wfcs are   78 randomized atomic wfcs

     Self-consistent Calculation

     iteration #  1     ecut=    50.00 Ry     beta= 0.30
     Davidson diagonalization with overlap

     ethr =  1.00E-02,  avg # of iterations =  2.0

     total energy              =   -1084.33280381 Ry
     estimated scf accuracy    <       2.01434007 Ry

[...]

     total energy              =   -1084.75180705 Ry
     estimated scf accuracy    <       0.00000002 Ry

     iteration # 31     ecut=    50.00 Ry     beta= 0.30
     Davidson diagonalization with overlap

     ethr =  1.47E-11,  avg # of iterations =  1.2

     End of self-consistent calculation

          k = 0.0000 0.0000 0.0000 (  5027 PWs)   bands (ev):

    -9.7860  -9.1448  -9.1448  -8.8700  -8.6179  -8.6179   2.5148   2.5148
     2.6702   2.9585   2.9585   3.0377   3.0379   3.1066   3.2649   3.2650
     3.3161   3.3161   3.4861   3.4861   3.7689   3.7689   3.7832   3.7832
     4.5341   4.5341   4.7151   4.7151   4.8122   4.8122   4.9868   4.9869
     5.0301   5.0301   5.0635   5.0635   5.3435   5.4850   5.4850   6.0371
     6.0371   7.1536   7.1536   7.4080   7.4080   8.5422   8.5422   8.6830
     8.6833   8.8269   8.8269   9.3905   9.5933   9.5936

     occupation numbers
     1.0000   1.0000   1.0000   1.0000   1.0000   1.0000   1.0000   1.0000
     1.0000   1.0000   1.0000   1.0000   1.0000   1.0000   1.0000   1.0000
     1.0000   1.0000   1.0000   1.0000   1.0000   1.0000   1.0000   1.0000
     1.0000   1.0000   1.0000   1.0000   1.0000   1.0000   1.0000   1.0000
     1.0000   1.0000   1.0000   1.0000   1.0000   1.0000   1.0000   1.0000
     1.0000   1.0000   1.0000   1.0000   1.0000   1.0000   1.0000   1.0000
     1.0000   1.0000   1.0000   1.0000   1.0000   1.0000

[...]

          k =-0.5000-0.2887 0.0000 (  4976 PWs)   bands (ev):

[...]

          k =-0.3333 0.3208-0.2024 (  5006 PWs)   bands (ev):

[...]

          k = 0.5000-0.2245-0.2024 (  4994 PWs)   bands (ev):

    -8.7939  -8.7878  -8.7846  -8.6433  -8.6430  -8.6424   2.4331   2.4728
     2.4898   2.5621   2.6659   2.7205   3.3058   3.3992   3.4137   3.4765
     3.5727   3.6367   3.7622   3.7781   3.7859   3.8188   3.8229   3.8314
     4.7470   4.8387   4.9002   4.9121   4.9234   4.9468   5.0345   5.0600
     5.0772   5.1492   5.1924   5.2553   5.4485   5.4716   5.6072   5.6255
     5.7727   6.0847   6.5925   6.9647   7.1231   7.1613   7.3720   7.3871
     7.6802   7.8645   8.0327   8.1878   8.1908   8.1941

     occupation numbers
     1.0000   1.0000   1.0000   1.0000   1.0000   1.0000   1.0000   1.0000
     1.0000   1.0000   1.0000   1.0000   1.0000   1.0000   1.0000   1.0000
     1.0000   1.0000   1.0000   1.0000   1.0000   1.0000   1.0000   1.0000
     1.0000   1.0000   1.0000   1.0000   1.0000   1.0000   1.0000   1.0000
     1.0000   1.0000   1.0000   1.0000   1.0000   1.0000   1.0000   1.0000
     1.0000   1.0000   1.0000   1.0000   1.0000   1.0000   1.0000   1.0000
     1.0000   1.0000   1.0000   1.0000   1.0000   1.0000

     highest occupied level (ev):     9.5936

!    total energy              =   -1084.75180704 Ry
     estimated scf accuracy    <          6.2E-09 Ry

     The total energy is the sum of the following terms:
     one-electron contribution =    -405.08711786 Ry
     hartree contribution      =     334.47743808 Ry
     xc contribution           =    -329.75716971 Ry
     ewald contribution        =    -684.38495755 Ry

     convergence has been achieved in  31 iterations

     Forces acting on atoms (cartesian axes, Ry/au):

     atom    1 type  1   force =     0.00000000   -0.00000909    0.01408238
     atom    2 type  1   force =     0.00000000    0.00001773    0.01408951
     atom    3 type  2   force =     0.00000000    0.00000045   -0.01408720
     atom    4 type  2   force =     0.00000000   -0.00000426   -0.01408633
     atom    5 type  1   force =     0.00000000   -0.00001565    0.01408370
     atom    6 type  1   force =     0.00000000    0.00000907    0.01408834
     atom    7 type  2   force =     0.00000000    0.00000351   -0.01408650
     atom    8 type  2   force =     0.00000000   -0.00000087   -0.01408713
     atom    9 type  1   force =     0.00000000   -0.00001753    0.01408513
     atom   10 type  1   force =     0.00000000    0.00001615    0.01409073
     atom   11 type  2   force =     0.00000000    0.00000330   -0.01408674
     atom   12 type  2   force =     0.00000000   -0.00000283   -0.01408588
     The non-local contrib.  to forces
     atom    1 type  1   force =     0.00000000    0.00003029    0.05524892
     atom    2 type  1   force =     0.00000000   -0.00002312    0.05525332
     atom    3 type  2   force =     0.00000000    0.00020215    0.04805999
     atom    4 type  2   force =     0.00000000   -0.00020677    0.04806276
     atom    5 type  1   force =     0.00000000    0.00002439    0.05524917
     atom    6 type  1   force =     0.00000000   -0.00003029    0.05525269
     atom    7 type  2   force =     0.00000000    0.00020693    0.04806162
     atom    8 type  2   force =     0.00000000   -0.00020222    0.04806065
     atom    9 type  1   force =     0.00000000    0.00002401    0.05525037
     atom   10 type  1   force =     0.00000000   -0.00002572    0.05525449
     atom   11 type  2   force =     0.00000000    0.00020658    0.04806166
     atom   12 type  2   force =     0.00000000   -0.00020588    0.04806296
     The ionic contribution  to forces
     atom    1 type  1   force =    -0.00000000    0.00000001    0.52630185
     atom    2 type  1   force =     0.00000000    0.00000001    0.52630185
     atom    3 type  2   force =    -0.00000000    0.00000001   -0.52630185
     atom    4 type  2   force =     0.00000000    0.00000000   -0.52630185
     atom    5 type  1   force =    -0.00000001    0.00000001    0.52630184
     atom    6 type  1   force =     0.00000001   -0.00000001    0.52630184
     atom    7 type  2   force =    -0.00000001    0.00000000   -0.52630184
     atom    8 type  2   force =     0.00000001   -0.00000000   -0.52630184
     atom    9 type  1   force =    -0.00000000   -0.00000001    0.52630185
     atom   10 type  1   force =     0.00000000   -0.00000001    0.52630185
     atom   11 type  2   force =    -0.00000000   -0.00000000   -0.52630185
     atom   12 type  2   force =     0.00000000   -0.00000001   -0.52630185
     The local contribution  to forces
     atom    1 type  1   force =    -0.00000004   -0.00005440   -0.56304516
     atom    2 type  1   force =    -0.00000000    0.00003840   -0.56305633
     atom    3 type  2   force =    -0.00000001   -0.00020453    0.46449433
     atom    4 type  2   force =    -0.00000000    0.00019421    0.46449859
     atom    5 type  1   force =    -0.00000008   -0.00004278   -0.56304539
     atom    6 type  1   force =     0.00000008    0.00005475   -0.56305601
     atom    7 type  2   force =    -0.00000002   -0.00019505    0.46449616
     atom    8 type  2   force =     0.00000002    0.00020444    0.46449623
     atom    9 type  1   force =    -0.00000000   -0.00003864   -0.56304772
     atom   10 type  1   force =     0.00000004    0.00004249   -0.56305877
     atom   11 type  2   force =    -0.00000000   -0.00019703    0.46449642
     atom   12 type  2   force =     0.00000001    0.00019809    0.46449986
     The core correction contribution to forces
     atom    1 type  1   force =    -0.00000001    0.00000646   -0.00441203
     atom    2 type  1   force =    -0.00000000   -0.00000645   -0.00441201
     atom    3 type  2   force =     0.00000000   -0.00000230   -0.00034012
     atom    4 type  2   force =    -0.00000000    0.00000233   -0.00034014
     atom    5 type  1   force =    -0.00000001    0.00000653   -0.00441209
     atom    6 type  1   force =     0.00000001   -0.00000649   -0.00441189
     atom    7 type  2   force =     0.00000000   -0.00000233   -0.00034013
     atom    8 type  2   force =    -0.00000000    0.00000230   -0.00034012
     atom    9 type  1   force =     0.00000000    0.00000634   -0.00441214
     atom   10 type  1   force =     0.00000001   -0.00000639   -0.00441202
     atom   11 type  2   force =     0.00000000   -0.00000233   -0.00034013
     atom   12 type  2   force =    -0.00000000    0.00000233   -0.00034014
     The Hubbard contrib.    to forces
     atom    1 type  1   force =     0.00000000    0.00000000    0.00000000
     atom    2 type  1   force =     0.00000000    0.00000000    0.00000000
     atom    3 type  2   force =     0.00000000    0.00000000    0.00000000
     atom    4 type  2   force =     0.00000000    0.00000000    0.00000000
     atom    5 type  1   force =     0.00000000    0.00000000    0.00000000
     atom    6 type  1   force =     0.00000000    0.00000000    0.00000000
     atom    7 type  2   force =     0.00000000    0.00000000    0.00000000
     atom    8 type  2   force =     0.00000000    0.00000000    0.00000000
     atom    9 type  1   force =     0.00000000    0.00000000    0.00000000
     atom   10 type  1   force =     0.00000000    0.00000000    0.00000000
     atom   11 type  2   force =     0.00000000    0.00000000    0.00000000
     atom   12 type  2   force =     0.00000000    0.00000000    0.00000000
     The SCF correction term to forces
     atom    1 type  1   force =    -0.00000000    0.00000867   -0.00001062
     atom    2 type  1   force =     0.00000000    0.00000901    0.00000326
     atom    3 type  2   force =    -0.00000000    0.00000524    0.00000101
     atom    4 type  2   force =     0.00000000    0.00000609   -0.00000512
     atom    5 type  1   force =    -0.00000000   -0.00000367   -0.00000926
     atom    6 type  1   force =     0.00000000   -0.00000877    0.00000229
     atom    7 type  2   force =    -0.00000000   -0.00000592   -0.00000175
     atom    8 type  2   force =     0.00000000   -0.00000527   -0.00000147
     atom    9 type  1   force =    -0.00000000   -0.00000911   -0.00000665
     atom   10 type  1   force =     0.00000000    0.00000589    0.00000576
     atom   11 type  2   force =    -0.00000000   -0.00000380   -0.00000228
     atom   12 type  2   force =     0.00000000    0.00000275   -0.00000614

     Total force =     0.048798     Total SCF correction =     0.000030

     General routines

     Parallel routines

   This run was terminated on:  14:58: 4  27Aug2025

   JOB DONE.