     Program PWSCF v.7.0 starts on 27Aug2025 at 21:47:17

     K-points division:     npool     =      17

     Reading input from /home/jvc/QEspresso7.2/ZnO_database/scripts/cell131.in/ZnO-3.34-1.61-131.in
Warning: card &CELL ignored
Warning: card / ignored
Warning: card &FCP ignored
Warning: card / ignored
Warning: card &RISM ignored
Warning: card / ignored

     Current dimensions of program PWSCF are:
     Max number of different atomic species (ntypx) = 10
     Max number of k-points (npk) =  40000
     Max angular momentum in pseudopotentials (lmaxx) =  4
     file Zn.upf: wavefunction(s)  3D renormalized
     Found identity + (  0.0000  0.3333  0.0000) symmetry
     This is a supercell, fractional translations are disabled
     Message from routine setup:
     using ibrav=0 with symmetry is DISCOURAGED, use correct ibrav instead

     Subspace diagonalization in iterative solution of the eigenvalue problem:
     a serial algorithm will be used

     Using Slab Decomposition

     bravais-lattice index     =            0
     lattice parameter (alat)  =       6.3024  a.u.
     unit-cell volume          =    1049.9682 (a.u.)^3
     number of atoms/cell      =           12
     number of atomic types    =            2
     number of electrons       =       108.00
     number of Kohn-Sham states=           54
     kinetic-energy cutoff     =      50.0000  Ry
     charge density cutoff     =     400.0000  Ry
     scf convergence threshold =      1.0E-08
     mixing beta               =       0.3000
     number of iterations used =            8  plain     mixing
     Exchange-correlation= PBE
                           (   1   4   3   4   0   0   0)

     celldm(1)=   6.302431  celldm(2)=   0.000000  celldm(3)=   0.000000
     celldm(4)=   0.000000  celldm(5)=   0.000000  celldm(6)=   0.000000

     crystal axes: (cart. coord. in units of alat)
               a(1) = (   1.000000   0.000000   0.000000 )
               a(2) = (  -1.500000   2.598076   0.000000 )
               a(3) = (   0.000000   0.000000   1.614358 )

     reciprocal axes: (cart. coord. in units 2 pi/alat)
               b(1) = (  1.000000  0.577350 -0.000000 )
               b(2) = (  0.000000  0.384900  0.000000 )
               b(3) = (  0.000000 -0.000000  0.619441 )

     PseudoPot. # 1 for Zn read from file:
     /home/jvc/QEspresso7.2/ZnO_database/pseudos/Zn.upf
     MD5 check sum: 7f56cabf9682ed8c977c2f7d0c5985c5
     Pseudo is Ultrasoft + core correction, Zval = 12.0
     Generated using &quot;atomic&quot; code by A. Dal Corso  v.6.2.2
     Using radial grid of 1201 points,  6 beta functions with:
                l(1) =   0
                l(2) =   0
                l(3) =   1
                l(4) =   1
                l(5) =   2
                l(6) =   2
     Q(r) pseudized with 0 coefficients

     PseudoPot. # 2 for O  read from file:
     /home/jvc/QEspresso7.2/ZnO_database/pseudos/O.upf
     MD5 check sum: 91400c9766925bcf19f520983a725ff0
     Pseudo is Ultrasoft + core correction, Zval =  6.0
     Generated using &quot;atomic&quot; code by A. Dal Corso  v.6.3MaX
     Using radial grid of 1095 points,  4 beta functions with:
                l(1) =   0
                l(2) =   0
                l(3) =   1
                l(4) =   1
     Q(r) pseudized with 0 coefficients

     atomic species   valence    mass     pseudopotential
        Zn            12.00    65.38000     Zn( 1.00)
        O              6.00    15.99900     O ( 1.00)

      2 Sym. Ops. (no inversion) found

                                    s                        frac. trans.

      isym =  1     identity

 cryst.   s( 1) = (     1          0          0      )
                  (     0          1          0      )
                  (     0          0          1      )

 cart.    s( 1) = (  1.0000000  0.0000000  0.0000000 )
                  (  0.0000000  1.0000000  0.0000000 )
                  (  0.0000000  0.0000000  1.0000000 )

      isym =  2     inv. 180 deg rotation - cart. axis [1,0,0]

 cryst.   s( 2) = (    -1          0          0      )
                  (     3          1          0      )
                  (     0          0          1      )

 cart.    s( 2) = ( -1.0000000  0.0000000  0.0000000 )
                  (  0.0000000  1.0000000  0.0000000 )
                  (  0.0000000  0.0000000  1.0000000 )

   Cartesian axes

     site n.     atom                  positions (alat units)
         1           Zn  tau(   1) = (   0.5000000   0.2886751   0.8082020  )
         2           Zn  tau(   2) = (   0.0000000   0.5773503   0.0010228  )
         3           O   tau(   3) = (   0.5000000   0.2886751   1.4201130  )
         4           O   tau(   4) = (   0.0000000   0.5773503   0.6129338  )
         5           Zn  tau(   5) = (   0.0000000   1.1547005   0.8082020  )
         6           Zn  tau(   6) = (  -0.5000000   1.4433757   0.0010228  )
         7           O   tau(   7) = (   0.0000000   1.1547005   1.4201130  )
         8           O   tau(   8) = (  -0.5000000   1.4433757   0.6129338  )
         9           Zn  tau(   9) = (  -0.5000000   2.0207259   0.8082020  )
        10           Zn  tau(  10) = (  -1.0000000   2.3094011   0.0010228  )
        11           O   tau(  11) = (  -0.5000000   2.0207259   1.4201130  )
        12           O   tau(  12) = (  -1.0000000   2.3094011   0.6129338  )

   Crystallographic axes

     site n.     atom                  positions (cryst. coord.)
         1           Zn  tau(   1) = (  0.6666667  0.1111111  0.5006336  )
         2           Zn  tau(   2) = (  0.3333333  0.2222222  0.0006336  )
         3           O   tau(   3) = (  0.6666667  0.1111111  0.8796764  )
         4           O   tau(   4) = (  0.3333333  0.2222222  0.3796764  )
         5           Zn  tau(   5) = (  0.6666667  0.4444444  0.5006336  )
         6           Zn  tau(   6) = (  0.3333333  0.5555556  0.0006336  )
         7           O   tau(   7) = (  0.6666667  0.4444444  0.8796764  )
         8           O   tau(   8) = (  0.3333333  0.5555556  0.3796764  )
         9           Zn  tau(   9) = (  0.6666667  0.7777778  0.5006336  )
        10           Zn  tau(  10) = (  0.3333333  0.8888889  0.0006336  )
        11           O   tau(  11) = (  0.6666667  0.7777778  0.8796764  )
        12           O   tau(  12) = (  0.3333333  0.8888889  0.3796764  )

     number of k points=    68
                       cart. coord. in units 2pi/alat
        k(    1) = (   0.0000000   0.0000000   0.0000000), wk =   0.0092593
        k(    2) = (   0.0000000   0.0000000   0.1032402), wk =   0.0185185
        k(    3) = (   0.0000000   0.0000000   0.2064804), wk =   0.0185185
        k(    4) = (   0.0000000   0.0000000  -0.3097206), wk =   0.0092593
        k(    5) = (   0.0000000   0.0641500   0.0000000), wk =   0.0185185
        k(    6) = (   0.0000000   0.0641500   0.1032402), wk =   0.0185185
        k(    7) = (   0.0000000   0.0641500   0.2064804), wk =   0.0185185
        k(    8) = (   0.0000000   0.0641500  -0.3097206), wk =   0.0185185
        k(    9) = (   0.0000000   0.1283001   0.0000000), wk =   0.0185185
        k(   10) = (   0.0000000   0.1283001   0.1032402), wk =   0.0185185
        k(   11) = (   0.0000000   0.1283001   0.2064804), wk =   0.0185185
        k(   12) = (   0.0000000   0.1283001  -0.3097206), wk =   0.0185185
        k(   13) = (   0.0000000  -0.1924501   0.0000000), wk =   0.0092593
        k(   14) = (   0.0000000  -0.1924501   0.1032402), wk =   0.0185185
        k(   15) = (   0.0000000  -0.1924501   0.2064804), wk =   0.0185185
        k(   16) = (   0.0000000  -0.1924501  -0.3097206), wk =   0.0092593
        k(   17) = (   0.1666667   0.0962250   0.0000000), wk =   0.0370370
        k(   18) = (   0.1666667   0.0962250   0.1032402), wk =   0.0370370
        k(   19) = (   0.1666667   0.0962250   0.2064804), wk =   0.0370370
        k(   20) = (   0.1666667   0.0962250  -0.3097206), wk =   0.0370370
        k(   21) = (   0.1666667   0.1603751   0.0000000), wk =   0.0370370
        k(   22) = (   0.1666667   0.1603751   0.1032402), wk =   0.0370370
        k(   23) = (   0.1666667   0.1603751   0.2064804), wk =   0.0370370
        k(   24) = (   0.1666667   0.1603751  -0.3097206), wk =   0.0370370
        k(   25) = (   0.1666667  -0.0320750   0.0000000), wk =   0.0370370
        k(   26) = (   0.1666667  -0.0320750   0.1032402), wk =   0.0370370
        k(   27) = (   0.1666667  -0.0320750   0.2064804), wk =   0.0370370
        k(   28) = (   0.1666667  -0.0320750  -0.3097206), wk =   0.0370370
        k(   29) = (   0.3333333   0.1924501   0.0000000), wk =   0.0185185
        k(   30) = (   0.3333333   0.1924501   0.1032402), wk =   0.0370370
        k(   31) = (   0.3333333   0.1924501   0.2064804), wk =   0.0370370
        k(   32) = (   0.3333333   0.1924501  -0.3097206), wk =   0.0185185
        k(   33) = (   0.3333333   0.2566001   0.0000000), wk =   0.0370370
        k(   34) = (   0.3333333   0.2566001   0.1032402), wk =   0.0370370
        k(   35) = (   0.3333333   0.2566001   0.2064804), wk =   0.0370370
        k(   36) = (   0.3333333   0.2566001  -0.3097206), wk =   0.0370370
        k(   37) = (   0.3333333   0.3207501   0.0000000), wk =   0.0370370
        k(   38) = (   0.3333333   0.3207501   0.1032402), wk =   0.0370370
        k(   39) = (   0.3333333   0.3207501   0.2064804), wk =   0.0370370
        k(   40) = (   0.3333333   0.3207501  -0.3097206), wk =   0.0370370
        k(   41) = (   0.3333333  -0.0000000   0.0000000), wk =   0.0185185
        k(   42) = (   0.3333333  -0.0000000   0.1032402), wk =   0.0370370
        k(   43) = (   0.3333333  -0.0000000   0.2064804), wk =   0.0370370
        k(   44) = (   0.3333333  -0.0000000  -0.3097206), wk =   0.0185185
        k(   45) = (  -0.5000000  -0.2886751   0.0000000), wk =   0.0185185
        k(   46) = (  -0.5000000  -0.2886751   0.1032402), wk =   0.0370370
        k(   47) = (  -0.5000000  -0.2886751   0.2064804), wk =   0.0370370
        k(   48) = (  -0.5000000  -0.2886751  -0.3097206), wk =   0.0185185
        k(   49) = (  -0.5000000  -0.2245251   0.0000000), wk =   0.0370370
        k(   50) = (  -0.5000000  -0.2245251   0.1032402), wk =   0.0370370
        k(   51) = (  -0.5000000  -0.2245251   0.2064804), wk =   0.0370370
        k(   52) = (  -0.5000000  -0.2245251  -0.3097206), wk =   0.0370370
        k(   53) = (   0.0000000   0.0641500  -0.1032402), wk =   0.0185185
        k(   54) = (   0.0000000   0.0641500  -0.2064804), wk =   0.0185185
        k(   55) = (   0.0000000   0.1283001  -0.1032402), wk =   0.0185185
        k(   56) = (   0.0000000   0.1283001  -0.2064804), wk =   0.0185185
        k(   57) = (  -0.1666667   0.0962250  -0.1032402), wk =   0.0370370
        k(   58) = (  -0.1666667   0.0962250  -0.2064804), wk =   0.0370370
        k(   59) = (  -0.1666667   0.1603751  -0.1032402), wk =   0.0370370
        k(   60) = (  -0.1666667   0.1603751  -0.2064804), wk =   0.0370370
        k(   61) = (  -0.1666667  -0.0320750  -0.1032402), wk =   0.0370370
        k(   62) = (  -0.1666667  -0.0320750  -0.2064804), wk =   0.0370370
        k(   63) = (  -0.3333333   0.2566001  -0.1032402), wk =   0.0370370
        k(   64) = (  -0.3333333   0.2566001  -0.2064804), wk =   0.0370370
        k(   65) = (  -0.3333333   0.3207501  -0.1032402), wk =   0.0370370
        k(   66) = (  -0.3333333   0.3207501  -0.2064804), wk =   0.0370370
        k(   67) = (   0.5000000  -0.2245251  -0.1032402), wk =   0.0370370
        k(   68) = (   0.5000000  -0.2245251  -0.2064804), wk =   0.0370370

                       cryst. coord.
        k(    1) = (   0.0000000   0.0000000   0.0000000), wk =   0.0092593
        k(    2) = (   0.0000000   0.0000000   0.1666667), wk =   0.0185185
        k(    3) = (   0.0000000   0.0000000   0.3333333), wk =   0.0185185
        k(    4) = (   0.0000000   0.0000000  -0.5000000), wk =   0.0092593
        k(    5) = (   0.0000000   0.1666667   0.0000000), wk =   0.0185185
        k(    6) = (   0.0000000   0.1666667   0.1666667), wk =   0.0185185
        k(    7) = (   0.0000000   0.1666667   0.3333333), wk =   0.0185185
        k(    8) = (   0.0000000   0.1666667  -0.5000000), wk =   0.0185185
        k(    9) = (   0.0000000   0.3333333   0.0000000), wk =   0.0185185
        k(   10) = (   0.0000000   0.3333333   0.1666667), wk =   0.0185185
        k(   11) = (   0.0000000   0.3333333   0.3333333), wk =   0.0185185
        k(   12) = (   0.0000000   0.3333333  -0.5000000), wk =   0.0185185
        k(   13) = (   0.0000000  -0.5000000   0.0000000), wk =   0.0092593
        k(   14) = (   0.0000000  -0.5000000   0.1666667), wk =   0.0185185
        k(   15) = (   0.0000000  -0.5000000   0.3333333), wk =   0.0185185
        k(   16) = (   0.0000000  -0.5000000  -0.5000000), wk =   0.0092593
        k(   17) = (   0.1666667  -0.0000000   0.0000000), wk =   0.0370370
        k(   18) = (   0.1666667  -0.0000000   0.1666667), wk =   0.0370370
        k(   19) = (   0.1666667  -0.0000000   0.3333333), wk =   0.0370370
        k(   20) = (   0.1666667  -0.0000000  -0.5000000), wk =   0.0370370
        k(   21) = (   0.1666667   0.1666667   0.0000000), wk =   0.0370370
        k(   22) = (   0.1666667   0.1666667   0.1666667), wk =   0.0370370
        k(   23) = (   0.1666667   0.1666667   0.3333333), wk =   0.0370370
        k(   24) = (   0.1666667   0.1666667  -0.5000000), wk =   0.0370370
        k(   25) = (   0.1666667  -0.3333333   0.0000000), wk =   0.0370370
        k(   26) = (   0.1666667  -0.3333333   0.1666667), wk =   0.0370370
        k(   27) = (   0.1666667  -0.3333333   0.3333333), wk =   0.0370370
        k(   28) = (   0.1666667  -0.3333333  -0.5000000), wk =   0.0370370
        k(   29) = (   0.3333333  -0.0000000   0.0000000), wk =   0.0185185
        k(   30) = (   0.3333333  -0.0000000   0.1666667), wk =   0.0370370
        k(   31) = (   0.3333333  -0.0000000   0.3333333), wk =   0.0370370
        k(   32) = (   0.3333333  -0.0000000  -0.5000000), wk =   0.0185185
        k(   33) = (   0.3333333   0.1666667   0.0000000), wk =   0.0370370
        k(   34) = (   0.3333333   0.1666667   0.1666667), wk =   0.0370370
        k(   35) = (   0.3333333   0.1666667   0.3333333), wk =   0.0370370
        k(   36) = (   0.3333333   0.1666667  -0.5000000), wk =   0.0370370
        k(   37) = (   0.3333333   0.3333333   0.0000000), wk =   0.0370370
        k(   38) = (   0.3333333   0.3333333   0.1666667), wk =   0.0370370
        k(   39) = (   0.3333333   0.3333333   0.3333333), wk =   0.0370370
        k(   40) = (   0.3333333   0.3333333  -0.5000000), wk =   0.0370370
        k(   41) = (   0.3333333  -0.5000000   0.0000000), wk =   0.0185185
        k(   42) = (   0.3333333  -0.5000000   0.1666667), wk =   0.0370370
        k(   43) = (   0.3333333  -0.5000000   0.3333333), wk =   0.0370370
        k(   44) = (   0.3333333  -0.5000000  -0.5000000), wk =   0.0185185
        k(   45) = (  -0.5000000   0.0000000   0.0000000), wk =   0.0185185
        k(   46) = (  -0.5000000   0.0000000   0.1666667), wk =   0.0370370
        k(   47) = (  -0.5000000   0.0000000   0.3333333), wk =   0.0370370
        k(   48) = (  -0.5000000   0.0000000  -0.5000000), wk =   0.0185185
        k(   49) = (  -0.5000000   0.1666667   0.0000000), wk =   0.0370370
        k(   50) = (  -0.5000000   0.1666667   0.1666667), wk =   0.0370370
        k(   51) = (  -0.5000000   0.1666667   0.3333333), wk =   0.0370370
        k(   52) = (  -0.5000000   0.1666667  -0.5000000), wk =   0.0370370
        k(   53) = (   0.0000000   0.1666667  -0.1666667), wk =   0.0185185
        k(   54) = (   0.0000000   0.1666667  -0.3333333), wk =   0.0185185
        k(   55) = (   0.0000000   0.3333333  -0.1666667), wk =   0.0185185
        k(   56) = (   0.0000000   0.3333333  -0.3333333), wk =   0.0185185
        k(   57) = (  -0.1666667   0.5000000  -0.1666667), wk =   0.0370370
        k(   58) = (  -0.1666667   0.5000000  -0.3333333), wk =   0.0370370
        k(   59) = (  -0.1666667   0.6666667  -0.1666667), wk =   0.0370370
        k(   60) = (  -0.1666667   0.6666667  -0.3333333), wk =   0.0370370
        k(   61) = (  -0.1666667   0.1666667  -0.1666667), wk =   0.0370370
        k(   62) = (  -0.1666667   0.1666667  -0.3333333), wk =   0.0370370
        k(   63) = (  -0.3333333   1.1666667  -0.1666667), wk =   0.0370370
        k(   64) = (  -0.3333333   1.1666667  -0.3333333), wk =   0.0370370
        k(   65) = (  -0.3333333   1.3333333  -0.1666667), wk =   0.0370370
        k(   66) = (  -0.3333333   1.3333333  -0.3333333), wk =   0.0370370
        k(   67) = (   0.5000000  -1.3333333  -0.1666667), wk =   0.0370370
        k(   68) = (   0.5000000  -1.3333333  -0.3333333), wk =   0.0370370

     Check: negative core charge=   -0.000002

     Initial potential from superposition of free atoms

     starting charge     107.9776, renormalised to     108.0000
     Starting wfcs are   78 randomized atomic wfcs

     Self-consistent Calculation

     iteration #  1     ecut=    50.00 Ry     beta= 0.30
     Davidson diagonalization with overlap

     ethr =  1.00E-02,  avg # of iterations =  1.9

     total energy              =   -1084.40406787 Ry
     estimated scf accuracy    <       2.13839909 Ry

[...]

     total energy              =   -1084.90091462 Ry
     estimated scf accuracy    <       0.00000016 Ry

     iteration # 27     ecut=    50.00 Ry     beta= 0.30
     Davidson diagonalization with overlap

     ethr =  1.48E-10,  avg # of iterations =  5.0

     End of self-consistent calculation

          k = 0.0000 0.0000 0.0000 (  6245 PWs)   bands (ev):

   -11.3987 -11.0016 -11.0016 -10.8017 -10.6604 -10.6604   0.5238   0.5239
     0.7197   0.7199   0.7536   0.8135   0.8135   0.8860   0.8862   0.9022
     0.9022   1.0197   1.1058   1.1058   1.2443   1.2444   1.3970   1.3970
     1.6133   1.6133   1.6667   1.6667   1.7289   1.7289   1.8377   1.8377
     1.8637   1.8637   2.0416   2.0416   2.0979   2.3906   2.3906   3.0979
     3.0980   3.8740   3.8740   4.4062   4.4062   5.3214   5.3214   5.3475
     5.3479   5.5111   5.5111   5.9806   6.0449   6.0454

     occupation numbers
     1.0000   1.0000   1.0000   1.0000   1.0000   1.0000   1.0000   1.0000
     1.0000   1.0000   1.0000   1.0000   1.0000   1.0000   1.0000   1.0000
     1.0000   1.0000   1.0000   1.0000   1.0000   1.0000   1.0000   1.0000
     1.0000   1.0000   1.0000   1.0000   1.0000   1.0000   1.0000   1.0000
     1.0000   1.0000   1.0000   1.0000   1.0000   1.0000   1.0000   1.0000
     1.0000   1.0000   1.0000   1.0000   1.0000   1.0000   1.0000   1.0000
     1.0000   1.0000   1.0000   1.0000   1.0000   1.0000

[...]

          k =-0.5000-0.2887 0.0000 (  6270 PWs)   bands (ev):

[...]

          k =-0.3333 0.3208-0.2065 (  6280 PWs)   bands (ev):

[...]

          k = 0.5000-0.2245-0.2065 (  6279 PWs)   bands (ev):

   -10.7834 -10.7805 -10.7790 -10.6864 -10.6860 -10.6854   0.4944   0.5326
     0.5860   0.6357   0.6544   0.7000   0.9835   0.9980   1.0223   1.0667
     1.1919   1.2342   1.2365   1.2489   1.2509   1.2550   1.2557   1.2600
     1.7127   1.7648   1.7854   1.7983   1.8035   1.8137   1.8758   1.8920
     1.9032   1.9463   1.9770   2.0201   2.4028   2.4504   2.6091   2.6171
     2.7223   2.9274   3.7317   4.0522   4.2213   4.3149   4.4294   4.4363
     4.5931   4.7848   4.9343   5.0743   5.0888   5.1003

     occupation numbers
     1.0000   1.0000   1.0000   1.0000   1.0000   1.0000   1.0000   1.0000
     1.0000   1.0000   1.0000   1.0000   1.0000   1.0000   1.0000   1.0000
     1.0000   1.0000   1.0000   1.0000   1.0000   1.0000   1.0000   1.0000
     1.0000   1.0000   1.0000   1.0000   1.0000   1.0000   1.0000   1.0000
     1.0000   1.0000   1.0000   1.0000   1.0000   1.0000   1.0000   1.0000
     1.0000   1.0000   1.0000   1.0000   1.0000   1.0000   1.0000   1.0000
     1.0000   1.0000   1.0000   1.0000   1.0000   1.0000

     highest occupied level (ev):     6.0454

!    total energy              =   -1084.90091469 Ry
     estimated scf accuracy    <          4.1E-09 Ry

     The total energy is the sum of the following terms:
     one-electron contribution =    -483.86764821 Ry
     hartree contribution      =     362.11484544 Ry
     xc contribution           =    -328.28455351 Ry
     ewald contribution        =    -634.86355841 Ry

     convergence has been achieved in  27 iterations

     Forces acting on atoms (cartesian axes, Ry/au):

     atom    1 type  1   force =     0.00000000   -0.00002063   -0.00004528
     atom    2 type  1   force =     0.00000000   -0.00000560   -0.00005051
     atom    3 type  2   force =     0.00000000    0.00000374    0.00004878
     atom    4 type  2   force =     0.00000000   -0.00000361    0.00004759
     atom    5 type  1   force =     0.00000000    0.00000902   -0.00004868
     atom    6 type  1   force =     0.00000000    0.00002022   -0.00004618
     atom    7 type  2   force =     0.00000000    0.00000440    0.00004828
     atom    8 type  2   force =     0.00000000   -0.00000422    0.00004867
     atom    9 type  1   force =     0.00000000   -0.00000703   -0.00004967
     atom   10 type  1   force =     0.00000000    0.00000376   -0.00005011
     atom   11 type  2   force =     0.00000000    0.00000380    0.00004851
     atom   12 type  2   force =     0.00000000   -0.00000386    0.00004860
     The non-local contrib.  to forces
     atom    1 type  1   force =     0.00000000   -0.00000394   -0.00463515
     atom    2 type  1   force =     0.00000000   -0.00000746   -0.00463581
     atom    3 type  2   force =     0.00000000    0.00023733    0.00598778
     atom    4 type  2   force =     0.00000000   -0.00023077    0.00598696
     atom    5 type  1   force =     0.00000000    0.00000987   -0.00463553
     atom    6 type  1   force =     0.00000000    0.00000386   -0.00463535
     atom    7 type  2   force =     0.00000000    0.00023223    0.00598704
     atom    8 type  2   force =     0.00000000   -0.00023918    0.00598678
     atom    9 type  1   force =     0.00000000    0.00000096   -0.00463705
     atom   10 type  1   force =     0.00000000   -0.00000334   -0.00463752
     atom   11 type  2   force =     0.00000000    0.00023194    0.00598750
     atom   12 type  2   force =     0.00000000   -0.00023134    0.00598751
     The ionic contribution  to forces
     atom    1 type  1   force =    -0.00000000    0.00000001    0.06028145
     atom    2 type  1   force =     0.00000000    0.00000001    0.06028145
     atom    3 type  2   force =    -0.00000000    0.00000000   -0.06028145
     atom    4 type  2   force =     0.00000000    0.00000000   -0.06028145
     atom    5 type  1   force =    -0.00000001    0.00000001    0.06028145
     atom    6 type  1   force =     0.00000001   -0.00000001    0.06028145
     atom    7 type  2   force =    -0.00000001    0.00000000   -0.06028145
     atom    8 type  2   force =     0.00000001   -0.00000000   -0.06028145
     atom    9 type  1   force =    -0.00000000   -0.00000001    0.06028145
     atom   10 type  1   force =     0.00000000   -0.00000001    0.06028145
     atom   11 type  2   force =    -0.00000000   -0.00000000   -0.06028145
     atom   12 type  2   force =     0.00000000   -0.00000000   -0.06028145
     The local contribution  to forces
     atom    1 type  1   force =    -0.00000004    0.00000766   -0.05610395
     atom    2 type  1   force =     0.00000000    0.00003022   -0.05609486
     atom    3 type  2   force =    -0.00000001   -0.00021778    0.05441153
     atom    4 type  2   force =     0.00000000    0.00023133    0.05441242
     atom    5 type  1   force =    -0.00000009   -0.00003597   -0.05609702
     atom    6 type  1   force =     0.00000009   -0.00000647   -0.05610248
     atom    7 type  2   force =    -0.00000002   -0.00023632    0.05441213
     atom    8 type  2   force =     0.00000002    0.00021719    0.05441298
     atom    9 type  1   force =     0.00000000   -0.00001231   -0.05609666
     atom   10 type  1   force =     0.00000004    0.00001786   -0.05609610
     atom   11 type  2   force =     0.00000000   -0.00022690    0.05441138
     atom   12 type  2   force =     0.00000001    0.00023008    0.05441085
     The core correction contribution to forces
     atom    1 type  1   force =    -0.00000006    0.00000711    0.00040520
     atom    2 type  1   force =     0.00000002   -0.00000754    0.00040478
     atom    3 type  2   force =    -0.00000000   -0.00000268   -0.00006720
     atom    4 type  2   force =    -0.00000000    0.00000262   -0.00006718
     atom    5 type  1   force =     0.00000001    0.00000750    0.00040485
     atom    6 type  1   force =    -0.00000001   -0.00000700    0.00040514
     atom    7 type  2   force =     0.00000000   -0.00000266   -0.00006719
     atom    8 type  2   force =    -0.00000000    0.00000272   -0.00006717
     atom    9 type  1   force =    -0.00000002    0.00000742    0.00040503
     atom   10 type  1   force =     0.00000006   -0.00000749    0.00040506
     atom   11 type  2   force =     0.00000000   -0.00000263   -0.00006719
     atom   12 type  2   force =     0.00000000    0.00000262   -0.00006719
     The Hubbard contrib.    to forces
     atom    1 type  1   force =     0.00000000    0.00000000    0.00000000
     atom    2 type  1   force =     0.00000000    0.00000000    0.00000000
     atom    3 type  2   force =     0.00000000    0.00000000    0.00000000
     atom    4 type  2   force =     0.00000000    0.00000000    0.00000000
     atom    5 type  1   force =     0.00000000    0.00000000    0.00000000
     atom    6 type  1   force =     0.00000000    0.00000000    0.00000000
     atom    7 type  2   force =     0.00000000    0.00000000    0.00000000
     atom    8 type  2   force =     0.00000000    0.00000000    0.00000000
     atom    9 type  1   force =     0.00000000    0.00000000    0.00000000
     atom   10 type  1   force =     0.00000000    0.00000000    0.00000000
     atom   11 type  2   force =     0.00000000    0.00000000    0.00000000
     atom   12 type  2   force =     0.00000000    0.00000000    0.00000000
     The SCF correction term to forces
     atom    1 type  1   force =    -0.00000000   -0.00003168    0.00000891
     atom    2 type  1   force =    -0.00000000   -0.00002105   -0.00000433
     atom    3 type  2   force =     0.00000000   -0.00001334   -0.00000014
     atom    4 type  2   force =     0.00000000   -0.00000699   -0.00000143
     atom    5 type  1   force =    -0.00000000    0.00002740   -0.00000070
     atom    6 type  1   force =     0.00000000    0.00002962    0.00000680
     atom    7 type  2   force =     0.00000000    0.00001093   -0.00000053
     atom    8 type  2   force =    -0.00000000    0.00001484   -0.00000074
     atom    9 type  1   force =     0.00000000   -0.00000331   -0.00000071
     atom   10 type  1   force =     0.00000000   -0.00000348   -0.00000127
     atom   11 type  2   force =    -0.00000000    0.00000118    0.00000000
     atom   12 type  2   force =    -0.00000000   -0.00000542    0.00000062

     Total force =     0.000171     Total SCF correction =     0.000062
     SCF correction compared to forces is large: reduce conv_thr to get better values

     General routines

     Parallel routines

   This run was terminated on:  21:56: 9  27Aug2025

   JOB DONE.