     Program PWSCF v.7.0 starts on 27Aug2025 at 23:20:22

     K-points division:     npool     =      17

     Reading input from /home/jvc/QEspresso7.2/ZnO_database/scripts/cell131.in/ZnO-3.40-1.52-131.in
Warning: card &CELL ignored
Warning: card / ignored
Warning: card &FCP ignored
Warning: card / ignored
Warning: card &RISM ignored
Warning: card / ignored

     Current dimensions of program PWSCF are:
     Max number of different atomic species (ntypx) = 10
     Max number of k-points (npk) =  40000
     Max angular momentum in pseudopotentials (lmaxx) =  4
     file Zn.upf: wavefunction(s)  3D renormalized
     Found identity + (  0.0000  0.3333  0.0000) symmetry
     This is a supercell, fractional translations are disabled
     Message from routine setup:
     using ibrav=0 with symmetry is DISCOURAGED, use correct ibrav instead

     Subspace diagonalization in iterative solution of the eigenvalue problem:
     a serial algorithm will be used

     Using Slab Decomposition

     bravais-lattice index     =            0
     lattice parameter (alat)  =       6.4260  a.u.
     unit-cell volume          =    1046.1730 (a.u.)^3
     number of atoms/cell      =           12
     number of atomic types    =            2
     number of electrons       =       108.00
     number of Kohn-Sham states=           54
     kinetic-energy cutoff     =      50.0000  Ry
     charge density cutoff     =     400.0000  Ry
     scf convergence threshold =      1.0E-08
     mixing beta               =       0.3000
     number of iterations used =            8  plain     mixing
     Exchange-correlation= PBE
                           (   1   4   3   4   0   0   0)

     celldm(1)=   6.426008  celldm(2)=   0.000000  celldm(3)=   0.000000
     celldm(4)=   0.000000  celldm(5)=   0.000000  celldm(6)=   0.000000

     crystal axes: (cart. coord. in units of alat)
               a(1) = (   1.000000   0.000000   0.000000 )
               a(2) = (  -1.500000   2.598076   0.000000 )
               a(3) = (   0.000000   0.000000   1.517497 )

     reciprocal axes: (cart. coord. in units 2 pi/alat)
               b(1) = (  1.000000  0.577350 -0.000000 )
               b(2) = (  0.000000  0.384900  0.000000 )
               b(3) = (  0.000000 -0.000000  0.658980 )

     PseudoPot. # 1 for Zn read from file:
     /home/jvc/QEspresso7.2/ZnO_database/pseudos/Zn.upf
     MD5 check sum: 7f56cabf9682ed8c977c2f7d0c5985c5
     Pseudo is Ultrasoft + core correction, Zval = 12.0
     Generated using &quot;atomic&quot; code by A. Dal Corso  v.6.2.2
     Using radial grid of 1201 points,  6 beta functions with:
                l(1) =   0
                l(2) =   0
                l(3) =   1
                l(4) =   1
                l(5) =   2
                l(6) =   2
     Q(r) pseudized with 0 coefficients

     PseudoPot. # 2 for O  read from file:
     /home/jvc/QEspresso7.2/ZnO_database/pseudos/O.upf
     MD5 check sum: 91400c9766925bcf19f520983a725ff0
     Pseudo is Ultrasoft + core correction, Zval =  6.0
     Generated using &quot;atomic&quot; code by A. Dal Corso  v.6.3MaX
     Using radial grid of 1095 points,  4 beta functions with:
                l(1) =   0
                l(2) =   0
                l(3) =   1
                l(4) =   1
     Q(r) pseudized with 0 coefficients

     atomic species   valence    mass     pseudopotential
        Zn            12.00    65.38000     Zn( 1.00)
        O              6.00    15.99900     O ( 1.00)

      2 Sym. Ops. (no inversion) found

                                    s                        frac. trans.

      isym =  1     identity

 cryst.   s( 1) = (     1          0          0      )
                  (     0          1          0      )
                  (     0          0          1      )

 cart.    s( 1) = (  1.0000000  0.0000000  0.0000000 )
                  (  0.0000000  1.0000000  0.0000000 )
                  (  0.0000000  0.0000000  1.0000000 )

      isym =  2     inv. 180 deg rotation - cart. axis [1,0,0]

 cryst.   s( 2) = (    -1          0          0      )
                  (     3          1          0      )
                  (     0          0          1      )

 cart.    s( 2) = ( -1.0000000  0.0000000  0.0000000 )
                  (  0.0000000  1.0000000  0.0000000 )
                  (  0.0000000  0.0000000  1.0000000 )

   Cartesian axes

     site n.     atom                  positions (alat units)
         1           Zn  tau(   1) = (   0.5000000   0.2886751   0.7597099  )
         2           Zn  tau(   2) = (   0.0000000   0.5773503   0.0009615  )
         3           O   tau(   3) = (   0.5000000   0.2886751   1.3349062  )
         4           O   tau(   4) = (   0.0000000   0.5773503   0.5761578  )
         5           Zn  tau(   5) = (   0.0000000   1.1547005   0.7597099  )
         6           Zn  tau(   6) = (  -0.5000000   1.4433757   0.0009615  )
         7           O   tau(   7) = (   0.0000000   1.1547005   1.3349062  )
         8           O   tau(   8) = (  -0.5000000   1.4433757   0.5761578  )
         9           Zn  tau(   9) = (  -0.5000000   2.0207259   0.7597099  )
        10           Zn  tau(  10) = (  -1.0000000   2.3094011   0.0009615  )
        11           O   tau(  11) = (  -0.5000000   2.0207259   1.3349062  )
        12           O   tau(  12) = (  -1.0000000   2.3094011   0.5761578  )

   Crystallographic axes

     site n.     atom                  positions (cryst. coord.)
         1           Zn  tau(   1) = (  0.6666667  0.1111111  0.5006336  )
         2           Zn  tau(   2) = (  0.3333333  0.2222222  0.0006336  )
         3           O   tau(   3) = (  0.6666667  0.1111111  0.8796764  )
         4           O   tau(   4) = (  0.3333333  0.2222222  0.3796764  )
         5           Zn  tau(   5) = (  0.6666667  0.4444444  0.5006336  )
         6           Zn  tau(   6) = (  0.3333333  0.5555556  0.0006336  )
         7           O   tau(   7) = (  0.6666667  0.4444444  0.8796764  )
         8           O   tau(   8) = (  0.3333333  0.5555556  0.3796764  )
         9           Zn  tau(   9) = (  0.6666667  0.7777778  0.5006336  )
        10           Zn  tau(  10) = (  0.3333333  0.8888889  0.0006336  )
        11           O   tau(  11) = (  0.6666667  0.7777778  0.8796764  )
        12           O   tau(  12) = (  0.3333333  0.8888889  0.3796764  )

     number of k points=    68
                       cart. coord. in units 2pi/alat
        k(    1) = (   0.0000000   0.0000000   0.0000000), wk =   0.0092593
        k(    2) = (   0.0000000   0.0000000   0.1098300), wk =   0.0185185
        k(    3) = (   0.0000000   0.0000000   0.2196600), wk =   0.0185185
        k(    4) = (   0.0000000   0.0000000  -0.3294900), wk =   0.0092593
        k(    5) = (   0.0000000   0.0641500   0.0000000), wk =   0.0185185
        k(    6) = (   0.0000000   0.0641500   0.1098300), wk =   0.0185185
        k(    7) = (   0.0000000   0.0641500   0.2196600), wk =   0.0185185
        k(    8) = (   0.0000000   0.0641500  -0.3294900), wk =   0.0185185
        k(    9) = (   0.0000000   0.1283001   0.0000000), wk =   0.0185185
        k(   10) = (   0.0000000   0.1283001   0.1098300), wk =   0.0185185
        k(   11) = (   0.0000000   0.1283001   0.2196600), wk =   0.0185185
        k(   12) = (   0.0000000   0.1283001  -0.3294900), wk =   0.0185185
        k(   13) = (   0.0000000  -0.1924501   0.0000000), wk =   0.0092593
        k(   14) = (   0.0000000  -0.1924501   0.1098300), wk =   0.0185185
        k(   15) = (   0.0000000  -0.1924501   0.2196600), wk =   0.0185185
        k(   16) = (   0.0000000  -0.1924501  -0.3294900), wk =   0.0092593
        k(   17) = (   0.1666667   0.0962250   0.0000000), wk =   0.0370370
        k(   18) = (   0.1666667   0.0962250   0.1098300), wk =   0.0370370
        k(   19) = (   0.1666667   0.0962250   0.2196600), wk =   0.0370370
        k(   20) = (   0.1666667   0.0962250  -0.3294900), wk =   0.0370370
        k(   21) = (   0.1666667   0.1603751   0.0000000), wk =   0.0370370
        k(   22) = (   0.1666667   0.1603751   0.1098300), wk =   0.0370370
        k(   23) = (   0.1666667   0.1603751   0.2196600), wk =   0.0370370
        k(   24) = (   0.1666667   0.1603751  -0.3294900), wk =   0.0370370
        k(   25) = (   0.1666667  -0.0320750   0.0000000), wk =   0.0370370
        k(   26) = (   0.1666667  -0.0320750   0.1098300), wk =   0.0370370
        k(   27) = (   0.1666667  -0.0320750   0.2196600), wk =   0.0370370
        k(   28) = (   0.1666667  -0.0320750  -0.3294900), wk =   0.0370370
        k(   29) = (   0.3333333   0.1924501   0.0000000), wk =   0.0185185
        k(   30) = (   0.3333333   0.1924501   0.1098300), wk =   0.0370370
        k(   31) = (   0.3333333   0.1924501   0.2196600), wk =   0.0370370
        k(   32) = (   0.3333333   0.1924501  -0.3294900), wk =   0.0185185
        k(   33) = (   0.3333333   0.2566001   0.0000000), wk =   0.0370370
        k(   34) = (   0.3333333   0.2566001   0.1098300), wk =   0.0370370
        k(   35) = (   0.3333333   0.2566001   0.2196600), wk =   0.0370370
        k(   36) = (   0.3333333   0.2566001  -0.3294900), wk =   0.0370370
        k(   37) = (   0.3333333   0.3207501   0.0000000), wk =   0.0370370
        k(   38) = (   0.3333333   0.3207501   0.1098300), wk =   0.0370370
        k(   39) = (   0.3333333   0.3207501   0.2196600), wk =   0.0370370
        k(   40) = (   0.3333333   0.3207501  -0.3294900), wk =   0.0370370
        k(   41) = (   0.3333333  -0.0000000   0.0000000), wk =   0.0185185
        k(   42) = (   0.3333333  -0.0000000   0.1098300), wk =   0.0370370
        k(   43) = (   0.3333333  -0.0000000   0.2196600), wk =   0.0370370
        k(   44) = (   0.3333333  -0.0000000  -0.3294900), wk =   0.0185185
        k(   45) = (  -0.5000000  -0.2886751   0.0000000), wk =   0.0185185
        k(   46) = (  -0.5000000  -0.2886751   0.1098300), wk =   0.0370370
        k(   47) = (  -0.5000000  -0.2886751   0.2196600), wk =   0.0370370
        k(   48) = (  -0.5000000  -0.2886751  -0.3294900), wk =   0.0185185
        k(   49) = (  -0.5000000  -0.2245251   0.0000000), wk =   0.0370370
        k(   50) = (  -0.5000000  -0.2245251   0.1098300), wk =   0.0370370
        k(   51) = (  -0.5000000  -0.2245251   0.2196600), wk =   0.0370370
        k(   52) = (  -0.5000000  -0.2245251  -0.3294900), wk =   0.0370370
        k(   53) = (   0.0000000   0.0641500  -0.1098300), wk =   0.0185185
        k(   54) = (   0.0000000   0.0641500  -0.2196600), wk =   0.0185185
        k(   55) = (   0.0000000   0.1283001  -0.1098300), wk =   0.0185185
        k(   56) = (   0.0000000   0.1283001  -0.2196600), wk =   0.0185185
        k(   57) = (  -0.1666667   0.0962250  -0.1098300), wk =   0.0370370
        k(   58) = (  -0.1666667   0.0962250  -0.2196600), wk =   0.0370370
        k(   59) = (  -0.1666667   0.1603751  -0.1098300), wk =   0.0370370
        k(   60) = (  -0.1666667   0.1603751  -0.2196600), wk =   0.0370370
        k(   61) = (  -0.1666667  -0.0320750  -0.1098300), wk =   0.0370370
        k(   62) = (  -0.1666667  -0.0320750  -0.2196600), wk =   0.0370370
        k(   63) = (  -0.3333333   0.2566001  -0.1098300), wk =   0.0370370
        k(   64) = (  -0.3333333   0.2566001  -0.2196600), wk =   0.0370370
        k(   65) = (  -0.3333333   0.3207501  -0.1098300), wk =   0.0370370
        k(   66) = (  -0.3333333   0.3207501  -0.2196600), wk =   0.0370370
        k(   67) = (   0.5000000  -0.2245251  -0.1098300), wk =   0.0370370
        k(   68) = (   0.5000000  -0.2245251  -0.2196600), wk =   0.0370370

                       cryst. coord.
        k(    1) = (   0.0000000   0.0000000   0.0000000), wk =   0.0092593
        k(    2) = (   0.0000000   0.0000000   0.1666667), wk =   0.0185185
        k(    3) = (   0.0000000   0.0000000   0.3333333), wk =   0.0185185
        k(    4) = (   0.0000000   0.0000000  -0.5000000), wk =   0.0092593
        k(    5) = (   0.0000000   0.1666667   0.0000000), wk =   0.0185185
        k(    6) = (   0.0000000   0.1666667   0.1666667), wk =   0.0185185
        k(    7) = (   0.0000000   0.1666667   0.3333333), wk =   0.0185185
        k(    8) = (   0.0000000   0.1666667  -0.5000000), wk =   0.0185185
        k(    9) = (   0.0000000   0.3333333   0.0000000), wk =   0.0185185
        k(   10) = (   0.0000000   0.3333333   0.1666667), wk =   0.0185185
        k(   11) = (   0.0000000   0.3333333   0.3333333), wk =   0.0185185
        k(   12) = (   0.0000000   0.3333333  -0.5000000), wk =   0.0185185
        k(   13) = (   0.0000000  -0.5000000   0.0000000), wk =   0.0092593
        k(   14) = (   0.0000000  -0.5000000   0.1666667), wk =   0.0185185
        k(   15) = (   0.0000000  -0.5000000   0.3333333), wk =   0.0185185
        k(   16) = (   0.0000000  -0.5000000  -0.5000000), wk =   0.0092593
        k(   17) = (   0.1666667   0.0000000   0.0000000), wk =   0.0370370
        k(   18) = (   0.1666667   0.0000000   0.1666667), wk =   0.0370370
        k(   19) = (   0.1666667   0.0000000   0.3333333), wk =   0.0370370
        k(   20) = (   0.1666667   0.0000000  -0.5000000), wk =   0.0370370
        k(   21) = (   0.1666667   0.1666667   0.0000000), wk =   0.0370370
        k(   22) = (   0.1666667   0.1666667   0.1666667), wk =   0.0370370
        k(   23) = (   0.1666667   0.1666667   0.3333333), wk =   0.0370370
        k(   24) = (   0.1666667   0.1666667  -0.5000000), wk =   0.0370370
        k(   25) = (   0.1666667  -0.3333333   0.0000000), wk =   0.0370370
        k(   26) = (   0.1666667  -0.3333333   0.1666667), wk =   0.0370370
        k(   27) = (   0.1666667  -0.3333333   0.3333333), wk =   0.0370370
        k(   28) = (   0.1666667  -0.3333333  -0.5000000), wk =   0.0370370
        k(   29) = (   0.3333333   0.0000000   0.0000000), wk =   0.0185185
        k(   30) = (   0.3333333   0.0000000   0.1666667), wk =   0.0370370
        k(   31) = (   0.3333333   0.0000000   0.3333333), wk =   0.0370370
        k(   32) = (   0.3333333   0.0000000  -0.5000000), wk =   0.0185185
        k(   33) = (   0.3333333   0.1666667   0.0000000), wk =   0.0370370
        k(   34) = (   0.3333333   0.1666667   0.1666667), wk =   0.0370370
        k(   35) = (   0.3333333   0.1666667   0.3333333), wk =   0.0370370
        k(   36) = (   0.3333333   0.1666667  -0.5000000), wk =   0.0370370
        k(   37) = (   0.3333333   0.3333333   0.0000000), wk =   0.0370370
        k(   38) = (   0.3333333   0.3333333   0.1666667), wk =   0.0370370
        k(   39) = (   0.3333333   0.3333333   0.3333333), wk =   0.0370370
        k(   40) = (   0.3333333   0.3333333  -0.5000000), wk =   0.0370370
        k(   41) = (   0.3333333  -0.5000000   0.0000000), wk =   0.0185185
        k(   42) = (   0.3333333  -0.5000000   0.1666667), wk =   0.0370370
        k(   43) = (   0.3333333  -0.5000000   0.3333333), wk =   0.0370370
        k(   44) = (   0.3333333  -0.5000000  -0.5000000), wk =   0.0185185
        k(   45) = (  -0.5000000   0.0000000   0.0000000), wk =   0.0185185
        k(   46) = (  -0.5000000   0.0000000   0.1666667), wk =   0.0370370
        k(   47) = (  -0.5000000   0.0000000   0.3333333), wk =   0.0370370
        k(   48) = (  -0.5000000   0.0000000  -0.5000000), wk =   0.0185185
        k(   49) = (  -0.5000000   0.1666667   0.0000000), wk =   0.0370370
        k(   50) = (  -0.5000000   0.1666667   0.1666667), wk =   0.0370370
        k(   51) = (  -0.5000000   0.1666667   0.3333333), wk =   0.0370370
        k(   52) = (  -0.5000000   0.1666667  -0.5000000), wk =   0.0370370
        k(   53) = (   0.0000000   0.1666667  -0.1666667), wk =   0.0185185
        k(   54) = (   0.0000000   0.1666667  -0.3333333), wk =   0.0185185
        k(   55) = (   0.0000000   0.3333333  -0.1666667), wk =   0.0185185
        k(   56) = (   0.0000000   0.3333333  -0.3333333), wk =   0.0185185
        k(   57) = (  -0.1666667   0.5000000  -0.1666667), wk =   0.0370370
        k(   58) = (  -0.1666667   0.5000000  -0.3333333), wk =   0.0370370
        k(   59) = (  -0.1666667   0.6666667  -0.1666667), wk =   0.0370370
        k(   60) = (  -0.1666667   0.6666667  -0.3333333), wk =   0.0370370
        k(   61) = (  -0.1666667   0.1666667  -0.1666667), wk =   0.0370370
        k(   62) = (  -0.1666667   0.1666667  -0.3333333), wk =   0.0370370
        k(   63) = (  -0.3333333   1.1666667  -0.1666667), wk =   0.0370370
        k(   64) = (  -0.3333333   1.1666667  -0.3333333), wk =   0.0370370
        k(   65) = (  -0.3333333   1.3333333  -0.1666667), wk =   0.0370370
        k(   66) = (  -0.3333333   1.3333333  -0.3333333), wk =   0.0370370
        k(   67) = (   0.5000000  -1.3333333  -0.1666667), wk =   0.0370370
        k(   68) = (   0.5000000  -1.3333333  -0.3333333), wk =   0.0370370

     Check: negative core charge=   -0.000002

     Initial potential from superposition of free atoms

     starting charge     107.9776, renormalised to     108.0000
     Starting wfcs are   78 randomized atomic wfcs

     Self-consistent Calculation

     iteration #  1     ecut=    50.00 Ry     beta= 0.30
     Davidson diagonalization with overlap

     ethr =  1.00E-02,  avg # of iterations =  2.0

     total energy              =   -1084.38510837 Ry
     estimated scf accuracy    <       2.15647507 Ry

[...]

     total energy              =   -1084.88617159 Ry
     estimated scf accuracy    <       0.00000003 Ry

     iteration # 29     ecut=    50.00 Ry     beta= 0.30
     Davidson diagonalization with overlap

     ethr =  2.70E-11,  avg # of iterations =  5.9

     End of self-consistent calculation

          k = 0.0000 0.0000 0.0000 (  6215 PWs)   bands (ev):

   -11.3854 -11.0065 -11.0065 -10.6991 -10.6126 -10.6126   0.5837   0.5837
     0.7810   0.7819   0.7821   0.8960   0.8960   0.9354   0.9354   0.9805
     0.9806   1.1047   1.1047   1.1736   1.3306   1.3306   1.4443   1.4443
     1.6837   1.6837   1.6859   1.6860   1.7553   1.7553   1.8945   1.8946
     1.9264   1.9264   2.0652   2.0652   2.0874   2.4098   2.4098   3.1718
     3.1718   3.9332   3.9332   4.2552   4.2552   5.2017   5.2021   5.3869
     5.3869   5.5785   5.5785   6.0469   6.0474   6.0879

     occupation numbers
     1.0000   1.0000   1.0000   1.0000   1.0000   1.0000   1.0000   1.0000
     1.0000   1.0000   1.0000   1.0000   1.0000   1.0000   1.0000   1.0000
     1.0000   1.0000   1.0000   1.0000   1.0000   1.0000   1.0000   1.0000
     1.0000   1.0000   1.0000   1.0000   1.0000   1.0000   1.0000   1.0000
     1.0000   1.0000   1.0000   1.0000   1.0000   1.0000   1.0000   1.0000
     1.0000   1.0000   1.0000   1.0000   1.0000   1.0000   1.0000   1.0000
     1.0000   1.0000   1.0000   1.0000   1.0000   1.0000

[...]

          k =-0.5000-0.2887 0.0000 (  6238 PWs)   bands (ev):

[...]

          k =-0.3333 0.3208-0.2197 (  6249 PWs)   bands (ev):

[...]

          k = 0.5000-0.2245-0.2197 (  6249 PWs)   bands (ev):

   -10.7788 -10.7762 -10.7747 -10.6667 -10.6662 -10.6652   0.4902   0.5242
     0.5903   0.6249   0.6302   0.6810   0.9859   1.0231   1.0520   1.0926
     1.1670   1.1980   1.2287   1.2426   1.2556   1.3030   1.3144   1.3202
     1.7529   1.8056   1.8193   1.8337   1.8376   1.8536   1.9197   1.9380
     1.9514   1.9870   2.0165   2.0614   2.4934   2.5315   2.6676   2.7332
     2.8221   2.9856   3.7159   4.0340   4.2231   4.4868   4.5244   4.5735
     4.6973   4.8552   4.9977   5.2472   5.2634   5.2777

     occupation numbers
     1.0000   1.0000   1.0000   1.0000   1.0000   1.0000   1.0000   1.0000
     1.0000   1.0000   1.0000   1.0000   1.0000   1.0000   1.0000   1.0000
     1.0000   1.0000   1.0000   1.0000   1.0000   1.0000   1.0000   1.0000
     1.0000   1.0000   1.0000   1.0000   1.0000   1.0000   1.0000   1.0000
     1.0000   1.0000   1.0000   1.0000   1.0000   1.0000   1.0000   1.0000
     1.0000   1.0000   1.0000   1.0000   1.0000   1.0000   1.0000   1.0000
     1.0000   1.0000   1.0000   1.0000   1.0000   1.0000

     highest occupied level (ev):     6.0879

!    total energy              =   -1084.88617160 Ry
     estimated scf accuracy    <          2.2E-09 Ry

     The total energy is the sum of the following terms:
     one-electron contribution =    -484.41307309 Ry
     hartree contribution      =     362.57354068 Ry
     xc contribution           =    -328.32419641 Ry
     ewald contribution        =    -634.72244277 Ry

     convergence has been achieved in  29 iterations

     Forces acting on atoms (cartesian axes, Ry/au):

     atom    1 type  1   force =     0.00000000   -0.00002254   -0.01713421
     atom    2 type  1   force =     0.00000000   -0.00000069   -0.01712931
     atom    3 type  2   force =     0.00000000    0.00000145    0.01713153
     atom    4 type  2   force =     0.00000000   -0.00000054    0.01713160
     atom    5 type  1   force =     0.00000000    0.00000087   -0.01712759
     atom    6 type  1   force =     0.00000000    0.00001120   -0.01713298
     atom    7 type  2   force =     0.00000000    0.00000096    0.01713171
     atom    8 type  2   force =     0.00000000   -0.00000158    0.01713155
     atom    9 type  1   force =     0.00000000   -0.00000188   -0.01713641
     atom   10 type  1   force =     0.00000000    0.00001282   -0.01712921
     atom   11 type  2   force =     0.00000000    0.00000129    0.01713227
     atom   12 type  2   force =     0.00000000   -0.00000135    0.01713105
     The non-local contrib.  to forces
     atom    1 type  1   force =     0.00000000   -0.00001072   -0.17896158
     atom    2 type  1   force =     0.00000000   -0.00000362   -0.17895927
     atom    3 type  2   force =     0.00000000    0.00022210   -0.14214175
     atom    4 type  2   force =     0.00000000   -0.00021321   -0.14214284
     atom    5 type  1   force =     0.00000000    0.00000279   -0.17895787
     atom    6 type  1   force =     0.00000000    0.00000469   -0.17896090
     atom    7 type  2   force =     0.00000000    0.00021699   -0.14214257
     atom    8 type  2   force =     0.00000000   -0.00022297   -0.14214221
     atom    9 type  1   force =     0.00000000    0.00000114   -0.17896202
     atom   10 type  1   force =     0.00000000    0.00000481   -0.17895965
     atom   11 type  2   force =     0.00000000    0.00021675   -0.14214063
     atom   12 type  2   force =     0.00000000   -0.00021917   -0.14214401
     The ionic contribution  to forces
     atom    1 type  1   force =    -0.00000000    0.00000001   -1.16684464
     atom    2 type  1   force =     0.00000000    0.00000001   -1.16684464
     atom    3 type  2   force =    -0.00000000    0.00000000    1.16684464
     atom    4 type  2   force =     0.00000000    0.00000000    1.16684464
     atom    5 type  1   force =    -0.00000001    0.00000001   -1.16684464
     atom    6 type  1   force =     0.00000001   -0.00000001   -1.16684464
     atom    7 type  2   force =    -0.00000001    0.00000000    1.16684464
     atom    8 type  2   force =     0.00000001   -0.00000000    1.16684464
     atom    9 type  1   force =    -0.00000000   -0.00000001   -1.16684464
     atom   10 type  1   force =     0.00000000   -0.00000001   -1.16684464
     atom   11 type  2   force =    -0.00000000   -0.00000000    1.16684464
     atom   12 type  2   force =     0.00000000   -0.00000000    1.16684464
     The local contribution  to forces
     atom    1 type  1   force =    -0.00000004    0.00001329    1.31592634
     atom    2 type  1   force =     0.00000000    0.00002126    1.31591946
     atom    3 type  2   force =    -0.00000001   -0.00020582   -1.00868043
     atom    4 type  2   force =     0.00000000    0.00022324   -1.00867948
     atom    5 type  1   force =    -0.00000009   -0.00002014    1.31591617
     atom    6 type  1   force =     0.00000009    0.00000495    1.31592390
     atom    7 type  2   force =    -0.00000002   -0.00021960   -1.00868091
     atom    8 type  2   force =     0.00000002    0.00020469   -1.00868078
     atom    9 type  1   force =    -0.00000000   -0.00002059    1.31593011
     atom   10 type  1   force =     0.00000004    0.00000213    1.31591531
     atom   11 type  2   force =    -0.00000000   -0.00021548   -1.00868020
     atom   12 type  2   force =     0.00000001    0.00021202   -1.00868241
     The core correction contribution to forces
     atom    1 type  1   force =    -0.00000002    0.00000514    0.01275383
     atom    2 type  1   force =     0.00000007   -0.00000510    0.01275392
     atom    3 type  2   force =     0.00000000   -0.00000250    0.00110659
     atom    4 type  2   force =    -0.00000001    0.00000243    0.00110661
     atom    5 type  1   force =     0.00000000    0.00000520    0.01275392
     atom    6 type  1   force =    -0.00000000   -0.00000535    0.01275391
     atom    7 type  2   force =    -0.00000000   -0.00000248    0.00110659
     atom    8 type  2   force =     0.00000000    0.00000252    0.00110659
     atom    9 type  1   force =    -0.00000007    0.00000541    0.01275370
     atom   10 type  1   force =     0.00000002   -0.00000526    0.01275423
     atom   11 type  2   force =     0.00000001   -0.00000246    0.00110658
     atom   12 type  2   force =    -0.00000000    0.00000247    0.00110661
     The Hubbard contrib.    to forces
     atom    1 type  1   force =     0.00000000    0.00000000    0.00000000
     atom    2 type  1   force =     0.00000000    0.00000000    0.00000000
     atom    3 type  2   force =     0.00000000    0.00000000    0.00000000
     atom    4 type  2   force =     0.00000000    0.00000000    0.00000000
     atom    5 type  1   force =     0.00000000    0.00000000    0.00000000
     atom    6 type  1   force =     0.00000000    0.00000000    0.00000000
     atom    7 type  2   force =     0.00000000    0.00000000    0.00000000
     atom    8 type  2   force =     0.00000000    0.00000000    0.00000000
     atom    9 type  1   force =     0.00000000    0.00000000    0.00000000
     atom   10 type  1   force =     0.00000000    0.00000000    0.00000000
     atom   11 type  2   force =     0.00000000    0.00000000    0.00000000
     atom   12 type  2   force =     0.00000000    0.00000000    0.00000000
     The SCF correction term to forces
     atom    1 type  1   force =     0.00000000   -0.00003024   -0.00000963
     atom    2 type  1   force =     0.00000000   -0.00001323   -0.00000025
     atom    3 type  2   force =     0.00000000   -0.00001233    0.00000103
     atom    4 type  2   force =     0.00000000   -0.00001299    0.00000121
     atom    5 type  1   force =     0.00000000    0.00001302    0.00000338
     atom    6 type  1   force =    -0.00000000    0.00000692   -0.00000671
     atom    7 type  2   force =    -0.00000000    0.00000605    0.00000250
     atom    8 type  2   force =     0.00000000    0.00001419    0.00000184
     atom    9 type  1   force =    -0.00000000    0.00001218   -0.00001502
     atom   10 type  1   force =    -0.00000000    0.00001116    0.00000408
     atom   11 type  2   force =    -0.00000000    0.00000249    0.00000042
     atom   12 type  2   force =    -0.00000000    0.00000333    0.00000477

     Total force =     0.059346     Total SCF correction =     0.000051

     General routines

     Parallel routines

   This run was terminated on:  23:27:20  27Aug2025

   JOB DONE.