     Program PWSCF v.7.0 starts on 27Aug2025 at 23:27:21

     K-points division:     npool     =      17

     Reading input from /home/jvc/QEspresso7.2/ZnO_database/scripts/cell131.in/ZnO-3.40-1.55-131.in
Warning: card &CELL ignored
Warning: card / ignored
Warning: card &FCP ignored
Warning: card / ignored
Warning: card &RISM ignored
Warning: card / ignored

     Current dimensions of program PWSCF are:
     Max number of different atomic species (ntypx) = 10
     Max number of k-points (npk) =  40000
     Max angular momentum in pseudopotentials (lmaxx) =  4
     file Zn.upf: wavefunction(s)  3D renormalized
     Found identity + (  0.0000  0.3333  0.0000) symmetry
     This is a supercell, fractional translations are disabled
     Message from routine setup:
     using ibrav=0 with symmetry is DISCOURAGED, use correct ibrav instead

     Subspace diagonalization in iterative solution of the eigenvalue problem:
     a serial algorithm will be used

     Using Slab Decomposition

     bravais-lattice index     =            0
     lattice parameter (alat)  =       6.4260  a.u.
     unit-cell volume          =    1068.4320 (a.u.)^3
     number of atoms/cell      =           12
     number of atomic types    =            2
     number of electrons       =       108.00
     number of Kohn-Sham states=           54
     kinetic-energy cutoff     =      50.0000  Ry
     charge density cutoff     =     400.0000  Ry
     scf convergence threshold =      1.0E-08
     mixing beta               =       0.3000
     number of iterations used =            8  plain     mixing
     Exchange-correlation= PBE
                           (   1   4   3   4   0   0   0)

     celldm(1)=   6.426008  celldm(2)=   0.000000  celldm(3)=   0.000000
     celldm(4)=   0.000000  celldm(5)=   0.000000  celldm(6)=   0.000000

     crystal axes: (cart. coord. in units of alat)
               a(1) = (   1.000000   0.000000   0.000000 )
               a(2) = (  -1.500000   2.598076   0.000000 )
               a(3) = (   0.000000   0.000000   1.549784 )

     reciprocal axes: (cart. coord. in units 2 pi/alat)
               b(1) = (  1.000000  0.577350 -0.000000 )
               b(2) = (  0.000000  0.384900  0.000000 )
               b(3) = (  0.000000 -0.000000  0.645251 )

     PseudoPot. # 1 for Zn read from file:
     /home/jvc/QEspresso7.2/ZnO_database/pseudos/Zn.upf
     MD5 check sum: 7f56cabf9682ed8c977c2f7d0c5985c5
     Pseudo is Ultrasoft + core correction, Zval = 12.0
     Generated using &quot;atomic&quot; code by A. Dal Corso  v.6.2.2
     Using radial grid of 1201 points,  6 beta functions with:
                l(1) =   0
                l(2) =   0
                l(3) =   1
                l(4) =   1
                l(5) =   2
                l(6) =   2
     Q(r) pseudized with 0 coefficients

     PseudoPot. # 2 for O  read from file:
     /home/jvc/QEspresso7.2/ZnO_database/pseudos/O.upf
     MD5 check sum: 91400c9766925bcf19f520983a725ff0
     Pseudo is Ultrasoft + core correction, Zval =  6.0
     Generated using &quot;atomic&quot; code by A. Dal Corso  v.6.3MaX
     Using radial grid of 1095 points,  4 beta functions with:
                l(1) =   0
                l(2) =   0
                l(3) =   1
                l(4) =   1
     Q(r) pseudized with 0 coefficients

     atomic species   valence    mass     pseudopotential
        Zn            12.00    65.38000     Zn( 1.00)
        O              6.00    15.99900     O ( 1.00)

      2 Sym. Ops. (no inversion) found

                                    s                        frac. trans.

      isym =  1     identity

 cryst.   s( 1) = (     1          0          0      )
                  (     0          1          0      )
                  (     0          0          1      )

 cart.    s( 1) = (  1.0000000  0.0000000  0.0000000 )
                  (  0.0000000  1.0000000  0.0000000 )
                  (  0.0000000  0.0000000  1.0000000 )

      isym =  2     inv. 180 deg rotation - cart. axis [1,0,0]

 cryst.   s( 2) = (    -1          0          0      )
                  (     3          1          0      )
                  (     0          0          1      )

 cart.    s( 2) = ( -1.0000000  0.0000000  0.0000000 )
                  (  0.0000000  1.0000000  0.0000000 )
                  (  0.0000000  0.0000000  1.0000000 )

   Cartesian axes

     site n.     atom                  positions (alat units)
         1           Zn  tau(   1) = (   0.5000000   0.2886751   0.7758739  )
         2           Zn  tau(   2) = (   0.0000000   0.5773503   0.0009819  )
         3           O   tau(   3) = (   0.5000000   0.2886751   1.3633085  )
         4           O   tau(   4) = (   0.0000000   0.5773503   0.5884164  )
         5           Zn  tau(   5) = (   0.0000000   1.1547005   0.7758739  )
         6           Zn  tau(   6) = (  -0.5000000   1.4433757   0.0009819  )
         7           O   tau(   7) = (   0.0000000   1.1547005   1.3633085  )
         8           O   tau(   8) = (  -0.5000000   1.4433757   0.5884164  )
         9           Zn  tau(   9) = (  -0.5000000   2.0207259   0.7758739  )
        10           Zn  tau(  10) = (  -1.0000000   2.3094011   0.0009819  )
        11           O   tau(  11) = (  -0.5000000   2.0207259   1.3633085  )
        12           O   tau(  12) = (  -1.0000000   2.3094011   0.5884164  )

   Crystallographic axes

     site n.     atom                  positions (cryst. coord.)
         1           Zn  tau(   1) = (  0.6666667  0.1111111  0.5006336  )
         2           Zn  tau(   2) = (  0.3333333  0.2222222  0.0006336  )
         3           O   tau(   3) = (  0.6666667  0.1111111  0.8796764  )
         4           O   tau(   4) = (  0.3333333  0.2222222  0.3796764  )
         5           Zn  tau(   5) = (  0.6666667  0.4444444  0.5006336  )
         6           Zn  tau(   6) = (  0.3333333  0.5555556  0.0006336  )
         7           O   tau(   7) = (  0.6666667  0.4444444  0.8796764  )
         8           O   tau(   8) = (  0.3333333  0.5555556  0.3796764  )
         9           Zn  tau(   9) = (  0.6666667  0.7777778  0.5006336  )
        10           Zn  tau(  10) = (  0.3333333  0.8888889  0.0006336  )
        11           O   tau(  11) = (  0.6666667  0.7777778  0.8796764  )
        12           O   tau(  12) = (  0.3333333  0.8888889  0.3796764  )

     number of k points=    68
                       cart. coord. in units 2pi/alat
        k(    1) = (   0.0000000   0.0000000   0.0000000), wk =   0.0092593
        k(    2) = (   0.0000000   0.0000000   0.1075419), wk =   0.0185185
        k(    3) = (   0.0000000   0.0000000   0.2150837), wk =   0.0185185
        k(    4) = (   0.0000000   0.0000000  -0.3226256), wk =   0.0092593
        k(    5) = (   0.0000000   0.0641500   0.0000000), wk =   0.0185185
        k(    6) = (   0.0000000   0.0641500   0.1075419), wk =   0.0185185
        k(    7) = (   0.0000000   0.0641500   0.2150837), wk =   0.0185185
        k(    8) = (   0.0000000   0.0641500  -0.3226256), wk =   0.0185185
        k(    9) = (   0.0000000   0.1283001   0.0000000), wk =   0.0185185
        k(   10) = (   0.0000000   0.1283001   0.1075419), wk =   0.0185185
        k(   11) = (   0.0000000   0.1283001   0.2150837), wk =   0.0185185
        k(   12) = (   0.0000000   0.1283001  -0.3226256), wk =   0.0185185
        k(   13) = (   0.0000000  -0.1924501   0.0000000), wk =   0.0092593
        k(   14) = (   0.0000000  -0.1924501   0.1075419), wk =   0.0185185
        k(   15) = (   0.0000000  -0.1924501   0.2150837), wk =   0.0185185
        k(   16) = (   0.0000000  -0.1924501  -0.3226256), wk =   0.0092593
        k(   17) = (   0.1666667   0.0962250   0.0000000), wk =   0.0370370
        k(   18) = (   0.1666667   0.0962250   0.1075419), wk =   0.0370370
        k(   19) = (   0.1666667   0.0962250   0.2150837), wk =   0.0370370
        k(   20) = (   0.1666667   0.0962250  -0.3226256), wk =   0.0370370
        k(   21) = (   0.1666667   0.1603751   0.0000000), wk =   0.0370370
        k(   22) = (   0.1666667   0.1603751   0.1075419), wk =   0.0370370
        k(   23) = (   0.1666667   0.1603751   0.2150837), wk =   0.0370370
        k(   24) = (   0.1666667   0.1603751  -0.3226256), wk =   0.0370370
        k(   25) = (   0.1666667  -0.0320750   0.0000000), wk =   0.0370370
        k(   26) = (   0.1666667  -0.0320750   0.1075419), wk =   0.0370370
        k(   27) = (   0.1666667  -0.0320750   0.2150837), wk =   0.0370370
        k(   28) = (   0.1666667  -0.0320750  -0.3226256), wk =   0.0370370
        k(   29) = (   0.3333333   0.1924501   0.0000000), wk =   0.0185185
        k(   30) = (   0.3333333   0.1924501   0.1075419), wk =   0.0370370
        k(   31) = (   0.3333333   0.1924501   0.2150837), wk =   0.0370370
        k(   32) = (   0.3333333   0.1924501  -0.3226256), wk =   0.0185185
        k(   33) = (   0.3333333   0.2566001   0.0000000), wk =   0.0370370
        k(   34) = (   0.3333333   0.2566001   0.1075419), wk =   0.0370370
        k(   35) = (   0.3333333   0.2566001   0.2150837), wk =   0.0370370
        k(   36) = (   0.3333333   0.2566001  -0.3226256), wk =   0.0370370
        k(   37) = (   0.3333333   0.3207501   0.0000000), wk =   0.0370370
        k(   38) = (   0.3333333   0.3207501   0.1075419), wk =   0.0370370
        k(   39) = (   0.3333333   0.3207501   0.2150837), wk =   0.0370370
        k(   40) = (   0.3333333   0.3207501  -0.3226256), wk =   0.0370370
        k(   41) = (   0.3333333  -0.0000000   0.0000000), wk =   0.0185185
        k(   42) = (   0.3333333  -0.0000000   0.1075419), wk =   0.0370370
        k(   43) = (   0.3333333  -0.0000000   0.2150837), wk =   0.0370370
        k(   44) = (   0.3333333  -0.0000000  -0.3226256), wk =   0.0185185
        k(   45) = (  -0.5000000  -0.2886751   0.0000000), wk =   0.0185185
        k(   46) = (  -0.5000000  -0.2886751   0.1075419), wk =   0.0370370
        k(   47) = (  -0.5000000  -0.2886751   0.2150837), wk =   0.0370370
        k(   48) = (  -0.5000000  -0.2886751  -0.3226256), wk =   0.0185185
        k(   49) = (  -0.5000000  -0.2245251   0.0000000), wk =   0.0370370
        k(   50) = (  -0.5000000  -0.2245251   0.1075419), wk =   0.0370370
        k(   51) = (  -0.5000000  -0.2245251   0.2150837), wk =   0.0370370
        k(   52) = (  -0.5000000  -0.2245251  -0.3226256), wk =   0.0370370
        k(   53) = (   0.0000000   0.0641500  -0.1075419), wk =   0.0185185
        k(   54) = (   0.0000000   0.0641500  -0.2150837), wk =   0.0185185
        k(   55) = (   0.0000000   0.1283001  -0.1075419), wk =   0.0185185
        k(   56) = (   0.0000000   0.1283001  -0.2150837), wk =   0.0185185
        k(   57) = (  -0.1666667   0.0962250  -0.1075419), wk =   0.0370370
        k(   58) = (  -0.1666667   0.0962250  -0.2150837), wk =   0.0370370
        k(   59) = (  -0.1666667   0.1603751  -0.1075419), wk =   0.0370370
        k(   60) = (  -0.1666667   0.1603751  -0.2150837), wk =   0.0370370
        k(   61) = (  -0.1666667  -0.0320750  -0.1075419), wk =   0.0370370
        k(   62) = (  -0.1666667  -0.0320750  -0.2150837), wk =   0.0370370
        k(   63) = (  -0.3333333   0.2566001  -0.1075419), wk =   0.0370370
        k(   64) = (  -0.3333333   0.2566001  -0.2150837), wk =   0.0370370
        k(   65) = (  -0.3333333   0.3207501  -0.1075419), wk =   0.0370370
        k(   66) = (  -0.3333333   0.3207501  -0.2150837), wk =   0.0370370
        k(   67) = (   0.5000000  -0.2245251  -0.1075419), wk =   0.0370370
        k(   68) = (   0.5000000  -0.2245251  -0.2150837), wk =   0.0370370

                       cryst. coord.
        k(    1) = (   0.0000000   0.0000000   0.0000000), wk =   0.0092593
        k(    2) = (   0.0000000   0.0000000   0.1666667), wk =   0.0185185
        k(    3) = (   0.0000000   0.0000000   0.3333333), wk =   0.0185185
        k(    4) = (   0.0000000   0.0000000  -0.5000000), wk =   0.0092593
        k(    5) = (   0.0000000   0.1666667   0.0000000), wk =   0.0185185
        k(    6) = (   0.0000000   0.1666667   0.1666667), wk =   0.0185185
        k(    7) = (   0.0000000   0.1666667   0.3333333), wk =   0.0185185
        k(    8) = (   0.0000000   0.1666667  -0.5000000), wk =   0.0185185
        k(    9) = (   0.0000000   0.3333333   0.0000000), wk =   0.0185185
        k(   10) = (   0.0000000   0.3333333   0.1666667), wk =   0.0185185
        k(   11) = (   0.0000000   0.3333333   0.3333333), wk =   0.0185185
        k(   12) = (   0.0000000   0.3333333  -0.5000000), wk =   0.0185185
        k(   13) = (   0.0000000  -0.5000000   0.0000000), wk =   0.0092593
        k(   14) = (   0.0000000  -0.5000000   0.1666667), wk =   0.0185185
        k(   15) = (   0.0000000  -0.5000000   0.3333333), wk =   0.0185185
        k(   16) = (   0.0000000  -0.5000000  -0.5000000), wk =   0.0092593
        k(   17) = (   0.1666667   0.0000000   0.0000000), wk =   0.0370370
        k(   18) = (   0.1666667   0.0000000   0.1666667), wk =   0.0370370
        k(   19) = (   0.1666667   0.0000000   0.3333333), wk =   0.0370370
        k(   20) = (   0.1666667   0.0000000  -0.5000000), wk =   0.0370370
        k(   21) = (   0.1666667   0.1666667   0.0000000), wk =   0.0370370
        k(   22) = (   0.1666667   0.1666667   0.1666667), wk =   0.0370370
        k(   23) = (   0.1666667   0.1666667   0.3333333), wk =   0.0370370
        k(   24) = (   0.1666667   0.1666667  -0.5000000), wk =   0.0370370
        k(   25) = (   0.1666667  -0.3333333   0.0000000), wk =   0.0370370
        k(   26) = (   0.1666667  -0.3333333   0.1666667), wk =   0.0370370
        k(   27) = (   0.1666667  -0.3333333   0.3333333), wk =   0.0370370
        k(   28) = (   0.1666667  -0.3333333  -0.5000000), wk =   0.0370370
        k(   29) = (   0.3333333   0.0000000   0.0000000), wk =   0.0185185
        k(   30) = (   0.3333333   0.0000000   0.1666667), wk =   0.0370370
        k(   31) = (   0.3333333   0.0000000   0.3333333), wk =   0.0370370
        k(   32) = (   0.3333333   0.0000000  -0.5000000), wk =   0.0185185
        k(   33) = (   0.3333333   0.1666667   0.0000000), wk =   0.0370370
        k(   34) = (   0.3333333   0.1666667   0.1666667), wk =   0.0370370
        k(   35) = (   0.3333333   0.1666667   0.3333333), wk =   0.0370370
        k(   36) = (   0.3333333   0.1666667  -0.5000000), wk =   0.0370370
        k(   37) = (   0.3333333   0.3333333   0.0000000), wk =   0.0370370
        k(   38) = (   0.3333333   0.3333333   0.1666667), wk =   0.0370370
        k(   39) = (   0.3333333   0.3333333   0.3333333), wk =   0.0370370
        k(   40) = (   0.3333333   0.3333333  -0.5000000), wk =   0.0370370
        k(   41) = (   0.3333333  -0.5000000   0.0000000), wk =   0.0185185
        k(   42) = (   0.3333333  -0.5000000   0.1666667), wk =   0.0370370
        k(   43) = (   0.3333333  -0.5000000   0.3333333), wk =   0.0370370
        k(   44) = (   0.3333333  -0.5000000  -0.5000000), wk =   0.0185185
        k(   45) = (  -0.5000000   0.0000000   0.0000000), wk =   0.0185185
        k(   46) = (  -0.5000000   0.0000000   0.1666667), wk =   0.0370370
        k(   47) = (  -0.5000000   0.0000000   0.3333333), wk =   0.0370370
        k(   48) = (  -0.5000000   0.0000000  -0.5000000), wk =   0.0185185
        k(   49) = (  -0.5000000   0.1666667   0.0000000), wk =   0.0370370
        k(   50) = (  -0.5000000   0.1666667   0.1666667), wk =   0.0370370
        k(   51) = (  -0.5000000   0.1666667   0.3333333), wk =   0.0370370
        k(   52) = (  -0.5000000   0.1666667  -0.5000000), wk =   0.0370370
        k(   53) = (   0.0000000   0.1666667  -0.1666667), wk =   0.0185185
        k(   54) = (   0.0000000   0.1666667  -0.3333333), wk =   0.0185185
        k(   55) = (   0.0000000   0.3333333  -0.1666667), wk =   0.0185185
        k(   56) = (   0.0000000   0.3333333  -0.3333333), wk =   0.0185185
        k(   57) = (  -0.1666667   0.5000000  -0.1666667), wk =   0.0370370
        k(   58) = (  -0.1666667   0.5000000  -0.3333333), wk =   0.0370370
        k(   59) = (  -0.1666667   0.6666667  -0.1666667), wk =   0.0370370
        k(   60) = (  -0.1666667   0.6666667  -0.3333333), wk =   0.0370370
        k(   61) = (  -0.1666667   0.1666667  -0.1666667), wk =   0.0370370
        k(   62) = (  -0.1666667   0.1666667  -0.3333333), wk =   0.0370370
        k(   63) = (  -0.3333333   1.1666667  -0.1666667), wk =   0.0370370
        k(   64) = (  -0.3333333   1.1666667  -0.3333333), wk =   0.0370370
        k(   65) = (  -0.3333333   1.3333333  -0.1666667), wk =   0.0370370
        k(   66) = (  -0.3333333   1.3333333  -0.3333333), wk =   0.0370370
        k(   67) = (   0.5000000  -1.3333333  -0.1666667), wk =   0.0370370
        k(   68) = (   0.5000000  -1.3333333  -0.3333333), wk =   0.0370370

     Check: negative core charge=   -0.000002

     Initial potential from superposition of free atoms

     starting charge     107.9776, renormalised to     108.0000
     Starting wfcs are   78 randomized atomic wfcs

     Self-consistent Calculation

     iteration #  1     ecut=    50.00 Ry     beta= 0.30
     Davidson diagonalization with overlap

     ethr =  1.00E-02,  avg # of iterations =  1.9

     total energy              =   -1084.37893221 Ry
     estimated scf accuracy    <       2.16970601 Ry

[...]

     c_bands:  4 eigenvalues not converged
     c_bands:  1 eigenvalues not converged
     ethr =  9.40E-11,  avg # of iterations = 13.2

[...]

     total energy              =   -1084.88599543 Ry
     estimated scf accuracy    <       0.00000008 Ry

     iteration # 28     ecut=    50.00 Ry     beta= 0.30
     Davidson diagonalization with overlap

     ethr =  1.39E-11,  avg # of iterations =  7.4

     End of self-consistent calculation

          k = 0.0000 0.0000 0.0000 (  6385 PWs)   bands (ev):

   -11.5161 -11.1477 -11.1477 -10.8882 -10.7880 -10.7880   0.3938   0.3938
     0.5662   0.5664   0.5755   0.6809   0.6809   0.7236   0.7236   0.7467
     0.7468   0.9070   0.9070   0.9872   1.0865   1.0865   1.2131   1.2131
     1.4203   1.4203   1.4336   1.4337   1.4976   1.4976   1.6204   1.6205
     1.6487   1.6487   1.8074   1.8074   1.8308   2.1918   2.1918   2.9246
     2.9246   3.6670   3.6670   4.0914   4.0914   5.0079   5.0083   5.1187
     5.1187   5.3028   5.3028   5.7784   5.7788   5.7920

     occupation numbers
     1.0000   1.0000   1.0000   1.0000   1.0000   1.0000   1.0000   1.0000
     1.0000   1.0000   1.0000   1.0000   1.0000   1.0000   1.0000   1.0000
     1.0000   1.0000   1.0000   1.0000   1.0000   1.0000   1.0000   1.0000
     1.0000   1.0000   1.0000   1.0000   1.0000   1.0000   1.0000   1.0000
     1.0000   1.0000   1.0000   1.0000   1.0000   1.0000   1.0000   1.0000
     1.0000   1.0000   1.0000   1.0000   1.0000   1.0000   1.0000   1.0000
     1.0000   1.0000   1.0000   1.0000   1.0000   1.0000

[...]

          k =-0.5000-0.2887 0.0000 (  6366 PWs)   bands (ev):

[...]

          k =-0.3333 0.3208-0.2151 (  6384 PWs)   bands (ev):

[...]

          k = 0.5000-0.2245-0.2151 (  6395 PWs)   bands (ev):

   -10.9334 -10.9309 -10.9295 -10.8311 -10.8307 -10.8299   0.3293   0.3635
     0.4324   0.4686   0.4726   0.5197   0.7897   0.8135   0.8385   0.8871
     0.9770   1.0122   1.0292   1.0376   1.0393   1.0734   1.0805   1.0854
     1.4929   1.5424   1.5564   1.5695   1.5737   1.5875   1.6498   1.6663
     1.6781   1.7150   1.7440   1.7867   2.2260   2.2705   2.4172   2.4666
     2.5560   2.7246   3.5121   3.8270   4.0125   4.2090   4.2544   4.2959
     4.4245   4.5969   4.7411   4.9426   4.9596   4.9739

     occupation numbers
     1.0000   1.0000   1.0000   1.0000   1.0000   1.0000   1.0000   1.0000
     1.0000   1.0000   1.0000   1.0000   1.0000   1.0000   1.0000   1.0000
     1.0000   1.0000   1.0000   1.0000   1.0000   1.0000   1.0000   1.0000
     1.0000   1.0000   1.0000   1.0000   1.0000   1.0000   1.0000   1.0000
     1.0000   1.0000   1.0000   1.0000   1.0000   1.0000   1.0000   1.0000
     1.0000   1.0000   1.0000   1.0000   1.0000   1.0000   1.0000   1.0000
     1.0000   1.0000   1.0000   1.0000   1.0000   1.0000

     highest occupied level (ev):     5.7920

!    total energy              =   -1084.88599544 Ry
     estimated scf accuracy    <          1.5E-10 Ry

     The total energy is the sum of the following terms:
     one-electron contribution =    -490.65788767 Ry
     hartree contribution      =     364.69841415 Ry
     xc contribution           =    -328.19445692 Ry
     ewald contribution        =    -630.73206500 Ry

     convergence has been achieved in  28 iterations

     Forces acting on atoms (cartesian axes, Ry/au):

     atom    1 type  1   force =     0.00000000   -0.00000238   -0.00870201
     atom    2 type  1   force =     0.00000000    0.00000613   -0.00870276
     atom    3 type  2   force =     0.00000000    0.00000206    0.00870346
     atom    4 type  2   force =     0.00000000   -0.00000244    0.00870345
     atom    5 type  1   force =     0.00000000   -0.00000574   -0.00870575
     atom    6 type  1   force =     0.00000000    0.00000520   -0.00870220
     atom    7 type  2   force =     0.00000000    0.00000204    0.00870337
     atom    8 type  2   force =     0.00000000   -0.00000260    0.00870343
     atom    9 type  1   force =     0.00000000   -0.00000489   -0.00870380
     atom   10 type  1   force =     0.00000000    0.00000290   -0.00870402
     atom   11 type  2   force =     0.00000000    0.00000212    0.00870345
     atom   12 type  2   force =     0.00000000   -0.00000240    0.00870338
     The non-local contrib.  to forces
     atom    1 type  1   force =     0.00000000   -0.00000129   -0.11769644
     atom    2 type  1   force =     0.00000000    0.00000310   -0.11769773
     atom    3 type  2   force =     0.00000000    0.00022655   -0.09344762
     atom    4 type  2   force =     0.00000000   -0.00022792   -0.09344873
     atom    5 type  1   force =     0.00000000   -0.00000314   -0.11769813
     atom    6 type  1   force =     0.00000000    0.00000214   -0.11769722
     atom    7 type  2   force =     0.00000000    0.00022714   -0.09344876
     atom    8 type  2   force =     0.00000000   -0.00022747   -0.09344840
     atom    9 type  1   force =     0.00000000   -0.00000242   -0.11769707
     atom   10 type  1   force =     0.00000000    0.00000188   -0.11769788
     atom   11 type  2   force =     0.00000000    0.00022795   -0.09344821
     atom   12 type  2   force =     0.00000000   -0.00022714   -0.09344944
     The ionic contribution  to forces
     atom    1 type  1   force =    -0.00000000    0.00000001   -0.73897918
     atom    2 type  1   force =     0.00000000    0.00000001   -0.73897918
     atom    3 type  2   force =    -0.00000000    0.00000000    0.73897918
     atom    4 type  2   force =     0.00000000    0.00000000    0.73897918
     atom    5 type  1   force =    -0.00000001    0.00000001   -0.73897919
     atom    6 type  1   force =     0.00000001   -0.00000001   -0.73897919
     atom    7 type  2   force =    -0.00000001    0.00000000    0.73897919
     atom    8 type  2   force =     0.00000001   -0.00000000    0.73897919
     atom    9 type  1   force =    -0.00000000   -0.00000001   -0.73897918
     atom   10 type  1   force =     0.00000000   -0.00000001   -0.73897918
     atom   11 type  2   force =    -0.00000000   -0.00000000    0.73897918
     atom   12 type  2   force =     0.00000000   -0.00000000    0.73897918
     The local contribution  to forces
     atom    1 type  1   force =    -0.00000004   -0.00001200    0.83976696
     atom    2 type  1   force =     0.00000000    0.00000721    0.83976926
     atom    3 type  2   force =    -0.00000001   -0.00022425   -0.63756803
     atom    4 type  2   force =     0.00000000    0.00022361   -0.63757144
     atom    5 type  1   force =    -0.00000009   -0.00000766    0.83977092
     atom    6 type  1   force =     0.00000009    0.00000922    0.83976812
     atom    7 type  2   force =    -0.00000002   -0.00022452   -0.63756991
     atom    8 type  2   force =     0.00000002    0.00022647   -0.63756923
     atom    9 type  1   force =    -0.00000000   -0.00000852    0.83976838
     atom   10 type  1   force =     0.00000004    0.00001084    0.83977006
     atom   11 type  2   force =    -0.00000000   -0.00022327   -0.63756903
     atom   12 type  2   force =     0.00000001    0.00022453   -0.63756943
     The core correction contribution to forces
     atom    1 type  1   force =    -0.00000003    0.00000602    0.00820075
     atom    2 type  1   force =     0.00000006   -0.00000586    0.00820079
     atom    3 type  2   force =    -0.00000000   -0.00000257    0.00074020
     atom    4 type  2   force =    -0.00000000    0.00000260    0.00074020
     atom    5 type  1   force =    -0.00000000    0.00000599    0.00820079
     atom    6 type  1   force =     0.00000000   -0.00000600    0.00820079
     atom    7 type  2   force =     0.00000001   -0.00000259    0.00074020
     atom    8 type  2   force =    -0.00000001    0.00000260    0.00074019
     atom    9 type  1   force =    -0.00000006    0.00000582    0.00820080
     atom   10 type  1   force =     0.00000003   -0.00000601    0.00820077
     atom   11 type  2   force =     0.00000000   -0.00000260    0.00074020
     atom   12 type  2   force =     0.00000000    0.00000258    0.00074022
     The Hubbard contrib.    to forces
     atom    1 type  1   force =     0.00000000    0.00000000    0.00000000
     atom    2 type  1   force =     0.00000000    0.00000000    0.00000000
     atom    3 type  2   force =     0.00000000    0.00000000    0.00000000
     atom    4 type  2   force =     0.00000000    0.00000000    0.00000000
     atom    5 type  1   force =     0.00000000    0.00000000    0.00000000
     atom    6 type  1   force =     0.00000000    0.00000000    0.00000000
     atom    7 type  2   force =     0.00000000    0.00000000    0.00000000
     atom    8 type  2   force =     0.00000000    0.00000000    0.00000000
     atom    9 type  1   force =     0.00000000    0.00000000    0.00000000
     atom   10 type  1   force =     0.00000000    0.00000000    0.00000000
     atom   11 type  2   force =     0.00000000    0.00000000    0.00000000
     atom   12 type  2   force =     0.00000000    0.00000000    0.00000000
     The SCF correction term to forces
     atom    1 type  1   force =    -0.00000000    0.00000504    0.00000566
     atom    2 type  1   force =    -0.00000000    0.00000182    0.00000386
     atom    3 type  2   force =    -0.00000000    0.00000249   -0.00000050
     atom    4 type  2   force =    -0.00000000   -0.00000059    0.00000400
     atom    5 type  1   force =    -0.00000000   -0.00000078   -0.00000039
     atom    6 type  1   force =     0.00000000   -0.00000000    0.00000506
     atom    7 type  2   force =    -0.00000000    0.00000217    0.00000241
     atom    8 type  2   force =     0.00000000   -0.00000404    0.00000144
     atom    9 type  1   force =     0.00000000    0.00000039    0.00000303
     atom   10 type  1   force =     0.00000000   -0.00000365    0.00000198
     atom   11 type  2   force =     0.00000000    0.00000019    0.00000108
     atom   12 type  2   force =     0.00000000   -0.00000222    0.00000261

     Total force =     0.030150     Total SCF correction =     0.000014

     General routines

     Parallel routines

   This run was terminated on:  23:36: 2  27Aug2025

   JOB DONE.