     Program PWSCF v.7.2 starts on  3Aug2025 at 18:57:58

     Reading input from /home/jvc/QEspresso7.2/ZnO_database/scripts/cell232.in/ZnO-3.27-1.74-232.in
Warning: card &CELL ignored
Warning: card / ignored
Warning: card &FCP ignored
Warning: card / ignored
Warning: card &RISM ignored
Warning: card / ignored

     Current dimensions of program PWSCF are:
     Max number of different atomic species (ntypx) = 10
     Max number of k-points (npk) =  40000
     Max angular momentum in pseudopotentials (lmaxx) =  4
     file Zn.upf: wavefunction(s)  3D renormalized
     Found identity + (  0.0000  0.0000 -0.5000) symmetry
     This is a supercell, fractional translations are disabled

     K-points division:     npool     =       6
     R & G space division:  proc/nbgrp/npool/nimage =       6
     Subspace diagonalization in iterative solution of the eigenvalue problem:
     one sub-group per band group will be used

     Using Slab Decomposition

     bravais-lattice index     =            0
     lattice parameter (alat)  =      12.3576  a.u.
     unit-cell volume          =    3957.5722 (a.u.)^3
     number of atoms/cell      =           48
     number of atomic types    =            2
     number of electrons       =       432.00
     number of Kohn-Sham states=          216
     kinetic-energy cutoff     =      50.0000  Ry
     charge density cutoff     =     400.0000  Ry
     scf convergence threshold =      1.0E-08
     mixing beta               =       0.3000
     number of iterations used =            8  plain     mixing
     Exchange-correlation= PBE
                           (   1   4   3   4   0   0   0)

     celldm(1)=  12.357644  celldm(2)=   0.000000  celldm(3)=   0.000000
     celldm(4)=   0.000000  celldm(5)=   0.000000  celldm(6)=   0.000000

     crystal axes: (cart. coord. in units of alat)
               a(1) = (   1.000000   0.000000   0.000000 )
               a(2) = (  -0.750000   1.299038   0.000000 )
               a(3) = (   0.000000   0.000000   1.614358 )

     reciprocal axes: (cart. coord. in units 2 pi/alat)
               b(1) = (  1.000000  0.577350 -0.000000 )
               b(2) = (  0.000000  0.769800  0.000000 )
               b(3) = (  0.000000 -0.000000  0.619441 )

     PseudoPot. # 1 for Zn read from file:
     /home/jvc/QEspresso7.2/ZnO_database/pseudos/Zn.upf
     MD5 check sum: 7f56cabf9682ed8c977c2f7d0c5985c5
     Pseudo is Ultrasoft + core correction, Zval = 12.0
     Generated using &quot;atomic&quot; code by A. Dal Corso  v.6.2.2
     Using radial grid of 1201 points,  6 beta functions with:
                l(1) =   0
                l(2) =   0
                l(3) =   1
                l(4) =   1
                l(5) =   2
                l(6) =   2
     Q(r) pseudized with 0 coefficients

     PseudoPot. # 2 for O  read from file:
     /home/jvc/QEspresso7.2/ZnO_database/pseudos/O.upf
     MD5 check sum: 91400c9766925bcf19f520983a725ff0
     Pseudo is Ultrasoft + core correction, Zval =  6.0
     Generated using &quot;atomic&quot; code by A. Dal Corso  v.6.3MaX
     Using radial grid of 1095 points,  4 beta functions with:
                l(1) =   0
                l(2) =   0
                l(3) =   1
                l(4) =   1
     Q(r) pseudized with 0 coefficients

     atomic species   valence    mass     pseudopotential
        Zn            12.00    65.38000     Zn( 1.00)
        O              6.00    15.99900     O ( 1.00)

     No symmetry found

                                    s                        frac. trans.

      isym =  1     identity

 cryst.   s( 1) = (     1          0          0      )
                  (     0          1          0      )
                  (     0          0          1      )

 cart.    s( 1) = (  1.0000000  0.0000000  0.0000000 )
                  (  0.0000000  1.0000000  0.0000000 )
                  (  0.0000000  0.0000000  1.0000000 )

   Cartesian axes

     site n.     atom                  positions (alat units)
         1           Zn  tau(   1) = (   0.2500000   0.1443376   0.4041010  )
         2           Zn  tau(   2) = (   0.0000000   0.2886751   0.0005114  )
         3           O   tau(   3) = (   0.2500000   0.1443376   0.7100565  )
         4           O   tau(   4) = (   0.0000000   0.2886751   0.3064669  )
         5           Zn  tau(   5) = (   0.2500000   0.1443376   1.2112802  )
         6           Zn  tau(   6) = (   0.0000000   0.2886751   0.8076906  )
         7           O   tau(   7) = (   0.2500000   0.1443376   1.5172357  )
         8           O   tau(   8) = (   0.0000000   0.2886751   1.1136461  )
         9           Zn  tau(   9) = (   0.0000000   0.5773503   0.4041010  )
        10           Zn  tau(  10) = (  -0.2500000   0.7216878   0.0005114  )
        11           O   tau(  11) = (   0.0000000   0.5773503   0.7100565  )
        12           O   tau(  12) = (  -0.2500000   0.7216878   0.3064669  )
        13           Zn  tau(  13) = (   0.0000000   0.5773503   1.2112802  )
        14           Zn  tau(  14) = (  -0.2500000   0.7216878   0.8076906  )
        15           O   tau(  15) = (   0.0000000   0.5773503   1.5172357  )
        16           O   tau(  16) = (  -0.2500000   0.7216878   1.1136461  )
        17           Zn  tau(  17) = (  -0.2500000   1.0103630   0.4041010  )
        18           Zn  tau(  18) = (  -0.5000000   1.1547005   0.0005114  )
        19           O   tau(  19) = (  -0.2500000   1.0103630   0.7100565  )
        20           O   tau(  20) = (  -0.5000000   1.1547005   0.3064669  )
        21           Zn  tau(  21) = (  -0.2500000   1.0103630   1.2112802  )
        22           Zn  tau(  22) = (  -0.5000000   1.1547005   0.8076906  )
        23           O   tau(  23) = (  -0.2500000   1.0103630   1.5172357  )
        24           O   tau(  24) = (  -0.5000000   1.1547005   1.1136461  )
        25           Zn  tau(  25) = (   0.7500000   0.1443376   0.4041010  )
        26           Zn  tau(  26) = (   0.5000000   0.2886751   0.0005114  )
        27           O   tau(  27) = (   0.7500000   0.1443376   0.7100565  )
        28           O   tau(  28) = (   0.5000000   0.2886751   0.3064669  )
        29           Zn  tau(  29) = (   0.7500000   0.1443376   1.2112802  )
        30           Zn  tau(  30) = (   0.5000000   0.2886751   0.8076906  )
        31           O   tau(  31) = (   0.7500000   0.1443376   1.5172357  )
        32           O   tau(  32) = (   0.5000000   0.2886751   1.1136461  )
        33           Zn  tau(  33) = (   0.5000000   0.5773503   0.4041010  )
        34           Zn  tau(  34) = (   0.2500000   0.7216878   0.0005114  )
        35           O   tau(  35) = (   0.5000000   0.5773503   0.7100565  )
        36           O   tau(  36) = (   0.2500000   0.7216878   0.3064669  )
        37           Zn  tau(  37) = (   0.5000000   0.5773503   1.2112802  )
        38           Zn  tau(  38) = (   0.2500000   0.7216878   0.8076906  )
        39           O   tau(  39) = (   0.5000000   0.5773503   1.5172357  )
        40           O   tau(  40) = (   0.2500000   0.7216878   1.1136461  )
        41           Zn  tau(  41) = (   0.2500000   1.0103630   0.4041010  )
        42           Zn  tau(  42) = (   0.0000000   1.1547005   0.0005114  )
        43           O   tau(  43) = (   0.2500000   1.0103630   0.7100565  )
        44           O   tau(  44) = (   0.0000000   1.1547005   0.3064669  )
        45           Zn  tau(  45) = (   0.2500000   1.0103630   1.2112802  )
        46           Zn  tau(  46) = (   0.0000000   1.1547005   0.8076906  )
        47           O   tau(  47) = (   0.2500000   1.0103630   1.5172357  )
        48           O   tau(  48) = (   0.0000000   1.1547005   1.1136461  )

   Crystallographic axes

     site n.     atom                  positions (cryst. coord.)
         1           Zn  tau(   1) = (  0.3333333  0.1111111  0.2503168  )
         2           Zn  tau(   2) = (  0.1666667  0.2222222  0.0003168  )
         3           O   tau(   3) = (  0.3333333  0.1111111  0.4398382  )
         4           O   tau(   4) = (  0.1666667  0.2222222  0.1898382  )
         5           Zn  tau(   5) = (  0.3333333  0.1111111  0.7503168  )
         6           Zn  tau(   6) = (  0.1666667  0.2222222  0.5003168  )
         7           O   tau(   7) = (  0.3333333  0.1111111  0.9398382  )
         8           O   tau(   8) = (  0.1666667  0.2222222  0.6898382  )
         9           Zn  tau(   9) = (  0.3333333  0.4444444  0.2503168  )
        10           Zn  tau(  10) = (  0.1666667  0.5555556  0.0003168  )
        11           O   tau(  11) = (  0.3333333  0.4444444  0.4398382  )
        12           O   tau(  12) = (  0.1666667  0.5555556  0.1898382  )
        13           Zn  tau(  13) = (  0.3333333  0.4444444  0.7503168  )
        14           Zn  tau(  14) = (  0.1666667  0.5555556  0.5003168  )
        15           O   tau(  15) = (  0.3333333  0.4444444  0.9398382  )
        16           O   tau(  16) = (  0.1666667  0.5555556  0.6898382  )
        17           Zn  tau(  17) = (  0.3333333  0.7777778  0.2503168  )
        18           Zn  tau(  18) = (  0.1666667  0.8888889  0.0003168  )
        19           O   tau(  19) = (  0.3333333  0.7777778  0.4398382  )
        20           O   tau(  20) = (  0.1666667  0.8888889  0.1898382  )
        21           Zn  tau(  21) = (  0.3333333  0.7777778  0.7503168  )
        22           Zn  tau(  22) = (  0.1666667  0.8888889  0.5003168  )
        23           O   tau(  23) = (  0.3333333  0.7777778  0.9398382  )
        24           O   tau(  24) = (  0.1666667  0.8888889  0.6898382  )
        25           Zn  tau(  25) = (  0.8333333  0.1111111  0.2503168  )
        26           Zn  tau(  26) = (  0.6666667  0.2222222  0.0003168  )
        27           O   tau(  27) = (  0.8333333  0.1111111  0.4398382  )
        28           O   tau(  28) = (  0.6666667  0.2222222  0.1898382  )
        29           Zn  tau(  29) = (  0.8333333  0.1111111  0.7503168  )
        30           Zn  tau(  30) = (  0.6666667  0.2222222  0.5003168  )
        31           O   tau(  31) = (  0.8333333  0.1111111  0.9398382  )
        32           O   tau(  32) = (  0.6666667  0.2222222  0.6898382  )
        33           Zn  tau(  33) = (  0.8333333  0.4444444  0.2503168  )
        34           Zn  tau(  34) = (  0.6666667  0.5555556  0.0003168  )
        35           O   tau(  35) = (  0.8333333  0.4444444  0.4398382  )
        36           O   tau(  36) = (  0.6666667  0.5555556  0.1898382  )
        37           Zn  tau(  37) = (  0.8333333  0.4444444  0.7503168  )
        38           Zn  tau(  38) = (  0.6666667  0.5555556  0.5003168  )
        39           O   tau(  39) = (  0.8333333  0.4444444  0.9398382  )
        40           O   tau(  40) = (  0.6666667  0.5555556  0.6898382  )
        41           Zn  tau(  41) = (  0.8333333  0.7777778  0.2503168  )
        42           Zn  tau(  42) = (  0.6666667  0.8888889  0.0003168  )
        43           O   tau(  43) = (  0.8333333  0.7777778  0.4398382  )
        44           O   tau(  44) = (  0.6666667  0.8888889  0.1898382  )
        45           Zn  tau(  45) = (  0.8333333  0.7777778  0.7503168  )
[...]
     atom   37 type  1   force =    -0.00000001    0.00000001    0.06271747
     atom   38 type  1   force =     0.00000003   -0.00000000    0.06271747
     atom   39 type  2   force =    -0.00000001    0.00000001   -0.06271747
     atom   40 type  2   force =     0.00000002   -0.00000000   -0.06271747
     atom   41 type  1   force =     0.00000002   -0.00000001    0.06271747
     atom   42 type  1   force =     0.00000001    0.00000000    0.06271747
     atom   43 type  2   force =     0.00000001   -0.00000000   -0.06271747
     atom   44 type  2   force =     0.00000001    0.00000000   -0.06271747
     atom   45 type  1   force =     0.00000002   -0.00000001    0.06271747
     atom   46 type  1   force =     0.00000001    0.00000000    0.06271747
     atom   47 type  2   force =     0.00000001   -0.00000000   -0.06271747
     atom   48 type  2   force =     0.00000001    0.00000000   -0.06271747
     The local contribution  to forces
     atom    1 type  1   force =    -0.00000757    0.00001090   -0.05828399
     atom    2 type  1   force =     0.00000349    0.00000790   -0.05827786
     atom    3 type  2   force =     0.00000196    0.00000284    0.05696504
     atom    4 type  2   force =     0.00000073    0.00000203    0.05696556
     atom    5 type  1   force =    -0.00000275    0.00001540   -0.05828241
     atom    6 type  1   force =     0.00001108    0.00000118   -0.05829476
     atom    7 type  2   force =    -0.00000174    0.00000251    0.05696388
     atom    8 type  2   force =     0.00000344   -0.00000193    0.05696452
     atom    9 type  1   force =     0.00000543   -0.00000773   -0.05829477
     atom   10 type  1   force =    -0.00001148   -0.00000478   -0.05828718
     atom   11 type  2   force =    -0.00000078    0.00000134    0.05696554
     atom   12 type  2   force =    -0.00000152   -0.00000130    0.05696532
     atom   13 type  1   force =     0.00002536    0.00001024   -0.05829392
     atom   14 type  1   force =     0.00000639    0.00000167   -0.05828970
     atom   15 type  2   force =     0.00000237   -0.00000079    0.05696522
     atom   16 type  2   force =    -0.00000037    0.00000384    0.05696117
     atom   17 type  1   force =    -0.00000386   -0.00000725   -0.05828753
     atom   18 type  1   force =     0.00001260   -0.00000189   -0.05828555
     atom   19 type  2   force =    -0.00000124   -0.00000555    0.05696339
     atom   20 type  2   force =    -0.00000157   -0.00000366    0.05696333
     atom   21 type  1   force =     0.00000668   -0.00000786   -0.05828109
     atom   22 type  1   force =    -0.00001816   -0.00000092   -0.05829818
     atom   23 type  2   force =    -0.00000074   -0.00000070    0.05696586
     atom   24 type  2   force =    -0.00000234   -0.00000107    0.05696351
     atom   25 type  1   force =     0.00000927    0.00001404   -0.05828937
     atom   26 type  1   force =    -0.00000275    0.00001802   -0.05828827
     atom   27 type  2   force =    -0.00000032   -0.00000030    0.05696109
     atom   28 type  2   force =     0.00000001    0.00000757    0.05696464
     atom   29 type  1   force =     0.00000173    0.00000095   -0.05828289
     atom   30 type  1   force =    -0.00001011   -0.00000242   -0.05829179
     atom   31 type  2   force =     0.00000060    0.00000224    0.05696364
     atom   32 type  2   force =    -0.00000504   -0.00000035    0.05696585
     atom   33 type  1   force =    -0.00000709    0.00000213   -0.05830509
     atom   34 type  1   force =     0.00001336   -0.00001774   -0.05828736
     atom   35 type  2   force =     0.00000192    0.00000026    0.05696428
     atom   36 type  2   force =     0.00000088   -0.00000399    0.05696597
     atom   37 type  1   force =    -0.00002441    0.00001215   -0.05827833
     atom   38 type  1   force =    -0.00000683    0.00001358   -0.05827043
     atom   39 type  2   force =     0.00000007    0.00000028    0.05696569
     atom   40 type  2   force =     0.00000072   -0.00000017    0.05696606
     atom   41 type  1   force =     0.00000376   -0.00001067   -0.05827382
     atom   42 type  1   force =    -0.00001027   -0.00000239   -0.05828853
     atom   43 type  2   force =     0.00000148   -0.00000130    0.05696643
     atom   44 type  2   force =    -0.00000207   -0.00000137    0.05696508
     atom   45 type  1   force =    -0.00000627   -0.00002918   -0.05830609
     atom   46 type  1   force =     0.00001872   -0.00000973   -0.05828772
     atom   47 type  2   force =    -0.00000114   -0.00000135    0.05696528
     atom   48 type  2   force =    -0.00000030   -0.00000107    0.05696501
     The core correction contribution to forces
     atom    1 type  1   force =     0.00000016   -0.00000015    0.00046403
     atom    2 type  1   force =    -0.00000004   -0.00000001    0.00046389
     atom    3 type  2   force =     0.00000006    0.00000002   -0.00006500
     atom    4 type  2   force =    -0.00000001   -0.00000004   -0.00006504
     atom    5 type  1   force =     0.00000003   -0.00000006    0.00046395
     atom    6 type  1   force =    -0.00000009    0.00000001    0.00046411
     atom    7 type  2   force =    -0.00000002   -0.00000007   -0.00006508
     atom    8 type  2   force =    -0.00000003   -0.00000008   -0.00006503
     atom    9 type  1   force =    -0.00000003    0.00000007    0.00046410
     atom   10 type  1   force =     0.00000017    0.00000015    0.00046411
     atom   11 type  2   force =    -0.00000008   -0.00000000   -0.00006502
     atom   12 type  2   force =    -0.00000001    0.00000005   -0.00006499
     atom   13 type  1   force =    -0.00000049   -0.00000024    0.00046405
     atom   14 type  1   force =    -0.00000014    0.00000010    0.00046402
     atom   15 type  2   force =    -0.00000000    0.00000001   -0.00006504
     atom   16 type  2   force =     0.00000000    0.00000004   -0.00006512
     atom   17 type  1   force =     0.00000008    0.00000017    0.00046418
     atom   18 type  1   force =    -0.00000011   -0.00000011    0.00046404
     atom   19 type  2   force =    -0.00000001   -0.00000003   -0.00006502
     atom   20 type  2   force =     0.00000001   -0.00000002   -0.00006509
     atom   21 type  1   force =    -0.00000011   -0.00000005    0.00046388
     atom   22 type  1   force =     0.00000029    0.00000001    0.00046426
     atom   23 type  2   force =     0.00000002    0.00000006   -0.00006504
     atom   24 type  2   force =     0.00000004    0.00000004   -0.00006502
     atom   25 type  1   force =    -0.00000014   -0.00000021    0.00046412
     atom   26 type  1   force =     0.00000006   -0.00000022    0.00046406
     atom   27 type  2   force =    -0.00000005    0.00000001   -0.00006504
     atom   28 type  2   force =     0.00000004   -0.00000000   -0.00006501
     atom   29 type  1   force =    -0.00000003    0.00000007    0.00046404
     atom   30 type  1   force =     0.00000012    0.00000019    0.00046410
     atom   31 type  2   force =     0.00000002   -0.00000006   -0.00006507
     atom   32 type  2   force =     0.00000001   -0.00000008   -0.00006507
     atom   33 type  1   force =    -0.00000001    0.00000000    0.00046421
     atom   34 type  1   force =    -0.00000012    0.00000030    0.00046399
     atom   35 type  2   force =     0.00000008   -0.00000003   -0.00006504
     atom   36 type  2   force =    -0.00000001    0.00000002   -0.00006502
     atom   37 type  1   force =     0.00000050   -0.00000027    0.00046389
     atom   38 type  1   force =     0.00000014   -0.00000025    0.00046354
     atom   39 type  2   force =     0.00000002   -0.00000000   -0.00006503
     atom   40 type  2   force =     0.00000001    0.00000002   -0.00006502
     atom   41 type  1   force =    -0.00000009    0.00000015    0.00046376
     atom   42 type  1   force =     0.00000018   -0.00000007    0.00046415
     atom   43 type  2   force =     0.00000002    0.00000005   -0.00006505
     atom   44 type  2   force =    -0.00000003    0.00000001   -0.00006506
     atom   45 type  1   force =     0.00000009    0.00000056    0.00046431
     atom   46 type  1   force =    -0.00000025    0.00000011    0.00046405
     atom   47 type  2   force =    -0.00000002    0.00000009   -0.00006499
     atom   48 type  2   force =    -0.00000004    0.00000006   -0.00006501
     The Hubbard contrib.    to forces
     atom    1 type  1   force =     0.00000000    0.00000000    0.00000000
     atom    2 type  1   force =     0.00000000    0.00000000    0.00000000
     atom    3 type  2   force =     0.00000000    0.00000000    0.00000000
     atom    4 type  2   force =     0.00000000    0.00000000    0.00000000
     atom    5 type  1   force =     0.00000000    0.00000000    0.00000000
     atom    6 type  1   force =     0.00000000    0.00000000    0.00000000
     atom    7 type  2   force =     0.00000000    0.00000000    0.00000000
     atom    8 type  2   force =     0.00000000    0.00000000    0.00000000
     atom    9 type  1   force =     0.00000000    0.00000000    0.00000000
     atom   10 type  1   force =     0.00000000    0.00000000    0.00000000
     atom   11 type  2   force =     0.00000000    0.00000000    0.00000000
     atom   12 type  2   force =     0.00000000    0.00000000    0.00000000
     atom   13 type  1   force =     0.00000000    0.00000000    0.00000000
     atom   14 type  1   force =     0.00000000    0.00000000    0.00000000
     atom   15 type  2   force =     0.00000000    0.00000000    0.00000000
     atom   16 type  2   force =     0.00000000    0.00000000    0.00000000
     atom   17 type  1   force =     0.00000000    0.00000000    0.00000000
     atom   18 type  1   force =     0.00000000    0.00000000    0.00000000
     atom   19 type  2   force =     0.00000000    0.00000000    0.00000000
     atom   20 type  2   force =     0.00000000    0.00000000    0.00000000
     atom   21 type  1   force =     0.00000000    0.00000000    0.00000000
     atom   22 type  1   force =     0.00000000    0.00000000    0.00000000
     atom   23 type  2   force =     0.00000000    0.00000000    0.00000000
     atom   24 type  2   force =     0.00000000    0.00000000    0.00000000
     atom   25 type  1   force =     0.00000000    0.00000000    0.00000000
     atom   26 type  1   force =     0.00000000    0.00000000    0.00000000
     atom   27 type  2   force =     0.00000000    0.00000000    0.00000000
     atom   28 type  2   force =     0.00000000    0.00000000    0.00000000
     atom   29 type  1   force =     0.00000000    0.00000000    0.00000000
     atom   30 type  1   force =     0.00000000    0.00000000    0.00000000
     atom   31 type  2   force =     0.00000000    0.00000000    0.00000000
     atom   32 type  2   force =     0.00000000    0.00000000    0.00000000
     atom   33 type  1   force =     0.00000000    0.00000000    0.00000000
     atom   34 type  1   force =     0.00000000    0.00000000    0.00000000
     atom   35 type  2   force =     0.00000000    0.00000000    0.00000000
     atom   36 type  2   force =     0.00000000    0.00000000    0.00000000
     atom   37 type  1   force =     0.00000000    0.00000000    0.00000000
     atom   38 type  1   force =     0.00000000    0.00000000    0.00000000
     atom   39 type  2   force =     0.00000000    0.00000000    0.00000000
     atom   40 type  2   force =     0.00000000    0.00000000    0.00000000
     atom   41 type  1   force =     0.00000000    0.00000000    0.00000000
     atom   42 type  1   force =     0.00000000    0.00000000    0.00000000
     atom   43 type  2   force =     0.00000000    0.00000000    0.00000000
     atom   44 type  2   force =     0.00000000    0.00000000    0.00000000
     atom   45 type  1   force =     0.00000000    0.00000000    0.00000000
     atom   46 type  1   force =     0.00000000    0.00000000    0.00000000
     atom   47 type  2   force =     0.00000000    0.00000000    0.00000000
     atom   48 type  2   force =     0.00000000    0.00000000    0.00000000
     The SCF correction term to forces
     atom    1 type  1   force =     0.00000887   -0.00001448   -0.00000392
     atom    2 type  1   force =    -0.00000337   -0.00000667   -0.00001600
     atom    3 type  2   force =     0.00000067   -0.00000250    0.00000213
     atom    4 type  2   force =    -0.00000160   -0.00000420   -0.00000082
     atom    5 type  1   force =     0.00000390   -0.00001742   -0.00000797
     atom    6 type  1   force =    -0.00001413   -0.00000316    0.00000957
     atom    7 type  2   force =     0.00000120   -0.00000640   -0.00000126
     atom    8 type  2   force =    -0.00000538   -0.00000182    0.00000089
     atom    9 type  1   force =    -0.00000550    0.00001069    0.00000990
     atom   10 type  1   force =     0.00001674    0.00000376    0.00000010
     atom   11 type  2   force =    -0.00000344   -0.00000186    0.00000015
     atom   12 type  2   force =     0.00000106    0.00000453    0.00000232
     atom   13 type  1   force =    -0.00003439   -0.00001651    0.00001340
     atom   14 type  1   force =    -0.00000862   -0.00000248    0.00000342
     atom   15 type  2   force =    -0.00000285    0.00000106   -0.00000054
     atom   16 type  2   force =     0.00000070   -0.00000144   -0.00000052
     atom   17 type  1   force =     0.00000633    0.00000804   -0.00000133
     atom   18 type  1   force =    -0.00002047    0.00000152   -0.00000189
     atom   19 type  2   force =     0.00000053    0.00000490    0.00000232
     atom   20 type  2   force =     0.00000307    0.00000289   -0.00000129
     atom   21 type  1   force =    -0.00000959    0.00000846   -0.00000883
     atom   22 type  1   force =     0.00002497   -0.00000135    0.00001605
     atom   23 type  2   force =     0.00000192    0.00000394   -0.00000161
     atom   24 type  2   force =     0.00000495    0.00000367    0.00000255
     atom   25 type  1   force =    -0.00001047   -0.00002139    0.00000325
     atom   26 type  1   force =     0.00000137   -0.00002431    0.00000129
     atom   27 type  2   force =    -0.00000262    0.00000074    0.00000423
     atom   28 type  2   force =     0.00000178   -0.00000898    0.00000212
     atom   29 type  1   force =    -0.00000159    0.00000187   -0.00000673
     atom   30 type  1   force =     0.00001117    0.00000339    0.00000419
     atom   31 type  2   force =     0.00000027   -0.00000625   -0.00000008
     atom   32 type  2   force =     0.00000621   -0.00000452   -0.00000288
     atom   33 type  1   force =     0.00001094   -0.00000577    0.00002474
     atom   34 type  1   force =    -0.00002130    0.00002442   -0.00000344
     atom   35 type  2   force =     0.00000243   -0.00000239    0.00000073
     atom   36 type  2   force =    -0.00000183    0.00000513   -0.00000073
     atom   37 type  1   force =     0.00003474   -0.00001876   -0.00001255
     atom   38 type  1   force =     0.00001005   -0.00002148   -0.00002472
     atom   39 type  2   force =     0.00000090   -0.00000077   -0.00000030
     atom   40 type  2   force =    -0.00000112    0.00000138    0.00000006
     atom   41 type  1   force =    -0.00000446    0.00001736   -0.00001895
     atom   42 type  1   force =     0.00001288    0.00000162    0.00000097
     atom   43 type  2   force =    -0.00000105    0.00000451   -0.00000236
     atom   44 type  2   force =    -0.00000015    0.00000206   -0.00000169
     atom   45 type  1   force =     0.00001113    0.00003977    0.00002484
     atom   46 type  1   force =    -0.00002670    0.00001167    0.00000101
     atom   47 type  2   force =    -0.00000007    0.00000698    0.00000205
     atom   48 type  2   force =    -0.00000205    0.00000392    0.00000132

     Total force =     0.000433     Total SCF correction =     0.000126
     SCF correction compared to forces is large: reduce conv_thr to get better values

     General routines

     Parallel routines

   This run was terminated on:  19:15:45   3Aug2025

   JOB DONE.
Note: The following floating-point exceptions are signalling: IEEE_INVALID_FLAG
Note: The following floating-point exceptions are signalling: IEEE_INVALID_FLAG
Note: The following floating-point exceptions are signalling: IEEE_DENORMAL
Note: The following floating-point exceptions are signalling: IEEE_INVALID_FLAG
Note: The following floating-point exceptions are signalling: IEEE_INVALID_FLAG
Note: The following floating-point exceptions are signalling: IEEE_INVALID_FLAG
Note: The following floating-point exceptions are signalling: IEEE_DENORMAL
Note: The following floating-point exceptions are signalling: IEEE_DENORMAL
Note: The following floating-point exceptions are signalling: IEEE_DENORMAL
Note: The following floating-point exceptions are signalling: IEEE_INVALID_FLAG