     Program PWSCF v.7.2 starts on  3Aug2025 at 13:35: 0

     Reading input from /home/jvc/QEspresso7.2/ZnO_database/scripts/cell232.in/ZnO-3.20-1.52-232.in
Warning: card &CELL ignored
Warning: card / ignored
Warning: card &FCP ignored
Warning: card / ignored
Warning: card &RISM ignored
Warning: card / ignored

     Current dimensions of program PWSCF are:
     Max number of different atomic species (ntypx) = 10
     Max number of k-points (npk) =  40000
     Max angular momentum in pseudopotentials (lmaxx) =  4
     file Zn.upf: wavefunction(s)  3D renormalized
     Found identity + (  0.0000  0.0000 -0.5000) symmetry
     This is a supercell, fractional translations are disabled

     K-points division:     npool     =       6
     R & G space division:  proc/nbgrp/npool/nimage =       6
     Subspace diagonalization in iterative solution of the eigenvalue problem:
     one sub-group per band group will be used

     Using Slab Decomposition

     bravais-lattice index     =            0
     lattice parameter (alat)  =      12.3576  a.u.
     unit-cell volume          =    3957.5722 (a.u.)^3
     number of atoms/cell      =           48
     number of atomic types    =            2
     number of electrons       =       432.00
     number of Kohn-Sham states=          216
     kinetic-energy cutoff     =      50.0000  Ry
     charge density cutoff     =     400.0000  Ry
     scf convergence threshold =      1.0E-08
     mixing beta               =       0.3000
     number of iterations used =            8  plain     mixing
     Exchange-correlation= PBE
                           (   1   4   3   4   0   0   0)

     celldm(1)=  12.357644  celldm(2)=   0.000000  celldm(3)=   0.000000
     celldm(4)=   0.000000  celldm(5)=   0.000000  celldm(6)=   0.000000

     crystal axes: (cart. coord. in units of alat)
               a(1) = (   1.000000   0.000000   0.000000 )
               a(2) = (  -0.750000   1.299038   0.000000 )
               a(3) = (   0.000000   0.000000   1.614358 )

     reciprocal axes: (cart. coord. in units 2 pi/alat)
               b(1) = (  1.000000  0.577350 -0.000000 )
               b(2) = (  0.000000  0.769800  0.000000 )
               b(3) = (  0.000000 -0.000000  0.619441 )

     PseudoPot. # 1 for Zn read from file:
     /home/jvc/QEspresso7.2/ZnO_database/pseudos/Zn.upf
     MD5 check sum: 7f56cabf9682ed8c977c2f7d0c5985c5
     Pseudo is Ultrasoft + core correction, Zval = 12.0
     Generated using &quot;atomic&quot; code by A. Dal Corso  v.6.2.2
     Using radial grid of 1201 points,  6 beta functions with:
                l(1) =   0
                l(2) =   0
                l(3) =   1
                l(4) =   1
                l(5) =   2
                l(6) =   2
     Q(r) pseudized with 0 coefficients

     PseudoPot. # 2 for O  read from file:
     /home/jvc/QEspresso7.2/ZnO_database/pseudos/O.upf
     MD5 check sum: 91400c9766925bcf19f520983a725ff0
     Pseudo is Ultrasoft + core correction, Zval =  6.0
     Generated using &quot;atomic&quot; code by A. Dal Corso  v.6.3MaX
     Using radial grid of 1095 points,  4 beta functions with:
                l(1) =   0
                l(2) =   0
                l(3) =   1
                l(4) =   1
     Q(r) pseudized with 0 coefficients

     atomic species   valence    mass     pseudopotential
        Zn            12.00    65.38000     Zn( 1.00)
        O              6.00    15.99900     O ( 1.00)

     No symmetry found

                                    s                        frac. trans.

      isym =  1     identity

 cryst.   s( 1) = (     1          0          0      )
                  (     0          1          0      )
                  (     0          0          1      )

 cart.    s( 1) = (  1.0000000  0.0000000  0.0000000 )
                  (  0.0000000  1.0000000  0.0000000 )
                  (  0.0000000  0.0000000  1.0000000 )

   Cartesian axes

     site n.     atom                  positions (alat units)
         1           Zn  tau(   1) = (   0.2500000   0.1443376   0.4041010  )
         2           Zn  tau(   2) = (   0.0000000   0.2886751   0.0005114  )
         3           O   tau(   3) = (   0.2500000   0.1443376   0.7100565  )
         4           O   tau(   4) = (   0.0000000   0.2886751   0.3064669  )
         5           Zn  tau(   5) = (   0.2500000   0.1443376   1.2112802  )
         6           Zn  tau(   6) = (   0.0000000   0.2886751   0.8076906  )
         7           O   tau(   7) = (   0.2500000   0.1443376   1.5172357  )
         8           O   tau(   8) = (   0.0000000   0.2886751   1.1136461  )
         9           Zn  tau(   9) = (   0.0000000   0.5773503   0.4041010  )
        10           Zn  tau(  10) = (  -0.2500000   0.7216878   0.0005114  )
        11           O   tau(  11) = (   0.0000000   0.5773503   0.7100565  )
        12           O   tau(  12) = (  -0.2500000   0.7216878   0.3064669  )
        13           Zn  tau(  13) = (   0.0000000   0.5773503   1.2112802  )
        14           Zn  tau(  14) = (  -0.2500000   0.7216878   0.8076906  )
        15           O   tau(  15) = (   0.0000000   0.5773503   1.5172357  )
        16           O   tau(  16) = (  -0.2500000   0.7216878   1.1136461  )
        17           Zn  tau(  17) = (  -0.2500000   1.0103630   0.4041010  )
        18           Zn  tau(  18) = (  -0.5000000   1.1547005   0.0005114  )
        19           O   tau(  19) = (  -0.2500000   1.0103630   0.7100565  )
        20           O   tau(  20) = (  -0.5000000   1.1547005   0.3064669  )
        21           Zn  tau(  21) = (  -0.2500000   1.0103630   1.2112802  )
        22           Zn  tau(  22) = (  -0.5000000   1.1547005   0.8076906  )
        23           O   tau(  23) = (  -0.2500000   1.0103630   1.5172357  )
        24           O   tau(  24) = (  -0.5000000   1.1547005   1.1136461  )
        25           Zn  tau(  25) = (   0.7500000   0.1443376   0.4041010  )
        26           Zn  tau(  26) = (   0.5000000   0.2886751   0.0005114  )
        27           O   tau(  27) = (   0.7500000   0.1443376   0.7100565  )
        28           O   tau(  28) = (   0.5000000   0.2886751   0.3064669  )
        29           Zn  tau(  29) = (   0.7500000   0.1443376   1.2112802  )
        30           Zn  tau(  30) = (   0.5000000   0.2886751   0.8076906  )
        31           O   tau(  31) = (   0.7500000   0.1443376   1.5172357  )
        32           O   tau(  32) = (   0.5000000   0.2886751   1.1136461  )
        33           Zn  tau(  33) = (   0.5000000   0.5773503   0.4041010  )
        34           Zn  tau(  34) = (   0.2500000   0.7216878   0.0005114  )
        35           O   tau(  35) = (   0.5000000   0.5773503   0.7100565  )
        36           O   tau(  36) = (   0.2500000   0.7216878   0.3064669  )
        37           Zn  tau(  37) = (   0.5000000   0.5773503   1.2112802  )
        38           Zn  tau(  38) = (   0.2500000   0.7216878   0.8076906  )
        39           O   tau(  39) = (   0.5000000   0.5773503   1.5172357  )
        40           O   tau(  40) = (   0.2500000   0.7216878   1.1136461  )
        41           Zn  tau(  41) = (   0.2500000   1.0103630   0.4041010  )
        42           Zn  tau(  42) = (   0.0000000   1.1547005   0.0005114  )
        43           O   tau(  43) = (   0.2500000   1.0103630   0.7100565  )
        44           O   tau(  44) = (   0.0000000   1.1547005   0.3064669  )
        45           Zn  tau(  45) = (   0.2500000   1.0103630   1.2112802  )
        46           Zn  tau(  46) = (   0.0000000   1.1547005   0.8076906  )
        47           O   tau(  47) = (   0.2500000   1.0103630   1.5172357  )
        48           O   tau(  48) = (   0.0000000   1.1547005   1.1136461  )

   Crystallographic axes

     site n.     atom                  positions (cryst. coord.)
         1           Zn  tau(   1) = (  0.3333333  0.1111111  0.2503168  )
         2           Zn  tau(   2) = (  0.1666667  0.2222222  0.0003168  )
         3           O   tau(   3) = (  0.3333333  0.1111111  0.4398382  )
         4           O   tau(   4) = (  0.1666667  0.2222222  0.1898382  )
         5           Zn  tau(   5) = (  0.3333333  0.1111111  0.7503168  )
         6           Zn  tau(   6) = (  0.1666667  0.2222222  0.5003168  )
         7           O   tau(   7) = (  0.3333333  0.1111111  0.9398382  )
         8           O   tau(   8) = (  0.1666667  0.2222222  0.6898382  )
         9           Zn  tau(   9) = (  0.3333333  0.4444444  0.2503168  )
        10           Zn  tau(  10) = (  0.1666667  0.5555556  0.0003168  )
        11           O   tau(  11) = (  0.3333333  0.4444444  0.4398382  )
        12           O   tau(  12) = (  0.1666667  0.5555556  0.1898382  )
        13           Zn  tau(  13) = (  0.3333333  0.4444444  0.7503168  )
        14           Zn  tau(  14) = (  0.1666667  0.5555556  0.5003168  )
        15           O   tau(  15) = (  0.3333333  0.4444444  0.9398382  )
        16           O   tau(  16) = (  0.1666667  0.5555556  0.6898382  )
        17           Zn  tau(  17) = (  0.3333333  0.7777778  0.2503168  )
        18           Zn  tau(  18) = (  0.1666667  0.8888889  0.0003168  )
        19           O   tau(  19) = (  0.3333333  0.7777778  0.4398382  )
        20           O   tau(  20) = (  0.1666667  0.8888889  0.1898382  )
        21           Zn  tau(  21) = (  0.3333333  0.7777778  0.7503168  )
        22           Zn  tau(  22) = (  0.1666667  0.8888889  0.5003168  )
        23           O   tau(  23) = (  0.3333333  0.7777778  0.9398382  )
        24           O   tau(  24) = (  0.1666667  0.8888889  0.6898382  )
        25           Zn  tau(  25) = (  0.8333333  0.1111111  0.2503168  )
        26           Zn  tau(  26) = (  0.6666667  0.2222222  0.0003168  )
        27           O   tau(  27) = (  0.8333333  0.1111111  0.4398382  )
        28           O   tau(  28) = (  0.6666667  0.2222222  0.1898382  )
        29           Zn  tau(  29) = (  0.8333333  0.1111111  0.7503168  )
        30           Zn  tau(  30) = (  0.6666667  0.2222222  0.5003168  )
        31           O   tau(  31) = (  0.8333333  0.1111111  0.9398382  )
        32           O   tau(  32) = (  0.6666667  0.2222222  0.6898382  )
        33           Zn  tau(  33) = (  0.8333333  0.4444444  0.2503168  )
        34           Zn  tau(  34) = (  0.6666667  0.5555556  0.0003168  )
        35           O   tau(  35) = (  0.8333333  0.4444444  0.4398382  )
        36           O   tau(  36) = (  0.6666667  0.5555556  0.1898382  )
        37           Zn  tau(  37) = (  0.8333333  0.4444444  0.7503168  )
        38           Zn  tau(  38) = (  0.6666667  0.5555556  0.5003168  )
        39           O   tau(  39) = (  0.8333333  0.4444444  0.9398382  )
        40           O   tau(  40) = (  0.6666667  0.5555556  0.6898382  )
        41           Zn  tau(  41) = (  0.8333333  0.7777778  0.2503168  )
        42           Zn  tau(  42) = (  0.6666667  0.8888889  0.0003168  )
        43           O   tau(  43) = (  0.8333333  0.7777778  0.4398382  )
        44           O   tau(  44) = (  0.6666667  0.8888889  0.1898382  )
        45           Zn  tau(  45) = (  0.8333333  0.7777778  0.7503168  )
[...]
     atom   39 type  2   force =    -0.00000001    0.00000001   -0.06271747
     atom   40 type  2   force =     0.00000002   -0.00000000   -0.06271747
     atom   41 type  1   force =     0.00000002   -0.00000001    0.06271747
     atom   42 type  1   force =     0.00000001    0.00000000    0.06271747
     atom   43 type  2   force =     0.00000001   -0.00000000   -0.06271747
     atom   44 type  2   force =     0.00000001    0.00000000   -0.06271747
     atom   45 type  1   force =     0.00000002   -0.00000001    0.06271747
     atom   46 type  1   force =     0.00000001    0.00000000    0.06271747
     atom   47 type  2   force =     0.00000001   -0.00000000   -0.06271747
     atom   48 type  2   force =     0.00000001    0.00000000   -0.06271747
     The local contribution  to forces
     atom    1 type  1   force =    -0.00000760    0.00001095   -0.05828394
     atom    2 type  1   force =     0.00000347    0.00000778   -0.05827776
     atom    3 type  2   force =     0.00000191    0.00000292    0.05696494
     atom    4 type  2   force =     0.00000072    0.00000191    0.05696566
     atom    5 type  1   force =    -0.00000278    0.00001539   -0.05828236
     atom    6 type  1   force =     0.00001102    0.00000107   -0.05829480
     atom    7 type  2   force =    -0.00000181    0.00000248    0.05696403
     atom    8 type  2   force =     0.00000350   -0.00000194    0.05696461
     atom    9 type  1   force =     0.00000545   -0.00000767   -0.05829468
     atom   10 type  1   force =    -0.00001148   -0.00000486   -0.05828730
     atom   11 type  2   force =    -0.00000088    0.00000136    0.05696560
     atom   12 type  2   force =    -0.00000155   -0.00000129    0.05696538
     atom   13 type  1   force =     0.00002538    0.00001035   -0.05829381
     atom   14 type  1   force =     0.00000642    0.00000166   -0.05828975
     atom   15 type  2   force =     0.00000241   -0.00000073    0.05696517
     atom   16 type  2   force =    -0.00000030    0.00000385    0.05696122
     atom   17 type  1   force =    -0.00000382   -0.00000721   -0.05828747
     atom   18 type  1   force =     0.00001262   -0.00000202   -0.05828561
     atom   19 type  2   force =    -0.00000132   -0.00000554    0.05696340
     atom   20 type  2   force =    -0.00000162   -0.00000375    0.05696337
     atom   21 type  1   force =     0.00000671   -0.00000777   -0.05828097
     atom   22 type  1   force =    -0.00001805   -0.00000103   -0.05829816
     atom   23 type  2   force =    -0.00000080   -0.00000064    0.05696585
     atom   24 type  2   force =    -0.00000237   -0.00000115    0.05696353
     atom   25 type  1   force =     0.00000933    0.00001409   -0.05828940
     atom   26 type  1   force =    -0.00000262    0.00001797   -0.05828823
     atom   27 type  2   force =    -0.00000033   -0.00000029    0.05696098
     atom   28 type  2   force =    -0.00000002    0.00000751    0.05696468
     atom   29 type  1   force =     0.00000171    0.00000101   -0.05828291
     atom   30 type  1   force =    -0.00001001   -0.00000248   -0.05829190
     atom   31 type  2   force =     0.00000059    0.00000229    0.05696356
     atom   32 type  2   force =    -0.00000503   -0.00000041    0.05696586
     atom   33 type  1   force =    -0.00000713    0.00000225   -0.05830507
     atom   34 type  1   force =     0.00001348   -0.00001773   -0.05828754
     atom   35 type  2   force =     0.00000195    0.00000037    0.05696416
     atom   36 type  2   force =     0.00000088   -0.00000397    0.05696595
     atom   37 type  1   force =    -0.00002449    0.00001228   -0.05827821
     atom   38 type  1   force =    -0.00000682    0.00001357   -0.05827062
     atom   39 type  2   force =     0.00000007    0.00000039    0.05696574
     atom   40 type  2   force =     0.00000075   -0.00000015    0.05696612
     atom   41 type  1   force =     0.00000378   -0.00001062   -0.05827378
     atom   42 type  1   force =    -0.00001017   -0.00000241   -0.05828852
     atom   43 type  2   force =     0.00000142   -0.00000128    0.05696645
     atom   44 type  2   force =    -0.00000206   -0.00000139    0.05696497
     atom   45 type  1   force =    -0.00000616   -0.00002923   -0.05830594
     atom   46 type  1   force =     0.00001881   -0.00000979   -0.05828779
     atom   47 type  2   force =    -0.00000127   -0.00000126    0.05696535
     atom   48 type  2   force =    -0.00000035   -0.00000108    0.05696509
     The core correction contribution to forces
     atom    1 type  1   force =     0.00000016   -0.00000015    0.00046404
     atom    2 type  1   force =    -0.00000004   -0.00000001    0.00046389
     atom    3 type  2   force =     0.00000006    0.00000002   -0.00006500
     atom    4 type  2   force =    -0.00000001   -0.00000004   -0.00006504
     atom    5 type  1   force =     0.00000003   -0.00000005    0.00046395
     atom    6 type  1   force =    -0.00000009    0.00000001    0.00046411
     atom    7 type  2   force =    -0.00000002   -0.00000006   -0.00006507
     atom    8 type  2   force =    -0.00000002   -0.00000007   -0.00006503
     atom    9 type  1   force =    -0.00000003    0.00000007    0.00046410
     atom   10 type  1   force =     0.00000017    0.00000015    0.00046410
     atom   11 type  2   force =    -0.00000008   -0.00000000   -0.00006502
     atom   12 type  2   force =    -0.00000001    0.00000005   -0.00006498
     atom   13 type  1   force =    -0.00000049   -0.00000024    0.00046405
     atom   14 type  1   force =    -0.00000014    0.00000010    0.00046402
     atom   15 type  2   force =    -0.00000000    0.00000001   -0.00006504
     atom   16 type  2   force =     0.00000000    0.00000004   -0.00006512
     atom   17 type  1   force =     0.00000009    0.00000017    0.00046418
     atom   18 type  1   force =    -0.00000011   -0.00000011    0.00046404
     atom   19 type  2   force =    -0.00000001   -0.00000003   -0.00006502
     atom   20 type  2   force =     0.00000001   -0.00000002   -0.00006509
     atom   21 type  1   force =    -0.00000010   -0.00000005    0.00046388
     atom   22 type  1   force =     0.00000029    0.00000000    0.00046426
     atom   23 type  2   force =     0.00000002    0.00000006   -0.00006504
     atom   24 type  2   force =     0.00000004    0.00000004   -0.00006502
     atom   25 type  1   force =    -0.00000013   -0.00000020    0.00046412
     atom   26 type  1   force =     0.00000006   -0.00000022    0.00046406
     atom   27 type  2   force =    -0.00000005    0.00000001   -0.00006504
     atom   28 type  2   force =     0.00000004   -0.00000000   -0.00006500
     atom   29 type  1   force =    -0.00000004    0.00000008    0.00046404
     atom   30 type  1   force =     0.00000012    0.00000019    0.00046410
     atom   31 type  2   force =     0.00000002   -0.00000006   -0.00006507
     atom   32 type  2   force =     0.00000001   -0.00000008   -0.00006507
     atom   33 type  1   force =    -0.00000001    0.00000001    0.00046421
     atom   34 type  1   force =    -0.00000012    0.00000030    0.00046399
     atom   35 type  2   force =     0.00000008   -0.00000003   -0.00006504
     atom   36 type  2   force =    -0.00000001    0.00000002   -0.00006502
     atom   37 type  1   force =     0.00000050   -0.00000027    0.00046389
     atom   38 type  1   force =     0.00000014   -0.00000025    0.00046354
     atom   39 type  2   force =     0.00000002   -0.00000000   -0.00006503
     atom   40 type  2   force =     0.00000001    0.00000002   -0.00006502
     atom   41 type  1   force =    -0.00000009    0.00000015    0.00046376
     atom   42 type  1   force =     0.00000018   -0.00000007    0.00046415
     atom   43 type  2   force =     0.00000002    0.00000005   -0.00006505
     atom   44 type  2   force =    -0.00000003    0.00000001   -0.00006506
     atom   45 type  1   force =     0.00000009    0.00000055    0.00046431
     atom   46 type  1   force =    -0.00000025    0.00000010    0.00046405
     atom   47 type  2   force =    -0.00000002    0.00000009   -0.00006499
     atom   48 type  2   force =    -0.00000004    0.00000006   -0.00006501
     The Hubbard contrib.    to forces
     atom    1 type  1   force =     0.00000000    0.00000000    0.00000000
     atom    2 type  1   force =     0.00000000    0.00000000    0.00000000
     atom    3 type  2   force =     0.00000000    0.00000000    0.00000000
     atom    4 type  2   force =     0.00000000    0.00000000    0.00000000
     atom    5 type  1   force =     0.00000000    0.00000000    0.00000000
     atom    6 type  1   force =     0.00000000    0.00000000    0.00000000
     atom    7 type  2   force =     0.00000000    0.00000000    0.00000000
     atom    8 type  2   force =     0.00000000    0.00000000    0.00000000
     atom    9 type  1   force =     0.00000000    0.00000000    0.00000000
     atom   10 type  1   force =     0.00000000    0.00000000    0.00000000
     atom   11 type  2   force =     0.00000000    0.00000000    0.00000000
     atom   12 type  2   force =     0.00000000    0.00000000    0.00000000
     atom   13 type  1   force =     0.00000000    0.00000000    0.00000000
     atom   14 type  1   force =     0.00000000    0.00000000    0.00000000
     atom   15 type  2   force =     0.00000000    0.00000000    0.00000000
     atom   16 type  2   force =     0.00000000    0.00000000    0.00000000
     atom   17 type  1   force =     0.00000000    0.00000000    0.00000000
     atom   18 type  1   force =     0.00000000    0.00000000    0.00000000
     atom   19 type  2   force =     0.00000000    0.00000000    0.00000000
     atom   20 type  2   force =     0.00000000    0.00000000    0.00000000
     atom   21 type  1   force =     0.00000000    0.00000000    0.00000000
     atom   22 type  1   force =     0.00000000    0.00000000    0.00000000
     atom   23 type  2   force =     0.00000000    0.00000000    0.00000000
     atom   24 type  2   force =     0.00000000    0.00000000    0.00000000
     atom   25 type  1   force =     0.00000000    0.00000000    0.00000000
     atom   26 type  1   force =     0.00000000    0.00000000    0.00000000
     atom   27 type  2   force =     0.00000000    0.00000000    0.00000000
     atom   28 type  2   force =     0.00000000    0.00000000    0.00000000
     atom   29 type  1   force =     0.00000000    0.00000000    0.00000000
     atom   30 type  1   force =     0.00000000    0.00000000    0.00000000
     atom   31 type  2   force =     0.00000000    0.00000000    0.00000000
     atom   32 type  2   force =     0.00000000    0.00000000    0.00000000
     atom   33 type  1   force =     0.00000000    0.00000000    0.00000000
     atom   34 type  1   force =     0.00000000    0.00000000    0.00000000
     atom   35 type  2   force =     0.00000000    0.00000000    0.00000000
     atom   36 type  2   force =     0.00000000    0.00000000    0.00000000
     atom   37 type  1   force =     0.00000000    0.00000000    0.00000000
     atom   38 type  1   force =     0.00000000    0.00000000    0.00000000
     atom   39 type  2   force =     0.00000000    0.00000000    0.00000000
     atom   40 type  2   force =     0.00000000    0.00000000    0.00000000
     atom   41 type  1   force =     0.00000000    0.00000000    0.00000000
     atom   42 type  1   force =     0.00000000    0.00000000    0.00000000
     atom   43 type  2   force =     0.00000000    0.00000000    0.00000000
     atom   44 type  2   force =     0.00000000    0.00000000    0.00000000
     atom   45 type  1   force =     0.00000000    0.00000000    0.00000000
     atom   46 type  1   force =     0.00000000    0.00000000    0.00000000
     atom   47 type  2   force =     0.00000000    0.00000000    0.00000000
     atom   48 type  2   force =     0.00000000    0.00000000    0.00000000
     The SCF correction term to forces
     atom    1 type  1   force =     0.00000888   -0.00001451   -0.00000396
     atom    2 type  1   force =    -0.00000333   -0.00000656   -0.00001608
     atom    3 type  2   force =     0.00000067   -0.00000252    0.00000221
     atom    4 type  2   force =    -0.00000161   -0.00000413   -0.00000083
     atom    5 type  1   force =     0.00000392   -0.00001739   -0.00000801
     atom    6 type  1   force =    -0.00001408   -0.00000307    0.00000961
     atom    7 type  2   force =     0.00000123   -0.00000634   -0.00000132
     atom    8 type  2   force =    -0.00000534   -0.00000178    0.00000084
     atom    9 type  1   force =    -0.00000552    0.00001064    0.00000983
     atom   10 type  1   force =     0.00001675    0.00000381    0.00000020
     atom   11 type  2   force =    -0.00000340   -0.00000190    0.00000017
     atom   12 type  2   force =     0.00000109    0.00000453    0.00000229
     atom   13 type  1   force =    -0.00003440   -0.00001661    0.00001331
     atom   14 type  1   force =    -0.00000864   -0.00000249    0.00000347
     atom   15 type  2   force =    -0.00000284    0.00000101   -0.00000052
     atom   16 type  2   force =     0.00000068   -0.00000145   -0.00000054
     atom   17 type  1   force =     0.00000630    0.00000801   -0.00000138
     atom   18 type  1   force =    -0.00002048    0.00000162   -0.00000184
     atom   19 type  2   force =     0.00000055    0.00000490    0.00000232
     atom   20 type  2   force =     0.00000309    0.00000290   -0.00000126
     atom   21 type  1   force =    -0.00000961    0.00000839   -0.00000893
     atom   22 type  1   force =     0.00002488   -0.00000126    0.00001605
     atom   23 type  2   force =     0.00000194    0.00000390   -0.00000161
     atom   24 type  2   force =     0.00000495    0.00000370    0.00000253
     atom   25 type  1   force =    -0.00001051   -0.00002142    0.00000327
     atom   26 type  1   force =     0.00000126   -0.00002427    0.00000126
     atom   27 type  2   force =    -0.00000261    0.00000075    0.00000426
     atom   28 type  2   force =     0.00000178   -0.00000897    0.00000210
     atom   29 type  1   force =    -0.00000158    0.00000184   -0.00000673
     atom   30 type  1   force =     0.00001109    0.00000344    0.00000427
     atom   31 type  2   force =     0.00000028   -0.00000623   -0.00000006
     atom   32 type  2   force =     0.00000616   -0.00000447   -0.00000290
     atom   33 type  1   force =     0.00001097   -0.00000585    0.00002472
     atom   34 type  1   force =    -0.00002139    0.00002440   -0.00000330
     atom   35 type  2   force =     0.00000242   -0.00000244    0.00000082
     atom   36 type  2   force =    -0.00000186    0.00000513   -0.00000075
     atom   37 type  1   force =     0.00003480   -0.00001887   -0.00001266
     atom   38 type  1   force =     0.00001003   -0.00002149   -0.00002458
     atom   39 type  2   force =     0.00000090   -0.00000084   -0.00000032
     atom   40 type  2   force =    -0.00000114    0.00000137    0.00000001
     atom   41 type  1   force =    -0.00000448    0.00001733   -0.00001897
     atom   42 type  1   force =     0.00001280    0.00000164    0.00000096
     atom   43 type  2   force =    -0.00000102    0.00000450   -0.00000235
     atom   44 type  2   force =    -0.00000016    0.00000205   -0.00000163
     atom   45 type  1   force =     0.00001105    0.00003980    0.00002471
     atom   46 type  1   force =    -0.00002675    0.00001172    0.00000106
     atom   47 type  2   force =    -0.00000005    0.00000694    0.00000203
     atom   48 type  2   force =    -0.00000204    0.00000389    0.00000127

     Total force =     0.000433     Total SCF correction =     0.000126
     SCF correction compared to forces is large: reduce conv_thr to get better values

     General routines

     Parallel routines

   This run was terminated on:  13:52:58   3Aug2025

   JOB DONE.
Note: The following floating-point exceptions are signalling: IEEE_INVALID_FLAG
Note: The following floating-point exceptions are signalling: IEEE_INVALID_FLAG
Note: The following floating-point exceptions are signalling: IEEE_DENORMAL
Note: The following floating-point exceptions are signalling: IEEE_INVALID_FLAG
Note: The following floating-point exceptions are signalling: IEEE_DENORMAL
Note: The following floating-point exceptions are signalling: IEEE_INVALID_FLAG
Note: The following floating-point exceptions are signalling: IEEE_DENORMAL
Note: The following floating-point exceptions are signalling: IEEE_DENORMAL
Note: The following floating-point exceptions are signalling: IEEE_DENORMAL
Note: The following floating-point exceptions are signalling: IEEE_INVALID_FLAG
Note: The following floating-point exceptions are signalling: IEEE_INVALID_FLAG
Note: The following floating-point exceptions are signalling: IEEE_DENORMAL