     Program PWSCF v.7.2 starts on  2Aug2025 at 14:23: 6

     Reading input from /home/jvc/QEspresso7.2/ZnO_database/scripts/cell223.in/ZnO-3.60-1.55-223.in
Warning: card &CELL ignored
Warning: card / ignored
Warning: card &FCP ignored
Warning: card / ignored
Warning: card &RISM ignored
Warning: card / ignored

     Current dimensions of program PWSCF are:
     Max number of different atomic species (ntypx) = 10
     Max number of k-points (npk) =  40000
     Max angular momentum in pseudopotentials (lmaxx) =  4
     file Zn.upf: wavefunction(s)  3D renormalized
     Found identity + (  0.0000  0.0000  0.3333) symmetry
     This is a supercell, fractional translations are disabled
     Message from routine setup:
     using ibrav=0 with symmetry is DISCOURAGED, use correct ibrav instead

     K-points division:     npool     =       8
     R & G space division:  proc/nbgrp/npool/nimage =       4
     Subspace diagonalization in iterative solution of the eigenvalue problem:
     one sub-group per band group will be used

     Message from routine divide_et_impera:
     suboptimal parallelization: some nodes have no k-points

     Using Slab Decomposition

     bravais-lattice index     =            0
     lattice parameter (alat)  =      12.3576  a.u.
     unit-cell volume          =    3957.5722 (a.u.)^3
     number of atoms/cell      =           48
     number of atomic types    =            2
     number of electrons       =       432.00
     number of Kohn-Sham states=          216
     kinetic-energy cutoff     =      50.0000  Ry
     charge density cutoff     =     400.0000  Ry
     scf convergence threshold =      1.0E-08
     mixing beta               =       0.3000
     number of iterations used =            8  plain     mixing
     Exchange-correlation= PBE
                           (   1   4   3   4   0   0   0)

     celldm(1)=  12.357644  celldm(2)=   0.000000  celldm(3)=   0.000000
     celldm(4)=   0.000000  celldm(5)=   0.000000  celldm(6)=   0.000000

     crystal axes: (cart. coord. in units of alat)
               a(1) = (   1.000000   0.000000   0.000000 )
               a(2) = (  -0.500000   0.866025   0.000000 )
               a(3) = (   0.000000   0.000000   2.421538 )

     reciprocal axes: (cart. coord. in units 2 pi/alat)
               b(1) = (  1.000000  0.577350 -0.000000 )
               b(2) = (  0.000000  1.154701  0.000000 )
               b(3) = (  0.000000 -0.000000  0.412961 )

     PseudoPot. # 1 for Zn read from file:
     /home/jvc/QEspresso7.2/ZnO_database/pseudos/Zn.upf
     MD5 check sum: 7f56cabf9682ed8c977c2f7d0c5985c5
     Pseudo is Ultrasoft + core correction, Zval = 12.0
     Generated using &quot;atomic&quot; code by A. Dal Corso  v.6.2.2
     Using radial grid of 1201 points,  6 beta functions with:
                l(1) =   0
                l(2) =   0
                l(3) =   1
                l(4) =   1
                l(5) =   2
                l(6) =   2
     Q(r) pseudized with 0 coefficients

     PseudoPot. # 2 for O  read from file:
     /home/jvc/QEspresso7.2/ZnO_database/pseudos/O.upf
     MD5 check sum: 91400c9766925bcf19f520983a725ff0
     Pseudo is Ultrasoft + core correction, Zval =  6.0
     Generated using &quot;atomic&quot; code by A. Dal Corso  v.6.3MaX
     Using radial grid of 1095 points,  4 beta functions with:
                l(1) =   0
                l(2) =   0
                l(3) =   1
                l(4) =   1
     Q(r) pseudized with 0 coefficients

     atomic species   valence    mass     pseudopotential
        Zn            12.00    65.38000     Zn( 1.00)
        O              6.00    15.99900     O ( 1.00)

      6 Sym. Ops. (no inversion) found

                                    s                        frac. trans.

      isym =  1     identity

 cryst.   s( 1) = (     1          0          0      )
                  (     0          1          0      )
                  (     0          0          1      )

 cart.    s( 1) = (  1.0000000  0.0000000  0.0000000 )
                  (  0.0000000  1.0000000  0.0000000 )
                  (  0.0000000  0.0000000  1.0000000 )

      isym =  2     120 deg rotation - cryst. axis [0,0,1]

[...]

      isym =  3     120 deg rotation - cryst. axis [0,0,-1]

[...]

      isym =  4     inv. 180 deg rotation - cart. axis [1,0,0]

[...]

      isym =  5     inv. 180 deg rotation - cryst. axis [0,1,0]

[...]

      isym =  6     inv. 180 deg rotation - cryst. axis [1,1,0]

 cryst.   s( 6) = (     0         -1          0      )
                  (    -1          0          0      )
                  (     0          0          1      )

 cart.    s( 6) = (  0.5000000 -0.8660254  0.0000000 )
                  ( -0.8660254 -0.5000000  0.0000000 )
                  (  0.0000000  0.0000000  1.0000000 )

   Cartesian axes

     site n.     atom                  positions (alat units)
         1           Zn  tau(   1) = (   0.2500000   0.1443376   0.4041010  )
         2           Zn  tau(   2) = (   0.0000000   0.2886751   0.0005114  )
         3           O   tau(   3) = (   0.2500000   0.1443376   0.7100565  )
         4           O   tau(   4) = (   0.0000000   0.2886751   0.3064669  )
         5           Zn  tau(   5) = (   0.2500000   0.1443376   1.2112802  )
         6           Zn  tau(   6) = (   0.0000000   0.2886751   0.8076906  )
         7           O   tau(   7) = (   0.2500000   0.1443376   1.5172357  )
         8           O   tau(   8) = (   0.0000000   0.2886751   1.1136461  )
         9           Zn  tau(   9) = (   0.2500000   0.1443376   2.0184594  )
        10           Zn  tau(  10) = (   0.0000000   0.2886751   1.6148698  )
        11           O   tau(  11) = (   0.2500000   0.1443376   2.3244148  )
        12           O   tau(  12) = (   0.0000000   0.2886751   1.9208253  )
        13           Zn  tau(  13) = (   0.0000000   0.5773503   0.4041010  )
        14           Zn  tau(  14) = (  -0.2500000   0.7216878   0.0005114  )
        15           O   tau(  15) = (   0.0000000   0.5773503   0.7100565  )
        16           O   tau(  16) = (  -0.2500000   0.7216878   0.3064669  )
        17           Zn  tau(  17) = (   0.0000000   0.5773503   1.2112802  )
        18           Zn  tau(  18) = (  -0.2500000   0.7216878   0.8076906  )
        19           O   tau(  19) = (   0.0000000   0.5773503   1.5172357  )
        20           O   tau(  20) = (  -0.2500000   0.7216878   1.1136461  )
        21           Zn  tau(  21) = (   0.0000000   0.5773503   2.0184594  )
        22           Zn  tau(  22) = (  -0.2500000   0.7216878   1.6148698  )
        23           O   tau(  23) = (   0.0000000   0.5773503   2.3244148  )
        24           O   tau(  24) = (  -0.2500000   0.7216878   1.9208253  )
        25           Zn  tau(  25) = (   0.7500000   0.1443376   0.4041010  )
        26           Zn  tau(  26) = (   0.5000000   0.2886751   0.0005114  )
        27           O   tau(  27) = (   0.7500000   0.1443376   0.7100565  )
        28           O   tau(  28) = (   0.5000000   0.2886751   0.3064669  )
        29           Zn  tau(  29) = (   0.7500000   0.1443376   1.2112802  )
        30           Zn  tau(  30) = (   0.5000000   0.2886751   0.8076906  )
        31           O   tau(  31) = (   0.7500000   0.1443376   1.5172357  )
        32           O   tau(  32) = (   0.5000000   0.2886751   1.1136461  )
        33           Zn  tau(  33) = (   0.7500000   0.1443376   2.0184594  )
        34           Zn  tau(  34) = (   0.5000000   0.2886751   1.6148698  )
        35           O   tau(  35) = (   0.7500000   0.1443376   2.3244148  )
        36           O   tau(  36) = (   0.5000000   0.2886751   1.9208253  )
        37           Zn  tau(  37) = (   0.5000000   0.5773503   0.4041010  )
        38           Zn  tau(  38) = (   0.2500000   0.7216878   0.0005114  )
        39           O   tau(  39) = (   0.5000000   0.5773503   0.7100565  )
        40           O   tau(  40) = (   0.2500000   0.7216878   0.3064669  )
        41           Zn  tau(  41) = (   0.5000000   0.5773503   1.2112802  )
        42           Zn  tau(  42) = (   0.2500000   0.7216878   0.8076906  )
        43           O   tau(  43) = (   0.5000000   0.5773503   1.5172357  )
        44           O   tau(  44) = (   0.2500000   0.7216878   1.1136461  )
        45           Zn  tau(  45) = (   0.5000000   0.5773503   2.0184594  )
        46           Zn  tau(  46) = (   0.2500000   0.7216878   1.6148698  )
        47           O   tau(  47) = (   0.5000000   0.5773503   2.3244148  )
        48           O   tau(  48) = (   0.2500000   0.7216878   1.9208253  )

   Crystallographic axes

     site n.     atom                  positions (cryst. coord.)
         1           Zn  tau(   1) = (  0.3333333  0.1666667  0.1668779  )
         2           Zn  tau(   2) = (  0.1666667  0.3333333  0.0002112  )
         3           O   tau(   3) = (  0.3333333  0.1666667  0.2932255  )
         4           O   tau(   4) = (  0.1666667  0.3333333  0.1265588  )
         5           Zn  tau(   5) = (  0.3333333  0.1666667  0.5002112  )
         6           Zn  tau(   6) = (  0.1666667  0.3333333  0.3335445  )
         7           O   tau(   7) = (  0.3333333  0.1666667  0.6265588  )
         8           O   tau(   8) = (  0.1666667  0.3333333  0.4598921  )
         9           Zn  tau(   9) = (  0.3333333  0.1666667  0.8335445  )
        10           Zn  tau(  10) = (  0.1666667  0.3333333  0.6668779  )
        11           O   tau(  11) = (  0.3333333  0.1666667  0.9598921  )
        12           O   tau(  12) = (  0.1666667  0.3333333  0.7932255  )
        13           Zn  tau(  13) = (  0.3333333  0.6666667  0.1668779  )
        14           Zn  tau(  14) = (  0.1666667  0.8333333  0.0002112  )
        15           O   tau(  15) = (  0.3333333  0.6666667  0.2932255  )
        16           O   tau(  16) = (  0.1666667  0.8333333  0.1265588  )
        17           Zn  tau(  17) = (  0.3333333  0.6666667  0.5002112  )
        18           Zn  tau(  18) = (  0.1666667  0.8333333  0.3335445  )
        19           O   tau(  19) = (  0.3333333  0.6666667  0.6265588  )
        20           O   tau(  20) = (  0.1666667  0.8333333  0.4598921  )
        21           Zn  tau(  21) = (  0.3333333  0.6666667  0.8335445  )
        22           Zn  tau(  22) = (  0.1666667  0.8333333  0.6668779  )
        23           O   tau(  23) = (  0.3333333  0.6666667  0.9598921  )
        24           O   tau(  24) = (  0.1666667  0.8333333  0.7932255  )
        25           Zn  tau(  25) = (  0.8333333  0.1666667  0.1668779  )
        26           Zn  tau(  26) = (  0.6666667  0.3333333  0.0002112  )
        27           O   tau(  27) = (  0.8333333  0.1666667  0.2932255  )
        28           O   tau(  28) = (  0.6666667  0.3333333  0.1265588  )
        29           Zn  tau(  29) = (  0.8333333  0.1666667  0.5002112  )
        30           Zn  tau(  30) = (  0.6666667  0.3333333  0.3335445  )
        31           O   tau(  31) = (  0.8333333  0.1666667  0.6265588  )
        32           O   tau(  32) = (  0.6666667  0.3333333  0.4598921  )
[...]
     atom   35 type  2   force =    -0.00000000    0.00000001   -0.06271746
     atom   36 type  2   force =     0.00000000    0.00000000   -0.06271747
     atom   37 type  1   force =     0.00000000   -0.00000000    0.06271746
     atom   38 type  1   force =    -0.00000000   -0.00000002    0.06271750
     atom   39 type  2   force =     0.00000000   -0.00000000   -0.06271747
     atom   40 type  2   force =    -0.00000000   -0.00000001   -0.06271748
     atom   41 type  1   force =     0.00000000   -0.00000000    0.06271749
     atom   42 type  1   force =    -0.00000000   -0.00000002    0.06271746
     atom   43 type  2   force =     0.00000000   -0.00000000   -0.06271748
     atom   44 type  2   force =    -0.00000000   -0.00000001   -0.06271746
     atom   45 type  1   force =     0.00000000   -0.00000000    0.06271745
     atom   46 type  1   force =    -0.00000000   -0.00000002    0.06271746
     atom   47 type  2   force =     0.00000000   -0.00000000   -0.06271746
     atom   48 type  2   force =    -0.00000000   -0.00000001   -0.06271747
     The local contribution  to forces
     atom    1 type  1   force =    -0.00000244   -0.00000131   -0.05828994
     atom    2 type  1   force =     0.00000009   -0.00000131   -0.05829027
     atom    3 type  2   force =    -0.00000120   -0.00000067    0.05696166
     atom    4 type  2   force =     0.00000002   -0.00000128    0.05696518
     atom    5 type  1   force =    -0.00000547   -0.00000306   -0.05828891
     atom    6 type  1   force =     0.00000009   -0.00000247   -0.05829716
     atom    7 type  2   force =    -0.00000105   -0.00000058    0.05696999
     atom    8 type  2   force =     0.00000002   -0.00000166    0.05696489
     atom    9 type  1   force =    -0.00000297   -0.00000162   -0.05828070
     atom   10 type  1   force =     0.00000009   -0.00000310   -0.05827845
     atom   11 type  2   force =    -0.00000032   -0.00000016    0.05696495
     atom   12 type  2   force =     0.00000002   -0.00000082    0.05696877
     atom   13 type  1   force =     0.00000000    0.00000010   -0.05828928
     atom   14 type  1   force =    -0.00000117    0.00000058   -0.05829027
     atom   15 type  2   force =     0.00000000    0.00000003    0.05696146
     atom   16 type  2   force =    -0.00000112    0.00000062    0.05696518
     atom   17 type  1   force =     0.00000000    0.00000010   -0.05829077
     atom   18 type  1   force =    -0.00000219    0.00000116   -0.05829716
     atom   19 type  2   force =     0.00000000    0.00000003    0.05697055
     atom   20 type  2   force =    -0.00000145    0.00000081    0.05696489
     atom   21 type  1   force =     0.00000000    0.00000010   -0.05828051
     atom   22 type  1   force =    -0.00000272    0.00000147   -0.05827845
     atom   23 type  2   force =     0.00000000    0.00000003    0.05696497
     atom   24 type  2   force =    -0.00000073    0.00000039    0.05696877
     atom   25 type  1   force =     0.00000244   -0.00000131   -0.05828994
     atom   26 type  1   force =     0.00000009    0.00000005   -0.05828980
     atom   27 type  2   force =     0.00000120   -0.00000067    0.05696166
     atom   28 type  2   force =     0.00000002    0.00000001    0.05696459
     atom   29 type  1   force =     0.00000547   -0.00000306   -0.05828891
     atom   30 type  1   force =     0.00000009    0.00000005   -0.05829962
     atom   31 type  2   force =     0.00000105   -0.00000058    0.05696999
     atom   32 type  2   force =     0.00000002    0.00000001    0.05696477
     atom   33 type  1   force =     0.00000297   -0.00000162   -0.05828070
     atom   34 type  1   force =     0.00000009    0.00000005   -0.05827987
     atom   35 type  2   force =     0.00000032   -0.00000016    0.05696495
     atom   36 type  2   force =     0.00000002    0.00000001    0.05696888
     atom   37 type  1   force =     0.00000000    0.00000292   -0.05828994
     atom   38 type  1   force =     0.00000117    0.00000058   -0.05829027
     atom   39 type  2   force =     0.00000000    0.00000142    0.05696166
     atom   40 type  2   force =     0.00000112    0.00000062    0.05696518
     atom   41 type  1   force =     0.00000000    0.00000642   -0.05828891
     atom   42 type  1   force =     0.00000219    0.00000116   -0.05829716
     atom   43 type  2   force =     0.00000000    0.00000123    0.05696999
     atom   44 type  2   force =     0.00000145    0.00000081    0.05696489
     atom   45 type  1   force =     0.00000000    0.00000353   -0.05828070
     atom   46 type  1   force =     0.00000272    0.00000147   -0.05827845
     atom   47 type  2   force =     0.00000000    0.00000039    0.05696495
     atom   48 type  2   force =     0.00000073    0.00000039    0.05696877
     The core correction contribution to forces
     atom    1 type  1   force =     0.00000002    0.00000003    0.00046404
     atom    2 type  1   force =     0.00000001   -0.00000001    0.00046406
     atom    3 type  2   force =     0.00000001    0.00000000   -0.00006500
     atom    4 type  2   force =    -0.00000000    0.00000000   -0.00006502
     atom    5 type  1   force =     0.00000009    0.00000006    0.00046397
     atom    6 type  1   force =     0.00000001    0.00000000    0.00046408
     atom    7 type  2   force =     0.00000001    0.00000000   -0.00006505
     atom    8 type  2   force =    -0.00000000    0.00000001   -0.00006502
     atom    9 type  1   force =     0.00000006    0.00000005    0.00046400
     atom   10 type  1   force =     0.00000001    0.00000005    0.00046395
     atom   11 type  2   force =     0.00000001    0.00000000   -0.00006503
     atom   12 type  2   force =    -0.00000000    0.00000000   -0.00006505
     atom   13 type  1   force =    -0.00000000    0.00000001    0.00046408
     atom   14 type  1   force =    -0.00000001   -0.00000001    0.00046406
     atom   15 type  2   force =     0.00000000   -0.00000000   -0.00006501
     atom   16 type  2   force =     0.00000000   -0.00000000   -0.00006502
     atom   17 type  1   force =    -0.00000000    0.00000001    0.00046407
     atom   18 type  1   force =    -0.00000000   -0.00000001    0.00046408
     atom   19 type  2   force =     0.00000000   -0.00000000   -0.00006505
     atom   20 type  2   force =     0.00000000   -0.00000000   -0.00006502
     atom   21 type  1   force =    -0.00000000    0.00000001    0.00046403
     atom   22 type  1   force =     0.00000003   -0.00000003    0.00046395
     atom   23 type  2   force =     0.00000000   -0.00000000   -0.00006502
     atom   24 type  2   force =     0.00000000   -0.00000000   -0.00006505
     atom   25 type  1   force =    -0.00000002    0.00000003    0.00046404
     atom   26 type  1   force =     0.00000001    0.00000001    0.00046410
     atom   27 type  2   force =    -0.00000001    0.00000000   -0.00006500
     atom   28 type  2   force =    -0.00000000   -0.00000000   -0.00006502
     atom   29 type  1   force =    -0.00000009    0.00000006    0.00046397
     atom   30 type  1   force =     0.00000001    0.00000001    0.00046421
     atom   31 type  2   force =    -0.00000001    0.00000000   -0.00006505
     atom   32 type  2   force =    -0.00000000   -0.00000000   -0.00006502
     atom   33 type  1   force =    -0.00000006    0.00000005    0.00046400
     atom   34 type  1   force =     0.00000001    0.00000001    0.00046404
     atom   35 type  2   force =    -0.00000001    0.00000000   -0.00006503
     atom   36 type  2   force =    -0.00000000   -0.00000000   -0.00006505
     atom   37 type  1   force =    -0.00000000   -0.00000001    0.00046404
     atom   38 type  1   force =     0.00000001   -0.00000001    0.00046406
     atom   39 type  2   force =     0.00000000   -0.00000001   -0.00006500
     atom   40 type  2   force =    -0.00000000   -0.00000000   -0.00006502
     atom   41 type  1   force =    -0.00000000   -0.00000009    0.00046397
     atom   42 type  1   force =     0.00000000   -0.00000001    0.00046408
     atom   43 type  2   force =     0.00000000   -0.00000001   -0.00006505
     atom   44 type  2   force =    -0.00000000   -0.00000000   -0.00006502
     atom   45 type  1   force =    -0.00000000   -0.00000006    0.00046400
     atom   46 type  1   force =    -0.00000003   -0.00000003    0.00046395
     atom   47 type  2   force =     0.00000000   -0.00000001   -0.00006503
     atom   48 type  2   force =    -0.00000000   -0.00000000   -0.00006505
     The Hubbard contrib.    to forces
     atom    1 type  1   force =     0.00000000    0.00000000    0.00000000
     atom    2 type  1   force =     0.00000000    0.00000000    0.00000000
     atom    3 type  2   force =     0.00000000    0.00000000    0.00000000
     atom    4 type  2   force =     0.00000000    0.00000000    0.00000000
     atom    5 type  1   force =     0.00000000    0.00000000    0.00000000
     atom    6 type  1   force =     0.00000000    0.00000000    0.00000000
     atom    7 type  2   force =     0.00000000    0.00000000    0.00000000
     atom    8 type  2   force =     0.00000000    0.00000000    0.00000000
     atom    9 type  1   force =     0.00000000    0.00000000    0.00000000
     atom   10 type  1   force =     0.00000000    0.00000000    0.00000000
     atom   11 type  2   force =     0.00000000    0.00000000    0.00000000
     atom   12 type  2   force =     0.00000000    0.00000000    0.00000000
     atom   13 type  1   force =     0.00000000    0.00000000    0.00000000
     atom   14 type  1   force =     0.00000000    0.00000000    0.00000000
     atom   15 type  2   force =     0.00000000    0.00000000    0.00000000
     atom   16 type  2   force =     0.00000000    0.00000000    0.00000000
     atom   17 type  1   force =     0.00000000    0.00000000    0.00000000
     atom   18 type  1   force =     0.00000000    0.00000000    0.00000000
     atom   19 type  2   force =     0.00000000    0.00000000    0.00000000
     atom   20 type  2   force =     0.00000000    0.00000000    0.00000000
     atom   21 type  1   force =     0.00000000    0.00000000    0.00000000
     atom   22 type  1   force =     0.00000000    0.00000000    0.00000000
     atom   23 type  2   force =     0.00000000    0.00000000    0.00000000
     atom   24 type  2   force =     0.00000000    0.00000000    0.00000000
     atom   25 type  1   force =     0.00000000    0.00000000    0.00000000
     atom   26 type  1   force =     0.00000000    0.00000000    0.00000000
     atom   27 type  2   force =     0.00000000    0.00000000    0.00000000
     atom   28 type  2   force =     0.00000000    0.00000000    0.00000000
     atom   29 type  1   force =     0.00000000    0.00000000    0.00000000
     atom   30 type  1   force =     0.00000000    0.00000000    0.00000000
     atom   31 type  2   force =     0.00000000    0.00000000    0.00000000
     atom   32 type  2   force =     0.00000000    0.00000000    0.00000000
     atom   33 type  1   force =     0.00000000    0.00000000    0.00000000
     atom   34 type  1   force =     0.00000000    0.00000000    0.00000000
     atom   35 type  2   force =     0.00000000    0.00000000    0.00000000
     atom   36 type  2   force =     0.00000000    0.00000000    0.00000000
     atom   37 type  1   force =     0.00000000    0.00000000    0.00000000
     atom   38 type  1   force =     0.00000000    0.00000000    0.00000000
     atom   39 type  2   force =     0.00000000    0.00000000    0.00000000
     atom   40 type  2   force =     0.00000000    0.00000000    0.00000000
     atom   41 type  1   force =     0.00000000    0.00000000    0.00000000
     atom   42 type  1   force =     0.00000000    0.00000000    0.00000000
     atom   43 type  2   force =     0.00000000    0.00000000    0.00000000
     atom   44 type  2   force =     0.00000000    0.00000000    0.00000000
     atom   45 type  1   force =     0.00000000    0.00000000    0.00000000
     atom   46 type  1   force =     0.00000000    0.00000000    0.00000000
     atom   47 type  2   force =     0.00000000    0.00000000    0.00000000
     atom   48 type  2   force =     0.00000000    0.00000000    0.00000000
     The SCF correction term to forces
     atom    1 type  1   force =     0.00000226    0.00000131    0.00000193
     atom    2 type  1   force =     0.00000000    0.00000122    0.00000246
     atom    3 type  2   force =     0.00000158    0.00000091    0.00000521
     atom    4 type  2   force =     0.00000000    0.00000132    0.00000081
     atom    5 type  1   force =     0.00000605    0.00000349    0.00000021
     atom    6 type  1   force =     0.00000000    0.00000236    0.00000976
     atom    7 type  2   force =     0.00000139    0.00000080   -0.00000563
     atom    8 type  2   force =     0.00000000    0.00000185    0.00000120
     atom    9 type  1   force =     0.00000320    0.00000185   -0.00000813
     atom   10 type  1   force =     0.00000000    0.00000299   -0.00001115
     atom   11 type  2   force =     0.00000060    0.00000034    0.00000039
     atom   12 type  2   force =     0.00000000    0.00000070   -0.00000447
     atom   13 type  1   force =    -0.00000000    0.00000000    0.00000051
     atom   14 type  1   force =     0.00000106   -0.00000061    0.00000246
     atom   15 type  2   force =     0.00000000    0.00000000    0.00000526
     atom   16 type  2   force =     0.00000114   -0.00000066    0.00000081
     atom   17 type  1   force =    -0.00000000    0.00000000    0.00000212
     atom   18 type  1   force =     0.00000204   -0.00000118    0.00000976
     atom   19 type  2   force =     0.00000000    0.00000000   -0.00000617
     atom   20 type  2   force =     0.00000160   -0.00000092    0.00000120
     atom   21 type  1   force =    -0.00000000    0.00000000   -0.00000816
     atom   22 type  1   force =     0.00000259   -0.00000150   -0.00001115
     atom   23 type  2   force =     0.00000000    0.00000000    0.00000077
     atom   24 type  2   force =     0.00000061   -0.00000035   -0.00000447
     atom   25 type  1   force =    -0.00000226    0.00000131    0.00000193
     atom   26 type  1   force =     0.00000000    0.00000000    0.00000160
     atom   27 type  2   force =    -0.00000158    0.00000091    0.00000521
     atom   28 type  2   force =     0.00000000    0.00000000    0.00000153
     atom   29 type  1   force =    -0.00000605    0.00000349    0.00000021
     atom   30 type  1   force =     0.00000000    0.00000000    0.00001241
     atom   31 type  2   force =    -0.00000139    0.00000080   -0.00000563
     atom   32 type  2   force =     0.00000000    0.00000000    0.00000127
     atom   33 type  1   force =    -0.00000320    0.00000185   -0.00000813
     atom   34 type  1   force =     0.00000000    0.00000000   -0.00000915
     atom   35 type  2   force =    -0.00000060    0.00000034    0.00000039
     atom   36 type  2   force =     0.00000000    0.00000000   -0.00000469
     atom   37 type  1   force =    -0.00000000   -0.00000262    0.00000193
     atom   38 type  1   force =    -0.00000106   -0.00000061    0.00000246
     atom   39 type  2   force =     0.00000000   -0.00000182    0.00000521
     atom   40 type  2   force =    -0.00000114   -0.00000066    0.00000081
     atom   41 type  1   force =    -0.00000000   -0.00000699    0.00000021
     atom   42 type  1   force =    -0.00000204   -0.00000118    0.00000976
     atom   43 type  2   force =     0.00000000   -0.00000161   -0.00000563
     atom   44 type  2   force =    -0.00000160   -0.00000092    0.00000120
     atom   45 type  1   force =    -0.00000000   -0.00000370   -0.00000813
     atom   46 type  1   force =    -0.00000259   -0.00000150   -0.00001115
     atom   47 type  2   force =     0.00000000   -0.00000069    0.00000039
     atom   48 type  2   force =    -0.00000061   -0.00000035   -0.00000447

     Total force =     0.000425     Total SCF correction =     0.000043
     SCF correction compared to forces is large: reduce conv_thr to get better values

     General routines

     Parallel routines

   This run was terminated on:  14:38:27   2Aug2025

   JOB DONE.
Note: The following floating-point exceptions are signalling: IEEE_INVALID_FLAG
Note: The following floating-point exceptions are signalling: IEEE_INVALID_FLAG
Note: The following floating-point exceptions are signalling: IEEE_INVALID_FLAG
Note: The following floating-point exceptions are signalling: IEEE_INVALID_FLAG
Note: The following floating-point exceptions are signalling: IEEE_INVALID_FLAG
Note: The following floating-point exceptions are signalling: IEEE_INVALID_FLAG
Note: The following floating-point exceptions are signalling: IEEE_INVALID_FLAG
Note: The following floating-point exceptions are signalling: IEEE_INVALID_FLAG