     Program PWSCF v.7.2 starts on  1Aug2025 at 22:56:19

     Reading input from /home/jvc/QEspresso7.2/ZnO_database/scripts/cell223.in/ZnO-3.20-1.65-223.in
Warning: card &CELL ignored
Warning: card / ignored
Warning: card &FCP ignored
Warning: card / ignored
Warning: card &RISM ignored
Warning: card / ignored

     Current dimensions of program PWSCF are:
     Max number of different atomic species (ntypx) = 10
     Max number of k-points (npk) =  40000
     Max angular momentum in pseudopotentials (lmaxx) =  4
     file Zn.upf: wavefunction(s)  3D renormalized
     Found identity + (  0.0000  0.0000  0.3333) symmetry
     This is a supercell, fractional translations are disabled
     Message from routine setup:
     using ibrav=0 with symmetry is DISCOURAGED, use correct ibrav instead

     K-points division:     npool     =       8
     R & G space division:  proc/nbgrp/npool/nimage =       4
     Subspace diagonalization in iterative solution of the eigenvalue problem:
     one sub-group per band group will be used

     Message from routine divide_et_impera:
     suboptimal parallelization: some nodes have no k-points

     Using Slab Decomposition

     bravais-lattice index     =            0
     lattice parameter (alat)  =      12.3576  a.u.
     unit-cell volume          =    3957.5722 (a.u.)^3
     number of atoms/cell      =           48
     number of atomic types    =            2
     number of electrons       =       432.00
     number of Kohn-Sham states=          216
     kinetic-energy cutoff     =      50.0000  Ry
     charge density cutoff     =     400.0000  Ry
     scf convergence threshold =      1.0E-08
     mixing beta               =       0.3000
     number of iterations used =            8  plain     mixing
     Exchange-correlation= PBE
                           (   1   4   3   4   0   0   0)

     celldm(1)=  12.357644  celldm(2)=   0.000000  celldm(3)=   0.000000
     celldm(4)=   0.000000  celldm(5)=   0.000000  celldm(6)=   0.000000

     crystal axes: (cart. coord. in units of alat)
               a(1) = (   1.000000   0.000000   0.000000 )
               a(2) = (  -0.500000   0.866025   0.000000 )
               a(3) = (   0.000000   0.000000   2.421538 )

     reciprocal axes: (cart. coord. in units 2 pi/alat)
               b(1) = (  1.000000  0.577350 -0.000000 )
               b(2) = (  0.000000  1.154701  0.000000 )
               b(3) = (  0.000000 -0.000000  0.412961 )

     PseudoPot. # 1 for Zn read from file:
     /home/jvc/QEspresso7.2/ZnO_database/pseudos/Zn.upf
     MD5 check sum: 7f56cabf9682ed8c977c2f7d0c5985c5
     Pseudo is Ultrasoft + core correction, Zval = 12.0
     Generated using &quot;atomic&quot; code by A. Dal Corso  v.6.2.2
     Using radial grid of 1201 points,  6 beta functions with:
                l(1) =   0
                l(2) =   0
                l(3) =   1
                l(4) =   1
                l(5) =   2
                l(6) =   2
     Q(r) pseudized with 0 coefficients

     PseudoPot. # 2 for O  read from file:
     /home/jvc/QEspresso7.2/ZnO_database/pseudos/O.upf
     MD5 check sum: 91400c9766925bcf19f520983a725ff0
     Pseudo is Ultrasoft + core correction, Zval =  6.0
     Generated using &quot;atomic&quot; code by A. Dal Corso  v.6.3MaX
     Using radial grid of 1095 points,  4 beta functions with:
                l(1) =   0
                l(2) =   0
                l(3) =   1
                l(4) =   1
     Q(r) pseudized with 0 coefficients

     atomic species   valence    mass     pseudopotential
        Zn            12.00    65.38000     Zn( 1.00)
        O              6.00    15.99900     O ( 1.00)

      6 Sym. Ops. (no inversion) found

                                    s                        frac. trans.

      isym =  1     identity

 cryst.   s( 1) = (     1          0          0      )
                  (     0          1          0      )
                  (     0          0          1      )

 cart.    s( 1) = (  1.0000000  0.0000000  0.0000000 )
                  (  0.0000000  1.0000000  0.0000000 )
                  (  0.0000000  0.0000000  1.0000000 )

      isym =  2     120 deg rotation - cryst. axis [0,0,1]

[...]

      isym =  3     120 deg rotation - cryst. axis [0,0,-1]

[...]

      isym =  4     inv. 180 deg rotation - cart. axis [1,0,0]

[...]

      isym =  5     inv. 180 deg rotation - cryst. axis [0,1,0]

[...]

      isym =  6     inv. 180 deg rotation - cryst. axis [1,1,0]

 cryst.   s( 6) = (     0         -1          0      )
                  (    -1          0          0      )
                  (     0          0          1      )

 cart.    s( 6) = (  0.5000000 -0.8660254  0.0000000 )
                  ( -0.8660254 -0.5000000  0.0000000 )
                  (  0.0000000  0.0000000  1.0000000 )

   Cartesian axes

     site n.     atom                  positions (alat units)
         1           Zn  tau(   1) = (   0.2500000   0.1443376   0.4041010  )
         2           Zn  tau(   2) = (   0.0000000   0.2886751   0.0005114  )
         3           O   tau(   3) = (   0.2500000   0.1443376   0.7100565  )
         4           O   tau(   4) = (   0.0000000   0.2886751   0.3064669  )
         5           Zn  tau(   5) = (   0.2500000   0.1443376   1.2112802  )
         6           Zn  tau(   6) = (   0.0000000   0.2886751   0.8076906  )
         7           O   tau(   7) = (   0.2500000   0.1443376   1.5172357  )
         8           O   tau(   8) = (   0.0000000   0.2886751   1.1136461  )
         9           Zn  tau(   9) = (   0.2500000   0.1443376   2.0184594  )
        10           Zn  tau(  10) = (   0.0000000   0.2886751   1.6148698  )
        11           O   tau(  11) = (   0.2500000   0.1443376   2.3244148  )
        12           O   tau(  12) = (   0.0000000   0.2886751   1.9208253  )
        13           Zn  tau(  13) = (   0.0000000   0.5773503   0.4041010  )
        14           Zn  tau(  14) = (  -0.2500000   0.7216878   0.0005114  )
        15           O   tau(  15) = (   0.0000000   0.5773503   0.7100565  )
        16           O   tau(  16) = (  -0.2500000   0.7216878   0.3064669  )
        17           Zn  tau(  17) = (   0.0000000   0.5773503   1.2112802  )
        18           Zn  tau(  18) = (  -0.2500000   0.7216878   0.8076906  )
        19           O   tau(  19) = (   0.0000000   0.5773503   1.5172357  )
        20           O   tau(  20) = (  -0.2500000   0.7216878   1.1136461  )
        21           Zn  tau(  21) = (   0.0000000   0.5773503   2.0184594  )
        22           Zn  tau(  22) = (  -0.2500000   0.7216878   1.6148698  )
        23           O   tau(  23) = (   0.0000000   0.5773503   2.3244148  )
        24           O   tau(  24) = (  -0.2500000   0.7216878   1.9208253  )
        25           Zn  tau(  25) = (   0.7500000   0.1443376   0.4041010  )
        26           Zn  tau(  26) = (   0.5000000   0.2886751   0.0005114  )
        27           O   tau(  27) = (   0.7500000   0.1443376   0.7100565  )
        28           O   tau(  28) = (   0.5000000   0.2886751   0.3064669  )
        29           Zn  tau(  29) = (   0.7500000   0.1443376   1.2112802  )
        30           Zn  tau(  30) = (   0.5000000   0.2886751   0.8076906  )
        31           O   tau(  31) = (   0.7500000   0.1443376   1.5172357  )
        32           O   tau(  32) = (   0.5000000   0.2886751   1.1136461  )
        33           Zn  tau(  33) = (   0.7500000   0.1443376   2.0184594  )
        34           Zn  tau(  34) = (   0.5000000   0.2886751   1.6148698  )
        35           O   tau(  35) = (   0.7500000   0.1443376   2.3244148  )
        36           O   tau(  36) = (   0.5000000   0.2886751   1.9208253  )
        37           Zn  tau(  37) = (   0.5000000   0.5773503   0.4041010  )
        38           Zn  tau(  38) = (   0.2500000   0.7216878   0.0005114  )
        39           O   tau(  39) = (   0.5000000   0.5773503   0.7100565  )
        40           O   tau(  40) = (   0.2500000   0.7216878   0.3064669  )
        41           Zn  tau(  41) = (   0.5000000   0.5773503   1.2112802  )
        42           Zn  tau(  42) = (   0.2500000   0.7216878   0.8076906  )
        43           O   tau(  43) = (   0.5000000   0.5773503   1.5172357  )
        44           O   tau(  44) = (   0.2500000   0.7216878   1.1136461  )
        45           Zn  tau(  45) = (   0.5000000   0.5773503   2.0184594  )
        46           Zn  tau(  46) = (   0.2500000   0.7216878   1.6148698  )
        47           O   tau(  47) = (   0.5000000   0.5773503   2.3244148  )
        48           O   tau(  48) = (   0.2500000   0.7216878   1.9208253  )

   Crystallographic axes

     site n.     atom                  positions (cryst. coord.)
         1           Zn  tau(   1) = (  0.3333333  0.1666667  0.1668779  )
         2           Zn  tau(   2) = (  0.1666667  0.3333333  0.0002112  )
         3           O   tau(   3) = (  0.3333333  0.1666667  0.2932255  )
         4           O   tau(   4) = (  0.1666667  0.3333333  0.1265588  )
         5           Zn  tau(   5) = (  0.3333333  0.1666667  0.5002112  )
         6           Zn  tau(   6) = (  0.1666667  0.3333333  0.3335445  )
         7           O   tau(   7) = (  0.3333333  0.1666667  0.6265588  )
         8           O   tau(   8) = (  0.1666667  0.3333333  0.4598921  )
         9           Zn  tau(   9) = (  0.3333333  0.1666667  0.8335445  )
        10           Zn  tau(  10) = (  0.1666667  0.3333333  0.6668779  )
        11           O   tau(  11) = (  0.3333333  0.1666667  0.9598921  )
        12           O   tau(  12) = (  0.1666667  0.3333333  0.7932255  )
        13           Zn  tau(  13) = (  0.3333333  0.6666667  0.1668779  )
        14           Zn  tau(  14) = (  0.1666667  0.8333333  0.0002112  )
        15           O   tau(  15) = (  0.3333333  0.6666667  0.2932255  )
        16           O   tau(  16) = (  0.1666667  0.8333333  0.1265588  )
        17           Zn  tau(  17) = (  0.3333333  0.6666667  0.5002112  )
        18           Zn  tau(  18) = (  0.1666667  0.8333333  0.3335445  )
        19           O   tau(  19) = (  0.3333333  0.6666667  0.6265588  )
        20           O   tau(  20) = (  0.1666667  0.8333333  0.4598921  )
        21           Zn  tau(  21) = (  0.3333333  0.6666667  0.8335445  )
        22           Zn  tau(  22) = (  0.1666667  0.8333333  0.6668779  )
        23           O   tau(  23) = (  0.3333333  0.6666667  0.9598921  )
        24           O   tau(  24) = (  0.1666667  0.8333333  0.7932255  )
        25           Zn  tau(  25) = (  0.8333333  0.1666667  0.1668779  )
        26           Zn  tau(  26) = (  0.6666667  0.3333333  0.0002112  )
        27           O   tau(  27) = (  0.8333333  0.1666667  0.2932255  )
        28           O   tau(  28) = (  0.6666667  0.3333333  0.1265588  )
        29           Zn  tau(  29) = (  0.8333333  0.1666667  0.5002112  )
        30           Zn  tau(  30) = (  0.6666667  0.3333333  0.3335445  )
        31           O   tau(  31) = (  0.8333333  0.1666667  0.6265588  )
        32           O   tau(  32) = (  0.6666667  0.3333333  0.4598921  )
[...]
     atom   37 type  1   force =     0.00000000   -0.00000000    0.06271746
     atom   38 type  1   force =    -0.00000000   -0.00000002    0.06271750
     atom   39 type  2   force =     0.00000000   -0.00000000   -0.06271747
     atom   40 type  2   force =    -0.00000000   -0.00000001   -0.06271748
     atom   41 type  1   force =     0.00000000   -0.00000000    0.06271749
     atom   42 type  1   force =    -0.00000000   -0.00000002    0.06271746
     atom   43 type  2   force =     0.00000000   -0.00000000   -0.06271748
     atom   44 type  2   force =    -0.00000000   -0.00000001   -0.06271746
     atom   45 type  1   force =     0.00000000   -0.00000000    0.06271745
     atom   46 type  1   force =    -0.00000000   -0.00000002    0.06271746
     atom   47 type  2   force =     0.00000000   -0.00000000   -0.06271746
     atom   48 type  2   force =    -0.00000000   -0.00000001   -0.06271747
     The local contribution  to forces
     atom    1 type  1   force =    -0.00000332   -0.00000182   -0.05829174
     atom    2 type  1   force =     0.00000009   -0.00000150   -0.05829647
     atom    3 type  2   force =    -0.00000158   -0.00000088    0.05696311
     atom    4 type  2   force =     0.00000002   -0.00000175    0.05696385
     atom    5 type  1   force =    -0.00000893   -0.00000506   -0.05828508
     atom    6 type  1   force =     0.00000009   -0.00000291   -0.05829209
     atom    7 type  2   force =    -0.00000124   -0.00000069    0.05696996
     atom    8 type  2   force =     0.00000002   -0.00000252    0.05696463
     atom    9 type  1   force =    -0.00000672   -0.00000378   -0.05827948
     atom   10 type  1   force =     0.00000009   -0.00000375   -0.05827902
     atom   11 type  2   force =     0.00000019    0.00000013    0.05696185
     atom   12 type  2   force =     0.00000002   -0.00000251    0.05696820
     atom   13 type  1   force =     0.00000000    0.00000010   -0.05829168
     atom   14 type  1   force =    -0.00000134    0.00000068   -0.05829647
     atom   15 type  2   force =     0.00000000    0.00000003    0.05696363
     atom   16 type  2   force =    -0.00000153    0.00000086    0.05696385
     atom   17 type  1   force =     0.00000000    0.00000010   -0.05828711
     atom   18 type  1   force =    -0.00000256    0.00000138   -0.05829209
     atom   19 type  2   force =     0.00000000    0.00000003    0.05697128
     atom   20 type  2   force =    -0.00000220    0.00000124    0.05696463
     atom   21 type  1   force =     0.00000000    0.00000010   -0.05828017
     atom   22 type  1   force =    -0.00000329    0.00000180   -0.05827902
     atom   23 type  2   force =     0.00000000    0.00000003    0.05696322
     atom   24 type  2   force =    -0.00000218    0.00000123    0.05696820
     atom   25 type  1   force =     0.00000332   -0.00000182   -0.05829174
     atom   26 type  1   force =     0.00000009    0.00000005   -0.05829602
     atom   27 type  2   force =     0.00000158   -0.00000088    0.05696311
     atom   28 type  2   force =     0.00000002    0.00000001    0.05696368
     atom   29 type  1   force =     0.00000893   -0.00000506   -0.05828508
     atom   30 type  1   force =     0.00000009    0.00000005   -0.05829742
     atom   31 type  2   force =     0.00000124   -0.00000069    0.05696996
     atom   32 type  2   force =     0.00000002    0.00000001    0.05696407
     atom   33 type  1   force =     0.00000672   -0.00000378   -0.05827948
     atom   34 type  1   force =     0.00000009    0.00000005   -0.05828285
     atom   35 type  2   force =    -0.00000019    0.00000013    0.05696185
     atom   36 type  2   force =     0.00000002    0.00000001    0.05696914
     atom   37 type  1   force =     0.00000000    0.00000393   -0.05829174
     atom   38 type  1   force =     0.00000134    0.00000068   -0.05829647
     atom   39 type  2   force =     0.00000000    0.00000184    0.05696311
     atom   40 type  2   force =     0.00000153    0.00000086    0.05696385
     atom   41 type  1   force =     0.00000000    0.00001041   -0.05828508
     atom   42 type  1   force =     0.00000256    0.00000138   -0.05829209
     atom   43 type  2   force =     0.00000000    0.00000145    0.05696996
     atom   44 type  2   force =     0.00000220    0.00000124    0.05696463
     atom   45 type  1   force =     0.00000000    0.00000786   -0.05827948
     atom   46 type  1   force =     0.00000329    0.00000180   -0.05827902
     atom   47 type  2   force =     0.00000000   -0.00000019    0.05696185
     atom   48 type  2   force =     0.00000218    0.00000123    0.05696820
     The core correction contribution to forces
     atom    1 type  1   force =     0.00000002    0.00000003    0.00046403
     atom    2 type  1   force =     0.00000001   -0.00000001    0.00046413
     atom    3 type  2   force =     0.00000001    0.00000000   -0.00006502
     atom    4 type  2   force =    -0.00000000    0.00000000   -0.00006501
     atom    5 type  1   force =     0.00000012    0.00000008    0.00046391
     atom    6 type  1   force =     0.00000001   -0.00000001    0.00046404
     atom    7 type  2   force =     0.00000001    0.00000001   -0.00006505
     atom    8 type  2   force =    -0.00000000    0.00000000   -0.00006504
     atom    9 type  1   force =     0.00000012    0.00000008    0.00046395
     atom   10 type  1   force =     0.00000001    0.00000001    0.00046401
     atom   11 type  2   force =     0.00000001    0.00000001   -0.00006502
     atom   12 type  2   force =    -0.00000000   -0.00000000   -0.00006504
     atom   13 type  1   force =    -0.00000000    0.00000001    0.00046406
     atom   14 type  1   force =    -0.00000001   -0.00000001    0.00046413
     atom   15 type  2   force =     0.00000000   -0.00000000   -0.00006503
     atom   16 type  2   force =     0.00000000   -0.00000000   -0.00006501
     atom   17 type  1   force =    -0.00000000    0.00000001    0.00046401
     atom   18 type  1   force =    -0.00000001   -0.00000001    0.00046404
     atom   19 type  2   force =     0.00000000   -0.00000000   -0.00006504
     atom   20 type  2   force =     0.00000000   -0.00000000   -0.00006504
     atom   21 type  1   force =    -0.00000000    0.00000001    0.00046400
     atom   22 type  1   force =     0.00000000   -0.00000001    0.00046401
     atom   23 type  2   force =     0.00000000   -0.00000000   -0.00006501
     atom   24 type  2   force =    -0.00000000    0.00000000   -0.00006504
     atom   25 type  1   force =    -0.00000002    0.00000003    0.00046403
     atom   26 type  1   force =     0.00000001    0.00000001    0.00046420
     atom   27 type  2   force =    -0.00000001    0.00000000   -0.00006502
     atom   28 type  2   force =    -0.00000000   -0.00000000   -0.00006501
     atom   29 type  1   force =    -0.00000012    0.00000008    0.00046391
     atom   30 type  1   force =     0.00000001    0.00000001    0.00046424
     atom   31 type  2   force =    -0.00000001    0.00000001   -0.00006505
     atom   32 type  2   force =    -0.00000000   -0.00000000   -0.00006504
     atom   33 type  1   force =    -0.00000012    0.00000008    0.00046395
     atom   34 type  1   force =     0.00000001    0.00000001    0.00046417
     atom   35 type  2   force =    -0.00000001    0.00000001   -0.00006502
     atom   36 type  2   force =    -0.00000000   -0.00000000   -0.00006504
     atom   37 type  1   force =    -0.00000000   -0.00000001    0.00046403
     atom   38 type  1   force =     0.00000001   -0.00000001    0.00046413
     atom   39 type  2   force =     0.00000000   -0.00000001   -0.00006502
     atom   40 type  2   force =    -0.00000000   -0.00000000   -0.00006501
     atom   41 type  1   force =    -0.00000000   -0.00000013    0.00046391
     atom   42 type  1   force =     0.00000001   -0.00000001    0.00046404
     atom   43 type  2   force =     0.00000000   -0.00000002   -0.00006505
     atom   44 type  2   force =    -0.00000000   -0.00000000   -0.00006504
     atom   45 type  1   force =    -0.00000000   -0.00000012    0.00046395
     atom   46 type  1   force =    -0.00000000   -0.00000001    0.00046401
     atom   47 type  2   force =     0.00000000   -0.00000002   -0.00006502
     atom   48 type  2   force =     0.00000000    0.00000000   -0.00006504
     The Hubbard contrib.    to forces
     atom    1 type  1   force =     0.00000000    0.00000000    0.00000000
     atom    2 type  1   force =     0.00000000    0.00000000    0.00000000
     atom    3 type  2   force =     0.00000000    0.00000000    0.00000000
     atom    4 type  2   force =     0.00000000    0.00000000    0.00000000
     atom    5 type  1   force =     0.00000000    0.00000000    0.00000000
     atom    6 type  1   force =     0.00000000    0.00000000    0.00000000
     atom    7 type  2   force =     0.00000000    0.00000000    0.00000000
     atom    8 type  2   force =     0.00000000    0.00000000    0.00000000
     atom    9 type  1   force =     0.00000000    0.00000000    0.00000000
     atom   10 type  1   force =     0.00000000    0.00000000    0.00000000
     atom   11 type  2   force =     0.00000000    0.00000000    0.00000000
     atom   12 type  2   force =     0.00000000    0.00000000    0.00000000
     atom   13 type  1   force =     0.00000000    0.00000000    0.00000000
     atom   14 type  1   force =     0.00000000    0.00000000    0.00000000
     atom   15 type  2   force =     0.00000000    0.00000000    0.00000000
     atom   16 type  2   force =     0.00000000    0.00000000    0.00000000
     atom   17 type  1   force =     0.00000000    0.00000000    0.00000000
     atom   18 type  1   force =     0.00000000    0.00000000    0.00000000
     atom   19 type  2   force =     0.00000000    0.00000000    0.00000000
     atom   20 type  2   force =     0.00000000    0.00000000    0.00000000
     atom   21 type  1   force =     0.00000000    0.00000000    0.00000000
     atom   22 type  1   force =     0.00000000    0.00000000    0.00000000
     atom   23 type  2   force =     0.00000000    0.00000000    0.00000000
     atom   24 type  2   force =     0.00000000    0.00000000    0.00000000
     atom   25 type  1   force =     0.00000000    0.00000000    0.00000000
     atom   26 type  1   force =     0.00000000    0.00000000    0.00000000
     atom   27 type  2   force =     0.00000000    0.00000000    0.00000000
     atom   28 type  2   force =     0.00000000    0.00000000    0.00000000
     atom   29 type  1   force =     0.00000000    0.00000000    0.00000000
     atom   30 type  1   force =     0.00000000    0.00000000    0.00000000
     atom   31 type  2   force =     0.00000000    0.00000000    0.00000000
     atom   32 type  2   force =     0.00000000    0.00000000    0.00000000
     atom   33 type  1   force =     0.00000000    0.00000000    0.00000000
     atom   34 type  1   force =     0.00000000    0.00000000    0.00000000
     atom   35 type  2   force =     0.00000000    0.00000000    0.00000000
     atom   36 type  2   force =     0.00000000    0.00000000    0.00000000
     atom   37 type  1   force =     0.00000000    0.00000000    0.00000000
     atom   38 type  1   force =     0.00000000    0.00000000    0.00000000
     atom   39 type  2   force =     0.00000000    0.00000000    0.00000000
     atom   40 type  2   force =     0.00000000    0.00000000    0.00000000
     atom   41 type  1   force =     0.00000000    0.00000000    0.00000000
     atom   42 type  1   force =     0.00000000    0.00000000    0.00000000
     atom   43 type  2   force =     0.00000000    0.00000000    0.00000000
     atom   44 type  2   force =     0.00000000    0.00000000    0.00000000
     atom   45 type  1   force =     0.00000000    0.00000000    0.00000000
     atom   46 type  1   force =     0.00000000    0.00000000    0.00000000
     atom   47 type  2   force =     0.00000000    0.00000000    0.00000000
     atom   48 type  2   force =     0.00000000    0.00000000    0.00000000
     The SCF correction term to forces
     atom    1 type  1   force =     0.00000436    0.00000251    0.00000341
     atom    2 type  1   force =     0.00000000    0.00000145    0.00001143
     atom    3 type  2   force =     0.00000256    0.00000148    0.00000330
     atom    4 type  2   force =     0.00000000    0.00000230    0.00000293
     atom    5 type  1   force =     0.00001267    0.00000732   -0.00000468
     atom    6 type  1   force =     0.00000000    0.00000345    0.00000484
     atom    7 type  2   force =     0.00000248    0.00000143   -0.00000713
     atom    8 type  2   force =     0.00000000    0.00000332    0.00000069
     atom    9 type  1   force =     0.00000914    0.00000528   -0.00001207
     atom   10 type  1   force =     0.00000000    0.00000439   -0.00001321
     atom   11 type  2   force =     0.00000061    0.00000035    0.00000456
     atom   12 type  2   force =     0.00000000    0.00000282   -0.00000424
     atom   13 type  1   force =    -0.00000000    0.00000000    0.00000306
     atom   14 type  1   force =     0.00000126   -0.00000073    0.00001143
     atom   15 type  2   force =     0.00000000    0.00000000    0.00000247
     atom   16 type  2   force =     0.00000199   -0.00000115    0.00000293
     atom   17 type  1   force =    -0.00000000    0.00000000   -0.00000222
     atom   18 type  1   force =     0.00000299   -0.00000173    0.00000484
     atom   19 type  2   force =     0.00000000    0.00000000   -0.00000817
     atom   20 type  2   force =     0.00000287   -0.00000166    0.00000069
     atom   21 type  1   force =    -0.00000000    0.00000000   -0.00001084
     atom   22 type  1   force =     0.00000380   -0.00000219   -0.00001321
     atom   23 type  2   force =     0.00000000    0.00000000    0.00000340
     atom   24 type  2   force =     0.00000244   -0.00000141   -0.00000424
     atom   25 type  1   force =    -0.00000436    0.00000251    0.00000341
     atom   26 type  1   force =     0.00000000    0.00000000    0.00001056
     atom   27 type  2   force =    -0.00000256    0.00000148    0.00000330
     atom   28 type  2   force =     0.00000000    0.00000000    0.00000312
     atom   29 type  1   force =    -0.00001267    0.00000732   -0.00000468
     atom   30 type  1   force =     0.00000000    0.00000000    0.00001275
     atom   31 type  2   force =    -0.00000248    0.00000143   -0.00000713
     atom   32 type  2   force =     0.00000000    0.00000000    0.00000108
     atom   33 type  1   force =    -0.00000914    0.00000528   -0.00001207
     atom   34 type  1   force =     0.00000000    0.00000000   -0.00000735
     atom   35 type  2   force =    -0.00000061    0.00000035    0.00000456
     atom   36 type  2   force =     0.00000000    0.00000000   -0.00000531
     atom   37 type  1   force =    -0.00000000   -0.00000503    0.00000341
     atom   38 type  1   force =    -0.00000126   -0.00000073    0.00001143
     atom   39 type  2   force =     0.00000000   -0.00000295    0.00000330
     atom   40 type  2   force =    -0.00000199   -0.00000115    0.00000293
     atom   41 type  1   force =    -0.00000000   -0.00001463   -0.00000468
     atom   42 type  1   force =    -0.00000299   -0.00000173    0.00000484
     atom   43 type  2   force =     0.00000000   -0.00000287   -0.00000713
     atom   44 type  2   force =    -0.00000287   -0.00000166    0.00000069
     atom   45 type  1   force =    -0.00000000   -0.00001055   -0.00001207
     atom   46 type  1   force =    -0.00000380   -0.00000219   -0.00001321
     atom   47 type  2   force =     0.00000000   -0.00000071    0.00000456
     atom   48 type  2   force =    -0.00000244   -0.00000141   -0.00000424

     Total force =     0.000425     Total SCF correction =     0.000061
     SCF correction compared to forces is large: reduce conv_thr to get better values

     General routines

     Parallel routines

   This run was terminated on:  23:11: 7   1Aug2025

   JOB DONE.
Note: The following floating-point exceptions are signalling: IEEE_INVALID_FLAG
Note: The following floating-point exceptions are signalling: IEEE_INVALID_FLAG
Note: The following floating-point exceptions are signalling: IEEE_INVALID_FLAG
Note: The following floating-point exceptions are signalling: IEEE_INVALID_FLAG
Note: The following floating-point exceptions are signalling: IEEE_DENORMAL
Note: The following floating-point exceptions are signalling: IEEE_INVALID_FLAG
Note: The following floating-point exceptions are signalling: IEEE_INVALID_FLAG
Note: The following floating-point exceptions are signalling: IEEE_INVALID_FLAG
Note: The following floating-point exceptions are signalling: IEEE_DENORMAL
Note: The following floating-point exceptions are signalling: IEEE_INVALID_FLAG