     Program PWSCF v.7.2 starts on  5Aug2025 at 23:48:17

     Reading input from /home/jvc/QEspresso7.2/ZnO_database/scripts/cell322.in/ZnO-3.47-1.55-322.in
Warning: card &CELL ignored
Warning: card / ignored
Warning: card &FCP ignored
Warning: card / ignored
Warning: card &RISM ignored
Warning: card / ignored

     Current dimensions of program PWSCF are:
     Max number of different atomic species (ntypx) = 10
     Max number of k-points (npk) =  40000
     Max angular momentum in pseudopotentials (lmaxx) =  4
     file Zn.upf: wavefunction(s)  3D renormalized
     Found identity + (  0.0000  0.0000  0.5000) symmetry
     This is a supercell, fractional translations are disabled

     K-points division:     npool     =       8
     R & G space division:  proc/nbgrp/npool/nimage =       4
     Subspace diagonalization in iterative solution of the eigenvalue problem:
     one sub-group per band group will be used

     Using Slab Decomposition

     bravais-lattice index     =            0
     lattice parameter (alat)  =      18.5365  a.u.
     unit-cell volume          =    3957.5722 (a.u.)^3
     number of atoms/cell      =           48
     number of atomic types    =            2
     number of electrons       =       432.00
     number of Kohn-Sham states=          216
     kinetic-energy cutoff     =      50.0000  Ry
     charge density cutoff     =     400.0000  Ry
     scf convergence threshold =      1.0E-08
     mixing beta               =       0.3000
     number of iterations used =            8  plain     mixing
     Exchange-correlation= PBE
                           (   1   4   3   4   0   0   0)

     celldm(1)=  18.536466  celldm(2)=   0.000000  celldm(3)=   0.000000
     celldm(4)=   0.000000  celldm(5)=   0.000000  celldm(6)=   0.000000

     crystal axes: (cart. coord. in units of alat)
               a(1) = (   1.000000   0.000000   0.000000 )
               a(2) = (  -0.333333   0.577350   0.000000 )
               a(3) = (   0.000000   0.000000   1.076239 )

     reciprocal axes: (cart. coord. in units 2 pi/alat)
               b(1) = (  1.000000  0.577350 -0.000000 )
               b(2) = (  0.000000  1.732051  0.000000 )
               b(3) = (  0.000000 -0.000000  0.929162 )

     PseudoPot. # 1 for Zn read from file:
     /home/jvc/QEspresso7.2/ZnO_database/pseudos/Zn.upf
     MD5 check sum: 7f56cabf9682ed8c977c2f7d0c5985c5
     Pseudo is Ultrasoft + core correction, Zval = 12.0
     Generated using &quot;atomic&quot; code by A. Dal Corso  v.6.2.2
     Using radial grid of 1201 points,  6 beta functions with:
                l(1) =   0
                l(2) =   0
                l(3) =   1
                l(4) =   1
                l(5) =   2
                l(6) =   2
     Q(r) pseudized with 0 coefficients

     PseudoPot. # 2 for O  read from file:
     /home/jvc/QEspresso7.2/ZnO_database/pseudos/O.upf
     MD5 check sum: 91400c9766925bcf19f520983a725ff0
     Pseudo is Ultrasoft + core correction, Zval =  6.0
     Generated using &quot;atomic&quot; code by A. Dal Corso  v.6.3MaX
     Using radial grid of 1095 points,  4 beta functions with:
                l(1) =   0
                l(2) =   0
                l(3) =   1
                l(4) =   1
     Q(r) pseudized with 0 coefficients

     atomic species   valence    mass     pseudopotential
        Zn            12.00    65.38000     Zn( 1.00)
        O              6.00    15.99900     O ( 1.00)

     No symmetry found

                                    s                        frac. trans.

      isym =  1     identity

 cryst.   s( 1) = (     1          0          0      )
                  (     0          1          0      )
                  (     0          0          1      )

 cart.    s( 1) = (  1.0000000  0.0000000  0.0000000 )
                  (  0.0000000  1.0000000  0.0000000 )
                  (  0.0000000  0.0000000  1.0000000 )

   Cartesian axes

     site n.     atom                  positions (alat units)
         1           Zn  tau(   1) = (   0.1666667   0.0962250   0.2694007  )
         2           Zn  tau(   2) = (   0.0000000   0.1924501   0.0003409  )
         3           O   tau(   3) = (   0.1666667   0.0962250   0.4733710  )
         4           O   tau(   4) = (   0.0000000   0.1924501   0.2043113  )
         5           Zn  tau(   5) = (   0.1666667   0.0962250   0.8075201  )
         6           Zn  tau(   6) = (   0.0000000   0.1924501   0.5384604  )
         7           O   tau(   7) = (   0.1666667   0.0962250   1.0114904  )
         8           O   tau(   8) = (   0.0000000   0.1924501   0.7424307  )
         9           Zn  tau(   9) = (   0.0000000   0.3849002   0.2694007  )
        10           Zn  tau(  10) = (  -0.1666667   0.4811252   0.0003409  )
        11           O   tau(  11) = (   0.0000000   0.3849002   0.4733710  )
        12           O   tau(  12) = (  -0.1666667   0.4811252   0.2043113  )
        13           Zn  tau(  13) = (   0.0000000   0.3849002   0.8075201  )
        14           Zn  tau(  14) = (  -0.1666667   0.4811252   0.5384604  )
        15           O   tau(  15) = (   0.0000000   0.3849002   1.0114904  )
        16           O   tau(  16) = (  -0.1666667   0.4811252   0.7424307  )
        17           Zn  tau(  17) = (   0.5000000   0.0962250   0.2694007  )
        18           Zn  tau(  18) = (   0.3333333   0.1924501   0.0003409  )
        19           O   tau(  19) = (   0.5000000   0.0962250   0.4733710  )
        20           O   tau(  20) = (   0.3333333   0.1924501   0.2043113  )
        21           Zn  tau(  21) = (   0.5000000   0.0962250   0.8075201  )
        22           Zn  tau(  22) = (   0.3333333   0.1924501   0.5384604  )
        23           O   tau(  23) = (   0.5000000   0.0962250   1.0114904  )
        24           O   tau(  24) = (   0.3333333   0.1924501   0.7424307  )
        25           Zn  tau(  25) = (   0.3333333   0.3849002   0.2694007  )
        26           Zn  tau(  26) = (   0.1666667   0.4811252   0.0003409  )
        27           O   tau(  27) = (   0.3333333   0.3849002   0.4733710  )
        28           O   tau(  28) = (   0.1666667   0.4811252   0.2043113  )
        29           Zn  tau(  29) = (   0.3333333   0.3849002   0.8075201  )
        30           Zn  tau(  30) = (   0.1666667   0.4811252   0.5384604  )
        31           O   tau(  31) = (   0.3333333   0.3849002   1.0114904  )
        32           O   tau(  32) = (   0.1666667   0.4811252   0.7424307  )
        33           Zn  tau(  33) = (   0.8333333   0.0962250   0.2694007  )
        34           Zn  tau(  34) = (   0.6666667   0.1924501   0.0003409  )
        35           O   tau(  35) = (   0.8333333   0.0962250   0.4733710  )
        36           O   tau(  36) = (   0.6666667   0.1924501   0.2043113  )
        37           Zn  tau(  37) = (   0.8333333   0.0962250   0.8075201  )
        38           Zn  tau(  38) = (   0.6666667   0.1924501   0.5384604  )
        39           O   tau(  39) = (   0.8333333   0.0962250   1.0114904  )
        40           O   tau(  40) = (   0.6666667   0.1924501   0.7424307  )
        41           Zn  tau(  41) = (   0.6666667   0.3849002   0.2694007  )
        42           Zn  tau(  42) = (   0.5000000   0.4811252   0.0003409  )
        43           O   tau(  43) = (   0.6666667   0.3849002   0.4733710  )
        44           O   tau(  44) = (   0.5000000   0.4811252   0.2043113  )
        45           Zn  tau(  45) = (   0.6666667   0.3849002   0.8075201  )
        46           Zn  tau(  46) = (   0.5000000   0.4811252   0.5384604  )
        47           O   tau(  47) = (   0.6666667   0.3849002   1.0114904  )
        48           O   tau(  48) = (   0.5000000   0.4811252   0.7424307  )

   Crystallographic axes

     site n.     atom                  positions (cryst. coord.)
         1           Zn  tau(   1) = (  0.2222222  0.1666667  0.2503168  )
         2           Zn  tau(   2) = (  0.1111111  0.3333333  0.0003168  )
         3           O   tau(   3) = (  0.2222222  0.1666667  0.4398382  )
         4           O   tau(   4) = (  0.1111111  0.3333333  0.1898382  )
         5           Zn  tau(   5) = (  0.2222222  0.1666667  0.7503168  )
         6           Zn  tau(   6) = (  0.1111111  0.3333333  0.5003168  )
         7           O   tau(   7) = (  0.2222222  0.1666667  0.9398382  )
         8           O   tau(   8) = (  0.1111111  0.3333333  0.6898382  )
         9           Zn  tau(   9) = (  0.2222222  0.6666667  0.2503168  )
        10           Zn  tau(  10) = (  0.1111111  0.8333333  0.0003168  )
        11           O   tau(  11) = (  0.2222222  0.6666667  0.4398382  )
        12           O   tau(  12) = (  0.1111111  0.8333333  0.1898382  )
        13           Zn  tau(  13) = (  0.2222222  0.6666667  0.7503168  )
        14           Zn  tau(  14) = (  0.1111111  0.8333333  0.5003168  )
        15           O   tau(  15) = (  0.2222222  0.6666667  0.9398382  )
        16           O   tau(  16) = (  0.1111111  0.8333333  0.6898382  )
        17           Zn  tau(  17) = (  0.5555556  0.1666667  0.2503168  )
        18           Zn  tau(  18) = (  0.4444444  0.3333333  0.0003168  )
        19           O   tau(  19) = (  0.5555556  0.1666667  0.4398382  )
        20           O   tau(  20) = (  0.4444444  0.3333333  0.1898382  )
        21           Zn  tau(  21) = (  0.5555556  0.1666667  0.7503168  )
        22           Zn  tau(  22) = (  0.4444444  0.3333333  0.5003168  )
        23           O   tau(  23) = (  0.5555556  0.1666667  0.9398382  )
        24           O   tau(  24) = (  0.4444444  0.3333333  0.6898382  )
        25           Zn  tau(  25) = (  0.5555556  0.6666667  0.2503168  )
        26           Zn  tau(  26) = (  0.4444444  0.8333333  0.0003168  )
        27           O   tau(  27) = (  0.5555556  0.6666667  0.4398382  )
        28           O   tau(  28) = (  0.4444444  0.8333333  0.1898382  )
        29           Zn  tau(  29) = (  0.5555556  0.6666667  0.7503168  )
        30           Zn  tau(  30) = (  0.4444444  0.8333333  0.5003168  )
        31           O   tau(  31) = (  0.5555556  0.6666667  0.9398382  )
        32           O   tau(  32) = (  0.4444444  0.8333333  0.6898382  )
        33           Zn  tau(  33) = (  0.8888889  0.1666667  0.2503168  )
        34           Zn  tau(  34) = (  0.7777778  0.3333333  0.0003168  )
        35           O   tau(  35) = (  0.8888889  0.1666667  0.4398382  )
        36           O   tau(  36) = (  0.7777778  0.3333333  0.1898382  )
        37           Zn  tau(  37) = (  0.8888889  0.1666667  0.7503168  )
        38           Zn  tau(  38) = (  0.7777778  0.3333333  0.5003168  )
        39           O   tau(  39) = (  0.8888889  0.1666667  0.9398382  )
        40           O   tau(  40) = (  0.7777778  0.3333333  0.6898382  )
        41           Zn  tau(  41) = (  0.8888889  0.6666667  0.2503168  )
        42           Zn  tau(  42) = (  0.7777778  0.8333333  0.0003168  )
        43           O   tau(  43) = (  0.8888889  0.6666667  0.4398382  )
        44           O   tau(  44) = (  0.7777778  0.8333333  0.1898382  )
        45           Zn  tau(  45) = (  0.8888889  0.6666667  0.7503168  )
[...]
     atom   41 type  1   force =    -0.00000001   -0.00000001    0.06271747
     atom   42 type  1   force =    -0.00000001   -0.00000002    0.06271747
     atom   43 type  2   force =    -0.00000001   -0.00000000   -0.06271747
     atom   44 type  2   force =    -0.00000000   -0.00000001   -0.06271747
     atom   45 type  1   force =    -0.00000001   -0.00000001    0.06271747
     atom   46 type  1   force =    -0.00000001   -0.00000002    0.06271747
     atom   47 type  2   force =    -0.00000001   -0.00000000   -0.06271747
     atom   48 type  2   force =    -0.00000000   -0.00000001   -0.06271747
     The local contribution  to forces
     atom    1 type  1   force =     0.00000163    0.00000008   -0.05828874
     atom    2 type  1   force =    -0.00000346    0.00000412   -0.05829214
     atom    3 type  2   force =     0.00000275    0.00000292    0.05697080
     atom    4 type  2   force =     0.00000057   -0.00000030    0.05697096
     atom    5 type  1   force =     0.00000401   -0.00000094   -0.05829296
     atom    6 type  1   force =    -0.00000022    0.00000128   -0.05828359
     atom    7 type  2   force =     0.00000374    0.00000213    0.05696454
     atom    8 type  2   force =     0.00000138    0.00000104    0.05696251
     atom    9 type  1   force =     0.00000030    0.00000132   -0.05828937
     atom   10 type  1   force =     0.00000463   -0.00000226   -0.05829303
     atom   11 type  2   force =     0.00000031   -0.00000017    0.05697039
     atom   12 type  2   force =     0.00000301    0.00000076    0.05696905
     atom   13 type  1   force =     0.00000195    0.00000380   -0.05828921
     atom   14 type  1   force =     0.00000364    0.00000106   -0.05828089
     atom   15 type  2   force =     0.00000168    0.00000074    0.05696695
     atom   16 type  2   force =     0.00000214    0.00000119    0.05696329
     atom   17 type  1   force =     0.00000153   -0.00000026   -0.05828724
     atom   18 type  1   force =     0.00000208    0.00000249   -0.05829426
     atom   19 type  2   force =    -0.00000225    0.00000137    0.05697163
     atom   20 type  2   force =    -0.00000101   -0.00000207    0.05696989
     atom   21 type  1   force =     0.00000124   -0.00000522   -0.05828843
     atom   22 type  1   force =     0.00000323   -0.00000278   -0.05828487
     atom   23 type  2   force =     0.00000195   -0.00000187    0.05696227
     atom   24 type  2   force =     0.00000010   -0.00000217    0.05696537
     atom   25 type  1   force =    -0.00000039    0.00000043   -0.05828685
     atom   26 type  1   force =     0.00000215    0.00000026   -0.05829734
     atom   27 type  2   force =    -0.00000057   -0.00000029    0.05697176
     atom   28 type  2   force =    -0.00000062   -0.00000073    0.05696871
     atom   29 type  1   force =    -0.00000402    0.00000464   -0.05828595
     atom   30 type  1   force =    -0.00000097    0.00000279   -0.05828306
     atom   31 type  2   force =    -0.00000243    0.00000109    0.05696445
     atom   32 type  2   force =     0.00000042    0.00000305    0.05696719
     atom   33 type  1   force =    -0.00000218   -0.00000072   -0.05828941
     atom   34 type  1   force =     0.00000181   -0.00000546   -0.05829374
     atom   35 type  2   force =    -0.00000094    0.00000245    0.05696950
     atom   36 type  2   force =     0.00000213   -0.00000171    0.05696685
     atom   37 type  1   force =    -0.00000404   -0.00000105   -0.05828715
     atom   38 type  1   force =    -0.00000175   -0.00000330   -0.05828467
     atom   39 type  2   force =    -0.00000420    0.00000079    0.05696758
     atom   40 type  2   force =    -0.00000188   -0.00000280    0.05696515
     atom   41 type  1   force =    -0.00000161   -0.00000228   -0.05828727
     atom   42 type  1   force =    -0.00000606    0.00000232   -0.05829259
     atom   43 type  2   force =    -0.00000148   -0.00000088    0.05697006
     atom   44 type  2   force =    -0.00000138    0.00000242    0.05697111
     atom   45 type  1   force =     0.00000167   -0.00000081   -0.05828855
     atom   46 type  1   force =    -0.00000321    0.00000096   -0.05828414
     atom   47 type  2   force =     0.00000028   -0.00000107    0.05696561
     atom   48 type  2   force =    -0.00000154    0.00000004    0.05696439
     The core correction contribution to forces
     atom    1 type  1   force =     0.00000003   -0.00000001    0.00046398
     atom    2 type  1   force =     0.00000011   -0.00000005    0.00046398
     atom    3 type  2   force =     0.00000001    0.00000002   -0.00006500
     atom    4 type  2   force =     0.00000001   -0.00000001   -0.00006496
     atom    5 type  1   force =     0.00000003    0.00000005    0.00046413
     atom    6 type  1   force =    -0.00000000    0.00000000    0.00046403
     atom    7 type  2   force =     0.00000002    0.00000001   -0.00006501
     atom    8 type  2   force =    -0.00000000   -0.00000001   -0.00006506
     atom    9 type  1   force =     0.00000002    0.00000008    0.00046396
     atom   10 type  1   force =    -0.00000006    0.00000008    0.00046398
     atom   11 type  2   force =    -0.00000001   -0.00000003   -0.00006501
     atom   12 type  2   force =    -0.00000000   -0.00000000   -0.00006498
     atom   13 type  1   force =     0.00000002   -0.00000004    0.00046402
     atom   14 type  1   force =    -0.00000004   -0.00000001    0.00046397
     atom   15 type  2   force =     0.00000000   -0.00000000   -0.00006498
     atom   16 type  2   force =    -0.00000000    0.00000001   -0.00006506
     atom   17 type  1   force =     0.00000003   -0.00000004    0.00046394
     atom   18 type  1   force =    -0.00000010   -0.00000006    0.00046402
     atom   19 type  2   force =    -0.00000001    0.00000001   -0.00006500
     atom   20 type  2   force =    -0.00000001   -0.00000002   -0.00006499
     atom   21 type  1   force =     0.00000001    0.00000002    0.00046398
     atom   22 type  1   force =    -0.00000000   -0.00000000    0.00046404
     atom   23 type  2   force =    -0.00000000   -0.00000000   -0.00006502
     atom   24 type  2   force =     0.00000001    0.00000000   -0.00006503
     atom   25 type  1   force =    -0.00000002   -0.00000002    0.00046399
     atom   26 type  1   force =    -0.00000000   -0.00000000    0.00046408
     atom   27 type  2   force =     0.00000000   -0.00000001   -0.00006499
     atom   28 type  2   force =    -0.00000001   -0.00000001   -0.00006499
     atom   29 type  1   force =     0.00000001    0.00000001    0.00046400
     atom   30 type  1   force =    -0.00000001   -0.00000002    0.00046400
     atom   31 type  2   force =     0.00000000   -0.00000001   -0.00006499
     atom   32 type  2   force =     0.00000000    0.00000002   -0.00006503
     atom   33 type  1   force =    -0.00000002   -0.00000004    0.00046397
     atom   34 type  1   force =     0.00000003    0.00000011    0.00046402
     atom   35 type  2   force =     0.00000001    0.00000003   -0.00006500
     atom   36 type  2   force =     0.00000002    0.00000001   -0.00006500
     atom   37 type  1   force =    -0.00000002    0.00000001    0.00046399
     atom   38 type  1   force =     0.00000003    0.00000004    0.00046404
     atom   39 type  2   force =    -0.00000001    0.00000000   -0.00006499
     atom   40 type  2   force =    -0.00000001   -0.00000001   -0.00006504
     atom   41 type  1   force =    -0.00000002    0.00000000    0.00046406
     atom   42 type  1   force =     0.00000008   -0.00000004    0.00046405
     atom   43 type  2   force =    -0.00000000   -0.00000000   -0.00006501
     atom   44 type  2   force =     0.00000001    0.00000001   -0.00006496
     atom   45 type  1   force =    -0.00000003   -0.00000003    0.00046415
     atom   46 type  1   force =     0.00000001   -0.00000001    0.00046403
     atom   47 type  2   force =    -0.00000001    0.00000001   -0.00006499
     atom   48 type  2   force =     0.00000001    0.00000000   -0.00006504
     The Hubbard contrib.    to forces
     atom    1 type  1   force =     0.00000000    0.00000000    0.00000000
     atom    2 type  1   force =     0.00000000    0.00000000    0.00000000
     atom    3 type  2   force =     0.00000000    0.00000000    0.00000000
     atom    4 type  2   force =     0.00000000    0.00000000    0.00000000
     atom    5 type  1   force =     0.00000000    0.00000000    0.00000000
     atom    6 type  1   force =     0.00000000    0.00000000    0.00000000
     atom    7 type  2   force =     0.00000000    0.00000000    0.00000000
     atom    8 type  2   force =     0.00000000    0.00000000    0.00000000
     atom    9 type  1   force =     0.00000000    0.00000000    0.00000000
     atom   10 type  1   force =     0.00000000    0.00000000    0.00000000
     atom   11 type  2   force =     0.00000000    0.00000000    0.00000000
     atom   12 type  2   force =     0.00000000    0.00000000    0.00000000
     atom   13 type  1   force =     0.00000000    0.00000000    0.00000000
     atom   14 type  1   force =     0.00000000    0.00000000    0.00000000
     atom   15 type  2   force =     0.00000000    0.00000000    0.00000000
     atom   16 type  2   force =     0.00000000    0.00000000    0.00000000
     atom   17 type  1   force =     0.00000000    0.00000000    0.00000000
     atom   18 type  1   force =     0.00000000    0.00000000    0.00000000
     atom   19 type  2   force =     0.00000000    0.00000000    0.00000000
     atom   20 type  2   force =     0.00000000    0.00000000    0.00000000
     atom   21 type  1   force =     0.00000000    0.00000000    0.00000000
     atom   22 type  1   force =     0.00000000    0.00000000    0.00000000
     atom   23 type  2   force =     0.00000000    0.00000000    0.00000000
     atom   24 type  2   force =     0.00000000    0.00000000    0.00000000
     atom   25 type  1   force =     0.00000000    0.00000000    0.00000000
     atom   26 type  1   force =     0.00000000    0.00000000    0.00000000
     atom   27 type  2   force =     0.00000000    0.00000000    0.00000000
     atom   28 type  2   force =     0.00000000    0.00000000    0.00000000
     atom   29 type  1   force =     0.00000000    0.00000000    0.00000000
     atom   30 type  1   force =     0.00000000    0.00000000    0.00000000
     atom   31 type  2   force =     0.00000000    0.00000000    0.00000000
     atom   32 type  2   force =     0.00000000    0.00000000    0.00000000
     atom   33 type  1   force =     0.00000000    0.00000000    0.00000000
     atom   34 type  1   force =     0.00000000    0.00000000    0.00000000
     atom   35 type  2   force =     0.00000000    0.00000000    0.00000000
     atom   36 type  2   force =     0.00000000    0.00000000    0.00000000
     atom   37 type  1   force =     0.00000000    0.00000000    0.00000000
     atom   38 type  1   force =     0.00000000    0.00000000    0.00000000
     atom   39 type  2   force =     0.00000000    0.00000000    0.00000000
     atom   40 type  2   force =     0.00000000    0.00000000    0.00000000
     atom   41 type  1   force =     0.00000000    0.00000000    0.00000000
     atom   42 type  1   force =     0.00000000    0.00000000    0.00000000
     atom   43 type  2   force =     0.00000000    0.00000000    0.00000000
     atom   44 type  2   force =     0.00000000    0.00000000    0.00000000
     atom   45 type  1   force =     0.00000000    0.00000000    0.00000000
     atom   46 type  1   force =     0.00000000    0.00000000    0.00000000
     atom   47 type  2   force =     0.00000000    0.00000000    0.00000000
     atom   48 type  2   force =     0.00000000    0.00000000    0.00000000
     The SCF correction term to forces
     atom    1 type  1   force =    -0.00000198   -0.00000221   -0.00000300
     atom    2 type  1   force =     0.00000621   -0.00000772    0.00000069
     atom    3 type  2   force =    -0.00000274   -0.00000179   -0.00000450
     atom    4 type  2   force =     0.00000042   -0.00000011   -0.00000299
     atom    5 type  1   force =    -0.00000589    0.00000001    0.00001067
     atom    6 type  1   force =     0.00000098   -0.00000148   -0.00000482
     atom    7 type  2   force =    -0.00000336   -0.00000148    0.00000215
     atom    8 type  2   force =    -0.00000162   -0.00000168    0.00000201
     atom    9 type  1   force =     0.00000058    0.00000126   -0.00000068
     atom   10 type  1   force =    -0.00000803    0.00000413    0.00000402
     atom   11 type  2   force =    -0.00000144   -0.00000127   -0.00000441
     atom   12 type  2   force =    -0.00000368   -0.00000110   -0.00000121
     atom   13 type  1   force =    -0.00000147   -0.00000441    0.00000350
     atom   14 type  1   force =    -0.00000613   -0.00000225   -0.00000946
     atom   15 type  2   force =    -0.00000128   -0.00000100    0.00000089
     atom   16 type  2   force =    -0.00000297   -0.00000083    0.00000061
     atom   17 type  1   force =    -0.00000096   -0.00000190   -0.00000387
     atom   18 type  1   force =    -0.00000370   -0.00000303    0.00000591
     atom   19 type  2   force =     0.00000284   -0.00000048   -0.00000561
     atom   20 type  2   force =     0.00000025    0.00000080   -0.00000305
     atom   21 type  1   force =    -0.00000250    0.00000578    0.00000146
     atom   22 type  1   force =    -0.00000322    0.00000485   -0.00000271
     atom   23 type  2   force =    -0.00000265    0.00000203    0.00000373
     atom   24 type  2   force =     0.00000025    0.00000291    0.00000012
     atom   25 type  1   force =    -0.00000125    0.00000011   -0.00000455
     atom   26 type  1   force =    -0.00000203   -0.00000110    0.00001230
     atom   27 type  2   force =     0.00000081   -0.00000031   -0.00000473
     atom   28 type  2   force =     0.00000010   -0.00000021   -0.00000186
     atom   29 type  1   force =     0.00000464   -0.00000624   -0.00000103
     atom   30 type  1   force =     0.00000089   -0.00000399   -0.00000314
     atom   31 type  2   force =     0.00000337   -0.00000228    0.00000347
     atom   32 type  2   force =    -0.00000019   -0.00000263   -0.00000195
     atom   33 type  1   force =     0.00000057    0.00000057   -0.00000134
     atom   34 type  1   force =    -0.00000106    0.00000953    0.00000623
     atom   35 type  2   force =     0.00000153   -0.00000097   -0.00000309
     atom   36 type  2   force =    -0.00000093    0.00000241    0.00000015
     atom   37 type  1   force =     0.00000470    0.00000161    0.00000136
     atom   38 type  1   force =     0.00000143    0.00000606   -0.00000225
     atom   39 type  2   force =     0.00000471   -0.00000106   -0.00000045
     atom   40 type  2   force =     0.00000195    0.00000215   -0.00000086
     atom   41 type  1   force =     0.00000236    0.00000272   -0.00000308
     atom   42 type  1   force =     0.00000981   -0.00000425    0.00000373
     atom   43 type  2   force =     0.00000100    0.00000077   -0.00000391
     atom   44 type  2   force =     0.00000269   -0.00000242   -0.00000249
     atom   45 type  1   force =    -0.00000214    0.00000104    0.00000398
     atom   46 type  1   force =     0.00000688   -0.00000272   -0.00000372
     atom   47 type  2   force =    -0.00000097    0.00000175    0.00000239
     atom   48 type  2   force =     0.00000259   -0.00000017    0.00000058

     Total force =     0.000430     Total SCF correction =     0.000042

     General routines

     Parallel routines

   This run was terminated on:   0:11:25   6Aug2025

   JOB DONE.
Note: The following floating-point exceptions are signalling: IEEE_INVALID_FLAG
Note: The following floating-point exceptions are signalling: IEEE_INVALID_FLAG
Note: The following floating-point exceptions are signalling: IEEE_DENORMAL
Note: The following floating-point exceptions are signalling: IEEE_DENORMAL
Note: The following floating-point exceptions are signalling: IEEE_DENORMAL
Note: The following floating-point exceptions are signalling: IEEE_DENORMAL
Note: The following floating-point exceptions are signalling: IEEE_DENORMAL
Note: The following floating-point exceptions are signalling: IEEE_INVALID_FLAG
Note: The following floating-point exceptions are signalling: IEEE_INVALID_FLAG
Note: The following floating-point exceptions are signalling: IEEE_INVALID_FLAG
Note: The following floating-point exceptions are signalling: IEEE_INVALID_FLAG
Note: The following floating-point exceptions are signalling: IEEE_INVALID_FLAG
Note: The following floating-point exceptions are signalling: IEEE_DENORMAL
Note: The following floating-point exceptions are signalling: IEEE_DENORMAL
Note: The following floating-point exceptions are signalling: IEEE_INVALID_FLAG
Note: The following floating-point exceptions are signalling: IEEE_DENORMAL