     Program PWSCF v.7.2 starts on  6Aug2025 at  4:29: 0

     Reading input from /home/jvc/QEspresso7.2/ZnO_database/scripts/cell322.in/ZnO-3.53-1.58-322.in
Warning: card &CELL ignored
Warning: card / ignored
Warning: card &FCP ignored
Warning: card / ignored
Warning: card &RISM ignored
Warning: card / ignored

     Current dimensions of program PWSCF are:
     Max number of different atomic species (ntypx) = 10
     Max number of k-points (npk) =  40000
     Max angular momentum in pseudopotentials (lmaxx) =  4
     file Zn.upf: wavefunction(s)  3D renormalized
     Found identity + (  0.0000  0.0000  0.5000) symmetry
     This is a supercell, fractional translations are disabled

     K-points division:     npool     =       8
     R & G space division:  proc/nbgrp/npool/nimage =       4
     Subspace diagonalization in iterative solution of the eigenvalue problem:
     one sub-group per band group will be used

     Using Slab Decomposition

     bravais-lattice index     =            0
     lattice parameter (alat)  =      18.5365  a.u.
     unit-cell volume          =    3957.5722 (a.u.)^3
     number of atoms/cell      =           48
     number of atomic types    =            2
     number of electrons       =       432.00
     number of Kohn-Sham states=          216
     kinetic-energy cutoff     =      50.0000  Ry
     charge density cutoff     =     400.0000  Ry
     scf convergence threshold =      1.0E-08
     mixing beta               =       0.3000
     number of iterations used =            8  plain     mixing
     Exchange-correlation= PBE
                           (   1   4   3   4   0   0   0)

     celldm(1)=  18.536466  celldm(2)=   0.000000  celldm(3)=   0.000000
     celldm(4)=   0.000000  celldm(5)=   0.000000  celldm(6)=   0.000000

     crystal axes: (cart. coord. in units of alat)
               a(1) = (   1.000000   0.000000   0.000000 )
               a(2) = (  -0.333333   0.577350   0.000000 )
               a(3) = (   0.000000   0.000000   1.076239 )

     reciprocal axes: (cart. coord. in units 2 pi/alat)
               b(1) = (  1.000000  0.577350 -0.000000 )
               b(2) = (  0.000000  1.732051  0.000000 )
               b(3) = (  0.000000 -0.000000  0.929162 )

     PseudoPot. # 1 for Zn read from file:
     /home/jvc/QEspresso7.2/ZnO_database/pseudos/Zn.upf
     MD5 check sum: 7f56cabf9682ed8c977c2f7d0c5985c5
     Pseudo is Ultrasoft + core correction, Zval = 12.0
     Generated using &quot;atomic&quot; code by A. Dal Corso  v.6.2.2
     Using radial grid of 1201 points,  6 beta functions with:
                l(1) =   0
                l(2) =   0
                l(3) =   1
                l(4) =   1
                l(5) =   2
                l(6) =   2
     Q(r) pseudized with 0 coefficients

     PseudoPot. # 2 for O  read from file:
     /home/jvc/QEspresso7.2/ZnO_database/pseudos/O.upf
     MD5 check sum: 91400c9766925bcf19f520983a725ff0
     Pseudo is Ultrasoft + core correction, Zval =  6.0
     Generated using &quot;atomic&quot; code by A. Dal Corso  v.6.3MaX
     Using radial grid of 1095 points,  4 beta functions with:
                l(1) =   0
                l(2) =   0
                l(3) =   1
                l(4) =   1
     Q(r) pseudized with 0 coefficients

     atomic species   valence    mass     pseudopotential
        Zn            12.00    65.38000     Zn( 1.00)
        O              6.00    15.99900     O ( 1.00)

     No symmetry found

                                    s                        frac. trans.

      isym =  1     identity

 cryst.   s( 1) = (     1          0          0      )
                  (     0          1          0      )
                  (     0          0          1      )

 cart.    s( 1) = (  1.0000000  0.0000000  0.0000000 )
                  (  0.0000000  1.0000000  0.0000000 )
                  (  0.0000000  0.0000000  1.0000000 )

   Cartesian axes

     site n.     atom                  positions (alat units)
         1           Zn  tau(   1) = (   0.1666667   0.0962250   0.2694007  )
         2           Zn  tau(   2) = (   0.0000000   0.1924501   0.0003409  )
         3           O   tau(   3) = (   0.1666667   0.0962250   0.4733710  )
         4           O   tau(   4) = (   0.0000000   0.1924501   0.2043113  )
         5           Zn  tau(   5) = (   0.1666667   0.0962250   0.8075201  )
         6           Zn  tau(   6) = (   0.0000000   0.1924501   0.5384604  )
         7           O   tau(   7) = (   0.1666667   0.0962250   1.0114904  )
         8           O   tau(   8) = (   0.0000000   0.1924501   0.7424307  )
         9           Zn  tau(   9) = (   0.0000000   0.3849002   0.2694007  )
        10           Zn  tau(  10) = (  -0.1666667   0.4811252   0.0003409  )
        11           O   tau(  11) = (   0.0000000   0.3849002   0.4733710  )
        12           O   tau(  12) = (  -0.1666667   0.4811252   0.2043113  )
        13           Zn  tau(  13) = (   0.0000000   0.3849002   0.8075201  )
        14           Zn  tau(  14) = (  -0.1666667   0.4811252   0.5384604  )
        15           O   tau(  15) = (   0.0000000   0.3849002   1.0114904  )
        16           O   tau(  16) = (  -0.1666667   0.4811252   0.7424307  )
        17           Zn  tau(  17) = (   0.5000000   0.0962250   0.2694007  )
        18           Zn  tau(  18) = (   0.3333333   0.1924501   0.0003409  )
        19           O   tau(  19) = (   0.5000000   0.0962250   0.4733710  )
        20           O   tau(  20) = (   0.3333333   0.1924501   0.2043113  )
        21           Zn  tau(  21) = (   0.5000000   0.0962250   0.8075201  )
        22           Zn  tau(  22) = (   0.3333333   0.1924501   0.5384604  )
        23           O   tau(  23) = (   0.5000000   0.0962250   1.0114904  )
        24           O   tau(  24) = (   0.3333333   0.1924501   0.7424307  )
        25           Zn  tau(  25) = (   0.3333333   0.3849002   0.2694007  )
        26           Zn  tau(  26) = (   0.1666667   0.4811252   0.0003409  )
        27           O   tau(  27) = (   0.3333333   0.3849002   0.4733710  )
        28           O   tau(  28) = (   0.1666667   0.4811252   0.2043113  )
        29           Zn  tau(  29) = (   0.3333333   0.3849002   0.8075201  )
        30           Zn  tau(  30) = (   0.1666667   0.4811252   0.5384604  )
        31           O   tau(  31) = (   0.3333333   0.3849002   1.0114904  )
        32           O   tau(  32) = (   0.1666667   0.4811252   0.7424307  )
        33           Zn  tau(  33) = (   0.8333333   0.0962250   0.2694007  )
        34           Zn  tau(  34) = (   0.6666667   0.1924501   0.0003409  )
        35           O   tau(  35) = (   0.8333333   0.0962250   0.4733710  )
        36           O   tau(  36) = (   0.6666667   0.1924501   0.2043113  )
        37           Zn  tau(  37) = (   0.8333333   0.0962250   0.8075201  )
        38           Zn  tau(  38) = (   0.6666667   0.1924501   0.5384604  )
        39           O   tau(  39) = (   0.8333333   0.0962250   1.0114904  )
        40           O   tau(  40) = (   0.6666667   0.1924501   0.7424307  )
        41           Zn  tau(  41) = (   0.6666667   0.3849002   0.2694007  )
        42           Zn  tau(  42) = (   0.5000000   0.4811252   0.0003409  )
        43           O   tau(  43) = (   0.6666667   0.3849002   0.4733710  )
        44           O   tau(  44) = (   0.5000000   0.4811252   0.2043113  )
        45           Zn  tau(  45) = (   0.6666667   0.3849002   0.8075201  )
        46           Zn  tau(  46) = (   0.5000000   0.4811252   0.5384604  )
        47           O   tau(  47) = (   0.6666667   0.3849002   1.0114904  )
        48           O   tau(  48) = (   0.5000000   0.4811252   0.7424307  )

   Crystallographic axes

     site n.     atom                  positions (cryst. coord.)
         1           Zn  tau(   1) = (  0.2222222  0.1666667  0.2503168  )
         2           Zn  tau(   2) = (  0.1111111  0.3333333  0.0003168  )
         3           O   tau(   3) = (  0.2222222  0.1666667  0.4398382  )
         4           O   tau(   4) = (  0.1111111  0.3333333  0.1898382  )
         5           Zn  tau(   5) = (  0.2222222  0.1666667  0.7503168  )
         6           Zn  tau(   6) = (  0.1111111  0.3333333  0.5003168  )
         7           O   tau(   7) = (  0.2222222  0.1666667  0.9398382  )
         8           O   tau(   8) = (  0.1111111  0.3333333  0.6898382  )
         9           Zn  tau(   9) = (  0.2222222  0.6666667  0.2503168  )
        10           Zn  tau(  10) = (  0.1111111  0.8333333  0.0003168  )
        11           O   tau(  11) = (  0.2222222  0.6666667  0.4398382  )
        12           O   tau(  12) = (  0.1111111  0.8333333  0.1898382  )
        13           Zn  tau(  13) = (  0.2222222  0.6666667  0.7503168  )
        14           Zn  tau(  14) = (  0.1111111  0.8333333  0.5003168  )
        15           O   tau(  15) = (  0.2222222  0.6666667  0.9398382  )
        16           O   tau(  16) = (  0.1111111  0.8333333  0.6898382  )
        17           Zn  tau(  17) = (  0.5555556  0.1666667  0.2503168  )
        18           Zn  tau(  18) = (  0.4444444  0.3333333  0.0003168  )
        19           O   tau(  19) = (  0.5555556  0.1666667  0.4398382  )
        20           O   tau(  20) = (  0.4444444  0.3333333  0.1898382  )
        21           Zn  tau(  21) = (  0.5555556  0.1666667  0.7503168  )
        22           Zn  tau(  22) = (  0.4444444  0.3333333  0.5003168  )
        23           O   tau(  23) = (  0.5555556  0.1666667  0.9398382  )
        24           O   tau(  24) = (  0.4444444  0.3333333  0.6898382  )
        25           Zn  tau(  25) = (  0.5555556  0.6666667  0.2503168  )
        26           Zn  tau(  26) = (  0.4444444  0.8333333  0.0003168  )
        27           O   tau(  27) = (  0.5555556  0.6666667  0.4398382  )
        28           O   tau(  28) = (  0.4444444  0.8333333  0.1898382  )
        29           Zn  tau(  29) = (  0.5555556  0.6666667  0.7503168  )
        30           Zn  tau(  30) = (  0.4444444  0.8333333  0.5003168  )
        31           O   tau(  31) = (  0.5555556  0.6666667  0.9398382  )
        32           O   tau(  32) = (  0.4444444  0.8333333  0.6898382  )
        33           Zn  tau(  33) = (  0.8888889  0.1666667  0.2503168  )
        34           Zn  tau(  34) = (  0.7777778  0.3333333  0.0003168  )
        35           O   tau(  35) = (  0.8888889  0.1666667  0.4398382  )
        36           O   tau(  36) = (  0.7777778  0.3333333  0.1898382  )
        37           Zn  tau(  37) = (  0.8888889  0.1666667  0.7503168  )
        38           Zn  tau(  38) = (  0.7777778  0.3333333  0.5003168  )
        39           O   tau(  39) = (  0.8888889  0.1666667  0.9398382  )
        40           O   tau(  40) = (  0.7777778  0.3333333  0.6898382  )
        41           Zn  tau(  41) = (  0.8888889  0.6666667  0.2503168  )
        42           Zn  tau(  42) = (  0.7777778  0.8333333  0.0003168  )
        43           O   tau(  43) = (  0.8888889  0.6666667  0.4398382  )
        44           O   tau(  44) = (  0.7777778  0.8333333  0.1898382  )
        45           Zn  tau(  45) = (  0.8888889  0.6666667  0.7503168  )
[...]
     atom   41 type  1   force =    -0.00000001   -0.00000001    0.06271747
     atom   42 type  1   force =    -0.00000001   -0.00000002    0.06271747
     atom   43 type  2   force =    -0.00000001   -0.00000000   -0.06271747
     atom   44 type  2   force =    -0.00000000   -0.00000001   -0.06271747
     atom   45 type  1   force =    -0.00000001   -0.00000001    0.06271747
     atom   46 type  1   force =    -0.00000001   -0.00000002    0.06271747
     atom   47 type  2   force =    -0.00000001   -0.00000000   -0.06271747
     atom   48 type  2   force =    -0.00000000   -0.00000001   -0.06271747
     The local contribution  to forces
     atom    1 type  1   force =     0.00000151    0.00000011   -0.05828877
     atom    2 type  1   force =    -0.00000354    0.00000426   -0.05829200
     atom    3 type  2   force =     0.00000275    0.00000291    0.05697079
     atom    4 type  2   force =     0.00000049   -0.00000028    0.05697094
     atom    5 type  1   force =     0.00000391   -0.00000100   -0.05829315
     atom    6 type  1   force =    -0.00000028    0.00000128   -0.05828361
     atom    7 type  2   force =     0.00000365    0.00000224    0.05696458
     atom    8 type  2   force =     0.00000137    0.00000108    0.05696255
     atom    9 type  1   force =     0.00000022    0.00000121   -0.05828940
     atom   10 type  1   force =     0.00000456   -0.00000224   -0.05829294
     atom   11 type  2   force =     0.00000028   -0.00000021    0.05697041
     atom   12 type  2   force =     0.00000305    0.00000073    0.05696904
     atom   13 type  1   force =     0.00000180    0.00000379   -0.05828932
     atom   14 type  1   force =     0.00000372    0.00000120   -0.05828082
     atom   15 type  2   force =     0.00000165    0.00000065    0.05696696
     atom   16 type  2   force =     0.00000215    0.00000113    0.05696330
     atom   17 type  1   force =     0.00000157   -0.00000026   -0.05828713
     atom   18 type  1   force =     0.00000221    0.00000260   -0.05829419
     atom   19 type  2   force =    -0.00000228    0.00000144    0.05697157
     atom   20 type  2   force =    -0.00000098   -0.00000210    0.05696984
     atom   21 type  1   force =     0.00000129   -0.00000518   -0.05828845
     atom   22 type  1   force =     0.00000328   -0.00000276   -0.05828490
     atom   23 type  2   force =     0.00000196   -0.00000183    0.05696226
     atom   24 type  2   force =     0.00000009   -0.00000216    0.05696530
     atom   25 type  1   force =    -0.00000028    0.00000039   -0.05828685
     atom   26 type  1   force =     0.00000228    0.00000032   -0.05829733
     atom   27 type  2   force =    -0.00000059   -0.00000023    0.05697171
     atom   28 type  2   force =    -0.00000052   -0.00000094    0.05696871
     atom   29 type  1   force =    -0.00000393    0.00000458   -0.05828598
     atom   30 type  1   force =    -0.00000089    0.00000286   -0.05828315
     atom   31 type  2   force =    -0.00000252    0.00000125    0.05696444
     atom   32 type  2   force =     0.00000044    0.00000295    0.05696713
     atom   33 type  1   force =    -0.00000210   -0.00000072   -0.05828931
     atom   34 type  1   force =     0.00000181   -0.00000549   -0.05829378
     atom   35 type  2   force =    -0.00000099    0.00000238    0.05696954
     atom   36 type  2   force =     0.00000204   -0.00000158    0.05696691
     atom   37 type  1   force =    -0.00000395   -0.00000105   -0.05828717
     atom   38 type  1   force =    -0.00000171   -0.00000332   -0.05828470
     atom   39 type  2   force =    -0.00000414    0.00000057    0.05696766
     atom   40 type  2   force =    -0.00000190   -0.00000267    0.05696520
     atom   41 type  1   force =    -0.00000171   -0.00000224   -0.05828728
     atom   42 type  1   force =    -0.00000605    0.00000219   -0.05829252
     atom   43 type  2   force =    -0.00000142   -0.00000104    0.05697014
     atom   44 type  2   force =    -0.00000143    0.00000253    0.05697123
     atom   45 type  1   force =     0.00000162   -0.00000069   -0.05828864
     atom   46 type  1   force =    -0.00000321    0.00000094   -0.05828420
     atom   47 type  2   force =     0.00000032   -0.00000127    0.05696563
     atom   48 type  2   force =    -0.00000152    0.00000019    0.05696439
     The core correction contribution to forces
     atom    1 type  1   force =     0.00000003   -0.00000001    0.00046398
     atom    2 type  1   force =     0.00000011   -0.00000004    0.00046398
     atom    3 type  2   force =     0.00000001    0.00000002   -0.00006500
     atom    4 type  2   force =     0.00000001   -0.00000001   -0.00006496
     atom    5 type  1   force =     0.00000002    0.00000005    0.00046413
     atom    6 type  1   force =     0.00000000    0.00000001    0.00046403
     atom    7 type  2   force =     0.00000002    0.00000002   -0.00006501
     atom    8 type  2   force =    -0.00000000   -0.00000001   -0.00006506
     atom    9 type  1   force =     0.00000002    0.00000008    0.00046396
     atom   10 type  1   force =    -0.00000006    0.00000009    0.00046398
     atom   11 type  2   force =    -0.00000001   -0.00000003   -0.00006501
     atom   12 type  2   force =    -0.00000000   -0.00000000   -0.00006498
     atom   13 type  1   force =     0.00000002   -0.00000003    0.00046402
     atom   14 type  1   force =    -0.00000003   -0.00000001    0.00046397
     atom   15 type  2   force =     0.00000000   -0.00000001   -0.00006498
     atom   16 type  2   force =    -0.00000000    0.00000001   -0.00006506
     atom   17 type  1   force =     0.00000003   -0.00000004    0.00046394
     atom   18 type  1   force =    -0.00000010   -0.00000006    0.00046402
     atom   19 type  2   force =    -0.00000001    0.00000001   -0.00006500
     atom   20 type  2   force =    -0.00000001   -0.00000002   -0.00006499
     atom   21 type  1   force =     0.00000001    0.00000002    0.00046397
     atom   22 type  1   force =    -0.00000001   -0.00000000    0.00046404
     atom   23 type  2   force =    -0.00000000   -0.00000000   -0.00006502
     atom   24 type  2   force =     0.00000001    0.00000000   -0.00006503
     atom   25 type  1   force =    -0.00000002   -0.00000002    0.00046399
     atom   26 type  1   force =    -0.00000000   -0.00000001    0.00046408
     atom   27 type  2   force =     0.00000000   -0.00000001   -0.00006499
     atom   28 type  2   force =    -0.00000001   -0.00000002   -0.00006499
     atom   29 type  1   force =     0.00000001    0.00000001    0.00046400
     atom   30 type  1   force =    -0.00000001   -0.00000002    0.00046400
     atom   31 type  2   force =     0.00000000   -0.00000001   -0.00006499
     atom   32 type  2   force =     0.00000000    0.00000002   -0.00006503
     atom   33 type  1   force =    -0.00000002   -0.00000004    0.00046397
     atom   34 type  1   force =     0.00000004    0.00000011    0.00046402
     atom   35 type  2   force =     0.00000001    0.00000003   -0.00006500
     atom   36 type  2   force =     0.00000002    0.00000001   -0.00006500
     atom   37 type  1   force =    -0.00000002    0.00000001    0.00046400
     atom   38 type  1   force =     0.00000003    0.00000004    0.00046404
     atom   39 type  2   force =    -0.00000001   -0.00000000   -0.00006499
     atom   40 type  2   force =    -0.00000001   -0.00000001   -0.00006504
     atom   41 type  1   force =    -0.00000002    0.00000000    0.00046406
     atom   42 type  1   force =     0.00000008   -0.00000005    0.00046406
     atom   43 type  2   force =    -0.00000000   -0.00000001   -0.00006501
     atom   44 type  2   force =     0.00000001    0.00000001   -0.00006496
     atom   45 type  1   force =    -0.00000003   -0.00000003    0.00046415
     atom   46 type  1   force =     0.00000001   -0.00000001    0.00046403
     atom   47 type  2   force =    -0.00000000    0.00000001   -0.00006499
     atom   48 type  2   force =     0.00000001    0.00000000   -0.00006504
     The Hubbard contrib.    to forces
     atom    1 type  1   force =     0.00000000    0.00000000    0.00000000
     atom    2 type  1   force =     0.00000000    0.00000000    0.00000000
     atom    3 type  2   force =     0.00000000    0.00000000    0.00000000
     atom    4 type  2   force =     0.00000000    0.00000000    0.00000000
     atom    5 type  1   force =     0.00000000    0.00000000    0.00000000
     atom    6 type  1   force =     0.00000000    0.00000000    0.00000000
     atom    7 type  2   force =     0.00000000    0.00000000    0.00000000
     atom    8 type  2   force =     0.00000000    0.00000000    0.00000000
     atom    9 type  1   force =     0.00000000    0.00000000    0.00000000
     atom   10 type  1   force =     0.00000000    0.00000000    0.00000000
     atom   11 type  2   force =     0.00000000    0.00000000    0.00000000
     atom   12 type  2   force =     0.00000000    0.00000000    0.00000000
     atom   13 type  1   force =     0.00000000    0.00000000    0.00000000
     atom   14 type  1   force =     0.00000000    0.00000000    0.00000000
     atom   15 type  2   force =     0.00000000    0.00000000    0.00000000
     atom   16 type  2   force =     0.00000000    0.00000000    0.00000000
     atom   17 type  1   force =     0.00000000    0.00000000    0.00000000
     atom   18 type  1   force =     0.00000000    0.00000000    0.00000000
     atom   19 type  2   force =     0.00000000    0.00000000    0.00000000
     atom   20 type  2   force =     0.00000000    0.00000000    0.00000000
     atom   21 type  1   force =     0.00000000    0.00000000    0.00000000
     atom   22 type  1   force =     0.00000000    0.00000000    0.00000000
     atom   23 type  2   force =     0.00000000    0.00000000    0.00000000
     atom   24 type  2   force =     0.00000000    0.00000000    0.00000000
     atom   25 type  1   force =     0.00000000    0.00000000    0.00000000
     atom   26 type  1   force =     0.00000000    0.00000000    0.00000000
     atom   27 type  2   force =     0.00000000    0.00000000    0.00000000
     atom   28 type  2   force =     0.00000000    0.00000000    0.00000000
     atom   29 type  1   force =     0.00000000    0.00000000    0.00000000
     atom   30 type  1   force =     0.00000000    0.00000000    0.00000000
     atom   31 type  2   force =     0.00000000    0.00000000    0.00000000
     atom   32 type  2   force =     0.00000000    0.00000000    0.00000000
     atom   33 type  1   force =     0.00000000    0.00000000    0.00000000
     atom   34 type  1   force =     0.00000000    0.00000000    0.00000000
     atom   35 type  2   force =     0.00000000    0.00000000    0.00000000
     atom   36 type  2   force =     0.00000000    0.00000000    0.00000000
     atom   37 type  1   force =     0.00000000    0.00000000    0.00000000
     atom   38 type  1   force =     0.00000000    0.00000000    0.00000000
     atom   39 type  2   force =     0.00000000    0.00000000    0.00000000
     atom   40 type  2   force =     0.00000000    0.00000000    0.00000000
     atom   41 type  1   force =     0.00000000    0.00000000    0.00000000
     atom   42 type  1   force =     0.00000000    0.00000000    0.00000000
     atom   43 type  2   force =     0.00000000    0.00000000    0.00000000
     atom   44 type  2   force =     0.00000000    0.00000000    0.00000000
     atom   45 type  1   force =     0.00000000    0.00000000    0.00000000
     atom   46 type  1   force =     0.00000000    0.00000000    0.00000000
     atom   47 type  2   force =     0.00000000    0.00000000    0.00000000
     atom   48 type  2   force =     0.00000000    0.00000000    0.00000000
     The SCF correction term to forces
     atom    1 type  1   force =    -0.00000186   -0.00000224   -0.00000297
     atom    2 type  1   force =     0.00000628   -0.00000780    0.00000055
     atom    3 type  2   force =    -0.00000272   -0.00000178   -0.00000452
     atom    4 type  2   force =     0.00000044   -0.00000011   -0.00000298
     atom    5 type  1   force =    -0.00000580    0.00000007    0.00001085
     atom    6 type  1   force =     0.00000104   -0.00000146   -0.00000481
     atom    7 type  2   force =    -0.00000330   -0.00000150    0.00000211
     atom    8 type  2   force =    -0.00000161   -0.00000166    0.00000204
     atom    9 type  1   force =     0.00000066    0.00000137   -0.00000065
     atom   10 type  1   force =    -0.00000795    0.00000414    0.00000392
     atom   11 type  2   force =    -0.00000142   -0.00000124   -0.00000442
     atom   12 type  2   force =    -0.00000366   -0.00000109   -0.00000120
     atom   13 type  1   force =    -0.00000133   -0.00000439    0.00000362
     atom   14 type  1   force =    -0.00000618   -0.00000235   -0.00000953
     atom   15 type  2   force =    -0.00000123   -0.00000093    0.00000085
     atom   16 type  2   force =    -0.00000295   -0.00000082    0.00000063
     atom   17 type  1   force =    -0.00000098   -0.00000192   -0.00000397
     atom   18 type  1   force =    -0.00000383   -0.00000312    0.00000584
     atom   19 type  2   force =     0.00000283   -0.00000051   -0.00000559
     atom   20 type  2   force =     0.00000023    0.00000078   -0.00000304
     atom   21 type  1   force =    -0.00000254    0.00000572    0.00000146
     atom   22 type  1   force =    -0.00000326    0.00000483   -0.00000268
     atom   23 type  2   force =    -0.00000267    0.00000200    0.00000372
     atom   24 type  2   force =     0.00000025    0.00000289    0.00000016
     atom   25 type  1   force =    -0.00000136    0.00000014   -0.00000457
     atom   26 type  1   force =    -0.00000216   -0.00000116    0.00001229
     atom   27 type  2   force =     0.00000079   -0.00000032   -0.00000471
     atom   28 type  2   force =     0.00000006   -0.00000017   -0.00000189
     atom   29 type  1   force =     0.00000455   -0.00000618   -0.00000101
     atom   30 type  1   force =     0.00000081   -0.00000404   -0.00000305
     atom   31 type  2   force =     0.00000334   -0.00000231    0.00000345
     atom   32 type  2   force =    -0.00000021   -0.00000260   -0.00000191
     atom   33 type  1   force =     0.00000049    0.00000057   -0.00000142
     atom   34 type  1   force =    -0.00000105    0.00000956    0.00000626
     atom   35 type  2   force =     0.00000152   -0.00000096   -0.00000310
     atom   36 type  2   force =    -0.00000090    0.00000237    0.00000011
     atom   37 type  1   force =     0.00000462    0.00000161    0.00000138
     atom   38 type  1   force =     0.00000140    0.00000609   -0.00000222
     atom   39 type  2   force =     0.00000469   -0.00000102   -0.00000048
     atom   40 type  2   force =     0.00000195    0.00000211   -0.00000083
     atom   41 type  1   force =     0.00000243    0.00000267   -0.00000308
     atom   42 type  1   force =     0.00000981   -0.00000415    0.00000367
     atom   43 type  2   force =     0.00000101    0.00000082   -0.00000392
     atom   44 type  2   force =     0.00000269   -0.00000243   -0.00000253
     atom   45 type  1   force =    -0.00000211    0.00000094    0.00000405
     atom   46 type  1   force =     0.00000689   -0.00000271   -0.00000367
     atom   47 type  2   force =    -0.00000096    0.00000178    0.00000237
     atom   48 type  2   force =     0.00000256   -0.00000019    0.00000058

     Total force =     0.000430     Total SCF correction =     0.000042

     General routines

     Parallel routines

   This run was terminated on:   4:52:19   6Aug2025

   JOB DONE.
Note: The following floating-point exceptions are signalling: IEEE_DENORMAL
Note: The following floating-point exceptions are signalling: IEEE_INVALID_FLAG
Note: The following floating-point exceptions are signalling: IEEE_DENORMAL
Note: The following floating-point exceptions are signalling: IEEE_DENORMAL
Note: The following floating-point exceptions are signalling: IEEE_INVALID_FLAG
Note: The following floating-point exceptions are signalling: IEEE_DENORMAL
Note: The following floating-point exceptions are signalling: IEEE_DENORMAL
Note: The following floating-point exceptions are signalling: IEEE_INVALID_FLAG
Note: The following floating-point exceptions are signalling: IEEE_DENORMAL
Note: The following floating-point exceptions are signalling: IEEE_INVALID_FLAG
Note: The following floating-point exceptions are signalling: IEEE_DENORMAL
Note: The following floating-point exceptions are signalling: IEEE_DENORMAL
Note: The following floating-point exceptions are signalling: IEEE_INVALID_FLAG
Note: The following floating-point exceptions are signalling: IEEE_INVALID_FLAG
Note: The following floating-point exceptions are signalling: IEEE_INVALID_FLAG
Note: The following floating-point exceptions are signalling: IEEE_INVALID_FLAG