     Program PWSCF v.7.0 starts on 27Aug2025 at  1:10: 2

     K-points division:     npool     =       4
     band groups division:  nbgrp     =       4

     Reading input from /home/jvc/QEspresso7.2/ZnO_database/scripts/cell211.in/ZnO-3.53-1.74-211.in
Warning: card &CELL ignored
Warning: card / ignored
Warning: card &FCP ignored
Warning: card / ignored
Warning: card &RISM ignored
Warning: card / ignored

     Current dimensions of program PWSCF are:
     Max number of different atomic species (ntypx) = 10
     Max number of k-points (npk) =  40000
     Max angular momentum in pseudopotentials (lmaxx) =  4
     file Zn.upf: wavefunction(s)  3D renormalized
     Found identity + ( -0.5000  0.0000  0.0000) symmetry
     This is a supercell, fractional translations are disabled
     Message from routine setup:
     using ibrav=0 with symmetry is DISCOURAGED, use correct ibrav instead

     Subspace diagonalization in iterative solution of the eigenvalue problem:
     a serial algorithm will be used

     Using Slab Decomposition

     bravais-lattice index     =            0
     lattice parameter (alat)  =      13.3463  a.u.
     unit-cell volume          =     897.3862 (a.u.)^3
     number of atoms/cell      =            8
     number of atomic types    =            2
     number of electrons       =        72.00
     number of Kohn-Sham states=           36
     kinetic-energy cutoff     =      50.0000  Ry
     charge density cutoff     =     400.0000  Ry
     scf convergence threshold =      1.0E-08
     mixing beta               =       0.3000
     number of iterations used =            8  plain     mixing
     Exchange-correlation= PBE
                           (   1   4   3   4   0   0   0)

     celldm(1)=  13.346325  celldm(2)=   0.000000  celldm(3)=   0.000000
     celldm(4)=   0.000000  celldm(5)=   0.000000  celldm(6)=   0.000000

     crystal axes: (cart. coord. in units of alat)
               a(1) = (   1.000000   0.000000   0.000000 )
               a(2) = (  -0.250000   0.433013   0.000000 )
               a(3) = (   0.000000   0.000000   0.871754 )

     reciprocal axes: (cart. coord. in units 2 pi/alat)
               b(1) = (  1.000000  0.577350 -0.000000 )
               b(2) = (  0.000000  2.309401  0.000000 )
               b(3) = (  0.000000 -0.000000  1.147113 )

     PseudoPot. # 1 for Zn read from file:
     /home/jvc/QEspresso7.2/ZnO_database/pseudos/Zn.upf
     MD5 check sum: 7f56cabf9682ed8c977c2f7d0c5985c5
     Pseudo is Ultrasoft + core correction, Zval = 12.0
     Generated using &quot;atomic&quot; code by A. Dal Corso  v.6.2.2
     Using radial grid of 1201 points,  6 beta functions with:
                l(1) =   0
                l(2) =   0
                l(3) =   1
                l(4) =   1
                l(5) =   2
                l(6) =   2
     Q(r) pseudized with 0 coefficients

     PseudoPot. # 2 for O  read from file:
     /home/jvc/QEspresso7.2/ZnO_database/pseudos/O.upf
     MD5 check sum: 91400c9766925bcf19f520983a725ff0
     Pseudo is Ultrasoft + core correction, Zval =  6.0
     Generated using &quot;atomic&quot; code by A. Dal Corso  v.6.3MaX
     Using radial grid of 1095 points,  4 beta functions with:
                l(1) =   0
                l(2) =   0
                l(3) =   1
                l(4) =   1
     Q(r) pseudized with 0 coefficients

     atomic species   valence    mass     pseudopotential
        Zn            12.00    65.38000     Zn( 1.00)
        O              6.00    15.99900     O ( 1.00)

      2 Sym. Ops. (no inversion) found

                                    s                        frac. trans.

      isym =  1     identity

 cryst.   s( 1) = (     1          0          0      )
                  (     0          1          0      )
                  (     0          0          1      )

 cart.    s( 1) = (  1.0000000 -0.0000000  0.0000000 )
                  (  0.0000000  1.0000000  0.0000000 )
                  (  0.0000000  0.0000000  1.0000000 )

      isym =  2     inv. 180 deg rotation - cryst. axis [0,1,0]

 cryst.   s( 2) = (     1          2          0      )
                  (     0         -1          0      )
                  (     0          0          1      )

 cart.    s( 2) = (  0.5000000  0.8660254  0.0000000 )
                  (  0.8660254 -0.5000000  0.0000000 )
                  (  0.0000000  0.0000000  1.0000000 )

   Cartesian axes

     site n.     atom                  positions (alat units)
         1           Zn  tau(   1) = (   0.2500000   0.1443376   0.4364291  )
         2           Zn  tau(   2) = (  -0.0000000   0.2886751   0.0005523  )
         3           O   tau(   3) = (   0.2500000   0.1443376   0.7668610  )
         4           O   tau(   4) = (  -0.0000000   0.2886751   0.3309842  )
         5           Zn  tau(   5) = (   0.7500000   0.1443376   0.4364291  )
         6           Zn  tau(   6) = (   0.5000000   0.2886751   0.0005523  )
         7           O   tau(   7) = (   0.7500000   0.1443376   0.7668610  )
         8           O   tau(   8) = (   0.5000000   0.2886751   0.3309842  )

   Crystallographic axes

     site n.     atom                  positions (cryst. coord.)
         1           Zn  tau(   1) = (  0.3333333  0.3333333  0.5006336  )
         2           Zn  tau(   2) = (  0.1666667  0.6666667  0.0006336  )
         3           O   tau(   3) = (  0.3333333  0.3333333  0.8796764  )
         4           O   tau(   4) = (  0.1666667  0.6666667  0.3796764  )
         5           Zn  tau(   5) = (  0.8333333  0.3333333  0.5006336  )
         6           Zn  tau(   6) = (  0.6666667  0.6666667  0.0006336  )
         7           O   tau(   7) = (  0.8333333  0.3333333  0.8796764  )
         8           O   tau(   8) = (  0.6666667  0.6666667  0.3796764  )

     number of k points=    80
                       cart. coord. in units 2pi/alat
        k(    1) = (   0.0000000   0.0000000   0.0000000), wk =   0.0092593
        k(    2) = (   0.0000000   0.0000000   0.1911855), wk =   0.0185185
        k(    3) = (   0.0000000   0.0000000   0.3823711), wk =   0.0185185
        k(    4) = (   0.0000000   0.0000000  -0.5735566), wk =   0.0092593
        k(    5) = (   0.0000000   0.3849002   0.0000000), wk =   0.0370370
        k(    6) = (   0.0000000   0.3849002   0.1911855), wk =   0.0370370
        k(    7) = (   0.0000000   0.3849002   0.3823711), wk =   0.0370370
        k(    8) = (   0.0000000   0.3849002  -0.5735566), wk =   0.0370370
        k(    9) = (   0.0000000   0.7698004   0.0000000), wk =   0.0370370
        k(   10) = (   0.0000000   0.7698004   0.1911855), wk =   0.0370370
        k(   11) = (   0.0000000   0.7698004   0.3823711), wk =   0.0370370
        k(   12) = (   0.0000000   0.7698004  -0.5735566), wk =   0.0370370
        k(   13) = (   0.0000000  -1.1547005   0.0000000), wk =   0.0092593
        k(   14) = (   0.0000000  -1.1547005   0.1911855), wk =   0.0185185
        k(   15) = (   0.0000000  -1.1547005   0.3823711), wk =   0.0185185
        k(   16) = (   0.0000000  -1.1547005  -0.5735566), wk =   0.0092593
        k(   17) = (   0.1666667   0.0962250   0.0000000), wk =   0.0185185
        k(   18) = (   0.1666667   0.0962250   0.1911855), wk =   0.0185185
        k(   19) = (   0.1666667   0.0962250   0.3823711), wk =   0.0185185
        k(   20) = (   0.1666667   0.0962250  -0.5735566), wk =   0.0185185
        k(   21) = (   0.1666667   0.4811252   0.0000000), wk =   0.0370370
        k(   22) = (   0.1666667   0.4811252   0.1911855), wk =   0.0370370
        k(   23) = (   0.1666667   0.4811252   0.3823711), wk =   0.0370370
        k(   24) = (   0.1666667   0.4811252  -0.5735566), wk =   0.0370370
        k(   25) = (   0.1666667   0.8660254   0.0000000), wk =   0.0185185
        k(   26) = (   0.1666667   0.8660254   0.1911855), wk =   0.0370370
        k(   27) = (   0.1666667   0.8660254   0.3823711), wk =   0.0370370
        k(   28) = (   0.1666667   0.8660254  -0.5735566), wk =   0.0185185
        k(   29) = (   0.1666667  -1.0584755   0.0000000), wk =   0.0185185
        k(   30) = (   0.1666667  -1.0584755   0.1911855), wk =   0.0185185
        k(   31) = (   0.1666667  -1.0584755   0.3823711), wk =   0.0185185
        k(   32) = (   0.1666667  -1.0584755  -0.5735566), wk =   0.0185185
        k(   33) = (   0.1666667  -0.6735753   0.0000000), wk =   0.0370370
        k(   34) = (   0.1666667  -0.6735753   0.1911855), wk =   0.0370370
        k(   35) = (   0.1666667  -0.6735753   0.3823711), wk =   0.0370370
        k(   36) = (   0.1666667  -0.6735753  -0.5735566), wk =   0.0370370
        k(   37) = (   0.1666667  -0.2886751   0.0000000), wk =   0.0185185
        k(   38) = (   0.1666667  -0.2886751   0.1911855), wk =   0.0370370
        k(   39) = (   0.1666667  -0.2886751   0.3823711), wk =   0.0370370
        k(   40) = (   0.1666667  -0.2886751  -0.5735566), wk =   0.0185185
        k(   41) = (   0.3333333   0.1924501   0.0000000), wk =   0.0185185
        k(   42) = (   0.3333333   0.1924501   0.1911855), wk =   0.0185185
        k(   43) = (   0.3333333   0.1924501   0.3823711), wk =   0.0185185
        k(   44) = (   0.3333333   0.1924501  -0.5735566), wk =   0.0185185
        k(   45) = (   0.3333333   0.5773503   0.0000000), wk =   0.0185185
        k(   46) = (   0.3333333   0.5773503   0.1911855), wk =   0.0370370
        k(   47) = (   0.3333333   0.5773503   0.3823711), wk =   0.0370370
        k(   48) = (   0.3333333   0.5773503  -0.5735566), wk =   0.0185185
        k(   49) = (   0.3333333  -0.9622504   0.0000000), wk =   0.0185185
        k(   50) = (   0.3333333  -0.9622504   0.1911855), wk =   0.0185185
        k(   51) = (   0.3333333  -0.9622504   0.3823711), wk =   0.0185185
        k(   52) = (   0.3333333  -0.9622504  -0.5735566), wk =   0.0185185
        k(   53) = (   0.3333333  -0.5773503   0.0000000), wk =   0.0185185
        k(   54) = (   0.3333333  -0.5773503   0.1911855), wk =   0.0370370
        k(   55) = (   0.3333333  -0.5773503   0.3823711), wk =   0.0370370
        k(   56) = (   0.3333333  -0.5773503  -0.5735566), wk =   0.0185185
        k(   57) = (  -0.5000000  -0.2886751   0.0000000), wk =   0.0092593
        k(   58) = (  -0.5000000  -0.2886751   0.1911855), wk =   0.0185185
        k(   59) = (  -0.5000000  -0.2886751   0.3823711), wk =   0.0185185
        k(   60) = (  -0.5000000  -0.2886751  -0.5735566), wk =   0.0092593
[...]
        k(   66) = (   0.3333333  -0.1924501  -0.3823711), wk =   0.0370370
        k(   67) = (   0.6666667  -0.3849002  -0.1911855), wk =   0.0370370
        k(   68) = (   0.6666667  -0.3849002  -0.3823711), wk =   0.0370370
        k(   69) = (   0.1666667   0.0962250  -0.1911855), wk =   0.0185185
        k(   70) = (   0.1666667   0.0962250  -0.3823711), wk =   0.0185185
        k(   71) = (   0.5000000  -0.0962250  -0.1911855), wk =   0.0370370
        k(   72) = (   0.5000000  -0.0962250  -0.3823711), wk =   0.0370370
        k(   73) = (  -0.8333333   0.6735753  -0.1911855), wk =   0.0185185
        k(   74) = (  -0.8333333   0.6735753  -0.3823711), wk =   0.0185185
        k(   75) = (  -0.5000000   0.4811252  -0.1911855), wk =   0.0370370
        k(   76) = (  -0.5000000   0.4811252  -0.3823711), wk =   0.0370370
        k(   77) = (   0.3333333   0.1924501  -0.1911855), wk =   0.0185185
        k(   78) = (   0.3333333   0.1924501  -0.3823711), wk =   0.0185185
        k(   79) = (  -0.6666667   0.7698004  -0.1911855), wk =   0.0185185
        k(   80) = (  -0.6666667   0.7698004  -0.3823711), wk =   0.0185185

                       cryst. coord.
        k(    1) = (   0.0000000   0.0000000   0.0000000), wk =   0.0092593
        k(    2) = (   0.0000000   0.0000000   0.1666667), wk =   0.0185185
        k(    3) = (   0.0000000   0.0000000   0.3333333), wk =   0.0185185
        k(    4) = (   0.0000000   0.0000000  -0.5000000), wk =   0.0092593
        k(    5) = (   0.0000000   0.1666667   0.0000000), wk =   0.0370370
        k(    6) = (   0.0000000   0.1666667   0.1666667), wk =   0.0370370
        k(    7) = (   0.0000000   0.1666667   0.3333333), wk =   0.0370370
        k(    8) = (   0.0000000   0.1666667  -0.5000000), wk =   0.0370370
        k(    9) = (   0.0000000   0.3333333   0.0000000), wk =   0.0370370
        k(   10) = (   0.0000000   0.3333333   0.1666667), wk =   0.0370370
        k(   11) = (   0.0000000   0.3333333   0.3333333), wk =   0.0370370
        k(   12) = (   0.0000000   0.3333333  -0.5000000), wk =   0.0370370
        k(   13) = (   0.0000000  -0.5000000   0.0000000), wk =   0.0092593
        k(   14) = (   0.0000000  -0.5000000   0.1666667), wk =   0.0185185
        k(   15) = (   0.0000000  -0.5000000   0.3333333), wk =   0.0185185
        k(   16) = (   0.0000000  -0.5000000  -0.5000000), wk =   0.0092593
        k(   17) = (   0.1666667  -0.0000000   0.0000000), wk =   0.0185185
        k(   18) = (   0.1666667  -0.0000000   0.1666667), wk =   0.0185185
        k(   19) = (   0.1666667  -0.0000000   0.3333333), wk =   0.0185185
        k(   20) = (   0.1666667  -0.0000000  -0.5000000), wk =   0.0185185
        k(   21) = (   0.1666667   0.1666667   0.0000000), wk =   0.0370370
        k(   22) = (   0.1666667   0.1666667   0.1666667), wk =   0.0370370
        k(   23) = (   0.1666667   0.1666667   0.3333333), wk =   0.0370370
        k(   24) = (   0.1666667   0.1666667  -0.5000000), wk =   0.0370370
        k(   25) = (   0.1666667   0.3333333   0.0000000), wk =   0.0185185
        k(   26) = (   0.1666667   0.3333333   0.1666667), wk =   0.0370370
        k(   27) = (   0.1666667   0.3333333   0.3333333), wk =   0.0370370
        k(   28) = (   0.1666667   0.3333333  -0.5000000), wk =   0.0185185
        k(   29) = (   0.1666667  -0.5000000   0.0000000), wk =   0.0185185
        k(   30) = (   0.1666667  -0.5000000   0.1666667), wk =   0.0185185
        k(   31) = (   0.1666667  -0.5000000   0.3333333), wk =   0.0185185
        k(   32) = (   0.1666667  -0.5000000  -0.5000000), wk =   0.0185185
        k(   33) = (   0.1666667  -0.3333333   0.0000000), wk =   0.0370370
        k(   34) = (   0.1666667  -0.3333333   0.1666667), wk =   0.0370370
        k(   35) = (   0.1666667  -0.3333333   0.3333333), wk =   0.0370370
        k(   36) = (   0.1666667  -0.3333333  -0.5000000), wk =   0.0370370
        k(   37) = (   0.1666667  -0.1666667   0.0000000), wk =   0.0185185
        k(   38) = (   0.1666667  -0.1666667   0.1666667), wk =   0.0370370
        k(   39) = (   0.1666667  -0.1666667   0.3333333), wk =   0.0370370
        k(   40) = (   0.1666667  -0.1666667  -0.5000000), wk =   0.0185185
        k(   41) = (   0.3333333  -0.0000000   0.0000000), wk =   0.0185185
        k(   42) = (   0.3333333  -0.0000000   0.1666667), wk =   0.0185185
        k(   43) = (   0.3333333  -0.0000000   0.3333333), wk =   0.0185185
        k(   44) = (   0.3333333  -0.0000000  -0.5000000), wk =   0.0185185
        k(   45) = (   0.3333333   0.1666667   0.0000000), wk =   0.0185185
        k(   46) = (   0.3333333   0.1666667   0.1666667), wk =   0.0370370
        k(   47) = (   0.3333333   0.1666667   0.3333333), wk =   0.0370370
        k(   48) = (   0.3333333   0.1666667  -0.5000000), wk =   0.0185185
        k(   49) = (   0.3333333  -0.5000000   0.0000000), wk =   0.0185185
        k(   50) = (   0.3333333  -0.5000000   0.1666667), wk =   0.0185185
        k(   51) = (   0.3333333  -0.5000000   0.3333333), wk =   0.0185185
        k(   52) = (   0.3333333  -0.5000000  -0.5000000), wk =   0.0185185
        k(   53) = (   0.3333333  -0.3333333   0.0000000), wk =   0.0185185
        k(   54) = (   0.3333333  -0.3333333   0.1666667), wk =   0.0370370
        k(   55) = (   0.3333333  -0.3333333   0.3333333), wk =   0.0370370
        k(   56) = (   0.3333333  -0.3333333  -0.5000000), wk =   0.0185185
        k(   57) = (  -0.5000000   0.0000000   0.0000000), wk =   0.0092593
        k(   58) = (  -0.5000000   0.0000000   0.1666667), wk =   0.0185185
        k(   59) = (  -0.5000000   0.0000000   0.3333333), wk =   0.0185185
        k(   60) = (  -0.5000000   0.0000000  -0.5000000), wk =   0.0092593
[...]
        k(   66) = (   0.3333333  -0.1666667  -0.3333333), wk =   0.0370370
        k(   67) = (   0.6666667  -0.3333333  -0.1666667), wk =   0.0370370
        k(   68) = (   0.6666667  -0.3333333  -0.3333333), wk =   0.0370370
        k(   69) = (   0.1666667   0.0000000  -0.1666667), wk =   0.0185185
        k(   70) = (   0.1666667   0.0000000  -0.3333333), wk =   0.0185185
        k(   71) = (   0.5000000  -0.1666667  -0.1666667), wk =   0.0370370
        k(   72) = (   0.5000000  -0.1666667  -0.3333333), wk =   0.0370370
        k(   73) = (  -0.8333333   0.5000000  -0.1666667), wk =   0.0185185
        k(   74) = (  -0.8333333   0.5000000  -0.3333333), wk =   0.0185185
        k(   75) = (  -0.5000000   0.3333333  -0.1666667), wk =   0.0370370
        k(   76) = (  -0.5000000   0.3333333  -0.3333333), wk =   0.0370370
        k(   77) = (   0.3333333   0.0000000  -0.1666667), wk =   0.0185185
        k(   78) = (   0.3333333   0.0000000  -0.3333333), wk =   0.0185185
        k(   79) = (  -0.6666667   0.5000000  -0.1666667), wk =   0.0185185
        k(   80) = (  -0.6666667   0.5000000  -0.3333333), wk =   0.0185185

     Check: negative core charge=   -0.000003

     Initial potential from superposition of free atoms

     starting charge      71.9851, renormalised to      72.0000
     Starting wfcs are   52 randomized atomic wfcs

     Self-consistent Calculation

     iteration #  1     ecut=    50.00 Ry     beta= 0.30
     Davidson diagonalization with overlap

     ethr =  1.00E-02,  avg # of iterations =  1.2

     total energy              =    -722.63733356 Ry
     estimated scf accuracy    <       1.75005694 Ry

[...]

     c_bands:  1 eigenvalues not converged
     c_bands:  1 eigenvalues not converged
     c_bands:  1 eigenvalues not converged
     ethr =  5.30E-09,  avg # of iterations = 13.6

[...]

     c_bands:  1 eigenvalues not converged
     ethr =  6.86E-10,  avg # of iterations = 12.2

[...]

     total energy              =    -723.06464793 Ry
     estimated scf accuracy    <       0.00000043 Ry

     iteration # 34     ecut=    50.00 Ry     beta= 0.30
     Davidson diagonalization with overlap

     ethr =  5.57E-11,  avg # of iterations =  7.1

     End of self-consistent calculation

          k = 0.0000 0.0000 0.0000 (  5315 PWs)   bands (ev):

   -12.9202 -12.6533 -12.5846 -12.5036  -1.6820  -1.6818  -1.6528  -1.6477
    -1.6080  -1.6078  -1.5379  -1.4799  -1.3461  -1.3367  -1.2263  -1.2253
    -1.2103  -1.2103  -1.1435  -1.1435  -1.1274  -1.1103  -1.0946  -1.0663
    -0.1979   0.0077   0.4377   1.3786   1.9992   2.3651   2.6370   2.8377
     2.8385   2.9806   3.1904   3.1912

     occupation numbers
     1.0000   1.0000   1.0000   1.0000   1.0000   1.0000   1.0000   1.0000
     1.0000   1.0000   1.0000   1.0000   1.0000   1.0000   1.0000   1.0000
     1.0000   1.0000   1.0000   1.0000   1.0000   1.0000   1.0000   1.0000
     1.0000   1.0000   1.0000   1.0000   1.0000   1.0000   1.0000   1.0000
     1.0000   1.0000   1.0000   1.0000

[...]

          k =-0.5000-0.2887 0.0000 (  5398 PWs)   bands (ev):

[...]

          k = 0.3333 0.1925-0.3824 (  5395 PWs)   bands (ev):

[...]

          k =-0.6667 0.7698-0.3824 (  5338 PWs)   bands (ev):

   -12.5653 -12.5653 -12.5229 -12.5229  -1.6071  -1.6071  -1.5357  -1.5357
    -1.4797  -1.4797  -1.3980  -1.3980  -1.3266  -1.3266  -1.3173  -1.3172
    -1.1770  -1.1770  -1.1448  -1.1447  -1.0798  -1.0798  -1.0333  -1.0333
     0.2178   0.2178   0.3866   0.3866   1.6750   1.6751   1.9842   1.9842
     2.1426   2.1426   2.4568   2.4568

     occupation numbers
     1.0000   1.0000   1.0000   1.0000   1.0000   1.0000   1.0000   1.0000
     1.0000   1.0000   1.0000   1.0000   1.0000   1.0000   1.0000   1.0000
     1.0000   1.0000   1.0000   1.0000   1.0000   1.0000   1.0000   1.0000
     1.0000   1.0000   1.0000   1.0000   1.0000   1.0000   1.0000   1.0000
     1.0000   1.0000   1.0000   1.0000

     highest occupied level (ev):     3.1912

!    total energy              =    -723.06464797 Ry
     estimated scf accuracy    <          8.7E-10 Ry

     The total energy is the sum of the following terms:
     one-electron contribution =    -377.61407506 Ry
     hartree contribution      =     261.78690823 Ry
     xc contribution           =    -218.03595938 Ry
     ewald contribution        =    -389.20152176 Ry

     convergence has been achieved in  34 iterations

     Forces acting on atoms (cartesian axes, Ry/au):

     atom    1 type  1   force =    -0.00000713   -0.00000412   -0.01148149
     atom    2 type  1   force =     0.00000786    0.00000454   -0.01149030
     atom    3 type  2   force =    -0.00001040   -0.00000600    0.01148535
     atom    4 type  2   force =     0.00001024    0.00000591    0.01148554
     atom    5 type  1   force =    -0.00001318   -0.00000761   -0.01148172
     atom    6 type  1   force =     0.00001274    0.00000735   -0.01148851
     atom    7 type  2   force =    -0.00001060   -0.00000612    0.01148580
     atom    8 type  2   force =     0.00001048    0.00000605    0.01148534
     The non-local contrib.  to forces
     atom    1 type  1   force =     0.00002071    0.00001196    0.17440259
     atom    2 type  1   force =    -0.00002070   -0.00001195    0.17439659
     atom    3 type  2   force =    -0.00020489   -0.00011829    0.20925920
     atom    4 type  2   force =     0.00020482    0.00011825    0.20925758
     atom    5 type  1   force =     0.00001997    0.00001153    0.17440250
     atom    6 type  1   force =    -0.00002029   -0.00001172    0.17439696
     atom    7 type  2   force =    -0.00020613   -0.00011901    0.20925952
     atom    8 type  2   force =     0.00020682    0.00011941    0.20925682
     The ionic contribution  to forces
     atom    1 type  1   force =    -0.00000000    0.00000000    1.34866903
     atom    2 type  1   force =     0.00000000   -0.00000000    1.34866903
     atom    3 type  2   force =    -0.00000000    0.00000000   -1.34866903
     atom    4 type  2   force =     0.00000000   -0.00000000   -1.34866903
     atom    5 type  1   force =    -0.00000000    0.00000000    1.34866903
     atom    6 type  1   force =     0.00000000   -0.00000000    1.34866903
     atom    7 type  2   force =    -0.00000000    0.00000000   -1.34866903
     atom    8 type  2   force =     0.00000000   -0.00000000   -1.34866903
     The local contribution  to forces
     atom    1 type  1   force =    -0.00002528   -0.00001459   -1.52486730
     atom    2 type  1   force =     0.00002435    0.00001395   -1.52485373
     atom    3 type  2   force =     0.00019213    0.00011093    1.15287010
     atom    4 type  2   force =    -0.00019280   -0.00011134    1.15286520
     atom    5 type  1   force =    -0.00002112   -0.00001219   -1.52486741
     atom    6 type  1   force =     0.00002222    0.00001272   -1.52485489
     atom    7 type  2   force =     0.00019214    0.00011093    1.15286786
     atom    8 type  2   force =    -0.00019352   -0.00011176    1.15286380
     The core correction contribution to forces
     atom    1 type  1   force =    -0.00000786   -0.00000454   -0.00969340
     atom    2 type  1   force =     0.00000788    0.00000453   -0.00969242
     atom    3 type  2   force =     0.00000230    0.00000133   -0.00196443
     atom    4 type  2   force =    -0.00000230   -0.00000133   -0.00196504
     atom    5 type  1   force =    -0.00000787   -0.00000454   -0.00969338
     atom    6 type  1   force =     0.00000787    0.00000453   -0.00969246
     atom    7 type  2   force =     0.00000232    0.00000134   -0.00196444
     atom    8 type  2   force =    -0.00000233   -0.00000135   -0.00196504
     The Hubbard contrib.    to forces
     atom    1 type  1   force =     0.00000000    0.00000000    0.00000000
     atom    2 type  1   force =     0.00000000    0.00000000    0.00000000
     atom    3 type  2   force =     0.00000000    0.00000000    0.00000000
     atom    4 type  2   force =     0.00000000    0.00000000    0.00000000
     atom    5 type  1   force =     0.00000000    0.00000000    0.00000000
     atom    6 type  1   force =     0.00000000    0.00000000    0.00000000
     atom    7 type  2   force =     0.00000000    0.00000000    0.00000000
     atom    8 type  2   force =     0.00000000    0.00000000    0.00000000
     The SCF correction term to forces
     atom    1 type  1   force =     0.00000536    0.00000309    0.00000956
     atom    2 type  1   force =    -0.00000354   -0.00000204   -0.00000780
     atom    3 type  2   force =     0.00000012    0.00000007   -0.00000853
     atom    4 type  2   force =     0.00000060    0.00000035   -0.00000119
     atom    5 type  1   force =    -0.00000409   -0.00000236    0.00000952
     atom    6 type  1   force =     0.00000307    0.00000177   -0.00000517
     atom    7 type  2   force =     0.00000114    0.00000066   -0.00000613
     atom    8 type  2   force =    -0.00000042   -0.00000024    0.00000076

     Total force =     0.032486     Total SCF correction =     0.000022

     General routines

     Parallel routines

   This run was terminated on:   1:18:31  27Aug2025

   JOB DONE.