     Program PWSCF v.7.0 starts on 27Aug2025 at  0:27:23

     K-points division:     npool     =       4
     band groups division:  nbgrp     =       4

     Reading input from /home/jvc/QEspresso7.2/ZnO_database/scripts/cell211.in/ZnO-3.53-1.58-211.in
Warning: card &CELL ignored
Warning: card / ignored
Warning: card &FCP ignored
Warning: card / ignored
Warning: card &RISM ignored
Warning: card / ignored

     Current dimensions of program PWSCF are:
     Max number of different atomic species (ntypx) = 10
     Max number of k-points (npk) =  40000
     Max angular momentum in pseudopotentials (lmaxx) =  4
     file Zn.upf: wavefunction(s)  3D renormalized
     Found identity + ( -0.5000  0.0000  0.0000) symmetry
     This is a supercell, fractional translations are disabled
     Message from routine setup:
     using ibrav=0 with symmetry is DISCOURAGED, use correct ibrav instead

     Subspace diagonalization in iterative solution of the eigenvalue problem:
     a serial algorithm will be used

     Using Slab Decomposition

     bravais-lattice index     =            0
     lattice parameter (alat)  =      13.3463  a.u.
     unit-cell volume          =     814.2949 (a.u.)^3
     number of atoms/cell      =            8
     number of atomic types    =            2
     number of electrons       =        72.00
     number of Kohn-Sham states=           36
     kinetic-energy cutoff     =      50.0000  Ry
     charge density cutoff     =     400.0000  Ry
     scf convergence threshold =      1.0E-08
     mixing beta               =       0.3000
     number of iterations used =            8  plain     mixing
     Exchange-correlation= PBE
                           (   1   4   3   4   0   0   0)

     celldm(1)=  13.346325  celldm(2)=   0.000000  celldm(3)=   0.000000
     celldm(4)=   0.000000  celldm(5)=   0.000000  celldm(6)=   0.000000

     crystal axes: (cart. coord. in units of alat)
               a(1) = (   1.000000   0.000000   0.000000 )
               a(2) = (  -0.250000   0.433013   0.000000 )
               a(3) = (   0.000000   0.000000   0.791036 )

     reciprocal axes: (cart. coord. in units 2 pi/alat)
               b(1) = (  1.000000  0.577350 -0.000000 )
               b(2) = (  0.000000  2.309401  0.000000 )
               b(3) = (  0.000000 -0.000000  1.264166 )

     PseudoPot. # 1 for Zn read from file:
     /home/jvc/QEspresso7.2/ZnO_database/pseudos/Zn.upf
     MD5 check sum: 7f56cabf9682ed8c977c2f7d0c5985c5
     Pseudo is Ultrasoft + core correction, Zval = 12.0
     Generated using &quot;atomic&quot; code by A. Dal Corso  v.6.2.2
     Using radial grid of 1201 points,  6 beta functions with:
                l(1) =   0
                l(2) =   0
                l(3) =   1
                l(4) =   1
                l(5) =   2
                l(6) =   2
     Q(r) pseudized with 0 coefficients

     PseudoPot. # 2 for O  read from file:
     /home/jvc/QEspresso7.2/ZnO_database/pseudos/O.upf
     MD5 check sum: 91400c9766925bcf19f520983a725ff0
     Pseudo is Ultrasoft + core correction, Zval =  6.0
     Generated using &quot;atomic&quot; code by A. Dal Corso  v.6.3MaX
     Using radial grid of 1095 points,  4 beta functions with:
                l(1) =   0
                l(2) =   0
                l(3) =   1
                l(4) =   1
     Q(r) pseudized with 0 coefficients

     atomic species   valence    mass     pseudopotential
        Zn            12.00    65.38000     Zn( 1.00)
        O              6.00    15.99900     O ( 1.00)

      2 Sym. Ops. (no inversion) found

                                    s                        frac. trans.

      isym =  1     identity

 cryst.   s( 1) = (     1          0          0      )
                  (     0          1          0      )
                  (     0          0          1      )

 cart.    s( 1) = (  1.0000000 -0.0000000  0.0000000 )
                  (  0.0000000  1.0000000  0.0000000 )
                  (  0.0000000  0.0000000  1.0000000 )

      isym =  2     inv. 180 deg rotation - cryst. axis [0,1,0]

 cryst.   s( 2) = (     1          2          0      )
                  (     0         -1          0      )
                  (     0          0          1      )

 cart.    s( 2) = (  0.5000000  0.8660254  0.0000000 )
                  (  0.8660254 -0.5000000  0.0000000 )
                  (  0.0000000  0.0000000  1.0000000 )

   Cartesian axes

     site n.     atom                  positions (alat units)
         1           Zn  tau(   1) = (   0.2500000   0.1443376   0.3960190  )
         2           Zn  tau(   2) = (  -0.0000000   0.2886751   0.0005012  )
         3           O   tau(   3) = (   0.2500000   0.1443376   0.6958554  )
         4           O   tau(   4) = (  -0.0000000   0.2886751   0.3003376  )
         5           Zn  tau(   5) = (   0.7500000   0.1443376   0.3960190  )
         6           Zn  tau(   6) = (   0.5000000   0.2886751   0.0005012  )
         7           O   tau(   7) = (   0.7500000   0.1443376   0.6958554  )
         8           O   tau(   8) = (   0.5000000   0.2886751   0.3003376  )

   Crystallographic axes

     site n.     atom                  positions (cryst. coord.)
         1           Zn  tau(   1) = (  0.3333333  0.3333333  0.5006336  )
         2           Zn  tau(   2) = (  0.1666667  0.6666667  0.0006336  )
         3           O   tau(   3) = (  0.3333333  0.3333333  0.8796764  )
         4           O   tau(   4) = (  0.1666667  0.6666667  0.3796764  )
         5           Zn  tau(   5) = (  0.8333333  0.3333333  0.5006336  )
         6           Zn  tau(   6) = (  0.6666667  0.6666667  0.0006336  )
         7           O   tau(   7) = (  0.8333333  0.3333333  0.8796764  )
         8           O   tau(   8) = (  0.6666667  0.6666667  0.3796764  )

     number of k points=    80
                       cart. coord. in units 2pi/alat
        k(    1) = (   0.0000000   0.0000000   0.0000000), wk =   0.0092593
        k(    2) = (   0.0000000   0.0000000   0.2106943), wk =   0.0185185
        k(    3) = (   0.0000000   0.0000000   0.4213885), wk =   0.0185185
        k(    4) = (   0.0000000   0.0000000  -0.6320828), wk =   0.0092593
        k(    5) = (   0.0000000   0.3849002   0.0000000), wk =   0.0370370
        k(    6) = (   0.0000000   0.3849002   0.2106943), wk =   0.0370370
        k(    7) = (   0.0000000   0.3849002   0.4213885), wk =   0.0370370
        k(    8) = (   0.0000000   0.3849002  -0.6320828), wk =   0.0370370
        k(    9) = (   0.0000000   0.7698004   0.0000000), wk =   0.0370370
        k(   10) = (   0.0000000   0.7698004   0.2106943), wk =   0.0370370
        k(   11) = (   0.0000000   0.7698004   0.4213885), wk =   0.0370370
        k(   12) = (   0.0000000   0.7698004  -0.6320828), wk =   0.0370370
        k(   13) = (   0.0000000  -1.1547005   0.0000000), wk =   0.0092593
        k(   14) = (   0.0000000  -1.1547005   0.2106943), wk =   0.0185185
        k(   15) = (   0.0000000  -1.1547005   0.4213885), wk =   0.0185185
        k(   16) = (   0.0000000  -1.1547005  -0.6320828), wk =   0.0092593
        k(   17) = (   0.1666667   0.0962250   0.0000000), wk =   0.0185185
        k(   18) = (   0.1666667   0.0962250   0.2106943), wk =   0.0185185
        k(   19) = (   0.1666667   0.0962250   0.4213885), wk =   0.0185185
        k(   20) = (   0.1666667   0.0962250  -0.6320828), wk =   0.0185185
        k(   21) = (   0.1666667   0.4811252   0.0000000), wk =   0.0370370
        k(   22) = (   0.1666667   0.4811252   0.2106943), wk =   0.0370370
        k(   23) = (   0.1666667   0.4811252   0.4213885), wk =   0.0370370
        k(   24) = (   0.1666667   0.4811252  -0.6320828), wk =   0.0370370
        k(   25) = (   0.1666667   0.8660254   0.0000000), wk =   0.0185185
        k(   26) = (   0.1666667   0.8660254   0.2106943), wk =   0.0370370
        k(   27) = (   0.1666667   0.8660254   0.4213885), wk =   0.0370370
        k(   28) = (   0.1666667   0.8660254  -0.6320828), wk =   0.0185185
        k(   29) = (   0.1666667  -1.0584755   0.0000000), wk =   0.0185185
        k(   30) = (   0.1666667  -1.0584755   0.2106943), wk =   0.0185185
        k(   31) = (   0.1666667  -1.0584755   0.4213885), wk =   0.0185185
        k(   32) = (   0.1666667  -1.0584755  -0.6320828), wk =   0.0185185
        k(   33) = (   0.1666667  -0.6735753   0.0000000), wk =   0.0370370
        k(   34) = (   0.1666667  -0.6735753   0.2106943), wk =   0.0370370
        k(   35) = (   0.1666667  -0.6735753   0.4213885), wk =   0.0370370
        k(   36) = (   0.1666667  -0.6735753  -0.6320828), wk =   0.0370370
        k(   37) = (   0.1666667  -0.2886751   0.0000000), wk =   0.0185185
        k(   38) = (   0.1666667  -0.2886751   0.2106943), wk =   0.0370370
        k(   39) = (   0.1666667  -0.2886751   0.4213885), wk =   0.0370370
        k(   40) = (   0.1666667  -0.2886751  -0.6320828), wk =   0.0185185
        k(   41) = (   0.3333333   0.1924501   0.0000000), wk =   0.0185185
        k(   42) = (   0.3333333   0.1924501   0.2106943), wk =   0.0185185
        k(   43) = (   0.3333333   0.1924501   0.4213885), wk =   0.0185185
        k(   44) = (   0.3333333   0.1924501  -0.6320828), wk =   0.0185185
        k(   45) = (   0.3333333   0.5773503   0.0000000), wk =   0.0185185
        k(   46) = (   0.3333333   0.5773503   0.2106943), wk =   0.0370370
        k(   47) = (   0.3333333   0.5773503   0.4213885), wk =   0.0370370
        k(   48) = (   0.3333333   0.5773503  -0.6320828), wk =   0.0185185
        k(   49) = (   0.3333333  -0.9622504   0.0000000), wk =   0.0185185
        k(   50) = (   0.3333333  -0.9622504   0.2106943), wk =   0.0185185
        k(   51) = (   0.3333333  -0.9622504   0.4213885), wk =   0.0185185
        k(   52) = (   0.3333333  -0.9622504  -0.6320828), wk =   0.0185185
        k(   53) = (   0.3333333  -0.5773503   0.0000000), wk =   0.0185185
        k(   54) = (   0.3333333  -0.5773503   0.2106943), wk =   0.0370370
        k(   55) = (   0.3333333  -0.5773503   0.4213885), wk =   0.0370370
        k(   56) = (   0.3333333  -0.5773503  -0.6320828), wk =   0.0185185
        k(   57) = (  -0.5000000  -0.2886751   0.0000000), wk =   0.0092593
        k(   58) = (  -0.5000000  -0.2886751   0.2106943), wk =   0.0185185
        k(   59) = (  -0.5000000  -0.2886751   0.4213885), wk =   0.0185185
        k(   60) = (  -0.5000000  -0.2886751  -0.6320828), wk =   0.0092593
[...]
        k(   66) = (   0.3333333  -0.1924501  -0.4213885), wk =   0.0370370
        k(   67) = (   0.6666667  -0.3849002  -0.2106943), wk =   0.0370370
        k(   68) = (   0.6666667  -0.3849002  -0.4213885), wk =   0.0370370
        k(   69) = (   0.1666667   0.0962250  -0.2106943), wk =   0.0185185
        k(   70) = (   0.1666667   0.0962250  -0.4213885), wk =   0.0185185
        k(   71) = (   0.5000000  -0.0962250  -0.2106943), wk =   0.0370370
        k(   72) = (   0.5000000  -0.0962250  -0.4213885), wk =   0.0370370
        k(   73) = (  -0.8333333   0.6735753  -0.2106943), wk =   0.0185185
        k(   74) = (  -0.8333333   0.6735753  -0.4213885), wk =   0.0185185
        k(   75) = (  -0.5000000   0.4811252  -0.2106943), wk =   0.0370370
        k(   76) = (  -0.5000000   0.4811252  -0.4213885), wk =   0.0370370
        k(   77) = (   0.3333333   0.1924501  -0.2106943), wk =   0.0185185
        k(   78) = (   0.3333333   0.1924501  -0.4213885), wk =   0.0185185
        k(   79) = (  -0.6666667   0.7698004  -0.2106943), wk =   0.0185185
        k(   80) = (  -0.6666667   0.7698004  -0.4213885), wk =   0.0185185

                       cryst. coord.
        k(    1) = (   0.0000000   0.0000000   0.0000000), wk =   0.0092593
        k(    2) = (   0.0000000   0.0000000   0.1666667), wk =   0.0185185
        k(    3) = (   0.0000000   0.0000000   0.3333333), wk =   0.0185185
        k(    4) = (   0.0000000   0.0000000  -0.5000000), wk =   0.0092593
        k(    5) = (   0.0000000   0.1666667   0.0000000), wk =   0.0370370
        k(    6) = (   0.0000000   0.1666667   0.1666667), wk =   0.0370370
        k(    7) = (   0.0000000   0.1666667   0.3333333), wk =   0.0370370
        k(    8) = (   0.0000000   0.1666667  -0.5000000), wk =   0.0370370
        k(    9) = (   0.0000000   0.3333333   0.0000000), wk =   0.0370370
        k(   10) = (   0.0000000   0.3333333   0.1666667), wk =   0.0370370
        k(   11) = (   0.0000000   0.3333333   0.3333333), wk =   0.0370370
        k(   12) = (   0.0000000   0.3333333  -0.5000000), wk =   0.0370370
        k(   13) = (   0.0000000  -0.5000000   0.0000000), wk =   0.0092593
        k(   14) = (   0.0000000  -0.5000000   0.1666667), wk =   0.0185185
        k(   15) = (   0.0000000  -0.5000000   0.3333333), wk =   0.0185185
        k(   16) = (   0.0000000  -0.5000000  -0.5000000), wk =   0.0092593
        k(   17) = (   0.1666667  -0.0000000   0.0000000), wk =   0.0185185
        k(   18) = (   0.1666667  -0.0000000   0.1666667), wk =   0.0185185
        k(   19) = (   0.1666667  -0.0000000   0.3333333), wk =   0.0185185
        k(   20) = (   0.1666667  -0.0000000  -0.5000000), wk =   0.0185185
        k(   21) = (   0.1666667   0.1666667   0.0000000), wk =   0.0370370
        k(   22) = (   0.1666667   0.1666667   0.1666667), wk =   0.0370370
        k(   23) = (   0.1666667   0.1666667   0.3333333), wk =   0.0370370
        k(   24) = (   0.1666667   0.1666667  -0.5000000), wk =   0.0370370
        k(   25) = (   0.1666667   0.3333333   0.0000000), wk =   0.0185185
        k(   26) = (   0.1666667   0.3333333   0.1666667), wk =   0.0370370
        k(   27) = (   0.1666667   0.3333333   0.3333333), wk =   0.0370370
        k(   28) = (   0.1666667   0.3333333  -0.5000000), wk =   0.0185185
        k(   29) = (   0.1666667  -0.5000000   0.0000000), wk =   0.0185185
        k(   30) = (   0.1666667  -0.5000000   0.1666667), wk =   0.0185185
        k(   31) = (   0.1666667  -0.5000000   0.3333333), wk =   0.0185185
        k(   32) = (   0.1666667  -0.5000000  -0.5000000), wk =   0.0185185
        k(   33) = (   0.1666667  -0.3333333   0.0000000), wk =   0.0370370
        k(   34) = (   0.1666667  -0.3333333   0.1666667), wk =   0.0370370
        k(   35) = (   0.1666667  -0.3333333   0.3333333), wk =   0.0370370
        k(   36) = (   0.1666667  -0.3333333  -0.5000000), wk =   0.0370370
        k(   37) = (   0.1666667  -0.1666667   0.0000000), wk =   0.0185185
        k(   38) = (   0.1666667  -0.1666667   0.1666667), wk =   0.0370370
        k(   39) = (   0.1666667  -0.1666667   0.3333333), wk =   0.0370370
        k(   40) = (   0.1666667  -0.1666667  -0.5000000), wk =   0.0185185
        k(   41) = (   0.3333333  -0.0000000   0.0000000), wk =   0.0185185
        k(   42) = (   0.3333333  -0.0000000   0.1666667), wk =   0.0185185
        k(   43) = (   0.3333333  -0.0000000   0.3333333), wk =   0.0185185
        k(   44) = (   0.3333333  -0.0000000  -0.5000000), wk =   0.0185185
        k(   45) = (   0.3333333   0.1666667   0.0000000), wk =   0.0185185
        k(   46) = (   0.3333333   0.1666667   0.1666667), wk =   0.0370370
        k(   47) = (   0.3333333   0.1666667   0.3333333), wk =   0.0370370
        k(   48) = (   0.3333333   0.1666667  -0.5000000), wk =   0.0185185
        k(   49) = (   0.3333333  -0.5000000   0.0000000), wk =   0.0185185
        k(   50) = (   0.3333333  -0.5000000   0.1666667), wk =   0.0185185
        k(   51) = (   0.3333333  -0.5000000   0.3333333), wk =   0.0185185
        k(   52) = (   0.3333333  -0.5000000  -0.5000000), wk =   0.0185185
        k(   53) = (   0.3333333  -0.3333333   0.0000000), wk =   0.0185185
        k(   54) = (   0.3333333  -0.3333333   0.1666667), wk =   0.0370370
        k(   55) = (   0.3333333  -0.3333333   0.3333333), wk =   0.0370370
        k(   56) = (   0.3333333  -0.3333333  -0.5000000), wk =   0.0185185
        k(   57) = (  -0.5000000   0.0000000   0.0000000), wk =   0.0092593
        k(   58) = (  -0.5000000   0.0000000   0.1666667), wk =   0.0185185
        k(   59) = (  -0.5000000   0.0000000   0.3333333), wk =   0.0185185
        k(   60) = (  -0.5000000   0.0000000  -0.5000000), wk =   0.0092593
[...]
        k(   66) = (   0.3333333  -0.1666667  -0.3333333), wk =   0.0370370
        k(   67) = (   0.6666667  -0.3333333  -0.1666667), wk =   0.0370370
        k(   68) = (   0.6666667  -0.3333333  -0.3333333), wk =   0.0370370
        k(   69) = (   0.1666667   0.0000000  -0.1666667), wk =   0.0185185
        k(   70) = (   0.1666667   0.0000000  -0.3333333), wk =   0.0185185
        k(   71) = (   0.5000000  -0.1666667  -0.1666667), wk =   0.0370370
        k(   72) = (   0.5000000  -0.1666667  -0.3333333), wk =   0.0370370
        k(   73) = (  -0.8333333   0.5000000  -0.1666667), wk =   0.0185185
        k(   74) = (  -0.8333333   0.5000000  -0.3333333), wk =   0.0185185
        k(   75) = (  -0.5000000   0.3333333  -0.1666667), wk =   0.0370370
        k(   76) = (  -0.5000000   0.3333333  -0.3333333), wk =   0.0370370
        k(   77) = (   0.3333333   0.0000000  -0.1666667), wk =   0.0185185
        k(   78) = (   0.3333333   0.0000000  -0.3333333), wk =   0.0185185
        k(   79) = (  -0.6666667   0.5000000  -0.1666667), wk =   0.0185185
        k(   80) = (  -0.6666667   0.5000000  -0.3333333), wk =   0.0185185

     Check: negative core charge=   -0.000002

     Initial potential from superposition of free atoms

     starting charge      71.9851, renormalised to      72.0000
     Starting wfcs are   52 randomized atomic wfcs

     Self-consistent Calculation

     iteration #  1     ecut=    50.00 Ry     beta= 0.30
     Davidson diagonalization with overlap

     ethr =  1.00E-02,  avg # of iterations =  1.4

     total energy              =    -722.79172797 Ry
     estimated scf accuracy    <       1.59055180 Ry

[...]

     c_bands:  1 eigenvalues not converged
     c_bands:  1 eigenvalues not converged
     c_bands:  2 eigenvalues not converged
     c_bands:  1 eigenvalues not converged
     c_bands:  1 eigenvalues not converged
     c_bands:  1 eigenvalues not converged
     ethr =  2.85E-09,  avg # of iterations = 17.5

[...]

     c_bands:  1 eigenvalues not converged
     c_bands:  1 eigenvalues not converged
     c_bands:  1 eigenvalues not converged
     ethr =  2.85E-09,  avg # of iterations = 15.3

[...]

     total energy              =    -723.17283039 Ry
     estimated scf accuracy    <       0.00000002 Ry

     iteration # 34     ecut=    50.00 Ry     beta= 0.30
     Davidson diagonalization with overlap

     ethr =  2.50E-11,  avg # of iterations =  4.9

     End of self-consistent calculation

          k = 0.0000 0.0000 0.0000 (  4851 PWs)   bands (ev):

   -12.3418 -11.9475 -11.9021 -11.8112  -0.7642  -0.7370  -0.7368  -0.7272
    -0.6094  -0.6093  -0.5915  -0.4786  -0.3607  -0.2599  -0.2215  -0.1504
    -0.1504  -0.0838  -0.0685  -0.0502  -0.0227  -0.0227   0.0023   0.0443
     0.3880   0.8226   1.3632   2.0407   2.5838   3.2493   3.5700   3.5705
     3.6171   4.1565   4.1571   4.1571

     occupation numbers
     1.0000   1.0000   1.0000   1.0000   1.0000   1.0000   1.0000   1.0000
     1.0000   1.0000   1.0000   1.0000   1.0000   1.0000   1.0000   1.0000
     1.0000   1.0000   1.0000   1.0000   1.0000   1.0000   1.0000   1.0000
     1.0000   1.0000   1.0000   1.0000   1.0000   1.0000   1.0000   1.0000
     1.0000   1.0000   1.0000   1.0000

[...]

          k =-0.5000-0.2887 0.0000 (  4886 PWs)   bands (ev):

[...]

          k = 0.3333 0.1925-0.4214 (  4893 PWs)   bands (ev):

[...]

          k =-0.6667 0.7698-0.4214 (  4842 PWs)   bands (ev):

   -11.9124 -11.9124 -11.8413 -11.8412  -0.7384  -0.7384  -0.6498  -0.6498
    -0.5366  -0.5366  -0.3978  -0.3978  -0.3545  -0.3545  -0.3437  -0.3436
    -0.0912  -0.0912  -0.0597  -0.0597   0.0253   0.0253   0.0946   0.0946
     0.9858   0.9858   1.2384   1.2384   2.3885   2.3885   2.8965   2.8966
     3.0465   3.0465   3.4659   3.4660

     occupation numbers
     1.0000   1.0000   1.0000   1.0000   1.0000   1.0000   1.0000   1.0000
     1.0000   1.0000   1.0000   1.0000   1.0000   1.0000   1.0000   1.0000
     1.0000   1.0000   1.0000   1.0000   1.0000   1.0000   1.0000   1.0000
     1.0000   1.0000   1.0000   1.0000   1.0000   1.0000   1.0000   1.0000
     1.0000   1.0000   1.0000   1.0000

     highest occupied level (ev):     4.1571

!    total energy              =    -723.17283039 Ry
     estimated scf accuracy    <          3.2E-09 Ry

     The total energy is the sum of the following terms:
     one-electron contribution =    -356.26280591 Ry
     hartree contribution      =     253.74738973 Ry
     xc contribution           =    -218.32667294 Ry
     ewald contribution        =    -402.33074127 Ry

     convergence has been achieved in  34 iterations

     Forces acting on atoms (cartesian axes, Ry/au):

     atom    1 type  1   force =    -0.00000109   -0.00000063   -0.00014607
     atom    2 type  1   force =    -0.00000317   -0.00000183   -0.00012008
     atom    3 type  2   force =    -0.00000404   -0.00000233    0.00013378
     atom    4 type  2   force =     0.00000395    0.00000228    0.00013372
     atom    5 type  1   force =    -0.00000154   -0.00000089   -0.00014032
     atom    6 type  1   force =     0.00000612    0.00000353   -0.00012958
     atom    7 type  2   force =    -0.00000408   -0.00000236    0.00013439
     atom    8 type  2   force =     0.00000386    0.00000223    0.00013416
     The non-local contrib.  to forces
     atom    1 type  1   force =     0.00000849    0.00000490   -0.05631318
     atom    2 type  1   force =    -0.00000948   -0.00000548   -0.05630663
     atom    3 type  2   force =    -0.00019561   -0.00011294   -0.04517727
     atom    4 type  2   force =     0.00019462    0.00011236   -0.04517668
     atom    5 type  1   force =     0.00000714    0.00000412   -0.05631256
     atom    6 type  1   force =    -0.00000687   -0.00000397   -0.05630791
     atom    7 type  2   force =    -0.00019160   -0.00011062   -0.04517598
     atom    8 type  2   force =     0.00019304    0.00011145   -0.04517565
     The ionic contribution  to forces
     atom    1 type  1   force =    -0.00000000    0.00000000   -0.30712516
     atom    2 type  1   force =     0.00000000   -0.00000000   -0.30712516
     atom    3 type  2   force =    -0.00000000    0.00000000    0.30712516
     atom    4 type  2   force =     0.00000000   -0.00000000    0.30712516
     atom    5 type  1   force =    -0.00000000    0.00000000   -0.30712516
     atom    6 type  1   force =     0.00000000   -0.00000000   -0.30712516
     atom    7 type  2   force =    -0.00000000    0.00000000    0.30712516
     atom    8 type  2   force =     0.00000000   -0.00000000    0.30712516
     The local contribution  to forces
     atom    1 type  1   force =    -0.00000269   -0.00000155    0.35986579
     atom    2 type  1   force =     0.00001199    0.00000681    0.35983247
     atom    3 type  2   force =     0.00018611    0.00010745   -0.26220401
     atom    4 type  2   force =    -0.00018749   -0.00010828   -0.26219607
     atom    5 type  1   force =    -0.00000556   -0.00000321    0.35985747
     atom    6 type  1   force =    -0.00000336   -0.00000205    0.35984263
     atom    7 type  2   force =     0.00018989    0.00010964   -0.26220634
     atom    8 type  2   force =    -0.00018932   -0.00010933   -0.26219868
     The core correction contribution to forces
     atom    1 type  1   force =    -0.00000546   -0.00000315    0.00345332
     atom    2 type  1   force =     0.00000506    0.00000291    0.00345409
     atom    3 type  2   force =     0.00000221    0.00000127    0.00038292
     atom    4 type  2   force =    -0.00000220   -0.00000127    0.00038292
     atom    5 type  1   force =    -0.00000515   -0.00000297    0.00345367
     atom    6 type  1   force =     0.00000557    0.00000320    0.00345385
     atom    7 type  2   force =     0.00000217    0.00000125    0.00038289
     atom    8 type  2   force =    -0.00000218   -0.00000126    0.00038290
     The Hubbard contrib.    to forces
     atom    1 type  1   force =     0.00000000    0.00000000    0.00000000
     atom    2 type  1   force =     0.00000000    0.00000000    0.00000000
     atom    3 type  2   force =     0.00000000    0.00000000    0.00000000
     atom    4 type  2   force =     0.00000000    0.00000000    0.00000000
     atom    5 type  1   force =     0.00000000    0.00000000    0.00000000
     atom    6 type  1   force =     0.00000000    0.00000000    0.00000000
     atom    7 type  2   force =     0.00000000    0.00000000    0.00000000
     atom    8 type  2   force =     0.00000000    0.00000000    0.00000000
     The SCF correction term to forces
     atom    1 type  1   force =    -0.00000131   -0.00000076   -0.00002695
     atom    2 type  1   force =    -0.00001057   -0.00000610    0.00002503
     atom    3 type  2   force =     0.00000338    0.00000195    0.00000687
     atom    4 type  2   force =    -0.00000084   -0.00000049   -0.00000173
     atom    5 type  1   force =     0.00000214    0.00000124   -0.00001386
     atom    6 type  1   force =     0.00001095    0.00000632    0.00000689
     atom    7 type  2   force =    -0.00000443   -0.00000256    0.00000854
     atom    8 type  2   force =     0.00000245    0.00000141    0.00000031

     Total force =     0.000380     Total SCF correction =     0.000046
     SCF correction compared to forces is large: reduce conv_thr to get better values

     General routines

     Parallel routines

   This run was terminated on:   0:35:12  27Aug2025

   JOB DONE.