     Program PWSCF v.7.0 starts on 26Aug2025 at 22: 1:23

     K-points division:     npool     =       4
     band groups division:  nbgrp     =       4

     Reading input from /home/jvc/QEspresso7.2/ZnO_database/scripts/cell211.in/ZnO-3.40-1.65-211.in
Warning: card &CELL ignored
Warning: card / ignored
Warning: card &FCP ignored
Warning: card / ignored
Warning: card &RISM ignored
Warning: card / ignored

     Current dimensions of program PWSCF are:
     Max number of different atomic species (ntypx) = 10
     Max number of k-points (npk) =  40000
     Max angular momentum in pseudopotentials (lmaxx) =  4
     file Zn.upf: wavefunction(s)  3D renormalized
     Found identity + ( -0.5000  0.0000  0.0000) symmetry
     This is a supercell, fractional translations are disabled
     Message from routine setup:
     using ibrav=0 with symmetry is DISCOURAGED, use correct ibrav instead

     Subspace diagonalization in iterative solution of the eigenvalue problem:
     a serial algorithm will be used

     Using Slab Decomposition

     bravais-lattice index     =            0
     lattice parameter (alat)  =      12.8520  a.u.
     unit-cell volume          =     756.8060 (a.u.)^3
     number of atoms/cell      =            8
     number of atomic types    =            2
     number of electrons       =        72.00
     number of Kohn-Sham states=           36
     kinetic-energy cutoff     =      50.0000  Ry
     charge density cutoff     =     400.0000  Ry
     scf convergence threshold =      1.0E-08
     mixing beta               =       0.3000
     number of iterations used =            8  plain     mixing
     Exchange-correlation= PBE
                           (   1   4   3   4   0   0   0)

     celldm(1)=  12.852016  celldm(2)=   0.000000  celldm(3)=   0.000000
     celldm(4)=   0.000000  celldm(5)=   0.000000  celldm(6)=   0.000000

     crystal axes: (cart. coord. in units of alat)
               a(1) = (   1.000000   0.000000   0.000000 )
               a(2) = (  -0.250000   0.433013   0.000000 )
               a(3) = (   0.000000   0.000000   0.823323 )

     reciprocal axes: (cart. coord. in units 2 pi/alat)
               b(1) = (  1.000000  0.577350 -0.000000 )
               b(2) = (  0.000000  2.309401  0.000000 )
               b(3) = (  0.000000 -0.000000  1.214590 )

     PseudoPot. # 1 for Zn read from file:
     /home/jvc/QEspresso7.2/ZnO_database/pseudos/Zn.upf
     MD5 check sum: 7f56cabf9682ed8c977c2f7d0c5985c5
     Pseudo is Ultrasoft + core correction, Zval = 12.0
     Generated using &quot;atomic&quot; code by A. Dal Corso  v.6.2.2
     Using radial grid of 1201 points,  6 beta functions with:
                l(1) =   0
                l(2) =   0
                l(3) =   1
                l(4) =   1
                l(5) =   2
                l(6) =   2
     Q(r) pseudized with 0 coefficients

     PseudoPot. # 2 for O  read from file:
     /home/jvc/QEspresso7.2/ZnO_database/pseudos/O.upf
     MD5 check sum: 91400c9766925bcf19f520983a725ff0
     Pseudo is Ultrasoft + core correction, Zval =  6.0
     Generated using &quot;atomic&quot; code by A. Dal Corso  v.6.3MaX
     Using radial grid of 1095 points,  4 beta functions with:
                l(1) =   0
                l(2) =   0
                l(3) =   1
                l(4) =   1
     Q(r) pseudized with 0 coefficients

     atomic species   valence    mass     pseudopotential
        Zn            12.00    65.38000     Zn( 1.00)
        O              6.00    15.99900     O ( 1.00)

      2 Sym. Ops. (no inversion) found

                                    s                        frac. trans.

      isym =  1     identity

 cryst.   s( 1) = (     1          0          0      )
                  (     0          1          0      )
                  (     0          0          1      )

 cart.    s( 1) = (  1.0000000  0.0000000  0.0000000 )
                  (  0.0000000  1.0000000  0.0000000 )
                  (  0.0000000  0.0000000  1.0000000 )

      isym =  2     inv. 180 deg rotation - cryst. axis [0,1,0]

 cryst.   s( 2) = (     1          2          0      )
                  (     0         -1          0      )
                  (     0          0          1      )

 cart.    s( 2) = (  0.5000000  0.8660254  0.0000000 )
                  (  0.8660254 -0.5000000  0.0000000 )
                  (  0.0000000  0.0000000  1.0000000 )

   Cartesian axes

     site n.     atom                  positions (alat units)
         1           Zn  tau(   1) = (   0.2500000   0.1443376   0.4121830  )
         2           Zn  tau(   2) = (  -0.0000000   0.2886751   0.0005216  )
         3           O   tau(   3) = (   0.2500000   0.1443376   0.7242576  )
         4           O   tau(   4) = (  -0.0000000   0.2886751   0.3125962  )
         5           Zn  tau(   5) = (   0.7500000   0.1443376   0.4121830  )
         6           Zn  tau(   6) = (   0.5000000   0.2886751   0.0005216  )
         7           O   tau(   7) = (   0.7500000   0.1443376   0.7242576  )
         8           O   tau(   8) = (   0.5000000   0.2886751   0.3125962  )

   Crystallographic axes

     site n.     atom                  positions (cryst. coord.)
         1           Zn  tau(   1) = (  0.3333333  0.3333333  0.5006336  )
         2           Zn  tau(   2) = (  0.1666667  0.6666667  0.0006336  )
         3           O   tau(   3) = (  0.3333333  0.3333333  0.8796764  )
         4           O   tau(   4) = (  0.1666667  0.6666667  0.3796764  )
         5           Zn  tau(   5) = (  0.8333333  0.3333333  0.5006336  )
         6           Zn  tau(   6) = (  0.6666667  0.6666667  0.0006336  )
         7           O   tau(   7) = (  0.8333333  0.3333333  0.8796764  )
         8           O   tau(   8) = (  0.6666667  0.6666667  0.3796764  )

     number of k points=    80
                       cart. coord. in units 2pi/alat
        k(    1) = (   0.0000000   0.0000000   0.0000000), wk =   0.0092593
        k(    2) = (   0.0000000   0.0000000   0.2024317), wk =   0.0185185
        k(    3) = (   0.0000000   0.0000000   0.4048635), wk =   0.0185185
        k(    4) = (   0.0000000   0.0000000  -0.6072952), wk =   0.0092593
        k(    5) = (   0.0000000   0.3849002   0.0000000), wk =   0.0370370
        k(    6) = (   0.0000000   0.3849002   0.2024317), wk =   0.0370370
        k(    7) = (   0.0000000   0.3849002   0.4048635), wk =   0.0370370
        k(    8) = (   0.0000000   0.3849002  -0.6072952), wk =   0.0370370
        k(    9) = (   0.0000000   0.7698004   0.0000000), wk =   0.0370370
        k(   10) = (   0.0000000   0.7698004   0.2024317), wk =   0.0370370
        k(   11) = (   0.0000000   0.7698004   0.4048635), wk =   0.0370370
        k(   12) = (   0.0000000   0.7698004  -0.6072952), wk =   0.0370370
        k(   13) = (   0.0000000  -1.1547005   0.0000000), wk =   0.0092593
        k(   14) = (   0.0000000  -1.1547005   0.2024317), wk =   0.0185185
        k(   15) = (   0.0000000  -1.1547005   0.4048635), wk =   0.0185185
        k(   16) = (   0.0000000  -1.1547005  -0.6072952), wk =   0.0092593
        k(   17) = (   0.1666667   0.0962250   0.0000000), wk =   0.0185185
        k(   18) = (   0.1666667   0.0962250   0.2024317), wk =   0.0185185
        k(   19) = (   0.1666667   0.0962250   0.4048635), wk =   0.0185185
        k(   20) = (   0.1666667   0.0962250  -0.6072952), wk =   0.0185185
        k(   21) = (   0.1666667   0.4811252   0.0000000), wk =   0.0370370
        k(   22) = (   0.1666667   0.4811252   0.2024317), wk =   0.0370370
        k(   23) = (   0.1666667   0.4811252   0.4048635), wk =   0.0370370
        k(   24) = (   0.1666667   0.4811252  -0.6072952), wk =   0.0370370
        k(   25) = (   0.1666667   0.8660254   0.0000000), wk =   0.0185185
        k(   26) = (   0.1666667   0.8660254   0.2024317), wk =   0.0370370
        k(   27) = (   0.1666667   0.8660254   0.4048635), wk =   0.0370370
        k(   28) = (   0.1666667   0.8660254  -0.6072952), wk =   0.0185185
        k(   29) = (   0.1666667  -1.0584755   0.0000000), wk =   0.0185185
        k(   30) = (   0.1666667  -1.0584755   0.2024317), wk =   0.0185185
        k(   31) = (   0.1666667  -1.0584755   0.4048635), wk =   0.0185185
        k(   32) = (   0.1666667  -1.0584755  -0.6072952), wk =   0.0185185
        k(   33) = (   0.1666667  -0.6735753   0.0000000), wk =   0.0370370
        k(   34) = (   0.1666667  -0.6735753   0.2024317), wk =   0.0370370
        k(   35) = (   0.1666667  -0.6735753   0.4048635), wk =   0.0370370
        k(   36) = (   0.1666667  -0.6735753  -0.6072952), wk =   0.0370370
        k(   37) = (   0.1666667  -0.2886751   0.0000000), wk =   0.0185185
        k(   38) = (   0.1666667  -0.2886751   0.2024317), wk =   0.0370370
        k(   39) = (   0.1666667  -0.2886751   0.4048635), wk =   0.0370370
        k(   40) = (   0.1666667  -0.2886751  -0.6072952), wk =   0.0185185
        k(   41) = (   0.3333333   0.1924501   0.0000000), wk =   0.0185185
        k(   42) = (   0.3333333   0.1924501   0.2024317), wk =   0.0185185
        k(   43) = (   0.3333333   0.1924501   0.4048635), wk =   0.0185185
        k(   44) = (   0.3333333   0.1924501  -0.6072952), wk =   0.0185185
        k(   45) = (   0.3333333   0.5773503   0.0000000), wk =   0.0185185
        k(   46) = (   0.3333333   0.5773503   0.2024317), wk =   0.0370370
        k(   47) = (   0.3333333   0.5773503   0.4048635), wk =   0.0370370
        k(   48) = (   0.3333333   0.5773503  -0.6072952), wk =   0.0185185
        k(   49) = (   0.3333333  -0.9622504   0.0000000), wk =   0.0185185
        k(   50) = (   0.3333333  -0.9622504   0.2024317), wk =   0.0185185
        k(   51) = (   0.3333333  -0.9622504   0.4048635), wk =   0.0185185
        k(   52) = (   0.3333333  -0.9622504  -0.6072952), wk =   0.0185185
        k(   53) = (   0.3333333  -0.5773503   0.0000000), wk =   0.0185185
        k(   54) = (   0.3333333  -0.5773503   0.2024317), wk =   0.0370370
        k(   55) = (   0.3333333  -0.5773503   0.4048635), wk =   0.0370370
        k(   56) = (   0.3333333  -0.5773503  -0.6072952), wk =   0.0185185
        k(   57) = (  -0.5000000  -0.2886751   0.0000000), wk =   0.0092593
        k(   58) = (  -0.5000000  -0.2886751   0.2024317), wk =   0.0185185
        k(   59) = (  -0.5000000  -0.2886751   0.4048635), wk =   0.0185185
        k(   60) = (  -0.5000000  -0.2886751  -0.6072952), wk =   0.0092593
[...]
        k(   66) = (   0.3333333  -0.1924501  -0.4048635), wk =   0.0370370
        k(   67) = (   0.6666667  -0.3849002  -0.2024317), wk =   0.0370370
        k(   68) = (   0.6666667  -0.3849002  -0.4048635), wk =   0.0370370
        k(   69) = (   0.1666667   0.0962250  -0.2024317), wk =   0.0185185
        k(   70) = (   0.1666667   0.0962250  -0.4048635), wk =   0.0185185
        k(   71) = (   0.5000000  -0.0962250  -0.2024317), wk =   0.0370370
        k(   72) = (   0.5000000  -0.0962250  -0.4048635), wk =   0.0370370
        k(   73) = (  -0.8333333   0.6735753  -0.2024317), wk =   0.0185185
        k(   74) = (  -0.8333333   0.6735753  -0.4048635), wk =   0.0185185
        k(   75) = (  -0.5000000   0.4811252  -0.2024317), wk =   0.0370370
        k(   76) = (  -0.5000000   0.4811252  -0.4048635), wk =   0.0370370
        k(   77) = (   0.3333333   0.1924501  -0.2024317), wk =   0.0185185
        k(   78) = (   0.3333333   0.1924501  -0.4048635), wk =   0.0185185
        k(   79) = (  -0.6666667   0.7698004  -0.2024317), wk =   0.0185185
        k(   80) = (  -0.6666667   0.7698004  -0.4048635), wk =   0.0185185

                       cryst. coord.
        k(    1) = (   0.0000000   0.0000000   0.0000000), wk =   0.0092593
        k(    2) = (   0.0000000   0.0000000   0.1666667), wk =   0.0185185
        k(    3) = (   0.0000000   0.0000000   0.3333333), wk =   0.0185185
        k(    4) = (   0.0000000   0.0000000  -0.5000000), wk =   0.0092593
        k(    5) = (   0.0000000   0.1666667   0.0000000), wk =   0.0370370
        k(    6) = (   0.0000000   0.1666667   0.1666667), wk =   0.0370370
        k(    7) = (   0.0000000   0.1666667   0.3333333), wk =   0.0370370
        k(    8) = (   0.0000000   0.1666667  -0.5000000), wk =   0.0370370
        k(    9) = (   0.0000000   0.3333333   0.0000000), wk =   0.0370370
        k(   10) = (   0.0000000   0.3333333   0.1666667), wk =   0.0370370
        k(   11) = (   0.0000000   0.3333333   0.3333333), wk =   0.0370370
        k(   12) = (   0.0000000   0.3333333  -0.5000000), wk =   0.0370370
        k(   13) = (   0.0000000  -0.5000000   0.0000000), wk =   0.0092593
        k(   14) = (   0.0000000  -0.5000000   0.1666667), wk =   0.0185185
        k(   15) = (   0.0000000  -0.5000000   0.3333333), wk =   0.0185185
        k(   16) = (   0.0000000  -0.5000000  -0.5000000), wk =   0.0092593
        k(   17) = (   0.1666667   0.0000000   0.0000000), wk =   0.0185185
        k(   18) = (   0.1666667   0.0000000   0.1666667), wk =   0.0185185
        k(   19) = (   0.1666667   0.0000000   0.3333333), wk =   0.0185185
        k(   20) = (   0.1666667   0.0000000  -0.5000000), wk =   0.0185185
        k(   21) = (   0.1666667   0.1666667   0.0000000), wk =   0.0370370
        k(   22) = (   0.1666667   0.1666667   0.1666667), wk =   0.0370370
        k(   23) = (   0.1666667   0.1666667   0.3333333), wk =   0.0370370
        k(   24) = (   0.1666667   0.1666667  -0.5000000), wk =   0.0370370
        k(   25) = (   0.1666667   0.3333333   0.0000000), wk =   0.0185185
        k(   26) = (   0.1666667   0.3333333   0.1666667), wk =   0.0370370
        k(   27) = (   0.1666667   0.3333333   0.3333333), wk =   0.0370370
        k(   28) = (   0.1666667   0.3333333  -0.5000000), wk =   0.0185185
        k(   29) = (   0.1666667  -0.5000000   0.0000000), wk =   0.0185185
        k(   30) = (   0.1666667  -0.5000000   0.1666667), wk =   0.0185185
        k(   31) = (   0.1666667  -0.5000000   0.3333333), wk =   0.0185185
        k(   32) = (   0.1666667  -0.5000000  -0.5000000), wk =   0.0185185
        k(   33) = (   0.1666667  -0.3333333   0.0000000), wk =   0.0370370
        k(   34) = (   0.1666667  -0.3333333   0.1666667), wk =   0.0370370
        k(   35) = (   0.1666667  -0.3333333   0.3333333), wk =   0.0370370
        k(   36) = (   0.1666667  -0.3333333  -0.5000000), wk =   0.0370370
        k(   37) = (   0.1666667  -0.1666667   0.0000000), wk =   0.0185185
        k(   38) = (   0.1666667  -0.1666667   0.1666667), wk =   0.0370370
        k(   39) = (   0.1666667  -0.1666667   0.3333333), wk =   0.0370370
        k(   40) = (   0.1666667  -0.1666667  -0.5000000), wk =   0.0185185
        k(   41) = (   0.3333333   0.0000000   0.0000000), wk =   0.0185185
        k(   42) = (   0.3333333   0.0000000   0.1666667), wk =   0.0185185
        k(   43) = (   0.3333333   0.0000000   0.3333333), wk =   0.0185185
        k(   44) = (   0.3333333   0.0000000  -0.5000000), wk =   0.0185185
        k(   45) = (   0.3333333   0.1666667   0.0000000), wk =   0.0185185
        k(   46) = (   0.3333333   0.1666667   0.1666667), wk =   0.0370370
        k(   47) = (   0.3333333   0.1666667   0.3333333), wk =   0.0370370
        k(   48) = (   0.3333333   0.1666667  -0.5000000), wk =   0.0185185
        k(   49) = (   0.3333333  -0.5000000   0.0000000), wk =   0.0185185
        k(   50) = (   0.3333333  -0.5000000   0.1666667), wk =   0.0185185
        k(   51) = (   0.3333333  -0.5000000   0.3333333), wk =   0.0185185
        k(   52) = (   0.3333333  -0.5000000  -0.5000000), wk =   0.0185185
        k(   53) = (   0.3333333  -0.3333333   0.0000000), wk =   0.0185185
        k(   54) = (   0.3333333  -0.3333333   0.1666667), wk =   0.0370370
        k(   55) = (   0.3333333  -0.3333333   0.3333333), wk =   0.0370370
        k(   56) = (   0.3333333  -0.3333333  -0.5000000), wk =   0.0185185
        k(   57) = (  -0.5000000  -0.0000000   0.0000000), wk =   0.0092593
        k(   58) = (  -0.5000000  -0.0000000   0.1666667), wk =   0.0185185
        k(   59) = (  -0.5000000  -0.0000000   0.3333333), wk =   0.0185185
        k(   60) = (  -0.5000000  -0.0000000  -0.5000000), wk =   0.0092593
[...]
        k(   66) = (   0.3333333  -0.1666667  -0.3333333), wk =   0.0370370
        k(   67) = (   0.6666667  -0.3333333  -0.1666667), wk =   0.0370370
        k(   68) = (   0.6666667  -0.3333333  -0.3333333), wk =   0.0370370
        k(   69) = (   0.1666667   0.0000000  -0.1666667), wk =   0.0185185
        k(   70) = (   0.1666667   0.0000000  -0.3333333), wk =   0.0185185
        k(   71) = (   0.5000000  -0.1666667  -0.1666667), wk =   0.0370370
        k(   72) = (   0.5000000  -0.1666667  -0.3333333), wk =   0.0370370
        k(   73) = (  -0.8333333   0.5000000  -0.1666667), wk =   0.0185185
        k(   74) = (  -0.8333333   0.5000000  -0.3333333), wk =   0.0185185
        k(   75) = (  -0.5000000   0.3333333  -0.1666667), wk =   0.0370370
        k(   76) = (  -0.5000000   0.3333333  -0.3333333), wk =   0.0370370
        k(   77) = (   0.3333333   0.0000000  -0.1666667), wk =   0.0185185
        k(   78) = (   0.3333333   0.0000000  -0.3333333), wk =   0.0185185
        k(   79) = (  -0.6666667   0.5000000  -0.1666667), wk =   0.0185185
        k(   80) = (  -0.6666667   0.5000000  -0.3333333), wk =   0.0185185

     Check: negative core charge=   -0.000002

     Initial potential from superposition of free atoms

     starting charge      71.9851, renormalised to      72.0000
     Starting wfcs are   52 randomized atomic wfcs

     Self-consistent Calculation

     iteration #  1     ecut=    50.00 Ry     beta= 0.30
     Davidson diagonalization with overlap

     ethr =  1.00E-02,  avg # of iterations =  1.6

     total energy              =    -722.87436055 Ry
     estimated scf accuracy    <       1.50409682 Ry

[...]

     total energy              =    -723.23038659 Ry
     estimated scf accuracy    <       0.00000002 Ry

     iteration # 41     ecut=    50.00 Ry     beta= 0.30
     Davidson diagonalization with overlap

     ethr =  2.29E-11,  avg # of iterations =  6.4

     End of self-consistent calculation

          k = 0.0000 0.0000 0.0000 (  4513 PWs)   bands (ev):

   -11.8995 -11.4232 -11.4153 -11.2695  -0.1187  -0.0552  -0.0549  -0.0203
     0.0787   0.0789   0.1333   0.1395   0.4203   0.4300   0.5062   0.5782
     0.7134   0.7134   0.7795   0.8315   0.8464   0.8465   0.8803   0.9382
     1.1718   1.4989   1.9515   2.7100   3.3397   3.9962   4.3792   4.4678
     4.4683   4.9600   5.0466   5.0471

     occupation numbers
     1.0000   1.0000   1.0000   1.0000   1.0000   1.0000   1.0000   1.0000
     1.0000   1.0000   1.0000   1.0000   1.0000   1.0000   1.0000   1.0000
     1.0000   1.0000   1.0000   1.0000   1.0000   1.0000   1.0000   1.0000
     1.0000   1.0000   1.0000   1.0000   1.0000   1.0000   1.0000   1.0000
     1.0000   1.0000   1.0000   1.0000

[...]

          k =-0.5000-0.2887 0.0000 (  4470 PWs)   bands (ev):

[...]

          k = 0.3333 0.1925-0.4049 (  4531 PWs)   bands (ev):

[...]

          k =-0.6667 0.7698-0.4049 (  4516 PWs)   bands (ev):

   -11.3790 -11.3790 -11.3024 -11.3024  -0.0812  -0.0812   0.0163   0.0163
     0.1914   0.1914   0.3525   0.3525   0.3977   0.3977   0.4254   0.4254
     0.7674   0.7674   0.8144   0.8144   0.9073   0.9073   0.9937   0.9937
     1.6762   1.6762   1.9485   1.9485   3.0863   3.0863   3.5379   3.5379
     3.7664   3.7664   4.1666   4.1666

     occupation numbers
     1.0000   1.0000   1.0000   1.0000   1.0000   1.0000   1.0000   1.0000
     1.0000   1.0000   1.0000   1.0000   1.0000   1.0000   1.0000   1.0000
     1.0000   1.0000   1.0000   1.0000   1.0000   1.0000   1.0000   1.0000
     1.0000   1.0000   1.0000   1.0000   1.0000   1.0000   1.0000   1.0000
     1.0000   1.0000   1.0000   1.0000

     highest occupied level (ev):     5.0471

!    total energy              =    -723.23038659 Ry
     estimated scf accuracy    <          9.0E-09 Ry

     The total energy is the sum of the following terms:
     one-electron contribution =    -339.98798163 Ry
     hartree contribution      =     247.71482404 Ry
     xc contribution           =    -218.57142125 Ry
     ewald contribution        =    -412.38580775 Ry

     convergence has been achieved in  41 iterations

     Forces acting on atoms (cartesian axes, Ry/au):

     atom    1 type  1   force =     0.00000058    0.00000034    0.00106072
     atom    2 type  1   force =     0.00000124    0.00000071    0.00106097
     atom    3 type  2   force =    -0.00000372   -0.00000215   -0.00106077
     atom    4 type  2   force =     0.00000398    0.00000230   -0.00106072
     atom    5 type  1   force =    -0.00000065   -0.00000038    0.00105889
     atom    6 type  1   force =    -0.00000161   -0.00000093    0.00106228
     atom    7 type  2   force =    -0.00000378   -0.00000218   -0.00106069
     atom    8 type  2   force =     0.00000396    0.00000229   -0.00106068
     The non-local contrib.  to forces
     atom    1 type  1   force =    -0.00000504   -0.00000291    0.04751374
     atom    2 type  1   force =     0.00000595    0.00000344    0.04751341
     atom    3 type  2   force =    -0.00019328   -0.00011159    0.05666544
     atom    4 type  2   force =     0.00019329    0.00011160    0.05666570
     atom    5 type  1   force =    -0.00000560   -0.00000323    0.04751288
     atom    6 type  1   force =     0.00000478    0.00000276    0.04751399
     atom    7 type  2   force =    -0.00019376   -0.00011187    0.05666556
     atom    8 type  2   force =     0.00019361    0.00011178    0.05666533
     The ionic contribution  to forces
     atom    1 type  1   force =    -0.00000000    0.00000000    0.42995591
     atom    2 type  1   force =     0.00000000   -0.00000000    0.42995591
     atom    3 type  2   force =    -0.00000000    0.00000000   -0.42995591
     atom    4 type  2   force =     0.00000000   -0.00000000   -0.42995591
     atom    5 type  1   force =    -0.00000000    0.00000000    0.42995591
     atom    6 type  1   force =     0.00000000   -0.00000000    0.42995591
     atom    7 type  2   force =    -0.00000000    0.00000000   -0.42995591
     atom    8 type  2   force =     0.00000000   -0.00000000   -0.42995591
     The local contribution  to forces
     atom    1 type  1   force =     0.00001112    0.00000642   -0.47339187
     atom    2 type  1   force =    -0.00001494   -0.00000873   -0.47339219
     atom    3 type  2   force =     0.00018704    0.00010799    0.37273435
     atom    4 type  2   force =    -0.00018809   -0.00010862    0.37273436
     atom    5 type  1   force =     0.00001328    0.00000767   -0.47338847
     atom    6 type  1   force =    -0.00000915   -0.00000539   -0.47339436
     atom    7 type  2   force =     0.00018777    0.00010841    0.37273376
     atom    8 type  2   force =    -0.00018743   -0.00010824    0.37273473
     The core correction contribution to forces
     atom    1 type  1   force =    -0.00000593   -0.00000342   -0.00302065
     atom    2 type  1   force =     0.00000619    0.00000350   -0.00302062
     atom    3 type  2   force =     0.00000220    0.00000127   -0.00050280
     atom    4 type  2   force =    -0.00000217   -0.00000125   -0.00050281
     atom    5 type  1   force =    -0.00000610   -0.00000346   -0.00302076
     atom    6 type  1   force =     0.00000587    0.00000337   -0.00302055
     atom    7 type  2   force =     0.00000218    0.00000126   -0.00050281
     atom    8 type  2   force =    -0.00000220   -0.00000127   -0.00050280
     The Hubbard contrib.    to forces
     atom    1 type  1   force =     0.00000000    0.00000000    0.00000000
     atom    2 type  1   force =     0.00000000    0.00000000    0.00000000
     atom    3 type  2   force =     0.00000000    0.00000000    0.00000000
     atom    4 type  2   force =     0.00000000    0.00000000    0.00000000
     atom    5 type  1   force =     0.00000000    0.00000000    0.00000000
     atom    6 type  1   force =     0.00000000    0.00000000    0.00000000
     atom    7 type  2   force =     0.00000000    0.00000000    0.00000000
     atom    8 type  2   force =     0.00000000    0.00000000    0.00000000
     The SCF correction term to forces
     atom    1 type  1   force =     0.00000031    0.00000018    0.00000585
     atom    2 type  1   force =     0.00000399    0.00000230    0.00000673
     atom    3 type  2   force =     0.00000021    0.00000012    0.00000039
     atom    4 type  2   force =     0.00000084    0.00000048    0.00000020
     atom    5 type  1   force =    -0.00000238   -0.00000137    0.00000159
     atom    6 type  1   force =    -0.00000317   -0.00000183    0.00000955
     atom    7 type  2   force =    -0.00000008   -0.00000005    0.00000096
     atom    8 type  2   force =    -0.00000012   -0.00000007    0.00000022

     Total force =     0.003000     Total SCF correction =     0.000015

     General routines

     Parallel routines

   This run was terminated on:  22: 9:28  26Aug2025

   JOB DONE.