     Program PWSCF v.7.0 starts on 26Aug2025 at 14: 3: 5

     K-points division:     npool     =       4
     band groups division:  nbgrp     =       4

     Reading input from /home/jvc/QEspresso7.2/ZnO_database/scripts/cell211.in/ZnO-3.01-1.52-211.in
Warning: card &CELL ignored
Warning: card / ignored
Warning: card &FCP ignored
Warning: card / ignored
Warning: card &RISM ignored
Warning: card / ignored

     Current dimensions of program PWSCF are:
     Max number of different atomic species (ntypx) = 10
     Max number of k-points (npk) =  40000
     Max angular momentum in pseudopotentials (lmaxx) =  4
     file Zn.upf: wavefunction(s)  3D renormalized
     Found identity + ( -0.5000  0.0000  0.0000) symmetry
     This is a supercell, fractional translations are disabled
     Message from routine setup:
     using ibrav=0 with symmetry is DISCOURAGED, use correct ibrav instead

     Subspace diagonalization in iterative solution of the eigenvalue problem:
     a serial algorithm will be used

     Using Slab Decomposition

     bravais-lattice index     =            0
     lattice parameter (alat)  =      11.3691  a.u.
     unit-cell volume          =     482.8094 (a.u.)^3
     number of atoms/cell      =            8
     number of atomic types    =            2
     number of electrons       =        72.00
     number of Kohn-Sham states=           36
     kinetic-energy cutoff     =      50.0000  Ry
     charge density cutoff     =     400.0000  Ry
     scf convergence threshold =      1.0E-08
     mixing beta               =       0.3000
     number of iterations used =            8  plain     mixing
     Exchange-correlation= PBE
                           (   1   4   3   4   0   0   0)

     celldm(1)=  11.369091  celldm(2)=   0.000000  celldm(3)=   0.000000
     celldm(4)=   0.000000  celldm(5)=   0.000000  celldm(6)=   0.000000

     crystal axes: (cart. coord. in units of alat)
               a(1) = (   1.000000   0.000000   0.000000 )
               a(2) = (  -0.250000   0.433013   0.000000 )
               a(3) = (   0.000000   0.000000   0.758748 )

     reciprocal axes: (cart. coord. in units 2 pi/alat)
               b(1) = (  1.000000  0.577350 -0.000000 )
               b(2) = (  0.000000  2.309401  0.000000 )
               b(3) = (  0.000000 -0.000000  1.317960 )

     PseudoPot. # 1 for Zn read from file:
     /home/jvc/QEspresso7.2/ZnO_database/pseudos/Zn.upf
     MD5 check sum: 7f56cabf9682ed8c977c2f7d0c5985c5
     Pseudo is Ultrasoft + core correction, Zval = 12.0
     Generated using &quot;atomic&quot; code by A. Dal Corso  v.6.2.2
     Using radial grid of 1201 points,  6 beta functions with:
                l(1) =   0
                l(2) =   0
                l(3) =   1
                l(4) =   1
                l(5) =   2
                l(6) =   2
     Q(r) pseudized with 0 coefficients

     PseudoPot. # 2 for O  read from file:
     /home/jvc/QEspresso7.2/ZnO_database/pseudos/O.upf
     MD5 check sum: 91400c9766925bcf19f520983a725ff0
     Pseudo is Ultrasoft + core correction, Zval =  6.0
     Generated using &quot;atomic&quot; code by A. Dal Corso  v.6.3MaX
     Using radial grid of 1095 points,  4 beta functions with:
                l(1) =   0
                l(2) =   0
                l(3) =   1
                l(4) =   1
     Q(r) pseudized with 0 coefficients

     atomic species   valence    mass     pseudopotential
        Zn            12.00    65.38000     Zn( 1.00)
        O              6.00    15.99900     O ( 1.00)

      2 Sym. Ops. (no inversion) found

                                    s                        frac. trans.

      isym =  1     identity

 cryst.   s( 1) = (     1          0          0      )
                  (     0          1          0      )
                  (     0          0          1      )

 cart.    s( 1) = (  1.0000000  0.0000000  0.0000000 )
                  (  0.0000000  1.0000000  0.0000000 )
                  (  0.0000000  0.0000000  1.0000000 )

      isym =  2     inv. 180 deg rotation - cryst. axis [0,1,0]

 cryst.   s( 2) = (     1          2          0      )
                  (     0         -1          0      )
                  (     0          0          1      )

 cart.    s( 2) = (  0.5000000  0.8660254  0.0000000 )
                  (  0.8660254 -0.5000000  0.0000000 )
                  (  0.0000000  0.0000000  1.0000000 )

   Cartesian axes

     site n.     atom                  positions (alat units)
         1           Zn  tau(   1) = (   0.2500000   0.1443376   0.3798549  )
         2           Zn  tau(   2) = (  -0.0000000   0.2886751   0.0004807  )
         3           O   tau(   3) = (   0.2500000   0.1443376   0.6674531  )
         4           O   tau(   4) = (  -0.0000000   0.2886751   0.2880789  )
         5           Zn  tau(   5) = (   0.7500000   0.1443376   0.3798549  )
         6           Zn  tau(   6) = (   0.5000000   0.2886751   0.0004807  )
         7           O   tau(   7) = (   0.7500000   0.1443376   0.6674531  )
         8           O   tau(   8) = (   0.5000000   0.2886751   0.2880789  )

   Crystallographic axes

     site n.     atom                  positions (cryst. coord.)
         1           Zn  tau(   1) = (  0.3333333  0.3333333  0.5006336  )
         2           Zn  tau(   2) = (  0.1666667  0.6666667  0.0006336  )
         3           O   tau(   3) = (  0.3333333  0.3333333  0.8796764  )
         4           O   tau(   4) = (  0.1666667  0.6666667  0.3796764  )
         5           Zn  tau(   5) = (  0.8333333  0.3333333  0.5006336  )
         6           Zn  tau(   6) = (  0.6666667  0.6666667  0.0006336  )
         7           O   tau(   7) = (  0.8333333  0.3333333  0.8796764  )
         8           O   tau(   8) = (  0.6666667  0.6666667  0.3796764  )

     number of k points=    80
                       cart. coord. in units 2pi/alat
        k(    1) = (   0.0000000   0.0000000   0.0000000), wk =   0.0092593
        k(    2) = (   0.0000000   0.0000000   0.2196600), wk =   0.0185185
        k(    3) = (   0.0000000   0.0000000   0.4393200), wk =   0.0185185
        k(    4) = (   0.0000000   0.0000000  -0.6589799), wk =   0.0092593
        k(    5) = (   0.0000000   0.3849002   0.0000000), wk =   0.0370370
        k(    6) = (   0.0000000   0.3849002   0.2196600), wk =   0.0370370
        k(    7) = (   0.0000000   0.3849002   0.4393200), wk =   0.0370370
        k(    8) = (   0.0000000   0.3849002  -0.6589799), wk =   0.0370370
        k(    9) = (   0.0000000   0.7698004   0.0000000), wk =   0.0370370
        k(   10) = (   0.0000000   0.7698004   0.2196600), wk =   0.0370370
        k(   11) = (   0.0000000   0.7698004   0.4393200), wk =   0.0370370
        k(   12) = (   0.0000000   0.7698004  -0.6589799), wk =   0.0370370
        k(   13) = (   0.0000000  -1.1547005   0.0000000), wk =   0.0092593
        k(   14) = (   0.0000000  -1.1547005   0.2196600), wk =   0.0185185
        k(   15) = (   0.0000000  -1.1547005   0.4393200), wk =   0.0185185
        k(   16) = (   0.0000000  -1.1547005  -0.6589799), wk =   0.0092593
        k(   17) = (   0.1666667   0.0962250   0.0000000), wk =   0.0185185
        k(   18) = (   0.1666667   0.0962250   0.2196600), wk =   0.0185185
        k(   19) = (   0.1666667   0.0962250   0.4393200), wk =   0.0185185
        k(   20) = (   0.1666667   0.0962250  -0.6589799), wk =   0.0185185
        k(   21) = (   0.1666667   0.4811252   0.0000000), wk =   0.0370370
        k(   22) = (   0.1666667   0.4811252   0.2196600), wk =   0.0370370
        k(   23) = (   0.1666667   0.4811252   0.4393200), wk =   0.0370370
        k(   24) = (   0.1666667   0.4811252  -0.6589799), wk =   0.0370370
        k(   25) = (   0.1666667   0.8660254   0.0000000), wk =   0.0185185
        k(   26) = (   0.1666667   0.8660254   0.2196600), wk =   0.0370370
        k(   27) = (   0.1666667   0.8660254   0.4393200), wk =   0.0370370
        k(   28) = (   0.1666667   0.8660254  -0.6589799), wk =   0.0185185
        k(   29) = (   0.1666667  -1.0584755   0.0000000), wk =   0.0185185
        k(   30) = (   0.1666667  -1.0584755   0.2196600), wk =   0.0185185
        k(   31) = (   0.1666667  -1.0584755   0.4393200), wk =   0.0185185
        k(   32) = (   0.1666667  -1.0584755  -0.6589799), wk =   0.0185185
        k(   33) = (   0.1666667  -0.6735753   0.0000000), wk =   0.0370370
        k(   34) = (   0.1666667  -0.6735753   0.2196600), wk =   0.0370370
        k(   35) = (   0.1666667  -0.6735753   0.4393200), wk =   0.0370370
        k(   36) = (   0.1666667  -0.6735753  -0.6589799), wk =   0.0370370
        k(   37) = (   0.1666667  -0.2886751   0.0000000), wk =   0.0185185
        k(   38) = (   0.1666667  -0.2886751   0.2196600), wk =   0.0370370
        k(   39) = (   0.1666667  -0.2886751   0.4393200), wk =   0.0370370
        k(   40) = (   0.1666667  -0.2886751  -0.6589799), wk =   0.0185185
        k(   41) = (   0.3333333   0.1924501   0.0000000), wk =   0.0185185
        k(   42) = (   0.3333333   0.1924501   0.2196600), wk =   0.0185185
        k(   43) = (   0.3333333   0.1924501   0.4393200), wk =   0.0185185
        k(   44) = (   0.3333333   0.1924501  -0.6589799), wk =   0.0185185
        k(   45) = (   0.3333333   0.5773503   0.0000000), wk =   0.0185185
        k(   46) = (   0.3333333   0.5773503   0.2196600), wk =   0.0370370
        k(   47) = (   0.3333333   0.5773503   0.4393200), wk =   0.0370370
        k(   48) = (   0.3333333   0.5773503  -0.6589799), wk =   0.0185185
        k(   49) = (   0.3333333  -0.9622504   0.0000000), wk =   0.0185185
        k(   50) = (   0.3333333  -0.9622504   0.2196600), wk =   0.0185185
        k(   51) = (   0.3333333  -0.9622504   0.4393200), wk =   0.0185185
        k(   52) = (   0.3333333  -0.9622504  -0.6589799), wk =   0.0185185
        k(   53) = (   0.3333333  -0.5773503   0.0000000), wk =   0.0185185
        k(   54) = (   0.3333333  -0.5773503   0.2196600), wk =   0.0370370
        k(   55) = (   0.3333333  -0.5773503   0.4393200), wk =   0.0370370
        k(   56) = (   0.3333333  -0.5773503  -0.6589799), wk =   0.0185185
        k(   57) = (  -0.5000000  -0.2886751   0.0000000), wk =   0.0092593
        k(   58) = (  -0.5000000  -0.2886751   0.2196600), wk =   0.0185185
        k(   59) = (  -0.5000000  -0.2886751   0.4393200), wk =   0.0185185
        k(   60) = (  -0.5000000  -0.2886751  -0.6589799), wk =   0.0092593
[...]
        k(   66) = (   0.3333333  -0.1924501  -0.4393200), wk =   0.0370370
        k(   67) = (   0.6666667  -0.3849002  -0.2196600), wk =   0.0370370
        k(   68) = (   0.6666667  -0.3849002  -0.4393200), wk =   0.0370370
        k(   69) = (   0.1666667   0.0962250  -0.2196600), wk =   0.0185185
        k(   70) = (   0.1666667   0.0962250  -0.4393200), wk =   0.0185185
        k(   71) = (   0.5000000  -0.0962250  -0.2196600), wk =   0.0370370
        k(   72) = (   0.5000000  -0.0962250  -0.4393200), wk =   0.0370370
        k(   73) = (  -0.8333333   0.6735753  -0.2196600), wk =   0.0185185
        k(   74) = (  -0.8333333   0.6735753  -0.4393200), wk =   0.0185185
        k(   75) = (  -0.5000000   0.4811252  -0.2196600), wk =   0.0370370
        k(   76) = (  -0.5000000   0.4811252  -0.4393200), wk =   0.0370370
        k(   77) = (   0.3333333   0.1924501  -0.2196600), wk =   0.0185185
        k(   78) = (   0.3333333   0.1924501  -0.4393200), wk =   0.0185185
        k(   79) = (  -0.6666667   0.7698004  -0.2196600), wk =   0.0185185
        k(   80) = (  -0.6666667   0.7698004  -0.4393200), wk =   0.0185185

                       cryst. coord.
        k(    1) = (   0.0000000   0.0000000   0.0000000), wk =   0.0092593
        k(    2) = (   0.0000000   0.0000000   0.1666667), wk =   0.0185185
        k(    3) = (   0.0000000   0.0000000   0.3333333), wk =   0.0185185
        k(    4) = (   0.0000000   0.0000000  -0.5000000), wk =   0.0092593
        k(    5) = (   0.0000000   0.1666667   0.0000000), wk =   0.0370370
        k(    6) = (   0.0000000   0.1666667   0.1666667), wk =   0.0370370
        k(    7) = (   0.0000000   0.1666667   0.3333333), wk =   0.0370370
        k(    8) = (   0.0000000   0.1666667  -0.5000000), wk =   0.0370370
        k(    9) = (   0.0000000   0.3333333   0.0000000), wk =   0.0370370
        k(   10) = (   0.0000000   0.3333333   0.1666667), wk =   0.0370370
        k(   11) = (   0.0000000   0.3333333   0.3333333), wk =   0.0370370
        k(   12) = (   0.0000000   0.3333333  -0.5000000), wk =   0.0370370
        k(   13) = (   0.0000000  -0.5000000   0.0000000), wk =   0.0092593
        k(   14) = (   0.0000000  -0.5000000   0.1666667), wk =   0.0185185
        k(   15) = (   0.0000000  -0.5000000   0.3333333), wk =   0.0185185
        k(   16) = (   0.0000000  -0.5000000  -0.5000000), wk =   0.0092593
        k(   17) = (   0.1666667  -0.0000000   0.0000000), wk =   0.0185185
        k(   18) = (   0.1666667  -0.0000000   0.1666667), wk =   0.0185185
        k(   19) = (   0.1666667  -0.0000000   0.3333333), wk =   0.0185185
        k(   20) = (   0.1666667  -0.0000000  -0.5000000), wk =   0.0185185
        k(   21) = (   0.1666667   0.1666667   0.0000000), wk =   0.0370370
        k(   22) = (   0.1666667   0.1666667   0.1666667), wk =   0.0370370
        k(   23) = (   0.1666667   0.1666667   0.3333333), wk =   0.0370370
        k(   24) = (   0.1666667   0.1666667  -0.5000000), wk =   0.0370370
        k(   25) = (   0.1666667   0.3333333   0.0000000), wk =   0.0185185
        k(   26) = (   0.1666667   0.3333333   0.1666667), wk =   0.0370370
        k(   27) = (   0.1666667   0.3333333   0.3333333), wk =   0.0370370
        k(   28) = (   0.1666667   0.3333333  -0.5000000), wk =   0.0185185
        k(   29) = (   0.1666667  -0.5000000   0.0000000), wk =   0.0185185
        k(   30) = (   0.1666667  -0.5000000   0.1666667), wk =   0.0185185
        k(   31) = (   0.1666667  -0.5000000   0.3333333), wk =   0.0185185
        k(   32) = (   0.1666667  -0.5000000  -0.5000000), wk =   0.0185185
        k(   33) = (   0.1666667  -0.3333333   0.0000000), wk =   0.0370370
        k(   34) = (   0.1666667  -0.3333333   0.1666667), wk =   0.0370370
        k(   35) = (   0.1666667  -0.3333333   0.3333333), wk =   0.0370370
        k(   36) = (   0.1666667  -0.3333333  -0.5000000), wk =   0.0370370
        k(   37) = (   0.1666667  -0.1666667   0.0000000), wk =   0.0185185
        k(   38) = (   0.1666667  -0.1666667   0.1666667), wk =   0.0370370
        k(   39) = (   0.1666667  -0.1666667   0.3333333), wk =   0.0370370
        k(   40) = (   0.1666667  -0.1666667  -0.5000000), wk =   0.0185185
        k(   41) = (   0.3333333  -0.0000000   0.0000000), wk =   0.0185185
        k(   42) = (   0.3333333  -0.0000000   0.1666667), wk =   0.0185185
        k(   43) = (   0.3333333  -0.0000000   0.3333333), wk =   0.0185185
        k(   44) = (   0.3333333  -0.0000000  -0.5000000), wk =   0.0185185
        k(   45) = (   0.3333333   0.1666667   0.0000000), wk =   0.0185185
        k(   46) = (   0.3333333   0.1666667   0.1666667), wk =   0.0370370
        k(   47) = (   0.3333333   0.1666667   0.3333333), wk =   0.0370370
        k(   48) = (   0.3333333   0.1666667  -0.5000000), wk =   0.0185185
        k(   49) = (   0.3333333  -0.5000000   0.0000000), wk =   0.0185185
        k(   50) = (   0.3333333  -0.5000000   0.1666667), wk =   0.0185185
        k(   51) = (   0.3333333  -0.5000000   0.3333333), wk =   0.0185185
        k(   52) = (   0.3333333  -0.5000000  -0.5000000), wk =   0.0185185
        k(   53) = (   0.3333333  -0.3333333   0.0000000), wk =   0.0185185
        k(   54) = (   0.3333333  -0.3333333   0.1666667), wk =   0.0370370
        k(   55) = (   0.3333333  -0.3333333   0.3333333), wk =   0.0370370
        k(   56) = (   0.3333333  -0.3333333  -0.5000000), wk =   0.0185185
        k(   57) = (  -0.5000000   0.0000000   0.0000000), wk =   0.0092593
        k(   58) = (  -0.5000000   0.0000000   0.1666667), wk =   0.0185185
        k(   59) = (  -0.5000000   0.0000000   0.3333333), wk =   0.0185185
        k(   60) = (  -0.5000000   0.0000000  -0.5000000), wk =   0.0092593
[...]
        k(   66) = (   0.3333333  -0.1666667  -0.3333333), wk =   0.0370370
        k(   67) = (   0.6666667  -0.3333333  -0.1666667), wk =   0.0370370
        k(   68) = (   0.6666667  -0.3333333  -0.3333333), wk =   0.0370370
        k(   69) = (   0.1666667   0.0000000  -0.1666667), wk =   0.0185185
        k(   70) = (   0.1666667   0.0000000  -0.3333333), wk =   0.0185185
        k(   71) = (   0.5000000  -0.1666667  -0.1666667), wk =   0.0370370
        k(   72) = (   0.5000000  -0.1666667  -0.3333333), wk =   0.0370370
        k(   73) = (  -0.8333333   0.5000000  -0.1666667), wk =   0.0185185
        k(   74) = (  -0.8333333   0.5000000  -0.3333333), wk =   0.0185185
        k(   75) = (  -0.5000000   0.3333333  -0.1666667), wk =   0.0370370
        k(   76) = (  -0.5000000   0.3333333  -0.3333333), wk =   0.0370370
        k(   77) = (   0.3333333   0.0000000  -0.1666667), wk =   0.0185185
        k(   78) = (   0.3333333   0.0000000  -0.3333333), wk =   0.0185185
        k(   79) = (  -0.6666667   0.5000000  -0.1666667), wk =   0.0185185
        k(   80) = (  -0.6666667   0.5000000  -0.3333333), wk =   0.0185185

     Check: negative core charge=   -0.000001

     Initial potential from superposition of free atoms

     starting charge      71.9851, renormalised to      72.0000
     Starting wfcs are   52 randomized atomic wfcs

     Self-consistent Calculation

     iteration #  1     ecut=    50.00 Ry     beta= 0.30
     Davidson diagonalization with overlap

     ethr =  1.00E-02,  avg # of iterations =  2.2

     total energy              =    -722.59219979 Ry
     estimated scf accuracy    <       1.38592302 Ry

[...]

     total energy              =    -722.85131302 Ry
     estimated scf accuracy    <       0.00000033 Ry

     iteration # 26     ecut=    50.00 Ry     beta= 0.30
     Davidson diagonalization with overlap

     ethr =  4.36E-10,  avg # of iterations =  4.0

     End of self-consistent calculation

          k = 0.0000 0.0000 0.0000 (  2873 PWs)   bands (ev):

    -8.5751  -7.4298  -7.1713  -6.9966   4.1334   4.1820   4.2197   4.7487
     4.7488   4.8198   5.0851   5.0916   5.0917   5.2305   5.7249   5.9899
     6.8735   6.8736   6.9380   7.2242   7.3384   7.3385   7.4401   7.5103
     7.7423   7.7725   8.1793   8.7038   8.7615  10.6864  10.9182  10.9184
    11.1350  12.2554  12.2923  12.2925

     occupation numbers
     1.0000   1.0000   1.0000   1.0000   1.0000   1.0000   1.0000   1.0000
     1.0000   1.0000   1.0000   1.0000   1.0000   1.0000   1.0000   1.0000
     1.0000   1.0000   1.0000   1.0000   1.0000   1.0000   1.0000   1.0000
     1.0000   1.0000   1.0000   1.0000   1.0000   1.0000   1.0000   1.0000
     1.0000   1.0000   1.0000   1.0000

[...]

          k =-0.5000-0.2887 0.0000 (  2906 PWs)   bands (ev):

[...]

          k = 0.3333 0.1925-0.4393 (  2889 PWs)   bands (ev):

[...]

          k =-0.6667 0.7698-0.4393 (  2880 PWs)   bands (ev):

    -7.3058  -7.3058  -7.0724  -7.0724   3.9320   3.9320   4.0004   4.0004
     4.9793   4.9793   5.0801   5.0801   5.5462   5.5462   5.6529   5.6529
     7.0088   7.0088   7.1827   7.1827   7.4270   7.4270   7.6166   7.6166
     7.9444   7.9444   8.4301   8.4301   8.9856   8.9857   9.8950   9.8950
    10.2518  10.2518  10.9889  10.9889

     occupation numbers
     1.0000   1.0000   1.0000   1.0000   1.0000   1.0000   1.0000   1.0000
     1.0000   1.0000   1.0000   1.0000   1.0000   1.0000   1.0000   1.0000
     1.0000   1.0000   1.0000   1.0000   1.0000   1.0000   1.0000   1.0000
     1.0000   1.0000   1.0000   1.0000   1.0000   1.0000   1.0000   1.0000
     1.0000   1.0000   1.0000   1.0000

     highest occupied level (ev):    12.2925

!    total energy              =    -722.85131311 Ry
     estimated scf accuracy    <          4.2E-09 Ry

     The total energy is the sum of the following terms:
     one-electron contribution =    -235.59065381 Ry
     hartree contribution      =     211.73575643 Ry
     xc contribution           =    -220.65486466 Ry
     ewald contribution        =    -478.34155107 Ry

     convergence has been achieved in  26 iterations

     Forces acting on atoms (cartesian axes, Ry/au):

     atom    1 type  1   force =     0.00001451    0.00000838   -0.08357110
     atom    2 type  1   force =    -0.00001822   -0.00001052   -0.08357328
     atom    3 type  2   force =    -0.00000286   -0.00000165    0.08357198
     atom    4 type  2   force =     0.00000199    0.00000115    0.08357208
     atom    5 type  1   force =     0.00001622    0.00000937   -0.08357152
     atom    6 type  1   force =    -0.00001125   -0.00000649   -0.08357237
     atom    7 type  2   force =    -0.00000245   -0.00000141    0.08357418
     atom    8 type  2   force =     0.00000205    0.00000118    0.08357003
     The non-local contrib.  to forces
     atom    1 type  1   force =    -0.00002516   -0.00001452   -0.21556060
     atom    2 type  1   force =     0.00002112    0.00001220   -0.21556351
     atom    3 type  2   force =    -0.00014248   -0.00008226   -0.12077084
     atom    4 type  2   force =     0.00014386    0.00008306   -0.12077219
     atom    5 type  1   force =    -0.00002509   -0.00001448   -0.21555858
     atom    6 type  1   force =     0.00002837    0.00001638   -0.21556576
     atom    7 type  2   force =    -0.00014481   -0.00008361   -0.12076876
     atom    8 type  2   force =     0.00014231    0.00008216   -0.12077531
     The ionic contribution  to forces
     atom    1 type  1   force =     0.00000000    0.00000001   -1.49109069
     atom    2 type  1   force =     0.00000001    0.00000000   -1.49109069
     atom    3 type  2   force =     0.00000000    0.00000001    1.49109069
     atom    4 type  2   force =     0.00000001   -0.00000000    1.49109069
     atom    5 type  1   force =    -0.00000000   -0.00000000   -1.49109069
     atom    6 type  1   force =    -0.00000001   -0.00000001   -1.49109069
     atom    7 type  2   force =    -0.00000000   -0.00000000    1.49109069
     atom    8 type  2   force =    -0.00000001   -0.00000000    1.49109069
     The local contribution  to forces
     atom    1 type  1   force =     0.00004250    0.00002454    1.60127705
     atom    2 type  1   force =    -0.00003322   -0.00001927    1.60127805
     atom    3 type  2   force =     0.00014083    0.00008131   -1.28731495
     atom    4 type  2   force =    -0.00013216   -0.00007633   -1.28731801
     atom    5 type  1   force =     0.00004090    0.00002361    1.60127119
     atom    6 type  1   force =    -0.00005135   -0.00002965    1.60128351
     atom    7 type  2   force =     0.00013742    0.00007934   -1.28731489
     atom    8 type  2   force =    -0.00013801   -0.00007968   -1.28732514
     The core correction contribution to forces
     atom    1 type  1   force =    -0.00000227   -0.00000131    0.02179258
     atom    2 type  1   force =     0.00000220    0.00000124    0.02179280
     atom    3 type  2   force =     0.00000164    0.00000095    0.00058333
     atom    4 type  2   force =    -0.00000163   -0.00000095    0.00058335
     atom    5 type  1   force =    -0.00000232   -0.00000132    0.02179277
     atom    6 type  1   force =     0.00000240    0.00000138    0.02179268
     atom    7 type  2   force =     0.00000167    0.00000097    0.00058329
     atom    8 type  2   force =    -0.00000164   -0.00000095    0.00058336
     The Hubbard contrib.    to forces
     atom    1 type  1   force =     0.00000000    0.00000000    0.00000000
     atom    2 type  1   force =     0.00000000    0.00000000    0.00000000
     atom    3 type  2   force =     0.00000000    0.00000000    0.00000000
     atom    4 type  2   force =     0.00000000    0.00000000    0.00000000
     atom    5 type  1   force =     0.00000000    0.00000000    0.00000000
     atom    6 type  1   force =     0.00000000    0.00000000    0.00000000
     atom    7 type  2   force =     0.00000000    0.00000000    0.00000000
     atom    8 type  2   force =     0.00000000    0.00000000    0.00000000
     The SCF correction term to forces
     atom    1 type  1   force =    -0.00000017   -0.00000010    0.00001596
     atom    2 type  1   force =    -0.00000788   -0.00000455    0.00001547
     atom    3 type  2   force =    -0.00000245   -0.00000141   -0.00001087
     atom    4 type  2   force =    -0.00000766   -0.00000442   -0.00000637
     atom    5 type  1   force =     0.00000314    0.00000181    0.00001918
     atom    6 type  1   force =     0.00000976    0.00000563    0.00001328
     atom    7 type  2   force =     0.00000367    0.00000212   -0.00001076
     atom    8 type  2   force =    -0.00000020   -0.00000012    0.00000182

     Total force =     0.236378     Total SCF correction =     0.000041

     General routines

     Parallel routines

   This run was terminated on:  14: 7:34  26Aug2025

   JOB DONE.