     Program PWSCF v.7.0 starts on 27Aug2025 at  1: 0:39

     K-points division:     npool     =       4
     band groups division:  nbgrp     =       4

     Reading input from /home/jvc/QEspresso7.2/ZnO_database/scripts/cell211.in/ZnO-3.53-1.71-211.in
Warning: card &CELL ignored
Warning: card / ignored
Warning: card &FCP ignored
Warning: card / ignored
Warning: card &RISM ignored
Warning: card / ignored

     Current dimensions of program PWSCF are:
     Max number of different atomic species (ntypx) = 10
     Max number of k-points (npk) =  40000
     Max angular momentum in pseudopotentials (lmaxx) =  4
     file Zn.upf: wavefunction(s)  3D renormalized
     Found identity + ( -0.5000  0.0000  0.0000) symmetry
     This is a supercell, fractional translations are disabled
     Message from routine setup:
     using ibrav=0 with symmetry is DISCOURAGED, use correct ibrav instead

     Subspace diagonalization in iterative solution of the eigenvalue problem:
     a serial algorithm will be used

     Using Slab Decomposition

     bravais-lattice index     =            0
     lattice parameter (alat)  =      13.3463  a.u.
     unit-cell volume          =     880.7679 (a.u.)^3
     number of atoms/cell      =            8
     number of atomic types    =            2
     number of electrons       =        72.00
     number of Kohn-Sham states=           36
     kinetic-energy cutoff     =      50.0000  Ry
     charge density cutoff     =     400.0000  Ry
     scf convergence threshold =      1.0E-08
     mixing beta               =       0.3000
     number of iterations used =            8  plain     mixing
     Exchange-correlation= PBE
                           (   1   4   3   4   0   0   0)

     celldm(1)=  13.346325  celldm(2)=   0.000000  celldm(3)=   0.000000
     celldm(4)=   0.000000  celldm(5)=   0.000000  celldm(6)=   0.000000

     crystal axes: (cart. coord. in units of alat)
               a(1) = (   1.000000   0.000000   0.000000 )
               a(2) = (  -0.250000   0.433013   0.000000 )
               a(3) = (   0.000000   0.000000   0.855610 )

     reciprocal axes: (cart. coord. in units 2 pi/alat)
               b(1) = (  1.000000  0.577350 -0.000000 )
               b(2) = (  0.000000  2.309401  0.000000 )
               b(3) = (  0.000000 -0.000000  1.168757 )

     PseudoPot. # 1 for Zn read from file:
     /home/jvc/QEspresso7.2/ZnO_database/pseudos/Zn.upf
     MD5 check sum: 7f56cabf9682ed8c977c2f7d0c5985c5
     Pseudo is Ultrasoft + core correction, Zval = 12.0
     Generated using &quot;atomic&quot; code by A. Dal Corso  v.6.2.2
     Using radial grid of 1201 points,  6 beta functions with:
                l(1) =   0
                l(2) =   0
                l(3) =   1
                l(4) =   1
                l(5) =   2
                l(6) =   2
     Q(r) pseudized with 0 coefficients

     PseudoPot. # 2 for O  read from file:
     /home/jvc/QEspresso7.2/ZnO_database/pseudos/O.upf
     MD5 check sum: 91400c9766925bcf19f520983a725ff0
     Pseudo is Ultrasoft + core correction, Zval =  6.0
     Generated using &quot;atomic&quot; code by A. Dal Corso  v.6.3MaX
     Using radial grid of 1095 points,  4 beta functions with:
                l(1) =   0
                l(2) =   0
                l(3) =   1
                l(4) =   1
     Q(r) pseudized with 0 coefficients

     atomic species   valence    mass     pseudopotential
        Zn            12.00    65.38000     Zn( 1.00)
        O              6.00    15.99900     O ( 1.00)

      2 Sym. Ops. (no inversion) found

                                    s                        frac. trans.

      isym =  1     identity

 cryst.   s( 1) = (     1          0          0      )
                  (     0          1          0      )
                  (     0          0          1      )

 cart.    s( 1) = (  1.0000000 -0.0000000  0.0000000 )
                  (  0.0000000  1.0000000  0.0000000 )
                  (  0.0000000  0.0000000  1.0000000 )

      isym =  2     inv. 180 deg rotation - cryst. axis [0,1,0]

 cryst.   s( 2) = (     1          2          0      )
                  (     0         -1          0      )
                  (     0          0          1      )

 cart.    s( 2) = (  0.5000000  0.8660254  0.0000000 )
                  (  0.8660254 -0.5000000  0.0000000 )
                  (  0.0000000  0.0000000  1.0000000 )

   Cartesian axes

     site n.     atom                  positions (alat units)
         1           Zn  tau(   1) = (   0.2500000   0.1443376   0.4283471  )
         2           Zn  tau(   2) = (  -0.0000000   0.2886751   0.0005421  )
         3           O   tau(   3) = (   0.2500000   0.1443376   0.7526599  )
         4           O   tau(   4) = (  -0.0000000   0.2886751   0.3248549  )
         5           Zn  tau(   5) = (   0.7500000   0.1443376   0.4283471  )
         6           Zn  tau(   6) = (   0.5000000   0.2886751   0.0005421  )
         7           O   tau(   7) = (   0.7500000   0.1443376   0.7526599  )
         8           O   tau(   8) = (   0.5000000   0.2886751   0.3248549  )

   Crystallographic axes

     site n.     atom                  positions (cryst. coord.)
         1           Zn  tau(   1) = (  0.3333333  0.3333333  0.5006336  )
         2           Zn  tau(   2) = (  0.1666667  0.6666667  0.0006336  )
         3           O   tau(   3) = (  0.3333333  0.3333333  0.8796764  )
         4           O   tau(   4) = (  0.1666667  0.6666667  0.3796764  )
         5           Zn  tau(   5) = (  0.8333333  0.3333333  0.5006336  )
         6           Zn  tau(   6) = (  0.6666667  0.6666667  0.0006336  )
         7           O   tau(   7) = (  0.8333333  0.3333333  0.8796764  )
         8           O   tau(   8) = (  0.6666667  0.6666667  0.3796764  )

     number of k points=    80
                       cart. coord. in units 2pi/alat
        k(    1) = (   0.0000000   0.0000000   0.0000000), wk =   0.0092593
        k(    2) = (   0.0000000   0.0000000   0.1947928), wk =   0.0185185
        k(    3) = (   0.0000000   0.0000000   0.3895856), wk =   0.0185185
        k(    4) = (   0.0000000   0.0000000  -0.5843784), wk =   0.0092593
        k(    5) = (   0.0000000   0.3849002   0.0000000), wk =   0.0370370
        k(    6) = (   0.0000000   0.3849002   0.1947928), wk =   0.0370370
        k(    7) = (   0.0000000   0.3849002   0.3895856), wk =   0.0370370
        k(    8) = (   0.0000000   0.3849002  -0.5843784), wk =   0.0370370
        k(    9) = (   0.0000000   0.7698004   0.0000000), wk =   0.0370370
        k(   10) = (   0.0000000   0.7698004   0.1947928), wk =   0.0370370
        k(   11) = (   0.0000000   0.7698004   0.3895856), wk =   0.0370370
        k(   12) = (   0.0000000   0.7698004  -0.5843784), wk =   0.0370370
        k(   13) = (   0.0000000  -1.1547005   0.0000000), wk =   0.0092593
        k(   14) = (   0.0000000  -1.1547005   0.1947928), wk =   0.0185185
        k(   15) = (   0.0000000  -1.1547005   0.3895856), wk =   0.0185185
        k(   16) = (   0.0000000  -1.1547005  -0.5843784), wk =   0.0092593
        k(   17) = (   0.1666667   0.0962250   0.0000000), wk =   0.0185185
        k(   18) = (   0.1666667   0.0962250   0.1947928), wk =   0.0185185
        k(   19) = (   0.1666667   0.0962250   0.3895856), wk =   0.0185185
        k(   20) = (   0.1666667   0.0962250  -0.5843784), wk =   0.0185185
        k(   21) = (   0.1666667   0.4811252   0.0000000), wk =   0.0370370
        k(   22) = (   0.1666667   0.4811252   0.1947928), wk =   0.0370370
        k(   23) = (   0.1666667   0.4811252   0.3895856), wk =   0.0370370
        k(   24) = (   0.1666667   0.4811252  -0.5843784), wk =   0.0370370
        k(   25) = (   0.1666667   0.8660254   0.0000000), wk =   0.0185185
        k(   26) = (   0.1666667   0.8660254   0.1947928), wk =   0.0370370
        k(   27) = (   0.1666667   0.8660254   0.3895856), wk =   0.0370370
        k(   28) = (   0.1666667   0.8660254  -0.5843784), wk =   0.0185185
        k(   29) = (   0.1666667  -1.0584755   0.0000000), wk =   0.0185185
        k(   30) = (   0.1666667  -1.0584755   0.1947928), wk =   0.0185185
        k(   31) = (   0.1666667  -1.0584755   0.3895856), wk =   0.0185185
        k(   32) = (   0.1666667  -1.0584755  -0.5843784), wk =   0.0185185
        k(   33) = (   0.1666667  -0.6735753   0.0000000), wk =   0.0370370
        k(   34) = (   0.1666667  -0.6735753   0.1947928), wk =   0.0370370
        k(   35) = (   0.1666667  -0.6735753   0.3895856), wk =   0.0370370
        k(   36) = (   0.1666667  -0.6735753  -0.5843784), wk =   0.0370370
        k(   37) = (   0.1666667  -0.2886751   0.0000000), wk =   0.0185185
        k(   38) = (   0.1666667  -0.2886751   0.1947928), wk =   0.0370370
        k(   39) = (   0.1666667  -0.2886751   0.3895856), wk =   0.0370370
        k(   40) = (   0.1666667  -0.2886751  -0.5843784), wk =   0.0185185
        k(   41) = (   0.3333333   0.1924501   0.0000000), wk =   0.0185185
        k(   42) = (   0.3333333   0.1924501   0.1947928), wk =   0.0185185
        k(   43) = (   0.3333333   0.1924501   0.3895856), wk =   0.0185185
        k(   44) = (   0.3333333   0.1924501  -0.5843784), wk =   0.0185185
        k(   45) = (   0.3333333   0.5773503   0.0000000), wk =   0.0185185
        k(   46) = (   0.3333333   0.5773503   0.1947928), wk =   0.0370370
        k(   47) = (   0.3333333   0.5773503   0.3895856), wk =   0.0370370
        k(   48) = (   0.3333333   0.5773503  -0.5843784), wk =   0.0185185
        k(   49) = (   0.3333333  -0.9622504   0.0000000), wk =   0.0185185
        k(   50) = (   0.3333333  -0.9622504   0.1947928), wk =   0.0185185
        k(   51) = (   0.3333333  -0.9622504   0.3895856), wk =   0.0185185
        k(   52) = (   0.3333333  -0.9622504  -0.5843784), wk =   0.0185185
        k(   53) = (   0.3333333  -0.5773503   0.0000000), wk =   0.0185185
        k(   54) = (   0.3333333  -0.5773503   0.1947928), wk =   0.0370370
        k(   55) = (   0.3333333  -0.5773503   0.3895856), wk =   0.0370370
        k(   56) = (   0.3333333  -0.5773503  -0.5843784), wk =   0.0185185
        k(   57) = (  -0.5000000  -0.2886751   0.0000000), wk =   0.0092593
        k(   58) = (  -0.5000000  -0.2886751   0.1947928), wk =   0.0185185
        k(   59) = (  -0.5000000  -0.2886751   0.3895856), wk =   0.0185185
        k(   60) = (  -0.5000000  -0.2886751  -0.5843784), wk =   0.0092593
[...]
        k(   66) = (   0.3333333  -0.1924501  -0.3895856), wk =   0.0370370
        k(   67) = (   0.6666667  -0.3849002  -0.1947928), wk =   0.0370370
        k(   68) = (   0.6666667  -0.3849002  -0.3895856), wk =   0.0370370
        k(   69) = (   0.1666667   0.0962250  -0.1947928), wk =   0.0185185
        k(   70) = (   0.1666667   0.0962250  -0.3895856), wk =   0.0185185
        k(   71) = (   0.5000000  -0.0962250  -0.1947928), wk =   0.0370370
        k(   72) = (   0.5000000  -0.0962250  -0.3895856), wk =   0.0370370
        k(   73) = (  -0.8333333   0.6735753  -0.1947928), wk =   0.0185185
        k(   74) = (  -0.8333333   0.6735753  -0.3895856), wk =   0.0185185
        k(   75) = (  -0.5000000   0.4811252  -0.1947928), wk =   0.0370370
        k(   76) = (  -0.5000000   0.4811252  -0.3895856), wk =   0.0370370
        k(   77) = (   0.3333333   0.1924501  -0.1947928), wk =   0.0185185
        k(   78) = (   0.3333333   0.1924501  -0.3895856), wk =   0.0185185
        k(   79) = (  -0.6666667   0.7698004  -0.1947928), wk =   0.0185185
        k(   80) = (  -0.6666667   0.7698004  -0.3895856), wk =   0.0185185

                       cryst. coord.
        k(    1) = (   0.0000000   0.0000000   0.0000000), wk =   0.0092593
        k(    2) = (   0.0000000   0.0000000   0.1666667), wk =   0.0185185
        k(    3) = (   0.0000000   0.0000000   0.3333333), wk =   0.0185185
        k(    4) = (   0.0000000   0.0000000  -0.5000000), wk =   0.0092593
        k(    5) = (   0.0000000   0.1666667   0.0000000), wk =   0.0370370
        k(    6) = (   0.0000000   0.1666667   0.1666667), wk =   0.0370370
        k(    7) = (   0.0000000   0.1666667   0.3333333), wk =   0.0370370
        k(    8) = (   0.0000000   0.1666667  -0.5000000), wk =   0.0370370
        k(    9) = (   0.0000000   0.3333333   0.0000000), wk =   0.0370370
        k(   10) = (   0.0000000   0.3333333   0.1666667), wk =   0.0370370
        k(   11) = (   0.0000000   0.3333333   0.3333333), wk =   0.0370370
        k(   12) = (   0.0000000   0.3333333  -0.5000000), wk =   0.0370370
        k(   13) = (   0.0000000  -0.5000000   0.0000000), wk =   0.0092593
        k(   14) = (   0.0000000  -0.5000000   0.1666667), wk =   0.0185185
        k(   15) = (   0.0000000  -0.5000000   0.3333333), wk =   0.0185185
        k(   16) = (   0.0000000  -0.5000000  -0.5000000), wk =   0.0092593
        k(   17) = (   0.1666667  -0.0000000   0.0000000), wk =   0.0185185
        k(   18) = (   0.1666667  -0.0000000   0.1666667), wk =   0.0185185
        k(   19) = (   0.1666667  -0.0000000   0.3333333), wk =   0.0185185
        k(   20) = (   0.1666667  -0.0000000  -0.5000000), wk =   0.0185185
        k(   21) = (   0.1666667   0.1666667   0.0000000), wk =   0.0370370
        k(   22) = (   0.1666667   0.1666667   0.1666667), wk =   0.0370370
        k(   23) = (   0.1666667   0.1666667   0.3333333), wk =   0.0370370
        k(   24) = (   0.1666667   0.1666667  -0.5000000), wk =   0.0370370
        k(   25) = (   0.1666667   0.3333333   0.0000000), wk =   0.0185185
        k(   26) = (   0.1666667   0.3333333   0.1666667), wk =   0.0370370
        k(   27) = (   0.1666667   0.3333333   0.3333333), wk =   0.0370370
        k(   28) = (   0.1666667   0.3333333  -0.5000000), wk =   0.0185185
        k(   29) = (   0.1666667  -0.5000000   0.0000000), wk =   0.0185185
        k(   30) = (   0.1666667  -0.5000000   0.1666667), wk =   0.0185185
        k(   31) = (   0.1666667  -0.5000000   0.3333333), wk =   0.0185185
        k(   32) = (   0.1666667  -0.5000000  -0.5000000), wk =   0.0185185
        k(   33) = (   0.1666667  -0.3333333   0.0000000), wk =   0.0370370
        k(   34) = (   0.1666667  -0.3333333   0.1666667), wk =   0.0370370
        k(   35) = (   0.1666667  -0.3333333   0.3333333), wk =   0.0370370
        k(   36) = (   0.1666667  -0.3333333  -0.5000000), wk =   0.0370370
        k(   37) = (   0.1666667  -0.1666667   0.0000000), wk =   0.0185185
        k(   38) = (   0.1666667  -0.1666667   0.1666667), wk =   0.0370370
        k(   39) = (   0.1666667  -0.1666667   0.3333333), wk =   0.0370370
        k(   40) = (   0.1666667  -0.1666667  -0.5000000), wk =   0.0185185
        k(   41) = (   0.3333333  -0.0000000   0.0000000), wk =   0.0185185
        k(   42) = (   0.3333333  -0.0000000   0.1666667), wk =   0.0185185
        k(   43) = (   0.3333333  -0.0000000   0.3333333), wk =   0.0185185
        k(   44) = (   0.3333333  -0.0000000  -0.5000000), wk =   0.0185185
        k(   45) = (   0.3333333   0.1666667   0.0000000), wk =   0.0185185
        k(   46) = (   0.3333333   0.1666667   0.1666667), wk =   0.0370370
        k(   47) = (   0.3333333   0.1666667   0.3333333), wk =   0.0370370
        k(   48) = (   0.3333333   0.1666667  -0.5000000), wk =   0.0185185
        k(   49) = (   0.3333333  -0.5000000   0.0000000), wk =   0.0185185
        k(   50) = (   0.3333333  -0.5000000   0.1666667), wk =   0.0185185
        k(   51) = (   0.3333333  -0.5000000   0.3333333), wk =   0.0185185
        k(   52) = (   0.3333333  -0.5000000  -0.5000000), wk =   0.0185185
        k(   53) = (   0.3333333  -0.3333333   0.0000000), wk =   0.0185185
        k(   54) = (   0.3333333  -0.3333333   0.1666667), wk =   0.0370370
        k(   55) = (   0.3333333  -0.3333333   0.3333333), wk =   0.0370370
        k(   56) = (   0.3333333  -0.3333333  -0.5000000), wk =   0.0185185
        k(   57) = (  -0.5000000   0.0000000   0.0000000), wk =   0.0092593
        k(   58) = (  -0.5000000   0.0000000   0.1666667), wk =   0.0185185
        k(   59) = (  -0.5000000   0.0000000   0.3333333), wk =   0.0185185
        k(   60) = (  -0.5000000   0.0000000  -0.5000000), wk =   0.0092593
[...]
        k(   66) = (   0.3333333  -0.1666667  -0.3333333), wk =   0.0370370
        k(   67) = (   0.6666667  -0.3333333  -0.1666667), wk =   0.0370370
        k(   68) = (   0.6666667  -0.3333333  -0.3333333), wk =   0.0370370
        k(   69) = (   0.1666667   0.0000000  -0.1666667), wk =   0.0185185
        k(   70) = (   0.1666667   0.0000000  -0.3333333), wk =   0.0185185
        k(   71) = (   0.5000000  -0.1666667  -0.1666667), wk =   0.0370370
        k(   72) = (   0.5000000  -0.1666667  -0.3333333), wk =   0.0370370
        k(   73) = (  -0.8333333   0.5000000  -0.1666667), wk =   0.0185185
        k(   74) = (  -0.8333333   0.5000000  -0.3333333), wk =   0.0185185
        k(   75) = (  -0.5000000   0.3333333  -0.1666667), wk =   0.0370370
        k(   76) = (  -0.5000000   0.3333333  -0.3333333), wk =   0.0370370
        k(   77) = (   0.3333333   0.0000000  -0.1666667), wk =   0.0185185
        k(   78) = (   0.3333333   0.0000000  -0.3333333), wk =   0.0185185
        k(   79) = (  -0.6666667   0.5000000  -0.1666667), wk =   0.0185185
        k(   80) = (  -0.6666667   0.5000000  -0.3333333), wk =   0.0185185

     Check: negative core charge=   -0.000003

     Initial potential from superposition of free atoms

     starting charge      71.9851, renormalised to      72.0000
     Starting wfcs are   52 randomized atomic wfcs

     Self-consistent Calculation

     iteration #  1     ecut=    50.00 Ry     beta= 0.30
     Davidson diagonalization with overlap

     ethr =  1.00E-02,  avg # of iterations =  1.2

     total energy              =    -722.67207043 Ry
     estimated scf accuracy    <       1.71413546 Ry

[...]

     c_bands:  1 eigenvalues not converged
     c_bands:  1 eigenvalues not converged
     c_bands:  1 eigenvalues not converged
     c_bands:  2 eigenvalues not converged
     c_bands:  1 eigenvalues not converged
     c_bands:  1 eigenvalues not converged
     c_bands:  2 eigenvalues not converged
     c_bands:  1 eigenvalues not converged
     c_bands:  1 eigenvalues not converged
     ethr =  7.50E-08,  avg # of iterations = 17.0

[...]

     c_bands:  1 eigenvalues not converged
     c_bands:  1 eigenvalues not converged
     c_bands:  2 eigenvalues not converged
     c_bands:  1 eigenvalues not converged
     c_bands:  1 eigenvalues not converged
     ethr =  7.50E-08,  avg # of iterations = 16.0

[...]

     total energy              =    -723.08865763 Ry
     estimated scf accuracy    <       0.00000006 Ry

     iteration # 41     ecut=    50.00 Ry     beta= 0.30
     Davidson diagonalization with overlap

     ethr =  6.00E-11,  avg # of iterations =  4.9

     End of self-consistent calculation

          k = 0.0000 0.0000 0.0000 (  5241 PWs)   bands (ev):

   -12.8079 -12.5124 -12.4622 -12.3721  -1.5026  -1.5024  -1.4805  -1.4714
    -1.4200  -1.4198  -1.3568  -1.2886  -1.1577  -1.1335  -1.0312  -1.0104
    -1.0103  -1.0093  -0.9337  -0.9337  -0.9254  -0.9034  -0.8948  -0.8580
    -0.0911   0.1482   0.6036   1.4950   2.1102   2.5251   2.8133   2.9749
     2.9757   3.2151   3.3661   3.3668

     occupation numbers
     1.0000   1.0000   1.0000   1.0000   1.0000   1.0000   1.0000   1.0000
     1.0000   1.0000   1.0000   1.0000   1.0000   1.0000   1.0000   1.0000
     1.0000   1.0000   1.0000   1.0000   1.0000   1.0000   1.0000   1.0000
     1.0000   1.0000   1.0000   1.0000   1.0000   1.0000   1.0000   1.0000
     1.0000   1.0000   1.0000   1.0000

[...]

          k =-0.5000-0.2887 0.0000 (  5262 PWs)   bands (ev):

[...]

          k = 0.3333 0.1925-0.3896 (  5279 PWs)   bands (ev):

[...]

          k =-0.6667 0.7698-0.3896 (  5232 PWs)   bands (ev):

   -12.4405 -12.4403 -12.3933 -12.3932  -1.4343  -1.4343  -1.3601  -1.3601
    -1.2978  -1.2978  -1.2022  -1.2022  -1.1429  -1.1429  -1.1306  -1.1306
    -0.9725  -0.9725  -0.9408  -0.9408  -0.8732  -0.8732  -0.8212  -0.8212
     0.3522   0.3522   0.5370   0.5370   1.8063   1.8063   2.1441   2.1442
     2.3047   2.3048   2.6356   2.6357

     occupation numbers
     1.0000   1.0000   1.0000   1.0000   1.0000   1.0000   1.0000   1.0000
     1.0000   1.0000   1.0000   1.0000   1.0000   1.0000   1.0000   1.0000
     1.0000   1.0000   1.0000   1.0000   1.0000   1.0000   1.0000   1.0000
     1.0000   1.0000   1.0000   1.0000   1.0000   1.0000   1.0000   1.0000
     1.0000   1.0000   1.0000   1.0000

     highest occupied level (ev):     3.3668

!    total energy              =    -723.08865763 Ry
     estimated scf accuracy    <          8.2E-09 Ry

     The total energy is the sum of the following terms:
     one-electron contribution =    -373.25305898 Ry
     hartree contribution      =     260.09738077 Ry
     xc contribution           =    -218.08690579 Ry
     ewald contribution        =    -391.84607363 Ry

     convergence has been achieved in  41 iterations

     Forces acting on atoms (cartesian axes, Ry/au):

     atom    1 type  1   force =    -0.00001552   -0.00000896   -0.00742756
     atom    2 type  1   force =     0.00000676    0.00000390   -0.00742028
     atom    3 type  2   force =    -0.00000803   -0.00000464    0.00742364
     atom    4 type  2   force =     0.00000920    0.00000531    0.00742600
     atom    5 type  1   force =    -0.00000188   -0.00000109   -0.00742212
     atom    6 type  1   force =     0.00000956    0.00000552   -0.00742893
     atom    7 type  2   force =    -0.00000802   -0.00000463    0.00742326
     atom    8 type  2   force =     0.00000794    0.00000458    0.00742599
     The non-local contrib.  to forces
     atom    1 type  1   force =     0.00001495    0.00000863    0.13366933
     atom    2 type  1   force =    -0.00001721   -0.00000994    0.13367357
     atom    3 type  2   force =    -0.00020467   -0.00011817    0.15983692
     atom    4 type  2   force =     0.00020493    0.00011832    0.15984290
     atom    5 type  1   force =     0.00001850    0.00001068    0.13366792
     atom    6 type  1   force =    -0.00001796   -0.00001037    0.13367362
     atom    7 type  2   force =    -0.00020746   -0.00011977    0.15983707
     atom    8 type  2   force =     0.00020384    0.00011769    0.15983784
     The ionic contribution  to forces
     atom    1 type  1   force =    -0.00000000    0.00000000    1.04514775
     atom    2 type  1   force =     0.00000000   -0.00000000    1.04514775
     atom    3 type  2   force =    -0.00000000    0.00000000   -1.04514775
     atom    4 type  2   force =     0.00000000   -0.00000000   -1.04514775
     atom    5 type  1   force =    -0.00000000    0.00000000    1.04514775
     atom    6 type  1   force =     0.00000000   -0.00000000    1.04514775
     atom    7 type  2   force =    -0.00000000    0.00000000   -1.04514775
     atom    8 type  2   force =     0.00000000   -0.00000000   -1.04514775
     The local contribution  to forces
     atom    1 type  1   force =    -0.00000901   -0.00000520   -1.17867291
     atom    2 type  1   force =     0.00002108    0.00001206   -1.17868727
     atom    3 type  2   force =     0.00019669    0.00011356    0.89422170
     atom    4 type  2   force =    -0.00019338   -0.00011168    0.89422824
     atom    5 type  1   force =    -0.00002696   -0.00001557   -1.17867596
     atom    6 type  1   force =     0.00001825    0.00001043   -1.17868088
     atom    7 type  2   force =     0.00019580    0.00011304    0.89422185
     atom    8 type  2   force =    -0.00019587   -0.00011311    0.89423151
     The core correction contribution to forces
     atom    1 type  1   force =    -0.00000766   -0.00000442   -0.00755507
     atom    2 type  1   force =     0.00000751    0.00000432   -0.00755343
     atom    3 type  2   force =     0.00000230    0.00000133   -0.00149305
     atom    4 type  2   force =    -0.00000232   -0.00000134   -0.00149295
     atom    5 type  1   force =    -0.00000720   -0.00000416   -0.00755500
     atom    6 type  1   force =     0.00000749    0.00000431   -0.00755362
     atom    7 type  2   force =     0.00000235    0.00000136   -0.00149304
     atom    8 type  2   force =    -0.00000230   -0.00000133   -0.00149289
     The Hubbard contrib.    to forces
     atom    1 type  1   force =     0.00000000    0.00000000    0.00000000
     atom    2 type  1   force =     0.00000000    0.00000000    0.00000000
     atom    3 type  2   force =     0.00000000    0.00000000    0.00000000
     atom    4 type  2   force =     0.00000000    0.00000000    0.00000000
     atom    5 type  1   force =     0.00000000    0.00000000    0.00000000
     atom    6 type  1   force =     0.00000000    0.00000000    0.00000000
     atom    7 type  2   force =     0.00000000    0.00000000    0.00000000
     atom    8 type  2   force =     0.00000000    0.00000000    0.00000000
     The SCF correction term to forces
     atom    1 type  1   force =    -0.00001411   -0.00000815   -0.00001896
     atom    2 type  1   force =    -0.00000489   -0.00000282   -0.00000321
     atom    3 type  2   force =    -0.00000267   -0.00000154    0.00000350
     atom    4 type  2   force =    -0.00000034   -0.00000020   -0.00000675
     atom    5 type  1   force =     0.00001346    0.00000777   -0.00000914
     atom    6 type  1   force =     0.00000151    0.00000087   -0.00001811
     atom    7 type  2   force =     0.00000098    0.00000056    0.00000283
     atom    8 type  2   force =     0.00000196    0.00000113   -0.00000503

     Total force =     0.021000     Total SCF correction =     0.000038

     General routines

     Parallel routines

   This run was terminated on:   1:10: 1  27Aug2025

   JOB DONE.