     Program PWSCF v.7.0 starts on 26Aug2025 at 21: 2:50

     K-points division:     npool     =       4
     band groups division:  nbgrp     =       4

     Reading input from /home/jvc/QEspresso7.2/ZnO_database/scripts/cell211.in/ZnO-3.34-1.71-211.in
Warning: card &CELL ignored
Warning: card / ignored
Warning: card &FCP ignored
Warning: card / ignored
Warning: card &RISM ignored
Warning: card / ignored

     Current dimensions of program PWSCF are:
     Max number of different atomic species (ntypx) = 10
     Max number of k-points (npk) =  40000
     Max angular momentum in pseudopotentials (lmaxx) =  4
     file Zn.upf: wavefunction(s)  3D renormalized
     Found identity + ( -0.5000  0.0000  0.0000) symmetry
     This is a supercell, fractional translations are disabled
     Message from routine setup:
     using ibrav=0 with symmetry is DISCOURAGED, use correct ibrav instead

     Subspace diagonalization in iterative solution of the eigenvalue problem:
     a serial algorithm will be used

     Using Slab Decomposition

     bravais-lattice index     =            0
     lattice parameter (alat)  =      12.6049  a.u.
     unit-cell volume          =     741.9775 (a.u.)^3
     number of atoms/cell      =            8
     number of atomic types    =            2
     number of electrons       =        72.00
     number of Kohn-Sham states=           36
     kinetic-energy cutoff     =      50.0000  Ry
     charge density cutoff     =     400.0000  Ry
     scf convergence threshold =      1.0E-08
     mixing beta               =       0.3000
     number of iterations used =            8  plain     mixing
     Exchange-correlation= PBE
                           (   1   4   3   4   0   0   0)

     celldm(1)=  12.604862  celldm(2)=   0.000000  celldm(3)=   0.000000
     celldm(4)=   0.000000  celldm(5)=   0.000000  celldm(6)=   0.000000

     crystal axes: (cart. coord. in units of alat)
               a(1) = (   1.000000   0.000000   0.000000 )
               a(2) = (  -0.250000   0.433013   0.000000 )
               a(3) = (   0.000000   0.000000   0.855610 )

     reciprocal axes: (cart. coord. in units 2 pi/alat)
               b(1) = (  1.000000  0.577350 -0.000000 )
               b(2) = (  0.000000  2.309401  0.000000 )
               b(3) = (  0.000000 -0.000000  1.168757 )

     PseudoPot. # 1 for Zn read from file:
     /home/jvc/QEspresso7.2/ZnO_database/pseudos/Zn.upf
     MD5 check sum: 7f56cabf9682ed8c977c2f7d0c5985c5
     Pseudo is Ultrasoft + core correction, Zval = 12.0
     Generated using &quot;atomic&quot; code by A. Dal Corso  v.6.2.2
     Using radial grid of 1201 points,  6 beta functions with:
                l(1) =   0
                l(2) =   0
                l(3) =   1
                l(4) =   1
                l(5) =   2
                l(6) =   2
     Q(r) pseudized with 0 coefficients

     PseudoPot. # 2 for O  read from file:
     /home/jvc/QEspresso7.2/ZnO_database/pseudos/O.upf
     MD5 check sum: 91400c9766925bcf19f520983a725ff0
     Pseudo is Ultrasoft + core correction, Zval =  6.0
     Generated using &quot;atomic&quot; code by A. Dal Corso  v.6.3MaX
     Using radial grid of 1095 points,  4 beta functions with:
                l(1) =   0
                l(2) =   0
                l(3) =   1
                l(4) =   1
     Q(r) pseudized with 0 coefficients

     atomic species   valence    mass     pseudopotential
        Zn            12.00    65.38000     Zn( 1.00)
        O              6.00    15.99900     O ( 1.00)

      2 Sym. Ops. (no inversion) found

                                    s                        frac. trans.

      isym =  1     identity

 cryst.   s( 1) = (     1          0          0      )
                  (     0          1          0      )
                  (     0          0          1      )

 cart.    s( 1) = (  1.0000000  0.0000000  0.0000000 )
                  (  0.0000000  1.0000000  0.0000000 )
                  (  0.0000000  0.0000000  1.0000000 )

      isym =  2     inv. 180 deg rotation - cryst. axis [0,1,0]

 cryst.   s( 2) = (     1          2          0      )
                  (     0         -1          0      )
                  (     0          0          1      )

 cart.    s( 2) = (  0.5000000  0.8660254  0.0000000 )
                  (  0.8660254 -0.5000000  0.0000000 )
                  (  0.0000000  0.0000000  1.0000000 )

   Cartesian axes

     site n.     atom                  positions (alat units)
         1           Zn  tau(   1) = (   0.2500000   0.1443376   0.4283471  )
         2           Zn  tau(   2) = (  -0.0000000   0.2886751   0.0005421  )
         3           O   tau(   3) = (   0.2500000   0.1443376   0.7526599  )
         4           O   tau(   4) = (  -0.0000000   0.2886751   0.3248549  )
         5           Zn  tau(   5) = (   0.7500000   0.1443376   0.4283471  )
         6           Zn  tau(   6) = (   0.5000000   0.2886751   0.0005421  )
         7           O   tau(   7) = (   0.7500000   0.1443376   0.7526599  )
         8           O   tau(   8) = (   0.5000000   0.2886751   0.3248549  )

   Crystallographic axes

     site n.     atom                  positions (cryst. coord.)
         1           Zn  tau(   1) = (  0.3333333  0.3333333  0.5006336  )
         2           Zn  tau(   2) = (  0.1666667  0.6666667  0.0006336  )
         3           O   tau(   3) = (  0.3333333  0.3333333  0.8796764  )
         4           O   tau(   4) = (  0.1666667  0.6666667  0.3796764  )
         5           Zn  tau(   5) = (  0.8333333  0.3333333  0.5006336  )
         6           Zn  tau(   6) = (  0.6666667  0.6666667  0.0006336  )
         7           O   tau(   7) = (  0.8333333  0.3333333  0.8796764  )
         8           O   tau(   8) = (  0.6666667  0.6666667  0.3796764  )

     number of k points=    80
                       cart. coord. in units 2pi/alat
        k(    1) = (   0.0000000   0.0000000   0.0000000), wk =   0.0092593
        k(    2) = (   0.0000000   0.0000000   0.1947928), wk =   0.0185185
        k(    3) = (   0.0000000   0.0000000   0.3895856), wk =   0.0185185
        k(    4) = (   0.0000000   0.0000000  -0.5843784), wk =   0.0092593
        k(    5) = (   0.0000000   0.3849002   0.0000000), wk =   0.0370370
        k(    6) = (   0.0000000   0.3849002   0.1947928), wk =   0.0370370
        k(    7) = (   0.0000000   0.3849002   0.3895856), wk =   0.0370370
        k(    8) = (   0.0000000   0.3849002  -0.5843784), wk =   0.0370370
        k(    9) = (   0.0000000   0.7698004   0.0000000), wk =   0.0370370
        k(   10) = (   0.0000000   0.7698004   0.1947928), wk =   0.0370370
        k(   11) = (   0.0000000   0.7698004   0.3895856), wk =   0.0370370
        k(   12) = (   0.0000000   0.7698004  -0.5843784), wk =   0.0370370
        k(   13) = (   0.0000000  -1.1547005   0.0000000), wk =   0.0092593
        k(   14) = (   0.0000000  -1.1547005   0.1947928), wk =   0.0185185
        k(   15) = (   0.0000000  -1.1547005   0.3895856), wk =   0.0185185
        k(   16) = (   0.0000000  -1.1547005  -0.5843784), wk =   0.0092593
        k(   17) = (   0.1666667   0.0962250   0.0000000), wk =   0.0185185
        k(   18) = (   0.1666667   0.0962250   0.1947928), wk =   0.0185185
        k(   19) = (   0.1666667   0.0962250   0.3895856), wk =   0.0185185
        k(   20) = (   0.1666667   0.0962250  -0.5843784), wk =   0.0185185
        k(   21) = (   0.1666667   0.4811252   0.0000000), wk =   0.0370370
        k(   22) = (   0.1666667   0.4811252   0.1947928), wk =   0.0370370
        k(   23) = (   0.1666667   0.4811252   0.3895856), wk =   0.0370370
        k(   24) = (   0.1666667   0.4811252  -0.5843784), wk =   0.0370370
        k(   25) = (   0.1666667   0.8660254   0.0000000), wk =   0.0185185
        k(   26) = (   0.1666667   0.8660254   0.1947928), wk =   0.0370370
        k(   27) = (   0.1666667   0.8660254   0.3895856), wk =   0.0370370
        k(   28) = (   0.1666667   0.8660254  -0.5843784), wk =   0.0185185
        k(   29) = (   0.1666667  -1.0584755   0.0000000), wk =   0.0185185
        k(   30) = (   0.1666667  -1.0584755   0.1947928), wk =   0.0185185
        k(   31) = (   0.1666667  -1.0584755   0.3895856), wk =   0.0185185
        k(   32) = (   0.1666667  -1.0584755  -0.5843784), wk =   0.0185185
        k(   33) = (   0.1666667  -0.6735753   0.0000000), wk =   0.0370370
        k(   34) = (   0.1666667  -0.6735753   0.1947928), wk =   0.0370370
        k(   35) = (   0.1666667  -0.6735753   0.3895856), wk =   0.0370370
        k(   36) = (   0.1666667  -0.6735753  -0.5843784), wk =   0.0370370
        k(   37) = (   0.1666667  -0.2886751   0.0000000), wk =   0.0185185
        k(   38) = (   0.1666667  -0.2886751   0.1947928), wk =   0.0370370
        k(   39) = (   0.1666667  -0.2886751   0.3895856), wk =   0.0370370
        k(   40) = (   0.1666667  -0.2886751  -0.5843784), wk =   0.0185185
        k(   41) = (   0.3333333   0.1924501   0.0000000), wk =   0.0185185
        k(   42) = (   0.3333333   0.1924501   0.1947928), wk =   0.0185185
        k(   43) = (   0.3333333   0.1924501   0.3895856), wk =   0.0185185
        k(   44) = (   0.3333333   0.1924501  -0.5843784), wk =   0.0185185
        k(   45) = (   0.3333333   0.5773503   0.0000000), wk =   0.0185185
        k(   46) = (   0.3333333   0.5773503   0.1947928), wk =   0.0370370
        k(   47) = (   0.3333333   0.5773503   0.3895856), wk =   0.0370370
        k(   48) = (   0.3333333   0.5773503  -0.5843784), wk =   0.0185185
        k(   49) = (   0.3333333  -0.9622504   0.0000000), wk =   0.0185185
        k(   50) = (   0.3333333  -0.9622504   0.1947928), wk =   0.0185185
        k(   51) = (   0.3333333  -0.9622504   0.3895856), wk =   0.0185185
        k(   52) = (   0.3333333  -0.9622504  -0.5843784), wk =   0.0185185
        k(   53) = (   0.3333333  -0.5773503   0.0000000), wk =   0.0185185
        k(   54) = (   0.3333333  -0.5773503   0.1947928), wk =   0.0370370
        k(   55) = (   0.3333333  -0.5773503   0.3895856), wk =   0.0370370
        k(   56) = (   0.3333333  -0.5773503  -0.5843784), wk =   0.0185185
        k(   57) = (  -0.5000000  -0.2886751   0.0000000), wk =   0.0092593
        k(   58) = (  -0.5000000  -0.2886751   0.1947928), wk =   0.0185185
        k(   59) = (  -0.5000000  -0.2886751   0.3895856), wk =   0.0185185
        k(   60) = (  -0.5000000  -0.2886751  -0.5843784), wk =   0.0092593
[...]
        k(   66) = (   0.3333333  -0.1924501  -0.3895856), wk =   0.0370370
        k(   67) = (   0.6666667  -0.3849002  -0.1947928), wk =   0.0370370
        k(   68) = (   0.6666667  -0.3849002  -0.3895856), wk =   0.0370370
        k(   69) = (   0.1666667   0.0962250  -0.1947928), wk =   0.0185185
        k(   70) = (   0.1666667   0.0962250  -0.3895856), wk =   0.0185185
        k(   71) = (   0.5000000  -0.0962250  -0.1947928), wk =   0.0370370
        k(   72) = (   0.5000000  -0.0962250  -0.3895856), wk =   0.0370370
        k(   73) = (  -0.8333333   0.6735753  -0.1947928), wk =   0.0185185
        k(   74) = (  -0.8333333   0.6735753  -0.3895856), wk =   0.0185185
        k(   75) = (  -0.5000000   0.4811252  -0.1947928), wk =   0.0370370
        k(   76) = (  -0.5000000   0.4811252  -0.3895856), wk =   0.0370370
        k(   77) = (   0.3333333   0.1924501  -0.1947928), wk =   0.0185185
        k(   78) = (   0.3333333   0.1924501  -0.3895856), wk =   0.0185185
        k(   79) = (  -0.6666667   0.7698004  -0.1947928), wk =   0.0185185
        k(   80) = (  -0.6666667   0.7698004  -0.3895856), wk =   0.0185185

                       cryst. coord.
        k(    1) = (   0.0000000   0.0000000   0.0000000), wk =   0.0092593
        k(    2) = (   0.0000000   0.0000000   0.1666667), wk =   0.0185185
        k(    3) = (   0.0000000   0.0000000   0.3333333), wk =   0.0185185
        k(    4) = (   0.0000000   0.0000000  -0.5000000), wk =   0.0092593
        k(    5) = (   0.0000000   0.1666667   0.0000000), wk =   0.0370370
        k(    6) = (   0.0000000   0.1666667   0.1666667), wk =   0.0370370
        k(    7) = (   0.0000000   0.1666667   0.3333333), wk =   0.0370370
        k(    8) = (   0.0000000   0.1666667  -0.5000000), wk =   0.0370370
        k(    9) = (   0.0000000   0.3333333   0.0000000), wk =   0.0370370
        k(   10) = (   0.0000000   0.3333333   0.1666667), wk =   0.0370370
        k(   11) = (   0.0000000   0.3333333   0.3333333), wk =   0.0370370
        k(   12) = (   0.0000000   0.3333333  -0.5000000), wk =   0.0370370
        k(   13) = (   0.0000000  -0.5000000   0.0000000), wk =   0.0092593
        k(   14) = (   0.0000000  -0.5000000   0.1666667), wk =   0.0185185
        k(   15) = (   0.0000000  -0.5000000   0.3333333), wk =   0.0185185
        k(   16) = (   0.0000000  -0.5000000  -0.5000000), wk =   0.0092593
        k(   17) = (   0.1666667   0.0000000   0.0000000), wk =   0.0185185
        k(   18) = (   0.1666667   0.0000000   0.1666667), wk =   0.0185185
        k(   19) = (   0.1666667   0.0000000   0.3333333), wk =   0.0185185
        k(   20) = (   0.1666667   0.0000000  -0.5000000), wk =   0.0185185
        k(   21) = (   0.1666667   0.1666667   0.0000000), wk =   0.0370370
        k(   22) = (   0.1666667   0.1666667   0.1666667), wk =   0.0370370
        k(   23) = (   0.1666667   0.1666667   0.3333333), wk =   0.0370370
        k(   24) = (   0.1666667   0.1666667  -0.5000000), wk =   0.0370370
        k(   25) = (   0.1666667   0.3333333   0.0000000), wk =   0.0185185
        k(   26) = (   0.1666667   0.3333333   0.1666667), wk =   0.0370370
        k(   27) = (   0.1666667   0.3333333   0.3333333), wk =   0.0370370
        k(   28) = (   0.1666667   0.3333333  -0.5000000), wk =   0.0185185
        k(   29) = (   0.1666667  -0.5000000   0.0000000), wk =   0.0185185
        k(   30) = (   0.1666667  -0.5000000   0.1666667), wk =   0.0185185
        k(   31) = (   0.1666667  -0.5000000   0.3333333), wk =   0.0185185
        k(   32) = (   0.1666667  -0.5000000  -0.5000000), wk =   0.0185185
        k(   33) = (   0.1666667  -0.3333333   0.0000000), wk =   0.0370370
        k(   34) = (   0.1666667  -0.3333333   0.1666667), wk =   0.0370370
        k(   35) = (   0.1666667  -0.3333333   0.3333333), wk =   0.0370370
        k(   36) = (   0.1666667  -0.3333333  -0.5000000), wk =   0.0370370
        k(   37) = (   0.1666667  -0.1666667   0.0000000), wk =   0.0185185
        k(   38) = (   0.1666667  -0.1666667   0.1666667), wk =   0.0370370
        k(   39) = (   0.1666667  -0.1666667   0.3333333), wk =   0.0370370
        k(   40) = (   0.1666667  -0.1666667  -0.5000000), wk =   0.0185185
        k(   41) = (   0.3333333   0.0000000   0.0000000), wk =   0.0185185
        k(   42) = (   0.3333333   0.0000000   0.1666667), wk =   0.0185185
        k(   43) = (   0.3333333   0.0000000   0.3333333), wk =   0.0185185
        k(   44) = (   0.3333333   0.0000000  -0.5000000), wk =   0.0185185
        k(   45) = (   0.3333333   0.1666667   0.0000000), wk =   0.0185185
        k(   46) = (   0.3333333   0.1666667   0.1666667), wk =   0.0370370
        k(   47) = (   0.3333333   0.1666667   0.3333333), wk =   0.0370370
        k(   48) = (   0.3333333   0.1666667  -0.5000000), wk =   0.0185185
        k(   49) = (   0.3333333  -0.5000000   0.0000000), wk =   0.0185185
        k(   50) = (   0.3333333  -0.5000000   0.1666667), wk =   0.0185185
        k(   51) = (   0.3333333  -0.5000000   0.3333333), wk =   0.0185185
        k(   52) = (   0.3333333  -0.5000000  -0.5000000), wk =   0.0185185
        k(   53) = (   0.3333333  -0.3333333   0.0000000), wk =   0.0185185
        k(   54) = (   0.3333333  -0.3333333   0.1666667), wk =   0.0370370
        k(   55) = (   0.3333333  -0.3333333   0.3333333), wk =   0.0370370
        k(   56) = (   0.3333333  -0.3333333  -0.5000000), wk =   0.0185185
        k(   57) = (  -0.5000000   0.0000000   0.0000000), wk =   0.0092593
        k(   58) = (  -0.5000000   0.0000000   0.1666667), wk =   0.0185185
        k(   59) = (  -0.5000000   0.0000000   0.3333333), wk =   0.0185185
        k(   60) = (  -0.5000000   0.0000000  -0.5000000), wk =   0.0092593
[...]
        k(   66) = (   0.3333333  -0.1666667  -0.3333333), wk =   0.0370370
        k(   67) = (   0.6666667  -0.3333333  -0.1666667), wk =   0.0370370
        k(   68) = (   0.6666667  -0.3333333  -0.3333333), wk =   0.0370370
        k(   69) = (   0.1666667   0.0000000  -0.1666667), wk =   0.0185185
        k(   70) = (   0.1666667   0.0000000  -0.3333333), wk =   0.0185185
        k(   71) = (   0.5000000  -0.1666667  -0.1666667), wk =   0.0370370
        k(   72) = (   0.5000000  -0.1666667  -0.3333333), wk =   0.0370370
        k(   73) = (  -0.8333333   0.5000000  -0.1666667), wk =   0.0185185
        k(   74) = (  -0.8333333   0.5000000  -0.3333333), wk =   0.0185185
        k(   75) = (  -0.5000000   0.3333333  -0.1666667), wk =   0.0370370
        k(   76) = (  -0.5000000   0.3333333  -0.3333333), wk =   0.0370370
        k(   77) = (   0.3333333   0.0000000  -0.1666667), wk =   0.0185185
        k(   78) = (   0.3333333   0.0000000  -0.3333333), wk =   0.0185185
        k(   79) = (  -0.6666667   0.5000000  -0.1666667), wk =   0.0185185
        k(   80) = (  -0.6666667   0.5000000  -0.3333333), wk =   0.0185185

     Check: negative core charge=   -0.000002

     Initial potential from superposition of free atoms

     starting charge      71.9851, renormalised to      72.0000
     Starting wfcs are   52 randomized atomic wfcs

     Self-consistent Calculation

     iteration #  1     ecut=    50.00 Ry     beta= 0.30
     Davidson diagonalization with overlap

     ethr =  1.00E-02,  avg # of iterations =  1.7

     total energy              =    -722.88625705 Ry
     estimated scf accuracy    <       1.48809898 Ry

[...]

     total energy              =    -723.23596912 Ry
     estimated scf accuracy    <       0.00000002 Ry

     iteration # 50     ecut=    50.00 Ry     beta= 0.30
     Davidson diagonalization with overlap

     ethr =  2.28E-11,  avg # of iterations =  2.0

     End of self-consistent calculation

          k = 0.0000 0.0000 0.0000 (  4427 PWs)   bands (ev):

   -11.7867 -11.3338 -11.2636 -11.1265   0.0368   0.1110   0.1113   0.1634
     0.2346   0.2348   0.2420   0.3328   0.4702   0.6497   0.6812   0.8264
     0.9556   0.9557   1.0225   1.0768   1.0768   1.0798   1.1197   1.1845
     1.4468   1.6671   2.0796   2.9307   3.6394   4.1990   4.5923   4.8061
     4.8067   5.1348   5.3300   5.3305

     occupation numbers
     1.0000   1.0000   1.0000   1.0000   1.0000   1.0000   1.0000   1.0000
     1.0000   1.0000   1.0000   1.0000   1.0000   1.0000   1.0000   1.0000
     1.0000   1.0000   1.0000   1.0000   1.0000   1.0000   1.0000   1.0000
     1.0000   1.0000   1.0000   1.0000   1.0000   1.0000   1.0000   1.0000
     1.0000   1.0000   1.0000   1.0000

[...]

          k =-0.5000-0.2887 0.0000 (  4400 PWs)   bands (ev):

[...]

          k = 0.3333 0.1925-0.3896 (  4425 PWs)   bands (ev):

[...]

          k =-0.6667 0.7698-0.3896 (  4444 PWs)   bands (ev):

   -11.2306 -11.2306 -11.1583 -11.1583   0.0897   0.0897   0.1865   0.1865
     0.3844   0.3844   0.5524   0.5524   0.5971   0.5971   0.6395   0.6395
     0.9985   0.9985   1.0560   1.0560   1.1496   1.1496   1.2372   1.2372
     1.8774   1.8774   2.1453   2.1453   3.3152   3.3152   3.6903   3.6903
     3.9722   3.9722   4.3287   4.3287

     occupation numbers
     1.0000   1.0000   1.0000   1.0000   1.0000   1.0000   1.0000   1.0000
     1.0000   1.0000   1.0000   1.0000   1.0000   1.0000   1.0000   1.0000
     1.0000   1.0000   1.0000   1.0000   1.0000   1.0000   1.0000   1.0000
     1.0000   1.0000   1.0000   1.0000   1.0000   1.0000   1.0000   1.0000
     1.0000   1.0000   1.0000   1.0000

     highest occupied level (ev):     5.3305

!    total energy              =    -723.23596911 Ry
     estimated scf accuracy    <          8.7E-09 Ry

     The total energy is the sum of the following terms:
     one-electron contribution =    -335.98862234 Ry
     hartree contribution      =     246.29462324 Ry
     xc contribution           =    -218.64612735 Ry
     ewald contribution        =    -414.89584267 Ry

     convergence has been achieved in  50 iterations

     Forces acting on atoms (cartesian axes, Ry/au):

     atom    1 type  1   force =    -0.00000397   -0.00000229    0.00310857
     atom    2 type  1   force =     0.00000064    0.00000037    0.00313006
     atom    3 type  2   force =    -0.00000482   -0.00000278   -0.00312388
     atom    4 type  2   force =     0.00000628    0.00000363   -0.00311651
     atom    5 type  1   force =     0.00000437    0.00000252    0.00311023
     atom    6 type  1   force =    -0.00000070   -0.00000040    0.00312685
     atom    7 type  2   force =    -0.00000424   -0.00000245   -0.00312064
     atom    8 type  2   force =     0.00000244    0.00000141   -0.00311469
     The non-local contrib.  to forces
     atom    1 type  1   force =    -0.00001250   -0.00000721    0.14787496
     atom    2 type  1   force =     0.00000915    0.00000529    0.14789100
     atom    3 type  2   force =    -0.00019469   -0.00011241    0.15490092
     atom    4 type  2   force =     0.00019566    0.00011297    0.15490502
     atom    5 type  1   force =    -0.00000506   -0.00000292    0.14787569
     atom    6 type  1   force =     0.00000831    0.00000480    0.14788992
     atom    7 type  2   force =    -0.00019627   -0.00011331    0.15490304
     atom    8 type  2   force =     0.00019373    0.00011185    0.15490413
     The ionic contribution  to forces
     atom    1 type  1   force =     0.00000000    0.00000001    1.17172274
     atom    2 type  1   force =     0.00000001    0.00000000    1.17172274
     atom    3 type  2   force =     0.00000000    0.00000000   -1.17172274
     atom    4 type  2   force =     0.00000001    0.00000000   -1.17172274
     atom    5 type  1   force =    -0.00000002   -0.00000000    1.17172274
     atom    6 type  1   force =     0.00000000   -0.00000001    1.17172274
     atom    7 type  2   force =    -0.00000001    0.00000000   -1.17172274
     atom    8 type  2   force =     0.00000000   -0.00000001   -1.17172274
     The local contribution  to forces
     atom    1 type  1   force =     0.00002471    0.00001427   -1.30689715
     atom    2 type  1   force =    -0.00001473   -0.00000861   -1.30693168
     atom    3 type  2   force =     0.00018757    0.00010830    1.01503291
     atom    4 type  2   force =    -0.00018634   -0.00010761    1.01505519
     atom    5 type  1   force =     0.00000710    0.00000420   -1.30690142
     atom    6 type  1   force =    -0.00001703   -0.00000993   -1.30692625
     atom    7 type  2   force =     0.00019042    0.00010996    1.01503670
     atom    8 type  2   force =    -0.00019082   -0.00011020    1.01505957
     The core correction contribution to forces
     atom    1 type  1   force =    -0.00000720   -0.00000411   -0.00958574
     atom    2 type  1   force =     0.00000700    0.00000406   -0.00958557
     atom    3 type  2   force =     0.00000222    0.00000127   -0.00134435
     atom    4 type  2   force =    -0.00000219   -0.00000127   -0.00134433
     atom    5 type  1   force =    -0.00000703   -0.00000408   -0.00958551
     atom    6 type  1   force =     0.00000723    0.00000411   -0.00958583
     atom    7 type  2   force =     0.00000221    0.00000128   -0.00134437
     atom    8 type  2   force =    -0.00000222   -0.00000127   -0.00134430
     The Hubbard contrib.    to forces
     atom    1 type  1   force =     0.00000000    0.00000000    0.00000000
     atom    2 type  1   force =     0.00000000    0.00000000    0.00000000
     atom    3 type  2   force =     0.00000000    0.00000000    0.00000000
     atom    4 type  2   force =     0.00000000    0.00000000    0.00000000
     atom    5 type  1   force =     0.00000000    0.00000000    0.00000000
     atom    6 type  1   force =     0.00000000    0.00000000    0.00000000
     atom    7 type  2   force =     0.00000000    0.00000000    0.00000000
     atom    8 type  2   force =     0.00000000    0.00000000    0.00000000
     The SCF correction term to forces
     atom    1 type  1   force =    -0.00000905   -0.00000523   -0.00000280
     atom    2 type  1   force =    -0.00000079   -0.00000046    0.00003701
     atom    3 type  2   force =     0.00000005    0.00000003    0.00001283
     atom    4 type  2   force =    -0.00000088   -0.00000051   -0.00000620
     atom    5 type  1   force =     0.00000930    0.00000537    0.00000217
     atom    6 type  1   force =     0.00000083    0.00000048    0.00002972
     atom    7 type  2   force =    -0.00000064   -0.00000037    0.00001017
     atom    8 type  2   force =     0.00000172    0.00000099   -0.00000791

     Total force =     0.008822     Total SCF correction =     0.000054

     General routines

     Parallel routines

   This run was terminated on:  21:11:27  26Aug2025

   JOB DONE.