     Program PWSCF v.7.0 starts on 27Aug2025 at 10: 7: 1

     R & G space division:  proc/nbgrp/npool/nimage =      16

     Reading input from ZnO-3.40-1.61-211.in
Warning: card &CELL ignored
Warning: card / ignored
Warning: card &FCP ignored
Warning: card / ignored
Warning: card &RISM ignored
Warning: card / ignored

     Current dimensions of program PWSCF are:
     Max number of different atomic species (ntypx) = 10
     Max number of k-points (npk) =  40000
     Max angular momentum in pseudopotentials (lmaxx) =  4
     file Zn.upf: wavefunction(s)  3D renormalized
     Found identity + ( -0.5000  0.0000  0.0000) symmetry
     This is a supercell, fractional translations are disabled
     Message from routine setup:
     using ibrav=0 with symmetry is DISCOURAGED, use correct ibrav instead

     Using Slab Decomposition

     bravais-lattice index     =            0
     lattice parameter (alat)  =      12.8520  a.u.
     unit-cell volume          =     741.9667 (a.u.)^3
     number of atoms/cell      =            8
     number of atomic types    =            2
     number of electrons       =        72.00
     number of Kohn-Sham states=           36
     kinetic-energy cutoff     =      50.0000  Ry
     charge density cutoff     =     400.0000  Ry
     scf convergence threshold =      1.0E-08
     mixing beta               =       0.3000
     number of iterations used =            8  plain     mixing
     Exchange-correlation= PBE
                           (   1   4   3   4   0   0   0)

     celldm(1)=  12.852016  celldm(2)=   0.000000  celldm(3)=   0.000000
     celldm(4)=   0.000000  celldm(5)=   0.000000  celldm(6)=   0.000000

     crystal axes: (cart. coord. in units of alat)
               a(1) = (   1.000000   0.000000   0.000000 )
               a(2) = (  -0.250000   0.433013   0.000000 )
               a(3) = (   0.000000   0.000000   0.807179 )

     reciprocal axes: (cart. coord. in units 2 pi/alat)
               b(1) = (  1.000000  0.577350 -0.000000 )
               b(2) = (  0.000000  2.309401  0.000000 )
               b(3) = (  0.000000 -0.000000  1.238882 )

     PseudoPot. # 1 for Zn read from file:
     /home/jvc/QEspresso7.2/ZnO_database/pseudos/Zn.upf
     MD5 check sum: 7f56cabf9682ed8c977c2f7d0c5985c5
     Pseudo is Ultrasoft + core correction, Zval = 12.0
     Generated using &quot;atomic&quot; code by A. Dal Corso  v.6.2.2
     Using radial grid of 1201 points,  6 beta functions with:
                l(1) =   0
                l(2) =   0
                l(3) =   1
                l(4) =   1
                l(5) =   2
                l(6) =   2
     Q(r) pseudized with 0 coefficients

     PseudoPot. # 2 for O  read from file:
     /home/jvc/QEspresso7.2/ZnO_database/pseudos/O.upf
     MD5 check sum: 91400c9766925bcf19f520983a725ff0
     Pseudo is Ultrasoft + core correction, Zval =  6.0
     Generated using &quot;atomic&quot; code by A. Dal Corso  v.6.3MaX
     Using radial grid of 1095 points,  4 beta functions with:
                l(1) =   0
                l(2) =   0
                l(3) =   1
                l(4) =   1
     Q(r) pseudized with 0 coefficients

     atomic species   valence    mass     pseudopotential
        Zn            12.00    65.38000     Zn( 1.00)
        O              6.00    15.99900     O ( 1.00)

      2 Sym. Ops. (no inversion) found

                                    s                        frac. trans.

      isym =  1     identity

 cryst.   s( 1) = (     1          0          0      )
                  (     0          1          0      )
                  (     0          0          1      )

 cart.    s( 1) = (  1.0000000  0.0000000  0.0000000 )
                  (  0.0000000  1.0000000  0.0000000 )
                  (  0.0000000  0.0000000  1.0000000 )

      isym =  2     inv. 180 deg rotation - cryst. axis [0,1,0]

 cryst.   s( 2) = (     1          2          0      )
                  (     0         -1          0      )
                  (     0          0          1      )

 cart.    s( 2) = (  0.5000000  0.8660254  0.0000000 )
                  (  0.8660254 -0.5000000  0.0000000 )
                  (  0.0000000  0.0000000  1.0000000 )

   Cartesian axes

     site n.     atom                  positions (alat units)
         1           Zn  tau(   1) = (   0.2500000   0.1443376   0.4041010  )
         2           Zn  tau(   2) = (  -0.0000000   0.2886751   0.0005114  )
         3           O   tau(   3) = (   0.2500000   0.1443376   0.7100565  )
         4           O   tau(   4) = (  -0.0000000   0.2886751   0.3064669  )
         5           Zn  tau(   5) = (   0.7500000   0.1443376   0.4041010  )
         6           Zn  tau(   6) = (   0.5000000   0.2886751   0.0005114  )
         7           O   tau(   7) = (   0.7500000   0.1443376   0.7100565  )
         8           O   tau(   8) = (   0.5000000   0.2886751   0.3064669  )

   Crystallographic axes

     site n.     atom                  positions (cryst. coord.)
         1           Zn  tau(   1) = (  0.3333333  0.3333333  0.5006336  )
         2           Zn  tau(   2) = (  0.1666667  0.6666667  0.0006336  )
         3           O   tau(   3) = (  0.3333333  0.3333333  0.8796764  )
         4           O   tau(   4) = (  0.1666667  0.6666667  0.3796764  )
         5           Zn  tau(   5) = (  0.8333333  0.3333333  0.5006336  )
         6           Zn  tau(   6) = (  0.6666667  0.6666667  0.0006336  )
         7           O   tau(   7) = (  0.8333333  0.3333333  0.8796764  )
         8           O   tau(   8) = (  0.6666667  0.6666667  0.3796764  )

     number of k points=    80
                       cart. coord. in units 2pi/alat
        k(    1) = (   0.0000000   0.0000000   0.0000000), wk =   0.0092593
        k(    2) = (   0.0000000   0.0000000   0.2064804), wk =   0.0185185
        k(    3) = (   0.0000000   0.0000000   0.4129608), wk =   0.0185185
        k(    4) = (   0.0000000   0.0000000  -0.6194412), wk =   0.0092593
        k(    5) = (   0.0000000   0.3849002   0.0000000), wk =   0.0370370
        k(    6) = (   0.0000000   0.3849002   0.2064804), wk =   0.0370370
        k(    7) = (   0.0000000   0.3849002   0.4129608), wk =   0.0370370
        k(    8) = (   0.0000000   0.3849002  -0.6194412), wk =   0.0370370
        k(    9) = (   0.0000000   0.7698004   0.0000000), wk =   0.0370370
        k(   10) = (   0.0000000   0.7698004   0.2064804), wk =   0.0370370
        k(   11) = (   0.0000000   0.7698004   0.4129608), wk =   0.0370370
        k(   12) = (   0.0000000   0.7698004  -0.6194412), wk =   0.0370370
        k(   13) = (   0.0000000  -1.1547005   0.0000000), wk =   0.0092593
        k(   14) = (   0.0000000  -1.1547005   0.2064804), wk =   0.0185185
        k(   15) = (   0.0000000  -1.1547005   0.4129608), wk =   0.0185185
        k(   16) = (   0.0000000  -1.1547005  -0.6194412), wk =   0.0092593
        k(   17) = (   0.1666667   0.0962250   0.0000000), wk =   0.0185185
        k(   18) = (   0.1666667   0.0962250   0.2064804), wk =   0.0185185
        k(   19) = (   0.1666667   0.0962250   0.4129608), wk =   0.0185185
        k(   20) = (   0.1666667   0.0962250  -0.6194412), wk =   0.0185185
        k(   21) = (   0.1666667   0.4811252   0.0000000), wk =   0.0370370
        k(   22) = (   0.1666667   0.4811252   0.2064804), wk =   0.0370370
        k(   23) = (   0.1666667   0.4811252   0.4129608), wk =   0.0370370
        k(   24) = (   0.1666667   0.4811252  -0.6194412), wk =   0.0370370
        k(   25) = (   0.1666667   0.8660254   0.0000000), wk =   0.0185185
        k(   26) = (   0.1666667   0.8660254   0.2064804), wk =   0.0370370
        k(   27) = (   0.1666667   0.8660254   0.4129608), wk =   0.0370370
        k(   28) = (   0.1666667   0.8660254  -0.6194412), wk =   0.0185185
        k(   29) = (   0.1666667  -1.0584755   0.0000000), wk =   0.0185185
        k(   30) = (   0.1666667  -1.0584755   0.2064804), wk =   0.0185185
        k(   31) = (   0.1666667  -1.0584755   0.4129608), wk =   0.0185185
        k(   32) = (   0.1666667  -1.0584755  -0.6194412), wk =   0.0185185
        k(   33) = (   0.1666667  -0.6735753   0.0000000), wk =   0.0370370
        k(   34) = (   0.1666667  -0.6735753   0.2064804), wk =   0.0370370
        k(   35) = (   0.1666667  -0.6735753   0.4129608), wk =   0.0370370
        k(   36) = (   0.1666667  -0.6735753  -0.6194412), wk =   0.0370370
        k(   37) = (   0.1666667  -0.2886751   0.0000000), wk =   0.0185185
        k(   38) = (   0.1666667  -0.2886751   0.2064804), wk =   0.0370370
        k(   39) = (   0.1666667  -0.2886751   0.4129608), wk =   0.0370370
        k(   40) = (   0.1666667  -0.2886751  -0.6194412), wk =   0.0185185
        k(   41) = (   0.3333333   0.1924501   0.0000000), wk =   0.0185185
        k(   42) = (   0.3333333   0.1924501   0.2064804), wk =   0.0185185
        k(   43) = (   0.3333333   0.1924501   0.4129608), wk =   0.0185185
        k(   44) = (   0.3333333   0.1924501  -0.6194412), wk =   0.0185185
        k(   45) = (   0.3333333   0.5773503   0.0000000), wk =   0.0185185
        k(   46) = (   0.3333333   0.5773503   0.2064804), wk =   0.0370370
        k(   47) = (   0.3333333   0.5773503   0.4129608), wk =   0.0370370
        k(   48) = (   0.3333333   0.5773503  -0.6194412), wk =   0.0185185
        k(   49) = (   0.3333333  -0.9622504   0.0000000), wk =   0.0185185
        k(   50) = (   0.3333333  -0.9622504   0.2064804), wk =   0.0185185
        k(   51) = (   0.3333333  -0.9622504   0.4129608), wk =   0.0185185
        k(   52) = (   0.3333333  -0.9622504  -0.6194412), wk =   0.0185185
        k(   53) = (   0.3333333  -0.5773503   0.0000000), wk =   0.0185185
        k(   54) = (   0.3333333  -0.5773503   0.2064804), wk =   0.0370370
        k(   55) = (   0.3333333  -0.5773503   0.4129608), wk =   0.0370370
        k(   56) = (   0.3333333  -0.5773503  -0.6194412), wk =   0.0185185
        k(   57) = (  -0.5000000  -0.2886751   0.0000000), wk =   0.0092593
        k(   58) = (  -0.5000000  -0.2886751   0.2064804), wk =   0.0185185
        k(   59) = (  -0.5000000  -0.2886751   0.4129608), wk =   0.0185185
        k(   60) = (  -0.5000000  -0.2886751  -0.6194412), wk =   0.0092593
[...]
        k(   66) = (   0.3333333  -0.1924501  -0.4129608), wk =   0.0370370
        k(   67) = (   0.6666667  -0.3849002  -0.2064804), wk =   0.0370370
        k(   68) = (   0.6666667  -0.3849002  -0.4129608), wk =   0.0370370
        k(   69) = (   0.1666667   0.0962250  -0.2064804), wk =   0.0185185
        k(   70) = (   0.1666667   0.0962250  -0.4129608), wk =   0.0185185
        k(   71) = (   0.5000000  -0.0962250  -0.2064804), wk =   0.0370370
        k(   72) = (   0.5000000  -0.0962250  -0.4129608), wk =   0.0370370
        k(   73) = (  -0.8333333   0.6735753  -0.2064804), wk =   0.0185185
        k(   74) = (  -0.8333333   0.6735753  -0.4129608), wk =   0.0185185
        k(   75) = (  -0.5000000   0.4811252  -0.2064804), wk =   0.0370370
        k(   76) = (  -0.5000000   0.4811252  -0.4129608), wk =   0.0370370
        k(   77) = (   0.3333333   0.1924501  -0.2064804), wk =   0.0185185
        k(   78) = (   0.3333333   0.1924501  -0.4129608), wk =   0.0185185
        k(   79) = (  -0.6666667   0.7698004  -0.2064804), wk =   0.0185185
        k(   80) = (  -0.6666667   0.7698004  -0.4129608), wk =   0.0185185

                       cryst. coord.
        k(    1) = (   0.0000000   0.0000000   0.0000000), wk =   0.0092593
        k(    2) = (   0.0000000   0.0000000   0.1666667), wk =   0.0185185
        k(    3) = (   0.0000000   0.0000000   0.3333333), wk =   0.0185185
        k(    4) = (   0.0000000   0.0000000  -0.5000000), wk =   0.0092593
        k(    5) = (   0.0000000   0.1666667   0.0000000), wk =   0.0370370
        k(    6) = (   0.0000000   0.1666667   0.1666667), wk =   0.0370370
        k(    7) = (   0.0000000   0.1666667   0.3333333), wk =   0.0370370
        k(    8) = (   0.0000000   0.1666667  -0.5000000), wk =   0.0370370
        k(    9) = (   0.0000000   0.3333333   0.0000000), wk =   0.0370370
        k(   10) = (   0.0000000   0.3333333   0.1666667), wk =   0.0370370
        k(   11) = (   0.0000000   0.3333333   0.3333333), wk =   0.0370370
        k(   12) = (   0.0000000   0.3333333  -0.5000000), wk =   0.0370370
        k(   13) = (   0.0000000  -0.5000000   0.0000000), wk =   0.0092593
        k(   14) = (   0.0000000  -0.5000000   0.1666667), wk =   0.0185185
        k(   15) = (   0.0000000  -0.5000000   0.3333333), wk =   0.0185185
        k(   16) = (   0.0000000  -0.5000000  -0.5000000), wk =   0.0092593
        k(   17) = (   0.1666667  -0.0000000   0.0000000), wk =   0.0185185
        k(   18) = (   0.1666667  -0.0000000   0.1666667), wk =   0.0185185
        k(   19) = (   0.1666667  -0.0000000   0.3333333), wk =   0.0185185
        k(   20) = (   0.1666667  -0.0000000  -0.5000000), wk =   0.0185185
        k(   21) = (   0.1666667   0.1666667   0.0000000), wk =   0.0370370
        k(   22) = (   0.1666667   0.1666667   0.1666667), wk =   0.0370370
        k(   23) = (   0.1666667   0.1666667   0.3333333), wk =   0.0370370
        k(   24) = (   0.1666667   0.1666667  -0.5000000), wk =   0.0370370
        k(   25) = (   0.1666667   0.3333333   0.0000000), wk =   0.0185185
        k(   26) = (   0.1666667   0.3333333   0.1666667), wk =   0.0370370
        k(   27) = (   0.1666667   0.3333333   0.3333333), wk =   0.0370370
        k(   28) = (   0.1666667   0.3333333  -0.5000000), wk =   0.0185185
        k(   29) = (   0.1666667  -0.5000000   0.0000000), wk =   0.0185185
        k(   30) = (   0.1666667  -0.5000000   0.1666667), wk =   0.0185185
        k(   31) = (   0.1666667  -0.5000000   0.3333333), wk =   0.0185185
        k(   32) = (   0.1666667  -0.5000000  -0.5000000), wk =   0.0185185
        k(   33) = (   0.1666667  -0.3333333   0.0000000), wk =   0.0370370
        k(   34) = (   0.1666667  -0.3333333   0.1666667), wk =   0.0370370
        k(   35) = (   0.1666667  -0.3333333   0.3333333), wk =   0.0370370
        k(   36) = (   0.1666667  -0.3333333  -0.5000000), wk =   0.0370370
        k(   37) = (   0.1666667  -0.1666667   0.0000000), wk =   0.0185185
        k(   38) = (   0.1666667  -0.1666667   0.1666667), wk =   0.0370370
        k(   39) = (   0.1666667  -0.1666667   0.3333333), wk =   0.0370370
        k(   40) = (   0.1666667  -0.1666667  -0.5000000), wk =   0.0185185
        k(   41) = (   0.3333333  -0.0000000   0.0000000), wk =   0.0185185
        k(   42) = (   0.3333333  -0.0000000   0.1666667), wk =   0.0185185
        k(   43) = (   0.3333333  -0.0000000   0.3333333), wk =   0.0185185
        k(   44) = (   0.3333333  -0.0000000  -0.5000000), wk =   0.0185185
        k(   45) = (   0.3333333   0.1666667   0.0000000), wk =   0.0185185
        k(   46) = (   0.3333333   0.1666667   0.1666667), wk =   0.0370370
        k(   47) = (   0.3333333   0.1666667   0.3333333), wk =   0.0370370
        k(   48) = (   0.3333333   0.1666667  -0.5000000), wk =   0.0185185
        k(   49) = (   0.3333333  -0.5000000   0.0000000), wk =   0.0185185
        k(   50) = (   0.3333333  -0.5000000   0.1666667), wk =   0.0185185
        k(   51) = (   0.3333333  -0.5000000   0.3333333), wk =   0.0185185
        k(   52) = (   0.3333333  -0.5000000  -0.5000000), wk =   0.0185185
        k(   53) = (   0.3333333  -0.3333333   0.0000000), wk =   0.0185185
        k(   54) = (   0.3333333  -0.3333333   0.1666667), wk =   0.0370370
        k(   55) = (   0.3333333  -0.3333333   0.3333333), wk =   0.0370370
        k(   56) = (   0.3333333  -0.3333333  -0.5000000), wk =   0.0185185
        k(   57) = (  -0.5000000   0.0000000   0.0000000), wk =   0.0092593
        k(   58) = (  -0.5000000   0.0000000   0.1666667), wk =   0.0185185
        k(   59) = (  -0.5000000   0.0000000   0.3333333), wk =   0.0185185
        k(   60) = (  -0.5000000   0.0000000  -0.5000000), wk =   0.0092593
[...]
        k(   66) = (   0.3333333  -0.1666667  -0.3333333), wk =   0.0370370
        k(   67) = (   0.6666667  -0.3333333  -0.1666667), wk =   0.0370370
        k(   68) = (   0.6666667  -0.3333333  -0.3333333), wk =   0.0370370
        k(   69) = (   0.1666667   0.0000000  -0.1666667), wk =   0.0185185
        k(   70) = (   0.1666667   0.0000000  -0.3333333), wk =   0.0185185
        k(   71) = (   0.5000000  -0.1666667  -0.1666667), wk =   0.0370370
        k(   72) = (   0.5000000  -0.1666667  -0.3333333), wk =   0.0370370
        k(   73) = (  -0.8333333   0.5000000  -0.1666667), wk =   0.0185185
        k(   74) = (  -0.8333333   0.5000000  -0.3333333), wk =   0.0185185
        k(   75) = (  -0.5000000   0.3333333  -0.1666667), wk =   0.0370370
        k(   76) = (  -0.5000000   0.3333333  -0.3333333), wk =   0.0370370
        k(   77) = (   0.3333333   0.0000000  -0.1666667), wk =   0.0185185
        k(   78) = (   0.3333333   0.0000000  -0.3333333), wk =   0.0185185
        k(   79) = (  -0.6666667   0.5000000  -0.1666667), wk =   0.0185185
        k(   80) = (  -0.6666667   0.5000000  -0.3333333), wk =   0.0185185

     Check: negative core charge=   -0.000002

     Initial potential from superposition of free atoms

     starting charge      71.9851, renormalised to      72.0000
     Starting wfcs are   52 randomized atomic wfcs

     Self-consistent Calculation

     iteration #  1     ecut=    50.00 Ry     beta= 0.30
     Davidson diagonalization with overlap

     ethr =  1.00E-02,  avg # of iterations =  1.7

     total energy              =    -722.89379758 Ry
     estimated scf accuracy    <       1.48247275 Ry

[...]

     c_bands:  1 eigenvalues not converged
     c_bands:  1 eigenvalues not converged
     c_bands:  2 eigenvalues not converged
     ethr =  3.15E-08,  avg # of iterations = 15.0

[...]

     c_bands:  1 eigenvalues not converged
     ethr =  3.15E-08,  avg # of iterations = 12.7

[...]

     total energy              =    -723.24291991 Ry
     estimated scf accuracy    <       0.00000001 Ry

     iteration # 33     ecut=    50.00 Ry     beta= 0.30
     Davidson diagonalization with overlap

     ethr =  1.52E-11,  avg # of iterations =  6.0

     End of self-consistent calculation

          k = 0.0000 0.0000 0.0000 (  4421 PWs)   bands (ev):

   -11.7730 -11.2737 -11.2500 -11.1128   0.0636   0.1476   0.1478   0.1749
     0.2958   0.2960   0.3353   0.3407   0.6123   0.6394   0.7431   0.7597
     0.9479   0.9479   1.0048   1.0717   1.0967   1.0968   1.1307   1.1869
     1.3731   1.7365   2.1772   2.8848   3.4756   4.2190   4.6156   4.6417
     4.6422   5.2297   5.2792   5.2797

     occupation numbers
     1.0000   1.0000   1.0000   1.0000   1.0000   1.0000   1.0000   1.0000
     1.0000   1.0000   1.0000   1.0000   1.0000   1.0000   1.0000   1.0000
     1.0000   1.0000   1.0000   1.0000   1.0000   1.0000   1.0000   1.0000
     1.0000   1.0000   1.0000   1.0000   1.0000   1.0000   1.0000   1.0000
     1.0000   1.0000   1.0000   1.0000

[...]

          k =-0.5000-0.2887 0.0000 (  4406 PWs)   bands (ev):

[...]

          k = 0.3333 0.1925-0.4130 (  4439 PWs)   bands (ev):

[...]

          k =-0.6667 0.7698-0.4130 (  4430 PWs)   bands (ev):

   -11.2330 -11.2328 -11.1485 -11.1483   0.0868   0.0868   0.1854   0.1854
     0.3888   0.3888   0.5434   0.5434   0.6171   0.6171   0.6298   0.6298
     1.0085   1.0085   1.0560   1.0560   1.1548   1.1548   1.2460   1.2460
     1.8851   1.8851   2.1720   2.1720   3.2614   3.2614   3.7674   3.7675
     3.9872   3.9872   4.4175   4.4176

     occupation numbers
     1.0000   1.0000   1.0000   1.0000   1.0000   1.0000   1.0000   1.0000
     1.0000   1.0000   1.0000   1.0000   1.0000   1.0000   1.0000   1.0000
     1.0000   1.0000   1.0000   1.0000   1.0000   1.0000   1.0000   1.0000
     1.0000   1.0000   1.0000   1.0000   1.0000   1.0000   1.0000   1.0000
     1.0000   1.0000   1.0000   1.0000

     highest occupied level (ev):     5.2797

!    total energy              =    -723.24291991 Ry
     estimated scf accuracy    <          3.1E-09 Ry

     The total energy is the sum of the following terms:
     one-electron contribution =    -335.63481854 Ry
     hartree contribution      =     246.13617464 Ry
     xc contribution           =    -218.64118013 Ry
     ewald contribution        =    -415.10309589 Ry

     convergence has been achieved in  33 iterations

     Forces acting on atoms (cartesian axes, Ry/au):

     atom    1 type  1   force =    -0.00000773   -0.00000446   -0.00010847
     atom    2 type  1   force =    -0.00002045   -0.00001181   -0.00008647
     atom    3 type  2   force =    -0.00000289   -0.00000167    0.00009596
     atom    4 type  2   force =     0.00000257    0.00000148    0.00009625
     atom    5 type  1   force =     0.00001247    0.00000720   -0.00009422
     atom    6 type  1   force =     0.00001616    0.00000933   -0.00009514
     atom    7 type  2   force =    -0.00000277   -0.00000160    0.00009615
     atom    8 type  2   force =     0.00000265    0.00000153    0.00009594
     The non-local contrib.  to forces
     atom    1 type  1   force =    -0.00001143   -0.00000660   -0.00454748
     atom    2 type  1   force =    -0.00000111   -0.00000064   -0.00454135
     atom    3 type  2   force =    -0.00018770   -0.00010837    0.00628767
     atom    4 type  2   force =     0.00019182    0.00011075    0.00628749
     atom    5 type  1   force =    -0.00000058   -0.00000033   -0.00454452
     atom    6 type  1   force =     0.00001414    0.00000817   -0.00454390
     atom    7 type  2   force =    -0.00019009   -0.00010975    0.00628786
     atom    8 type  2   force =     0.00018714    0.00010804    0.00628733
     The ionic contribution  to forces
     atom    1 type  1   force =    -0.00000000    0.00000000    0.05798523
     atom    2 type  1   force =     0.00000000   -0.00000000    0.05798523
     atom    3 type  2   force =    -0.00000000    0.00000000   -0.05798523
     atom    4 type  2   force =     0.00000000   -0.00000000   -0.05798523
     atom    5 type  1   force =    -0.00000000    0.00000000    0.05798523
     atom    6 type  1   force =     0.00000000   -0.00000000    0.05798523
     atom    7 type  2   force =    -0.00000000    0.00000000   -0.05798523
     atom    8 type  2   force =     0.00000000   -0.00000000   -0.05798523
     The local contribution  to forces
     atom    1 type  1   force =     0.00002827    0.00001632   -0.05387009
     atom    2 type  1   force =     0.00001278    0.00000728   -0.05390240
     atom    3 type  2   force =     0.00018698    0.00010796    0.05186594
     atom    4 type  2   force =    -0.00018029   -0.00010412    0.05186667
     atom    5 type  1   force =    -0.00000152   -0.00000088   -0.05389040
     atom    6 type  1   force =    -0.00004110   -0.00002383   -0.05388883
     atom    7 type  2   force =     0.00017982    0.00010382    0.05186567
     atom    8 type  2   force =    -0.00018767   -0.00010838    0.05186685
     The core correction contribution to forces
     atom    1 type  1   force =    -0.00000550   -0.00000318    0.00035190
     atom    2 type  1   force =     0.00000509    0.00000288    0.00035278
     atom    3 type  2   force =     0.00000212    0.00000122   -0.00007065
     atom    4 type  2   force =    -0.00000217   -0.00000126   -0.00007066
     atom    5 type  1   force =    -0.00000543   -0.00000309    0.00035254
     atom    6 type  1   force =     0.00000579    0.00000333    0.00035240
     atom    7 type  2   force =     0.00000214    0.00000124   -0.00007066
     atom    8 type  2   force =    -0.00000211   -0.00000122   -0.00007065
     The Hubbard contrib.    to forces
     atom    1 type  1   force =     0.00000000    0.00000000    0.00000000
     atom    2 type  1   force =     0.00000000    0.00000000    0.00000000
     atom    3 type  2   force =     0.00000000    0.00000000    0.00000000
     atom    4 type  2   force =     0.00000000    0.00000000    0.00000000
     atom    5 type  1   force =     0.00000000    0.00000000    0.00000000
     atom    6 type  1   force =     0.00000000    0.00000000    0.00000000
     atom    7 type  2   force =     0.00000000    0.00000000    0.00000000
     atom    8 type  2   force =     0.00000000    0.00000000    0.00000000
     The SCF correction term to forces
     atom    1 type  1   force =    -0.00001887   -0.00001089   -0.00002730
     atom    2 type  1   force =    -0.00003692   -0.00002132    0.00002000
     atom    3 type  2   force =    -0.00000407   -0.00000235   -0.00000105
     atom    4 type  2   force =    -0.00000656   -0.00000379   -0.00000129
     atom    5 type  1   force =     0.00002019    0.00001165    0.00000366
     atom    6 type  1   force =     0.00003758    0.00002170    0.00000070
     atom    7 type  2   force =     0.00000557    0.00000322   -0.00000077
     atom    8 type  2   force =     0.00000552    0.00000319   -0.00000164

     Total force =     0.000274     Total SCF correction =     0.000078
     SCF correction compared to forces is large: reduce conv_thr to get better values

     General routines

     Parallel routines

   This run was terminated on:  10:14:10  27Aug2025

   JOB DONE.
Note: The following floating-point exceptions are signalling: IEEE_UNDERFLOW_FLAG IEEE_DENORMAL
Note: The following floating-point exceptions are signalling: IEEE_UNDERFLOW_FLAG IEEE_DENORMAL
Note: The following floating-point exceptions are signalling: IEEE_UNDERFLOW_FLAG IEEE_DENORMAL
Note: The following floating-point exceptions are signalling: IEEE_UNDERFLOW_FLAG IEEE_DENORMAL
Note: The following floating-point exceptions are signalling: IEEE_UNDERFLOW_FLAG IEEE_DENORMAL
Note: The following floating-point exceptions are signalling: IEEE_UNDERFLOW_FLAG IEEE_DENORMAL
Note: The following floating-point exceptions are signalling: IEEE_UNDERFLOW_FLAG IEEE_DENORMAL
Note: The following floating-point exceptions are signalling: IEEE_UNDERFLOW_FLAG IEEE_DENORMAL
Note: The following floating-point exceptions are signalling: IEEE_UNDERFLOW_FLAG IEEE_DENORMAL
Note: The following floating-point exceptions are signalling: IEEE_UNDERFLOW_FLAG IEEE_DENORMAL
Note: The following floating-point exceptions are signalling: IEEE_UNDERFLOW_FLAG IEEE_DENORMAL
Note: The following floating-point exceptions are signalling: IEEE_UNDERFLOW_FLAG IEEE_DENORMAL
Note: The following floating-point exceptions are signalling: IEEE_UNDERFLOW_FLAG IEEE_DENORMAL
Note: The following floating-point exceptions are signalling: IEEE_UNDERFLOW_FLAG IEEE_DENORMAL
Note: The following floating-point exceptions are signalling: IEEE_UNDERFLOW_FLAG IEEE_DENORMAL
Note: The following floating-point exceptions are signalling: IEEE_UNDERFLOW_FLAG IEEE_DENORMAL