     Program PWSCF v.7.0 starts on 26Aug2025 at 15:31: 9

     K-points division:     npool     =       4
     band groups division:  nbgrp     =       4

     Reading input from /home/jvc/QEspresso7.2/ZnO_database/scripts/cell211.in/ZnO-3.07-1.71-211.in
Warning: card &CELL ignored
Warning: card / ignored
Warning: card &FCP ignored
Warning: card / ignored
Warning: card &RISM ignored
Warning: card / ignored

     Current dimensions of program PWSCF are:
     Max number of different atomic species (ntypx) = 10
     Max number of k-points (npk) =  40000
     Max angular momentum in pseudopotentials (lmaxx) =  4
     file Zn.upf: wavefunction(s)  3D renormalized
     Found identity + ( -0.5000  0.0000  0.0000) symmetry
     This is a supercell, fractional translations are disabled
     Message from routine setup:
     using ibrav=0 with symmetry is DISCOURAGED, use correct ibrav instead

     Subspace diagonalization in iterative solution of the eigenvalue problem:
     a serial algorithm will be used

     Using Slab Decomposition

     bravais-lattice index     =            0
     lattice parameter (alat)  =      11.6162  a.u.
     unit-cell volume          =     580.7294 (a.u.)^3
     number of atoms/cell      =            8
     number of atomic types    =            2
     number of electrons       =        72.00
     number of Kohn-Sham states=           36
     kinetic-energy cutoff     =      50.0000  Ry
     charge density cutoff     =     400.0000  Ry
     scf convergence threshold =      1.0E-08
     mixing beta               =       0.3000
     number of iterations used =            8  plain     mixing
     Exchange-correlation= PBE
                           (   1   4   3   4   0   0   0)

     celldm(1)=  11.616245  celldm(2)=   0.000000  celldm(3)=   0.000000
     celldm(4)=   0.000000  celldm(5)=   0.000000  celldm(6)=   0.000000

     crystal axes: (cart. coord. in units of alat)
               a(1) = (   1.000000   0.000000   0.000000 )
               a(2) = (  -0.250000   0.433013   0.000000 )
               a(3) = (   0.000000   0.000000   0.855610 )

     reciprocal axes: (cart. coord. in units 2 pi/alat)
               b(1) = (  1.000000  0.577350 -0.000000 )
               b(2) = (  0.000000  2.309401  0.000000 )
               b(3) = (  0.000000 -0.000000  1.168757 )

     PseudoPot. # 1 for Zn read from file:
     /home/jvc/QEspresso7.2/ZnO_database/pseudos/Zn.upf
     MD5 check sum: 7f56cabf9682ed8c977c2f7d0c5985c5
     Pseudo is Ultrasoft + core correction, Zval = 12.0
     Generated using &quot;atomic&quot; code by A. Dal Corso  v.6.2.2
     Using radial grid of 1201 points,  6 beta functions with:
                l(1) =   0
                l(2) =   0
                l(3) =   1
                l(4) =   1
                l(5) =   2
                l(6) =   2
     Q(r) pseudized with 0 coefficients

     PseudoPot. # 2 for O  read from file:
     /home/jvc/QEspresso7.2/ZnO_database/pseudos/O.upf
     MD5 check sum: 91400c9766925bcf19f520983a725ff0
     Pseudo is Ultrasoft + core correction, Zval =  6.0
     Generated using &quot;atomic&quot; code by A. Dal Corso  v.6.3MaX
     Using radial grid of 1095 points,  4 beta functions with:
                l(1) =   0
                l(2) =   0
                l(3) =   1
                l(4) =   1
     Q(r) pseudized with 0 coefficients

     atomic species   valence    mass     pseudopotential
        Zn            12.00    65.38000     Zn( 1.00)
        O              6.00    15.99900     O ( 1.00)

      2 Sym. Ops. (no inversion) found

                                    s                        frac. trans.

      isym =  1     identity

 cryst.   s( 1) = (     1          0          0      )
                  (     0          1          0      )
                  (     0          0          1      )

 cart.    s( 1) = (  1.0000000  0.0000000  0.0000000 )
                  (  0.0000000  1.0000000  0.0000000 )
                  (  0.0000000  0.0000000  1.0000000 )

      isym =  2     inv. 180 deg rotation - cryst. axis [0,1,0]

 cryst.   s( 2) = (     1          2          0      )
                  (     0         -1          0      )
                  (     0          0          1      )

 cart.    s( 2) = (  0.5000000  0.8660254  0.0000000 )
                  (  0.8660254 -0.5000000  0.0000000 )
                  (  0.0000000  0.0000000  1.0000000 )

   Cartesian axes

     site n.     atom                  positions (alat units)
         1           Zn  tau(   1) = (   0.2500000   0.1443376   0.4283471  )
         2           Zn  tau(   2) = (  -0.0000000   0.2886751   0.0005421  )
         3           O   tau(   3) = (   0.2500000   0.1443376   0.7526599  )
         4           O   tau(   4) = (  -0.0000000   0.2886751   0.3248549  )
         5           Zn  tau(   5) = (   0.7500000   0.1443376   0.4283471  )
         6           Zn  tau(   6) = (   0.5000000   0.2886751   0.0005421  )
         7           O   tau(   7) = (   0.7500000   0.1443376   0.7526599  )
         8           O   tau(   8) = (   0.5000000   0.2886751   0.3248549  )

   Crystallographic axes

     site n.     atom                  positions (cryst. coord.)
         1           Zn  tau(   1) = (  0.3333333  0.3333333  0.5006336  )
         2           Zn  tau(   2) = (  0.1666667  0.6666667  0.0006336  )
         3           O   tau(   3) = (  0.3333333  0.3333333  0.8796764  )
         4           O   tau(   4) = (  0.1666667  0.6666667  0.3796764  )
         5           Zn  tau(   5) = (  0.8333333  0.3333333  0.5006336  )
         6           Zn  tau(   6) = (  0.6666667  0.6666667  0.0006336  )
         7           O   tau(   7) = (  0.8333333  0.3333333  0.8796764  )
         8           O   tau(   8) = (  0.6666667  0.6666667  0.3796764  )

     number of k points=    80
                       cart. coord. in units 2pi/alat
        k(    1) = (   0.0000000   0.0000000   0.0000000), wk =   0.0092593
        k(    2) = (   0.0000000   0.0000000   0.1947928), wk =   0.0185185
        k(    3) = (   0.0000000   0.0000000   0.3895856), wk =   0.0185185
        k(    4) = (   0.0000000   0.0000000  -0.5843784), wk =   0.0092593
        k(    5) = (   0.0000000   0.3849002   0.0000000), wk =   0.0370370
        k(    6) = (   0.0000000   0.3849002   0.1947928), wk =   0.0370370
        k(    7) = (   0.0000000   0.3849002   0.3895856), wk =   0.0370370
        k(    8) = (   0.0000000   0.3849002  -0.5843784), wk =   0.0370370
        k(    9) = (   0.0000000   0.7698004   0.0000000), wk =   0.0370370
        k(   10) = (   0.0000000   0.7698004   0.1947928), wk =   0.0370370
        k(   11) = (   0.0000000   0.7698004   0.3895856), wk =   0.0370370
        k(   12) = (   0.0000000   0.7698004  -0.5843784), wk =   0.0370370
        k(   13) = (   0.0000000  -1.1547005   0.0000000), wk =   0.0092593
        k(   14) = (   0.0000000  -1.1547005   0.1947928), wk =   0.0185185
        k(   15) = (   0.0000000  -1.1547005   0.3895856), wk =   0.0185185
        k(   16) = (   0.0000000  -1.1547005  -0.5843784), wk =   0.0092593
        k(   17) = (   0.1666667   0.0962250   0.0000000), wk =   0.0185185
        k(   18) = (   0.1666667   0.0962250   0.1947928), wk =   0.0185185
        k(   19) = (   0.1666667   0.0962250   0.3895856), wk =   0.0185185
        k(   20) = (   0.1666667   0.0962250  -0.5843784), wk =   0.0185185
        k(   21) = (   0.1666667   0.4811252   0.0000000), wk =   0.0370370
        k(   22) = (   0.1666667   0.4811252   0.1947928), wk =   0.0370370
        k(   23) = (   0.1666667   0.4811252   0.3895856), wk =   0.0370370
        k(   24) = (   0.1666667   0.4811252  -0.5843784), wk =   0.0370370
        k(   25) = (   0.1666667   0.8660254   0.0000000), wk =   0.0185185
        k(   26) = (   0.1666667   0.8660254   0.1947928), wk =   0.0370370
        k(   27) = (   0.1666667   0.8660254   0.3895856), wk =   0.0370370
        k(   28) = (   0.1666667   0.8660254  -0.5843784), wk =   0.0185185
        k(   29) = (   0.1666667  -1.0584755   0.0000000), wk =   0.0185185
        k(   30) = (   0.1666667  -1.0584755   0.1947928), wk =   0.0185185
        k(   31) = (   0.1666667  -1.0584755   0.3895856), wk =   0.0185185
        k(   32) = (   0.1666667  -1.0584755  -0.5843784), wk =   0.0185185
        k(   33) = (   0.1666667  -0.6735753   0.0000000), wk =   0.0370370
        k(   34) = (   0.1666667  -0.6735753   0.1947928), wk =   0.0370370
        k(   35) = (   0.1666667  -0.6735753   0.3895856), wk =   0.0370370
        k(   36) = (   0.1666667  -0.6735753  -0.5843784), wk =   0.0370370
        k(   37) = (   0.1666667  -0.2886751   0.0000000), wk =   0.0185185
        k(   38) = (   0.1666667  -0.2886751   0.1947928), wk =   0.0370370
        k(   39) = (   0.1666667  -0.2886751   0.3895856), wk =   0.0370370
        k(   40) = (   0.1666667  -0.2886751  -0.5843784), wk =   0.0185185
        k(   41) = (   0.3333333   0.1924501   0.0000000), wk =   0.0185185
        k(   42) = (   0.3333333   0.1924501   0.1947928), wk =   0.0185185
        k(   43) = (   0.3333333   0.1924501   0.3895856), wk =   0.0185185
        k(   44) = (   0.3333333   0.1924501  -0.5843784), wk =   0.0185185
        k(   45) = (   0.3333333   0.5773503   0.0000000), wk =   0.0185185
        k(   46) = (   0.3333333   0.5773503   0.1947928), wk =   0.0370370
        k(   47) = (   0.3333333   0.5773503   0.3895856), wk =   0.0370370
        k(   48) = (   0.3333333   0.5773503  -0.5843784), wk =   0.0185185
        k(   49) = (   0.3333333  -0.9622504   0.0000000), wk =   0.0185185
        k(   50) = (   0.3333333  -0.9622504   0.1947928), wk =   0.0185185
        k(   51) = (   0.3333333  -0.9622504   0.3895856), wk =   0.0185185
        k(   52) = (   0.3333333  -0.9622504  -0.5843784), wk =   0.0185185
        k(   53) = (   0.3333333  -0.5773503   0.0000000), wk =   0.0185185
        k(   54) = (   0.3333333  -0.5773503   0.1947928), wk =   0.0370370
        k(   55) = (   0.3333333  -0.5773503   0.3895856), wk =   0.0370370
        k(   56) = (   0.3333333  -0.5773503  -0.5843784), wk =   0.0185185
        k(   57) = (  -0.5000000  -0.2886751   0.0000000), wk =   0.0092593
        k(   58) = (  -0.5000000  -0.2886751   0.1947928), wk =   0.0185185
        k(   59) = (  -0.5000000  -0.2886751   0.3895856), wk =   0.0185185
        k(   60) = (  -0.5000000  -0.2886751  -0.5843784), wk =   0.0092593
[...]
        k(   66) = (   0.3333333  -0.1924501  -0.3895856), wk =   0.0370370
        k(   67) = (   0.6666667  -0.3849002  -0.1947928), wk =   0.0370370
        k(   68) = (   0.6666667  -0.3849002  -0.3895856), wk =   0.0370370
        k(   69) = (   0.1666667   0.0962250  -0.1947928), wk =   0.0185185
        k(   70) = (   0.1666667   0.0962250  -0.3895856), wk =   0.0185185
        k(   71) = (   0.5000000  -0.0962250  -0.1947928), wk =   0.0370370
        k(   72) = (   0.5000000  -0.0962250  -0.3895856), wk =   0.0370370
        k(   73) = (  -0.8333333   0.6735753  -0.1947928), wk =   0.0185185
        k(   74) = (  -0.8333333   0.6735753  -0.3895856), wk =   0.0185185
        k(   75) = (  -0.5000000   0.4811252  -0.1947928), wk =   0.0370370
        k(   76) = (  -0.5000000   0.4811252  -0.3895856), wk =   0.0370370
        k(   77) = (   0.3333333   0.1924501  -0.1947928), wk =   0.0185185
        k(   78) = (   0.3333333   0.1924501  -0.3895856), wk =   0.0185185
        k(   79) = (  -0.6666667   0.7698004  -0.1947928), wk =   0.0185185
        k(   80) = (  -0.6666667   0.7698004  -0.3895856), wk =   0.0185185

                       cryst. coord.
        k(    1) = (   0.0000000   0.0000000   0.0000000), wk =   0.0092593
        k(    2) = (   0.0000000   0.0000000   0.1666667), wk =   0.0185185
        k(    3) = (   0.0000000   0.0000000   0.3333333), wk =   0.0185185
        k(    4) = (   0.0000000   0.0000000  -0.5000000), wk =   0.0092593
        k(    5) = (   0.0000000   0.1666667   0.0000000), wk =   0.0370370
        k(    6) = (   0.0000000   0.1666667   0.1666667), wk =   0.0370370
        k(    7) = (   0.0000000   0.1666667   0.3333333), wk =   0.0370370
        k(    8) = (   0.0000000   0.1666667  -0.5000000), wk =   0.0370370
        k(    9) = (   0.0000000   0.3333333   0.0000000), wk =   0.0370370
        k(   10) = (   0.0000000   0.3333333   0.1666667), wk =   0.0370370
        k(   11) = (   0.0000000   0.3333333   0.3333333), wk =   0.0370370
        k(   12) = (   0.0000000   0.3333333  -0.5000000), wk =   0.0370370
        k(   13) = (   0.0000000  -0.5000000   0.0000000), wk =   0.0092593
        k(   14) = (   0.0000000  -0.5000000   0.1666667), wk =   0.0185185
        k(   15) = (   0.0000000  -0.5000000   0.3333333), wk =   0.0185185
        k(   16) = (   0.0000000  -0.5000000  -0.5000000), wk =   0.0092593
        k(   17) = (   0.1666667   0.0000000   0.0000000), wk =   0.0185185
        k(   18) = (   0.1666667   0.0000000   0.1666667), wk =   0.0185185
        k(   19) = (   0.1666667   0.0000000   0.3333333), wk =   0.0185185
        k(   20) = (   0.1666667   0.0000000  -0.5000000), wk =   0.0185185
        k(   21) = (   0.1666667   0.1666667   0.0000000), wk =   0.0370370
        k(   22) = (   0.1666667   0.1666667   0.1666667), wk =   0.0370370
        k(   23) = (   0.1666667   0.1666667   0.3333333), wk =   0.0370370
        k(   24) = (   0.1666667   0.1666667  -0.5000000), wk =   0.0370370
        k(   25) = (   0.1666667   0.3333333   0.0000000), wk =   0.0185185
        k(   26) = (   0.1666667   0.3333333   0.1666667), wk =   0.0370370
        k(   27) = (   0.1666667   0.3333333   0.3333333), wk =   0.0370370
        k(   28) = (   0.1666667   0.3333333  -0.5000000), wk =   0.0185185
        k(   29) = (   0.1666667  -0.5000000   0.0000000), wk =   0.0185185
        k(   30) = (   0.1666667  -0.5000000   0.1666667), wk =   0.0185185
        k(   31) = (   0.1666667  -0.5000000   0.3333333), wk =   0.0185185
        k(   32) = (   0.1666667  -0.5000000  -0.5000000), wk =   0.0185185
        k(   33) = (   0.1666667  -0.3333333   0.0000000), wk =   0.0370370
        k(   34) = (   0.1666667  -0.3333333   0.1666667), wk =   0.0370370
        k(   35) = (   0.1666667  -0.3333333   0.3333333), wk =   0.0370370
        k(   36) = (   0.1666667  -0.3333333  -0.5000000), wk =   0.0370370
        k(   37) = (   0.1666667  -0.1666667   0.0000000), wk =   0.0185185
        k(   38) = (   0.1666667  -0.1666667   0.1666667), wk =   0.0370370
        k(   39) = (   0.1666667  -0.1666667   0.3333333), wk =   0.0370370
        k(   40) = (   0.1666667  -0.1666667  -0.5000000), wk =   0.0185185
        k(   41) = (   0.3333333   0.0000000   0.0000000), wk =   0.0185185
        k(   42) = (   0.3333333   0.0000000   0.1666667), wk =   0.0185185
        k(   43) = (   0.3333333   0.0000000   0.3333333), wk =   0.0185185
        k(   44) = (   0.3333333   0.0000000  -0.5000000), wk =   0.0185185
        k(   45) = (   0.3333333   0.1666667   0.0000000), wk =   0.0185185
        k(   46) = (   0.3333333   0.1666667   0.1666667), wk =   0.0370370
        k(   47) = (   0.3333333   0.1666667   0.3333333), wk =   0.0370370
        k(   48) = (   0.3333333   0.1666667  -0.5000000), wk =   0.0185185
        k(   49) = (   0.3333333  -0.5000000   0.0000000), wk =   0.0185185
        k(   50) = (   0.3333333  -0.5000000   0.1666667), wk =   0.0185185
        k(   51) = (   0.3333333  -0.5000000   0.3333333), wk =   0.0185185
        k(   52) = (   0.3333333  -0.5000000  -0.5000000), wk =   0.0185185
        k(   53) = (   0.3333333  -0.3333333   0.0000000), wk =   0.0185185
        k(   54) = (   0.3333333  -0.3333333   0.1666667), wk =   0.0370370
        k(   55) = (   0.3333333  -0.3333333   0.3333333), wk =   0.0370370
        k(   56) = (   0.3333333  -0.3333333  -0.5000000), wk =   0.0185185
        k(   57) = (  -0.5000000  -0.0000000   0.0000000), wk =   0.0092593
        k(   58) = (  -0.5000000  -0.0000000   0.1666667), wk =   0.0185185
        k(   59) = (  -0.5000000  -0.0000000   0.3333333), wk =   0.0185185
        k(   60) = (  -0.5000000  -0.0000000  -0.5000000), wk =   0.0092593
[...]
        k(   66) = (   0.3333333  -0.1666667  -0.3333333), wk =   0.0370370
        k(   67) = (   0.6666667  -0.3333333  -0.1666667), wk =   0.0370370
        k(   68) = (   0.6666667  -0.3333333  -0.3333333), wk =   0.0370370
        k(   69) = (   0.1666667   0.0000000  -0.1666667), wk =   0.0185185
        k(   70) = (   0.1666667   0.0000000  -0.3333333), wk =   0.0185185
        k(   71) = (   0.5000000  -0.1666667  -0.1666667), wk =   0.0370370
        k(   72) = (   0.5000000  -0.1666667  -0.3333333), wk =   0.0370370
        k(   73) = (  -0.8333333   0.5000000  -0.1666667), wk =   0.0185185
        k(   74) = (  -0.8333333   0.5000000  -0.3333333), wk =   0.0185185
        k(   75) = (  -0.5000000   0.3333333  -0.1666667), wk =   0.0370370
        k(   76) = (  -0.5000000   0.3333333  -0.3333333), wk =   0.0370370
        k(   77) = (   0.3333333   0.0000000  -0.1666667), wk =   0.0185185
        k(   78) = (   0.3333333   0.0000000  -0.3333333), wk =   0.0185185
        k(   79) = (  -0.6666667   0.5000000  -0.1666667), wk =   0.0185185
        k(   80) = (  -0.6666667   0.5000000  -0.3333333), wk =   0.0185185

     Check: negative core charge=   -0.000002

     Initial potential from superposition of free atoms

     starting charge      71.9851, renormalised to      72.0000
     Starting wfcs are   52 randomized atomic wfcs

     Self-consistent Calculation

     iteration #  1     ecut=    50.00 Ry     beta= 0.30
     Davidson diagonalization with overlap

     ethr =  1.00E-02,  avg # of iterations =  2.0

     total energy              =    -722.91065360 Ry
     estimated scf accuracy    <       1.35090979 Ry

[...]

     total energy              =    -723.19807208 Ry
     estimated scf accuracy    <       0.00000002 Ry

     iteration # 19     ecut=    50.00 Ry     beta= 0.30
     Davidson diagonalization with overlap

     ethr =  2.60E-11,  avg # of iterations =  2.1

     End of self-consistent calculation

          k = 0.0000 0.0000 0.0000 (  3481 PWs)   bands (ev):

   -10.0952  -9.3189  -9.2132  -8.9797   2.2249   2.2678   2.2903   2.5883
     2.5885   2.6632   2.7796   2.7798   2.9313   3.3638   3.4113   3.4843
     4.1719   4.1719   4.1803   4.3840   4.3905   4.3905   4.4622   4.5632
     4.7648   4.9011   4.9534   5.8116   6.5345   7.3798   7.9126   8.2089
     8.2092   8.6640   8.9736   8.9739

     occupation numbers
     1.0000   1.0000   1.0000   1.0000   1.0000   1.0000   1.0000   1.0000
     1.0000   1.0000   1.0000   1.0000   1.0000   1.0000   1.0000   1.0000
     1.0000   1.0000   1.0000   1.0000   1.0000   1.0000   1.0000   1.0000
     1.0000   1.0000   1.0000   1.0000   1.0000   1.0000   1.0000   1.0000
     1.0000   1.0000   1.0000   1.0000

[...]

          k =-0.5000-0.2887 0.0000 (  3474 PWs)   bands (ev):

[...]

          k = 0.3333 0.1925-0.3896 (  3479 PWs)   bands (ev):

[...]

          k =-0.6667 0.7698-0.3896 (  3456 PWs)   bands (ev):

    -9.1573  -9.1572  -9.0323  -9.0323   2.2290   2.2290   2.3167   2.3168
     2.9198   2.9198   3.0790   3.0790   3.3354   3.3354   3.3556   3.3556
     4.2108   4.2108   4.3375   4.3375   4.4867   4.4867   4.6315   4.6315
     4.9620   4.9620   5.3438   5.3438   6.2289   6.2289   6.6388   6.6388
     7.1385   7.1385   7.5178   7.5178

     occupation numbers
     1.0000   1.0000   1.0000   1.0000   1.0000   1.0000   1.0000   1.0000
     1.0000   1.0000   1.0000   1.0000   1.0000   1.0000   1.0000   1.0000
     1.0000   1.0000   1.0000   1.0000   1.0000   1.0000   1.0000   1.0000
     1.0000   1.0000   1.0000   1.0000   1.0000   1.0000   1.0000   1.0000
     1.0000   1.0000   1.0000   1.0000

     highest occupied level (ev):     8.9739

!    total energy              =    -723.19807207 Ry
     estimated scf accuracy    <          9.5E-09 Ry

     The total energy is the sum of the following terms:
     one-electron contribution =    -279.64767976 Ry
     hartree contribution      =     226.31274425 Ry
     xc contribution           =    -219.65700941 Ry
     ewald contribution        =    -450.20612715 Ry

     convergence has been achieved in  19 iterations

     Forces acting on atoms (cartesian axes, Ry/au):

     atom    1 type  1   force =     0.00000985    0.00000569    0.03075787
     atom    2 type  1   force =    -0.00000161   -0.00000093    0.03068683
     atom    3 type  2   force =    -0.00000251   -0.00000145   -0.03072216
     atom    4 type  2   force =     0.00000136    0.00000079   -0.03072069
     atom    5 type  1   force =     0.00000765    0.00000442    0.03075195
     atom    6 type  1   force =    -0.00001515   -0.00000874    0.03069162
     atom    7 type  2   force =    -0.00000296   -0.00000171   -0.03072380
     atom    8 type  2   force =     0.00000336    0.00000194   -0.03072161
     The non-local contrib.  to forces
     atom    1 type  1   force =    -0.00002601   -0.00001502    0.16815146
     atom    2 type  1   force =     0.00002921    0.00001686    0.16812327
     atom    3 type  2   force =    -0.00017295   -0.00009986    0.14094510
     atom    4 type  2   force =     0.00017198    0.00009929    0.14094492
     atom    5 type  1   force =    -0.00002810   -0.00001623    0.16815092
     atom    6 type  1   force =     0.00002489    0.00001437    0.16812543
     atom    7 type  2   force =    -0.00017390   -0.00010040    0.14094366
     atom    8 type  2   force =     0.00017591    0.00010156    0.14094438
     The ionic contribution  to forces
     atom    1 type  1   force =     0.00000000    0.00000001    1.37965180
     atom    2 type  1   force =     0.00000001    0.00000000    1.37965181
     atom    3 type  2   force =     0.00000000    0.00000001   -1.37965180
     atom    4 type  2   force =     0.00000001   -0.00000000   -1.37965181
     atom    5 type  1   force =    -0.00000000   -0.00000000    1.37965181
     atom    6 type  1   force =    -0.00000001   -0.00000001    1.37965181
     atom    7 type  2   force =    -0.00000000   -0.00000000   -1.37965181
     atom    8 type  2   force =    -0.00000001   -0.00000000   -1.37965181
     The local contribution  to forces
     atom    1 type  1   force =     0.00003924    0.00002265   -1.50376131
     atom    2 type  1   force =    -0.00005360   -0.00003104   -1.50364407
     atom    3 type  2   force =     0.00017002    0.00009816    1.20901740
     atom    4 type  2   force =    -0.00017204   -0.00009935    1.20900191
     atom    5 type  1   force =     0.00004465    0.00002578   -1.50375292
     atom    6 type  1   force =    -0.00003072   -0.00001774   -1.50365160
     atom    7 type  2   force =     0.00016932    0.00009776    1.20901509
     atom    8 type  2   force =    -0.00016765   -0.00009679    1.20900292
     The core correction contribution to forces
     atom    1 type  1   force =    -0.00000618   -0.00000357   -0.01336751
     atom    2 type  1   force =     0.00000669    0.00000379   -0.01337001
     atom    3 type  2   force =     0.00000199    0.00000114   -0.00103162
     atom    4 type  2   force =    -0.00000194   -0.00000112   -0.00103162
     atom    5 type  1   force =    -0.00000643   -0.00000366   -0.01336779
     atom    6 type  1   force =     0.00000593    0.00000343   -0.01336989
     atom    7 type  2   force =     0.00000195    0.00000113   -0.00103162
     atom    8 type  2   force =    -0.00000202   -0.00000116   -0.00103161
     The Hubbard contrib.    to forces
     atom    1 type  1   force =     0.00000000    0.00000000    0.00000000
     atom    2 type  1   force =     0.00000000    0.00000000    0.00000000
     atom    3 type  2   force =     0.00000000    0.00000000    0.00000000
     atom    4 type  2   force =     0.00000000    0.00000000    0.00000000
     atom    5 type  1   force =     0.00000000    0.00000000    0.00000000
     atom    6 type  1   force =     0.00000000    0.00000000    0.00000000
     atom    7 type  2   force =     0.00000000    0.00000000    0.00000000
     atom    8 type  2   force =     0.00000000    0.00000000    0.00000000
     The SCF correction term to forces
     atom    1 type  1   force =     0.00000291    0.00000168    0.00008219
     atom    2 type  1   force =     0.00001626    0.00000939   -0.00007538
     atom    3 type  2   force =    -0.00000146   -0.00000084   -0.00000246
     atom    4 type  2   force =     0.00000346    0.00000200    0.00001468
     atom    5 type  1   force =    -0.00000237   -0.00000137    0.00006871
     atom    6 type  1   force =    -0.00001513   -0.00000874   -0.00006535
     atom    7 type  2   force =    -0.00000022   -0.00000013   -0.00000034
     atom    8 type  2   force =    -0.00000276   -0.00000159    0.00001330

     Total force =     0.086895     Total SCF correction =     0.000150

     General routines

     Parallel routines

   This run was terminated on:  15:35:35  26Aug2025

   JOB DONE.