     Program PWSCF v.7.0 starts on 26Aug2025 at 16:53:43

     K-points division:     npool     =       4
     band groups division:  nbgrp     =       4

     Reading input from /home/jvc/QEspresso7.2/ZnO_database/scripts/cell211.in/ZnO-3.14-1.74-211.in
Warning: card &CELL ignored
Warning: card / ignored
Warning: card &FCP ignored
Warning: card / ignored
Warning: card &RISM ignored
Warning: card / ignored

     Current dimensions of program PWSCF are:
     Max number of different atomic species (ntypx) = 10
     Max number of k-points (npk) =  40000
     Max angular momentum in pseudopotentials (lmaxx) =  4
     file Zn.upf: wavefunction(s)  3D renormalized
     Found identity + ( -0.5000  0.0000  0.0000) symmetry
     This is a supercell, fractional translations are disabled
     Message from routine setup:
     using ibrav=0 with symmetry is DISCOURAGED, use correct ibrav instead

     Subspace diagonalization in iterative solution of the eigenvalue problem:
     a serial algorithm will be used

     Using Slab Decomposition

     bravais-lattice index     =            0
     lattice parameter (alat)  =      11.8634  a.u.
     unit-cell volume          =     630.2630 (a.u.)^3
     number of atoms/cell      =            8
     number of atomic types    =            2
     number of electrons       =        72.00
     number of Kohn-Sham states=           36
     kinetic-energy cutoff     =      50.0000  Ry
     charge density cutoff     =     400.0000  Ry
     scf convergence threshold =      1.0E-08
     mixing beta               =       0.3000
     number of iterations used =            8  plain     mixing
     Exchange-correlation= PBE
                           (   1   4   3   4   0   0   0)

     celldm(1)=  11.863400  celldm(2)=   0.000000  celldm(3)=   0.000000
     celldm(4)=   0.000000  celldm(5)=   0.000000  celldm(6)=   0.000000

     crystal axes: (cart. coord. in units of alat)
               a(1) = (   1.000000   0.000000   0.000000 )
               a(2) = (  -0.250000   0.433013   0.000000 )
               a(3) = (   0.000000   0.000000   0.871754 )

     reciprocal axes: (cart. coord. in units 2 pi/alat)
               b(1) = (  1.000000  0.577350 -0.000000 )
               b(2) = (  0.000000  2.309401  0.000000 )
               b(3) = (  0.000000 -0.000000  1.147113 )

     PseudoPot. # 1 for Zn read from file:
     /home/jvc/QEspresso7.2/ZnO_database/pseudos/Zn.upf
     MD5 check sum: 7f56cabf9682ed8c977c2f7d0c5985c5
     Pseudo is Ultrasoft + core correction, Zval = 12.0
     Generated using &quot;atomic&quot; code by A. Dal Corso  v.6.2.2
     Using radial grid of 1201 points,  6 beta functions with:
                l(1) =   0
                l(2) =   0
                l(3) =   1
                l(4) =   1
                l(5) =   2
                l(6) =   2
     Q(r) pseudized with 0 coefficients

     PseudoPot. # 2 for O  read from file:
     /home/jvc/QEspresso7.2/ZnO_database/pseudos/O.upf
     MD5 check sum: 91400c9766925bcf19f520983a725ff0
     Pseudo is Ultrasoft + core correction, Zval =  6.0
     Generated using &quot;atomic&quot; code by A. Dal Corso  v.6.3MaX
     Using radial grid of 1095 points,  4 beta functions with:
                l(1) =   0
                l(2) =   0
                l(3) =   1
                l(4) =   1
     Q(r) pseudized with 0 coefficients

     atomic species   valence    mass     pseudopotential
        Zn            12.00    65.38000     Zn( 1.00)
        O              6.00    15.99900     O ( 1.00)

      2 Sym. Ops. (no inversion) found

                                    s                        frac. trans.

      isym =  1     identity

 cryst.   s( 1) = (     1          0          0      )
                  (     0          1          0      )
                  (     0          0          1      )

 cart.    s( 1) = (  1.0000000  0.0000000  0.0000000 )
                  (  0.0000000  1.0000000  0.0000000 )
                  (  0.0000000  0.0000000  1.0000000 )

      isym =  2     inv. 180 deg rotation - cryst. axis [0,1,0]

 cryst.   s( 2) = (     1          2          0      )
                  (     0         -1          0      )
                  (     0          0          1      )

 cart.    s( 2) = (  0.5000000  0.8660254  0.0000000 )
                  (  0.8660254 -0.5000000  0.0000000 )
                  (  0.0000000  0.0000000  1.0000000 )

   Cartesian axes

     site n.     atom                  positions (alat units)
         1           Zn  tau(   1) = (   0.2500000   0.1443376   0.4364291  )
         2           Zn  tau(   2) = (  -0.0000000   0.2886751   0.0005523  )
         3           O   tau(   3) = (   0.2500000   0.1443376   0.7668610  )
         4           O   tau(   4) = (  -0.0000000   0.2886751   0.3309842  )
         5           Zn  tau(   5) = (   0.7500000   0.1443376   0.4364291  )
         6           Zn  tau(   6) = (   0.5000000   0.2886751   0.0005523  )
         7           O   tau(   7) = (   0.7500000   0.1443376   0.7668610  )
         8           O   tau(   8) = (   0.5000000   0.2886751   0.3309842  )

   Crystallographic axes

     site n.     atom                  positions (cryst. coord.)
         1           Zn  tau(   1) = (  0.3333333  0.3333333  0.5006336  )
         2           Zn  tau(   2) = (  0.1666667  0.6666667  0.0006336  )
         3           O   tau(   3) = (  0.3333333  0.3333333  0.8796764  )
         4           O   tau(   4) = (  0.1666667  0.6666667  0.3796764  )
         5           Zn  tau(   5) = (  0.8333333  0.3333333  0.5006336  )
         6           Zn  tau(   6) = (  0.6666667  0.6666667  0.0006336  )
         7           O   tau(   7) = (  0.8333333  0.3333333  0.8796764  )
         8           O   tau(   8) = (  0.6666667  0.6666667  0.3796764  )

     number of k points=    80
                       cart. coord. in units 2pi/alat
        k(    1) = (   0.0000000   0.0000000   0.0000000), wk =   0.0092593
        k(    2) = (   0.0000000   0.0000000   0.1911855), wk =   0.0185185
        k(    3) = (   0.0000000   0.0000000   0.3823711), wk =   0.0185185
        k(    4) = (   0.0000000   0.0000000  -0.5735566), wk =   0.0092593
        k(    5) = (   0.0000000   0.3849002   0.0000000), wk =   0.0370370
        k(    6) = (   0.0000000   0.3849002   0.1911855), wk =   0.0370370
        k(    7) = (   0.0000000   0.3849002   0.3823711), wk =   0.0370370
        k(    8) = (   0.0000000   0.3849002  -0.5735566), wk =   0.0370370
        k(    9) = (   0.0000000   0.7698004   0.0000000), wk =   0.0370370
        k(   10) = (   0.0000000   0.7698004   0.1911855), wk =   0.0370370
        k(   11) = (   0.0000000   0.7698004   0.3823711), wk =   0.0370370
        k(   12) = (   0.0000000   0.7698004  -0.5735566), wk =   0.0370370
        k(   13) = (   0.0000000  -1.1547005   0.0000000), wk =   0.0092593
        k(   14) = (   0.0000000  -1.1547005   0.1911855), wk =   0.0185185
        k(   15) = (   0.0000000  -1.1547005   0.3823711), wk =   0.0185185
        k(   16) = (   0.0000000  -1.1547005  -0.5735566), wk =   0.0092593
        k(   17) = (   0.1666667   0.0962250   0.0000000), wk =   0.0185185
        k(   18) = (   0.1666667   0.0962250   0.1911855), wk =   0.0185185
        k(   19) = (   0.1666667   0.0962250   0.3823711), wk =   0.0185185
        k(   20) = (   0.1666667   0.0962250  -0.5735566), wk =   0.0185185
        k(   21) = (   0.1666667   0.4811252   0.0000000), wk =   0.0370370
        k(   22) = (   0.1666667   0.4811252   0.1911855), wk =   0.0370370
        k(   23) = (   0.1666667   0.4811252   0.3823711), wk =   0.0370370
        k(   24) = (   0.1666667   0.4811252  -0.5735566), wk =   0.0370370
        k(   25) = (   0.1666667   0.8660254   0.0000000), wk =   0.0185185
        k(   26) = (   0.1666667   0.8660254   0.1911855), wk =   0.0370370
        k(   27) = (   0.1666667   0.8660254   0.3823711), wk =   0.0370370
        k(   28) = (   0.1666667   0.8660254  -0.5735566), wk =   0.0185185
        k(   29) = (   0.1666667  -1.0584755   0.0000000), wk =   0.0185185
        k(   30) = (   0.1666667  -1.0584755   0.1911855), wk =   0.0185185
        k(   31) = (   0.1666667  -1.0584755   0.3823711), wk =   0.0185185
        k(   32) = (   0.1666667  -1.0584755  -0.5735566), wk =   0.0185185
        k(   33) = (   0.1666667  -0.6735753   0.0000000), wk =   0.0370370
        k(   34) = (   0.1666667  -0.6735753   0.1911855), wk =   0.0370370
        k(   35) = (   0.1666667  -0.6735753   0.3823711), wk =   0.0370370
        k(   36) = (   0.1666667  -0.6735753  -0.5735566), wk =   0.0370370
        k(   37) = (   0.1666667  -0.2886751   0.0000000), wk =   0.0185185
        k(   38) = (   0.1666667  -0.2886751   0.1911855), wk =   0.0370370
        k(   39) = (   0.1666667  -0.2886751   0.3823711), wk =   0.0370370
        k(   40) = (   0.1666667  -0.2886751  -0.5735566), wk =   0.0185185
        k(   41) = (   0.3333333   0.1924501   0.0000000), wk =   0.0185185
        k(   42) = (   0.3333333   0.1924501   0.1911855), wk =   0.0185185
        k(   43) = (   0.3333333   0.1924501   0.3823711), wk =   0.0185185
        k(   44) = (   0.3333333   0.1924501  -0.5735566), wk =   0.0185185
        k(   45) = (   0.3333333   0.5773503   0.0000000), wk =   0.0185185
        k(   46) = (   0.3333333   0.5773503   0.1911855), wk =   0.0370370
        k(   47) = (   0.3333333   0.5773503   0.3823711), wk =   0.0370370
        k(   48) = (   0.3333333   0.5773503  -0.5735566), wk =   0.0185185
        k(   49) = (   0.3333333  -0.9622504   0.0000000), wk =   0.0185185
        k(   50) = (   0.3333333  -0.9622504   0.1911855), wk =   0.0185185
        k(   51) = (   0.3333333  -0.9622504   0.3823711), wk =   0.0185185
        k(   52) = (   0.3333333  -0.9622504  -0.5735566), wk =   0.0185185
        k(   53) = (   0.3333333  -0.5773503   0.0000000), wk =   0.0185185
        k(   54) = (   0.3333333  -0.5773503   0.1911855), wk =   0.0370370
        k(   55) = (   0.3333333  -0.5773503   0.3823711), wk =   0.0370370
        k(   56) = (   0.3333333  -0.5773503  -0.5735566), wk =   0.0185185
        k(   57) = (  -0.5000000  -0.2886751   0.0000000), wk =   0.0092593
        k(   58) = (  -0.5000000  -0.2886751   0.1911855), wk =   0.0185185
        k(   59) = (  -0.5000000  -0.2886751   0.3823711), wk =   0.0185185
        k(   60) = (  -0.5000000  -0.2886751  -0.5735566), wk =   0.0092593
[...]
        k(   66) = (   0.3333333  -0.1924501  -0.3823711), wk =   0.0370370
        k(   67) = (   0.6666667  -0.3849002  -0.1911855), wk =   0.0370370
        k(   68) = (   0.6666667  -0.3849002  -0.3823711), wk =   0.0370370
        k(   69) = (   0.1666667   0.0962250  -0.1911855), wk =   0.0185185
        k(   70) = (   0.1666667   0.0962250  -0.3823711), wk =   0.0185185
        k(   71) = (   0.5000000  -0.0962250  -0.1911855), wk =   0.0370370
        k(   72) = (   0.5000000  -0.0962250  -0.3823711), wk =   0.0370370
        k(   73) = (  -0.8333333   0.6735753  -0.1911855), wk =   0.0185185
        k(   74) = (  -0.8333333   0.6735753  -0.3823711), wk =   0.0185185
        k(   75) = (  -0.5000000   0.4811252  -0.1911855), wk =   0.0370370
        k(   76) = (  -0.5000000   0.4811252  -0.3823711), wk =   0.0370370
        k(   77) = (   0.3333333   0.1924501  -0.1911855), wk =   0.0185185
        k(   78) = (   0.3333333   0.1924501  -0.3823711), wk =   0.0185185
        k(   79) = (  -0.6666667   0.7698004  -0.1911855), wk =   0.0185185
        k(   80) = (  -0.6666667   0.7698004  -0.3823711), wk =   0.0185185

                       cryst. coord.
        k(    1) = (   0.0000000   0.0000000   0.0000000), wk =   0.0092593
        k(    2) = (   0.0000000   0.0000000   0.1666667), wk =   0.0185185
        k(    3) = (   0.0000000   0.0000000   0.3333333), wk =   0.0185185
        k(    4) = (   0.0000000   0.0000000  -0.5000000), wk =   0.0092593
        k(    5) = (   0.0000000   0.1666667   0.0000000), wk =   0.0370370
        k(    6) = (   0.0000000   0.1666667   0.1666667), wk =   0.0370370
        k(    7) = (   0.0000000   0.1666667   0.3333333), wk =   0.0370370
        k(    8) = (   0.0000000   0.1666667  -0.5000000), wk =   0.0370370
        k(    9) = (   0.0000000   0.3333333   0.0000000), wk =   0.0370370
        k(   10) = (   0.0000000   0.3333333   0.1666667), wk =   0.0370370
        k(   11) = (   0.0000000   0.3333333   0.3333333), wk =   0.0370370
        k(   12) = (   0.0000000   0.3333333  -0.5000000), wk =   0.0370370
        k(   13) = (   0.0000000  -0.5000000   0.0000000), wk =   0.0092593
        k(   14) = (   0.0000000  -0.5000000   0.1666667), wk =   0.0185185
        k(   15) = (   0.0000000  -0.5000000   0.3333333), wk =   0.0185185
        k(   16) = (   0.0000000  -0.5000000  -0.5000000), wk =   0.0092593
        k(   17) = (   0.1666667   0.0000000   0.0000000), wk =   0.0185185
        k(   18) = (   0.1666667   0.0000000   0.1666667), wk =   0.0185185
        k(   19) = (   0.1666667   0.0000000   0.3333333), wk =   0.0185185
        k(   20) = (   0.1666667   0.0000000  -0.5000000), wk =   0.0185185
        k(   21) = (   0.1666667   0.1666667   0.0000000), wk =   0.0370370
        k(   22) = (   0.1666667   0.1666667   0.1666667), wk =   0.0370370
        k(   23) = (   0.1666667   0.1666667   0.3333333), wk =   0.0370370
        k(   24) = (   0.1666667   0.1666667  -0.5000000), wk =   0.0370370
        k(   25) = (   0.1666667   0.3333333   0.0000000), wk =   0.0185185
        k(   26) = (   0.1666667   0.3333333   0.1666667), wk =   0.0370370
        k(   27) = (   0.1666667   0.3333333   0.3333333), wk =   0.0370370
        k(   28) = (   0.1666667   0.3333333  -0.5000000), wk =   0.0185185
        k(   29) = (   0.1666667  -0.5000000   0.0000000), wk =   0.0185185
        k(   30) = (   0.1666667  -0.5000000   0.1666667), wk =   0.0185185
        k(   31) = (   0.1666667  -0.5000000   0.3333333), wk =   0.0185185
        k(   32) = (   0.1666667  -0.5000000  -0.5000000), wk =   0.0185185
        k(   33) = (   0.1666667  -0.3333333   0.0000000), wk =   0.0370370
        k(   34) = (   0.1666667  -0.3333333   0.1666667), wk =   0.0370370
        k(   35) = (   0.1666667  -0.3333333   0.3333333), wk =   0.0370370
        k(   36) = (   0.1666667  -0.3333333  -0.5000000), wk =   0.0370370
        k(   37) = (   0.1666667  -0.1666667   0.0000000), wk =   0.0185185
        k(   38) = (   0.1666667  -0.1666667   0.1666667), wk =   0.0370370
        k(   39) = (   0.1666667  -0.1666667   0.3333333), wk =   0.0370370
        k(   40) = (   0.1666667  -0.1666667  -0.5000000), wk =   0.0185185
        k(   41) = (   0.3333333   0.0000000   0.0000000), wk =   0.0185185
        k(   42) = (   0.3333333   0.0000000   0.1666667), wk =   0.0185185
        k(   43) = (   0.3333333   0.0000000   0.3333333), wk =   0.0185185
        k(   44) = (   0.3333333   0.0000000  -0.5000000), wk =   0.0185185
        k(   45) = (   0.3333333   0.1666667   0.0000000), wk =   0.0185185
        k(   46) = (   0.3333333   0.1666667   0.1666667), wk =   0.0370370
        k(   47) = (   0.3333333   0.1666667   0.3333333), wk =   0.0370370
        k(   48) = (   0.3333333   0.1666667  -0.5000000), wk =   0.0185185
        k(   49) = (   0.3333333  -0.5000000   0.0000000), wk =   0.0185185
        k(   50) = (   0.3333333  -0.5000000   0.1666667), wk =   0.0185185
        k(   51) = (   0.3333333  -0.5000000   0.3333333), wk =   0.0185185
        k(   52) = (   0.3333333  -0.5000000  -0.5000000), wk =   0.0185185
        k(   53) = (   0.3333333  -0.3333333   0.0000000), wk =   0.0185185
        k(   54) = (   0.3333333  -0.3333333   0.1666667), wk =   0.0370370
        k(   55) = (   0.3333333  -0.3333333   0.3333333), wk =   0.0370370
        k(   56) = (   0.3333333  -0.3333333  -0.5000000), wk =   0.0185185
        k(   57) = (  -0.5000000   0.0000000   0.0000000), wk =   0.0092593
        k(   58) = (  -0.5000000   0.0000000   0.1666667), wk =   0.0185185
        k(   59) = (  -0.5000000   0.0000000   0.3333333), wk =   0.0185185
        k(   60) = (  -0.5000000   0.0000000  -0.5000000), wk =   0.0092593
[...]
        k(   66) = (   0.3333333  -0.1666667  -0.3333333), wk =   0.0370370
        k(   67) = (   0.6666667  -0.3333333  -0.1666667), wk =   0.0370370
        k(   68) = (   0.6666667  -0.3333333  -0.3333333), wk =   0.0370370
        k(   69) = (   0.1666667   0.0000000  -0.1666667), wk =   0.0185185
        k(   70) = (   0.1666667   0.0000000  -0.3333333), wk =   0.0185185
        k(   71) = (   0.5000000  -0.1666667  -0.1666667), wk =   0.0370370
        k(   72) = (   0.5000000  -0.1666667  -0.3333333), wk =   0.0370370
        k(   73) = (  -0.8333333   0.5000000  -0.1666667), wk =   0.0185185
        k(   74) = (  -0.8333333   0.5000000  -0.3333333), wk =   0.0185185
        k(   75) = (  -0.5000000   0.3333333  -0.1666667), wk =   0.0370370
        k(   76) = (  -0.5000000   0.3333333  -0.3333333), wk =   0.0370370
        k(   77) = (   0.3333333   0.0000000  -0.1666667), wk =   0.0185185
        k(   78) = (   0.3333333   0.0000000  -0.3333333), wk =   0.0185185
        k(   79) = (  -0.6666667   0.5000000  -0.1666667), wk =   0.0185185
        k(   80) = (  -0.6666667   0.5000000  -0.3333333), wk =   0.0185185

     Check: negative core charge=   -0.000002

     Initial potential from superposition of free atoms

     starting charge      71.9851, renormalised to      72.0000
     Starting wfcs are   52 randomized atomic wfcs

     Self-consistent Calculation

     iteration #  1     ecut=    50.00 Ry     beta= 0.30
     Davidson diagonalization with overlap

     ethr =  1.00E-02,  avg # of iterations =  2.0

     total energy              =    -722.93784312 Ry
     estimated scf accuracy    <       1.37407630 Ry

[...]

     total energy              =    -723.24485759 Ry
     estimated scf accuracy    <       0.00000025 Ry

     iteration # 34     ecut=    50.00 Ry     beta= 0.30
     Davidson diagonalization with overlap

     ethr =  3.02E-11,  avg # of iterations =  8.8

     End of self-consistent calculation

          k = 0.0000 0.0000 0.0000 (  3801 PWs)   bands (ev):

   -10.7055 -10.0815  -9.9472  -9.7603   1.4592   1.5605   1.5981   1.7154
     1.7156   1.7897   1.8736   1.8738   2.0276   2.4625   2.4860   2.5451
     3.0416   3.0417   3.0594   3.2080   3.2080   3.2193   3.2751   3.3663
     3.5736   3.7077   3.8395   4.7498   5.5325   6.1875   6.6923   7.0254
     7.0258   7.3305   7.6610   7.6615

     occupation numbers
     1.0000   1.0000   1.0000   1.0000   1.0000   1.0000   1.0000   1.0000
     1.0000   1.0000   1.0000   1.0000   1.0000   1.0000   1.0000   1.0000
     1.0000   1.0000   1.0000   1.0000   1.0000   1.0000   1.0000   1.0000
     1.0000   1.0000   1.0000   1.0000   1.0000   1.0000   1.0000   1.0000
     1.0000   1.0000   1.0000   1.0000

[...]

          k =-0.5000-0.2887 0.0000 (  3780 PWs)   bands (ev):

[...]

          k = 0.3333 0.1925-0.3824 (  3757 PWs)   bands (ev):

[...]

          k =-0.6667 0.7698-0.3824 (  3760 PWs)   bands (ev):

    -9.9033  -9.9033  -9.8035  -9.8035   1.4979   1.4979   1.5875   1.5875
     2.0459   2.0459   2.2158   2.2158   2.3853   2.3853   2.4148   2.4148
     3.0737   3.0737   3.1774   3.1774   3.3045   3.3045   3.4255   3.4255
     3.8224   3.8224   4.1580   4.1580   5.1639   5.1639   5.5213   5.5213
     5.9712   5.9712   6.3131   6.3131

     occupation numbers
     1.0000   1.0000   1.0000   1.0000   1.0000   1.0000   1.0000   1.0000
     1.0000   1.0000   1.0000   1.0000   1.0000   1.0000   1.0000   1.0000
     1.0000   1.0000   1.0000   1.0000   1.0000   1.0000   1.0000   1.0000
     1.0000   1.0000   1.0000   1.0000   1.0000   1.0000   1.0000   1.0000
     1.0000   1.0000   1.0000   1.0000

     highest occupied level (ev):     7.6615

!    total energy              =    -723.24485764 Ry
     estimated scf accuracy    <          6.5E-10 Ry

     The total energy is the sum of the following terms:
     one-electron contribution =    -299.31244871 Ry
     hartree contribution      =     233.21099347 Ry
     xc contribution           =    -219.29169042 Ry
     ewald contribution        =    -437.85171198 Ry

     convergence has been achieved in  34 iterations

     Forces acting on atoms (cartesian axes, Ry/au):

     atom    1 type  1   force =    -0.00000016   -0.00000009    0.02413747
     atom    2 type  1   force =    -0.00000649   -0.00000375    0.02413815
     atom    3 type  2   force =    -0.00000296   -0.00000171   -0.02413814
     atom    4 type  2   force =     0.00000395    0.00000228   -0.02413921
     atom    5 type  1   force =     0.00000776    0.00000448    0.02413779
     atom    6 type  1   force =    -0.00000288   -0.00000166    0.02413979
     atom    7 type  2   force =    -0.00000241   -0.00000139   -0.02413785
     atom    8 type  2   force =     0.00000318    0.00000184   -0.02413799
     The non-local contrib.  to forces
     atom    1 type  1   force =    -0.00002431   -0.00001404    0.21311678
     atom    2 type  1   force =     0.00002111    0.00001219    0.21311754
     atom    3 type  2   force =    -0.00018214   -0.00010516    0.19320119
     atom    4 type  2   force =     0.00018427    0.00010639    0.19320071
     atom    5 type  1   force =    -0.00001913   -0.00001105    0.21311654
     atom    6 type  1   force =     0.00002143    0.00001237    0.21311715
     atom    7 type  2   force =    -0.00018306   -0.00010569    0.19320116
     atom    8 type  2   force =     0.00018202    0.00010509    0.19320316
     The ionic contribution  to forces
     atom    1 type  1   force =     0.00000001    0.00000001    1.70690923
     atom    2 type  1   force =     0.00000002    0.00000001    1.70690924
     atom    3 type  2   force =     0.00000001    0.00000001   -1.70690923
     atom    4 type  2   force =     0.00000001    0.00000000   -1.70690924
     atom    5 type  1   force =    -0.00000002   -0.00000001    1.70690924
     atom    6 type  1   force =    -0.00000001   -0.00000001    1.70690923
     atom    7 type  2   force =    -0.00000001   -0.00000000   -1.70690924
     atom    8 type  2   force =    -0.00000001   -0.00000001   -1.70690923
     The local contribution  to forces
     atom    1 type  1   force =     0.00004215    0.00002434   -1.88007001
     atom    2 type  1   force =    -0.00003411   -0.00001979   -1.88007121
     atom    3 type  2   force =     0.00017759    0.00010253    1.49108957
     atom    4 type  2   force =    -0.00017538   -0.00010128    1.49109471
     atom    5 type  1   force =     0.00002984    0.00001732   -1.88006886
     atom    6 type  1   force =    -0.00003609   -0.00002084   -1.88007035
     atom    7 type  2   force =     0.00017988    0.00010388    1.49109086
     atom    8 type  2   force =    -0.00018248   -0.00010536    1.49109178
     The core correction contribution to forces
     atom    1 type  1   force =    -0.00000746   -0.00000432   -0.01581550
     atom    2 type  1   force =     0.00000739    0.00000421   -0.01581545
     atom    3 type  2   force =     0.00000207    0.00000121   -0.00151908
     atom    4 type  2   force =    -0.00000207   -0.00000120   -0.00151907
     atom    5 type  1   force =    -0.00000728   -0.00000414   -0.01581548
     atom    6 type  1   force =     0.00000742    0.00000430   -0.01581563
     atom    7 type  2   force =     0.00000207    0.00000120   -0.00151907
     atom    8 type  2   force =    -0.00000208   -0.00000121   -0.00151910
     The Hubbard contrib.    to forces
     atom    1 type  1   force =     0.00000000    0.00000000    0.00000000
     atom    2 type  1   force =     0.00000000    0.00000000    0.00000000
     atom    3 type  2   force =     0.00000000    0.00000000    0.00000000
     atom    4 type  2   force =     0.00000000    0.00000000    0.00000000
     atom    5 type  1   force =     0.00000000    0.00000000    0.00000000
     atom    6 type  1   force =     0.00000000    0.00000000    0.00000000
     atom    7 type  2   force =     0.00000000    0.00000000    0.00000000
     atom    8 type  2   force =     0.00000000    0.00000000    0.00000000
     The SCF correction term to forces
     atom    1 type  1   force =    -0.00001079   -0.00000623   -0.00000201
     atom    2 type  1   force =    -0.00000108   -0.00000062   -0.00000095
     atom    3 type  2   force =    -0.00000074   -0.00000043    0.00000044
     atom    4 type  2   force =    -0.00000312   -0.00000180   -0.00000530
     atom    5 type  1   force =     0.00000404    0.00000233   -0.00000263
     atom    6 type  1   force =     0.00000413    0.00000238    0.00000041
     atom    7 type  2   force =    -0.00000154   -0.00000089   -0.00000053
     atom    8 type  2   force =     0.00000550    0.00000317   -0.00000358

     Total force =     0.068273     Total SCF correction =     0.000018

     General routines

     Parallel routines

   This run was terminated on:  17: 1:48  26Aug2025

   JOB DONE.