     Program PWSCF v.7.0 starts on 27Aug2025 at  2: 1: 8

     K-points division:     npool     =       4
     band groups division:  nbgrp     =       4

     Reading input from /home/jvc/QEspresso7.2/ZnO_database/scripts/cell211.in/ZnO-3.60-1.61-211.in
Warning: card &CELL ignored
Warning: card / ignored
Warning: card &FCP ignored
Warning: card / ignored
Warning: card &RISM ignored
Warning: card / ignored

     Current dimensions of program PWSCF are:
     Max number of different atomic species (ntypx) = 10
     Max number of k-points (npk) =  40000
     Max angular momentum in pseudopotentials (lmaxx) =  4
     file Zn.upf: wavefunction(s)  3D renormalized
     Found identity + ( -0.5000  0.0000  0.0000) symmetry
     This is a supercell, fractional translations are disabled
     Message from routine setup:
     using ibrav=0 with symmetry is DISCOURAGED, use correct ibrav instead

     Subspace diagonalization in iterative solution of the eigenvalue problem:
     a serial algorithm will be used

     Using Slab Decomposition

     bravais-lattice index     =            0
     lattice parameter (alat)  =      13.5935  a.u.
     unit-cell volume          =     877.9351 (a.u.)^3
     number of atoms/cell      =            8
     number of atomic types    =            2
     number of electrons       =        72.00
     number of Kohn-Sham states=           36
     kinetic-energy cutoff     =      50.0000  Ry
     charge density cutoff     =     400.0000  Ry
     scf convergence threshold =      1.0E-08
     mixing beta               =       0.3000
     number of iterations used =            8  plain     mixing
     Exchange-correlation= PBE
                           (   1   4   3   4   0   0   0)

     celldm(1)=  13.593479  celldm(2)=   0.000000  celldm(3)=   0.000000
     celldm(4)=   0.000000  celldm(5)=   0.000000  celldm(6)=   0.000000

     crystal axes: (cart. coord. in units of alat)
               a(1) = (   1.000000   0.000000   0.000000 )
               a(2) = (  -0.250000   0.433013   0.000000 )
               a(3) = (   0.000000   0.000000   0.807179 )

     reciprocal axes: (cart. coord. in units 2 pi/alat)
               b(1) = (  1.000000  0.577350 -0.000000 )
               b(2) = (  0.000000  2.309401  0.000000 )
               b(3) = (  0.000000 -0.000000  1.238882 )

     PseudoPot. # 1 for Zn read from file:
     /home/jvc/QEspresso7.2/ZnO_database/pseudos/Zn.upf
     MD5 check sum: 7f56cabf9682ed8c977c2f7d0c5985c5
     Pseudo is Ultrasoft + core correction, Zval = 12.0
     Generated using &quot;atomic&quot; code by A. Dal Corso  v.6.2.2
     Using radial grid of 1201 points,  6 beta functions with:
                l(1) =   0
                l(2) =   0
                l(3) =   1
                l(4) =   1
                l(5) =   2
                l(6) =   2
     Q(r) pseudized with 0 coefficients

     PseudoPot. # 2 for O  read from file:
     /home/jvc/QEspresso7.2/ZnO_database/pseudos/O.upf
     MD5 check sum: 91400c9766925bcf19f520983a725ff0
     Pseudo is Ultrasoft + core correction, Zval =  6.0
     Generated using &quot;atomic&quot; code by A. Dal Corso  v.6.3MaX
     Using radial grid of 1095 points,  4 beta functions with:
                l(1) =   0
                l(2) =   0
                l(3) =   1
                l(4) =   1
     Q(r) pseudized with 0 coefficients

     atomic species   valence    mass     pseudopotential
        Zn            12.00    65.38000     Zn( 1.00)
        O              6.00    15.99900     O ( 1.00)

      2 Sym. Ops. (no inversion) found

                                    s                        frac. trans.

      isym =  1     identity

 cryst.   s( 1) = (     1          0          0      )
                  (     0          1          0      )
                  (     0          0          1      )

 cart.    s( 1) = (  1.0000000  0.0000000  0.0000000 )
                  (  0.0000000  1.0000000  0.0000000 )
                  (  0.0000000  0.0000000  1.0000000 )

      isym =  2     inv. 180 deg rotation - cryst. axis [0,1,0]

 cryst.   s( 2) = (     1          2          0      )
                  (     0         -1          0      )
                  (     0          0          1      )

 cart.    s( 2) = (  0.5000000  0.8660254  0.0000000 )
                  (  0.8660254 -0.5000000  0.0000000 )
                  (  0.0000000  0.0000000  1.0000000 )

   Cartesian axes

     site n.     atom                  positions (alat units)
         1           Zn  tau(   1) = (   0.2500000   0.1443376   0.4041010  )
         2           Zn  tau(   2) = (  -0.0000000   0.2886751   0.0005114  )
         3           O   tau(   3) = (   0.2500000   0.1443376   0.7100565  )
         4           O   tau(   4) = (  -0.0000000   0.2886751   0.3064669  )
         5           Zn  tau(   5) = (   0.7500000   0.1443376   0.4041010  )
         6           Zn  tau(   6) = (   0.5000000   0.2886751   0.0005114  )
         7           O   tau(   7) = (   0.7500000   0.1443376   0.7100565  )
         8           O   tau(   8) = (   0.5000000   0.2886751   0.3064669  )

   Crystallographic axes

     site n.     atom                  positions (cryst. coord.)
         1           Zn  tau(   1) = (  0.3333333  0.3333333  0.5006336  )
         2           Zn  tau(   2) = (  0.1666667  0.6666667  0.0006336  )
         3           O   tau(   3) = (  0.3333333  0.3333333  0.8796764  )
         4           O   tau(   4) = (  0.1666667  0.6666667  0.3796764  )
         5           Zn  tau(   5) = (  0.8333333  0.3333333  0.5006336  )
         6           Zn  tau(   6) = (  0.6666667  0.6666667  0.0006336  )
         7           O   tau(   7) = (  0.8333333  0.3333333  0.8796764  )
         8           O   tau(   8) = (  0.6666667  0.6666667  0.3796764  )

     number of k points=    80
                       cart. coord. in units 2pi/alat
        k(    1) = (   0.0000000   0.0000000   0.0000000), wk =   0.0092593
        k(    2) = (   0.0000000   0.0000000   0.2064804), wk =   0.0185185
        k(    3) = (   0.0000000   0.0000000   0.4129608), wk =   0.0185185
        k(    4) = (   0.0000000   0.0000000  -0.6194412), wk =   0.0092593
        k(    5) = (   0.0000000   0.3849002   0.0000000), wk =   0.0370370
        k(    6) = (   0.0000000   0.3849002   0.2064804), wk =   0.0370370
        k(    7) = (   0.0000000   0.3849002   0.4129608), wk =   0.0370370
        k(    8) = (   0.0000000   0.3849002  -0.6194412), wk =   0.0370370
        k(    9) = (   0.0000000   0.7698004   0.0000000), wk =   0.0370370
        k(   10) = (   0.0000000   0.7698004   0.2064804), wk =   0.0370370
        k(   11) = (   0.0000000   0.7698004   0.4129608), wk =   0.0370370
        k(   12) = (   0.0000000   0.7698004  -0.6194412), wk =   0.0370370
        k(   13) = (   0.0000000  -1.1547005   0.0000000), wk =   0.0092593
        k(   14) = (   0.0000000  -1.1547005   0.2064804), wk =   0.0185185
        k(   15) = (   0.0000000  -1.1547005   0.4129608), wk =   0.0185185
        k(   16) = (   0.0000000  -1.1547005  -0.6194412), wk =   0.0092593
        k(   17) = (   0.1666667   0.0962250   0.0000000), wk =   0.0185185
        k(   18) = (   0.1666667   0.0962250   0.2064804), wk =   0.0185185
        k(   19) = (   0.1666667   0.0962250   0.4129608), wk =   0.0185185
        k(   20) = (   0.1666667   0.0962250  -0.6194412), wk =   0.0185185
        k(   21) = (   0.1666667   0.4811252   0.0000000), wk =   0.0370370
        k(   22) = (   0.1666667   0.4811252   0.2064804), wk =   0.0370370
        k(   23) = (   0.1666667   0.4811252   0.4129608), wk =   0.0370370
        k(   24) = (   0.1666667   0.4811252  -0.6194412), wk =   0.0370370
        k(   25) = (   0.1666667   0.8660254   0.0000000), wk =   0.0185185
        k(   26) = (   0.1666667   0.8660254   0.2064804), wk =   0.0370370
        k(   27) = (   0.1666667   0.8660254   0.4129608), wk =   0.0370370
        k(   28) = (   0.1666667   0.8660254  -0.6194412), wk =   0.0185185
        k(   29) = (   0.1666667  -1.0584755   0.0000000), wk =   0.0185185
        k(   30) = (   0.1666667  -1.0584755   0.2064804), wk =   0.0185185
        k(   31) = (   0.1666667  -1.0584755   0.4129608), wk =   0.0185185
        k(   32) = (   0.1666667  -1.0584755  -0.6194412), wk =   0.0185185
        k(   33) = (   0.1666667  -0.6735753   0.0000000), wk =   0.0370370
        k(   34) = (   0.1666667  -0.6735753   0.2064804), wk =   0.0370370
        k(   35) = (   0.1666667  -0.6735753   0.4129608), wk =   0.0370370
        k(   36) = (   0.1666667  -0.6735753  -0.6194412), wk =   0.0370370
        k(   37) = (   0.1666667  -0.2886751   0.0000000), wk =   0.0185185
        k(   38) = (   0.1666667  -0.2886751   0.2064804), wk =   0.0370370
        k(   39) = (   0.1666667  -0.2886751   0.4129608), wk =   0.0370370
        k(   40) = (   0.1666667  -0.2886751  -0.6194412), wk =   0.0185185
        k(   41) = (   0.3333333   0.1924501   0.0000000), wk =   0.0185185
        k(   42) = (   0.3333333   0.1924501   0.2064804), wk =   0.0185185
        k(   43) = (   0.3333333   0.1924501   0.4129608), wk =   0.0185185
        k(   44) = (   0.3333333   0.1924501  -0.6194412), wk =   0.0185185
        k(   45) = (   0.3333333   0.5773503   0.0000000), wk =   0.0185185
        k(   46) = (   0.3333333   0.5773503   0.2064804), wk =   0.0370370
        k(   47) = (   0.3333333   0.5773503   0.4129608), wk =   0.0370370
        k(   48) = (   0.3333333   0.5773503  -0.6194412), wk =   0.0185185
        k(   49) = (   0.3333333  -0.9622504   0.0000000), wk =   0.0185185
        k(   50) = (   0.3333333  -0.9622504   0.2064804), wk =   0.0185185
        k(   51) = (   0.3333333  -0.9622504   0.4129608), wk =   0.0185185
        k(   52) = (   0.3333333  -0.9622504  -0.6194412), wk =   0.0185185
        k(   53) = (   0.3333333  -0.5773503   0.0000000), wk =   0.0185185
        k(   54) = (   0.3333333  -0.5773503   0.2064804), wk =   0.0370370
        k(   55) = (   0.3333333  -0.5773503   0.4129608), wk =   0.0370370
        k(   56) = (   0.3333333  -0.5773503  -0.6194412), wk =   0.0185185
        k(   57) = (  -0.5000000  -0.2886751   0.0000000), wk =   0.0092593
        k(   58) = (  -0.5000000  -0.2886751   0.2064804), wk =   0.0185185
        k(   59) = (  -0.5000000  -0.2886751   0.4129608), wk =   0.0185185
        k(   60) = (  -0.5000000  -0.2886751  -0.6194412), wk =   0.0092593
[...]
        k(   66) = (   0.3333333  -0.1924501  -0.4129608), wk =   0.0370370
        k(   67) = (   0.6666667  -0.3849002  -0.2064804), wk =   0.0370370
        k(   68) = (   0.6666667  -0.3849002  -0.4129608), wk =   0.0370370
        k(   69) = (   0.1666667   0.0962250  -0.2064804), wk =   0.0185185
        k(   70) = (   0.1666667   0.0962250  -0.4129608), wk =   0.0185185
        k(   71) = (   0.5000000  -0.0962250  -0.2064804), wk =   0.0370370
        k(   72) = (   0.5000000  -0.0962250  -0.4129608), wk =   0.0370370
        k(   73) = (  -0.8333333   0.6735753  -0.2064804), wk =   0.0185185
        k(   74) = (  -0.8333333   0.6735753  -0.4129608), wk =   0.0185185
        k(   75) = (  -0.5000000   0.4811252  -0.2064804), wk =   0.0370370
        k(   76) = (  -0.5000000   0.4811252  -0.4129608), wk =   0.0370370
        k(   77) = (   0.3333333   0.1924501  -0.2064804), wk =   0.0185185
        k(   78) = (   0.3333333   0.1924501  -0.4129608), wk =   0.0185185
        k(   79) = (  -0.6666667   0.7698004  -0.2064804), wk =   0.0185185
        k(   80) = (  -0.6666667   0.7698004  -0.4129608), wk =   0.0185185

                       cryst. coord.
        k(    1) = (   0.0000000   0.0000000   0.0000000), wk =   0.0092593
        k(    2) = (   0.0000000   0.0000000   0.1666667), wk =   0.0185185
        k(    3) = (   0.0000000   0.0000000   0.3333333), wk =   0.0185185
        k(    4) = (   0.0000000   0.0000000  -0.5000000), wk =   0.0092593
        k(    5) = (   0.0000000   0.1666667   0.0000000), wk =   0.0370370
        k(    6) = (   0.0000000   0.1666667   0.1666667), wk =   0.0370370
        k(    7) = (   0.0000000   0.1666667   0.3333333), wk =   0.0370370
        k(    8) = (   0.0000000   0.1666667  -0.5000000), wk =   0.0370370
        k(    9) = (   0.0000000   0.3333333   0.0000000), wk =   0.0370370
        k(   10) = (   0.0000000   0.3333333   0.1666667), wk =   0.0370370
        k(   11) = (   0.0000000   0.3333333   0.3333333), wk =   0.0370370
        k(   12) = (   0.0000000   0.3333333  -0.5000000), wk =   0.0370370
        k(   13) = (   0.0000000  -0.5000000   0.0000000), wk =   0.0092593
        k(   14) = (   0.0000000  -0.5000000   0.1666667), wk =   0.0185185
        k(   15) = (   0.0000000  -0.5000000   0.3333333), wk =   0.0185185
        k(   16) = (   0.0000000  -0.5000000  -0.5000000), wk =   0.0092593
        k(   17) = (   0.1666667  -0.0000000   0.0000000), wk =   0.0185185
        k(   18) = (   0.1666667  -0.0000000   0.1666667), wk =   0.0185185
        k(   19) = (   0.1666667  -0.0000000   0.3333333), wk =   0.0185185
        k(   20) = (   0.1666667  -0.0000000  -0.5000000), wk =   0.0185185
        k(   21) = (   0.1666667   0.1666667   0.0000000), wk =   0.0370370
        k(   22) = (   0.1666667   0.1666667   0.1666667), wk =   0.0370370
        k(   23) = (   0.1666667   0.1666667   0.3333333), wk =   0.0370370
        k(   24) = (   0.1666667   0.1666667  -0.5000000), wk =   0.0370370
        k(   25) = (   0.1666667   0.3333333   0.0000000), wk =   0.0185185
        k(   26) = (   0.1666667   0.3333333   0.1666667), wk =   0.0370370
        k(   27) = (   0.1666667   0.3333333   0.3333333), wk =   0.0370370
        k(   28) = (   0.1666667   0.3333333  -0.5000000), wk =   0.0185185
        k(   29) = (   0.1666667  -0.5000000   0.0000000), wk =   0.0185185
        k(   30) = (   0.1666667  -0.5000000   0.1666667), wk =   0.0185185
        k(   31) = (   0.1666667  -0.5000000   0.3333333), wk =   0.0185185
        k(   32) = (   0.1666667  -0.5000000  -0.5000000), wk =   0.0185185
        k(   33) = (   0.1666667  -0.3333333   0.0000000), wk =   0.0370370
        k(   34) = (   0.1666667  -0.3333333   0.1666667), wk =   0.0370370
        k(   35) = (   0.1666667  -0.3333333   0.3333333), wk =   0.0370370
        k(   36) = (   0.1666667  -0.3333333  -0.5000000), wk =   0.0370370
        k(   37) = (   0.1666667  -0.1666667   0.0000000), wk =   0.0185185
        k(   38) = (   0.1666667  -0.1666667   0.1666667), wk =   0.0370370
        k(   39) = (   0.1666667  -0.1666667   0.3333333), wk =   0.0370370
        k(   40) = (   0.1666667  -0.1666667  -0.5000000), wk =   0.0185185
        k(   41) = (   0.3333333  -0.0000000   0.0000000), wk =   0.0185185
        k(   42) = (   0.3333333  -0.0000000   0.1666667), wk =   0.0185185
        k(   43) = (   0.3333333  -0.0000000   0.3333333), wk =   0.0185185
        k(   44) = (   0.3333333  -0.0000000  -0.5000000), wk =   0.0185185
        k(   45) = (   0.3333333   0.1666667   0.0000000), wk =   0.0185185
        k(   46) = (   0.3333333   0.1666667   0.1666667), wk =   0.0370370
        k(   47) = (   0.3333333   0.1666667   0.3333333), wk =   0.0370370
        k(   48) = (   0.3333333   0.1666667  -0.5000000), wk =   0.0185185
        k(   49) = (   0.3333333  -0.5000000   0.0000000), wk =   0.0185185
        k(   50) = (   0.3333333  -0.5000000   0.1666667), wk =   0.0185185
        k(   51) = (   0.3333333  -0.5000000   0.3333333), wk =   0.0185185
        k(   52) = (   0.3333333  -0.5000000  -0.5000000), wk =   0.0185185
        k(   53) = (   0.3333333  -0.3333333   0.0000000), wk =   0.0185185
        k(   54) = (   0.3333333  -0.3333333   0.1666667), wk =   0.0370370
        k(   55) = (   0.3333333  -0.3333333   0.3333333), wk =   0.0370370
        k(   56) = (   0.3333333  -0.3333333  -0.5000000), wk =   0.0185185
        k(   57) = (  -0.5000000   0.0000000   0.0000000), wk =   0.0092593
        k(   58) = (  -0.5000000   0.0000000   0.1666667), wk =   0.0185185
        k(   59) = (  -0.5000000   0.0000000   0.3333333), wk =   0.0185185
        k(   60) = (  -0.5000000   0.0000000  -0.5000000), wk =   0.0092593
[...]
        k(   66) = (   0.3333333  -0.1666667  -0.3333333), wk =   0.0370370
        k(   67) = (   0.6666667  -0.3333333  -0.1666667), wk =   0.0370370
        k(   68) = (   0.6666667  -0.3333333  -0.3333333), wk =   0.0370370
        k(   69) = (   0.1666667   0.0000000  -0.1666667), wk =   0.0185185
        k(   70) = (   0.1666667   0.0000000  -0.3333333), wk =   0.0185185
        k(   71) = (   0.5000000  -0.1666667  -0.1666667), wk =   0.0370370
        k(   72) = (   0.5000000  -0.1666667  -0.3333333), wk =   0.0370370
        k(   73) = (  -0.8333333   0.5000000  -0.1666667), wk =   0.0185185
        k(   74) = (  -0.8333333   0.5000000  -0.3333333), wk =   0.0185185
        k(   75) = (  -0.5000000   0.3333333  -0.1666667), wk =   0.0370370
        k(   76) = (  -0.5000000   0.3333333  -0.3333333), wk =   0.0370370
        k(   77) = (   0.3333333   0.0000000  -0.1666667), wk =   0.0185185
        k(   78) = (   0.3333333   0.0000000  -0.3333333), wk =   0.0185185
        k(   79) = (  -0.6666667   0.5000000  -0.1666667), wk =   0.0185185
        k(   80) = (  -0.6666667   0.5000000  -0.3333333), wk =   0.0185185

     Check: negative core charge=   -0.000002

     Initial potential from superposition of free atoms

     starting charge      71.9851, renormalised to      72.0000
     Starting wfcs are   52 randomized atomic wfcs

     Self-consistent Calculation

     iteration #  1     ecut=    50.00 Ry     beta= 0.30
     Davidson diagonalization with overlap

     ethr =  1.00E-02,  avg # of iterations =  1.2

     total energy              =    -722.68474753 Ry
     estimated scf accuracy    <       1.69661344 Ry

[...]

     c_bands:  1 eigenvalues not converged
     ethr =  1.13E-06,  avg # of iterations = 11.0

[...]

     ethr =  1.45E-11,  avg # of iterations = 14.8

     total energy              =    -723.09547146 Ry
     estimated scf accuracy    <       0.00000085 Ry

     iteration # 37     ecut=    50.00 Ry     beta= 0.30
     Davidson diagonalization with overlap

     c_bands:  1 eigenvalues not converged
     ethr =  1.45E-11,  avg # of iterations = 14.9

     End of self-consistent calculation

          k = 0.0000 0.0000 0.0000 (  5253 PWs)   bands (ev):

   -12.7775 -12.4458 -12.4303 -12.3383  -1.4484  -1.4482  -1.4387  -1.4360
    -1.3496  -1.3494  -1.3227  -1.2069  -1.1332  -1.0649  -1.0080  -0.9824
    -0.9824  -0.8993  -0.8856  -0.8840  -0.8839  -0.8761  -0.8628  -0.8241
    -0.1114   0.2101   0.7213   1.4691   2.0204   2.5509   2.8715   2.8804
     2.8811   3.3468   3.3641   3.3648

     occupation numbers
     1.0000   1.0000   1.0000   1.0000   1.0000   1.0000   1.0000   1.0000
     1.0000   1.0000   1.0000   1.0000   1.0000   1.0000   1.0000   1.0000
     1.0000   1.0000   1.0000   1.0000   1.0000   1.0000   1.0000   1.0000
     1.0000   1.0000   1.0000   1.0000   1.0000   1.0000   1.0000   1.0000
     1.0000   1.0000   1.0000   1.0000

[...]

          k =-0.5000-0.2887 0.0000 (  5238 PWs)   bands (ev):

[...]

          k = 0.3333 0.1925-0.4130 (  5236 PWs)   bands (ev):

[...]

          k =-0.6667 0.7698-0.4130 (  5234 PWs)   bands (ev):

   -12.4187 -12.4187 -12.3627 -12.3627  -1.4041  -1.4041  -1.3328  -1.3328
    -1.2653  -1.2653  -1.1503  -1.1503  -1.1187  -1.1187  -1.1024  -1.1024
    -0.9334  -0.9334  -0.9081  -0.9081  -0.8373  -0.8373  -0.7815  -0.7815
     0.3721   0.3721   0.5819   0.5819   1.7934   1.7934   2.2222   2.2222
     2.3537   2.3537   2.7271   2.7271

     occupation numbers
     1.0000   1.0000   1.0000   1.0000   1.0000   1.0000   1.0000   1.0000
     1.0000   1.0000   1.0000   1.0000   1.0000   1.0000   1.0000   1.0000
     1.0000   1.0000   1.0000   1.0000   1.0000   1.0000   1.0000   1.0000
     1.0000   1.0000   1.0000   1.0000   1.0000   1.0000   1.0000   1.0000
     1.0000   1.0000   1.0000   1.0000

     highest occupied level (ev):     3.3648

!    total energy              =    -723.09547160 Ry
     estimated scf accuracy    <          3.8E-10 Ry

     The total energy is the sum of the following terms:
     one-electron contribution =    -372.22034775 Ry
     hartree contribution      =     259.67802304 Ry
     xc contribution           =    -218.09203805 Ry
     ewald contribution        =    -392.46110884 Ry

     convergence has been achieved in  37 iterations

     Forces acting on atoms (cartesian axes, Ry/au):

     atom    1 type  1   force =    -0.00000777   -0.00000449   -0.00009180
     atom    2 type  1   force =     0.00001060    0.00000612   -0.00008702
     atom    3 type  2   force =    -0.00000688   -0.00000397    0.00009071
     atom    4 type  2   force =     0.00000624    0.00000360    0.00009045
     atom    5 type  1   force =    -0.00000643   -0.00000371   -0.00009349
     atom    6 type  1   force =     0.00000488    0.00000282   -0.00009041
     atom    7 type  2   force =    -0.00000714   -0.00000412    0.00009089
     atom    8 type  2   force =     0.00000651    0.00000376    0.00009068
     The non-local contrib.  to forces
     atom    1 type  1   force =     0.00001892    0.00001093   -0.00459326
     atom    2 type  1   force =    -0.00001802   -0.00001040   -0.00459204
     atom    3 type  2   force =    -0.00020112   -0.00011612    0.00656762
     atom    4 type  2   force =     0.00020148    0.00011633    0.00656923
     atom    5 type  1   force =     0.00001961    0.00001132   -0.00459299
     atom    6 type  1   force =    -0.00002051   -0.00001184   -0.00459184
     atom    7 type  2   force =    -0.00020302   -0.00011721    0.00656840
     atom    8 type  2   force =     0.00020254    0.00011693    0.00656803
     The ionic contribution  to forces
     atom    1 type  1   force =     0.00000000    0.00000001    0.05183208
     atom    2 type  1   force =     0.00000001    0.00000000    0.05183209
     atom    3 type  2   force =     0.00000000    0.00000000   -0.05183208
     atom    4 type  2   force =     0.00000001    0.00000000   -0.05183209
     atom    5 type  1   force =    -0.00000002   -0.00000000    0.05183208
     atom    6 type  1   force =     0.00000000   -0.00000001    0.05183208
     atom    7 type  2   force =    -0.00000001    0.00000000   -0.05183208
     atom    8 type  2   force =     0.00000000   -0.00000000   -0.05183208
     The local contribution  to forces
     atom    1 type  1   force =    -0.00001768   -0.00001020   -0.04758091
     atom    2 type  1   force =     0.00001483    0.00000845   -0.04758470
     atom    3 type  2   force =     0.00019268    0.00011124    0.04542455
     atom    4 type  2   force =    -0.00019146   -0.00011057    0.04542521
     atom    5 type  1   force =    -0.00002088   -0.00001194   -0.04757943
     atom    6 type  1   force =     0.00002307    0.00001321   -0.04758304
     atom    7 type  2   force =     0.00019499    0.00011261    0.04542490
     atom    8 type  2   force =    -0.00019418   -0.00011214    0.04542632
     The core correction contribution to forces
     atom    1 type  1   force =    -0.00000619   -0.00000357    0.00025385
     atom    2 type  1   force =     0.00000622    0.00000357    0.00025377
     atom    3 type  2   force =     0.00000227    0.00000131   -0.00007355
     atom    4 type  2   force =    -0.00000227   -0.00000131   -0.00007357
     atom    5 type  1   force =    -0.00000608   -0.00000350    0.00025375
     atom    6 type  1   force =     0.00000606    0.00000348    0.00025377
     atom    7 type  2   force =     0.00000230    0.00000133   -0.00007356
     atom    8 type  2   force =    -0.00000229   -0.00000132   -0.00007355
     The Hubbard contrib.    to forces
     atom    1 type  1   force =     0.00000000    0.00000000    0.00000000
     atom    2 type  1   force =     0.00000000    0.00000000    0.00000000
     atom    3 type  2   force =     0.00000000    0.00000000    0.00000000
     atom    4 type  2   force =     0.00000000    0.00000000    0.00000000
     atom    5 type  1   force =     0.00000000    0.00000000    0.00000000
     atom    6 type  1   force =     0.00000000    0.00000000    0.00000000
     atom    7 type  2   force =     0.00000000    0.00000000    0.00000000
     atom    8 type  2   force =     0.00000000    0.00000000    0.00000000
     The SCF correction term to forces
     atom    1 type  1   force =    -0.00000253   -0.00000146   -0.00000535
     atom    2 type  1   force =     0.00000793    0.00000458    0.00000208
     atom    3 type  2   force =    -0.00000040   -0.00000023    0.00000239
     atom    4 type  2   force =    -0.00000120   -0.00000069   -0.00000011
     atom    5 type  1   force =     0.00000118    0.00000068   -0.00000869
     atom    6 type  1   force =    -0.00000338   -0.00000195   -0.00000315
     atom    7 type  2   force =    -0.00000111   -0.00000064    0.00000145
     atom    8 type  2   force =     0.00000076    0.00000044    0.00000018

     Total force =     0.000258     Total SCF correction =     0.000015

     General routines

     Parallel routines

   This run was terminated on:   2:10:22  27Aug2025

   JOB DONE.