     Program PWSCF v.7.0 starts on 26Aug2025 at 14:55:17

     K-points division:     npool     =       4
     band groups division:  nbgrp     =       4

     Reading input from /home/jvc/QEspresso7.2/ZnO_database/scripts/cell211.in/ZnO-3.07-1.49-211.in
Warning: card &CELL ignored
Warning: card / ignored
Warning: card &FCP ignored
Warning: card / ignored
Warning: card &RISM ignored
Warning: card / ignored

     Current dimensions of program PWSCF are:
     Max number of different atomic species (ntypx) = 10
     Max number of k-points (npk) =  40000
     Max angular momentum in pseudopotentials (lmaxx) =  4
     file Zn.upf: wavefunction(s)  3D renormalized
     Found identity + ( -0.5000  0.0000  0.0000) symmetry
     This is a supercell, fractional translations are disabled
     Message from routine setup:
     using ibrav=0 with symmetry is DISCOURAGED, use correct ibrav instead

     Subspace diagonalization in iterative solution of the eigenvalue problem:
     a serial algorithm will be used

     Using Slab Decomposition

     bravais-lattice index     =            0
     lattice parameter (alat)  =      11.6162  a.u.
     unit-cell volume          =     504.0293 (a.u.)^3
     number of atoms/cell      =            8
     number of atomic types    =            2
     number of electrons       =        72.00
     number of Kohn-Sham states=           36
     kinetic-energy cutoff     =      50.0000  Ry
     charge density cutoff     =     400.0000  Ry
     scf convergence threshold =      1.0E-08
     mixing beta               =       0.3000
     number of iterations used =            8  plain     mixing
     Exchange-correlation= PBE
                           (   1   4   3   4   0   0   0)

     celldm(1)=  11.616245  celldm(2)=   0.000000  celldm(3)=   0.000000
     celldm(4)=   0.000000  celldm(5)=   0.000000  celldm(6)=   0.000000

     crystal axes: (cart. coord. in units of alat)
               a(1) = (   1.000000   0.000000   0.000000 )
               a(2) = (  -0.250000   0.433013   0.000000 )
               a(3) = (   0.000000   0.000000   0.742605 )

     reciprocal axes: (cart. coord. in units 2 pi/alat)
               b(1) = (  1.000000  0.577350 -0.000000 )
               b(2) = (  0.000000  2.309401  0.000000 )
               b(3) = (  0.000000 -0.000000  1.346611 )

     PseudoPot. # 1 for Zn read from file:
     /home/jvc/QEspresso7.2/ZnO_database/pseudos/Zn.upf
     MD5 check sum: 7f56cabf9682ed8c977c2f7d0c5985c5
     Pseudo is Ultrasoft + core correction, Zval = 12.0
     Generated using &quot;atomic&quot; code by A. Dal Corso  v.6.2.2
     Using radial grid of 1201 points,  6 beta functions with:
                l(1) =   0
                l(2) =   0
                l(3) =   1
                l(4) =   1
                l(5) =   2
                l(6) =   2
     Q(r) pseudized with 0 coefficients

     PseudoPot. # 2 for O  read from file:
     /home/jvc/QEspresso7.2/ZnO_database/pseudos/O.upf
     MD5 check sum: 91400c9766925bcf19f520983a725ff0
     Pseudo is Ultrasoft + core correction, Zval =  6.0
     Generated using &quot;atomic&quot; code by A. Dal Corso  v.6.3MaX
     Using radial grid of 1095 points,  4 beta functions with:
                l(1) =   0
                l(2) =   0
                l(3) =   1
                l(4) =   1
     Q(r) pseudized with 0 coefficients

     atomic species   valence    mass     pseudopotential
        Zn            12.00    65.38000     Zn( 1.00)
        O              6.00    15.99900     O ( 1.00)

      2 Sym. Ops. (no inversion) found

                                    s                        frac. trans.

      isym =  1     identity

 cryst.   s( 1) = (     1          0          0      )
                  (     0          1          0      )
                  (     0          0          1      )

 cart.    s( 1) = (  1.0000000  0.0000000  0.0000000 )
                  (  0.0000000  1.0000000  0.0000000 )
                  (  0.0000000  0.0000000  1.0000000 )

      isym =  2     inv. 180 deg rotation - cryst. axis [0,1,0]

 cryst.   s( 2) = (     1          2          0      )
                  (     0         -1          0      )
                  (     0          0          1      )

 cart.    s( 2) = (  0.5000000  0.8660254  0.0000000 )
                  (  0.8660254 -0.5000000  0.0000000 )
                  (  0.0000000  0.0000000  1.0000000 )

   Cartesian axes

     site n.     atom                  positions (alat units)
         1           Zn  tau(   1) = (   0.2500000   0.1443376   0.3717729  )
         2           Zn  tau(   2) = (  -0.0000000   0.2886751   0.0004705  )
         3           O   tau(   3) = (   0.2500000   0.1443376   0.6532520  )
         4           O   tau(   4) = (  -0.0000000   0.2886751   0.2819495  )
         5           Zn  tau(   5) = (   0.7500000   0.1443376   0.3717729  )
         6           Zn  tau(   6) = (   0.5000000   0.2886751   0.0004705  )
         7           O   tau(   7) = (   0.7500000   0.1443376   0.6532520  )
         8           O   tau(   8) = (   0.5000000   0.2886751   0.2819495  )

   Crystallographic axes

     site n.     atom                  positions (cryst. coord.)
         1           Zn  tau(   1) = (  0.3333333  0.3333333  0.5006336  )
         2           Zn  tau(   2) = (  0.1666667  0.6666667  0.0006336  )
         3           O   tau(   3) = (  0.3333333  0.3333333  0.8796764  )
         4           O   tau(   4) = (  0.1666667  0.6666667  0.3796764  )
         5           Zn  tau(   5) = (  0.8333333  0.3333333  0.5006336  )
         6           Zn  tau(   6) = (  0.6666667  0.6666667  0.0006336  )
         7           O   tau(   7) = (  0.8333333  0.3333333  0.8796764  )
         8           O   tau(   8) = (  0.6666667  0.6666667  0.3796764  )

     number of k points=    80
                       cart. coord. in units 2pi/alat
        k(    1) = (   0.0000000   0.0000000   0.0000000), wk =   0.0092593
        k(    2) = (   0.0000000   0.0000000   0.2244352), wk =   0.0185185
        k(    3) = (   0.0000000   0.0000000   0.4488704), wk =   0.0185185
        k(    4) = (   0.0000000   0.0000000  -0.6733056), wk =   0.0092593
        k(    5) = (   0.0000000   0.3849002   0.0000000), wk =   0.0370370
        k(    6) = (   0.0000000   0.3849002   0.2244352), wk =   0.0370370
        k(    7) = (   0.0000000   0.3849002   0.4488704), wk =   0.0370370
        k(    8) = (   0.0000000   0.3849002  -0.6733056), wk =   0.0370370
        k(    9) = (   0.0000000   0.7698004   0.0000000), wk =   0.0370370
        k(   10) = (   0.0000000   0.7698004   0.2244352), wk =   0.0370370
        k(   11) = (   0.0000000   0.7698004   0.4488704), wk =   0.0370370
        k(   12) = (   0.0000000   0.7698004  -0.6733056), wk =   0.0370370
        k(   13) = (   0.0000000  -1.1547005   0.0000000), wk =   0.0092593
        k(   14) = (   0.0000000  -1.1547005   0.2244352), wk =   0.0185185
        k(   15) = (   0.0000000  -1.1547005   0.4488704), wk =   0.0185185
        k(   16) = (   0.0000000  -1.1547005  -0.6733056), wk =   0.0092593
        k(   17) = (   0.1666667   0.0962250   0.0000000), wk =   0.0185185
        k(   18) = (   0.1666667   0.0962250   0.2244352), wk =   0.0185185
        k(   19) = (   0.1666667   0.0962250   0.4488704), wk =   0.0185185
        k(   20) = (   0.1666667   0.0962250  -0.6733056), wk =   0.0185185
        k(   21) = (   0.1666667   0.4811252   0.0000000), wk =   0.0370370
        k(   22) = (   0.1666667   0.4811252   0.2244352), wk =   0.0370370
        k(   23) = (   0.1666667   0.4811252   0.4488704), wk =   0.0370370
        k(   24) = (   0.1666667   0.4811252  -0.6733056), wk =   0.0370370
        k(   25) = (   0.1666667   0.8660254   0.0000000), wk =   0.0185185
        k(   26) = (   0.1666667   0.8660254   0.2244352), wk =   0.0370370
        k(   27) = (   0.1666667   0.8660254   0.4488704), wk =   0.0370370
        k(   28) = (   0.1666667   0.8660254  -0.6733056), wk =   0.0185185
        k(   29) = (   0.1666667  -1.0584755   0.0000000), wk =   0.0185185
        k(   30) = (   0.1666667  -1.0584755   0.2244352), wk =   0.0185185
        k(   31) = (   0.1666667  -1.0584755   0.4488704), wk =   0.0185185
        k(   32) = (   0.1666667  -1.0584755  -0.6733056), wk =   0.0185185
        k(   33) = (   0.1666667  -0.6735753   0.0000000), wk =   0.0370370
        k(   34) = (   0.1666667  -0.6735753   0.2244352), wk =   0.0370370
        k(   35) = (   0.1666667  -0.6735753   0.4488704), wk =   0.0370370
        k(   36) = (   0.1666667  -0.6735753  -0.6733056), wk =   0.0370370
        k(   37) = (   0.1666667  -0.2886751   0.0000000), wk =   0.0185185
        k(   38) = (   0.1666667  -0.2886751   0.2244352), wk =   0.0370370
        k(   39) = (   0.1666667  -0.2886751   0.4488704), wk =   0.0370370
        k(   40) = (   0.1666667  -0.2886751  -0.6733056), wk =   0.0185185
        k(   41) = (   0.3333333   0.1924501   0.0000000), wk =   0.0185185
        k(   42) = (   0.3333333   0.1924501   0.2244352), wk =   0.0185185
        k(   43) = (   0.3333333   0.1924501   0.4488704), wk =   0.0185185
        k(   44) = (   0.3333333   0.1924501  -0.6733056), wk =   0.0185185
        k(   45) = (   0.3333333   0.5773503   0.0000000), wk =   0.0185185
        k(   46) = (   0.3333333   0.5773503   0.2244352), wk =   0.0370370
        k(   47) = (   0.3333333   0.5773503   0.4488704), wk =   0.0370370
        k(   48) = (   0.3333333   0.5773503  -0.6733056), wk =   0.0185185
        k(   49) = (   0.3333333  -0.9622504   0.0000000), wk =   0.0185185
        k(   50) = (   0.3333333  -0.9622504   0.2244352), wk =   0.0185185
        k(   51) = (   0.3333333  -0.9622504   0.4488704), wk =   0.0185185
        k(   52) = (   0.3333333  -0.9622504  -0.6733056), wk =   0.0185185
        k(   53) = (   0.3333333  -0.5773503   0.0000000), wk =   0.0185185
        k(   54) = (   0.3333333  -0.5773503   0.2244352), wk =   0.0370370
        k(   55) = (   0.3333333  -0.5773503   0.4488704), wk =   0.0370370
        k(   56) = (   0.3333333  -0.5773503  -0.6733056), wk =   0.0185185
        k(   57) = (  -0.5000000  -0.2886751   0.0000000), wk =   0.0092593
        k(   58) = (  -0.5000000  -0.2886751   0.2244352), wk =   0.0185185
        k(   59) = (  -0.5000000  -0.2886751   0.4488704), wk =   0.0185185
        k(   60) = (  -0.5000000  -0.2886751  -0.6733056), wk =   0.0092593
[...]
        k(   66) = (   0.3333333  -0.1924501  -0.4488704), wk =   0.0370370
        k(   67) = (   0.6666667  -0.3849002  -0.2244352), wk =   0.0370370
        k(   68) = (   0.6666667  -0.3849002  -0.4488704), wk =   0.0370370
        k(   69) = (   0.1666667   0.0962250  -0.2244352), wk =   0.0185185
        k(   70) = (   0.1666667   0.0962250  -0.4488704), wk =   0.0185185
        k(   71) = (   0.5000000  -0.0962250  -0.2244352), wk =   0.0370370
        k(   72) = (   0.5000000  -0.0962250  -0.4488704), wk =   0.0370370
        k(   73) = (  -0.8333333   0.6735753  -0.2244352), wk =   0.0185185
        k(   74) = (  -0.8333333   0.6735753  -0.4488704), wk =   0.0185185
        k(   75) = (  -0.5000000   0.4811252  -0.2244352), wk =   0.0370370
        k(   76) = (  -0.5000000   0.4811252  -0.4488704), wk =   0.0370370
        k(   77) = (   0.3333333   0.1924501  -0.2244352), wk =   0.0185185
        k(   78) = (   0.3333333   0.1924501  -0.4488704), wk =   0.0185185
        k(   79) = (  -0.6666667   0.7698004  -0.2244352), wk =   0.0185185
        k(   80) = (  -0.6666667   0.7698004  -0.4488704), wk =   0.0185185

                       cryst. coord.
        k(    1) = (   0.0000000   0.0000000   0.0000000), wk =   0.0092593
        k(    2) = (   0.0000000   0.0000000   0.1666667), wk =   0.0185185
        k(    3) = (   0.0000000   0.0000000   0.3333333), wk =   0.0185185
        k(    4) = (   0.0000000   0.0000000  -0.5000000), wk =   0.0092593
        k(    5) = (   0.0000000   0.1666667   0.0000000), wk =   0.0370370
        k(    6) = (   0.0000000   0.1666667   0.1666667), wk =   0.0370370
        k(    7) = (   0.0000000   0.1666667   0.3333333), wk =   0.0370370
        k(    8) = (   0.0000000   0.1666667  -0.5000000), wk =   0.0370370
        k(    9) = (   0.0000000   0.3333333   0.0000000), wk =   0.0370370
        k(   10) = (   0.0000000   0.3333333   0.1666667), wk =   0.0370370
        k(   11) = (   0.0000000   0.3333333   0.3333333), wk =   0.0370370
        k(   12) = (   0.0000000   0.3333333  -0.5000000), wk =   0.0370370
        k(   13) = (   0.0000000  -0.5000000   0.0000000), wk =   0.0092593
        k(   14) = (   0.0000000  -0.5000000   0.1666667), wk =   0.0185185
        k(   15) = (   0.0000000  -0.5000000   0.3333333), wk =   0.0185185
        k(   16) = (   0.0000000  -0.5000000  -0.5000000), wk =   0.0092593
        k(   17) = (   0.1666667   0.0000000   0.0000000), wk =   0.0185185
        k(   18) = (   0.1666667   0.0000000   0.1666667), wk =   0.0185185
        k(   19) = (   0.1666667   0.0000000   0.3333333), wk =   0.0185185
        k(   20) = (   0.1666667   0.0000000  -0.5000000), wk =   0.0185185
        k(   21) = (   0.1666667   0.1666667   0.0000000), wk =   0.0370370
        k(   22) = (   0.1666667   0.1666667   0.1666667), wk =   0.0370370
        k(   23) = (   0.1666667   0.1666667   0.3333333), wk =   0.0370370
        k(   24) = (   0.1666667   0.1666667  -0.5000000), wk =   0.0370370
        k(   25) = (   0.1666667   0.3333333   0.0000000), wk =   0.0185185
        k(   26) = (   0.1666667   0.3333333   0.1666667), wk =   0.0370370
        k(   27) = (   0.1666667   0.3333333   0.3333333), wk =   0.0370370
        k(   28) = (   0.1666667   0.3333333  -0.5000000), wk =   0.0185185
        k(   29) = (   0.1666667  -0.5000000   0.0000000), wk =   0.0185185
        k(   30) = (   0.1666667  -0.5000000   0.1666667), wk =   0.0185185
        k(   31) = (   0.1666667  -0.5000000   0.3333333), wk =   0.0185185
        k(   32) = (   0.1666667  -0.5000000  -0.5000000), wk =   0.0185185
        k(   33) = (   0.1666667  -0.3333333   0.0000000), wk =   0.0370370
        k(   34) = (   0.1666667  -0.3333333   0.1666667), wk =   0.0370370
        k(   35) = (   0.1666667  -0.3333333   0.3333333), wk =   0.0370370
        k(   36) = (   0.1666667  -0.3333333  -0.5000000), wk =   0.0370370
        k(   37) = (   0.1666667  -0.1666667   0.0000000), wk =   0.0185185
        k(   38) = (   0.1666667  -0.1666667   0.1666667), wk =   0.0370370
        k(   39) = (   0.1666667  -0.1666667   0.3333333), wk =   0.0370370
        k(   40) = (   0.1666667  -0.1666667  -0.5000000), wk =   0.0185185
        k(   41) = (   0.3333333   0.0000000   0.0000000), wk =   0.0185185
        k(   42) = (   0.3333333   0.0000000   0.1666667), wk =   0.0185185
        k(   43) = (   0.3333333   0.0000000   0.3333333), wk =   0.0185185
        k(   44) = (   0.3333333   0.0000000  -0.5000000), wk =   0.0185185
        k(   45) = (   0.3333333   0.1666667   0.0000000), wk =   0.0185185
        k(   46) = (   0.3333333   0.1666667   0.1666667), wk =   0.0370370
        k(   47) = (   0.3333333   0.1666667   0.3333333), wk =   0.0370370
        k(   48) = (   0.3333333   0.1666667  -0.5000000), wk =   0.0185185
        k(   49) = (   0.3333333  -0.5000000   0.0000000), wk =   0.0185185
        k(   50) = (   0.3333333  -0.5000000   0.1666667), wk =   0.0185185
        k(   51) = (   0.3333333  -0.5000000   0.3333333), wk =   0.0185185
        k(   52) = (   0.3333333  -0.5000000  -0.5000000), wk =   0.0185185
        k(   53) = (   0.3333333  -0.3333333   0.0000000), wk =   0.0185185
        k(   54) = (   0.3333333  -0.3333333   0.1666667), wk =   0.0370370
        k(   55) = (   0.3333333  -0.3333333   0.3333333), wk =   0.0370370
        k(   56) = (   0.3333333  -0.3333333  -0.5000000), wk =   0.0185185
        k(   57) = (  -0.5000000  -0.0000000   0.0000000), wk =   0.0092593
        k(   58) = (  -0.5000000  -0.0000000   0.1666667), wk =   0.0185185
        k(   59) = (  -0.5000000  -0.0000000   0.3333333), wk =   0.0185185
        k(   60) = (  -0.5000000  -0.0000000  -0.5000000), wk =   0.0092593
[...]
        k(   66) = (   0.3333333  -0.1666667  -0.3333333), wk =   0.0370370
        k(   67) = (   0.6666667  -0.3333333  -0.1666667), wk =   0.0370370
        k(   68) = (   0.6666667  -0.3333333  -0.3333333), wk =   0.0370370
        k(   69) = (   0.1666667   0.0000000  -0.1666667), wk =   0.0185185
        k(   70) = (   0.1666667   0.0000000  -0.3333333), wk =   0.0185185
        k(   71) = (   0.5000000  -0.1666667  -0.1666667), wk =   0.0370370
        k(   72) = (   0.5000000  -0.1666667  -0.3333333), wk =   0.0370370
        k(   73) = (  -0.8333333   0.5000000  -0.1666667), wk =   0.0185185
        k(   74) = (  -0.8333333   0.5000000  -0.3333333), wk =   0.0185185
        k(   75) = (  -0.5000000   0.3333333  -0.1666667), wk =   0.0370370
        k(   76) = (  -0.5000000   0.3333333  -0.3333333), wk =   0.0370370
        k(   77) = (   0.3333333   0.0000000  -0.1666667), wk =   0.0185185
        k(   78) = (   0.3333333   0.0000000  -0.3333333), wk =   0.0185185
        k(   79) = (  -0.6666667   0.5000000  -0.1666667), wk =   0.0185185
        k(   80) = (  -0.6666667   0.5000000  -0.3333333), wk =   0.0185185

     Check: negative core charge=   -0.000001

     Initial potential from superposition of free atoms

     starting charge      71.9851, renormalised to      72.0000
     Starting wfcs are   52 randomized atomic wfcs

     Self-consistent Calculation

     iteration #  1     ecut=    50.00 Ry     beta= 0.30
     Davidson diagonalization with overlap

     ethr =  1.00E-02,  avg # of iterations =  2.1

     total energy              =    -722.67360232 Ry
     estimated scf accuracy    <       1.38064882 Ry

[...]

     total energy              =    -722.94271307 Ry
     estimated scf accuracy    <       0.00000096 Ry

     iteration # 17     ecut=    50.00 Ry     beta= 0.30
     Davidson diagonalization with overlap

     ethr =  1.33E-09,  avg # of iterations =  4.7

     End of self-consistent calculation

          k = 0.0000 0.0000 0.0000 (  3013 PWs)   bands (ev):

    -8.9645  -7.9212  -7.6162  -7.5031   3.6860   3.7748   3.8593   4.2492
     4.2494   4.2969   4.5455   4.5885   4.5886   4.7019   5.1527   5.4320
     6.1787   6.1787   6.2546   6.5087   6.6243   6.6243   6.7233   6.7862
     6.9842   7.1543   7.4167   7.9774   8.0016   9.9182  10.0283  10.0285
    10.3555  11.3985  11.3987  11.4273

     occupation numbers
     1.0000   1.0000   1.0000   1.0000   1.0000   1.0000   1.0000   1.0000
     1.0000   1.0000   1.0000   1.0000   1.0000   1.0000   1.0000   1.0000
     1.0000   1.0000   1.0000   1.0000   1.0000   1.0000   1.0000   1.0000
     1.0000   1.0000   1.0000   1.0000   1.0000   1.0000   1.0000   1.0000
     1.0000   1.0000   1.0000   1.0000

[...]

          k =-0.5000-0.2887 0.0000 (  3030 PWs)   bands (ev):

[...]

          k = 0.3333 0.1925-0.4489 (  3009 PWs)   bands (ev):

[...]

          k =-0.6667 0.7698-0.4489 (  2998 PWs)   bands (ev):

    -7.7985  -7.7984  -7.5741  -7.5740   3.4695   3.4695   3.5331   3.5331
     4.4574   4.4575   4.5571   4.5572   4.9699   4.9699   5.0819   5.0820
     6.3240   6.3240   6.4755   6.4755   6.7106   6.7107   6.8820   6.8820
     7.2405   7.2405   7.6979   7.6979   8.2353   8.2354   9.2211   9.2212
     9.5104   9.5105  10.2784  10.2785

     occupation numbers
     1.0000   1.0000   1.0000   1.0000   1.0000   1.0000   1.0000   1.0000
     1.0000   1.0000   1.0000   1.0000   1.0000   1.0000   1.0000   1.0000
     1.0000   1.0000   1.0000   1.0000   1.0000   1.0000   1.0000   1.0000
     1.0000   1.0000   1.0000   1.0000   1.0000   1.0000   1.0000   1.0000
     1.0000   1.0000   1.0000   1.0000

     highest occupied level (ev):    11.4273

!    total energy              =    -722.94271338 Ry
     estimated scf accuracy    <          9.9E-09 Ry

     The total energy is the sum of the following terms:
     one-electron contribution =    -247.11206953 Ry
     hartree contribution      =     215.66556103 Ry
     xc contribution           =    -220.41901208 Ry
     ewald contribution        =    -471.07719281 Ry

     convergence has been achieved in  17 iterations

     Forces acting on atoms (cartesian axes, Ry/au):

     atom    1 type  1   force =    -0.00001079   -0.00000623   -0.10320210
     atom    2 type  1   force =    -0.00003846   -0.00002220   -0.10321689
     atom    3 type  2   force =    -0.00000273   -0.00000158    0.10320552
     atom    4 type  2   force =    -0.00000202   -0.00000116    0.10321078
     atom    5 type  1   force =     0.00003816    0.00002203   -0.10318632
     atom    6 type  1   force =     0.00001393    0.00000804   -0.10322932
     atom    7 type  2   force =     0.00000035    0.00000020    0.10320951
     atom    8 type  2   force =     0.00000157    0.00000091    0.10320882
     The non-local contrib.  to forces
     atom    1 type  1   force =    -0.00003323   -0.00001918   -0.28280752
     atom    2 type  1   force =     0.00001534    0.00000886   -0.28281190
     atom    3 type  2   force =    -0.00013643   -0.00007877   -0.16335336
     atom    4 type  2   force =     0.00014895    0.00008600   -0.16335305
     atom    5 type  1   force =    -0.00001346   -0.00000777   -0.28280430
     atom    6 type  1   force =     0.00003321    0.00001917   -0.28281220
     atom    7 type  2   force =    -0.00015297   -0.00008832   -0.16335451
     atom    8 type  2   force =     0.00013670    0.00007892   -0.16335826
     The ionic contribution  to forces
     atom    1 type  1   force =     0.00000000    0.00000001   -1.97868560
     atom    2 type  1   force =     0.00000001    0.00000000   -1.97868559
     atom    3 type  2   force =     0.00000000    0.00000001    1.97868560
     atom    4 type  2   force =     0.00000001   -0.00000000    1.97868559
     atom    5 type  1   force =    -0.00000000   -0.00000000   -1.97868559
     atom    6 type  1   force =    -0.00000001   -0.00000001   -1.97868559
     atom    7 type  2   force =    -0.00000000   -0.00000000    1.97868559
     atom    8 type  2   force =    -0.00000001   -0.00000000    1.97868559
     The local contribution  to forces
     atom    1 type  1   force =     0.00007676    0.00004432    2.13069479
     atom    2 type  1   force =     0.00000094    0.00000045    2.13071759
     atom    3 type  2   force =     0.00015143    0.00008743   -1.71297216
     atom    4 type  2   force =    -0.00013514   -0.00007805   -1.71298442
     atom    5 type  1   force =    -0.00000035   -0.00000020    2.13066033
     atom    6 type  1   force =    -0.00008141   -0.00004700    2.13074501
     atom    7 type  2   force =     0.00013236    0.00007642   -1.71296666
     atom    8 type  2   force =    -0.00014964   -0.00008639   -1.71296944
     The core correction contribution to forces
     atom    1 type  1   force =    -0.00000252   -0.00000153    0.02757562
     atom    2 type  1   force =     0.00000109    0.00000056    0.02757520
     atom    3 type  2   force =     0.00000154    0.00000090    0.00083680
     atom    4 type  2   force =    -0.00000172   -0.00000099    0.00083677
     atom    5 type  1   force =    -0.00000138   -0.00000073    0.02757707
     atom    6 type  1   force =     0.00000270    0.00000163    0.02757399
     atom    7 type  2   force =     0.00000175    0.00000101    0.00083684
     atom    8 type  2   force =    -0.00000154   -0.00000090    0.00083688
     The Hubbard contrib.    to forces
     atom    1 type  1   force =     0.00000000    0.00000000    0.00000000
     atom    2 type  1   force =     0.00000000    0.00000000    0.00000000
     atom    3 type  2   force =     0.00000000    0.00000000    0.00000000
     atom    4 type  2   force =     0.00000000    0.00000000    0.00000000
     atom    5 type  1   force =     0.00000000    0.00000000    0.00000000
     atom    6 type  1   force =     0.00000000    0.00000000    0.00000000
     atom    7 type  2   force =     0.00000000    0.00000000    0.00000000
     atom    8 type  2   force =     0.00000000    0.00000000    0.00000000
     The SCF correction term to forces
     atom    1 type  1   force =    -0.00005159   -0.00002979    0.00002320
     atom    2 type  1   force =    -0.00005558   -0.00003209   -0.00000959
     atom    3 type  2   force =    -0.00001908   -0.00001101    0.00001124
     atom    4 type  2   force =    -0.00001391   -0.00000803    0.00002849
     atom    5 type  1   force =     0.00005352    0.00003090    0.00006877
     atom    6 type  1   force =     0.00005961    0.00003442   -0.00004793
     atom    7 type  2   force =     0.00001941    0.00001121    0.00001086
     atom    8 type  2   force =     0.00001626    0.00000939    0.00001664

     Total force =     0.291918     Total SCF correction =     0.000164

     General routines

     Parallel routines

   This run was terminated on:  14:58:48  26Aug2025

   JOB DONE.