     Program PWSCF v.7.0 starts on 26Aug2025 at 13: 6:10

     K-points division:     npool     =       4
     band groups division:  nbgrp     =       4

     Reading input from /home/jvc/QEspresso7.2/ZnO_database/scripts/cell211.in/ZnO-2.94-1.45-211.in
Warning: card &CELL ignored
Warning: card / ignored
Warning: card &FCP ignored
Warning: card / ignored
Warning: card &RISM ignored
Warning: card / ignored

     Current dimensions of program PWSCF are:
     Max number of different atomic species (ntypx) = 10
     Max number of k-points (npk) =  40000
     Max angular momentum in pseudopotentials (lmaxx) =  4
     file Zn.upf: wavefunction(s)  3D renormalized
     Found identity + ( -0.5000  0.0000  0.0000) symmetry
     This is a supercell, fractional translations are disabled
     Message from routine setup:
     using ibrav=0 with symmetry is DISCOURAGED, use correct ibrav instead

     Subspace diagonalization in iterative solution of the eigenvalue problem:
     a serial algorithm will be used

     Using Slab Decomposition

     bravais-lattice index     =            0
     lattice parameter (alat)  =      11.1219  a.u.
     unit-cell volume          =     432.7673 (a.u.)^3
     number of atoms/cell      =            8
     number of atomic types    =            2
     number of electrons       =        72.00
     number of Kohn-Sham states=           36
     kinetic-energy cutoff     =      50.0000  Ry
     charge density cutoff     =     400.0000  Ry
     scf convergence threshold =      1.0E-08
     mixing beta               =       0.3000
     number of iterations used =            8  plain     mixing
     Exchange-correlation= PBE
                           (   1   4   3   4   0   0   0)

     celldm(1)=  11.121937  celldm(2)=   0.000000  celldm(3)=   0.000000
     celldm(4)=   0.000000  celldm(5)=   0.000000  celldm(6)=   0.000000

     crystal axes: (cart. coord. in units of alat)
               a(1) = (   1.000000   0.000000   0.000000 )
               a(2) = (  -0.250000   0.433013   0.000000 )
               a(3) = (   0.000000   0.000000   0.726461 )

     reciprocal axes: (cart. coord. in units 2 pi/alat)
               b(1) = (  1.000000  0.577350 -0.000000 )
               b(2) = (  0.000000  2.309401  0.000000 )
               b(3) = (  0.000000 -0.000000  1.376536 )

     PseudoPot. # 1 for Zn read from file:
     /home/jvc/QEspresso7.2/ZnO_database/pseudos/Zn.upf
     MD5 check sum: 7f56cabf9682ed8c977c2f7d0c5985c5
     Pseudo is Ultrasoft + core correction, Zval = 12.0
     Generated using &quot;atomic&quot; code by A. Dal Corso  v.6.2.2
     Using radial grid of 1201 points,  6 beta functions with:
                l(1) =   0
                l(2) =   0
                l(3) =   1
                l(4) =   1
                l(5) =   2
                l(6) =   2
     Q(r) pseudized with 0 coefficients

     PseudoPot. # 2 for O  read from file:
     /home/jvc/QEspresso7.2/ZnO_database/pseudos/O.upf
     MD5 check sum: 91400c9766925bcf19f520983a725ff0
     Pseudo is Ultrasoft + core correction, Zval =  6.0
     Generated using &quot;atomic&quot; code by A. Dal Corso  v.6.3MaX
     Using radial grid of 1095 points,  4 beta functions with:
                l(1) =   0
                l(2) =   0
                l(3) =   1
                l(4) =   1
     Q(r) pseudized with 0 coefficients

     atomic species   valence    mass     pseudopotential
        Zn            12.00    65.38000     Zn( 1.00)
        O              6.00    15.99900     O ( 1.00)

      2 Sym. Ops. (no inversion) found

                                    s                        frac. trans.

      isym =  1     identity

 cryst.   s( 1) = (     1          0          0      )
                  (     0          1          0      )
                  (     0          0          1      )

 cart.    s( 1) = (  1.0000000  0.0000000  0.0000000 )
                  (  0.0000000  1.0000000  0.0000000 )
                  (  0.0000000  0.0000000  1.0000000 )

      isym =  2     inv. 180 deg rotation - cryst. axis [0,1,0]

 cryst.   s( 2) = (     1          2          0      )
                  (     0         -1          0      )
                  (     0          0          1      )

 cart.    s( 2) = (  0.5000000  0.8660254  0.0000000 )
                  (  0.8660254 -0.5000000  0.0000000 )
                  (  0.0000000  0.0000000  1.0000000 )

   Cartesian axes

     site n.     atom                  positions (alat units)
         1           Zn  tau(   1) = (   0.2500000   0.1443376   0.3636909  )
         2           Zn  tau(   2) = (  -0.0000000   0.2886751   0.0004603  )
         3           O   tau(   3) = (   0.2500000   0.1443376   0.6390508  )
         4           O   tau(   4) = (  -0.0000000   0.2886751   0.2758202  )
         5           Zn  tau(   5) = (   0.7500000   0.1443376   0.3636909  )
         6           Zn  tau(   6) = (   0.5000000   0.2886751   0.0004603  )
         7           O   tau(   7) = (   0.7500000   0.1443376   0.6390508  )
         8           O   tau(   8) = (   0.5000000   0.2886751   0.2758202  )

   Crystallographic axes

     site n.     atom                  positions (cryst. coord.)
         1           Zn  tau(   1) = (  0.3333333  0.3333333  0.5006336  )
         2           Zn  tau(   2) = (  0.1666667  0.6666667  0.0006336  )
         3           O   tau(   3) = (  0.3333333  0.3333333  0.8796764  )
         4           O   tau(   4) = (  0.1666667  0.6666667  0.3796764  )
         5           Zn  tau(   5) = (  0.8333333  0.3333333  0.5006336  )
         6           Zn  tau(   6) = (  0.6666667  0.6666667  0.0006336  )
         7           O   tau(   7) = (  0.8333333  0.3333333  0.8796764  )
         8           O   tau(   8) = (  0.6666667  0.6666667  0.3796764  )

     number of k points=    80
                       cart. coord. in units 2pi/alat
        k(    1) = (   0.0000000   0.0000000   0.0000000), wk =   0.0092593
        k(    2) = (   0.0000000   0.0000000   0.2294226), wk =   0.0185185
        k(    3) = (   0.0000000   0.0000000   0.4588453), wk =   0.0185185
        k(    4) = (   0.0000000   0.0000000  -0.6882679), wk =   0.0092593
        k(    5) = (   0.0000000   0.3849002   0.0000000), wk =   0.0370370
        k(    6) = (   0.0000000   0.3849002   0.2294226), wk =   0.0370370
        k(    7) = (   0.0000000   0.3849002   0.4588453), wk =   0.0370370
        k(    8) = (   0.0000000   0.3849002  -0.6882679), wk =   0.0370370
        k(    9) = (   0.0000000   0.7698004   0.0000000), wk =   0.0370370
        k(   10) = (   0.0000000   0.7698004   0.2294226), wk =   0.0370370
        k(   11) = (   0.0000000   0.7698004   0.4588453), wk =   0.0370370
        k(   12) = (   0.0000000   0.7698004  -0.6882679), wk =   0.0370370
        k(   13) = (   0.0000000  -1.1547005   0.0000000), wk =   0.0092593
        k(   14) = (   0.0000000  -1.1547005   0.2294226), wk =   0.0185185
        k(   15) = (   0.0000000  -1.1547005   0.4588453), wk =   0.0185185
        k(   16) = (   0.0000000  -1.1547005  -0.6882679), wk =   0.0092593
        k(   17) = (   0.1666667   0.0962250   0.0000000), wk =   0.0185185
        k(   18) = (   0.1666667   0.0962250   0.2294226), wk =   0.0185185
        k(   19) = (   0.1666667   0.0962250   0.4588453), wk =   0.0185185
        k(   20) = (   0.1666667   0.0962250  -0.6882679), wk =   0.0185185
        k(   21) = (   0.1666667   0.4811252   0.0000000), wk =   0.0370370
        k(   22) = (   0.1666667   0.4811252   0.2294226), wk =   0.0370370
        k(   23) = (   0.1666667   0.4811252   0.4588453), wk =   0.0370370
        k(   24) = (   0.1666667   0.4811252  -0.6882679), wk =   0.0370370
        k(   25) = (   0.1666667   0.8660254   0.0000000), wk =   0.0185185
        k(   26) = (   0.1666667   0.8660254   0.2294226), wk =   0.0370370
        k(   27) = (   0.1666667   0.8660254   0.4588453), wk =   0.0370370
        k(   28) = (   0.1666667   0.8660254  -0.6882679), wk =   0.0185185
        k(   29) = (   0.1666667  -1.0584755   0.0000000), wk =   0.0185185
        k(   30) = (   0.1666667  -1.0584755   0.2294226), wk =   0.0185185
        k(   31) = (   0.1666667  -1.0584755   0.4588453), wk =   0.0185185
        k(   32) = (   0.1666667  -1.0584755  -0.6882679), wk =   0.0185185
        k(   33) = (   0.1666667  -0.6735753   0.0000000), wk =   0.0370370
        k(   34) = (   0.1666667  -0.6735753   0.2294226), wk =   0.0370370
        k(   35) = (   0.1666667  -0.6735753   0.4588453), wk =   0.0370370
        k(   36) = (   0.1666667  -0.6735753  -0.6882679), wk =   0.0370370
        k(   37) = (   0.1666667  -0.2886751   0.0000000), wk =   0.0185185
        k(   38) = (   0.1666667  -0.2886751   0.2294226), wk =   0.0370370
        k(   39) = (   0.1666667  -0.2886751   0.4588453), wk =   0.0370370
        k(   40) = (   0.1666667  -0.2886751  -0.6882679), wk =   0.0185185
        k(   41) = (   0.3333333   0.1924501   0.0000000), wk =   0.0185185
        k(   42) = (   0.3333333   0.1924501   0.2294226), wk =   0.0185185
        k(   43) = (   0.3333333   0.1924501   0.4588453), wk =   0.0185185
        k(   44) = (   0.3333333   0.1924501  -0.6882679), wk =   0.0185185
        k(   45) = (   0.3333333   0.5773503   0.0000000), wk =   0.0185185
        k(   46) = (   0.3333333   0.5773503   0.2294226), wk =   0.0370370
        k(   47) = (   0.3333333   0.5773503   0.4588453), wk =   0.0370370
        k(   48) = (   0.3333333   0.5773503  -0.6882679), wk =   0.0185185
        k(   49) = (   0.3333333  -0.9622504   0.0000000), wk =   0.0185185
        k(   50) = (   0.3333333  -0.9622504   0.2294226), wk =   0.0185185
        k(   51) = (   0.3333333  -0.9622504   0.4588453), wk =   0.0185185
        k(   52) = (   0.3333333  -0.9622504  -0.6882679), wk =   0.0185185
        k(   53) = (   0.3333333  -0.5773503   0.0000000), wk =   0.0185185
        k(   54) = (   0.3333333  -0.5773503   0.2294226), wk =   0.0370370
        k(   55) = (   0.3333333  -0.5773503   0.4588453), wk =   0.0370370
        k(   56) = (   0.3333333  -0.5773503  -0.6882679), wk =   0.0185185
        k(   57) = (  -0.5000000  -0.2886751   0.0000000), wk =   0.0092593
        k(   58) = (  -0.5000000  -0.2886751   0.2294226), wk =   0.0185185
        k(   59) = (  -0.5000000  -0.2886751   0.4588453), wk =   0.0185185
        k(   60) = (  -0.5000000  -0.2886751  -0.6882679), wk =   0.0092593
[...]
        k(   66) = (   0.3333333  -0.1924501  -0.4588453), wk =   0.0370370
        k(   67) = (   0.6666667  -0.3849002  -0.2294226), wk =   0.0370370
        k(   68) = (   0.6666667  -0.3849002  -0.4588453), wk =   0.0370370
        k(   69) = (   0.1666667   0.0962250  -0.2294226), wk =   0.0185185
        k(   70) = (   0.1666667   0.0962250  -0.4588453), wk =   0.0185185
        k(   71) = (   0.5000000  -0.0962250  -0.2294226), wk =   0.0370370
        k(   72) = (   0.5000000  -0.0962250  -0.4588453), wk =   0.0370370
        k(   73) = (  -0.8333333   0.6735753  -0.2294226), wk =   0.0185185
        k(   74) = (  -0.8333333   0.6735753  -0.4588453), wk =   0.0185185
        k(   75) = (  -0.5000000   0.4811252  -0.2294226), wk =   0.0370370
        k(   76) = (  -0.5000000   0.4811252  -0.4588453), wk =   0.0370370
        k(   77) = (   0.3333333   0.1924501  -0.2294226), wk =   0.0185185
        k(   78) = (   0.3333333   0.1924501  -0.4588453), wk =   0.0185185
        k(   79) = (  -0.6666667   0.7698004  -0.2294226), wk =   0.0185185
        k(   80) = (  -0.6666667   0.7698004  -0.4588453), wk =   0.0185185

                       cryst. coord.
        k(    1) = (   0.0000000   0.0000000   0.0000000), wk =   0.0092593
        k(    2) = (   0.0000000   0.0000000   0.1666667), wk =   0.0185185
        k(    3) = (   0.0000000   0.0000000   0.3333333), wk =   0.0185185
        k(    4) = (   0.0000000   0.0000000  -0.5000000), wk =   0.0092593
        k(    5) = (   0.0000000   0.1666667   0.0000000), wk =   0.0370370
        k(    6) = (   0.0000000   0.1666667   0.1666667), wk =   0.0370370
        k(    7) = (   0.0000000   0.1666667   0.3333333), wk =   0.0370370
        k(    8) = (   0.0000000   0.1666667  -0.5000000), wk =   0.0370370
        k(    9) = (   0.0000000   0.3333333   0.0000000), wk =   0.0370370
        k(   10) = (   0.0000000   0.3333333   0.1666667), wk =   0.0370370
        k(   11) = (   0.0000000   0.3333333   0.3333333), wk =   0.0370370
        k(   12) = (   0.0000000   0.3333333  -0.5000000), wk =   0.0370370
        k(   13) = (   0.0000000  -0.5000000   0.0000000), wk =   0.0092593
        k(   14) = (   0.0000000  -0.5000000   0.1666667), wk =   0.0185185
        k(   15) = (   0.0000000  -0.5000000   0.3333333), wk =   0.0185185
        k(   16) = (   0.0000000  -0.5000000  -0.5000000), wk =   0.0092593
        k(   17) = (   0.1666667   0.0000000   0.0000000), wk =   0.0185185
        k(   18) = (   0.1666667   0.0000000   0.1666667), wk =   0.0185185
        k(   19) = (   0.1666667   0.0000000   0.3333333), wk =   0.0185185
        k(   20) = (   0.1666667   0.0000000  -0.5000000), wk =   0.0185185
        k(   21) = (   0.1666667   0.1666667   0.0000000), wk =   0.0370370
        k(   22) = (   0.1666667   0.1666667   0.1666667), wk =   0.0370370
        k(   23) = (   0.1666667   0.1666667   0.3333333), wk =   0.0370370
        k(   24) = (   0.1666667   0.1666667  -0.5000000), wk =   0.0370370
        k(   25) = (   0.1666667   0.3333333   0.0000000), wk =   0.0185185
        k(   26) = (   0.1666667   0.3333333   0.1666667), wk =   0.0370370
        k(   27) = (   0.1666667   0.3333333   0.3333333), wk =   0.0370370
        k(   28) = (   0.1666667   0.3333333  -0.5000000), wk =   0.0185185
        k(   29) = (   0.1666667  -0.5000000   0.0000000), wk =   0.0185185
        k(   30) = (   0.1666667  -0.5000000   0.1666667), wk =   0.0185185
        k(   31) = (   0.1666667  -0.5000000   0.3333333), wk =   0.0185185
        k(   32) = (   0.1666667  -0.5000000  -0.5000000), wk =   0.0185185
        k(   33) = (   0.1666667  -0.3333333   0.0000000), wk =   0.0370370
        k(   34) = (   0.1666667  -0.3333333   0.1666667), wk =   0.0370370
        k(   35) = (   0.1666667  -0.3333333   0.3333333), wk =   0.0370370
        k(   36) = (   0.1666667  -0.3333333  -0.5000000), wk =   0.0370370
        k(   37) = (   0.1666667  -0.1666667   0.0000000), wk =   0.0185185
        k(   38) = (   0.1666667  -0.1666667   0.1666667), wk =   0.0370370
        k(   39) = (   0.1666667  -0.1666667   0.3333333), wk =   0.0370370
        k(   40) = (   0.1666667  -0.1666667  -0.5000000), wk =   0.0185185
        k(   41) = (   0.3333333   0.0000000   0.0000000), wk =   0.0185185
        k(   42) = (   0.3333333   0.0000000   0.1666667), wk =   0.0185185
        k(   43) = (   0.3333333   0.0000000   0.3333333), wk =   0.0185185
        k(   44) = (   0.3333333   0.0000000  -0.5000000), wk =   0.0185185
        k(   45) = (   0.3333333   0.1666667   0.0000000), wk =   0.0185185
        k(   46) = (   0.3333333   0.1666667   0.1666667), wk =   0.0370370
        k(   47) = (   0.3333333   0.1666667   0.3333333), wk =   0.0370370
        k(   48) = (   0.3333333   0.1666667  -0.5000000), wk =   0.0185185
        k(   49) = (   0.3333333  -0.5000000   0.0000000), wk =   0.0185185
        k(   50) = (   0.3333333  -0.5000000   0.1666667), wk =   0.0185185
        k(   51) = (   0.3333333  -0.5000000   0.3333333), wk =   0.0185185
        k(   52) = (   0.3333333  -0.5000000  -0.5000000), wk =   0.0185185
        k(   53) = (   0.3333333  -0.3333333   0.0000000), wk =   0.0185185
        k(   54) = (   0.3333333  -0.3333333   0.1666667), wk =   0.0370370
        k(   55) = (   0.3333333  -0.3333333   0.3333333), wk =   0.0370370
        k(   56) = (   0.3333333  -0.3333333  -0.5000000), wk =   0.0185185
        k(   57) = (  -0.5000000  -0.0000000   0.0000000), wk =   0.0092593
        k(   58) = (  -0.5000000  -0.0000000   0.1666667), wk =   0.0185185
        k(   59) = (  -0.5000000  -0.0000000   0.3333333), wk =   0.0185185
        k(   60) = (  -0.5000000  -0.0000000  -0.5000000), wk =   0.0092593
[...]
        k(   66) = (   0.3333333  -0.1666667  -0.3333333), wk =   0.0370370
        k(   67) = (   0.6666667  -0.3333333  -0.1666667), wk =   0.0370370
        k(   68) = (   0.6666667  -0.3333333  -0.3333333), wk =   0.0370370
        k(   69) = (   0.1666667   0.0000000  -0.1666667), wk =   0.0185185
        k(   70) = (   0.1666667   0.0000000  -0.3333333), wk =   0.0185185
        k(   71) = (   0.5000000  -0.1666667  -0.1666667), wk =   0.0370370
        k(   72) = (   0.5000000  -0.1666667  -0.3333333), wk =   0.0370370
        k(   73) = (  -0.8333333   0.5000000  -0.1666667), wk =   0.0185185
        k(   74) = (  -0.8333333   0.5000000  -0.3333333), wk =   0.0185185
        k(   75) = (  -0.5000000   0.3333333  -0.1666667), wk =   0.0370370
        k(   76) = (  -0.5000000   0.3333333  -0.3333333), wk =   0.0370370
        k(   77) = (   0.3333333   0.0000000  -0.1666667), wk =   0.0185185
        k(   78) = (   0.3333333   0.0000000  -0.3333333), wk =   0.0185185
        k(   79) = (  -0.6666667   0.5000000  -0.1666667), wk =   0.0185185
        k(   80) = (  -0.6666667   0.5000000  -0.3333333), wk =   0.0185185

     Initial potential from superposition of free atoms

     starting charge      71.9851, renormalised to      72.0000
     Starting wfcs are   52 randomized atomic wfcs

     Self-consistent Calculation

     iteration #  1     ecut=    50.00 Ry     beta= 0.30
     Davidson diagonalization with overlap

     ethr =  1.00E-02,  avg # of iterations =  2.4

     total energy              =    -722.13631119 Ry
     estimated scf accuracy    <       1.48682236 Ry

[...]

     total energy              =    -722.39168999 Ry
     estimated scf accuracy    <       0.00000023 Ry

     iteration # 31     ecut=    50.00 Ry     beta= 0.30
     Davidson diagonalization with overlap

     ethr =  1.92E-10,  avg # of iterations =  4.9

     End of self-consistent calculation

          k = 0.0000 0.0000 0.0000 (  2555 PWs)   bands (ev):

    -7.5764  -6.2387  -5.7818  -5.6827   5.3293   5.3500   5.5526   6.0971
     6.0972   6.1929   6.4351   6.5290   6.5291   6.5717   7.2617   7.5123
     8.6029   8.6029   8.7265   9.0753   9.2374   9.2374   9.3880   9.4179
     9.6819   9.7394  10.1697  10.4294  10.8507  12.8942  12.8943  12.9770
    13.3543  14.6198  14.6200  14.6454

     occupation numbers
     1.0000   1.0000   1.0000   1.0000   1.0000   1.0000   1.0000   1.0000
     1.0000   1.0000   1.0000   1.0000   1.0000   1.0000   1.0000   1.0000
     1.0000   1.0000   1.0000   1.0000   1.0000   1.0000   1.0000   1.0000
     1.0000   1.0000   1.0000   1.0000   1.0000   1.0000   1.0000   1.0000
     1.0000   1.0000   1.0000   1.0000

[...]

          k =-0.5000-0.2887 0.0000 (  2566 PWs)   bands (ev):

[...]

          k = 0.3333 0.1925-0.4588 (  2586 PWs)   bands (ev):

[...]

          k =-0.6667 0.7698-0.4588 (  2584 PWs)   bands (ev):

    -6.0622  -6.0622  -5.7599  -5.7599   5.0315   5.0315   5.0953   5.0953
     6.2782   6.2782   6.3613   6.3613   6.9591   6.9591   7.0840   7.0840
     8.8013   8.8013   9.0308   9.0308   9.3538   9.3538   9.5510   9.5510
     9.9492   9.9492  10.4796  10.4796  10.9493  10.9493  12.1195  12.1195
    12.4636  12.4636  13.3914  13.3914

     occupation numbers
     1.0000   1.0000   1.0000   1.0000   1.0000   1.0000   1.0000   1.0000
     1.0000   1.0000   1.0000   1.0000   1.0000   1.0000   1.0000   1.0000
     1.0000   1.0000   1.0000   1.0000   1.0000   1.0000   1.0000   1.0000
     1.0000   1.0000   1.0000   1.0000   1.0000   1.0000   1.0000   1.0000
     1.0000   1.0000   1.0000   1.0000

     highest occupied level (ev):    14.6454

!    total energy              =    -722.39169005 Ry
     estimated scf accuracy    <          4.0E-09 Ry

     The total energy is the sum of the following terms:
     one-electron contribution =    -209.82102438 Ry
     hartree contribution      =     203.84010734 Ry
     xc contribution           =    -221.39152762 Ry
     ewald contribution        =    -495.01924538 Ry

     convergence has been achieved in  31 iterations

     Forces acting on atoms (cartesian axes, Ry/au):

     atom    1 type  1   force =     0.00001730    0.00000999   -0.21626809
     atom    2 type  1   force =    -0.00001403   -0.00000810   -0.21627015
     atom    3 type  2   force =    -0.00000080   -0.00000046    0.21626924
     atom    4 type  2   force =     0.00000001    0.00000001    0.21626966
     atom    5 type  1   force =     0.00001439    0.00000831   -0.21626468
     atom    6 type  1   force =    -0.00001550   -0.00000895   -0.21627398
     atom    7 type  2   force =    -0.00000084   -0.00000049    0.21626852
     atom    8 type  2   force =    -0.00000053   -0.00000031    0.21626948
     The non-local contrib.  to forces
     atom    1 type  1   force =    -0.00002149   -0.00001240   -0.38233558
     atom    2 type  1   force =     0.00002237    0.00001291   -0.38233581
     atom    3 type  2   force =    -0.00012269   -0.00007083   -0.18137739
     atom    4 type  2   force =     0.00012063    0.00006965   -0.18137750
     atom    5 type  1   force =    -0.00002343   -0.00001352   -0.38233410
     atom    6 type  1   force =     0.00002198    0.00001269   -0.38233644
     atom    7 type  2   force =    -0.00012027   -0.00006944   -0.18137707
     atom    8 type  2   force =     0.00012134    0.00007005   -0.18137767
     The ionic contribution  to forces
     atom    1 type  1   force =    -0.00000000    0.00000000   -2.79035799
     atom    2 type  1   force =     0.00000000   -0.00000000   -2.79035799
     atom    3 type  2   force =    -0.00000000    0.00000000    2.79035799
     atom    4 type  2   force =     0.00000000   -0.00000000    2.79035799
     atom    5 type  1   force =    -0.00000000    0.00000000   -2.79035799
     atom    6 type  1   force =     0.00000000   -0.00000000   -2.79035799
     atom    7 type  2   force =    -0.00000000    0.00000000    2.79035799
     atom    8 type  2   force =     0.00000000   -0.00000000    2.79035799
     The local contribution  to forces
     atom    1 type  1   force =     0.00003780    0.00002183    2.91293716
     atom    2 type  1   force =    -0.00004107   -0.00002380    2.91294041
     atom    3 type  2   force =     0.00012081    0.00006975   -2.39324216
     atom    4 type  2   force =    -0.00011991   -0.00006925   -2.39324164
     atom    5 type  1   force =     0.00004290    0.00002477    2.91293327
     atom    6 type  1   force =    -0.00004017   -0.00002328    2.91294214
     atom    7 type  2   force =     0.00012091    0.00006981   -2.39324180
     atom    8 type  2   force =    -0.00011889   -0.00006867   -2.39324047
     The core correction contribution to forces
     atom    1 type  1   force =    -0.00000111   -0.00000064    0.04347140
     atom    2 type  1   force =     0.00000105    0.00000059    0.04347134
     atom    3 type  2   force =     0.00000137    0.00000079    0.00052953
     atom    4 type  2   force =    -0.00000134   -0.00000077    0.00052953
     atom    5 type  1   force =    -0.00000114   -0.00000066    0.04347140
     atom    6 type  1   force =     0.00000114    0.00000064    0.04347139
     atom    7 type  2   force =     0.00000134    0.00000077    0.00052952
     atom    8 type  2   force =    -0.00000135   -0.00000078    0.00052955
     The Hubbard contrib.    to forces
     atom    1 type  1   force =     0.00000000    0.00000000    0.00000000
     atom    2 type  1   force =     0.00000000    0.00000000    0.00000000
     atom    3 type  2   force =     0.00000000    0.00000000    0.00000000
     atom    4 type  2   force =     0.00000000    0.00000000    0.00000000
     atom    5 type  1   force =     0.00000000    0.00000000    0.00000000
     atom    6 type  1   force =     0.00000000    0.00000000    0.00000000
     atom    7 type  2   force =     0.00000000    0.00000000    0.00000000
     atom    8 type  2   force =     0.00000000    0.00000000    0.00000000
     The SCF correction term to forces
     atom    1 type  1   force =     0.00000258    0.00000149    0.00001960
     atom    2 type  1   force =     0.00000415    0.00000239    0.00001457
     atom    3 type  2   force =     0.00000019    0.00000011    0.00000394
     atom    4 type  2   force =     0.00000112    0.00000065    0.00000396
     atom    5 type  1   force =    -0.00000346   -0.00000200    0.00002543
     atom    6 type  1   force =     0.00000208    0.00000120    0.00000960
     atom    7 type  2   force =    -0.00000235   -0.00000135    0.00000257
     atom    8 type  2   force =    -0.00000115   -0.00000066    0.00000277

     Total force =     0.611702     Total SCF correction =     0.000038

     General routines

     Parallel routines

   This run was terminated on:  13:10:35  26Aug2025

   JOB DONE.