     Program PWSCF v.7.0 starts on 26Aug2025 at 13:57:23

     K-points division:     npool     =       4
     band groups division:  nbgrp     =       4

     Reading input from /home/jvc/QEspresso7.2/ZnO_database/scripts/cell211.in/ZnO-3.01-1.49-211.in
Warning: card &CELL ignored
Warning: card / ignored
Warning: card &FCP ignored
Warning: card / ignored
Warning: card &RISM ignored
Warning: card / ignored

     Current dimensions of program PWSCF are:
     Max number of different atomic species (ntypx) = 10
     Max number of k-points (npk) =  40000
     Max angular momentum in pseudopotentials (lmaxx) =  4
     file Zn.upf: wavefunction(s)  3D renormalized
     Found identity + ( -0.5000  0.0000  0.0000) symmetry
     This is a supercell, fractional translations are disabled
     Message from routine setup:
     using ibrav=0 with symmetry is DISCOURAGED, use correct ibrav instead

     Subspace diagonalization in iterative solution of the eigenvalue problem:
     a serial algorithm will be used

     Using Slab Decomposition

     bravais-lattice index     =            0
     lattice parameter (alat)  =      11.3691  a.u.
     unit-cell volume          =     472.5368 (a.u.)^3
     number of atoms/cell      =            8
     number of atomic types    =            2
     number of electrons       =        72.00
     number of Kohn-Sham states=           36
     kinetic-energy cutoff     =      50.0000  Ry
     charge density cutoff     =     400.0000  Ry
     scf convergence threshold =      1.0E-08
     mixing beta               =       0.3000
     number of iterations used =            8  plain     mixing
     Exchange-correlation= PBE
                           (   1   4   3   4   0   0   0)

     celldm(1)=  11.369091  celldm(2)=   0.000000  celldm(3)=   0.000000
     celldm(4)=   0.000000  celldm(5)=   0.000000  celldm(6)=   0.000000

     crystal axes: (cart. coord. in units of alat)
               a(1) = (   1.000000   0.000000   0.000000 )
               a(2) = (  -0.250000   0.433013   0.000000 )
               a(3) = (   0.000000   0.000000   0.742605 )

     reciprocal axes: (cart. coord. in units 2 pi/alat)
               b(1) = (  1.000000  0.577350 -0.000000 )
               b(2) = (  0.000000  2.309401  0.000000 )
               b(3) = (  0.000000 -0.000000  1.346611 )

     PseudoPot. # 1 for Zn read from file:
     /home/jvc/QEspresso7.2/ZnO_database/pseudos/Zn.upf
     MD5 check sum: 7f56cabf9682ed8c977c2f7d0c5985c5
     Pseudo is Ultrasoft + core correction, Zval = 12.0
     Generated using &quot;atomic&quot; code by A. Dal Corso  v.6.2.2
     Using radial grid of 1201 points,  6 beta functions with:
                l(1) =   0
                l(2) =   0
                l(3) =   1
                l(4) =   1
                l(5) =   2
                l(6) =   2
     Q(r) pseudized with 0 coefficients

     PseudoPot. # 2 for O  read from file:
     /home/jvc/QEspresso7.2/ZnO_database/pseudos/O.upf
     MD5 check sum: 91400c9766925bcf19f520983a725ff0
     Pseudo is Ultrasoft + core correction, Zval =  6.0
     Generated using &quot;atomic&quot; code by A. Dal Corso  v.6.3MaX
     Using radial grid of 1095 points,  4 beta functions with:
                l(1) =   0
                l(2) =   0
                l(3) =   1
                l(4) =   1
     Q(r) pseudized with 0 coefficients

     atomic species   valence    mass     pseudopotential
        Zn            12.00    65.38000     Zn( 1.00)
        O              6.00    15.99900     O ( 1.00)

      2 Sym. Ops. (no inversion) found

                                    s                        frac. trans.

      isym =  1     identity

 cryst.   s( 1) = (     1          0          0      )
                  (     0          1          0      )
                  (     0          0          1      )

 cart.    s( 1) = (  1.0000000  0.0000000  0.0000000 )
                  (  0.0000000  1.0000000  0.0000000 )
                  (  0.0000000  0.0000000  1.0000000 )

      isym =  2     inv. 180 deg rotation - cryst. axis [0,1,0]

 cryst.   s( 2) = (     1          2          0      )
                  (     0         -1          0      )
                  (     0          0          1      )

 cart.    s( 2) = (  0.5000000  0.8660254  0.0000000 )
                  (  0.8660254 -0.5000000  0.0000000 )
                  (  0.0000000  0.0000000  1.0000000 )

   Cartesian axes

     site n.     atom                  positions (alat units)
         1           Zn  tau(   1) = (   0.2500000   0.1443376   0.3717729  )
         2           Zn  tau(   2) = (  -0.0000000   0.2886751   0.0004705  )
         3           O   tau(   3) = (   0.2500000   0.1443376   0.6532520  )
         4           O   tau(   4) = (  -0.0000000   0.2886751   0.2819495  )
         5           Zn  tau(   5) = (   0.7500000   0.1443376   0.3717729  )
         6           Zn  tau(   6) = (   0.5000000   0.2886751   0.0004705  )
         7           O   tau(   7) = (   0.7500000   0.1443376   0.6532520  )
         8           O   tau(   8) = (   0.5000000   0.2886751   0.2819495  )

   Crystallographic axes

     site n.     atom                  positions (cryst. coord.)
         1           Zn  tau(   1) = (  0.3333333  0.3333333  0.5006336  )
         2           Zn  tau(   2) = (  0.1666667  0.6666667  0.0006336  )
         3           O   tau(   3) = (  0.3333333  0.3333333  0.8796764  )
         4           O   tau(   4) = (  0.1666667  0.6666667  0.3796764  )
         5           Zn  tau(   5) = (  0.8333333  0.3333333  0.5006336  )
         6           Zn  tau(   6) = (  0.6666667  0.6666667  0.0006336  )
         7           O   tau(   7) = (  0.8333333  0.3333333  0.8796764  )
         8           O   tau(   8) = (  0.6666667  0.6666667  0.3796764  )

     number of k points=    80
                       cart. coord. in units 2pi/alat
        k(    1) = (   0.0000000   0.0000000   0.0000000), wk =   0.0092593
        k(    2) = (   0.0000000   0.0000000   0.2244352), wk =   0.0185185
        k(    3) = (   0.0000000   0.0000000   0.4488704), wk =   0.0185185
        k(    4) = (   0.0000000   0.0000000  -0.6733056), wk =   0.0092593
        k(    5) = (   0.0000000   0.3849002   0.0000000), wk =   0.0370370
        k(    6) = (   0.0000000   0.3849002   0.2244352), wk =   0.0370370
        k(    7) = (   0.0000000   0.3849002   0.4488704), wk =   0.0370370
        k(    8) = (   0.0000000   0.3849002  -0.6733056), wk =   0.0370370
        k(    9) = (   0.0000000   0.7698004   0.0000000), wk =   0.0370370
        k(   10) = (   0.0000000   0.7698004   0.2244352), wk =   0.0370370
        k(   11) = (   0.0000000   0.7698004   0.4488704), wk =   0.0370370
        k(   12) = (   0.0000000   0.7698004  -0.6733056), wk =   0.0370370
        k(   13) = (   0.0000000  -1.1547005   0.0000000), wk =   0.0092593
        k(   14) = (   0.0000000  -1.1547005   0.2244352), wk =   0.0185185
        k(   15) = (   0.0000000  -1.1547005   0.4488704), wk =   0.0185185
        k(   16) = (   0.0000000  -1.1547005  -0.6733056), wk =   0.0092593
        k(   17) = (   0.1666667   0.0962250   0.0000000), wk =   0.0185185
        k(   18) = (   0.1666667   0.0962250   0.2244352), wk =   0.0185185
        k(   19) = (   0.1666667   0.0962250   0.4488704), wk =   0.0185185
        k(   20) = (   0.1666667   0.0962250  -0.6733056), wk =   0.0185185
        k(   21) = (   0.1666667   0.4811252   0.0000000), wk =   0.0370370
        k(   22) = (   0.1666667   0.4811252   0.2244352), wk =   0.0370370
        k(   23) = (   0.1666667   0.4811252   0.4488704), wk =   0.0370370
        k(   24) = (   0.1666667   0.4811252  -0.6733056), wk =   0.0370370
        k(   25) = (   0.1666667   0.8660254   0.0000000), wk =   0.0185185
        k(   26) = (   0.1666667   0.8660254   0.2244352), wk =   0.0370370
        k(   27) = (   0.1666667   0.8660254   0.4488704), wk =   0.0370370
        k(   28) = (   0.1666667   0.8660254  -0.6733056), wk =   0.0185185
        k(   29) = (   0.1666667  -1.0584755   0.0000000), wk =   0.0185185
        k(   30) = (   0.1666667  -1.0584755   0.2244352), wk =   0.0185185
        k(   31) = (   0.1666667  -1.0584755   0.4488704), wk =   0.0185185
        k(   32) = (   0.1666667  -1.0584755  -0.6733056), wk =   0.0185185
        k(   33) = (   0.1666667  -0.6735753   0.0000000), wk =   0.0370370
        k(   34) = (   0.1666667  -0.6735753   0.2244352), wk =   0.0370370
        k(   35) = (   0.1666667  -0.6735753   0.4488704), wk =   0.0370370
        k(   36) = (   0.1666667  -0.6735753  -0.6733056), wk =   0.0370370
        k(   37) = (   0.1666667  -0.2886751   0.0000000), wk =   0.0185185
        k(   38) = (   0.1666667  -0.2886751   0.2244352), wk =   0.0370370
        k(   39) = (   0.1666667  -0.2886751   0.4488704), wk =   0.0370370
        k(   40) = (   0.1666667  -0.2886751  -0.6733056), wk =   0.0185185
        k(   41) = (   0.3333333   0.1924501   0.0000000), wk =   0.0185185
        k(   42) = (   0.3333333   0.1924501   0.2244352), wk =   0.0185185
        k(   43) = (   0.3333333   0.1924501   0.4488704), wk =   0.0185185
        k(   44) = (   0.3333333   0.1924501  -0.6733056), wk =   0.0185185
        k(   45) = (   0.3333333   0.5773503   0.0000000), wk =   0.0185185
        k(   46) = (   0.3333333   0.5773503   0.2244352), wk =   0.0370370
        k(   47) = (   0.3333333   0.5773503   0.4488704), wk =   0.0370370
        k(   48) = (   0.3333333   0.5773503  -0.6733056), wk =   0.0185185
        k(   49) = (   0.3333333  -0.9622504   0.0000000), wk =   0.0185185
        k(   50) = (   0.3333333  -0.9622504   0.2244352), wk =   0.0185185
        k(   51) = (   0.3333333  -0.9622504   0.4488704), wk =   0.0185185
        k(   52) = (   0.3333333  -0.9622504  -0.6733056), wk =   0.0185185
        k(   53) = (   0.3333333  -0.5773503   0.0000000), wk =   0.0185185
        k(   54) = (   0.3333333  -0.5773503   0.2244352), wk =   0.0370370
        k(   55) = (   0.3333333  -0.5773503   0.4488704), wk =   0.0370370
        k(   56) = (   0.3333333  -0.5773503  -0.6733056), wk =   0.0185185
        k(   57) = (  -0.5000000  -0.2886751   0.0000000), wk =   0.0092593
        k(   58) = (  -0.5000000  -0.2886751   0.2244352), wk =   0.0185185
        k(   59) = (  -0.5000000  -0.2886751   0.4488704), wk =   0.0185185
        k(   60) = (  -0.5000000  -0.2886751  -0.6733056), wk =   0.0092593
[...]
        k(   66) = (   0.3333333  -0.1924501  -0.4488704), wk =   0.0370370
        k(   67) = (   0.6666667  -0.3849002  -0.2244352), wk =   0.0370370
        k(   68) = (   0.6666667  -0.3849002  -0.4488704), wk =   0.0370370
        k(   69) = (   0.1666667   0.0962250  -0.2244352), wk =   0.0185185
        k(   70) = (   0.1666667   0.0962250  -0.4488704), wk =   0.0185185
        k(   71) = (   0.5000000  -0.0962250  -0.2244352), wk =   0.0370370
        k(   72) = (   0.5000000  -0.0962250  -0.4488704), wk =   0.0370370
        k(   73) = (  -0.8333333   0.6735753  -0.2244352), wk =   0.0185185
        k(   74) = (  -0.8333333   0.6735753  -0.4488704), wk =   0.0185185
        k(   75) = (  -0.5000000   0.4811252  -0.2244352), wk =   0.0370370
        k(   76) = (  -0.5000000   0.4811252  -0.4488704), wk =   0.0370370
        k(   77) = (   0.3333333   0.1924501  -0.2244352), wk =   0.0185185
        k(   78) = (   0.3333333   0.1924501  -0.4488704), wk =   0.0185185
        k(   79) = (  -0.6666667   0.7698004  -0.2244352), wk =   0.0185185
        k(   80) = (  -0.6666667   0.7698004  -0.4488704), wk =   0.0185185

                       cryst. coord.
        k(    1) = (   0.0000000   0.0000000   0.0000000), wk =   0.0092593
        k(    2) = (   0.0000000   0.0000000   0.1666667), wk =   0.0185185
        k(    3) = (   0.0000000   0.0000000   0.3333333), wk =   0.0185185
        k(    4) = (   0.0000000   0.0000000  -0.5000000), wk =   0.0092593
        k(    5) = (   0.0000000   0.1666667   0.0000000), wk =   0.0370370
        k(    6) = (   0.0000000   0.1666667   0.1666667), wk =   0.0370370
        k(    7) = (   0.0000000   0.1666667   0.3333333), wk =   0.0370370
        k(    8) = (   0.0000000   0.1666667  -0.5000000), wk =   0.0370370
        k(    9) = (   0.0000000   0.3333333   0.0000000), wk =   0.0370370
        k(   10) = (   0.0000000   0.3333333   0.1666667), wk =   0.0370370
        k(   11) = (   0.0000000   0.3333333   0.3333333), wk =   0.0370370
        k(   12) = (   0.0000000   0.3333333  -0.5000000), wk =   0.0370370
        k(   13) = (   0.0000000  -0.5000000   0.0000000), wk =   0.0092593
        k(   14) = (   0.0000000  -0.5000000   0.1666667), wk =   0.0185185
        k(   15) = (   0.0000000  -0.5000000   0.3333333), wk =   0.0185185
        k(   16) = (   0.0000000  -0.5000000  -0.5000000), wk =   0.0092593
        k(   17) = (   0.1666667   0.0000000   0.0000000), wk =   0.0185185
        k(   18) = (   0.1666667   0.0000000   0.1666667), wk =   0.0185185
        k(   19) = (   0.1666667   0.0000000   0.3333333), wk =   0.0185185
        k(   20) = (   0.1666667   0.0000000  -0.5000000), wk =   0.0185185
        k(   21) = (   0.1666667   0.1666667   0.0000000), wk =   0.0370370
        k(   22) = (   0.1666667   0.1666667   0.1666667), wk =   0.0370370
        k(   23) = (   0.1666667   0.1666667   0.3333333), wk =   0.0370370
        k(   24) = (   0.1666667   0.1666667  -0.5000000), wk =   0.0370370
        k(   25) = (   0.1666667   0.3333333   0.0000000), wk =   0.0185185
        k(   26) = (   0.1666667   0.3333333   0.1666667), wk =   0.0370370
        k(   27) = (   0.1666667   0.3333333   0.3333333), wk =   0.0370370
        k(   28) = (   0.1666667   0.3333333  -0.5000000), wk =   0.0185185
        k(   29) = (   0.1666667  -0.5000000   0.0000000), wk =   0.0185185
        k(   30) = (   0.1666667  -0.5000000   0.1666667), wk =   0.0185185
        k(   31) = (   0.1666667  -0.5000000   0.3333333), wk =   0.0185185
        k(   32) = (   0.1666667  -0.5000000  -0.5000000), wk =   0.0185185
        k(   33) = (   0.1666667  -0.3333333   0.0000000), wk =   0.0370370
        k(   34) = (   0.1666667  -0.3333333   0.1666667), wk =   0.0370370
        k(   35) = (   0.1666667  -0.3333333   0.3333333), wk =   0.0370370
        k(   36) = (   0.1666667  -0.3333333  -0.5000000), wk =   0.0370370
        k(   37) = (   0.1666667  -0.1666667   0.0000000), wk =   0.0185185
        k(   38) = (   0.1666667  -0.1666667   0.1666667), wk =   0.0370370
        k(   39) = (   0.1666667  -0.1666667   0.3333333), wk =   0.0370370
        k(   40) = (   0.1666667  -0.1666667  -0.5000000), wk =   0.0185185
        k(   41) = (   0.3333333   0.0000000   0.0000000), wk =   0.0185185
        k(   42) = (   0.3333333   0.0000000   0.1666667), wk =   0.0185185
        k(   43) = (   0.3333333   0.0000000   0.3333333), wk =   0.0185185
        k(   44) = (   0.3333333   0.0000000  -0.5000000), wk =   0.0185185
        k(   45) = (   0.3333333   0.1666667   0.0000000), wk =   0.0185185
        k(   46) = (   0.3333333   0.1666667   0.1666667), wk =   0.0370370
        k(   47) = (   0.3333333   0.1666667   0.3333333), wk =   0.0370370
        k(   48) = (   0.3333333   0.1666667  -0.5000000), wk =   0.0185185
        k(   49) = (   0.3333333  -0.5000000   0.0000000), wk =   0.0185185
        k(   50) = (   0.3333333  -0.5000000   0.1666667), wk =   0.0185185
        k(   51) = (   0.3333333  -0.5000000   0.3333333), wk =   0.0185185
        k(   52) = (   0.3333333  -0.5000000  -0.5000000), wk =   0.0185185
        k(   53) = (   0.3333333  -0.3333333   0.0000000), wk =   0.0185185
        k(   54) = (   0.3333333  -0.3333333   0.1666667), wk =   0.0370370
        k(   55) = (   0.3333333  -0.3333333   0.3333333), wk =   0.0370370
        k(   56) = (   0.3333333  -0.3333333  -0.5000000), wk =   0.0185185
        k(   57) = (  -0.5000000   0.0000000   0.0000000), wk =   0.0092593
        k(   58) = (  -0.5000000   0.0000000   0.1666667), wk =   0.0185185
        k(   59) = (  -0.5000000   0.0000000   0.3333333), wk =   0.0185185
        k(   60) = (  -0.5000000   0.0000000  -0.5000000), wk =   0.0092593
[...]
        k(   66) = (   0.3333333  -0.1666667  -0.3333333), wk =   0.0370370
        k(   67) = (   0.6666667  -0.3333333  -0.1666667), wk =   0.0370370
        k(   68) = (   0.6666667  -0.3333333  -0.3333333), wk =   0.0370370
        k(   69) = (   0.1666667   0.0000000  -0.1666667), wk =   0.0185185
        k(   70) = (   0.1666667   0.0000000  -0.3333333), wk =   0.0185185
        k(   71) = (   0.5000000  -0.1666667  -0.1666667), wk =   0.0370370
        k(   72) = (   0.5000000  -0.1666667  -0.3333333), wk =   0.0370370
        k(   73) = (  -0.8333333   0.5000000  -0.1666667), wk =   0.0185185
        k(   74) = (  -0.8333333   0.5000000  -0.3333333), wk =   0.0185185
        k(   75) = (  -0.5000000   0.3333333  -0.1666667), wk =   0.0370370
        k(   76) = (  -0.5000000   0.3333333  -0.3333333), wk =   0.0370370
        k(   77) = (   0.3333333   0.0000000  -0.1666667), wk =   0.0185185
        k(   78) = (   0.3333333   0.0000000  -0.3333333), wk =   0.0185185
        k(   79) = (  -0.6666667   0.5000000  -0.1666667), wk =   0.0185185
        k(   80) = (  -0.6666667   0.5000000  -0.3333333), wk =   0.0185185

     Check: negative core charge=   -0.000001

     Initial potential from superposition of free atoms

     starting charge      71.9851, renormalised to      72.0000
     Starting wfcs are   52 randomized atomic wfcs

     Self-consistent Calculation

     iteration #  1     ecut=    50.00 Ry     beta= 0.30
     Davidson diagonalization with overlap

     ethr =  1.00E-02,  avg # of iterations =  2.2

     total energy              =    -722.50228144 Ry
     estimated scf accuracy    <       1.41031369 Ry

[...]

     c_bands:  1 eigenvalues not converged
     c_bands:  1 eigenvalues not converged
     c_bands:  1 eigenvalues not converged
     ethr =  2.77E-11,  avg # of iterations = 13.1

[...]

     total energy              =    -722.76326038 Ry
     estimated scf accuracy    <       0.00000004 Ry

     iteration # 29     ecut=    50.00 Ry     beta= 0.30
     Davidson diagonalization with overlap

     ethr =  2.62E-11,  avg # of iterations =  6.0

     End of self-consistent calculation

          k = 0.0000 0.0000 0.0000 (  2805 PWs)   bands (ev):

    -8.3946  -7.2237  -6.8878  -6.7572   4.3617   4.4124   4.5066   5.0099
     5.0100   5.0791   5.3343   5.3792   5.3792   5.4688   6.0149   6.2877
     7.1898   7.1899   7.2748   7.5690   7.6982   7.6983   7.8139   7.8727
     8.1135   8.1589   8.5545   9.0126   9.1262  11.1360  11.2301  11.2302
    11.5613  12.7125  12.7127  12.7208

     occupation numbers
     1.0000   1.0000   1.0000   1.0000   1.0000   1.0000   1.0000   1.0000
     1.0000   1.0000   1.0000   1.0000   1.0000   1.0000   1.0000   1.0000
     1.0000   1.0000   1.0000   1.0000   1.0000   1.0000   1.0000   1.0000
     1.0000   1.0000   1.0000   1.0000   1.0000   1.0000   1.0000   1.0000
     1.0000   1.0000   1.0000   1.0000

[...]

          k =-0.5000-0.2887 0.0000 (  2854 PWs)   bands (ev):

[...]

          k = 0.3333 0.1925-0.4489 (  2829 PWs)   bands (ev):

[...]

          k =-0.6667 0.7698-0.4489 (  2816 PWs)   bands (ev):

    -7.0847  -7.0847  -6.8330  -6.8330   4.1222   4.1222   4.1865   4.1865
     5.2170   5.2170   5.3104   5.3104   5.8002   5.8002   5.9159   5.9159
     7.3474   7.3474   7.5293   7.5293   7.7939   7.7939   7.9808   7.9808
     8.3349   8.3349   8.8267   8.8267   9.3395   9.3395  10.3598  10.3598
    10.6816  10.6816  11.4919  11.4919

     occupation numbers
     1.0000   1.0000   1.0000   1.0000   1.0000   1.0000   1.0000   1.0000
     1.0000   1.0000   1.0000   1.0000   1.0000   1.0000   1.0000   1.0000
     1.0000   1.0000   1.0000   1.0000   1.0000   1.0000   1.0000   1.0000
     1.0000   1.0000   1.0000   1.0000   1.0000   1.0000   1.0000   1.0000
     1.0000   1.0000   1.0000   1.0000

     highest occupied level (ev):    12.7208

!    total energy              =    -722.76326039 Ry
     estimated scf accuracy    <          5.5E-10 Ry

     The total energy is the sum of the following terms:
     one-electron contribution =    -231.06034807 Ry
     hartree contribution      =     210.41488560 Ry
     xc contribution           =    -220.79979657 Ry
     ewald contribution        =    -481.31800134 Ry

     convergence has been achieved in  29 iterations

     Forces acting on atoms (cartesian axes, Ry/au):

     atom    1 type  1   force =     0.00001781    0.00001028   -0.12649126
     atom    2 type  1   force =    -0.00002201   -0.00001271   -0.12649898
     atom    3 type  2   force =    -0.00000320   -0.00000185    0.12649447
     atom    4 type  2   force =     0.00000003    0.00000002    0.12649580
     atom    5 type  1   force =     0.00001684    0.00000972   -0.12649760
     atom    6 type  1   force =    -0.00001281   -0.00000740   -0.12649181
     atom    7 type  2   force =     0.00000042    0.00000024    0.12649528
     atom    8 type  2   force =     0.00000292    0.00000169    0.12649411
     The non-local contrib.  to forces
     atom    1 type  1   force =    -0.00002189   -0.00001264   -0.29179536
     atom    2 type  1   force =     0.00002139    0.00001235   -0.29179632
     atom    3 type  2   force =    -0.00013814   -0.00007975   -0.15702973
     atom    4 type  2   force =     0.00013729    0.00007926   -0.15703048
     atom    5 type  1   force =    -0.00002312   -0.00001335   -0.29179604
     atom    6 type  1   force =     0.00002322    0.00001340   -0.29179567
     atom    7 type  2   force =    -0.00013544   -0.00007819   -0.15702991
     atom    8 type  2   force =     0.00013659    0.00007886   -0.15702978
     The ionic contribution  to forces
     atom    1 type  1   force =     0.00000000    0.00000001   -2.06565051
     atom    2 type  1   force =     0.00000002    0.00000000   -2.06565051
     atom    3 type  2   force =     0.00000000    0.00000001    2.06565051
     atom    4 type  2   force =     0.00000001   -0.00000000    2.06565051
     atom    5 type  1   force =    -0.00000000   -0.00000000   -2.06565051
     atom    6 type  1   force =    -0.00000002   -0.00000001   -2.06565051
     atom    7 type  2   force =    -0.00000000   -0.00000000    2.06565051
     atom    8 type  2   force =    -0.00000001   -0.00000000    2.06565051
     The local contribution  to forces
     atom    1 type  1   force =     0.00003558    0.00002054    2.20068399
     atom    2 type  1   force =    -0.00003437   -0.00001993    2.20068977
     atom    3 type  2   force =     0.00013434    0.00007756   -1.78281146
     atom    4 type  2   force =    -0.00013115   -0.00007574   -1.78280853
     atom    5 type  1   force =     0.00004199    0.00002424    2.20068711
     atom    6 type  1   force =    -0.00004254   -0.00002456    2.20068274
     atom    7 type  2   force =     0.00013130    0.00007581   -1.78280957
     atom    8 type  2   force =    -0.00013646   -0.00007879   -1.78281242
     The core correction contribution to forces
     atom    1 type  1   force =    -0.00000170   -0.00000098    0.03026337
     atom    2 type  1   force =     0.00000189    0.00000105    0.03026336
     atom    3 type  2   force =     0.00000159    0.00000092    0.00068924
     atom    4 type  2   force =    -0.00000156   -0.00000090    0.00068925
     atom    5 type  1   force =    -0.00000203   -0.00000114    0.03026340
     atom    6 type  1   force =     0.00000183    0.00000106    0.03026349
     atom    7 type  2   force =     0.00000154    0.00000089    0.00068924
     atom    8 type  2   force =    -0.00000158   -0.00000091    0.00068923
     The Hubbard contrib.    to forces
     atom    1 type  1   force =     0.00000000    0.00000000    0.00000000
     atom    2 type  1   force =     0.00000000    0.00000000    0.00000000
     atom    3 type  2   force =     0.00000000    0.00000000    0.00000000
     atom    4 type  2   force =     0.00000000    0.00000000    0.00000000
     atom    5 type  1   force =     0.00000000    0.00000000    0.00000000
     atom    6 type  1   force =     0.00000000    0.00000000    0.00000000
     atom    7 type  2   force =     0.00000000    0.00000000    0.00000000
     atom    8 type  2   force =     0.00000000    0.00000000    0.00000000
     The SCF correction term to forces
     atom    1 type  1   force =     0.00000578    0.00000334    0.00001087
     atom    2 type  1   force =    -0.00001090   -0.00000629   -0.00000167
     atom    3 type  2   force =    -0.00000103   -0.00000059   -0.00000046
     atom    4 type  2   force =    -0.00000456   -0.00000263   -0.00000132
     atom    5 type  1   force =    -0.00000003   -0.00000002    0.00000206
     atom    6 type  1   force =     0.00000467    0.00000270    0.00001176
     atom    7 type  2   force =     0.00000300    0.00000173   -0.00000136
     atom    8 type  2   force =     0.00000435    0.00000251    0.00000019

     Total force =     0.357782     Total SCF correction =     0.000024

     General routines

     Parallel routines

   This run was terminated on:  14: 3: 4  26Aug2025

   JOB DONE.
Note: The following floating-point exceptions are signalling: IEEE_DENORMAL