     Program PWSCF v.7.0 starts on 26Aug2025 at 18:23: 7

     K-points division:     npool     =       4
     band groups division:  nbgrp     =       4

     Reading input from /home/jvc/QEspresso7.2/ZnO_database/scripts/cell211.in/ZnO-3.27-1.45-211.in
Warning: card &CELL ignored
Warning: card / ignored
Warning: card &FCP ignored
Warning: card / ignored
Warning: card &RISM ignored
Warning: card / ignored

     Current dimensions of program PWSCF are:
     Max number of different atomic species (ntypx) = 10
     Max number of k-points (npk) =  40000
     Max angular momentum in pseudopotentials (lmaxx) =  4
     file Zn.upf: wavefunction(s)  3D renormalized
     Found identity + ( -0.5000  0.0000  0.0000) symmetry
     This is a supercell, fractional translations are disabled
     Message from routine setup:
     using ibrav=0 with symmetry is DISCOURAGED, use correct ibrav instead

     Subspace diagonalization in iterative solution of the eigenvalue problem:
     a serial algorithm will be used

     Using Slab Decomposition

     bravais-lattice index     =            0
     lattice parameter (alat)  =      12.3577  a.u.
     unit-cell volume          =     593.6451 (a.u.)^3
     number of atoms/cell      =            8
     number of atomic types    =            2
     number of electrons       =        72.00
     number of Kohn-Sham states=           36
     kinetic-energy cutoff     =      50.0000  Ry
     charge density cutoff     =     400.0000  Ry
     scf convergence threshold =      1.0E-08
     mixing beta               =       0.3000
     number of iterations used =            8  plain     mixing
     Exchange-correlation= PBE
                           (   1   4   3   4   0   0   0)

     celldm(1)=  12.357708  celldm(2)=   0.000000  celldm(3)=   0.000000
     celldm(4)=   0.000000  celldm(5)=   0.000000  celldm(6)=   0.000000

     crystal axes: (cart. coord. in units of alat)
               a(1) = (   1.000000   0.000000   0.000000 )
               a(2) = (  -0.250000   0.433013   0.000000 )
               a(3) = (   0.000000   0.000000   0.726461 )

     reciprocal axes: (cart. coord. in units 2 pi/alat)
               b(1) = (  1.000000  0.577350 -0.000000 )
               b(2) = (  0.000000  2.309401  0.000000 )
               b(3) = (  0.000000 -0.000000  1.376536 )

     PseudoPot. # 1 for Zn read from file:
     /home/jvc/QEspresso7.2/ZnO_database/pseudos/Zn.upf
     MD5 check sum: 7f56cabf9682ed8c977c2f7d0c5985c5
     Pseudo is Ultrasoft + core correction, Zval = 12.0
     Generated using &quot;atomic&quot; code by A. Dal Corso  v.6.2.2
     Using radial grid of 1201 points,  6 beta functions with:
                l(1) =   0
                l(2) =   0
                l(3) =   1
                l(4) =   1
                l(5) =   2
                l(6) =   2
     Q(r) pseudized with 0 coefficients

     PseudoPot. # 2 for O  read from file:
     /home/jvc/QEspresso7.2/ZnO_database/pseudos/O.upf
     MD5 check sum: 91400c9766925bcf19f520983a725ff0
     Pseudo is Ultrasoft + core correction, Zval =  6.0
     Generated using &quot;atomic&quot; code by A. Dal Corso  v.6.3MaX
     Using radial grid of 1095 points,  4 beta functions with:
                l(1) =   0
                l(2) =   0
                l(3) =   1
                l(4) =   1
     Q(r) pseudized with 0 coefficients

     atomic species   valence    mass     pseudopotential
        Zn            12.00    65.38000     Zn( 1.00)
        O              6.00    15.99900     O ( 1.00)

      2 Sym. Ops. (no inversion) found

                                    s                        frac. trans.

      isym =  1     identity

 cryst.   s( 1) = (     1          0          0      )
                  (     0          1          0      )
                  (     0          0          1      )

 cart.    s( 1) = (  1.0000000  0.0000000  0.0000000 )
                  (  0.0000000  1.0000000  0.0000000 )
                  (  0.0000000  0.0000000  1.0000000 )

      isym =  2     inv. 180 deg rotation - cryst. axis [0,1,0]

 cryst.   s( 2) = (     1          2          0      )
                  (     0         -1          0      )
                  (     0          0          1      )

 cart.    s( 2) = (  0.5000000  0.8660254  0.0000000 )
                  (  0.8660254 -0.5000000  0.0000000 )
                  (  0.0000000  0.0000000  1.0000000 )

   Cartesian axes

     site n.     atom                  positions (alat units)
         1           Zn  tau(   1) = (   0.2500000   0.1443376   0.3636909  )
         2           Zn  tau(   2) = (  -0.0000000   0.2886751   0.0004603  )
         3           O   tau(   3) = (   0.2500000   0.1443376   0.6390508  )
         4           O   tau(   4) = (  -0.0000000   0.2886751   0.2758202  )
         5           Zn  tau(   5) = (   0.7500000   0.1443376   0.3636909  )
         6           Zn  tau(   6) = (   0.5000000   0.2886751   0.0004603  )
         7           O   tau(   7) = (   0.7500000   0.1443376   0.6390508  )
         8           O   tau(   8) = (   0.5000000   0.2886751   0.2758202  )

   Crystallographic axes

     site n.     atom                  positions (cryst. coord.)
         1           Zn  tau(   1) = (  0.3333333  0.3333333  0.5006336  )
         2           Zn  tau(   2) = (  0.1666667  0.6666667  0.0006336  )
         3           O   tau(   3) = (  0.3333333  0.3333333  0.8796764  )
         4           O   tau(   4) = (  0.1666667  0.6666667  0.3796764  )
         5           Zn  tau(   5) = (  0.8333333  0.3333333  0.5006336  )
         6           Zn  tau(   6) = (  0.6666667  0.6666667  0.0006336  )
         7           O   tau(   7) = (  0.8333333  0.3333333  0.8796764  )
         8           O   tau(   8) = (  0.6666667  0.6666667  0.3796764  )

     number of k points=    80
                       cart. coord. in units 2pi/alat
        k(    1) = (   0.0000000   0.0000000   0.0000000), wk =   0.0092593
        k(    2) = (   0.0000000   0.0000000   0.2294226), wk =   0.0185185
        k(    3) = (   0.0000000   0.0000000   0.4588453), wk =   0.0185185
        k(    4) = (   0.0000000   0.0000000  -0.6882679), wk =   0.0092593
        k(    5) = (   0.0000000   0.3849002   0.0000000), wk =   0.0370370
        k(    6) = (   0.0000000   0.3849002   0.2294226), wk =   0.0370370
        k(    7) = (   0.0000000   0.3849002   0.4588453), wk =   0.0370370
        k(    8) = (   0.0000000   0.3849002  -0.6882679), wk =   0.0370370
        k(    9) = (   0.0000000   0.7698004   0.0000000), wk =   0.0370370
        k(   10) = (   0.0000000   0.7698004   0.2294226), wk =   0.0370370
        k(   11) = (   0.0000000   0.7698004   0.4588453), wk =   0.0370370
        k(   12) = (   0.0000000   0.7698004  -0.6882679), wk =   0.0370370
        k(   13) = (   0.0000000  -1.1547005   0.0000000), wk =   0.0092593
        k(   14) = (   0.0000000  -1.1547005   0.2294226), wk =   0.0185185
        k(   15) = (   0.0000000  -1.1547005   0.4588453), wk =   0.0185185
        k(   16) = (   0.0000000  -1.1547005  -0.6882679), wk =   0.0092593
        k(   17) = (   0.1666667   0.0962250   0.0000000), wk =   0.0185185
        k(   18) = (   0.1666667   0.0962250   0.2294226), wk =   0.0185185
        k(   19) = (   0.1666667   0.0962250   0.4588453), wk =   0.0185185
        k(   20) = (   0.1666667   0.0962250  -0.6882679), wk =   0.0185185
        k(   21) = (   0.1666667   0.4811252   0.0000000), wk =   0.0370370
        k(   22) = (   0.1666667   0.4811252   0.2294226), wk =   0.0370370
        k(   23) = (   0.1666667   0.4811252   0.4588453), wk =   0.0370370
        k(   24) = (   0.1666667   0.4811252  -0.6882679), wk =   0.0370370
        k(   25) = (   0.1666667   0.8660254   0.0000000), wk =   0.0185185
        k(   26) = (   0.1666667   0.8660254   0.2294226), wk =   0.0370370
        k(   27) = (   0.1666667   0.8660254   0.4588453), wk =   0.0370370
        k(   28) = (   0.1666667   0.8660254  -0.6882679), wk =   0.0185185
        k(   29) = (   0.1666667  -1.0584755   0.0000000), wk =   0.0185185
        k(   30) = (   0.1666667  -1.0584755   0.2294226), wk =   0.0185185
        k(   31) = (   0.1666667  -1.0584755   0.4588453), wk =   0.0185185
        k(   32) = (   0.1666667  -1.0584755  -0.6882679), wk =   0.0185185
        k(   33) = (   0.1666667  -0.6735753   0.0000000), wk =   0.0370370
        k(   34) = (   0.1666667  -0.6735753   0.2294226), wk =   0.0370370
        k(   35) = (   0.1666667  -0.6735753   0.4588453), wk =   0.0370370
        k(   36) = (   0.1666667  -0.6735753  -0.6882679), wk =   0.0370370
        k(   37) = (   0.1666667  -0.2886751   0.0000000), wk =   0.0185185
        k(   38) = (   0.1666667  -0.2886751   0.2294226), wk =   0.0370370
        k(   39) = (   0.1666667  -0.2886751   0.4588453), wk =   0.0370370
        k(   40) = (   0.1666667  -0.2886751  -0.6882679), wk =   0.0185185
        k(   41) = (   0.3333333   0.1924501   0.0000000), wk =   0.0185185
        k(   42) = (   0.3333333   0.1924501   0.2294226), wk =   0.0185185
        k(   43) = (   0.3333333   0.1924501   0.4588453), wk =   0.0185185
        k(   44) = (   0.3333333   0.1924501  -0.6882679), wk =   0.0185185
        k(   45) = (   0.3333333   0.5773503   0.0000000), wk =   0.0185185
        k(   46) = (   0.3333333   0.5773503   0.2294226), wk =   0.0370370
        k(   47) = (   0.3333333   0.5773503   0.4588453), wk =   0.0370370
        k(   48) = (   0.3333333   0.5773503  -0.6882679), wk =   0.0185185
        k(   49) = (   0.3333333  -0.9622504   0.0000000), wk =   0.0185185
        k(   50) = (   0.3333333  -0.9622504   0.2294226), wk =   0.0185185
        k(   51) = (   0.3333333  -0.9622504   0.4588453), wk =   0.0185185
        k(   52) = (   0.3333333  -0.9622504  -0.6882679), wk =   0.0185185
        k(   53) = (   0.3333333  -0.5773503   0.0000000), wk =   0.0185185
        k(   54) = (   0.3333333  -0.5773503   0.2294226), wk =   0.0370370
        k(   55) = (   0.3333333  -0.5773503   0.4588453), wk =   0.0370370
        k(   56) = (   0.3333333  -0.5773503  -0.6882679), wk =   0.0185185
        k(   57) = (  -0.5000000  -0.2886751   0.0000000), wk =   0.0092593
        k(   58) = (  -0.5000000  -0.2886751   0.2294226), wk =   0.0185185
        k(   59) = (  -0.5000000  -0.2886751   0.4588453), wk =   0.0185185
        k(   60) = (  -0.5000000  -0.2886751  -0.6882679), wk =   0.0092593
[...]
        k(   66) = (   0.3333333  -0.1924501  -0.4588453), wk =   0.0370370
        k(   67) = (   0.6666667  -0.3849002  -0.2294226), wk =   0.0370370
        k(   68) = (   0.6666667  -0.3849002  -0.4588453), wk =   0.0370370
        k(   69) = (   0.1666667   0.0962250  -0.2294226), wk =   0.0185185
        k(   70) = (   0.1666667   0.0962250  -0.4588453), wk =   0.0185185
        k(   71) = (   0.5000000  -0.0962250  -0.2294226), wk =   0.0370370
        k(   72) = (   0.5000000  -0.0962250  -0.4588453), wk =   0.0370370
        k(   73) = (  -0.8333333   0.6735753  -0.2294226), wk =   0.0185185
        k(   74) = (  -0.8333333   0.6735753  -0.4588453), wk =   0.0185185
        k(   75) = (  -0.5000000   0.4811252  -0.2294226), wk =   0.0370370
        k(   76) = (  -0.5000000   0.4811252  -0.4588453), wk =   0.0370370
        k(   77) = (   0.3333333   0.1924501  -0.2294226), wk =   0.0185185
        k(   78) = (   0.3333333   0.1924501  -0.4588453), wk =   0.0185185
        k(   79) = (  -0.6666667   0.7698004  -0.2294226), wk =   0.0185185
        k(   80) = (  -0.6666667   0.7698004  -0.4588453), wk =   0.0185185

                       cryst. coord.
        k(    1) = (   0.0000000   0.0000000   0.0000000), wk =   0.0092593
        k(    2) = (   0.0000000   0.0000000   0.1666667), wk =   0.0185185
        k(    3) = (   0.0000000   0.0000000   0.3333333), wk =   0.0185185
        k(    4) = (   0.0000000   0.0000000  -0.5000000), wk =   0.0092593
        k(    5) = (   0.0000000   0.1666667   0.0000000), wk =   0.0370370
        k(    6) = (   0.0000000   0.1666667   0.1666667), wk =   0.0370370
        k(    7) = (   0.0000000   0.1666667   0.3333333), wk =   0.0370370
        k(    8) = (   0.0000000   0.1666667  -0.5000000), wk =   0.0370370
        k(    9) = (   0.0000000   0.3333333   0.0000000), wk =   0.0370370
        k(   10) = (   0.0000000   0.3333333   0.1666667), wk =   0.0370370
        k(   11) = (   0.0000000   0.3333333   0.3333333), wk =   0.0370370
        k(   12) = (   0.0000000   0.3333333  -0.5000000), wk =   0.0370370
        k(   13) = (   0.0000000  -0.5000000   0.0000000), wk =   0.0092593
        k(   14) = (   0.0000000  -0.5000000   0.1666667), wk =   0.0185185
        k(   15) = (   0.0000000  -0.5000000   0.3333333), wk =   0.0185185
        k(   16) = (   0.0000000  -0.5000000  -0.5000000), wk =   0.0092593
        k(   17) = (   0.1666667  -0.0000000   0.0000000), wk =   0.0185185
        k(   18) = (   0.1666667  -0.0000000   0.1666667), wk =   0.0185185
        k(   19) = (   0.1666667  -0.0000000   0.3333333), wk =   0.0185185
        k(   20) = (   0.1666667  -0.0000000  -0.5000000), wk =   0.0185185
        k(   21) = (   0.1666667   0.1666667   0.0000000), wk =   0.0370370
        k(   22) = (   0.1666667   0.1666667   0.1666667), wk =   0.0370370
        k(   23) = (   0.1666667   0.1666667   0.3333333), wk =   0.0370370
        k(   24) = (   0.1666667   0.1666667  -0.5000000), wk =   0.0370370
        k(   25) = (   0.1666667   0.3333333   0.0000000), wk =   0.0185185
        k(   26) = (   0.1666667   0.3333333   0.1666667), wk =   0.0370370
        k(   27) = (   0.1666667   0.3333333   0.3333333), wk =   0.0370370
        k(   28) = (   0.1666667   0.3333333  -0.5000000), wk =   0.0185185
        k(   29) = (   0.1666667  -0.5000000   0.0000000), wk =   0.0185185
        k(   30) = (   0.1666667  -0.5000000   0.1666667), wk =   0.0185185
        k(   31) = (   0.1666667  -0.5000000   0.3333333), wk =   0.0185185
        k(   32) = (   0.1666667  -0.5000000  -0.5000000), wk =   0.0185185
        k(   33) = (   0.1666667  -0.3333333   0.0000000), wk =   0.0370370
        k(   34) = (   0.1666667  -0.3333333   0.1666667), wk =   0.0370370
        k(   35) = (   0.1666667  -0.3333333   0.3333333), wk =   0.0370370
        k(   36) = (   0.1666667  -0.3333333  -0.5000000), wk =   0.0370370
        k(   37) = (   0.1666667  -0.1666667   0.0000000), wk =   0.0185185
        k(   38) = (   0.1666667  -0.1666667   0.1666667), wk =   0.0370370
        k(   39) = (   0.1666667  -0.1666667   0.3333333), wk =   0.0370370
        k(   40) = (   0.1666667  -0.1666667  -0.5000000), wk =   0.0185185
        k(   41) = (   0.3333333  -0.0000000   0.0000000), wk =   0.0185185
        k(   42) = (   0.3333333  -0.0000000   0.1666667), wk =   0.0185185
        k(   43) = (   0.3333333  -0.0000000   0.3333333), wk =   0.0185185
        k(   44) = (   0.3333333  -0.0000000  -0.5000000), wk =   0.0185185
        k(   45) = (   0.3333333   0.1666667   0.0000000), wk =   0.0185185
        k(   46) = (   0.3333333   0.1666667   0.1666667), wk =   0.0370370
        k(   47) = (   0.3333333   0.1666667   0.3333333), wk =   0.0370370
        k(   48) = (   0.3333333   0.1666667  -0.5000000), wk =   0.0185185
        k(   49) = (   0.3333333  -0.5000000   0.0000000), wk =   0.0185185
        k(   50) = (   0.3333333  -0.5000000   0.1666667), wk =   0.0185185
        k(   51) = (   0.3333333  -0.5000000   0.3333333), wk =   0.0185185
        k(   52) = (   0.3333333  -0.5000000  -0.5000000), wk =   0.0185185
        k(   53) = (   0.3333333  -0.3333333   0.0000000), wk =   0.0185185
        k(   54) = (   0.3333333  -0.3333333   0.1666667), wk =   0.0370370
        k(   55) = (   0.3333333  -0.3333333   0.3333333), wk =   0.0370370
        k(   56) = (   0.3333333  -0.3333333  -0.5000000), wk =   0.0185185
        k(   57) = (  -0.5000000   0.0000000   0.0000000), wk =   0.0092593
        k(   58) = (  -0.5000000   0.0000000   0.1666667), wk =   0.0185185
        k(   59) = (  -0.5000000   0.0000000   0.3333333), wk =   0.0185185
        k(   60) = (  -0.5000000   0.0000000  -0.5000000), wk =   0.0092593
[...]
        k(   66) = (   0.3333333  -0.1666667  -0.3333333), wk =   0.0370370
        k(   67) = (   0.6666667  -0.3333333  -0.1666667), wk =   0.0370370
        k(   68) = (   0.6666667  -0.3333333  -0.3333333), wk =   0.0370370
        k(   69) = (   0.1666667   0.0000000  -0.1666667), wk =   0.0185185
        k(   70) = (   0.1666667   0.0000000  -0.3333333), wk =   0.0185185
        k(   71) = (   0.5000000  -0.1666667  -0.1666667), wk =   0.0370370
        k(   72) = (   0.5000000  -0.1666667  -0.3333333), wk =   0.0370370
        k(   73) = (  -0.8333333   0.5000000  -0.1666667), wk =   0.0185185
        k(   74) = (  -0.8333333   0.5000000  -0.3333333), wk =   0.0185185
        k(   75) = (  -0.5000000   0.3333333  -0.1666667), wk =   0.0370370
        k(   76) = (  -0.5000000   0.3333333  -0.3333333), wk =   0.0370370
        k(   77) = (   0.3333333   0.0000000  -0.1666667), wk =   0.0185185
        k(   78) = (   0.3333333   0.0000000  -0.3333333), wk =   0.0185185
        k(   79) = (  -0.6666667   0.5000000  -0.1666667), wk =   0.0185185
        k(   80) = (  -0.6666667   0.5000000  -0.3333333), wk =   0.0185185

     Check: negative core charge=   -0.000002

     Initial potential from superposition of free atoms

     starting charge      71.9851, renormalised to      72.0000
     Starting wfcs are   52 randomized atomic wfcs

     Self-consistent Calculation

     iteration #  1     ecut=    50.00 Ry     beta= 0.30
     Davidson diagonalization with overlap

     ethr =  1.00E-02,  avg # of iterations =  2.0

     total energy              =    -722.88277422 Ry
     estimated scf accuracy    <       1.38620081 Ry

[...]

     c_bands:  1 eigenvalues not converged
     c_bands:  1 eigenvalues not converged
     ethr =  4.08E-09,  avg # of iterations = 11.6

[...]

     total energy              =    -723.18217702 Ry
     estimated scf accuracy    <       0.00000003 Ry

     iteration # 22     ecut=    50.00 Ry     beta= 0.30
     Davidson diagonalization with overlap

     ethr =  1.81E-11,  avg # of iterations =  4.6

     End of self-consistent calculation

          k = 0.0000 0.0000 0.0000 (  3505 PWs)   bands (ev):

   -10.2875  -9.5373  -9.2551  -9.2146   2.0784   2.3221   2.4328   2.4423
     2.4425   2.4571   2.6518   2.7292   2.7293   2.8632   3.1071   3.3948
     3.7735   3.7736   3.8455   4.0081   4.1040   4.1041   4.1761   4.2205
     4.3483   4.7774   4.9191   5.5182   5.5907   7.2101   7.2502   7.2504
     7.6656   8.4288   8.4290   8.5214

     occupation numbers
     1.0000   1.0000   1.0000   1.0000   1.0000   1.0000   1.0000   1.0000
     1.0000   1.0000   1.0000   1.0000   1.0000   1.0000   1.0000   1.0000
     1.0000   1.0000   1.0000   1.0000   1.0000   1.0000   1.0000   1.0000
     1.0000   1.0000   1.0000   1.0000   1.0000   1.0000   1.0000   1.0000
     1.0000   1.0000   1.0000   1.0000

[...]

          k =-0.5000-0.2887 0.0000 (  3540 PWs)   bands (ev):

[...]

          k = 0.3333 0.1925-0.4588 (  3535 PWs)   bands (ev):

[...]

          k =-0.6667 0.7698-0.4588 (  3566 PWs)   bands (ev):

    -9.4425  -9.4425  -9.2716  -9.2716   1.9069   1.9069   1.9776   1.9776
     2.6301   2.6301   2.7424   2.7424   2.9828   2.9828   3.0950   3.0950
     3.9016   3.9016   3.9910   3.9910   4.1732   4.1732   4.2955   4.2955
     4.7392   4.7392   5.1148   5.1148   5.7580   5.7580   6.7342   6.7342
     6.9189   6.9189   7.6247   7.6247

     occupation numbers
     1.0000   1.0000   1.0000   1.0000   1.0000   1.0000   1.0000   1.0000
     1.0000   1.0000   1.0000   1.0000   1.0000   1.0000   1.0000   1.0000
     1.0000   1.0000   1.0000   1.0000   1.0000   1.0000   1.0000   1.0000
     1.0000   1.0000   1.0000   1.0000   1.0000   1.0000   1.0000   1.0000
     1.0000   1.0000   1.0000   1.0000

     highest occupied level (ev):     8.5214

!    total energy              =    -723.18217702 Ry
     estimated scf accuracy    <          6.3E-10 Ry

     The total energy is the sum of the following terms:
     one-electron contribution =    -287.59298812 Ry
     hartree contribution      =     229.51915057 Ry
     xc contribution           =    -219.59101863 Ry
     ewald contribution        =    -445.51732084 Ry

     convergence has been achieved in  22 iterations

     Forces acting on atoms (cartesian axes, Ry/au):

     atom    1 type  1   force =     0.00001240    0.00000716   -0.07695447
     atom    2 type  1   force =    -0.00001029   -0.00000594   -0.07695600
     atom    3 type  2   force =     0.00000014    0.00000008    0.07695701
     atom    4 type  2   force =     0.00000030    0.00000018    0.07695716
     atom    5 type  1   force =     0.00000826    0.00000477   -0.07695879
     atom    6 type  1   force =    -0.00001079   -0.00000623   -0.07695876
     atom    7 type  2   force =     0.00000002    0.00000001    0.07695701
     atom    8 type  2   force =    -0.00000006   -0.00000003    0.07695684
     The non-local contrib.  to forces
     atom    1 type  1   force =    -0.00001013   -0.00000585   -0.32963689
     atom    2 type  1   force =     0.00001127    0.00000651   -0.32963764
     atom    3 type  2   force =    -0.00015184   -0.00008767   -0.22254664
     atom    4 type  2   force =     0.00015170    0.00008758   -0.22254606
     atom    5 type  1   force =    -0.00001055   -0.00000609   -0.32963790
     atom    6 type  1   force =     0.00001078    0.00000623   -0.32963832
     atom    7 type  2   force =    -0.00015132   -0.00008736   -0.22254649
     atom    8 type  2   force =     0.00015073    0.00008703   -0.22254660
     The ionic contribution  to forces
     atom    1 type  1   force =     0.00000000    0.00000001   -2.26018997
     atom    2 type  1   force =     0.00000001    0.00000000   -2.26018997
     atom    3 type  2   force =     0.00000000    0.00000001    2.26018997
     atom    4 type  2   force =     0.00000001   -0.00000000    2.26018997
     atom    5 type  1   force =    -0.00000000   -0.00000000   -2.26018997
     atom    6 type  1   force =    -0.00000001   -0.00000001   -2.26018997
     atom    7 type  2   force =    -0.00000000   -0.00000000    2.26018997
     atom    8 type  2   force =    -0.00000001   -0.00000000    2.26018997
     The local contribution  to forces
     atom    1 type  1   force =     0.00002108    0.00001217    2.48517536
     atom    2 type  1   force =    -0.00002456   -0.00001428    2.48517819
     atom    3 type  2   force =     0.00015116    0.00008727   -1.96213298
     atom    4 type  2   force =    -0.00015024   -0.00008677   -1.96213368
     atom    5 type  1   force =     0.00002489    0.00001437    2.48517973
     atom    6 type  1   force =    -0.00002287   -0.00001320    2.48517924
     atom    7 type  2   force =     0.00015061    0.00008696   -1.96213434
     atom    8 type  2   force =    -0.00014967   -0.00008641   -1.96213610
     The core correction contribution to forces
     atom    1 type  1   force =    -0.00000237   -0.00000137    0.02768841
     atom    2 type  1   force =     0.00000241    0.00000138    0.02768833
     atom    3 type  2   force =     0.00000176    0.00000102    0.00144868
     atom    4 type  2   force =    -0.00000176   -0.00000101    0.00144867
     atom    5 type  1   force =    -0.00000242   -0.00000140    0.02768838
     atom    6 type  1   force =     0.00000235    0.00000136    0.02768843
     atom    7 type  2   force =     0.00000175    0.00000101    0.00144867
     atom    8 type  2   force =    -0.00000174   -0.00000100    0.00144867
     The Hubbard contrib.    to forces
     atom    1 type  1   force =     0.00000000    0.00000000    0.00000000
     atom    2 type  1   force =     0.00000000    0.00000000    0.00000000
     atom    3 type  2   force =     0.00000000    0.00000000    0.00000000
     atom    4 type  2   force =     0.00000000    0.00000000    0.00000000
     atom    5 type  1   force =     0.00000000    0.00000000    0.00000000
     atom    6 type  1   force =     0.00000000    0.00000000    0.00000000
     atom    7 type  2   force =     0.00000000    0.00000000    0.00000000
     atom    8 type  2   force =     0.00000000    0.00000000    0.00000000
     The SCF correction term to forces
     atom    1 type  1   force =     0.00000388    0.00000224    0.00000863
     atom    2 type  1   force =     0.00000071    0.00000041    0.00000510
     atom    3 type  2   force =    -0.00000086   -0.00000050   -0.00000201
     atom    4 type  2   force =     0.00000068    0.00000039   -0.00000172
     atom    5 type  1   force =    -0.00000358   -0.00000207    0.00000097
     atom    6 type  1   force =    -0.00000096   -0.00000056    0.00000187
     atom    7 type  2   force =    -0.00000094   -0.00000054   -0.00000079
     atom    8 type  2   force =     0.00000070    0.00000040    0.00000091

     Total force =     0.217667     Total SCF correction =     0.000012

     General routines

     Parallel routines

   This run was terminated on:  18:29: 6  26Aug2025

   JOB DONE.