     Program PWSCF v.7.0 starts on 26Aug2025 at 20:19:42

     K-points division:     npool     =       4
     band groups division:  nbgrp     =       4

     Reading input from /home/jvc/QEspresso7.2/ZnO_database/scripts/cell211.in/ZnO-3.34-1.55-211.in
Warning: card &CELL ignored
Warning: card / ignored
Warning: card &FCP ignored
Warning: card / ignored
Warning: card &RISM ignored
Warning: card / ignored

     Current dimensions of program PWSCF are:
     Max number of different atomic species (ntypx) = 10
     Max number of k-points (npk) =  40000
     Max angular momentum in pseudopotentials (lmaxx) =  4
     file Zn.upf: wavefunction(s)  3D renormalized
     Found identity + ( -0.5000  0.0000  0.0000) symmetry
     This is a supercell, fractional translations are disabled
     Message from routine setup:
     using ibrav=0 with symmetry is DISCOURAGED, use correct ibrav instead

     Subspace diagonalization in iterative solution of the eigenvalue problem:
     a serial algorithm will be used

     Using Slab Decomposition

     bravais-lattice index     =            0
     lattice parameter (alat)  =      12.6049  a.u.
     unit-cell volume          =     671.9796 (a.u.)^3
     number of atoms/cell      =            8
     number of atomic types    =            2
     number of electrons       =        72.00
     number of Kohn-Sham states=           36
     kinetic-energy cutoff     =      50.0000  Ry
     charge density cutoff     =     400.0000  Ry
     scf convergence threshold =      1.0E-08
     mixing beta               =       0.3000
     number of iterations used =            8  plain     mixing
     Exchange-correlation= PBE
                           (   1   4   3   4   0   0   0)

     celldm(1)=  12.604862  celldm(2)=   0.000000  celldm(3)=   0.000000
     celldm(4)=   0.000000  celldm(5)=   0.000000  celldm(6)=   0.000000

     crystal axes: (cart. coord. in units of alat)
               a(1) = (   1.000000   0.000000   0.000000 )
               a(2) = (  -0.250000   0.433013   0.000000 )
               a(3) = (   0.000000   0.000000   0.774892 )

     reciprocal axes: (cart. coord. in units 2 pi/alat)
               b(1) = (  1.000000  0.577350 -0.000000 )
               b(2) = (  0.000000  2.309401  0.000000 )
               b(3) = (  0.000000 -0.000000  1.290502 )

     PseudoPot. # 1 for Zn read from file:
     /home/jvc/QEspresso7.2/ZnO_database/pseudos/Zn.upf
     MD5 check sum: 7f56cabf9682ed8c977c2f7d0c5985c5
     Pseudo is Ultrasoft + core correction, Zval = 12.0
     Generated using &quot;atomic&quot; code by A. Dal Corso  v.6.2.2
     Using radial grid of 1201 points,  6 beta functions with:
                l(1) =   0
                l(2) =   0
                l(3) =   1
                l(4) =   1
                l(5) =   2
                l(6) =   2
     Q(r) pseudized with 0 coefficients

     PseudoPot. # 2 for O  read from file:
     /home/jvc/QEspresso7.2/ZnO_database/pseudos/O.upf
     MD5 check sum: 91400c9766925bcf19f520983a725ff0
     Pseudo is Ultrasoft + core correction, Zval =  6.0
     Generated using &quot;atomic&quot; code by A. Dal Corso  v.6.3MaX
     Using radial grid of 1095 points,  4 beta functions with:
                l(1) =   0
                l(2) =   0
                l(3) =   1
                l(4) =   1
     Q(r) pseudized with 0 coefficients

     atomic species   valence    mass     pseudopotential
        Zn            12.00    65.38000     Zn( 1.00)
        O              6.00    15.99900     O ( 1.00)

      2 Sym. Ops. (no inversion) found

                                    s                        frac. trans.

      isym =  1     identity

 cryst.   s( 1) = (     1          0          0      )
                  (     0          1          0      )
                  (     0          0          1      )

 cart.    s( 1) = (  1.0000000  0.0000000  0.0000000 )
                  (  0.0000000  1.0000000  0.0000000 )
                  (  0.0000000  0.0000000  1.0000000 )

      isym =  2     inv. 180 deg rotation - cryst. axis [0,1,0]

 cryst.   s( 2) = (     1          2          0      )
                  (     0         -1          0      )
                  (     0          0          1      )

 cart.    s( 2) = (  0.5000000  0.8660254  0.0000000 )
                  (  0.8660254 -0.5000000  0.0000000 )
                  (  0.0000000  0.0000000  1.0000000 )

   Cartesian axes

     site n.     atom                  positions (alat units)
         1           Zn  tau(   1) = (   0.2500000   0.1443376   0.3879370  )
         2           Zn  tau(   2) = (  -0.0000000   0.2886751   0.0004910  )
         3           O   tau(   3) = (   0.2500000   0.1443376   0.6816542  )
         4           O   tau(   4) = (  -0.0000000   0.2886751   0.2942082  )
         5           Zn  tau(   5) = (   0.7500000   0.1443376   0.3879370  )
         6           Zn  tau(   6) = (   0.5000000   0.2886751   0.0004910  )
         7           O   tau(   7) = (   0.7500000   0.1443376   0.6816542  )
         8           O   tau(   8) = (   0.5000000   0.2886751   0.2942082  )

   Crystallographic axes

     site n.     atom                  positions (cryst. coord.)
         1           Zn  tau(   1) = (  0.3333333  0.3333333  0.5006336  )
         2           Zn  tau(   2) = (  0.1666667  0.6666667  0.0006336  )
         3           O   tau(   3) = (  0.3333333  0.3333333  0.8796764  )
         4           O   tau(   4) = (  0.1666667  0.6666667  0.3796764  )
         5           Zn  tau(   5) = (  0.8333333  0.3333333  0.5006336  )
         6           Zn  tau(   6) = (  0.6666667  0.6666667  0.0006336  )
         7           O   tau(   7) = (  0.8333333  0.3333333  0.8796764  )
         8           O   tau(   8) = (  0.6666667  0.6666667  0.3796764  )

     number of k points=    80
                       cart. coord. in units 2pi/alat
        k(    1) = (   0.0000000   0.0000000   0.0000000), wk =   0.0092593
        k(    2) = (   0.0000000   0.0000000   0.2150837), wk =   0.0185185
        k(    3) = (   0.0000000   0.0000000   0.4301675), wk =   0.0185185
        k(    4) = (   0.0000000   0.0000000  -0.6452512), wk =   0.0092593
        k(    5) = (   0.0000000   0.3849002   0.0000000), wk =   0.0370370
        k(    6) = (   0.0000000   0.3849002   0.2150837), wk =   0.0370370
        k(    7) = (   0.0000000   0.3849002   0.4301675), wk =   0.0370370
        k(    8) = (   0.0000000   0.3849002  -0.6452512), wk =   0.0370370
        k(    9) = (   0.0000000   0.7698004   0.0000000), wk =   0.0370370
        k(   10) = (   0.0000000   0.7698004   0.2150837), wk =   0.0370370
        k(   11) = (   0.0000000   0.7698004   0.4301675), wk =   0.0370370
        k(   12) = (   0.0000000   0.7698004  -0.6452512), wk =   0.0370370
        k(   13) = (   0.0000000  -1.1547005   0.0000000), wk =   0.0092593
        k(   14) = (   0.0000000  -1.1547005   0.2150837), wk =   0.0185185
        k(   15) = (   0.0000000  -1.1547005   0.4301675), wk =   0.0185185
        k(   16) = (   0.0000000  -1.1547005  -0.6452512), wk =   0.0092593
        k(   17) = (   0.1666667   0.0962250   0.0000000), wk =   0.0185185
        k(   18) = (   0.1666667   0.0962250   0.2150837), wk =   0.0185185
        k(   19) = (   0.1666667   0.0962250   0.4301675), wk =   0.0185185
        k(   20) = (   0.1666667   0.0962250  -0.6452512), wk =   0.0185185
        k(   21) = (   0.1666667   0.4811252   0.0000000), wk =   0.0370370
        k(   22) = (   0.1666667   0.4811252   0.2150837), wk =   0.0370370
        k(   23) = (   0.1666667   0.4811252   0.4301675), wk =   0.0370370
        k(   24) = (   0.1666667   0.4811252  -0.6452512), wk =   0.0370370
        k(   25) = (   0.1666667   0.8660254   0.0000000), wk =   0.0185185
        k(   26) = (   0.1666667   0.8660254   0.2150837), wk =   0.0370370
        k(   27) = (   0.1666667   0.8660254   0.4301675), wk =   0.0370370
        k(   28) = (   0.1666667   0.8660254  -0.6452512), wk =   0.0185185
        k(   29) = (   0.1666667  -1.0584755   0.0000000), wk =   0.0185185
        k(   30) = (   0.1666667  -1.0584755   0.2150837), wk =   0.0185185
        k(   31) = (   0.1666667  -1.0584755   0.4301675), wk =   0.0185185
        k(   32) = (   0.1666667  -1.0584755  -0.6452512), wk =   0.0185185
        k(   33) = (   0.1666667  -0.6735753   0.0000000), wk =   0.0370370
        k(   34) = (   0.1666667  -0.6735753   0.2150837), wk =   0.0370370
        k(   35) = (   0.1666667  -0.6735753   0.4301675), wk =   0.0370370
        k(   36) = (   0.1666667  -0.6735753  -0.6452512), wk =   0.0370370
        k(   37) = (   0.1666667  -0.2886751   0.0000000), wk =   0.0185185
        k(   38) = (   0.1666667  -0.2886751   0.2150837), wk =   0.0370370
        k(   39) = (   0.1666667  -0.2886751   0.4301675), wk =   0.0370370
        k(   40) = (   0.1666667  -0.2886751  -0.6452512), wk =   0.0185185
        k(   41) = (   0.3333333   0.1924501   0.0000000), wk =   0.0185185
        k(   42) = (   0.3333333   0.1924501   0.2150837), wk =   0.0185185
        k(   43) = (   0.3333333   0.1924501   0.4301675), wk =   0.0185185
        k(   44) = (   0.3333333   0.1924501  -0.6452512), wk =   0.0185185
        k(   45) = (   0.3333333   0.5773503   0.0000000), wk =   0.0185185
        k(   46) = (   0.3333333   0.5773503   0.2150837), wk =   0.0370370
        k(   47) = (   0.3333333   0.5773503   0.4301675), wk =   0.0370370
        k(   48) = (   0.3333333   0.5773503  -0.6452512), wk =   0.0185185
        k(   49) = (   0.3333333  -0.9622504   0.0000000), wk =   0.0185185
        k(   50) = (   0.3333333  -0.9622504   0.2150837), wk =   0.0185185
        k(   51) = (   0.3333333  -0.9622504   0.4301675), wk =   0.0185185
        k(   52) = (   0.3333333  -0.9622504  -0.6452512), wk =   0.0185185
        k(   53) = (   0.3333333  -0.5773503   0.0000000), wk =   0.0185185
        k(   54) = (   0.3333333  -0.5773503   0.2150837), wk =   0.0370370
        k(   55) = (   0.3333333  -0.5773503   0.4301675), wk =   0.0370370
        k(   56) = (   0.3333333  -0.5773503  -0.6452512), wk =   0.0185185
        k(   57) = (  -0.5000000  -0.2886751   0.0000000), wk =   0.0092593
        k(   58) = (  -0.5000000  -0.2886751   0.2150837), wk =   0.0185185
        k(   59) = (  -0.5000000  -0.2886751   0.4301675), wk =   0.0185185
        k(   60) = (  -0.5000000  -0.2886751  -0.6452512), wk =   0.0092593
[...]
        k(   66) = (   0.3333333  -0.1924501  -0.4301675), wk =   0.0370370
        k(   67) = (   0.6666667  -0.3849002  -0.2150837), wk =   0.0370370
        k(   68) = (   0.6666667  -0.3849002  -0.4301675), wk =   0.0370370
        k(   69) = (   0.1666667   0.0962250  -0.2150837), wk =   0.0185185
        k(   70) = (   0.1666667   0.0962250  -0.4301675), wk =   0.0185185
        k(   71) = (   0.5000000  -0.0962250  -0.2150837), wk =   0.0370370
        k(   72) = (   0.5000000  -0.0962250  -0.4301675), wk =   0.0370370
        k(   73) = (  -0.8333333   0.6735753  -0.2150837), wk =   0.0185185
        k(   74) = (  -0.8333333   0.6735753  -0.4301675), wk =   0.0185185
        k(   75) = (  -0.5000000   0.4811252  -0.2150837), wk =   0.0370370
        k(   76) = (  -0.5000000   0.4811252  -0.4301675), wk =   0.0370370
        k(   77) = (   0.3333333   0.1924501  -0.2150837), wk =   0.0185185
        k(   78) = (   0.3333333   0.1924501  -0.4301675), wk =   0.0185185
        k(   79) = (  -0.6666667   0.7698004  -0.2150837), wk =   0.0185185
        k(   80) = (  -0.6666667   0.7698004  -0.4301675), wk =   0.0185185

                       cryst. coord.
        k(    1) = (   0.0000000   0.0000000   0.0000000), wk =   0.0092593
        k(    2) = (   0.0000000   0.0000000   0.1666667), wk =   0.0185185
        k(    3) = (   0.0000000   0.0000000   0.3333333), wk =   0.0185185
        k(    4) = (   0.0000000   0.0000000  -0.5000000), wk =   0.0092593
        k(    5) = (   0.0000000   0.1666667   0.0000000), wk =   0.0370370
        k(    6) = (   0.0000000   0.1666667   0.1666667), wk =   0.0370370
        k(    7) = (   0.0000000   0.1666667   0.3333333), wk =   0.0370370
        k(    8) = (   0.0000000   0.1666667  -0.5000000), wk =   0.0370370
        k(    9) = (   0.0000000   0.3333333   0.0000000), wk =   0.0370370
        k(   10) = (   0.0000000   0.3333333   0.1666667), wk =   0.0370370
        k(   11) = (   0.0000000   0.3333333   0.3333333), wk =   0.0370370
        k(   12) = (   0.0000000   0.3333333  -0.5000000), wk =   0.0370370
        k(   13) = (   0.0000000  -0.5000000   0.0000000), wk =   0.0092593
        k(   14) = (   0.0000000  -0.5000000   0.1666667), wk =   0.0185185
        k(   15) = (   0.0000000  -0.5000000   0.3333333), wk =   0.0185185
        k(   16) = (   0.0000000  -0.5000000  -0.5000000), wk =   0.0092593
        k(   17) = (   0.1666667   0.0000000   0.0000000), wk =   0.0185185
        k(   18) = (   0.1666667   0.0000000   0.1666667), wk =   0.0185185
        k(   19) = (   0.1666667   0.0000000   0.3333333), wk =   0.0185185
        k(   20) = (   0.1666667   0.0000000  -0.5000000), wk =   0.0185185
        k(   21) = (   0.1666667   0.1666667   0.0000000), wk =   0.0370370
        k(   22) = (   0.1666667   0.1666667   0.1666667), wk =   0.0370370
        k(   23) = (   0.1666667   0.1666667   0.3333333), wk =   0.0370370
        k(   24) = (   0.1666667   0.1666667  -0.5000000), wk =   0.0370370
        k(   25) = (   0.1666667   0.3333333   0.0000000), wk =   0.0185185
        k(   26) = (   0.1666667   0.3333333   0.1666667), wk =   0.0370370
        k(   27) = (   0.1666667   0.3333333   0.3333333), wk =   0.0370370
        k(   28) = (   0.1666667   0.3333333  -0.5000000), wk =   0.0185185
        k(   29) = (   0.1666667  -0.5000000   0.0000000), wk =   0.0185185
        k(   30) = (   0.1666667  -0.5000000   0.1666667), wk =   0.0185185
        k(   31) = (   0.1666667  -0.5000000   0.3333333), wk =   0.0185185
        k(   32) = (   0.1666667  -0.5000000  -0.5000000), wk =   0.0185185
        k(   33) = (   0.1666667  -0.3333333   0.0000000), wk =   0.0370370
        k(   34) = (   0.1666667  -0.3333333   0.1666667), wk =   0.0370370
        k(   35) = (   0.1666667  -0.3333333   0.3333333), wk =   0.0370370
        k(   36) = (   0.1666667  -0.3333333  -0.5000000), wk =   0.0370370
        k(   37) = (   0.1666667  -0.1666667   0.0000000), wk =   0.0185185
        k(   38) = (   0.1666667  -0.1666667   0.1666667), wk =   0.0370370
        k(   39) = (   0.1666667  -0.1666667   0.3333333), wk =   0.0370370
        k(   40) = (   0.1666667  -0.1666667  -0.5000000), wk =   0.0185185
        k(   41) = (   0.3333333   0.0000000   0.0000000), wk =   0.0185185
        k(   42) = (   0.3333333   0.0000000   0.1666667), wk =   0.0185185
        k(   43) = (   0.3333333   0.0000000   0.3333333), wk =   0.0185185
        k(   44) = (   0.3333333   0.0000000  -0.5000000), wk =   0.0185185
        k(   45) = (   0.3333333   0.1666667   0.0000000), wk =   0.0185185
        k(   46) = (   0.3333333   0.1666667   0.1666667), wk =   0.0370370
        k(   47) = (   0.3333333   0.1666667   0.3333333), wk =   0.0370370
        k(   48) = (   0.3333333   0.1666667  -0.5000000), wk =   0.0185185
        k(   49) = (   0.3333333  -0.5000000   0.0000000), wk =   0.0185185
        k(   50) = (   0.3333333  -0.5000000   0.1666667), wk =   0.0185185
        k(   51) = (   0.3333333  -0.5000000   0.3333333), wk =   0.0185185
        k(   52) = (   0.3333333  -0.5000000  -0.5000000), wk =   0.0185185
        k(   53) = (   0.3333333  -0.3333333   0.0000000), wk =   0.0185185
        k(   54) = (   0.3333333  -0.3333333   0.1666667), wk =   0.0370370
        k(   55) = (   0.3333333  -0.3333333   0.3333333), wk =   0.0370370
        k(   56) = (   0.3333333  -0.3333333  -0.5000000), wk =   0.0185185
        k(   57) = (  -0.5000000   0.0000000   0.0000000), wk =   0.0092593
        k(   58) = (  -0.5000000   0.0000000   0.1666667), wk =   0.0185185
        k(   59) = (  -0.5000000   0.0000000   0.3333333), wk =   0.0185185
        k(   60) = (  -0.5000000   0.0000000  -0.5000000), wk =   0.0092593
[...]
        k(   66) = (   0.3333333  -0.1666667  -0.3333333), wk =   0.0370370
        k(   67) = (   0.6666667  -0.3333333  -0.1666667), wk =   0.0370370
        k(   68) = (   0.6666667  -0.3333333  -0.3333333), wk =   0.0370370
        k(   69) = (   0.1666667   0.0000000  -0.1666667), wk =   0.0185185
        k(   70) = (   0.1666667   0.0000000  -0.3333333), wk =   0.0185185
        k(   71) = (   0.5000000  -0.1666667  -0.1666667), wk =   0.0370370
        k(   72) = (   0.5000000  -0.1666667  -0.3333333), wk =   0.0370370
        k(   73) = (  -0.8333333   0.5000000  -0.1666667), wk =   0.0185185
        k(   74) = (  -0.8333333   0.5000000  -0.3333333), wk =   0.0185185
        k(   75) = (  -0.5000000   0.3333333  -0.1666667), wk =   0.0370370
        k(   76) = (  -0.5000000   0.3333333  -0.3333333), wk =   0.0370370
        k(   77) = (   0.3333333   0.0000000  -0.1666667), wk =   0.0185185
        k(   78) = (   0.3333333   0.0000000  -0.3333333), wk =   0.0185185
        k(   79) = (  -0.6666667   0.5000000  -0.1666667), wk =   0.0185185
        k(   80) = (  -0.6666667   0.5000000  -0.3333333), wk =   0.0185185

     Check: negative core charge=   -0.000002

     Initial potential from superposition of free atoms

     starting charge      71.9851, renormalised to      72.0000
     Starting wfcs are   52 randomized atomic wfcs

     Self-consistent Calculation

     iteration #  1     ecut=    50.00 Ry     beta= 0.30
     Davidson diagonalization with overlap

     ethr =  1.00E-02,  avg # of iterations =  2.0

     total energy              =    -722.94697093 Ry
     estimated scf accuracy    <       1.40318535 Ry

[...]

     ethr =  3.23E-06,  avg # of iterations =  1.0
[barbara][[22090,1],1][../../../../../../opal/mca/btl/tcp/btl_tcp.c:559:mca_btl_tcp_recv_blocking] recv(18) failed: Connection reset by peer (104)

[...]

[barbara][[22090,1],1][../../../../../../opal/mca/btl/tcp/btl_tcp.c:559:mca_btl_tcp_recv_blocking] recv(18) failed: Connection reset by peer (104)
     ethr =  3.23E-06,  avg # of iterations =  4.7

[...]

     c_bands:  1 eigenvalues not converged
     c_bands:  1 eigenvalues not converged
     ethr =  2.29E-08,  avg # of iterations = 11.8

[...]

     c_bands:  1 eigenvalues not converged
     c_bands:  1 eigenvalues not converged
     c_bands:  1 eigenvalues not converged
     c_bands:  1 eigenvalues not converged
     c_bands:  1 eigenvalues not converged
     ethr =  2.29E-08,  avg # of iterations = 16.2

[...]

     total energy              =    -723.26890377 Ry
     estimated scf accuracy    <       0.00000005 Ry

     iteration # 27     ecut=    50.00 Ry     beta= 0.30
     Davidson diagonalization with overlap

     ethr =  7.48E-11,  avg # of iterations =  4.9

     End of self-consistent calculation

          k = 0.0000 0.0000 0.0000 (  3967 PWs)   bands (ev):

   -11.1308 -10.5253 -10.4177 -10.3045   0.9559   1.1480   1.1482   1.1641
     1.2321   1.3489   1.3490   1.3584   1.3912   1.6921   1.7165   1.8994
     2.1697   2.1698   2.2153   2.3303   2.3836   2.3837   2.4265   2.4828
     2.6050   2.9954   3.2920   3.9149   4.3679   5.4230   5.7416   5.7419
     5.8611   6.5805   6.5808   6.5863

     occupation numbers
     1.0000   1.0000   1.0000   1.0000   1.0000   1.0000   1.0000   1.0000
     1.0000   1.0000   1.0000   1.0000   1.0000   1.0000   1.0000   1.0000
     1.0000   1.0000   1.0000   1.0000   1.0000   1.0000   1.0000   1.0000
     1.0000   1.0000   1.0000   1.0000   1.0000   1.0000   1.0000   1.0000
     1.0000   1.0000   1.0000   1.0000

[...]

          k =-0.5000-0.2887 0.0000 (  3992 PWs)   bands (ev):

[...]

          k = 0.3333 0.1925-0.4302 (  4022 PWs)   bands (ev):

[...]

          k =-0.6667 0.7698-0.4302 (  4024 PWs)   bands (ev):

   -10.4666 -10.4666 -10.3503 -10.3503   0.9150   0.9150   1.0084   1.0084
     1.3829   1.3829   1.5193   1.5193   1.6676   1.6676   1.7153   1.7153
     2.2522   2.2522   2.3139   2.3139   2.4414   2.4414   2.5525   2.5525
     3.0407   3.0407   3.3728   3.3728   4.2747   4.2748   4.9453   4.9453
     5.1665   5.1665   5.6937   5.6938

     occupation numbers
     1.0000   1.0000   1.0000   1.0000   1.0000   1.0000   1.0000   1.0000
     1.0000   1.0000   1.0000   1.0000   1.0000   1.0000   1.0000   1.0000
     1.0000   1.0000   1.0000   1.0000   1.0000   1.0000   1.0000   1.0000
     1.0000   1.0000   1.0000   1.0000   1.0000   1.0000   1.0000   1.0000
     1.0000   1.0000   1.0000   1.0000

     highest occupied level (ev):     6.5863

!    total energy              =    -723.26890378 Ry
     estimated scf accuracy    <          8.4E-09 Ry

     The total energy is the sum of the following terms:
     one-electron contribution =    -313.91599453 Ry
     hartree contribution      =     238.40253881 Ry
     xc contribution           =    -219.02254114 Ry
     ewald contribution        =    -428.73290693 Ry

     convergence has been achieved in  27 iterations

     Forces acting on atoms (cartesian axes, Ry/au):

     atom    1 type  1   force =     0.00000034    0.00000019   -0.01302906
     atom    2 type  1   force =     0.00000017    0.00000010   -0.01303330
     atom    3 type  2   force =     0.00000001    0.00000001    0.01302944
     atom    4 type  2   force =     0.00000246    0.00000142    0.01303058
     atom    5 type  1   force =    -0.00000410   -0.00000236   -0.01302678
     atom    6 type  1   force =     0.00000086    0.00000050   -0.01303079
     atom    7 type  2   force =    -0.00000025   -0.00000015    0.01302881
     atom    8 type  2   force =     0.00000050    0.00000029    0.01303109
     The non-local contrib.  to forces
     atom    1 type  1   force =    -0.00001332   -0.00000769   -0.12124885
     atom    2 type  1   force =     0.00000796    0.00000460   -0.12124659
     atom    3 type  2   force =    -0.00017532   -0.00010122   -0.09171407
     atom    4 type  2   force =     0.00017859    0.00010311   -0.09171133
     atom    5 type  1   force =    -0.00001057   -0.00000610   -0.12125045
     atom    6 type  1   force =     0.00001433    0.00000828   -0.12124691
     atom    7 type  2   force =    -0.00017375   -0.00010031   -0.09171401
     atom    8 type  2   force =     0.00017153    0.00009903   -0.09171091
     The ionic contribution  to forces
     atom    1 type  1   force =     0.00000000    0.00000001   -0.76824287
     atom    2 type  1   force =     0.00000001    0.00000000   -0.76824287
     atom    3 type  2   force =     0.00000000    0.00000000    0.76824287
     atom    4 type  2   force =     0.00000001    0.00000000    0.76824287
     atom    5 type  1   force =    -0.00000002   -0.00000000   -0.76824287
     atom    6 type  1   force =     0.00000000   -0.00000001   -0.76824288
     atom    7 type  2   force =    -0.00000001    0.00000000    0.76824287
     atom    8 type  2   force =     0.00000000   -0.00000001    0.76824288
     The local contribution  to forces
     atom    1 type  1   force =     0.00002594    0.00001497    0.86754193
     atom    2 type  1   force =    -0.00001775   -0.00001035    0.86754232
     atom    3 type  2   force =     0.00017031    0.00009833   -0.66419118
     atom    4 type  2   force =    -0.00016913   -0.00009767   -0.66419151
     atom    5 type  1   force =     0.00002386    0.00001388    0.86754556
     atom    6 type  1   force =    -0.00002912   -0.00001691    0.86754075
     atom    7 type  2   force =     0.00017073    0.00009860   -0.66419744
     atom    8 type  2   force =    -0.00017424   -0.00010063   -0.66419134
     The core correction contribution to forces
     atom    1 type  1   force =    -0.00000375   -0.00000209    0.00892532
     atom    2 type  1   force =     0.00000402    0.00000234    0.00892517
     atom    3 type  2   force =     0.00000200    0.00000116    0.00069341
     atom    4 type  2   force =    -0.00000203   -0.00000117    0.00069337
     atom    5 type  1   force =    -0.00000398   -0.00000231    0.00892519
     atom    6 type  1   force =     0.00000388    0.00000215    0.00892517
     atom    7 type  2   force =     0.00000197    0.00000114    0.00069338
     atom    8 type  2   force =    -0.00000197   -0.00000115    0.00069337
     The Hubbard contrib.    to forces
     atom    1 type  1   force =     0.00000000    0.00000000    0.00000000
     atom    2 type  1   force =     0.00000000    0.00000000    0.00000000
     atom    3 type  2   force =     0.00000000    0.00000000    0.00000000
     atom    4 type  2   force =     0.00000000    0.00000000    0.00000000
     atom    5 type  1   force =     0.00000000    0.00000000    0.00000000
     atom    6 type  1   force =     0.00000000    0.00000000    0.00000000
     atom    7 type  2   force =     0.00000000    0.00000000    0.00000000
     atom    8 type  2   force =     0.00000000    0.00000000    0.00000000
     The SCF correction term to forces
     atom    1 type  1   force =    -0.00000943   -0.00000544   -0.00000983
     atom    2 type  1   force =     0.00000511    0.00000295   -0.00001658
     atom    3 type  2   force =     0.00000215    0.00000124   -0.00000683
     atom    4 type  2   force =    -0.00000583   -0.00000336   -0.00000806
     atom    5 type  1   force =    -0.00001429   -0.00000825   -0.00000945
     atom    6 type  1   force =     0.00001099    0.00000635   -0.00001217
     atom    7 type  2   force =    -0.00000007   -0.00000004   -0.00000124
     atom    8 type  2   force =     0.00000435    0.00000251   -0.00000815

     Total force =     0.036854     Total SCF correction =     0.000038

     General routines

     Parallel routines

   This run was terminated on:  20:28:27  26Aug2025

   JOB DONE.