     Program PWSCF v.7.0 starts on 26Aug2025 at 15: 8:20

     K-points division:     npool     =       4
     band groups division:  nbgrp     =       4

     Reading input from /home/jvc/QEspresso7.2/ZnO_database/scripts/cell211.in/ZnO-3.07-1.58-211.in
Warning: card &CELL ignored
Warning: card / ignored
Warning: card &FCP ignored
Warning: card / ignored
Warning: card &RISM ignored
Warning: card / ignored

     Current dimensions of program PWSCF are:
     Max number of different atomic species (ntypx) = 10
     Max number of k-points (npk) =  40000
     Max angular momentum in pseudopotentials (lmaxx) =  4
     file Zn.upf: wavefunction(s)  3D renormalized
     Found identity + ( -0.5000  0.0000  0.0000) symmetry
     This is a supercell, fractional translations are disabled
     Message from routine setup:
     using ibrav=0 with symmetry is DISCOURAGED, use correct ibrav instead

     Subspace diagonalization in iterative solution of the eigenvalue problem:
     a serial algorithm will be used

     Using Slab Decomposition

     bravais-lattice index     =            0
     lattice parameter (alat)  =      11.6162  a.u.
     unit-cell volume          =     536.9007 (a.u.)^3
     number of atoms/cell      =            8
     number of atomic types    =            2
     number of electrons       =        72.00
     number of Kohn-Sham states=           36
     kinetic-energy cutoff     =      50.0000  Ry
     charge density cutoff     =     400.0000  Ry
     scf convergence threshold =      1.0E-08
     mixing beta               =       0.3000
     number of iterations used =            8  plain     mixing
     Exchange-correlation= PBE
                           (   1   4   3   4   0   0   0)

     celldm(1)=  11.616245  celldm(2)=   0.000000  celldm(3)=   0.000000
     celldm(4)=   0.000000  celldm(5)=   0.000000  celldm(6)=   0.000000

     crystal axes: (cart. coord. in units of alat)
               a(1) = (   1.000000   0.000000   0.000000 )
               a(2) = (  -0.250000   0.433013   0.000000 )
               a(3) = (   0.000000   0.000000   0.791036 )

     reciprocal axes: (cart. coord. in units 2 pi/alat)
               b(1) = (  1.000000  0.577350 -0.000000 )
               b(2) = (  0.000000  2.309401  0.000000 )
               b(3) = (  0.000000 -0.000000  1.264166 )

     PseudoPot. # 1 for Zn read from file:
     /home/jvc/QEspresso7.2/ZnO_database/pseudos/Zn.upf
     MD5 check sum: 7f56cabf9682ed8c977c2f7d0c5985c5
     Pseudo is Ultrasoft + core correction, Zval = 12.0
     Generated using &quot;atomic&quot; code by A. Dal Corso  v.6.2.2
     Using radial grid of 1201 points,  6 beta functions with:
                l(1) =   0
                l(2) =   0
                l(3) =   1
                l(4) =   1
                l(5) =   2
                l(6) =   2
     Q(r) pseudized with 0 coefficients

     PseudoPot. # 2 for O  read from file:
     /home/jvc/QEspresso7.2/ZnO_database/pseudos/O.upf
     MD5 check sum: 91400c9766925bcf19f520983a725ff0
     Pseudo is Ultrasoft + core correction, Zval =  6.0
     Generated using &quot;atomic&quot; code by A. Dal Corso  v.6.3MaX
     Using radial grid of 1095 points,  4 beta functions with:
                l(1) =   0
                l(2) =   0
                l(3) =   1
                l(4) =   1
     Q(r) pseudized with 0 coefficients

     atomic species   valence    mass     pseudopotential
        Zn            12.00    65.38000     Zn( 1.00)
        O              6.00    15.99900     O ( 1.00)

      2 Sym. Ops. (no inversion) found

                                    s                        frac. trans.

      isym =  1     identity

 cryst.   s( 1) = (     1          0          0      )
                  (     0          1          0      )
                  (     0          0          1      )

 cart.    s( 1) = (  1.0000000  0.0000000  0.0000000 )
                  (  0.0000000  1.0000000  0.0000000 )
                  (  0.0000000  0.0000000  1.0000000 )

      isym =  2     inv. 180 deg rotation - cryst. axis [0,1,0]

 cryst.   s( 2) = (     1          2          0      )
                  (     0         -1          0      )
                  (     0          0          1      )

 cart.    s( 2) = (  0.5000000  0.8660254  0.0000000 )
                  (  0.8660254 -0.5000000  0.0000000 )
                  (  0.0000000  0.0000000  1.0000000 )

   Cartesian axes

     site n.     atom                  positions (alat units)
         1           Zn  tau(   1) = (   0.2500000   0.1443376   0.3960190  )
         2           Zn  tau(   2) = (  -0.0000000   0.2886751   0.0005012  )
         3           O   tau(   3) = (   0.2500000   0.1443376   0.6958554  )
         4           O   tau(   4) = (  -0.0000000   0.2886751   0.3003376  )
         5           Zn  tau(   5) = (   0.7500000   0.1443376   0.3960190  )
         6           Zn  tau(   6) = (   0.5000000   0.2886751   0.0005012  )
         7           O   tau(   7) = (   0.7500000   0.1443376   0.6958554  )
         8           O   tau(   8) = (   0.5000000   0.2886751   0.3003376  )

   Crystallographic axes

     site n.     atom                  positions (cryst. coord.)
         1           Zn  tau(   1) = (  0.3333333  0.3333333  0.5006336  )
         2           Zn  tau(   2) = (  0.1666667  0.6666667  0.0006336  )
         3           O   tau(   3) = (  0.3333333  0.3333333  0.8796764  )
         4           O   tau(   4) = (  0.1666667  0.6666667  0.3796764  )
         5           Zn  tau(   5) = (  0.8333333  0.3333333  0.5006336  )
         6           Zn  tau(   6) = (  0.6666667  0.6666667  0.0006336  )
         7           O   tau(   7) = (  0.8333333  0.3333333  0.8796764  )
         8           O   tau(   8) = (  0.6666667  0.6666667  0.3796764  )

     number of k points=    80
                       cart. coord. in units 2pi/alat
        k(    1) = (   0.0000000   0.0000000   0.0000000), wk =   0.0092593
        k(    2) = (   0.0000000   0.0000000   0.2106943), wk =   0.0185185
        k(    3) = (   0.0000000   0.0000000   0.4213885), wk =   0.0185185
        k(    4) = (   0.0000000   0.0000000  -0.6320828), wk =   0.0092593
        k(    5) = (   0.0000000   0.3849002   0.0000000), wk =   0.0370370
        k(    6) = (   0.0000000   0.3849002   0.2106943), wk =   0.0370370
        k(    7) = (   0.0000000   0.3849002   0.4213885), wk =   0.0370370
        k(    8) = (   0.0000000   0.3849002  -0.6320828), wk =   0.0370370
        k(    9) = (   0.0000000   0.7698004   0.0000000), wk =   0.0370370
        k(   10) = (   0.0000000   0.7698004   0.2106943), wk =   0.0370370
        k(   11) = (   0.0000000   0.7698004   0.4213885), wk =   0.0370370
        k(   12) = (   0.0000000   0.7698004  -0.6320828), wk =   0.0370370
        k(   13) = (   0.0000000  -1.1547005   0.0000000), wk =   0.0092593
        k(   14) = (   0.0000000  -1.1547005   0.2106943), wk =   0.0185185
        k(   15) = (   0.0000000  -1.1547005   0.4213885), wk =   0.0185185
        k(   16) = (   0.0000000  -1.1547005  -0.6320828), wk =   0.0092593
        k(   17) = (   0.1666667   0.0962250   0.0000000), wk =   0.0185185
        k(   18) = (   0.1666667   0.0962250   0.2106943), wk =   0.0185185
        k(   19) = (   0.1666667   0.0962250   0.4213885), wk =   0.0185185
        k(   20) = (   0.1666667   0.0962250  -0.6320828), wk =   0.0185185
        k(   21) = (   0.1666667   0.4811252   0.0000000), wk =   0.0370370
        k(   22) = (   0.1666667   0.4811252   0.2106943), wk =   0.0370370
        k(   23) = (   0.1666667   0.4811252   0.4213885), wk =   0.0370370
        k(   24) = (   0.1666667   0.4811252  -0.6320828), wk =   0.0370370
        k(   25) = (   0.1666667   0.8660254   0.0000000), wk =   0.0185185
        k(   26) = (   0.1666667   0.8660254   0.2106943), wk =   0.0370370
        k(   27) = (   0.1666667   0.8660254   0.4213885), wk =   0.0370370
        k(   28) = (   0.1666667   0.8660254  -0.6320828), wk =   0.0185185
        k(   29) = (   0.1666667  -1.0584755   0.0000000), wk =   0.0185185
        k(   30) = (   0.1666667  -1.0584755   0.2106943), wk =   0.0185185
        k(   31) = (   0.1666667  -1.0584755   0.4213885), wk =   0.0185185
        k(   32) = (   0.1666667  -1.0584755  -0.6320828), wk =   0.0185185
        k(   33) = (   0.1666667  -0.6735753   0.0000000), wk =   0.0370370
        k(   34) = (   0.1666667  -0.6735753   0.2106943), wk =   0.0370370
        k(   35) = (   0.1666667  -0.6735753   0.4213885), wk =   0.0370370
        k(   36) = (   0.1666667  -0.6735753  -0.6320828), wk =   0.0370370
        k(   37) = (   0.1666667  -0.2886751   0.0000000), wk =   0.0185185
        k(   38) = (   0.1666667  -0.2886751   0.2106943), wk =   0.0370370
        k(   39) = (   0.1666667  -0.2886751   0.4213885), wk =   0.0370370
        k(   40) = (   0.1666667  -0.2886751  -0.6320828), wk =   0.0185185
        k(   41) = (   0.3333333   0.1924501   0.0000000), wk =   0.0185185
        k(   42) = (   0.3333333   0.1924501   0.2106943), wk =   0.0185185
        k(   43) = (   0.3333333   0.1924501   0.4213885), wk =   0.0185185
        k(   44) = (   0.3333333   0.1924501  -0.6320828), wk =   0.0185185
        k(   45) = (   0.3333333   0.5773503   0.0000000), wk =   0.0185185
        k(   46) = (   0.3333333   0.5773503   0.2106943), wk =   0.0370370
        k(   47) = (   0.3333333   0.5773503   0.4213885), wk =   0.0370370
        k(   48) = (   0.3333333   0.5773503  -0.6320828), wk =   0.0185185
        k(   49) = (   0.3333333  -0.9622504   0.0000000), wk =   0.0185185
        k(   50) = (   0.3333333  -0.9622504   0.2106943), wk =   0.0185185
        k(   51) = (   0.3333333  -0.9622504   0.4213885), wk =   0.0185185
        k(   52) = (   0.3333333  -0.9622504  -0.6320828), wk =   0.0185185
        k(   53) = (   0.3333333  -0.5773503   0.0000000), wk =   0.0185185
        k(   54) = (   0.3333333  -0.5773503   0.2106943), wk =   0.0370370
        k(   55) = (   0.3333333  -0.5773503   0.4213885), wk =   0.0370370
        k(   56) = (   0.3333333  -0.5773503  -0.6320828), wk =   0.0185185
        k(   57) = (  -0.5000000  -0.2886751   0.0000000), wk =   0.0092593
        k(   58) = (  -0.5000000  -0.2886751   0.2106943), wk =   0.0185185
        k(   59) = (  -0.5000000  -0.2886751   0.4213885), wk =   0.0185185
        k(   60) = (  -0.5000000  -0.2886751  -0.6320828), wk =   0.0092593
[...]
        k(   66) = (   0.3333333  -0.1924501  -0.4213885), wk =   0.0370370
        k(   67) = (   0.6666667  -0.3849002  -0.2106943), wk =   0.0370370
        k(   68) = (   0.6666667  -0.3849002  -0.4213885), wk =   0.0370370
        k(   69) = (   0.1666667   0.0962250  -0.2106943), wk =   0.0185185
        k(   70) = (   0.1666667   0.0962250  -0.4213885), wk =   0.0185185
        k(   71) = (   0.5000000  -0.0962250  -0.2106943), wk =   0.0370370
        k(   72) = (   0.5000000  -0.0962250  -0.4213885), wk =   0.0370370
        k(   73) = (  -0.8333333   0.6735753  -0.2106943), wk =   0.0185185
        k(   74) = (  -0.8333333   0.6735753  -0.4213885), wk =   0.0185185
        k(   75) = (  -0.5000000   0.4811252  -0.2106943), wk =   0.0370370
        k(   76) = (  -0.5000000   0.4811252  -0.4213885), wk =   0.0370370
        k(   77) = (   0.3333333   0.1924501  -0.2106943), wk =   0.0185185
        k(   78) = (   0.3333333   0.1924501  -0.4213885), wk =   0.0185185
        k(   79) = (  -0.6666667   0.7698004  -0.2106943), wk =   0.0185185
        k(   80) = (  -0.6666667   0.7698004  -0.4213885), wk =   0.0185185

                       cryst. coord.
        k(    1) = (   0.0000000   0.0000000   0.0000000), wk =   0.0092593
        k(    2) = (   0.0000000   0.0000000   0.1666667), wk =   0.0185185
        k(    3) = (   0.0000000   0.0000000   0.3333333), wk =   0.0185185
        k(    4) = (   0.0000000   0.0000000  -0.5000000), wk =   0.0092593
        k(    5) = (   0.0000000   0.1666667   0.0000000), wk =   0.0370370
        k(    6) = (   0.0000000   0.1666667   0.1666667), wk =   0.0370370
        k(    7) = (   0.0000000   0.1666667   0.3333333), wk =   0.0370370
        k(    8) = (   0.0000000   0.1666667  -0.5000000), wk =   0.0370370
        k(    9) = (   0.0000000   0.3333333   0.0000000), wk =   0.0370370
        k(   10) = (   0.0000000   0.3333333   0.1666667), wk =   0.0370370
        k(   11) = (   0.0000000   0.3333333   0.3333333), wk =   0.0370370
        k(   12) = (   0.0000000   0.3333333  -0.5000000), wk =   0.0370370
        k(   13) = (   0.0000000  -0.5000000   0.0000000), wk =   0.0092593
        k(   14) = (   0.0000000  -0.5000000   0.1666667), wk =   0.0185185
        k(   15) = (   0.0000000  -0.5000000   0.3333333), wk =   0.0185185
        k(   16) = (   0.0000000  -0.5000000  -0.5000000), wk =   0.0092593
        k(   17) = (   0.1666667   0.0000000   0.0000000), wk =   0.0185185
        k(   18) = (   0.1666667   0.0000000   0.1666667), wk =   0.0185185
        k(   19) = (   0.1666667   0.0000000   0.3333333), wk =   0.0185185
        k(   20) = (   0.1666667   0.0000000  -0.5000000), wk =   0.0185185
        k(   21) = (   0.1666667   0.1666667   0.0000000), wk =   0.0370370
        k(   22) = (   0.1666667   0.1666667   0.1666667), wk =   0.0370370
        k(   23) = (   0.1666667   0.1666667   0.3333333), wk =   0.0370370
        k(   24) = (   0.1666667   0.1666667  -0.5000000), wk =   0.0370370
        k(   25) = (   0.1666667   0.3333333   0.0000000), wk =   0.0185185
        k(   26) = (   0.1666667   0.3333333   0.1666667), wk =   0.0370370
        k(   27) = (   0.1666667   0.3333333   0.3333333), wk =   0.0370370
        k(   28) = (   0.1666667   0.3333333  -0.5000000), wk =   0.0185185
        k(   29) = (   0.1666667  -0.5000000   0.0000000), wk =   0.0185185
        k(   30) = (   0.1666667  -0.5000000   0.1666667), wk =   0.0185185
        k(   31) = (   0.1666667  -0.5000000   0.3333333), wk =   0.0185185
        k(   32) = (   0.1666667  -0.5000000  -0.5000000), wk =   0.0185185
        k(   33) = (   0.1666667  -0.3333333   0.0000000), wk =   0.0370370
        k(   34) = (   0.1666667  -0.3333333   0.1666667), wk =   0.0370370
        k(   35) = (   0.1666667  -0.3333333   0.3333333), wk =   0.0370370
        k(   36) = (   0.1666667  -0.3333333  -0.5000000), wk =   0.0370370
        k(   37) = (   0.1666667  -0.1666667   0.0000000), wk =   0.0185185
        k(   38) = (   0.1666667  -0.1666667   0.1666667), wk =   0.0370370
        k(   39) = (   0.1666667  -0.1666667   0.3333333), wk =   0.0370370
        k(   40) = (   0.1666667  -0.1666667  -0.5000000), wk =   0.0185185
        k(   41) = (   0.3333333   0.0000000   0.0000000), wk =   0.0185185
        k(   42) = (   0.3333333   0.0000000   0.1666667), wk =   0.0185185
        k(   43) = (   0.3333333   0.0000000   0.3333333), wk =   0.0185185
        k(   44) = (   0.3333333   0.0000000  -0.5000000), wk =   0.0185185
        k(   45) = (   0.3333333   0.1666667   0.0000000), wk =   0.0185185
        k(   46) = (   0.3333333   0.1666667   0.1666667), wk =   0.0370370
        k(   47) = (   0.3333333   0.1666667   0.3333333), wk =   0.0370370
        k(   48) = (   0.3333333   0.1666667  -0.5000000), wk =   0.0185185
        k(   49) = (   0.3333333  -0.5000000   0.0000000), wk =   0.0185185
        k(   50) = (   0.3333333  -0.5000000   0.1666667), wk =   0.0185185
        k(   51) = (   0.3333333  -0.5000000   0.3333333), wk =   0.0185185
        k(   52) = (   0.3333333  -0.5000000  -0.5000000), wk =   0.0185185
        k(   53) = (   0.3333333  -0.3333333   0.0000000), wk =   0.0185185
        k(   54) = (   0.3333333  -0.3333333   0.1666667), wk =   0.0370370
        k(   55) = (   0.3333333  -0.3333333   0.3333333), wk =   0.0370370
        k(   56) = (   0.3333333  -0.3333333  -0.5000000), wk =   0.0185185
        k(   57) = (  -0.5000000  -0.0000000   0.0000000), wk =   0.0092593
        k(   58) = (  -0.5000000  -0.0000000   0.1666667), wk =   0.0185185
        k(   59) = (  -0.5000000  -0.0000000   0.3333333), wk =   0.0185185
        k(   60) = (  -0.5000000  -0.0000000  -0.5000000), wk =   0.0092593
[...]
        k(   66) = (   0.3333333  -0.1666667  -0.3333333), wk =   0.0370370
        k(   67) = (   0.6666667  -0.3333333  -0.1666667), wk =   0.0370370
        k(   68) = (   0.6666667  -0.3333333  -0.3333333), wk =   0.0370370
        k(   69) = (   0.1666667   0.0000000  -0.1666667), wk =   0.0185185
        k(   70) = (   0.1666667   0.0000000  -0.3333333), wk =   0.0185185
        k(   71) = (   0.5000000  -0.1666667  -0.1666667), wk =   0.0370370
        k(   72) = (   0.5000000  -0.1666667  -0.3333333), wk =   0.0370370
        k(   73) = (  -0.8333333   0.5000000  -0.1666667), wk =   0.0185185
        k(   74) = (  -0.8333333   0.5000000  -0.3333333), wk =   0.0185185
        k(   75) = (  -0.5000000   0.3333333  -0.1666667), wk =   0.0370370
        k(   76) = (  -0.5000000   0.3333333  -0.3333333), wk =   0.0370370
        k(   77) = (   0.3333333   0.0000000  -0.1666667), wk =   0.0185185
        k(   78) = (   0.3333333   0.0000000  -0.3333333), wk =   0.0185185
        k(   79) = (  -0.6666667   0.5000000  -0.1666667), wk =   0.0185185
        k(   80) = (  -0.6666667   0.5000000  -0.3333333), wk =   0.0185185

     Check: negative core charge=   -0.000002

     Initial potential from superposition of free atoms

     starting charge      71.9851, renormalised to      72.0000
     Starting wfcs are   52 randomized atomic wfcs

     Self-consistent Calculation

     iteration #  1     ecut=    50.00 Ry     beta= 0.30
     Davidson diagonalization with overlap

     ethr =  1.00E-02,  avg # of iterations =  2.0

     total energy              =    -722.83498900 Ry
     estimated scf accuracy    <       1.35029180 Ry

[...]

     c_bands:  1 eigenvalues not converged
     c_bands:  1 eigenvalues not converged
     ethr =  7.13E-09,  avg # of iterations = 14.0

[...]

     total energy              =    -723.10943595 Ry
     estimated scf accuracy    <       0.00000001 Ry

     iteration # 21     ecut=    50.00 Ry     beta= 0.30
     Davidson diagonalization with overlap

     ethr =  1.57E-11,  avg # of iterations =  2.0

     End of self-consistent calculation

          k = 0.0000 0.0000 0.0000 (  3215 PWs)   bands (ev):

    -9.4660  -8.4956  -8.3912  -8.1660   3.0407   3.1087   3.1193   3.5074
     3.5076   3.5697   3.7756   3.7758   3.8325   4.0748   4.3586   4.5736
     5.2819   5.2819   5.3152   5.5470   5.6176   5.6177   5.6906   5.7774
     5.9648   6.1033   6.3335   6.9252   7.3104   8.7248   9.1903   9.1906
     9.2081  10.1637  10.2679  10.2682

     occupation numbers
     1.0000   1.0000   1.0000   1.0000   1.0000   1.0000   1.0000   1.0000
     1.0000   1.0000   1.0000   1.0000   1.0000   1.0000   1.0000   1.0000
     1.0000   1.0000   1.0000   1.0000   1.0000   1.0000   1.0000   1.0000
     1.0000   1.0000   1.0000   1.0000   1.0000   1.0000   1.0000   1.0000
     1.0000   1.0000   1.0000   1.0000

[...]

          k =-0.5000-0.2887 0.0000 (  3230 PWs)   bands (ev):

[...]

          k = 0.3333 0.1925-0.4214 (  3209 PWs)   bands (ev):

[...]

          k =-0.6667 0.7698-0.4214 (  3190 PWs)   bands (ev):

    -8.4083  -8.4083  -8.2319  -8.2319   2.9325   2.9325   3.0095   3.0095
     3.7781   3.7781   3.9027   3.9027   4.2489   4.2489   4.3219   4.3219
     5.3745   5.3745   5.5090   5.5090   5.6959   5.6959   5.8673   5.8673
     6.1793   6.1793   6.6130   6.6130   7.2978   7.2978   7.9804   7.9804
     8.3810   8.3810   8.9520   8.9520

     occupation numbers
     1.0000   1.0000   1.0000   1.0000   1.0000   1.0000   1.0000   1.0000
     1.0000   1.0000   1.0000   1.0000   1.0000   1.0000   1.0000   1.0000
     1.0000   1.0000   1.0000   1.0000   1.0000   1.0000   1.0000   1.0000
     1.0000   1.0000   1.0000   1.0000   1.0000   1.0000   1.0000   1.0000
     1.0000   1.0000   1.0000   1.0000

     highest occupied level (ev):    10.2682

!    total energy              =    -723.10943594 Ry
     estimated scf accuracy    <          5.4E-09 Ry

     The total energy is the sum of the following terms:
     one-electron contribution =    -260.68025679 Ry
     hartree contribution      =     219.86886859 Ry
     xc contribution           =    -220.04570672 Ry
     ewald contribution        =    -462.25234103 Ry

     convergence has been achieved in  21 iterations

     Forces acting on atoms (cartesian axes, Ry/au):

     atom    1 type  1   force =     0.00001247    0.00000720   -0.01673752
     atom    2 type  1   force =    -0.00001185   -0.00000684   -0.01673576
     atom    3 type  2   force =    -0.00000173   -0.00000100    0.01673631
     atom    4 type  2   force =     0.00000184    0.00000106    0.01673591
     atom    5 type  1   force =     0.00001212    0.00000700   -0.01673682
     atom    6 type  1   force =    -0.00001298   -0.00000749   -0.01673443
     atom    7 type  2   force =    -0.00000171   -0.00000099    0.01673618
     atom    8 type  2   force =     0.00000185    0.00000107    0.01673613
     The non-local contrib.  to forces
     atom    1 type  1   force =    -0.00002711   -0.00001565   -0.07017198
     atom    2 type  1   force =     0.00002730    0.00001576   -0.07017064
     atom    3 type  2   force =    -0.00015777   -0.00009109   -0.04135473
     atom    4 type  2   force =     0.00015697    0.00009063   -0.04135399
     atom    5 type  1   force =    -0.00002694   -0.00001555   -0.07017118
     atom    6 type  1   force =     0.00002740    0.00001582   -0.07017009
     atom    7 type  2   force =    -0.00015751   -0.00009094   -0.04135477
     atom    8 type  2   force =     0.00015864    0.00009159   -0.04135402
     The ionic contribution  to forces
     atom    1 type  1   force =     0.00000000    0.00000001   -0.40542190
     atom    2 type  1   force =     0.00000001    0.00000000   -0.40542190
     atom    3 type  2   force =     0.00000000    0.00000001    0.40542190
     atom    4 type  2   force =     0.00000001   -0.00000000    0.40542190
     atom    5 type  1   force =    -0.00000000   -0.00000000   -0.40542190
     atom    6 type  1   force =    -0.00000001   -0.00000001   -0.40542190
     atom    7 type  2   force =    -0.00000000   -0.00000000    0.40542190
     atom    8 type  2   force =    -0.00000001   -0.00000000    0.40542190
     The local contribution  to forces
     atom    1 type  1   force =     0.00004294    0.00002479    0.45235178
     atom    2 type  1   force =    -0.00004287   -0.00002484    0.45234921
     atom    3 type  2   force =     0.00015419    0.00008902   -0.34757360
     atom    4 type  2   force =    -0.00015530   -0.00008969   -0.34757238
     atom    5 type  1   force =     0.00004216    0.00002434    0.45234958
     atom    6 type  1   force =    -0.00004274   -0.00002468    0.45234845
     atom    7 type  2   force =     0.00015404    0.00008893   -0.34757410
     atom    8 type  2   force =    -0.00015355   -0.00008865   -0.34757014
     The core correction contribution to forces
     atom    1 type  1   force =    -0.00000349   -0.00000205    0.00650635
     atom    2 type  1   force =     0.00000359    0.00000200    0.00650632
     atom    3 type  2   force =     0.00000180    0.00000104    0.00024403
     atom    4 type  2   force =    -0.00000176   -0.00000102    0.00024403
     atom    5 type  1   force =    -0.00000360   -0.00000201    0.00650638
     atom    6 type  1   force =     0.00000348    0.00000204    0.00650623
     atom    7 type  2   force =     0.00000176    0.00000102    0.00024404
     atom    8 type  2   force =    -0.00000181   -0.00000105    0.00024403
     The Hubbard contrib.    to forces
     atom    1 type  1   force =     0.00000000    0.00000000    0.00000000
     atom    2 type  1   force =     0.00000000    0.00000000    0.00000000
     atom    3 type  2   force =     0.00000000    0.00000000    0.00000000
     atom    4 type  2   force =     0.00000000    0.00000000    0.00000000
     atom    5 type  1   force =     0.00000000    0.00000000    0.00000000
     atom    6 type  1   force =     0.00000000    0.00000000    0.00000000
     atom    7 type  2   force =     0.00000000    0.00000000    0.00000000
     atom    8 type  2   force =     0.00000000    0.00000000    0.00000000
     The SCF correction term to forces
     atom    1 type  1   force =     0.00000014    0.00000008   -0.00000071
     atom    2 type  1   force =     0.00000020    0.00000012    0.00000229
     atom    3 type  2   force =     0.00000005    0.00000003   -0.00000024
     atom    4 type  2   force =     0.00000194    0.00000112   -0.00000261
     atom    5 type  1   force =     0.00000048    0.00000028    0.00000133
     atom    6 type  1   force =    -0.00000112   -0.00000064    0.00000392
     atom    7 type  2   force =     0.00000000    0.00000000    0.00000017
     atom    8 type  2   force =    -0.00000142   -0.00000082   -0.00000460

     Total force =     0.047337     Total SCF correction =     0.000008

     General routines

     Parallel routines

   This run was terminated on:  15:13:21  26Aug2025

   JOB DONE.