     Program PWSCF v.7.0 starts on 27Aug2025 at  2:33:18

     K-points division:     npool     =       4
     band groups division:  nbgrp     =       4

     Reading input from /home/jvc/QEspresso7.2/ZnO_database/scripts/cell211.in/ZnO-3.60-1.74-211.in
Warning: card &CELL ignored
Warning: card / ignored
Warning: card &FCP ignored
Warning: card / ignored
Warning: card &RISM ignored
Warning: card / ignored

     Current dimensions of program PWSCF are:
     Max number of different atomic species (ntypx) = 10
     Max number of k-points (npk) =  40000
     Max angular momentum in pseudopotentials (lmaxx) =  4
     file Zn.upf: wavefunction(s)  3D renormalized
     Found identity + ( -0.5000  0.0000  0.0000) symmetry
     This is a supercell, fractional translations are disabled
     Message from routine setup:
     using ibrav=0 with symmetry is DISCOURAGED, use correct ibrav instead

     Subspace diagonalization in iterative solution of the eigenvalue problem:
     a serial algorithm will be used

     Using Slab Decomposition

     bravais-lattice index     =            0
     lattice parameter (alat)  =      13.5935  a.u.
     unit-cell volume          =     948.1699 (a.u.)^3
     number of atoms/cell      =            8
     number of atomic types    =            2
     number of electrons       =        72.00
     number of Kohn-Sham states=           36
     kinetic-energy cutoff     =      50.0000  Ry
     charge density cutoff     =     400.0000  Ry
     scf convergence threshold =      1.0E-08
     mixing beta               =       0.3000
     number of iterations used =            8  plain     mixing
     Exchange-correlation= PBE
                           (   1   4   3   4   0   0   0)

     celldm(1)=  13.593479  celldm(2)=   0.000000  celldm(3)=   0.000000
     celldm(4)=   0.000000  celldm(5)=   0.000000  celldm(6)=   0.000000

     crystal axes: (cart. coord. in units of alat)
               a(1) = (   1.000000   0.000000   0.000000 )
               a(2) = (  -0.250000   0.433013   0.000000 )
               a(3) = (   0.000000   0.000000   0.871754 )

     reciprocal axes: (cart. coord. in units 2 pi/alat)
               b(1) = (  1.000000  0.577350 -0.000000 )
               b(2) = (  0.000000  2.309401  0.000000 )
               b(3) = (  0.000000 -0.000000  1.147113 )

     PseudoPot. # 1 for Zn read from file:
     /home/jvc/QEspresso7.2/ZnO_database/pseudos/Zn.upf
     MD5 check sum: 7f56cabf9682ed8c977c2f7d0c5985c5
     Pseudo is Ultrasoft + core correction, Zval = 12.0
     Generated using &quot;atomic&quot; code by A. Dal Corso  v.6.2.2
     Using radial grid of 1201 points,  6 beta functions with:
                l(1) =   0
                l(2) =   0
                l(3) =   1
                l(4) =   1
                l(5) =   2
                l(6) =   2
     Q(r) pseudized with 0 coefficients

     PseudoPot. # 2 for O  read from file:
     /home/jvc/QEspresso7.2/ZnO_database/pseudos/O.upf
     MD5 check sum: 91400c9766925bcf19f520983a725ff0
     Pseudo is Ultrasoft + core correction, Zval =  6.0
     Generated using &quot;atomic&quot; code by A. Dal Corso  v.6.3MaX
     Using radial grid of 1095 points,  4 beta functions with:
                l(1) =   0
                l(2) =   0
                l(3) =   1
                l(4) =   1
     Q(r) pseudized with 0 coefficients

     atomic species   valence    mass     pseudopotential
        Zn            12.00    65.38000     Zn( 1.00)
        O              6.00    15.99900     O ( 1.00)

      2 Sym. Ops. (no inversion) found

                                    s                        frac. trans.

      isym =  1     identity

 cryst.   s( 1) = (     1          0          0      )
                  (     0          1          0      )
                  (     0          0          1      )

 cart.    s( 1) = (  1.0000000  0.0000000  0.0000000 )
                  (  0.0000000  1.0000000  0.0000000 )
                  (  0.0000000  0.0000000  1.0000000 )

      isym =  2     inv. 180 deg rotation - cryst. axis [0,1,0]

 cryst.   s( 2) = (     1          2          0      )
                  (     0         -1          0      )
                  (     0          0          1      )

 cart.    s( 2) = (  0.5000000  0.8660254  0.0000000 )
                  (  0.8660254 -0.5000000  0.0000000 )
                  (  0.0000000  0.0000000  1.0000000 )

   Cartesian axes

     site n.     atom                  positions (alat units)
         1           Zn  tau(   1) = (   0.2500000   0.1443376   0.4364291  )
         2           Zn  tau(   2) = (  -0.0000000   0.2886751   0.0005523  )
         3           O   tau(   3) = (   0.2500000   0.1443376   0.7668610  )
         4           O   tau(   4) = (  -0.0000000   0.2886751   0.3309842  )
         5           Zn  tau(   5) = (   0.7500000   0.1443376   0.4364291  )
         6           Zn  tau(   6) = (   0.5000000   0.2886751   0.0005523  )
         7           O   tau(   7) = (   0.7500000   0.1443376   0.7668610  )
         8           O   tau(   8) = (   0.5000000   0.2886751   0.3309842  )

   Crystallographic axes

     site n.     atom                  positions (cryst. coord.)
         1           Zn  tau(   1) = (  0.3333333  0.3333333  0.5006336  )
         2           Zn  tau(   2) = (  0.1666667  0.6666667  0.0006336  )
         3           O   tau(   3) = (  0.3333333  0.3333333  0.8796764  )
         4           O   tau(   4) = (  0.1666667  0.6666667  0.3796764  )
         5           Zn  tau(   5) = (  0.8333333  0.3333333  0.5006336  )
         6           Zn  tau(   6) = (  0.6666667  0.6666667  0.0006336  )
         7           O   tau(   7) = (  0.8333333  0.3333333  0.8796764  )
         8           O   tau(   8) = (  0.6666667  0.6666667  0.3796764  )

     number of k points=    80
                       cart. coord. in units 2pi/alat
        k(    1) = (   0.0000000   0.0000000   0.0000000), wk =   0.0092593
        k(    2) = (   0.0000000   0.0000000   0.1911855), wk =   0.0185185
        k(    3) = (   0.0000000   0.0000000   0.3823711), wk =   0.0185185
        k(    4) = (   0.0000000   0.0000000  -0.5735566), wk =   0.0092593
        k(    5) = (   0.0000000   0.3849002   0.0000000), wk =   0.0370370
        k(    6) = (   0.0000000   0.3849002   0.1911855), wk =   0.0370370
        k(    7) = (   0.0000000   0.3849002   0.3823711), wk =   0.0370370
        k(    8) = (   0.0000000   0.3849002  -0.5735566), wk =   0.0370370
        k(    9) = (   0.0000000   0.7698004   0.0000000), wk =   0.0370370
        k(   10) = (   0.0000000   0.7698004   0.1911855), wk =   0.0370370
        k(   11) = (   0.0000000   0.7698004   0.3823711), wk =   0.0370370
        k(   12) = (   0.0000000   0.7698004  -0.5735566), wk =   0.0370370
        k(   13) = (   0.0000000  -1.1547005   0.0000000), wk =   0.0092593
        k(   14) = (   0.0000000  -1.1547005   0.1911855), wk =   0.0185185
        k(   15) = (   0.0000000  -1.1547005   0.3823711), wk =   0.0185185
        k(   16) = (   0.0000000  -1.1547005  -0.5735566), wk =   0.0092593
        k(   17) = (   0.1666667   0.0962250   0.0000000), wk =   0.0185185
        k(   18) = (   0.1666667   0.0962250   0.1911855), wk =   0.0185185
        k(   19) = (   0.1666667   0.0962250   0.3823711), wk =   0.0185185
        k(   20) = (   0.1666667   0.0962250  -0.5735566), wk =   0.0185185
        k(   21) = (   0.1666667   0.4811252   0.0000000), wk =   0.0370370
        k(   22) = (   0.1666667   0.4811252   0.1911855), wk =   0.0370370
        k(   23) = (   0.1666667   0.4811252   0.3823711), wk =   0.0370370
        k(   24) = (   0.1666667   0.4811252  -0.5735566), wk =   0.0370370
        k(   25) = (   0.1666667   0.8660254   0.0000000), wk =   0.0185185
        k(   26) = (   0.1666667   0.8660254   0.1911855), wk =   0.0370370
        k(   27) = (   0.1666667   0.8660254   0.3823711), wk =   0.0370370
        k(   28) = (   0.1666667   0.8660254  -0.5735566), wk =   0.0185185
        k(   29) = (   0.1666667  -1.0584755   0.0000000), wk =   0.0185185
        k(   30) = (   0.1666667  -1.0584755   0.1911855), wk =   0.0185185
        k(   31) = (   0.1666667  -1.0584755   0.3823711), wk =   0.0185185
        k(   32) = (   0.1666667  -1.0584755  -0.5735566), wk =   0.0185185
        k(   33) = (   0.1666667  -0.6735753   0.0000000), wk =   0.0370370
        k(   34) = (   0.1666667  -0.6735753   0.1911855), wk =   0.0370370
        k(   35) = (   0.1666667  -0.6735753   0.3823711), wk =   0.0370370
        k(   36) = (   0.1666667  -0.6735753  -0.5735566), wk =   0.0370370
        k(   37) = (   0.1666667  -0.2886751   0.0000000), wk =   0.0185185
        k(   38) = (   0.1666667  -0.2886751   0.1911855), wk =   0.0370370
        k(   39) = (   0.1666667  -0.2886751   0.3823711), wk =   0.0370370
        k(   40) = (   0.1666667  -0.2886751  -0.5735566), wk =   0.0185185
        k(   41) = (   0.3333333   0.1924501   0.0000000), wk =   0.0185185
        k(   42) = (   0.3333333   0.1924501   0.1911855), wk =   0.0185185
        k(   43) = (   0.3333333   0.1924501   0.3823711), wk =   0.0185185
        k(   44) = (   0.3333333   0.1924501  -0.5735566), wk =   0.0185185
        k(   45) = (   0.3333333   0.5773503   0.0000000), wk =   0.0185185
        k(   46) = (   0.3333333   0.5773503   0.1911855), wk =   0.0370370
        k(   47) = (   0.3333333   0.5773503   0.3823711), wk =   0.0370370
        k(   48) = (   0.3333333   0.5773503  -0.5735566), wk =   0.0185185
        k(   49) = (   0.3333333  -0.9622504   0.0000000), wk =   0.0185185
        k(   50) = (   0.3333333  -0.9622504   0.1911855), wk =   0.0185185
        k(   51) = (   0.3333333  -0.9622504   0.3823711), wk =   0.0185185
        k(   52) = (   0.3333333  -0.9622504  -0.5735566), wk =   0.0185185
        k(   53) = (   0.3333333  -0.5773503   0.0000000), wk =   0.0185185
        k(   54) = (   0.3333333  -0.5773503   0.1911855), wk =   0.0370370
        k(   55) = (   0.3333333  -0.5773503   0.3823711), wk =   0.0370370
        k(   56) = (   0.3333333  -0.5773503  -0.5735566), wk =   0.0185185
        k(   57) = (  -0.5000000  -0.2886751   0.0000000), wk =   0.0092593
        k(   58) = (  -0.5000000  -0.2886751   0.1911855), wk =   0.0185185
        k(   59) = (  -0.5000000  -0.2886751   0.3823711), wk =   0.0185185
        k(   60) = (  -0.5000000  -0.2886751  -0.5735566), wk =   0.0092593
[...]
        k(   66) = (   0.3333333  -0.1924501  -0.3823711), wk =   0.0370370
        k(   67) = (   0.6666667  -0.3849002  -0.1911855), wk =   0.0370370
        k(   68) = (   0.6666667  -0.3849002  -0.3823711), wk =   0.0370370
        k(   69) = (   0.1666667   0.0962250  -0.1911855), wk =   0.0185185
        k(   70) = (   0.1666667   0.0962250  -0.3823711), wk =   0.0185185
        k(   71) = (   0.5000000  -0.0962250  -0.1911855), wk =   0.0370370
        k(   72) = (   0.5000000  -0.0962250  -0.3823711), wk =   0.0370370
        k(   73) = (  -0.8333333   0.6735753  -0.1911855), wk =   0.0185185
        k(   74) = (  -0.8333333   0.6735753  -0.3823711), wk =   0.0185185
        k(   75) = (  -0.5000000   0.4811252  -0.1911855), wk =   0.0370370
        k(   76) = (  -0.5000000   0.4811252  -0.3823711), wk =   0.0370370
        k(   77) = (   0.3333333   0.1924501  -0.1911855), wk =   0.0185185
        k(   78) = (   0.3333333   0.1924501  -0.3823711), wk =   0.0185185
        k(   79) = (  -0.6666667   0.7698004  -0.1911855), wk =   0.0185185
        k(   80) = (  -0.6666667   0.7698004  -0.3823711), wk =   0.0185185

                       cryst. coord.
        k(    1) = (   0.0000000   0.0000000   0.0000000), wk =   0.0092593
        k(    2) = (   0.0000000   0.0000000   0.1666667), wk =   0.0185185
        k(    3) = (   0.0000000   0.0000000   0.3333333), wk =   0.0185185
        k(    4) = (   0.0000000   0.0000000  -0.5000000), wk =   0.0092593
        k(    5) = (   0.0000000   0.1666667   0.0000000), wk =   0.0370370
        k(    6) = (   0.0000000   0.1666667   0.1666667), wk =   0.0370370
        k(    7) = (   0.0000000   0.1666667   0.3333333), wk =   0.0370370
        k(    8) = (   0.0000000   0.1666667  -0.5000000), wk =   0.0370370
        k(    9) = (   0.0000000   0.3333333   0.0000000), wk =   0.0370370
        k(   10) = (   0.0000000   0.3333333   0.1666667), wk =   0.0370370
        k(   11) = (   0.0000000   0.3333333   0.3333333), wk =   0.0370370
        k(   12) = (   0.0000000   0.3333333  -0.5000000), wk =   0.0370370
        k(   13) = (   0.0000000  -0.5000000   0.0000000), wk =   0.0092593
        k(   14) = (   0.0000000  -0.5000000   0.1666667), wk =   0.0185185
        k(   15) = (   0.0000000  -0.5000000   0.3333333), wk =   0.0185185
        k(   16) = (   0.0000000  -0.5000000  -0.5000000), wk =   0.0092593
        k(   17) = (   0.1666667   0.0000000   0.0000000), wk =   0.0185185
        k(   18) = (   0.1666667   0.0000000   0.1666667), wk =   0.0185185
        k(   19) = (   0.1666667   0.0000000   0.3333333), wk =   0.0185185
        k(   20) = (   0.1666667   0.0000000  -0.5000000), wk =   0.0185185
        k(   21) = (   0.1666667   0.1666667   0.0000000), wk =   0.0370370
        k(   22) = (   0.1666667   0.1666667   0.1666667), wk =   0.0370370
        k(   23) = (   0.1666667   0.1666667   0.3333333), wk =   0.0370370
        k(   24) = (   0.1666667   0.1666667  -0.5000000), wk =   0.0370370
        k(   25) = (   0.1666667   0.3333333   0.0000000), wk =   0.0185185
        k(   26) = (   0.1666667   0.3333333   0.1666667), wk =   0.0370370
        k(   27) = (   0.1666667   0.3333333   0.3333333), wk =   0.0370370
        k(   28) = (   0.1666667   0.3333333  -0.5000000), wk =   0.0185185
        k(   29) = (   0.1666667  -0.5000000   0.0000000), wk =   0.0185185
        k(   30) = (   0.1666667  -0.5000000   0.1666667), wk =   0.0185185
        k(   31) = (   0.1666667  -0.5000000   0.3333333), wk =   0.0185185
        k(   32) = (   0.1666667  -0.5000000  -0.5000000), wk =   0.0185185
        k(   33) = (   0.1666667  -0.3333333   0.0000000), wk =   0.0370370
        k(   34) = (   0.1666667  -0.3333333   0.1666667), wk =   0.0370370
        k(   35) = (   0.1666667  -0.3333333   0.3333333), wk =   0.0370370
        k(   36) = (   0.1666667  -0.3333333  -0.5000000), wk =   0.0370370
        k(   37) = (   0.1666667  -0.1666667   0.0000000), wk =   0.0185185
        k(   38) = (   0.1666667  -0.1666667   0.1666667), wk =   0.0370370
        k(   39) = (   0.1666667  -0.1666667   0.3333333), wk =   0.0370370
        k(   40) = (   0.1666667  -0.1666667  -0.5000000), wk =   0.0185185
        k(   41) = (   0.3333333   0.0000000   0.0000000), wk =   0.0185185
        k(   42) = (   0.3333333   0.0000000   0.1666667), wk =   0.0185185
        k(   43) = (   0.3333333   0.0000000   0.3333333), wk =   0.0185185
        k(   44) = (   0.3333333   0.0000000  -0.5000000), wk =   0.0185185
        k(   45) = (   0.3333333   0.1666667   0.0000000), wk =   0.0185185
        k(   46) = (   0.3333333   0.1666667   0.1666667), wk =   0.0370370
        k(   47) = (   0.3333333   0.1666667   0.3333333), wk =   0.0370370
        k(   48) = (   0.3333333   0.1666667  -0.5000000), wk =   0.0185185
        k(   49) = (   0.3333333  -0.5000000   0.0000000), wk =   0.0185185
        k(   50) = (   0.3333333  -0.5000000   0.1666667), wk =   0.0185185
        k(   51) = (   0.3333333  -0.5000000   0.3333333), wk =   0.0185185
        k(   52) = (   0.3333333  -0.5000000  -0.5000000), wk =   0.0185185
        k(   53) = (   0.3333333  -0.3333333   0.0000000), wk =   0.0185185
        k(   54) = (   0.3333333  -0.3333333   0.1666667), wk =   0.0370370
        k(   55) = (   0.3333333  -0.3333333   0.3333333), wk =   0.0370370
        k(   56) = (   0.3333333  -0.3333333  -0.5000000), wk =   0.0185185
        k(   57) = (  -0.5000000   0.0000000   0.0000000), wk =   0.0092593
        k(   58) = (  -0.5000000   0.0000000   0.1666667), wk =   0.0185185
        k(   59) = (  -0.5000000   0.0000000   0.3333333), wk =   0.0185185
        k(   60) = (  -0.5000000   0.0000000  -0.5000000), wk =   0.0092593
[...]
        k(   66) = (   0.3333333  -0.1666667  -0.3333333), wk =   0.0370370
        k(   67) = (   0.6666667  -0.3333333  -0.1666667), wk =   0.0370370
        k(   68) = (   0.6666667  -0.3333333  -0.3333333), wk =   0.0370370
        k(   69) = (   0.1666667   0.0000000  -0.1666667), wk =   0.0185185
        k(   70) = (   0.1666667   0.0000000  -0.3333333), wk =   0.0185185
        k(   71) = (   0.5000000  -0.1666667  -0.1666667), wk =   0.0370370
        k(   72) = (   0.5000000  -0.1666667  -0.3333333), wk =   0.0370370
        k(   73) = (  -0.8333333   0.5000000  -0.1666667), wk =   0.0185185
        k(   74) = (  -0.8333333   0.5000000  -0.3333333), wk =   0.0185185
        k(   75) = (  -0.5000000   0.3333333  -0.1666667), wk =   0.0370370
        k(   76) = (  -0.5000000   0.3333333  -0.3333333), wk =   0.0370370
        k(   77) = (   0.3333333   0.0000000  -0.1666667), wk =   0.0185185
        k(   78) = (   0.3333333   0.0000000  -0.3333333), wk =   0.0185185
        k(   79) = (  -0.6666667   0.5000000  -0.1666667), wk =   0.0185185
        k(   80) = (  -0.6666667   0.5000000  -0.3333333), wk =   0.0185185

     Check: negative core charge=   -0.000003

     Initial potential from superposition of free atoms

     starting charge      71.9851, renormalised to      72.0000
     Starting wfcs are   52 randomized atomic wfcs

     Self-consistent Calculation

     iteration #  1     ecut=    50.00 Ry     beta= 0.30
     Davidson diagonalization with overlap

     ethr =  1.00E-02,  avg # of iterations =  1.0

     total energy              =    -722.53924400 Ry
     estimated scf accuracy    <       1.84965685 Ry

[...]

     c_bands:  2 eigenvalues not converged
     ethr =  1.98E-07,  avg # of iterations =  5.9

[...]

     c_bands:  1 eigenvalues not converged
     c_bands:  1 eigenvalues not converged
     c_bands:  1 eigenvalues not converged
     c_bands:  1 eigenvalues not converged
     c_bands:  1 eigenvalues not converged
     c_bands:  1 eigenvalues not converged
     c_bands:  1 eigenvalues not converged
     ethr =  5.92E-09,  avg # of iterations = 16.9

[...]

     total energy              =    -722.99623377 Ry
     estimated scf accuracy    <       0.00000003 Ry

     iteration # 31     ecut=    50.00 Ry     beta= 0.30
     Davidson diagonalization with overlap

     ethr =  4.64E-11,  avg # of iterations =  5.6

     End of self-consistent calculation

          k = 0.0000 0.0000 0.0000 (  5711 PWs)   bands (ev):

   -13.2228 -12.9929 -12.9320 -12.8620  -2.1766  -2.1764  -2.1502  -2.1383
    -2.1139  -2.1137  -2.0544  -1.9865  -1.8941  -1.8834  -1.7964  -1.7877
    -1.7877  -1.7723  -1.7303  -1.7303  -1.7135  -1.7001  -1.6784  -1.6619
    -0.5199  -0.3437   0.0528   1.0040   1.5828   1.9190   2.1576   2.3403
     2.3412   2.4455   2.6595   2.6604

     occupation numbers
     1.0000   1.0000   1.0000   1.0000   1.0000   1.0000   1.0000   1.0000
     1.0000   1.0000   1.0000   1.0000   1.0000   1.0000   1.0000   1.0000
     1.0000   1.0000   1.0000   1.0000   1.0000   1.0000   1.0000   1.0000
     1.0000   1.0000   1.0000   1.0000   1.0000   1.0000   1.0000   1.0000
     1.0000   1.0000   1.0000   1.0000

[...]

          k =-0.5000-0.2887 0.0000 (  5702 PWs)   bands (ev):

[...]

          k = 0.3333 0.1925-0.3824 (  5664 PWs)   bands (ev):

[...]

          k =-0.6667 0.7698-0.3824 (  5652 PWs)   bands (ev):

   -12.9152 -12.9151 -12.8787 -12.8786  -2.1001  -2.1001  -2.0416  -2.0416
    -1.9986  -1.9986  -1.9365  -1.9365  -1.8675  -1.8675  -1.8604  -1.8604
    -1.7552  -1.7552  -1.7290  -1.7290  -1.6708  -1.6708  -1.6327  -1.6327
    -0.1569  -0.1569  -0.0107  -0.0107   1.2742   1.2743   1.5697   1.5698
     1.6988   1.6988   2.0031   2.0032

     occupation numbers
     1.0000   1.0000   1.0000   1.0000   1.0000   1.0000   1.0000   1.0000
     1.0000   1.0000   1.0000   1.0000   1.0000   1.0000   1.0000   1.0000
     1.0000   1.0000   1.0000   1.0000   1.0000   1.0000   1.0000   1.0000
     1.0000   1.0000   1.0000   1.0000   1.0000   1.0000   1.0000   1.0000
     1.0000   1.0000   1.0000   1.0000

     highest occupied level (ev):     2.6604

!    total energy              =    -722.99623378 Ry
     estimated scf accuracy    <          6.8E-09 Ry

     The total energy is the sum of the following terms:
     one-electron contribution =    -389.15989435 Ry
     hartree contribution      =     266.16944463 Ry
     xc contribution           =    -217.88065361 Ry
     ewald contribution        =    -382.12513045 Ry

     convergence has been achieved in  31 iterations

     Forces acting on atoms (cartesian axes, Ry/au):

     atom    1 type  1   force =    -0.00001203   -0.00000695   -0.01420021
     atom    2 type  1   force =    -0.00001129   -0.00000652   -0.01422137
     atom    3 type  2   force =    -0.00001275   -0.00000736    0.01420996
     atom    4 type  2   force =     0.00001391    0.00000803    0.01421004
     atom    5 type  1   force =    -0.00001607   -0.00000928   -0.01418833
     atom    6 type  1   force =     0.00003772    0.00002178   -0.01423286
     atom    7 type  2   force =    -0.00001178   -0.00000680    0.01421292
     atom    8 type  2   force =     0.00001228    0.00000709    0.01420984
     The non-local contrib.  to forces
     atom    1 type  1   force =     0.00002988    0.00001725    0.16847801
     atom    2 type  1   force =    -0.00004192   -0.00002420    0.16846923
     atom    3 type  2   force =    -0.00020798   -0.00012008    0.20986741
     atom    4 type  2   force =     0.00021212    0.00012247    0.20986601
     atom    5 type  1   force =     0.00003203    0.00001849    0.16847872
     atom    6 type  1   force =    -0.00002163   -0.00001249    0.16846260
     atom    7 type  2   force =    -0.00020284   -0.00011711    0.20987735
     atom    8 type  2   force =     0.00020079    0.00011593    0.20986586
     The ionic contribution  to forces
     atom    1 type  1   force =     0.00000000    0.00000000    1.30007236
     atom    2 type  1   force =     0.00000001    0.00000000    1.30007236
     atom    3 type  2   force =     0.00000000    0.00000000   -1.30007236
     atom    4 type  2   force =     0.00000001    0.00000000   -1.30007236
     atom    5 type  1   force =    -0.00000001   -0.00000000    1.30007236
     atom    6 type  1   force =     0.00000000   -0.00000001    1.30007235
     atom    7 type  2   force =    -0.00000001    0.00000000   -1.30007236
     atom    8 type  2   force =     0.00000000   -0.00000000   -1.30007235
     The local contribution  to forces
     atom    1 type  1   force =    -0.00003828   -0.00002210   -1.47380520
     atom    2 type  1   force =     0.00007299    0.00004203   -1.47378522
     atom    3 type  2   force =     0.00019385    0.00011192    1.10643646
     atom    4 type  2   force =    -0.00018927   -0.00010930    1.10642576
     atom    5 type  1   force =    -0.00003624   -0.00002081   -1.47381955
     atom    6 type  1   force =     0.00000342    0.00000186   -1.47376967
     atom    7 type  2   force =     0.00018713    0.00010807    1.10642938
     atom    8 type  2   force =    -0.00019559   -0.00011295    1.10642750
     The core correction contribution to forces
     atom    1 type  1   force =    -0.00000781   -0.00000451   -0.00898450
     atom    2 type  1   force =     0.00000737    0.00000424   -0.00898733
     atom    3 type  2   force =     0.00000235    0.00000136   -0.00200567
     atom    4 type  2   force =    -0.00000241   -0.00000139   -0.00200832
     atom    5 type  1   force =    -0.00000812   -0.00000467   -0.00898382
     atom    6 type  1   force =     0.00000854    0.00000491   -0.00898737
     atom    7 type  2   force =     0.00000228    0.00000132   -0.00200578
     atom    8 type  2   force =    -0.00000226   -0.00000131   -0.00200829
     The Hubbard contrib.    to forces
     atom    1 type  1   force =     0.00000000    0.00000000    0.00000000
     atom    2 type  1   force =     0.00000000    0.00000000    0.00000000
     atom    3 type  2   force =     0.00000000    0.00000000    0.00000000
     atom    4 type  2   force =     0.00000000    0.00000000    0.00000000
     atom    5 type  1   force =     0.00000000    0.00000000    0.00000000
     atom    6 type  1   force =     0.00000000    0.00000000    0.00000000
     atom    7 type  2   force =     0.00000000    0.00000000    0.00000000
     atom    8 type  2   force =     0.00000000    0.00000000    0.00000000
     The SCF correction term to forces
     atom    1 type  1   force =     0.00000392    0.00000227    0.00005183
     atom    2 type  1   force =    -0.00004993   -0.00002883    0.00002229
     atom    3 type  2   force =    -0.00000122   -0.00000070   -0.00000318
     atom    4 type  2   force =    -0.00000678   -0.00000391    0.00001164
     atom    5 type  1   force =    -0.00000403   -0.00000233    0.00007666
     atom    6 type  1   force =     0.00004721    0.00002725    0.00000193
     atom    7 type  2   force =     0.00000139    0.00000080   -0.00000297
     atom    8 type  2   force =     0.00000911    0.00000526    0.00000983

     Total force =     0.040194     Total SCF correction =     0.000126

     General routines

     Parallel routines

   This run was terminated on:   2:40:57  27Aug2025

   JOB DONE.