     Program PWSCF v.7.0 starts on 26Aug2025 at 16: 0:35

     K-points division:     npool     =       4
     band groups division:  nbgrp     =       4

     Reading input from /home/jvc/QEspresso7.2/ZnO_database/scripts/cell211.in/ZnO-3.14-1.52-211.in
Warning: card &CELL ignored
Warning: card / ignored
Warning: card &FCP ignored
Warning: card / ignored
Warning: card &RISM ignored
Warning: card / ignored

     Current dimensions of program PWSCF are:
     Max number of different atomic species (ntypx) = 10
     Max number of k-points (npk) =  40000
     Max angular momentum in pseudopotentials (lmaxx) =  4
     file Zn.upf: wavefunction(s)  3D renormalized
     Found identity + ( -0.5000  0.0000  0.0000) symmetry
     This is a supercell, fractional translations are disabled
     Message from routine setup:
     using ibrav=0 with symmetry is DISCOURAGED, use correct ibrav instead

     Subspace diagonalization in iterative solution of the eigenvalue problem:
     a serial algorithm will be used

     Using Slab Decomposition

     bravais-lattice index     =            0
     lattice parameter (alat)  =      11.8634  a.u.
     unit-cell volume          =     548.5623 (a.u.)^3
     number of atoms/cell      =            8
     number of atomic types    =            2
     number of electrons       =        72.00
     number of Kohn-Sham states=           36
     kinetic-energy cutoff     =      50.0000  Ry
     charge density cutoff     =     400.0000  Ry
     scf convergence threshold =      1.0E-08
     mixing beta               =       0.3000
     number of iterations used =            8  plain     mixing
     Exchange-correlation= PBE
                           (   1   4   3   4   0   0   0)

     celldm(1)=  11.863400  celldm(2)=   0.000000  celldm(3)=   0.000000
     celldm(4)=   0.000000  celldm(5)=   0.000000  celldm(6)=   0.000000

     crystal axes: (cart. coord. in units of alat)
               a(1) = (   1.000000   0.000000   0.000000 )
               a(2) = (  -0.250000   0.433013   0.000000 )
               a(3) = (   0.000000   0.000000   0.758748 )

     reciprocal axes: (cart. coord. in units 2 pi/alat)
               b(1) = (  1.000000  0.577350 -0.000000 )
               b(2) = (  0.000000  2.309401  0.000000 )
               b(3) = (  0.000000 -0.000000  1.317960 )

     PseudoPot. # 1 for Zn read from file:
     /home/jvc/QEspresso7.2/ZnO_database/pseudos/Zn.upf
     MD5 check sum: 7f56cabf9682ed8c977c2f7d0c5985c5
     Pseudo is Ultrasoft + core correction, Zval = 12.0
     Generated using &quot;atomic&quot; code by A. Dal Corso  v.6.2.2
     Using radial grid of 1201 points,  6 beta functions with:
                l(1) =   0
                l(2) =   0
                l(3) =   1
                l(4) =   1
                l(5) =   2
                l(6) =   2
     Q(r) pseudized with 0 coefficients

     PseudoPot. # 2 for O  read from file:
     /home/jvc/QEspresso7.2/ZnO_database/pseudos/O.upf
     MD5 check sum: 91400c9766925bcf19f520983a725ff0
     Pseudo is Ultrasoft + core correction, Zval =  6.0
     Generated using &quot;atomic&quot; code by A. Dal Corso  v.6.3MaX
     Using radial grid of 1095 points,  4 beta functions with:
                l(1) =   0
                l(2) =   0
                l(3) =   1
                l(4) =   1
     Q(r) pseudized with 0 coefficients

     atomic species   valence    mass     pseudopotential
        Zn            12.00    65.38000     Zn( 1.00)
        O              6.00    15.99900     O ( 1.00)

      2 Sym. Ops. (no inversion) found

                                    s                        frac. trans.

      isym =  1     identity

 cryst.   s( 1) = (     1          0          0      )
                  (     0          1          0      )
                  (     0          0          1      )

 cart.    s( 1) = (  1.0000000  0.0000000  0.0000000 )
                  (  0.0000000  1.0000000  0.0000000 )
                  (  0.0000000  0.0000000  1.0000000 )

      isym =  2     inv. 180 deg rotation - cryst. axis [0,1,0]

 cryst.   s( 2) = (     1          2          0      )
                  (     0         -1          0      )
                  (     0          0          1      )

 cart.    s( 2) = (  0.5000000  0.8660254  0.0000000 )
                  (  0.8660254 -0.5000000  0.0000000 )
                  (  0.0000000  0.0000000  1.0000000 )

   Cartesian axes

     site n.     atom                  positions (alat units)
         1           Zn  tau(   1) = (   0.2500000   0.1443376   0.3798549  )
         2           Zn  tau(   2) = (  -0.0000000   0.2886751   0.0004807  )
         3           O   tau(   3) = (   0.2500000   0.1443376   0.6674531  )
         4           O   tau(   4) = (  -0.0000000   0.2886751   0.2880789  )
         5           Zn  tau(   5) = (   0.7500000   0.1443376   0.3798549  )
         6           Zn  tau(   6) = (   0.5000000   0.2886751   0.0004807  )
         7           O   tau(   7) = (   0.7500000   0.1443376   0.6674531  )
         8           O   tau(   8) = (   0.5000000   0.2886751   0.2880789  )

   Crystallographic axes

     site n.     atom                  positions (cryst. coord.)
         1           Zn  tau(   1) = (  0.3333333  0.3333333  0.5006336  )
         2           Zn  tau(   2) = (  0.1666667  0.6666667  0.0006336  )
         3           O   tau(   3) = (  0.3333333  0.3333333  0.8796764  )
         4           O   tau(   4) = (  0.1666667  0.6666667  0.3796764  )
         5           Zn  tau(   5) = (  0.8333333  0.3333333  0.5006336  )
         6           Zn  tau(   6) = (  0.6666667  0.6666667  0.0006336  )
         7           O   tau(   7) = (  0.8333333  0.3333333  0.8796764  )
         8           O   tau(   8) = (  0.6666667  0.6666667  0.3796764  )

     number of k points=    80
                       cart. coord. in units 2pi/alat
        k(    1) = (   0.0000000   0.0000000   0.0000000), wk =   0.0092593
        k(    2) = (   0.0000000   0.0000000   0.2196600), wk =   0.0185185
        k(    3) = (   0.0000000   0.0000000   0.4393200), wk =   0.0185185
        k(    4) = (   0.0000000   0.0000000  -0.6589799), wk =   0.0092593
        k(    5) = (   0.0000000   0.3849002   0.0000000), wk =   0.0370370
        k(    6) = (   0.0000000   0.3849002   0.2196600), wk =   0.0370370
        k(    7) = (   0.0000000   0.3849002   0.4393200), wk =   0.0370370
        k(    8) = (   0.0000000   0.3849002  -0.6589799), wk =   0.0370370
        k(    9) = (   0.0000000   0.7698004   0.0000000), wk =   0.0370370
        k(   10) = (   0.0000000   0.7698004   0.2196600), wk =   0.0370370
        k(   11) = (   0.0000000   0.7698004   0.4393200), wk =   0.0370370
        k(   12) = (   0.0000000   0.7698004  -0.6589799), wk =   0.0370370
        k(   13) = (   0.0000000  -1.1547005   0.0000000), wk =   0.0092593
        k(   14) = (   0.0000000  -1.1547005   0.2196600), wk =   0.0185185
        k(   15) = (   0.0000000  -1.1547005   0.4393200), wk =   0.0185185
        k(   16) = (   0.0000000  -1.1547005  -0.6589799), wk =   0.0092593
        k(   17) = (   0.1666667   0.0962250   0.0000000), wk =   0.0185185
        k(   18) = (   0.1666667   0.0962250   0.2196600), wk =   0.0185185
        k(   19) = (   0.1666667   0.0962250   0.4393200), wk =   0.0185185
        k(   20) = (   0.1666667   0.0962250  -0.6589799), wk =   0.0185185
        k(   21) = (   0.1666667   0.4811252   0.0000000), wk =   0.0370370
        k(   22) = (   0.1666667   0.4811252   0.2196600), wk =   0.0370370
        k(   23) = (   0.1666667   0.4811252   0.4393200), wk =   0.0370370
        k(   24) = (   0.1666667   0.4811252  -0.6589799), wk =   0.0370370
        k(   25) = (   0.1666667   0.8660254   0.0000000), wk =   0.0185185
        k(   26) = (   0.1666667   0.8660254   0.2196600), wk =   0.0370370
        k(   27) = (   0.1666667   0.8660254   0.4393200), wk =   0.0370370
        k(   28) = (   0.1666667   0.8660254  -0.6589799), wk =   0.0185185
        k(   29) = (   0.1666667  -1.0584755   0.0000000), wk =   0.0185185
        k(   30) = (   0.1666667  -1.0584755   0.2196600), wk =   0.0185185
        k(   31) = (   0.1666667  -1.0584755   0.4393200), wk =   0.0185185
        k(   32) = (   0.1666667  -1.0584755  -0.6589799), wk =   0.0185185
        k(   33) = (   0.1666667  -0.6735753   0.0000000), wk =   0.0370370
        k(   34) = (   0.1666667  -0.6735753   0.2196600), wk =   0.0370370
        k(   35) = (   0.1666667  -0.6735753   0.4393200), wk =   0.0370370
        k(   36) = (   0.1666667  -0.6735753  -0.6589799), wk =   0.0370370
        k(   37) = (   0.1666667  -0.2886751   0.0000000), wk =   0.0185185
        k(   38) = (   0.1666667  -0.2886751   0.2196600), wk =   0.0370370
        k(   39) = (   0.1666667  -0.2886751   0.4393200), wk =   0.0370370
        k(   40) = (   0.1666667  -0.2886751  -0.6589799), wk =   0.0185185
        k(   41) = (   0.3333333   0.1924501   0.0000000), wk =   0.0185185
        k(   42) = (   0.3333333   0.1924501   0.2196600), wk =   0.0185185
        k(   43) = (   0.3333333   0.1924501   0.4393200), wk =   0.0185185
        k(   44) = (   0.3333333   0.1924501  -0.6589799), wk =   0.0185185
        k(   45) = (   0.3333333   0.5773503   0.0000000), wk =   0.0185185
        k(   46) = (   0.3333333   0.5773503   0.2196600), wk =   0.0370370
        k(   47) = (   0.3333333   0.5773503   0.4393200), wk =   0.0370370
        k(   48) = (   0.3333333   0.5773503  -0.6589799), wk =   0.0185185
        k(   49) = (   0.3333333  -0.9622504   0.0000000), wk =   0.0185185
        k(   50) = (   0.3333333  -0.9622504   0.2196600), wk =   0.0185185
        k(   51) = (   0.3333333  -0.9622504   0.4393200), wk =   0.0185185
        k(   52) = (   0.3333333  -0.9622504  -0.6589799), wk =   0.0185185
        k(   53) = (   0.3333333  -0.5773503   0.0000000), wk =   0.0185185
        k(   54) = (   0.3333333  -0.5773503   0.2196600), wk =   0.0370370
        k(   55) = (   0.3333333  -0.5773503   0.4393200), wk =   0.0370370
        k(   56) = (   0.3333333  -0.5773503  -0.6589799), wk =   0.0185185
        k(   57) = (  -0.5000000  -0.2886751   0.0000000), wk =   0.0092593
        k(   58) = (  -0.5000000  -0.2886751   0.2196600), wk =   0.0185185
        k(   59) = (  -0.5000000  -0.2886751   0.4393200), wk =   0.0185185
        k(   60) = (  -0.5000000  -0.2886751  -0.6589799), wk =   0.0092593
[...]
        k(   66) = (   0.3333333  -0.1924501  -0.4393200), wk =   0.0370370
        k(   67) = (   0.6666667  -0.3849002  -0.2196600), wk =   0.0370370
        k(   68) = (   0.6666667  -0.3849002  -0.4393200), wk =   0.0370370
        k(   69) = (   0.1666667   0.0962250  -0.2196600), wk =   0.0185185
        k(   70) = (   0.1666667   0.0962250  -0.4393200), wk =   0.0185185
        k(   71) = (   0.5000000  -0.0962250  -0.2196600), wk =   0.0370370
        k(   72) = (   0.5000000  -0.0962250  -0.4393200), wk =   0.0370370
        k(   73) = (  -0.8333333   0.6735753  -0.2196600), wk =   0.0185185
        k(   74) = (  -0.8333333   0.6735753  -0.4393200), wk =   0.0185185
        k(   75) = (  -0.5000000   0.4811252  -0.2196600), wk =   0.0370370
        k(   76) = (  -0.5000000   0.4811252  -0.4393200), wk =   0.0370370
        k(   77) = (   0.3333333   0.1924501  -0.2196600), wk =   0.0185185
        k(   78) = (   0.3333333   0.1924501  -0.4393200), wk =   0.0185185
        k(   79) = (  -0.6666667   0.7698004  -0.2196600), wk =   0.0185185
        k(   80) = (  -0.6666667   0.7698004  -0.4393200), wk =   0.0185185

                       cryst. coord.
        k(    1) = (   0.0000000   0.0000000   0.0000000), wk =   0.0092593
        k(    2) = (   0.0000000   0.0000000   0.1666667), wk =   0.0185185
        k(    3) = (   0.0000000   0.0000000   0.3333333), wk =   0.0185185
        k(    4) = (   0.0000000   0.0000000  -0.5000000), wk =   0.0092593
        k(    5) = (   0.0000000   0.1666667   0.0000000), wk =   0.0370370
        k(    6) = (   0.0000000   0.1666667   0.1666667), wk =   0.0370370
        k(    7) = (   0.0000000   0.1666667   0.3333333), wk =   0.0370370
        k(    8) = (   0.0000000   0.1666667  -0.5000000), wk =   0.0370370
        k(    9) = (   0.0000000   0.3333333   0.0000000), wk =   0.0370370
        k(   10) = (   0.0000000   0.3333333   0.1666667), wk =   0.0370370
        k(   11) = (   0.0000000   0.3333333   0.3333333), wk =   0.0370370
        k(   12) = (   0.0000000   0.3333333  -0.5000000), wk =   0.0370370
        k(   13) = (   0.0000000  -0.5000000   0.0000000), wk =   0.0092593
        k(   14) = (   0.0000000  -0.5000000   0.1666667), wk =   0.0185185
        k(   15) = (   0.0000000  -0.5000000   0.3333333), wk =   0.0185185
        k(   16) = (   0.0000000  -0.5000000  -0.5000000), wk =   0.0092593
        k(   17) = (   0.1666667   0.0000000   0.0000000), wk =   0.0185185
        k(   18) = (   0.1666667   0.0000000   0.1666667), wk =   0.0185185
        k(   19) = (   0.1666667   0.0000000   0.3333333), wk =   0.0185185
        k(   20) = (   0.1666667   0.0000000  -0.5000000), wk =   0.0185185
        k(   21) = (   0.1666667   0.1666667   0.0000000), wk =   0.0370370
        k(   22) = (   0.1666667   0.1666667   0.1666667), wk =   0.0370370
        k(   23) = (   0.1666667   0.1666667   0.3333333), wk =   0.0370370
        k(   24) = (   0.1666667   0.1666667  -0.5000000), wk =   0.0370370
        k(   25) = (   0.1666667   0.3333333   0.0000000), wk =   0.0185185
        k(   26) = (   0.1666667   0.3333333   0.1666667), wk =   0.0370370
        k(   27) = (   0.1666667   0.3333333   0.3333333), wk =   0.0370370
        k(   28) = (   0.1666667   0.3333333  -0.5000000), wk =   0.0185185
        k(   29) = (   0.1666667  -0.5000000   0.0000000), wk =   0.0185185
        k(   30) = (   0.1666667  -0.5000000   0.1666667), wk =   0.0185185
        k(   31) = (   0.1666667  -0.5000000   0.3333333), wk =   0.0185185
        k(   32) = (   0.1666667  -0.5000000  -0.5000000), wk =   0.0185185
        k(   33) = (   0.1666667  -0.3333333   0.0000000), wk =   0.0370370
        k(   34) = (   0.1666667  -0.3333333   0.1666667), wk =   0.0370370
        k(   35) = (   0.1666667  -0.3333333   0.3333333), wk =   0.0370370
        k(   36) = (   0.1666667  -0.3333333  -0.5000000), wk =   0.0370370
        k(   37) = (   0.1666667  -0.1666667   0.0000000), wk =   0.0185185
        k(   38) = (   0.1666667  -0.1666667   0.1666667), wk =   0.0370370
        k(   39) = (   0.1666667  -0.1666667   0.3333333), wk =   0.0370370
        k(   40) = (   0.1666667  -0.1666667  -0.5000000), wk =   0.0185185
        k(   41) = (   0.3333333   0.0000000   0.0000000), wk =   0.0185185
        k(   42) = (   0.3333333   0.0000000   0.1666667), wk =   0.0185185
        k(   43) = (   0.3333333   0.0000000   0.3333333), wk =   0.0185185
        k(   44) = (   0.3333333   0.0000000  -0.5000000), wk =   0.0185185
        k(   45) = (   0.3333333   0.1666667   0.0000000), wk =   0.0185185
        k(   46) = (   0.3333333   0.1666667   0.1666667), wk =   0.0370370
        k(   47) = (   0.3333333   0.1666667   0.3333333), wk =   0.0370370
        k(   48) = (   0.3333333   0.1666667  -0.5000000), wk =   0.0185185
        k(   49) = (   0.3333333  -0.5000000   0.0000000), wk =   0.0185185
        k(   50) = (   0.3333333  -0.5000000   0.1666667), wk =   0.0185185
        k(   51) = (   0.3333333  -0.5000000   0.3333333), wk =   0.0185185
        k(   52) = (   0.3333333  -0.5000000  -0.5000000), wk =   0.0185185
        k(   53) = (   0.3333333  -0.3333333   0.0000000), wk =   0.0185185
        k(   54) = (   0.3333333  -0.3333333   0.1666667), wk =   0.0370370
        k(   55) = (   0.3333333  -0.3333333   0.3333333), wk =   0.0370370
        k(   56) = (   0.3333333  -0.3333333  -0.5000000), wk =   0.0185185
        k(   57) = (  -0.5000000   0.0000000   0.0000000), wk =   0.0092593
        k(   58) = (  -0.5000000   0.0000000   0.1666667), wk =   0.0185185
        k(   59) = (  -0.5000000   0.0000000   0.3333333), wk =   0.0185185
        k(   60) = (  -0.5000000   0.0000000  -0.5000000), wk =   0.0092593
[...]
        k(   66) = (   0.3333333  -0.1666667  -0.3333333), wk =   0.0370370
        k(   67) = (   0.6666667  -0.3333333  -0.1666667), wk =   0.0370370
        k(   68) = (   0.6666667  -0.3333333  -0.3333333), wk =   0.0370370
        k(   69) = (   0.1666667   0.0000000  -0.1666667), wk =   0.0185185
        k(   70) = (   0.1666667   0.0000000  -0.3333333), wk =   0.0185185
        k(   71) = (   0.5000000  -0.1666667  -0.1666667), wk =   0.0370370
        k(   72) = (   0.5000000  -0.1666667  -0.3333333), wk =   0.0370370
        k(   73) = (  -0.8333333   0.5000000  -0.1666667), wk =   0.0185185
        k(   74) = (  -0.8333333   0.5000000  -0.3333333), wk =   0.0185185
        k(   75) = (  -0.5000000   0.3333333  -0.1666667), wk =   0.0370370
        k(   76) = (  -0.5000000   0.3333333  -0.3333333), wk =   0.0370370
        k(   77) = (   0.3333333   0.0000000  -0.1666667), wk =   0.0185185
        k(   78) = (   0.3333333   0.0000000  -0.3333333), wk =   0.0185185
        k(   79) = (  -0.6666667   0.5000000  -0.1666667), wk =   0.0185185
        k(   80) = (  -0.6666667   0.5000000  -0.3333333), wk =   0.0185185

     Check: negative core charge=   -0.000002

     Initial potential from superposition of free atoms

     starting charge      71.9851, renormalised to      72.0000
     Starting wfcs are   52 randomized atomic wfcs

     Self-consistent Calculation

     iteration #  1     ecut=    50.00 Ry     beta= 0.30
     Davidson diagonalization with overlap

     ethr =  1.00E-02,  avg # of iterations =  2.0

     total energy              =    -722.84400054 Ry
     estimated scf accuracy    <       1.35743749 Ry

[...]

     c_bands:  1 eigenvalues not converged
     c_bands:  1 eigenvalues not converged
     c_bands:  1 eigenvalues not converged
     ethr =  1.64E-09,  avg # of iterations = 14.2

[...]

     total energy              =    -723.12491977 Ry
     estimated scf accuracy    <       0.00000146 Ry

     iteration # 27     ecut=    50.00 Ry     beta= 0.30
     Davidson diagonalization with overlap

     ethr =  1.64E-09,  avg # of iterations =  5.3

     End of self-consistent calculation

          k = 0.0000 0.0000 0.0000 (  3303 PWs)   bands (ev):

    -9.6521  -8.7480  -8.5367  -8.4027   2.8425   2.9740   3.0239   3.2883
     3.2885   3.3267   3.5685   3.5775   3.5776   3.7754   4.0845   4.3443
     4.9333   4.9334   4.9895   5.1992   5.2907   5.2907   5.3658   5.4335
     5.5972   5.8811   6.0064   6.6211   6.8178   8.4175   8.6578   8.6580
     8.8734   9.8269   9.8271   9.8320

     occupation numbers
     1.0000   1.0000   1.0000   1.0000   1.0000   1.0000   1.0000   1.0000
     1.0000   1.0000   1.0000   1.0000   1.0000   1.0000   1.0000   1.0000
     1.0000   1.0000   1.0000   1.0000   1.0000   1.0000   1.0000   1.0000
     1.0000   1.0000   1.0000   1.0000   1.0000   1.0000   1.0000   1.0000
     1.0000   1.0000   1.0000   1.0000

[...]

          k =-0.5000-0.2887 0.0000 (  3280 PWs)   bands (ev):

[...]

          k = 0.3333 0.1925-0.4393 (  3278 PWs)   bands (ev):

[...]

          k =-0.6667 0.7698-0.4393 (  3274 PWs)   bands (ev):

    -8.6514  -8.6513  -8.4673  -8.4672   2.6891   2.6891   2.7594   2.7594
     3.5193   3.5193   3.6334   3.6334   3.9563   3.9563   4.0514   4.0514
     5.0520   5.0520   5.1709   5.1709   5.3640   5.3640   5.5216   5.5216
     5.8754   5.8754   6.2939   6.2939   6.9253   6.9254   7.7742   7.7743
     8.0639   8.0639   8.7301   8.7302

     occupation numbers
     1.0000   1.0000   1.0000   1.0000   1.0000   1.0000   1.0000   1.0000
     1.0000   1.0000   1.0000   1.0000   1.0000   1.0000   1.0000   1.0000
     1.0000   1.0000   1.0000   1.0000   1.0000   1.0000   1.0000   1.0000
     1.0000   1.0000   1.0000   1.0000   1.0000   1.0000   1.0000   1.0000
     1.0000   1.0000   1.0000   1.0000

     highest occupied level (ev):     9.8320

!    total energy              =    -723.12492024 Ry
     estimated scf accuracy    <          4.7E-09 Ry

     The total energy is the sum of the following terms:
     one-electron contribution =    -266.91766086 Ry
     hartree contribution      =     222.15320069 Ry
     xc contribution           =    -219.94980696 Ry
     ewald contribution        =    -458.41065311 Ry

     convergence has been achieved in  27 iterations

     Forces acting on atoms (cartesian axes, Ry/au):

     atom    1 type  1   force =     0.00003571    0.00002062   -0.05416471
     atom    2 type  1   force =    -0.00001777   -0.00001026   -0.05415742
     atom    3 type  2   force =     0.00000847    0.00000489    0.05416186
     atom    4 type  2   force =     0.00000480    0.00000277    0.05416011
     atom    5 type  1   force =    -0.00000508   -0.00000293   -0.05415119
     atom    6 type  1   force =    -0.00001890   -0.00001091   -0.05417000
     atom    7 type  2   force =    -0.00000099   -0.00000057    0.05416368
     atom    8 type  2   force =    -0.00000624   -0.00000360    0.05415766
     The non-local contrib.  to forces
     atom    1 type  1   force =    -0.00000844   -0.00000487   -0.20208610
     atom    2 type  1   force =     0.00001932    0.00001115   -0.20208087
     atom    3 type  2   force =    -0.00015424   -0.00008905   -0.12866747
     atom    4 type  2   force =     0.00015349    0.00008862   -0.12867320
     atom    5 type  1   force =    -0.00002869   -0.00001656   -0.20208261
     atom    6 type  1   force =     0.00002107    0.00001217   -0.20208384
     atom    7 type  2   force =    -0.00014148   -0.00008169   -0.12866490
     atom    8 type  2   force =     0.00014782    0.00008534   -0.12867295
     The ionic contribution  to forces
     atom    1 type  1   force =     0.00000001    0.00000001   -1.36942184
     atom    2 type  1   force =     0.00000002    0.00000001   -1.36942183
     atom    3 type  2   force =     0.00000001    0.00000001    1.36942184
     atom    4 type  2   force =     0.00000001    0.00000000    1.36942183
     atom    5 type  1   force =    -0.00000002   -0.00000001   -1.36942183
     atom    6 type  1   force =    -0.00000001   -0.00000001   -1.36942184
     atom    7 type  2   force =    -0.00000001   -0.00000000    1.36942183
     atom    8 type  2   force =    -0.00000001   -0.00000001    1.36942184
     The local contribution  to forces
     atom    1 type  1   force =     0.00000562    0.00000324    1.49932379
     atom    2 type  1   force =    -0.00002202   -0.00001281    1.49930179
     atom    3 type  2   force =     0.00013031    0.00007524   -1.18738510
     atom    4 type  2   force =    -0.00015923   -0.00009195   -1.18738634
     atom    5 type  1   force =     0.00005713    0.00003308    1.49929497
     atom    6 type  1   force =    -0.00004251   -0.00002454    1.49931590
     atom    7 type  2   force =     0.00015484    0.00008942   -1.18739379
     atom    8 type  2   force =    -0.00013022   -0.00007518   -1.18738013
     The core correction contribution to forces
     atom    1 type  1   force =    -0.00000305   -0.00000181    0.01808630
     atom    2 type  1   force =     0.00000227    0.00000128    0.01808677
     atom    3 type  2   force =     0.00000170    0.00000100    0.00077984
     atom    4 type  2   force =    -0.00000180   -0.00000104    0.00077991
     atom    5 type  1   force =    -0.00000283   -0.00000160    0.01808719
     atom    6 type  1   force =     0.00000369    0.00000218    0.01808679
     atom    7 type  2   force =     0.00000164    0.00000095    0.00077979
     atom    8 type  2   force =    -0.00000161   -0.00000095    0.00077993
     The Hubbard contrib.    to forces
     atom    1 type  1   force =     0.00000000    0.00000000    0.00000000
     atom    2 type  1   force =     0.00000000    0.00000000    0.00000000
     atom    3 type  2   force =     0.00000000    0.00000000    0.00000000
     atom    4 type  2   force =     0.00000000    0.00000000    0.00000000
     atom    5 type  1   force =     0.00000000    0.00000000    0.00000000
     atom    6 type  1   force =     0.00000000    0.00000000    0.00000000
     atom    7 type  2   force =     0.00000000    0.00000000    0.00000000
     atom    8 type  2   force =     0.00000000    0.00000000    0.00000000
     The SCF correction term to forces
     atom    1 type  1   force =     0.00004219    0.00002436   -0.00009024
     atom    2 type  1   force =    -0.00001671   -0.00000965   -0.00006663
     atom    3 type  2   force =     0.00003128    0.00001806   -0.00001062
     atom    4 type  2   force =     0.00001293    0.00000747   -0.00000546
     atom    5 type  1   force =    -0.00003013   -0.00001739   -0.00005227
     atom    6 type  1   force =    -0.00000057   -0.00000033   -0.00009038
     atom    7 type  2   force =    -0.00001539   -0.00000889   -0.00000262
     atom    8 type  2   force =    -0.00002161   -0.00001248   -0.00001438

     Total force =     0.153190     Total SCF correction =     0.000174

     General routines

     Parallel routines

   This run was terminated on:  16: 7:17  26Aug2025

   JOB DONE.