     Program PWSCF v.7.0 starts on 26Aug2025 at 18:15: 8

     K-points division:     npool     =       4
     band groups division:  nbgrp     =       4

     Reading input from /home/jvc/QEspresso7.2/ZnO_database/scripts/cell211.in/ZnO-3.20-1.78-211.in
Warning: card &CELL ignored
Warning: card / ignored
Warning: card &FCP ignored
Warning: card / ignored
Warning: card &RISM ignored
Warning: card / ignored

     Current dimensions of program PWSCF are:
     Max number of different atomic species (ntypx) = 10
     Max number of k-points (npk) =  40000
     Max angular momentum in pseudopotentials (lmaxx) =  4
     file Zn.upf: wavefunction(s)  3D renormalized
     Found identity + ( -0.5000  0.0000  0.0000) symmetry
     This is a supercell, fractional translations are disabled
     Message from routine setup:
     using ibrav=0 with symmetry is DISCOURAGED, use correct ibrav instead

     Subspace diagonalization in iterative solution of the eigenvalue problem:
     a serial algorithm will be used

     Using Slab Decomposition

     bravais-lattice index     =            0
     lattice parameter (alat)  =      12.1106  a.u.
     unit-cell volume          =     682.8971 (a.u.)^3
     number of atoms/cell      =            8
     number of atomic types    =            2
     number of electrons       =        72.00
     number of Kohn-Sham states=           36
     kinetic-energy cutoff     =      50.0000  Ry
     charge density cutoff     =     400.0000  Ry
     scf convergence threshold =      1.0E-08
     mixing beta               =       0.3000
     number of iterations used =            8  plain     mixing
     Exchange-correlation= PBE
                           (   1   4   3   4   0   0   0)

     celldm(1)=  12.110554  celldm(2)=   0.000000  celldm(3)=   0.000000
     celldm(4)=   0.000000  celldm(5)=   0.000000  celldm(6)=   0.000000

     crystal axes: (cart. coord. in units of alat)
               a(1) = (   1.000000   0.000000   0.000000 )
               a(2) = (  -0.250000   0.433013   0.000000 )
               a(3) = (   0.000000   0.000000   0.887897 )

     reciprocal axes: (cart. coord. in units 2 pi/alat)
               b(1) = (  1.000000  0.577350 -0.000000 )
               b(2) = (  0.000000  2.309401  0.000000 )
               b(3) = (  0.000000 -0.000000  1.126257 )

     PseudoPot. # 1 for Zn read from file:
     /home/jvc/QEspresso7.2/ZnO_database/pseudos/Zn.upf
     MD5 check sum: 7f56cabf9682ed8c977c2f7d0c5985c5
     Pseudo is Ultrasoft + core correction, Zval = 12.0
     Generated using &quot;atomic&quot; code by A. Dal Corso  v.6.2.2
     Using radial grid of 1201 points,  6 beta functions with:
                l(1) =   0
                l(2) =   0
                l(3) =   1
                l(4) =   1
                l(5) =   2
                l(6) =   2
     Q(r) pseudized with 0 coefficients

     PseudoPot. # 2 for O  read from file:
     /home/jvc/QEspresso7.2/ZnO_database/pseudos/O.upf
     MD5 check sum: 91400c9766925bcf19f520983a725ff0
     Pseudo is Ultrasoft + core correction, Zval =  6.0
     Generated using &quot;atomic&quot; code by A. Dal Corso  v.6.3MaX
     Using radial grid of 1095 points,  4 beta functions with:
                l(1) =   0
                l(2) =   0
                l(3) =   1
                l(4) =   1
     Q(r) pseudized with 0 coefficients

     atomic species   valence    mass     pseudopotential
        Zn            12.00    65.38000     Zn( 1.00)
        O              6.00    15.99900     O ( 1.00)

      2 Sym. Ops. (no inversion) found

                                    s                        frac. trans.

      isym =  1     identity

 cryst.   s( 1) = (     1          0          0      )
                  (     0          1          0      )
                  (     0          0          1      )

 cart.    s( 1) = (  1.0000000  0.0000000  0.0000000 )
                  (  0.0000000  1.0000000  0.0000000 )
                  (  0.0000000  0.0000000  1.0000000 )

      isym =  2     inv. 180 deg rotation - cryst. axis [0,1,0]

 cryst.   s( 2) = (     1          2          0      )
                  (     0         -1          0      )
                  (     0          0          1      )

 cart.    s( 2) = (  0.5000000  0.8660254  0.0000000 )
                  (  0.8660254 -0.5000000  0.0000000 )
                  (  0.0000000  0.0000000  1.0000000 )

   Cartesian axes

     site n.     atom                  positions (alat units)
         1           Zn  tau(   1) = (   0.2500000   0.1443376   0.4445111  )
         2           Zn  tau(   2) = (   0.0000000   0.2886751   0.0005626  )
         3           O   tau(   3) = (   0.2500000   0.1443376   0.7810621  )
         4           O   tau(   4) = (   0.0000000   0.2886751   0.3371136  )
         5           Zn  tau(   5) = (   0.7500000   0.1443376   0.4445111  )
         6           Zn  tau(   6) = (   0.5000000   0.2886751   0.0005626  )
         7           O   tau(   7) = (   0.7500000   0.1443376   0.7810621  )
         8           O   tau(   8) = (   0.5000000   0.2886751   0.3371136  )

   Crystallographic axes

     site n.     atom                  positions (cryst. coord.)
         1           Zn  tau(   1) = (  0.3333333  0.3333333  0.5006336  )
         2           Zn  tau(   2) = (  0.1666667  0.6666667  0.0006336  )
         3           O   tau(   3) = (  0.3333333  0.3333333  0.8796764  )
         4           O   tau(   4) = (  0.1666667  0.6666667  0.3796764  )
         5           Zn  tau(   5) = (  0.8333333  0.3333333  0.5006336  )
         6           Zn  tau(   6) = (  0.6666667  0.6666667  0.0006336  )
         7           O   tau(   7) = (  0.8333333  0.3333333  0.8796764  )
         8           O   tau(   8) = (  0.6666667  0.6666667  0.3796764  )

     number of k points=    80
                       cart. coord. in units 2pi/alat
        k(    1) = (   0.0000000   0.0000000   0.0000000), wk =   0.0092593
        k(    2) = (   0.0000000   0.0000000   0.1877094), wk =   0.0185185
        k(    3) = (   0.0000000   0.0000000   0.3754189), wk =   0.0185185
        k(    4) = (   0.0000000   0.0000000  -0.5631283), wk =   0.0092593
        k(    5) = (   0.0000000   0.3849002   0.0000000), wk =   0.0370370
        k(    6) = (   0.0000000   0.3849002   0.1877094), wk =   0.0370370
        k(    7) = (   0.0000000   0.3849002   0.3754189), wk =   0.0370370
        k(    8) = (   0.0000000   0.3849002  -0.5631283), wk =   0.0370370
        k(    9) = (   0.0000000   0.7698004   0.0000000), wk =   0.0370370
        k(   10) = (   0.0000000   0.7698004   0.1877094), wk =   0.0370370
        k(   11) = (   0.0000000   0.7698004   0.3754189), wk =   0.0370370
        k(   12) = (   0.0000000   0.7698004  -0.5631283), wk =   0.0370370
        k(   13) = (   0.0000000  -1.1547005   0.0000000), wk =   0.0092593
        k(   14) = (   0.0000000  -1.1547005   0.1877094), wk =   0.0185185
        k(   15) = (   0.0000000  -1.1547005   0.3754189), wk =   0.0185185
        k(   16) = (   0.0000000  -1.1547005  -0.5631283), wk =   0.0092593
        k(   17) = (   0.1666667   0.0962250   0.0000000), wk =   0.0185185
        k(   18) = (   0.1666667   0.0962250   0.1877094), wk =   0.0185185
        k(   19) = (   0.1666667   0.0962250   0.3754189), wk =   0.0185185
        k(   20) = (   0.1666667   0.0962250  -0.5631283), wk =   0.0185185
        k(   21) = (   0.1666667   0.4811252   0.0000000), wk =   0.0370370
        k(   22) = (   0.1666667   0.4811252   0.1877094), wk =   0.0370370
        k(   23) = (   0.1666667   0.4811252   0.3754189), wk =   0.0370370
        k(   24) = (   0.1666667   0.4811252  -0.5631283), wk =   0.0370370
        k(   25) = (   0.1666667   0.8660254   0.0000000), wk =   0.0185185
        k(   26) = (   0.1666667   0.8660254   0.1877094), wk =   0.0370370
        k(   27) = (   0.1666667   0.8660254   0.3754189), wk =   0.0370370
        k(   28) = (   0.1666667   0.8660254  -0.5631283), wk =   0.0185185
        k(   29) = (   0.1666667  -1.0584755   0.0000000), wk =   0.0185185
        k(   30) = (   0.1666667  -1.0584755   0.1877094), wk =   0.0185185
        k(   31) = (   0.1666667  -1.0584755   0.3754189), wk =   0.0185185
        k(   32) = (   0.1666667  -1.0584755  -0.5631283), wk =   0.0185185
        k(   33) = (   0.1666667  -0.6735753   0.0000000), wk =   0.0370370
        k(   34) = (   0.1666667  -0.6735753   0.1877094), wk =   0.0370370
        k(   35) = (   0.1666667  -0.6735753   0.3754189), wk =   0.0370370
        k(   36) = (   0.1666667  -0.6735753  -0.5631283), wk =   0.0370370
        k(   37) = (   0.1666667  -0.2886751   0.0000000), wk =   0.0185185
        k(   38) = (   0.1666667  -0.2886751   0.1877094), wk =   0.0370370
        k(   39) = (   0.1666667  -0.2886751   0.3754189), wk =   0.0370370
        k(   40) = (   0.1666667  -0.2886751  -0.5631283), wk =   0.0185185
        k(   41) = (   0.3333333   0.1924501   0.0000000), wk =   0.0185185
        k(   42) = (   0.3333333   0.1924501   0.1877094), wk =   0.0185185
        k(   43) = (   0.3333333   0.1924501   0.3754189), wk =   0.0185185
        k(   44) = (   0.3333333   0.1924501  -0.5631283), wk =   0.0185185
        k(   45) = (   0.3333333   0.5773503   0.0000000), wk =   0.0185185
        k(   46) = (   0.3333333   0.5773503   0.1877094), wk =   0.0370370
        k(   47) = (   0.3333333   0.5773503   0.3754189), wk =   0.0370370
        k(   48) = (   0.3333333   0.5773503  -0.5631283), wk =   0.0185185
        k(   49) = (   0.3333333  -0.9622504   0.0000000), wk =   0.0185185
        k(   50) = (   0.3333333  -0.9622504   0.1877094), wk =   0.0185185
        k(   51) = (   0.3333333  -0.9622504   0.3754189), wk =   0.0185185
        k(   52) = (   0.3333333  -0.9622504  -0.5631283), wk =   0.0185185
        k(   53) = (   0.3333333  -0.5773503   0.0000000), wk =   0.0185185
        k(   54) = (   0.3333333  -0.5773503   0.1877094), wk =   0.0370370
        k(   55) = (   0.3333333  -0.5773503   0.3754189), wk =   0.0370370
        k(   56) = (   0.3333333  -0.5773503  -0.5631283), wk =   0.0185185
        k(   57) = (  -0.5000000  -0.2886751   0.0000000), wk =   0.0092593
        k(   58) = (  -0.5000000  -0.2886751   0.1877094), wk =   0.0185185
        k(   59) = (  -0.5000000  -0.2886751   0.3754189), wk =   0.0185185
        k(   60) = (  -0.5000000  -0.2886751  -0.5631283), wk =   0.0092593
[...]
        k(   66) = (   0.3333333  -0.1924501  -0.3754189), wk =   0.0370370
        k(   67) = (   0.6666667  -0.3849002  -0.1877094), wk =   0.0370370
        k(   68) = (   0.6666667  -0.3849002  -0.3754189), wk =   0.0370370
        k(   69) = (   0.1666667   0.0962250  -0.1877094), wk =   0.0185185
        k(   70) = (   0.1666667   0.0962250  -0.3754189), wk =   0.0185185
        k(   71) = (   0.5000000  -0.0962250  -0.1877094), wk =   0.0370370
        k(   72) = (   0.5000000  -0.0962250  -0.3754189), wk =   0.0370370
        k(   73) = (  -0.8333333   0.6735753  -0.1877094), wk =   0.0185185
        k(   74) = (  -0.8333333   0.6735753  -0.3754189), wk =   0.0185185
        k(   75) = (  -0.5000000   0.4811252  -0.1877094), wk =   0.0370370
        k(   76) = (  -0.5000000   0.4811252  -0.3754189), wk =   0.0370370
        k(   77) = (   0.3333333   0.1924501  -0.1877094), wk =   0.0185185
        k(   78) = (   0.3333333   0.1924501  -0.3754189), wk =   0.0185185
        k(   79) = (  -0.6666667   0.7698004  -0.1877094), wk =   0.0185185
        k(   80) = (  -0.6666667   0.7698004  -0.3754189), wk =   0.0185185

                       cryst. coord.
        k(    1) = (   0.0000000   0.0000000   0.0000000), wk =   0.0092593
        k(    2) = (   0.0000000   0.0000000   0.1666667), wk =   0.0185185
        k(    3) = (   0.0000000   0.0000000   0.3333333), wk =   0.0185185
        k(    4) = (   0.0000000   0.0000000  -0.5000000), wk =   0.0092593
        k(    5) = (   0.0000000   0.1666667   0.0000000), wk =   0.0370370
        k(    6) = (   0.0000000   0.1666667   0.1666667), wk =   0.0370370
        k(    7) = (   0.0000000   0.1666667   0.3333333), wk =   0.0370370
        k(    8) = (   0.0000000   0.1666667  -0.5000000), wk =   0.0370370
        k(    9) = (   0.0000000   0.3333333   0.0000000), wk =   0.0370370
        k(   10) = (   0.0000000   0.3333333   0.1666667), wk =   0.0370370
        k(   11) = (   0.0000000   0.3333333   0.3333333), wk =   0.0370370
        k(   12) = (   0.0000000   0.3333333  -0.5000000), wk =   0.0370370
        k(   13) = (   0.0000000  -0.5000000   0.0000000), wk =   0.0092593
        k(   14) = (   0.0000000  -0.5000000   0.1666667), wk =   0.0185185
        k(   15) = (   0.0000000  -0.5000000   0.3333333), wk =   0.0185185
        k(   16) = (   0.0000000  -0.5000000  -0.5000000), wk =   0.0092593
        k(   17) = (   0.1666667   0.0000000   0.0000000), wk =   0.0185185
        k(   18) = (   0.1666667   0.0000000   0.1666667), wk =   0.0185185
        k(   19) = (   0.1666667   0.0000000   0.3333333), wk =   0.0185185
        k(   20) = (   0.1666667   0.0000000  -0.5000000), wk =   0.0185185
        k(   21) = (   0.1666667   0.1666667   0.0000000), wk =   0.0370370
        k(   22) = (   0.1666667   0.1666667   0.1666667), wk =   0.0370370
        k(   23) = (   0.1666667   0.1666667   0.3333333), wk =   0.0370370
        k(   24) = (   0.1666667   0.1666667  -0.5000000), wk =   0.0370370
        k(   25) = (   0.1666667   0.3333333   0.0000000), wk =   0.0185185
        k(   26) = (   0.1666667   0.3333333   0.1666667), wk =   0.0370370
        k(   27) = (   0.1666667   0.3333333   0.3333333), wk =   0.0370370
        k(   28) = (   0.1666667   0.3333333  -0.5000000), wk =   0.0185185
        k(   29) = (   0.1666667  -0.5000000   0.0000000), wk =   0.0185185
        k(   30) = (   0.1666667  -0.5000000   0.1666667), wk =   0.0185185
        k(   31) = (   0.1666667  -0.5000000   0.3333333), wk =   0.0185185
        k(   32) = (   0.1666667  -0.5000000  -0.5000000), wk =   0.0185185
        k(   33) = (   0.1666667  -0.3333333   0.0000000), wk =   0.0370370
        k(   34) = (   0.1666667  -0.3333333   0.1666667), wk =   0.0370370
        k(   35) = (   0.1666667  -0.3333333   0.3333333), wk =   0.0370370
        k(   36) = (   0.1666667  -0.3333333  -0.5000000), wk =   0.0370370
        k(   37) = (   0.1666667  -0.1666667   0.0000000), wk =   0.0185185
        k(   38) = (   0.1666667  -0.1666667   0.1666667), wk =   0.0370370
        k(   39) = (   0.1666667  -0.1666667   0.3333333), wk =   0.0370370
        k(   40) = (   0.1666667  -0.1666667  -0.5000000), wk =   0.0185185
        k(   41) = (   0.3333333   0.0000000   0.0000000), wk =   0.0185185
        k(   42) = (   0.3333333   0.0000000   0.1666667), wk =   0.0185185
        k(   43) = (   0.3333333   0.0000000   0.3333333), wk =   0.0185185
        k(   44) = (   0.3333333   0.0000000  -0.5000000), wk =   0.0185185
        k(   45) = (   0.3333333   0.1666667   0.0000000), wk =   0.0185185
        k(   46) = (   0.3333333   0.1666667   0.1666667), wk =   0.0370370
        k(   47) = (   0.3333333   0.1666667   0.3333333), wk =   0.0370370
        k(   48) = (   0.3333333   0.1666667  -0.5000000), wk =   0.0185185
        k(   49) = (   0.3333333  -0.5000000   0.0000000), wk =   0.0185185
        k(   50) = (   0.3333333  -0.5000000   0.1666667), wk =   0.0185185
        k(   51) = (   0.3333333  -0.5000000   0.3333333), wk =   0.0185185
        k(   52) = (   0.3333333  -0.5000000  -0.5000000), wk =   0.0185185
        k(   53) = (   0.3333333  -0.3333333   0.0000000), wk =   0.0185185
        k(   54) = (   0.3333333  -0.3333333   0.1666667), wk =   0.0370370
        k(   55) = (   0.3333333  -0.3333333   0.3333333), wk =   0.0370370
        k(   56) = (   0.3333333  -0.3333333  -0.5000000), wk =   0.0185185
        k(   57) = (  -0.5000000  -0.0000000   0.0000000), wk =   0.0092593
        k(   58) = (  -0.5000000  -0.0000000   0.1666667), wk =   0.0185185
        k(   59) = (  -0.5000000  -0.0000000   0.3333333), wk =   0.0185185
        k(   60) = (  -0.5000000  -0.0000000  -0.5000000), wk =   0.0092593
[...]
        k(   66) = (   0.3333333  -0.1666667  -0.3333333), wk =   0.0370370
        k(   67) = (   0.6666667  -0.3333333  -0.1666667), wk =   0.0370370
        k(   68) = (   0.6666667  -0.3333333  -0.3333333), wk =   0.0370370
        k(   69) = (   0.1666667   0.0000000  -0.1666667), wk =   0.0185185
        k(   70) = (   0.1666667   0.0000000  -0.3333333), wk =   0.0185185
        k(   71) = (   0.5000000  -0.1666667  -0.1666667), wk =   0.0370370
        k(   72) = (   0.5000000  -0.1666667  -0.3333333), wk =   0.0370370
        k(   73) = (  -0.8333333   0.5000000  -0.1666667), wk =   0.0185185
        k(   74) = (  -0.8333333   0.5000000  -0.3333333), wk =   0.0185185
        k(   75) = (  -0.5000000   0.3333333  -0.1666667), wk =   0.0370370
        k(   76) = (  -0.5000000   0.3333333  -0.3333333), wk =   0.0370370
        k(   77) = (   0.3333333   0.0000000  -0.1666667), wk =   0.0185185
        k(   78) = (   0.3333333   0.0000000  -0.3333333), wk =   0.0185185
        k(   79) = (  -0.6666667   0.5000000  -0.1666667), wk =   0.0185185
        k(   80) = (  -0.6666667   0.5000000  -0.3333333), wk =   0.0185185

     Check: negative core charge=   -0.000002

     Initial potential from superposition of free atoms

     starting charge      71.9851, renormalised to      72.0000
     Starting wfcs are   52 randomized atomic wfcs

     Self-consistent Calculation

     iteration #  1     ecut=    50.00 Ry     beta= 0.30
     Davidson diagonalization with overlap

     ethr =  1.00E-02,  avg # of iterations =  1.9

     total energy              =    -722.92006066 Ry
     estimated scf accuracy    <       1.42915272 Ry

[...]

     total energy              =    -723.24842391 Ry
     estimated scf accuracy    <       0.00000001 Ry

     iteration # 28     ecut=    50.00 Ry     beta= 0.30
     Davidson diagonalization with overlap

     ethr =  1.52E-11,  avg # of iterations =  6.1

     End of self-consistent calculation

          k = 0.0000 0.0000 0.0000 (  4071 PWs)   bands (ev):

   -11.2681 -10.7705 -10.6185 -10.4699   0.7312   0.8639   0.8912   0.8915
     0.9635   0.9739   1.0205   1.0207   1.1707   1.5443   1.5593   1.7456
     1.9882   1.9882   2.0261   2.1151   2.1151   2.1386   2.1776   2.2571
     2.5005   2.5921   2.8875   3.8280   4.6382   5.1403   5.6055   5.9640
     5.9645   6.1331   6.4894   6.4899

     occupation numbers
     1.0000   1.0000   1.0000   1.0000   1.0000   1.0000   1.0000   1.0000
     1.0000   1.0000   1.0000   1.0000   1.0000   1.0000   1.0000   1.0000
     1.0000   1.0000   1.0000   1.0000   1.0000   1.0000   1.0000   1.0000
     1.0000   1.0000   1.0000   1.0000   1.0000   1.0000   1.0000   1.0000
     1.0000   1.0000   1.0000   1.0000

[...]

          k =-0.5000-0.2887 0.0000 (  4088 PWs)   bands (ev):

[...]

          k = 0.3333 0.1925-0.3754 (  4077 PWs)   bands (ev):

[...]

          k =-0.6667 0.7698-0.3754 (  4076 PWs)   bands (ev):

   -10.5841 -10.5841 -10.5051 -10.5050   0.7933   0.7933   0.8849   0.8849
     1.2113   1.2113   1.3814   1.3814   1.4869   1.4869   1.5296   1.5296
     2.0149   2.0149   2.1005   2.1005   2.2098   2.2098   2.3074   2.3074
     2.8076   2.8077   3.0994   3.0994   4.2259   4.2259   4.5455   4.5455
     4.9366   4.9366   5.2509   5.2509

     occupation numbers
     1.0000   1.0000   1.0000   1.0000   1.0000   1.0000   1.0000   1.0000
     1.0000   1.0000   1.0000   1.0000   1.0000   1.0000   1.0000   1.0000
     1.0000   1.0000   1.0000   1.0000   1.0000   1.0000   1.0000   1.0000
     1.0000   1.0000   1.0000   1.0000   1.0000   1.0000   1.0000   1.0000
     1.0000   1.0000   1.0000   1.0000

     highest occupied level (ev):     6.4899

!    total energy              =    -723.24842391 Ry
     estimated scf accuracy    <          9.8E-09 Ry

     The total energy is the sum of the following terms:
     one-electron contribution =    -318.30714708 Ry
     hartree contribution      =     240.02212784 Ry
     xc contribution           =    -218.96709972 Ry
     ewald contribution        =    -425.99630496 Ry

     convergence has been achieved in  28 iterations

     Forces acting on atoms (cartesian axes, Ry/au):

     atom    1 type  1   force =    -0.00000425   -0.00000245    0.01427304
     atom    2 type  1   force =    -0.00000249   -0.00000144    0.01426488
     atom    3 type  2   force =    -0.00000438   -0.00000253   -0.01426733
     atom    4 type  2   force =     0.00000500    0.00000289   -0.01426772
     atom    5 type  1   force =     0.00000627    0.00000362    0.01427313
     atom    6 type  1   force =    -0.00000053   -0.00000031    0.01425958
     atom    7 type  2   force =    -0.00000454   -0.00000262   -0.01426731
     atom    8 type  2   force =     0.00000492    0.00000284   -0.01426828
     The non-local contrib.  to forces
     atom    1 type  1   force =    -0.00001734   -0.00001001    0.25208653
     atom    2 type  1   force =     0.00001491    0.00000861    0.25207953
     atom    3 type  2   force =    -0.00019087   -0.00011020    0.24556243
     atom    4 type  2   force =     0.00019218    0.00011096    0.24556058
     atom    5 type  1   force =    -0.00001304   -0.00000753    0.25208648
     atom    6 type  1   force =     0.00001493    0.00000862    0.25207953
     atom    7 type  2   force =    -0.00019246   -0.00011112    0.24556308
     atom    8 type  2   force =     0.00019086    0.00011019    0.24555913
     The ionic contribution  to forces
     atom    1 type  1   force =     0.00000001    0.00000001    1.99206071
     atom    2 type  1   force =     0.00000000    0.00000000    1.99206072
     atom    3 type  2   force =     0.00000001    0.00000000   -1.99206071
     atom    4 type  2   force =     0.00000000    0.00000000   -1.99206072
     atom    5 type  1   force =    -0.00000001   -0.00000000    1.99206071
     atom    6 type  1   force =    -0.00000000   -0.00000001    1.99206071
     atom    7 type  2   force =    -0.00000001    0.00000000   -1.99206071
     atom    8 type  2   force =    -0.00000000   -0.00000001   -1.99206071
     The local contribution  to forces
     atom    1 type  1   force =     0.00003321    0.00001917   -2.21241008
     atom    2 type  1   force =    -0.00002571   -0.00001484   -2.21239353
     atom    3 type  2   force =     0.00018575    0.00010724    1.73427428
     atom    4 type  2   force =    -0.00018404   -0.00010625    1.73427090
     atom    5 type  1   force =     0.00001777    0.00001035   -2.21240965
     atom    6 type  1   force =    -0.00002392   -0.00001381   -2.21239029
     atom    7 type  2   force =     0.00018409    0.00010631    1.73427433
     atom    8 type  2   force =    -0.00018735   -0.00010817    1.73427182
     The core correction contribution to forces
     atom    1 type  1   force =    -0.00000844   -0.00000487   -0.01746174
     atom    2 type  1   force =     0.00000844    0.00000487   -0.01746188
     atom    3 type  2   force =     0.00000216    0.00000125   -0.00204132
     atom    4 type  2   force =    -0.00000218   -0.00000126   -0.00204129
     atom    5 type  1   force =    -0.00000820   -0.00000472   -0.01746178
     atom    6 type  1   force =     0.00000822    0.00000475   -0.01746195
     atom    7 type  2   force =     0.00000218    0.00000126   -0.00204133
     atom    8 type  2   force =    -0.00000217   -0.00000125   -0.00204127
     The Hubbard contrib.    to forces
     atom    1 type  1   force =     0.00000000    0.00000000    0.00000000
     atom    2 type  1   force =     0.00000000    0.00000000    0.00000000
     atom    3 type  2   force =     0.00000000    0.00000000    0.00000000
     atom    4 type  2   force =     0.00000000    0.00000000    0.00000000
     atom    5 type  1   force =     0.00000000    0.00000000    0.00000000
     atom    6 type  1   force =     0.00000000    0.00000000    0.00000000
     atom    7 type  2   force =     0.00000000    0.00000000    0.00000000
     atom    8 type  2   force =     0.00000000    0.00000000    0.00000000
     The SCF correction term to forces
     atom    1 type  1   force =    -0.00001189   -0.00000686   -0.00000571
     atom    2 type  1   force =    -0.00000033   -0.00000019   -0.00002328
     atom    3 type  2   force =    -0.00000163   -0.00000094   -0.00000533
     atom    4 type  2   force =    -0.00000117   -0.00000068   -0.00000051
     atom    5 type  1   force =     0.00000951    0.00000549   -0.00000597
     atom    6 type  1   force =     0.00000004    0.00000003   -0.00003174
     atom    7 type  2   force =     0.00000144    0.00000083   -0.00000600
     atom    8 type  2   force =     0.00000338    0.00000195   -0.00000056

     Total force =     0.040355     Total SCF correction =     0.000045

     General routines

     Parallel routines

   This run was terminated on:  18:23: 6  26Aug2025

   JOB DONE.