     Program PWSCF v.7.0 starts on 27Aug2025 at  1:41:42

     K-points division:     npool     =       4
     band groups division:  nbgrp     =       4

     Reading input from /home/jvc/QEspresso7.2/ZnO_database/scripts/cell211.in/ZnO-3.60-1.52-211.in
Warning: card &CELL ignored
Warning: card / ignored
Warning: card &FCP ignored
Warning: card / ignored
Warning: card &RISM ignored
Warning: card / ignored

     Current dimensions of program PWSCF are:
     Max number of different atomic species (ntypx) = 10
     Max number of k-points (npk) =  40000
     Max angular momentum in pseudopotentials (lmaxx) =  4
     file Zn.upf: wavefunction(s)  3D renormalized
     Found identity + ( -0.5000  0.0000  0.0000) symmetry
     This is a supercell, fractional translations are disabled
     Message from routine setup:
     using ibrav=0 with symmetry is DISCOURAGED, use correct ibrav instead

     Subspace diagonalization in iterative solution of the eigenvalue problem:
     a serial algorithm will be used

     Using Slab Decomposition

     bravais-lattice index     =            0
     lattice parameter (alat)  =      13.5935  a.u.
     unit-cell volume          =     825.2590 (a.u.)^3
     number of atoms/cell      =            8
     number of atomic types    =            2
     number of electrons       =        72.00
     number of Kohn-Sham states=           36
     kinetic-energy cutoff     =      50.0000  Ry
     charge density cutoff     =     400.0000  Ry
     scf convergence threshold =      1.0E-08
     mixing beta               =       0.3000
     number of iterations used =            8  plain     mixing
     Exchange-correlation= PBE
                           (   1   4   3   4   0   0   0)

     celldm(1)=  13.593479  celldm(2)=   0.000000  celldm(3)=   0.000000
     celldm(4)=   0.000000  celldm(5)=   0.000000  celldm(6)=   0.000000

     crystal axes: (cart. coord. in units of alat)
               a(1) = (   1.000000   0.000000   0.000000 )
               a(2) = (  -0.250000   0.433013   0.000000 )
               a(3) = (   0.000000   0.000000   0.758748 )

     reciprocal axes: (cart. coord. in units 2 pi/alat)
               b(1) = (  1.000000  0.577350 -0.000000 )
               b(2) = (  0.000000  2.309401  0.000000 )
               b(3) = (  0.000000 -0.000000  1.317960 )

     PseudoPot. # 1 for Zn read from file:
     /home/jvc/QEspresso7.2/ZnO_database/pseudos/Zn.upf
     MD5 check sum: 7f56cabf9682ed8c977c2f7d0c5985c5
     Pseudo is Ultrasoft + core correction, Zval = 12.0
     Generated using &quot;atomic&quot; code by A. Dal Corso  v.6.2.2
     Using radial grid of 1201 points,  6 beta functions with:
                l(1) =   0
                l(2) =   0
                l(3) =   1
                l(4) =   1
                l(5) =   2
                l(6) =   2
     Q(r) pseudized with 0 coefficients

     PseudoPot. # 2 for O  read from file:
     /home/jvc/QEspresso7.2/ZnO_database/pseudos/O.upf
     MD5 check sum: 91400c9766925bcf19f520983a725ff0
     Pseudo is Ultrasoft + core correction, Zval =  6.0
     Generated using &quot;atomic&quot; code by A. Dal Corso  v.6.3MaX
     Using radial grid of 1095 points,  4 beta functions with:
                l(1) =   0
                l(2) =   0
                l(3) =   1
                l(4) =   1
     Q(r) pseudized with 0 coefficients

     atomic species   valence    mass     pseudopotential
        Zn            12.00    65.38000     Zn( 1.00)
        O              6.00    15.99900     O ( 1.00)

      2 Sym. Ops. (no inversion) found

                                    s                        frac. trans.

      isym =  1     identity

 cryst.   s( 1) = (     1          0          0      )
                  (     0          1          0      )
                  (     0          0          1      )

 cart.    s( 1) = (  1.0000000  0.0000000  0.0000000 )
                  (  0.0000000  1.0000000  0.0000000 )
                  (  0.0000000  0.0000000  1.0000000 )

      isym =  2     inv. 180 deg rotation - cryst. axis [0,1,0]

 cryst.   s( 2) = (     1          2          0      )
                  (     0         -1          0      )
                  (     0          0          1      )

 cart.    s( 2) = (  0.5000000  0.8660254  0.0000000 )
                  (  0.8660254 -0.5000000  0.0000000 )
                  (  0.0000000  0.0000000  1.0000000 )

   Cartesian axes

     site n.     atom                  positions (alat units)
         1           Zn  tau(   1) = (   0.2500000   0.1443376   0.3798549  )
         2           Zn  tau(   2) = (  -0.0000000   0.2886751   0.0004807  )
         3           O   tau(   3) = (   0.2500000   0.1443376   0.6674531  )
         4           O   tau(   4) = (  -0.0000000   0.2886751   0.2880789  )
         5           Zn  tau(   5) = (   0.7500000   0.1443376   0.3798549  )
         6           Zn  tau(   6) = (   0.5000000   0.2886751   0.0004807  )
         7           O   tau(   7) = (   0.7500000   0.1443376   0.6674531  )
         8           O   tau(   8) = (   0.5000000   0.2886751   0.2880789  )

   Crystallographic axes

     site n.     atom                  positions (cryst. coord.)
         1           Zn  tau(   1) = (  0.3333333  0.3333333  0.5006336  )
         2           Zn  tau(   2) = (  0.1666667  0.6666667  0.0006336  )
         3           O   tau(   3) = (  0.3333333  0.3333333  0.8796764  )
         4           O   tau(   4) = (  0.1666667  0.6666667  0.3796764  )
         5           Zn  tau(   5) = (  0.8333333  0.3333333  0.5006336  )
         6           Zn  tau(   6) = (  0.6666667  0.6666667  0.0006336  )
         7           O   tau(   7) = (  0.8333333  0.3333333  0.8796764  )
         8           O   tau(   8) = (  0.6666667  0.6666667  0.3796764  )

     number of k points=    80
                       cart. coord. in units 2pi/alat
        k(    1) = (   0.0000000   0.0000000   0.0000000), wk =   0.0092593
        k(    2) = (   0.0000000   0.0000000   0.2196600), wk =   0.0185185
        k(    3) = (   0.0000000   0.0000000   0.4393200), wk =   0.0185185
        k(    4) = (   0.0000000   0.0000000  -0.6589799), wk =   0.0092593
        k(    5) = (   0.0000000   0.3849002   0.0000000), wk =   0.0370370
        k(    6) = (   0.0000000   0.3849002   0.2196600), wk =   0.0370370
        k(    7) = (   0.0000000   0.3849002   0.4393200), wk =   0.0370370
        k(    8) = (   0.0000000   0.3849002  -0.6589799), wk =   0.0370370
        k(    9) = (   0.0000000   0.7698004   0.0000000), wk =   0.0370370
        k(   10) = (   0.0000000   0.7698004   0.2196600), wk =   0.0370370
        k(   11) = (   0.0000000   0.7698004   0.4393200), wk =   0.0370370
        k(   12) = (   0.0000000   0.7698004  -0.6589799), wk =   0.0370370
        k(   13) = (   0.0000000  -1.1547005   0.0000000), wk =   0.0092593
        k(   14) = (   0.0000000  -1.1547005   0.2196600), wk =   0.0185185
        k(   15) = (   0.0000000  -1.1547005   0.4393200), wk =   0.0185185
        k(   16) = (   0.0000000  -1.1547005  -0.6589799), wk =   0.0092593
        k(   17) = (   0.1666667   0.0962250   0.0000000), wk =   0.0185185
        k(   18) = (   0.1666667   0.0962250   0.2196600), wk =   0.0185185
        k(   19) = (   0.1666667   0.0962250   0.4393200), wk =   0.0185185
        k(   20) = (   0.1666667   0.0962250  -0.6589799), wk =   0.0185185
        k(   21) = (   0.1666667   0.4811252   0.0000000), wk =   0.0370370
        k(   22) = (   0.1666667   0.4811252   0.2196600), wk =   0.0370370
        k(   23) = (   0.1666667   0.4811252   0.4393200), wk =   0.0370370
        k(   24) = (   0.1666667   0.4811252  -0.6589799), wk =   0.0370370
        k(   25) = (   0.1666667   0.8660254   0.0000000), wk =   0.0185185
        k(   26) = (   0.1666667   0.8660254   0.2196600), wk =   0.0370370
        k(   27) = (   0.1666667   0.8660254   0.4393200), wk =   0.0370370
        k(   28) = (   0.1666667   0.8660254  -0.6589799), wk =   0.0185185
        k(   29) = (   0.1666667  -1.0584755   0.0000000), wk =   0.0185185
        k(   30) = (   0.1666667  -1.0584755   0.2196600), wk =   0.0185185
        k(   31) = (   0.1666667  -1.0584755   0.4393200), wk =   0.0185185
        k(   32) = (   0.1666667  -1.0584755  -0.6589799), wk =   0.0185185
        k(   33) = (   0.1666667  -0.6735753   0.0000000), wk =   0.0370370
        k(   34) = (   0.1666667  -0.6735753   0.2196600), wk =   0.0370370
        k(   35) = (   0.1666667  -0.6735753   0.4393200), wk =   0.0370370
        k(   36) = (   0.1666667  -0.6735753  -0.6589799), wk =   0.0370370
        k(   37) = (   0.1666667  -0.2886751   0.0000000), wk =   0.0185185
        k(   38) = (   0.1666667  -0.2886751   0.2196600), wk =   0.0370370
        k(   39) = (   0.1666667  -0.2886751   0.4393200), wk =   0.0370370
        k(   40) = (   0.1666667  -0.2886751  -0.6589799), wk =   0.0185185
        k(   41) = (   0.3333333   0.1924501   0.0000000), wk =   0.0185185
        k(   42) = (   0.3333333   0.1924501   0.2196600), wk =   0.0185185
        k(   43) = (   0.3333333   0.1924501   0.4393200), wk =   0.0185185
        k(   44) = (   0.3333333   0.1924501  -0.6589799), wk =   0.0185185
        k(   45) = (   0.3333333   0.5773503   0.0000000), wk =   0.0185185
        k(   46) = (   0.3333333   0.5773503   0.2196600), wk =   0.0370370
        k(   47) = (   0.3333333   0.5773503   0.4393200), wk =   0.0370370
        k(   48) = (   0.3333333   0.5773503  -0.6589799), wk =   0.0185185
        k(   49) = (   0.3333333  -0.9622504   0.0000000), wk =   0.0185185
        k(   50) = (   0.3333333  -0.9622504   0.2196600), wk =   0.0185185
        k(   51) = (   0.3333333  -0.9622504   0.4393200), wk =   0.0185185
        k(   52) = (   0.3333333  -0.9622504  -0.6589799), wk =   0.0185185
        k(   53) = (   0.3333333  -0.5773503   0.0000000), wk =   0.0185185
        k(   54) = (   0.3333333  -0.5773503   0.2196600), wk =   0.0370370
        k(   55) = (   0.3333333  -0.5773503   0.4393200), wk =   0.0370370
        k(   56) = (   0.3333333  -0.5773503  -0.6589799), wk =   0.0185185
        k(   57) = (  -0.5000000  -0.2886751   0.0000000), wk =   0.0092593
        k(   58) = (  -0.5000000  -0.2886751   0.2196600), wk =   0.0185185
        k(   59) = (  -0.5000000  -0.2886751   0.4393200), wk =   0.0185185
        k(   60) = (  -0.5000000  -0.2886751  -0.6589799), wk =   0.0092593
[...]
        k(   66) = (   0.3333333  -0.1924501  -0.4393200), wk =   0.0370370
        k(   67) = (   0.6666667  -0.3849002  -0.2196600), wk =   0.0370370
        k(   68) = (   0.6666667  -0.3849002  -0.4393200), wk =   0.0370370
        k(   69) = (   0.1666667   0.0962250  -0.2196600), wk =   0.0185185
        k(   70) = (   0.1666667   0.0962250  -0.4393200), wk =   0.0185185
        k(   71) = (   0.5000000  -0.0962250  -0.2196600), wk =   0.0370370
        k(   72) = (   0.5000000  -0.0962250  -0.4393200), wk =   0.0370370
        k(   73) = (  -0.8333333   0.6735753  -0.2196600), wk =   0.0185185
        k(   74) = (  -0.8333333   0.6735753  -0.4393200), wk =   0.0185185
        k(   75) = (  -0.5000000   0.4811252  -0.2196600), wk =   0.0370370
        k(   76) = (  -0.5000000   0.4811252  -0.4393200), wk =   0.0370370
        k(   77) = (   0.3333333   0.1924501  -0.2196600), wk =   0.0185185
        k(   78) = (   0.3333333   0.1924501  -0.4393200), wk =   0.0185185
        k(   79) = (  -0.6666667   0.7698004  -0.2196600), wk =   0.0185185
        k(   80) = (  -0.6666667   0.7698004  -0.4393200), wk =   0.0185185

                       cryst. coord.
        k(    1) = (   0.0000000   0.0000000   0.0000000), wk =   0.0092593
        k(    2) = (   0.0000000   0.0000000   0.1666667), wk =   0.0185185
        k(    3) = (   0.0000000   0.0000000   0.3333333), wk =   0.0185185
        k(    4) = (   0.0000000   0.0000000  -0.5000000), wk =   0.0092593
        k(    5) = (   0.0000000   0.1666667   0.0000000), wk =   0.0370370
        k(    6) = (   0.0000000   0.1666667   0.1666667), wk =   0.0370370
        k(    7) = (   0.0000000   0.1666667   0.3333333), wk =   0.0370370
        k(    8) = (   0.0000000   0.1666667  -0.5000000), wk =   0.0370370
        k(    9) = (   0.0000000   0.3333333   0.0000000), wk =   0.0370370
        k(   10) = (   0.0000000   0.3333333   0.1666667), wk =   0.0370370
        k(   11) = (   0.0000000   0.3333333   0.3333333), wk =   0.0370370
        k(   12) = (   0.0000000   0.3333333  -0.5000000), wk =   0.0370370
        k(   13) = (   0.0000000  -0.5000000   0.0000000), wk =   0.0092593
        k(   14) = (   0.0000000  -0.5000000   0.1666667), wk =   0.0185185
        k(   15) = (   0.0000000  -0.5000000   0.3333333), wk =   0.0185185
        k(   16) = (   0.0000000  -0.5000000  -0.5000000), wk =   0.0092593
        k(   17) = (   0.1666667   0.0000000   0.0000000), wk =   0.0185185
        k(   18) = (   0.1666667   0.0000000   0.1666667), wk =   0.0185185
        k(   19) = (   0.1666667   0.0000000   0.3333333), wk =   0.0185185
        k(   20) = (   0.1666667   0.0000000  -0.5000000), wk =   0.0185185
        k(   21) = (   0.1666667   0.1666667   0.0000000), wk =   0.0370370
        k(   22) = (   0.1666667   0.1666667   0.1666667), wk =   0.0370370
        k(   23) = (   0.1666667   0.1666667   0.3333333), wk =   0.0370370
        k(   24) = (   0.1666667   0.1666667  -0.5000000), wk =   0.0370370
        k(   25) = (   0.1666667   0.3333333   0.0000000), wk =   0.0185185
        k(   26) = (   0.1666667   0.3333333   0.1666667), wk =   0.0370370
        k(   27) = (   0.1666667   0.3333333   0.3333333), wk =   0.0370370
        k(   28) = (   0.1666667   0.3333333  -0.5000000), wk =   0.0185185
        k(   29) = (   0.1666667  -0.5000000   0.0000000), wk =   0.0185185
        k(   30) = (   0.1666667  -0.5000000   0.1666667), wk =   0.0185185
        k(   31) = (   0.1666667  -0.5000000   0.3333333), wk =   0.0185185
        k(   32) = (   0.1666667  -0.5000000  -0.5000000), wk =   0.0185185
        k(   33) = (   0.1666667  -0.3333333   0.0000000), wk =   0.0370370
        k(   34) = (   0.1666667  -0.3333333   0.1666667), wk =   0.0370370
        k(   35) = (   0.1666667  -0.3333333   0.3333333), wk =   0.0370370
        k(   36) = (   0.1666667  -0.3333333  -0.5000000), wk =   0.0370370
        k(   37) = (   0.1666667  -0.1666667   0.0000000), wk =   0.0185185
        k(   38) = (   0.1666667  -0.1666667   0.1666667), wk =   0.0370370
        k(   39) = (   0.1666667  -0.1666667   0.3333333), wk =   0.0370370
        k(   40) = (   0.1666667  -0.1666667  -0.5000000), wk =   0.0185185
        k(   41) = (   0.3333333   0.0000000   0.0000000), wk =   0.0185185
        k(   42) = (   0.3333333   0.0000000   0.1666667), wk =   0.0185185
        k(   43) = (   0.3333333   0.0000000   0.3333333), wk =   0.0185185
        k(   44) = (   0.3333333   0.0000000  -0.5000000), wk =   0.0185185
        k(   45) = (   0.3333333   0.1666667   0.0000000), wk =   0.0185185
        k(   46) = (   0.3333333   0.1666667   0.1666667), wk =   0.0370370
        k(   47) = (   0.3333333   0.1666667   0.3333333), wk =   0.0370370
        k(   48) = (   0.3333333   0.1666667  -0.5000000), wk =   0.0185185
        k(   49) = (   0.3333333  -0.5000000   0.0000000), wk =   0.0185185
        k(   50) = (   0.3333333  -0.5000000   0.1666667), wk =   0.0185185
        k(   51) = (   0.3333333  -0.5000000   0.3333333), wk =   0.0185185
        k(   52) = (   0.3333333  -0.5000000  -0.5000000), wk =   0.0185185
        k(   53) = (   0.3333333  -0.3333333   0.0000000), wk =   0.0185185
        k(   54) = (   0.3333333  -0.3333333   0.1666667), wk =   0.0370370
        k(   55) = (   0.3333333  -0.3333333   0.3333333), wk =   0.0370370
        k(   56) = (   0.3333333  -0.3333333  -0.5000000), wk =   0.0185185
        k(   57) = (  -0.5000000   0.0000000   0.0000000), wk =   0.0092593
        k(   58) = (  -0.5000000   0.0000000   0.1666667), wk =   0.0185185
        k(   59) = (  -0.5000000   0.0000000   0.3333333), wk =   0.0185185
        k(   60) = (  -0.5000000   0.0000000  -0.5000000), wk =   0.0092593
[...]
        k(   66) = (   0.3333333  -0.1666667  -0.3333333), wk =   0.0370370
        k(   67) = (   0.6666667  -0.3333333  -0.1666667), wk =   0.0370370
        k(   68) = (   0.6666667  -0.3333333  -0.3333333), wk =   0.0370370
        k(   69) = (   0.1666667   0.0000000  -0.1666667), wk =   0.0185185
        k(   70) = (   0.1666667   0.0000000  -0.3333333), wk =   0.0185185
        k(   71) = (   0.5000000  -0.1666667  -0.1666667), wk =   0.0370370
        k(   72) = (   0.5000000  -0.1666667  -0.3333333), wk =   0.0370370
        k(   73) = (  -0.8333333   0.5000000  -0.1666667), wk =   0.0185185
        k(   74) = (  -0.8333333   0.5000000  -0.3333333), wk =   0.0185185
        k(   75) = (  -0.5000000   0.3333333  -0.1666667), wk =   0.0370370
        k(   76) = (  -0.5000000   0.3333333  -0.3333333), wk =   0.0370370
        k(   77) = (   0.3333333   0.0000000  -0.1666667), wk =   0.0185185
        k(   78) = (   0.3333333   0.0000000  -0.3333333), wk =   0.0185185
        k(   79) = (  -0.6666667   0.5000000  -0.1666667), wk =   0.0185185
        k(   80) = (  -0.6666667   0.5000000  -0.3333333), wk =   0.0185185

     Check: negative core charge=   -0.000002

     Initial potential from superposition of free atoms

     starting charge      71.9851, renormalised to      72.0000
     Starting wfcs are   52 randomized atomic wfcs

     Self-consistent Calculation

     iteration #  1     ecut=    50.00 Ry     beta= 0.30
     Davidson diagonalization with overlap

     ethr =  1.00E-02,  avg # of iterations =  1.4

     total energy              =    -722.76686828 Ry
     estimated scf accuracy    <       1.61544668 Ry

[...]

     c_bands:  1 eigenvalues not converged
     c_bands:  1 eigenvalues not converged
     c_bands:  1 eigenvalues not converged
     c_bands:  1 eigenvalues not converged
     c_bands:  2 eigenvalues not converged
     ethr =  3.78E-08,  avg # of iterations = 16.1

[...]

     c_bands:  1 eigenvalues not converged
     ethr =  2.76E-10,  avg # of iterations =  9.6

[...]

     total energy              =    -723.15456159 Ry
     estimated scf accuracy    <       0.00000004 Ry

     iteration # 31     ecut=    50.00 Ry     beta= 0.30
     Davidson diagonalization with overlap

     ethr =  5.16E-11,  avg # of iterations =  3.8

     End of self-consistent calculation

          k = 0.0000 0.0000 0.0000 (  4919 PWs)   bands (ev):

   -12.4288 -12.0583 -11.9621 -11.9122  -0.8878  -0.8634  -0.8520  -0.8518
    -0.7317  -0.7138  -0.7136  -0.5743  -0.5170  -0.3887  -0.3844  -0.3150
    -0.3149  -0.2402  -0.2161  -0.1743  -0.1743  -0.1494  -0.1343  -0.1205
     0.2347   0.7390   1.3287   1.9108   2.3799   3.1184   3.3346   3.3351
     3.5162   3.9892   3.9897   4.0250

     occupation numbers
     1.0000   1.0000   1.0000   1.0000   1.0000   1.0000   1.0000   1.0000
     1.0000   1.0000   1.0000   1.0000   1.0000   1.0000   1.0000   1.0000
     1.0000   1.0000   1.0000   1.0000   1.0000   1.0000   1.0000   1.0000
     1.0000   1.0000   1.0000   1.0000   1.0000   1.0000   1.0000   1.0000
     1.0000   1.0000   1.0000   1.0000

[...]

          k =-0.5000-0.2887 0.0000 (  4922 PWs)   bands (ev):

[...]

          k = 0.3333 0.1925-0.4393 (  4919 PWs)   bands (ev):

[...]

          k =-0.6667 0.7698-0.4393 (  4920 PWs)   bands (ev):

   -12.0193 -12.0193 -11.9434 -11.9433  -0.8829  -0.8829  -0.7963  -0.7963
    -0.6800  -0.6800  -0.5527  -0.5527  -0.4995  -0.4994  -0.4815  -0.4814
    -0.2487  -0.2487  -0.2219  -0.2219  -0.1337  -0.1337  -0.0711  -0.0711
     0.8756   0.8756   1.1353   1.1353   2.2467   2.2467   2.8378   2.8378
     2.9493   2.9493   3.3993   3.3994

     occupation numbers
     1.0000   1.0000   1.0000   1.0000   1.0000   1.0000   1.0000   1.0000
     1.0000   1.0000   1.0000   1.0000   1.0000   1.0000   1.0000   1.0000
     1.0000   1.0000   1.0000   1.0000   1.0000   1.0000   1.0000   1.0000
     1.0000   1.0000   1.0000   1.0000   1.0000   1.0000   1.0000   1.0000
     1.0000   1.0000   1.0000   1.0000

     highest occupied level (ev):     4.0250

!    total energy              =    -723.15456159 Ry
     estimated scf accuracy    <          6.4E-09 Ry

     The total energy is the sum of the following terms:
     one-electron contribution =    -360.08222092 Ry
     hartree contribution      =     255.28689395 Ry
     xc contribution           =    -218.29175555 Ry
     ewald contribution        =    -400.06747908 Ry

     convergence has been achieved in  31 iterations

     Forces acting on atoms (cartesian axes, Ry/au):

     atom    1 type  1   force =    -0.00001417   -0.00000818   -0.00149735
     atom    2 type  1   force =    -0.00000455   -0.00000263   -0.00148620
     atom    3 type  2   force =     0.00000154    0.00000089    0.00149528
     atom    4 type  2   force =     0.00000607    0.00000350    0.00149283
     atom    5 type  1   force =     0.00000887    0.00000512   -0.00149602
     atom    6 type  1   force =     0.00000841    0.00000486   -0.00149365
     atom    7 type  2   force =    -0.00000669   -0.00000386    0.00149232
     atom    8 type  2   force =     0.00000053    0.00000031    0.00149279
     The non-local contrib.  to forces
     atom    1 type  1   force =    -0.00000017   -0.00000010   -0.16415667
     atom    2 type  1   force =    -0.00002517   -0.00001453   -0.16414066
     atom    3 type  2   force =    -0.00017903   -0.00010336   -0.14976138
     atom    4 type  2   force =     0.00019048    0.00010997   -0.14976993
     atom    5 type  1   force =     0.00002764    0.00001596   -0.16414980
     atom    6 type  1   force =    -0.00000098   -0.00000057   -0.16414851
     atom    7 type  2   force =    -0.00019294   -0.00011139   -0.14976592
     atom    8 type  2   force =     0.00018334    0.00010585   -0.14976840
     The ionic contribution  to forces
     atom    1 type  1   force =     0.00000000    0.00000001   -1.04302410
     atom    2 type  1   force =     0.00000001    0.00000000   -1.04302410
     atom    3 type  2   force =     0.00000000    0.00000000    1.04302410
     atom    4 type  2   force =     0.00000001    0.00000000    1.04302410
     atom    5 type  1   force =    -0.00000002   -0.00000000   -1.04302410
     atom    6 type  1   force =     0.00000000   -0.00000001   -1.04302410
     atom    7 type  2   force =    -0.00000001    0.00000000    1.04302410
     atom    8 type  2   force =     0.00000000   -0.00000001    1.04302410
     The local contribution  to forces
     atom    1 type  1   force =     0.00002108    0.00001217    1.19568402
     atom    2 type  1   force =     0.00003151    0.00001808    1.19563646
     atom    3 type  2   force =     0.00018556    0.00010713   -0.89307315
     atom    4 type  2   force =    -0.00017864   -0.00010317   -0.89307040
     atom    5 type  1   force =    -0.00004138   -0.00002378    1.19566667
     atom    6 type  1   force =    -0.00001242   -0.00000728    1.19566168
     atom    7 type  2   force =     0.00017909    0.00010342   -0.89307294
     atom    8 type  2   force =    -0.00018466   -0.00010665   -0.89307103
     The core correction contribution to forces
     atom    1 type  1   force =    -0.00000500   -0.00000289    0.01002115
     atom    2 type  1   force =     0.00000422    0.00000242    0.01002285
     atom    3 type  2   force =     0.00000203    0.00000117    0.00129680
     atom    4 type  2   force =    -0.00000216   -0.00000125    0.00129690
     atom    5 type  1   force =    -0.00000394   -0.00000226    0.01002180
     atom    6 type  1   force =     0.00000466    0.00000268    0.01002202
     atom    7 type  2   force =     0.00000219    0.00000126    0.00129685
     atom    8 type  2   force =    -0.00000208   -0.00000120    0.00129688
     The Hubbard contrib.    to forces
     atom    1 type  1   force =     0.00000000    0.00000000    0.00000000
     atom    2 type  1   force =     0.00000000    0.00000000    0.00000000
     atom    3 type  2   force =     0.00000000    0.00000000    0.00000000
     atom    4 type  2   force =     0.00000000    0.00000000    0.00000000
     atom    5 type  1   force =     0.00000000    0.00000000    0.00000000
     atom    6 type  1   force =     0.00000000    0.00000000    0.00000000
     atom    7 type  2   force =     0.00000000    0.00000000    0.00000000
     atom    8 type  2   force =     0.00000000    0.00000000    0.00000000
     The SCF correction term to forces
     atom    1 type  1   force =    -0.00002960   -0.00001709   -0.00002346
     atom    2 type  1   force =    -0.00001459   -0.00000842    0.00001754
     atom    3 type  2   force =    -0.00000655   -0.00000378    0.00000721
     atom    4 type  2   force =    -0.00000313   -0.00000181    0.00001046
     atom    5 type  1   force =     0.00002699    0.00001558   -0.00001229
     atom    6 type  1   force =     0.00001768    0.00001021   -0.00000645
     atom    7 type  2   force =     0.00000544    0.00000314    0.00000852
     atom    8 type  2   force =     0.00000443    0.00000256    0.00000954

     Total force =     0.004224     Total SCF correction =     0.000066

     General routines

     Parallel routines

   This run was terminated on:   1:49: 3  27Aug2025

   JOB DONE.