     Program PWSCF v.7.4 starts on 10Sep2025 at  7:28:42

     Reading input from /home/jvc/QEspresso7.2/ZnO_database/scripts/cell222.in/ZnO-3.40-1.61-222.in
[perseu:793238] 27 more processes have sent help message help-btl-vader.txt / cma-permission-denied
[perseu:793238] Set MCA parameter "orte_base_help_aggregate" to 0 to see all help / error messages
Warning: card &CELL ignored
Warning: card / ignored
Warning: card &FCP ignored
Warning: card / ignored
Warning: card &RISM ignored
Warning: card / ignored

     Current dimensions of program PWSCF are:
     Max number of different atomic species (ntypx) = 10
     Max number of k-points (npk) =  40000
     Max angular momentum in pseudopotentials (lmaxx) =  4
     file Zn.upf: wavefunction(s)  3D renormalized
     Found identity + (  0.0000  0.0000  0.5000) symmetry
     This is a supercell, fractional translations are disabled
     Message from routine setup:
     using ibrav=0 with symmetry is DISCOURAGED, use correct ibrav instead

     K-points division:     npool     =       2
     R & G space division:  proc/nbgrp/npool/nimage =      16
     Subspace diagonalization in iterative solution of the eigenvalue problem:
     a serial algorithm will be used

     Using Slab Decomposition

     bravais-lattice index     =            0
     lattice parameter (alat)  =      12.8520  a.u.
     unit-cell volume          =    2967.8666 (a.u.)^3
     number of atoms/cell      =           32
     number of atomic types    =            2
     number of electrons       =       288.00
     number of Kohn-Sham states=          144
     kinetic-energy cutoff     =      50.0000  Ry
     charge density cutoff     =     400.0000  Ry
     scf convergence threshold =      1.0E-08
     mixing beta               =       0.3000
     number of iterations used =            8  plain     mixing
     Exchange-correlation= PBE
                           (   1   4   3   4   0   0   0)

     celldm(1)=  12.852016  celldm(2)=   0.000000  celldm(3)=   0.000000
     celldm(4)=   0.000000  celldm(5)=   0.000000  celldm(6)=   0.000000

     crystal axes: (cart. coord. in units of alat)
               a(1) = (   1.000000   0.000000   0.000000 )
               a(2) = (  -0.500000   0.866025   0.000000 )
               a(3) = (   0.000000   0.000000   1.614358 )

     reciprocal axes: (cart. coord. in units 2 pi/alat)
               b(1) = (  1.000000  0.577350 -0.000000 )
               b(2) = (  0.000000  1.154701  0.000000 )
               b(3) = (  0.000000 -0.000000  0.619441 )

     PseudoPot. # 1 for Zn read from file:
     /home/jvc/QEspresso7.2/ZnO_database/pseudos/Zn.upf
     MD5 check sum: 7f56cabf9682ed8c977c2f7d0c5985c5
     Pseudo is Ultrasoft + core correction, Zval = 12.0
     Generated using &quot;atomic&quot; code by A. Dal Corso  v.6.2.2
     Using radial grid of 1201 points,  6 beta functions with:
                l(1) =   0
                l(2) =   0
                l(3) =   1
                l(4) =   1
                l(5) =   2
                l(6) =   2
     Q(r) pseudized with 0 coefficients

     PseudoPot. # 2 for O  read from file:
     /home/jvc/QEspresso7.2/ZnO_database/pseudos/O.upf
     MD5 check sum: 91400c9766925bcf19f520983a725ff0
     Pseudo is Ultrasoft + core correction, Zval =  6.0
     Generated using &quot;atomic&quot; code by A. Dal Corso  v.6.3MaX
     Using radial grid of 1095 points,  4 beta functions with:
                l(1) =   0
                l(2) =   0
                l(3) =   1
                l(4) =   1
     Q(r) pseudized with 0 coefficients

     atomic species   valence    mass     pseudopotential
     Zn               12.00    65.38000     Zn( 1.00)
     O                 6.00    15.99900     O ( 1.00)

      6 Sym. Ops. (no inversion) found

                                    s                        frac. trans.

      isym =  1     identity

 cryst.   s( 1) = (     1          0          0      )
                  (     0          1          0      )
                  (     0          0          1      )

 cart.    s( 1) = (  1.0000000  0.0000000  0.0000000 )
                  (  0.0000000  1.0000000  0.0000000 )
                  (  0.0000000  0.0000000  1.0000000 )

      isym =  2     120 deg rotation - cryst. axis [0,0,1]

[...]

      isym =  3     120 deg rotation - cryst. axis [0,0,-1]

[...]

      isym =  4     inv. 180 deg rotation - cart. axis [1,0,0]

[...]

      isym =  5     inv. 180 deg rotation - cryst. axis [0,1,0]

[...]

      isym =  6     inv. 180 deg rotation - cryst. axis [1,1,0]

 cryst.   s( 6) = (     0         -1          0      )
                  (    -1          0          0      )
                  (     0          0          1      )

 cart.    s( 6) = (  0.5000000 -0.8660254  0.0000000 )
                  ( -0.8660254 -0.5000000  0.0000000 )
                  (  0.0000000  0.0000000  1.0000000 )

   Cartesian axes

     site n.     atom                  positions (alat units)
         1        Zn     tau(   1) = (   0.2500000   0.1443376   0.4041010  )
         2        Zn     tau(   2) = (  -0.0000000   0.2886751   0.0005114  )
         3        O      tau(   3) = (   0.2500000   0.1443376   0.7100565  )
         4        O      tau(   4) = (  -0.0000000   0.2886751   0.3064669  )
         5        Zn     tau(   5) = (   0.2500000   0.1443376   1.2112802  )
         6        Zn     tau(   6) = (  -0.0000000   0.2886751   0.8076906  )
         7        O      tau(   7) = (   0.2500000   0.1443376   1.5172357  )
         8        O      tau(   8) = (  -0.0000000   0.2886751   1.1136461  )
         9        Zn     tau(   9) = (   0.0000000   0.5773503   0.4041010  )
        10        Zn     tau(  10) = (  -0.2500000   0.7216878   0.0005114  )
        11        O      tau(  11) = (   0.0000000   0.5773503   0.7100565  )
        12        O      tau(  12) = (  -0.2500000   0.7216878   0.3064669  )
        13        Zn     tau(  13) = (   0.0000000   0.5773503   1.2112802  )
        14        Zn     tau(  14) = (  -0.2500000   0.7216878   0.8076906  )
        15        O      tau(  15) = (   0.0000000   0.5773503   1.5172357  )
        16        O      tau(  16) = (  -0.2500000   0.7216878   1.1136461  )
        17        Zn     tau(  17) = (   0.7500000   0.1443376   0.4041010  )
        18        Zn     tau(  18) = (   0.5000000   0.2886751   0.0005114  )
        19        O      tau(  19) = (   0.7500000   0.1443376   0.7100565  )
        20        O      tau(  20) = (   0.5000000   0.2886751   0.3064669  )
        21        Zn     tau(  21) = (   0.7500000   0.1443376   1.2112802  )
        22        Zn     tau(  22) = (   0.5000000   0.2886751   0.8076906  )
        23        O      tau(  23) = (   0.7500000   0.1443376   1.5172357  )
        24        O      tau(  24) = (   0.5000000   0.2886751   1.1136461  )
        25        Zn     tau(  25) = (   0.5000000   0.5773503   0.4041010  )
        26        Zn     tau(  26) = (   0.2500000   0.7216878   0.0005114  )
        27        O      tau(  27) = (   0.5000000   0.5773503   0.7100565  )
        28        O      tau(  28) = (   0.2500000   0.7216878   0.3064669  )
        29        Zn     tau(  29) = (   0.5000000   0.5773503   1.2112802  )
        30        Zn     tau(  30) = (   0.2500000   0.7216878   0.8076906  )
        31        O      tau(  31) = (   0.5000000   0.5773503   1.5172357  )
        32        O      tau(  32) = (   0.2500000   0.7216878   1.1136461  )

   Crystallographic axes

     site n.     atom                  positions (cryst. coord.)
         1        Zn     tau(   1) = (  0.3333333  0.1666667  0.2503168  )
         2        Zn     tau(   2) = (  0.1666667  0.3333333  0.0003168  )
         3        O      tau(   3) = (  0.3333333  0.1666667  0.4398382  )
         4        O      tau(   4) = (  0.1666667  0.3333333  0.1898382  )
         5        Zn     tau(   5) = (  0.3333333  0.1666667  0.7503168  )
         6        Zn     tau(   6) = (  0.1666667  0.3333333  0.5003168  )
         7        O      tau(   7) = (  0.3333333  0.1666667  0.9398382  )
         8        O      tau(   8) = (  0.1666667  0.3333333  0.6898382  )
         9        Zn     tau(   9) = (  0.3333333  0.6666667  0.2503168  )
        10        Zn     tau(  10) = (  0.1666667  0.8333333  0.0003168  )
        11        O      tau(  11) = (  0.3333333  0.6666667  0.4398382  )
        12        O      tau(  12) = (  0.1666667  0.8333333  0.1898382  )
        13        Zn     tau(  13) = (  0.3333333  0.6666667  0.7503168  )
        14        Zn     tau(  14) = (  0.1666667  0.8333333  0.5003168  )
        15        O      tau(  15) = (  0.3333333  0.6666667  0.9398382  )
        16        O      tau(  16) = (  0.1666667  0.8333333  0.6898382  )
        17        Zn     tau(  17) = (  0.8333333  0.1666667  0.2503168  )
        18        Zn     tau(  18) = (  0.6666667  0.3333333  0.0003168  )
        19        O      tau(  19) = (  0.8333333  0.1666667  0.4398382  )
        20        O      tau(  20) = (  0.6666667  0.3333333  0.1898382  )
        21        Zn     tau(  21) = (  0.8333333  0.1666667  0.7503168  )
        22        Zn     tau(  22) = (  0.6666667  0.3333333  0.5003168  )
        23        O      tau(  23) = (  0.8333333  0.1666667  0.9398382  )
        24        O      tau(  24) = (  0.6666667  0.3333333  0.6898382  )
        25        Zn     tau(  25) = (  0.8333333  0.6666667  0.2503168  )
        26        Zn     tau(  26) = (  0.6666667  0.8333333  0.0003168  )
        27        O      tau(  27) = (  0.8333333  0.6666667  0.4398382  )
        28        O      tau(  28) = (  0.6666667  0.8333333  0.1898382  )
        29        Zn     tau(  29) = (  0.8333333  0.6666667  0.7503168  )
        30        Zn     tau(  30) = (  0.6666667  0.8333333  0.5003168  )
        31        O      tau(  31) = (  0.8333333  0.6666667  0.9398382  )
        32        O      tau(  32) = (  0.6666667  0.8333333  0.6898382  )

     number of k points=    34
                       cart. coord. in units 2pi/alat
        k(    1) = (   0.0000000   0.0000000   0.0000000), wk =   0.0092593
        k(    2) = (   0.0000000   0.0000000   0.1032402), wk =   0.0185185
        k(    3) = (   0.0000000   0.0000000   0.2064804), wk =   0.0185185
        k(    4) = (   0.0000000   0.0000000  -0.3097206), wk =   0.0092593
        k(    5) = (   0.0000000   0.1924501   0.0000000), wk =   0.0555556
        k(    6) = (   0.0000000   0.1924501   0.1032402), wk =   0.0555556
        k(    7) = (   0.0000000   0.1924501   0.2064804), wk =   0.0555556
        k(    8) = (   0.0000000   0.1924501  -0.3097206), wk =   0.0555556
        k(    9) = (   0.0000000   0.3849002   0.0000000), wk =   0.0555556
        k(   10) = (   0.0000000   0.3849002   0.1032402), wk =   0.0555556
        k(   11) = (   0.0000000   0.3849002   0.2064804), wk =   0.0555556
        k(   12) = (   0.0000000   0.3849002  -0.3097206), wk =   0.0555556
        k(   13) = (   0.0000000  -0.5773503   0.0000000), wk =   0.0277778
        k(   14) = (   0.0000000  -0.5773503   0.1032402), wk =   0.0555556
        k(   15) = (   0.0000000  -0.5773503   0.2064804), wk =   0.0555556
[...]
     atom   14 type  1   force =    -0.00000019    0.00000011   -0.00452569
     atom   15 type  2   force =     0.00000000    0.00000000    0.00611089
     atom   16 type  2   force =    -0.00000252    0.00000146    0.00611888
     atom   17 type  1   force =     0.00000005   -0.00000003   -0.00451928
     atom   18 type  1   force =     0.00000000    0.00000000   -0.00451630
     atom   19 type  2   force =    -0.00000061    0.00000036    0.00611269
     atom   20 type  2   force =     0.00000000   -0.00000000    0.00609878
     atom   21 type  1   force =    -0.00000030    0.00000018   -0.00452315
     atom   22 type  1   force =     0.00000000    0.00000000   -0.00452562
     atom   23 type  2   force =     0.00000014   -0.00000008    0.00611253
     atom   24 type  2   force =     0.00000000    0.00000000    0.00611945
     atom   25 type  1   force =     0.00000000    0.00000006   -0.00451928
     atom   26 type  1   force =     0.00000004    0.00000002   -0.00451541
     atom   27 type  2   force =     0.00000000   -0.00000071    0.00611269
     atom   28 type  2   force =     0.00000159    0.00000092    0.00609822
     atom   29 type  1   force =     0.00000000   -0.00000035   -0.00452315
     atom   30 type  1   force =     0.00000019    0.00000011   -0.00452569
     atom   31 type  2   force =     0.00000000    0.00000017    0.00611253
     atom   32 type  2   force =     0.00000252    0.00000146    0.00611888
     The ionic contribution  to forces
     atom    1 type  1   force =    -0.00000000    0.00000000    0.05798523
     atom    2 type  1   force =     0.00000000   -0.00000000    0.05798523
     atom    3 type  2   force =    -0.00000000    0.00000000   -0.05798523
     atom    4 type  2   force =     0.00000000   -0.00000000   -0.05798523
     atom    5 type  1   force =    -0.00000000    0.00000000    0.05798523
     atom    6 type  1   force =     0.00000000   -0.00000000    0.05798523
     atom    7 type  2   force =    -0.00000000    0.00000000   -0.05798523
     atom    8 type  2   force =     0.00000000   -0.00000000   -0.05798523
     atom    9 type  1   force =    -0.00000000    0.00000000    0.05798523
     atom   10 type  1   force =     0.00000000   -0.00000000    0.05798523
     atom   11 type  2   force =    -0.00000000    0.00000000   -0.05798523
     atom   12 type  2   force =     0.00000000   -0.00000000   -0.05798523
     atom   13 type  1   force =    -0.00000000    0.00000000    0.05798523
     atom   14 type  1   force =     0.00000000   -0.00000000    0.05798523
     atom   15 type  2   force =    -0.00000000    0.00000000   -0.05798523
     atom   16 type  2   force =     0.00000000   -0.00000000   -0.05798523
     atom   17 type  1   force =    -0.00000000    0.00000000    0.05798523
     atom   18 type  1   force =     0.00000000   -0.00000000    0.05798523
     atom   19 type  2   force =    -0.00000000    0.00000000   -0.05798523
     atom   20 type  2   force =     0.00000000   -0.00000000   -0.05798523
     atom   21 type  1   force =    -0.00000000    0.00000000    0.05798523
     atom   22 type  1   force =     0.00000000   -0.00000000    0.05798523
     atom   23 type  2   force =    -0.00000000    0.00000000   -0.05798523
     atom   24 type  2   force =     0.00000000   -0.00000000   -0.05798523
     atom   25 type  1   force =    -0.00000000    0.00000000    0.05798523
     atom   26 type  1   force =     0.00000000   -0.00000000    0.05798523
     atom   27 type  2   force =    -0.00000000    0.00000000   -0.05798523
     atom   28 type  2   force =     0.00000000   -0.00000000   -0.05798523
     atom   29 type  1   force =    -0.00000000    0.00000000    0.05798523
     atom   30 type  1   force =     0.00000000   -0.00000000    0.05798523
     atom   31 type  2   force =    -0.00000000    0.00000000   -0.05798523
     atom   32 type  2   force =     0.00000000   -0.00000000   -0.05798523
     The local contribution  to forces
     atom    1 type  1   force =     0.00000104    0.00000071   -0.05391722
     atom    2 type  1   force =     0.00000009   -0.00000101   -0.05392769
     atom    3 type  2   force =    -0.00000030   -0.00000015    0.05204028
     atom    4 type  2   force =     0.00000002    0.00000150    0.05204482
     atom    5 type  1   force =    -0.00000195   -0.00000102   -0.05390218
     atom    6 type  1   force =     0.00000009   -0.00000313   -0.05390956
     atom    7 type  2   force =     0.00000012    0.00000010    0.05203832
     atom    8 type  2   force =     0.00000002    0.00000295    0.05204065
     atom    9 type  1   force =    -0.00000000    0.00000010   -0.05391892
     atom   10 type  1   force =    -0.00000083    0.00000058   -0.05392769
     atom   11 type  2   force =     0.00000000    0.00000003    0.05204095
     atom   12 type  2   force =     0.00000131   -0.00000073    0.05204482
     atom   13 type  1   force =    -0.00000000    0.00000010   -0.05390238
     atom   14 type  1   force =    -0.00000267    0.00000164   -0.05390956
     atom   15 type  2   force =    -0.00000000    0.00000003    0.05203966
     atom   16 type  2   force =     0.00000256   -0.00000145    0.05204065
     atom   17 type  1   force =    -0.00000104    0.00000071   -0.05391722
     atom   18 type  1   force =     0.00000009    0.00000005   -0.05392545
     atom   19 type  2   force =     0.00000030   -0.00000015    0.05204028
     atom   20 type  2   force =     0.00000002    0.00000001    0.05204459
     atom   21 type  1   force =     0.00000195   -0.00000102   -0.05390218
     atom   22 type  1   force =     0.00000009    0.00000005   -0.05391235
     atom   23 type  2   force =    -0.00000012    0.00000010    0.05203832
     atom   24 type  2   force =     0.00000002    0.00000001    0.05203787
     atom   25 type  1   force =     0.00000000   -0.00000110   -0.05391722
     atom   26 type  1   force =     0.00000101    0.00000058   -0.05392769
     atom   27 type  2   force =    -0.00000000    0.00000037    0.05204028
     atom   28 type  2   force =    -0.00000126   -0.00000073    0.05204482
     atom   29 type  1   force =     0.00000000    0.00000235   -0.05390218
     atom   30 type  1   force =     0.00000285    0.00000164   -0.05390956
     atom   31 type  2   force =     0.00000000   -0.00000011    0.05203832
     atom   32 type  2   force =    -0.00000252   -0.00000145    0.05204065
     The core correction contribution to forces
     atom    1 type  1   force =     0.00000010    0.00000007    0.00035528
     atom    2 type  1   force =     0.00000001    0.00000025    0.00035271
     atom    3 type  2   force =    -0.00000001   -0.00000001   -0.00006850
     atom    4 type  2   force =    -0.00000000    0.00000003   -0.00006880
     atom    5 type  1   force =     0.00000021    0.00000014    0.00035177
     atom    6 type  1   force =     0.00000001    0.00000035    0.00035508
     atom    7 type  2   force =     0.00000000    0.00000000   -0.00007051
     atom    8 type  2   force =    -0.00000000    0.00000005   -0.00007010
     atom    9 type  1   force =    -0.00000000    0.00000001    0.00035545
     atom   10 type  1   force =     0.00000022   -0.00000012    0.00035271
     atom   11 type  2   force =    -0.00000000   -0.00000000   -0.00006846
     atom   12 type  2   force =     0.00000003   -0.00000001   -0.00006880
     atom   13 type  1   force =    -0.00000000    0.00000001    0.00035184
     atom   14 type  1   force =     0.00000031   -0.00000017    0.00035508
     atom   15 type  2   force =    -0.00000000   -0.00000000   -0.00007046
     atom   16 type  2   force =     0.00000004   -0.00000002   -0.00007010
     atom   17 type  1   force =    -0.00000010    0.00000007    0.00035528
     atom   18 type  1   force =     0.00000001    0.00000001    0.00035270
     atom   19 type  2   force =     0.00000001   -0.00000001   -0.00006850
     atom   20 type  2   force =    -0.00000000   -0.00000000   -0.00006878
     atom   21 type  1   force =    -0.00000021    0.00000014    0.00035177
     atom   22 type  1   force =     0.00000001    0.00000001    0.00035521
     atom   23 type  2   force =    -0.00000000    0.00000000   -0.00007051
     atom   24 type  2   force =    -0.00000000   -0.00000000   -0.00007010
     atom   25 type  1   force =    -0.00000000   -0.00000011    0.00035528
     atom   26 type  1   force =    -0.00000020   -0.00000012    0.00035271
     atom   27 type  2   force =    -0.00000000    0.00000001   -0.00006850
     atom   28 type  2   force =    -0.00000003   -0.00000001   -0.00006880
     atom   29 type  1   force =    -0.00000000   -0.00000023    0.00035177
     atom   30 type  1   force =    -0.00000029   -0.00000017    0.00035508
     atom   31 type  2   force =    -0.00000000   -0.00000000   -0.00007051
     atom   32 type  2   force =    -0.00000004   -0.00000002   -0.00007010
     The Hubbard contrib.    to forces
     atom    1 type  1   force =     0.00000000    0.00000000    0.00000000
     atom    2 type  1   force =     0.00000000    0.00000000    0.00000000
     atom    3 type  2   force =     0.00000000    0.00000000    0.00000000
     atom    4 type  2   force =     0.00000000    0.00000000    0.00000000
     atom    5 type  1   force =     0.00000000    0.00000000    0.00000000
     atom    6 type  1   force =     0.00000000    0.00000000    0.00000000
     atom    7 type  2   force =     0.00000000    0.00000000    0.00000000
     atom    8 type  2   force =     0.00000000    0.00000000    0.00000000
     atom    9 type  1   force =     0.00000000    0.00000000    0.00000000
     atom   10 type  1   force =     0.00000000    0.00000000    0.00000000
     atom   11 type  2   force =     0.00000000    0.00000000    0.00000000
     atom   12 type  2   force =     0.00000000    0.00000000    0.00000000
     atom   13 type  1   force =     0.00000000    0.00000000    0.00000000
     atom   14 type  1   force =     0.00000000    0.00000000    0.00000000
     atom   15 type  2   force =     0.00000000    0.00000000    0.00000000
     atom   16 type  2   force =     0.00000000    0.00000000    0.00000000
     atom   17 type  1   force =     0.00000000    0.00000000    0.00000000
     atom   18 type  1   force =     0.00000000    0.00000000    0.00000000
     atom   19 type  2   force =     0.00000000    0.00000000    0.00000000
     atom   20 type  2   force =     0.00000000    0.00000000    0.00000000
     atom   21 type  1   force =     0.00000000    0.00000000    0.00000000
     atom   22 type  1   force =     0.00000000    0.00000000    0.00000000
     atom   23 type  2   force =     0.00000000    0.00000000    0.00000000
     atom   24 type  2   force =     0.00000000    0.00000000    0.00000000
     atom   25 type  1   force =     0.00000000    0.00000000    0.00000000
     atom   26 type  1   force =     0.00000000    0.00000000    0.00000000
     atom   27 type  2   force =     0.00000000    0.00000000    0.00000000
     atom   28 type  2   force =     0.00000000    0.00000000    0.00000000
     atom   29 type  1   force =     0.00000000    0.00000000    0.00000000
     atom   30 type  1   force =     0.00000000    0.00000000    0.00000000
     atom   31 type  2   force =     0.00000000    0.00000000    0.00000000
     atom   32 type  2   force =     0.00000000    0.00000000    0.00000000
     The SCF correction term to forces
     atom    1 type  1   force =    -0.00000196   -0.00000113    0.00000442
     atom    2 type  1   force =    -0.00000000    0.00000102    0.00001808
     atom    3 type  2   force =    -0.00000015   -0.00000009   -0.00000119
     atom    4 type  2   force =    -0.00000000   -0.00000005    0.00000474
     atom    5 type  1   force =     0.00000233    0.00000135   -0.00001883
     atom    6 type  1   force =    -0.00000000    0.00000549   -0.00000542
     atom    7 type  2   force =    -0.00000044   -0.00000026    0.00000312
     atom    8 type  2   force =    -0.00000000    0.00000006   -0.00000589
     atom    9 type  1   force =     0.00000000   -0.00000000    0.00000715
     atom   10 type  1   force =     0.00000089   -0.00000051    0.00001808
     atom   11 type  2   force =     0.00000000   -0.00000000   -0.00000097
     atom   12 type  2   force =    -0.00000004    0.00000002    0.00000474
     atom   13 type  1   force =     0.00000000   -0.00000000   -0.00001979
     atom   14 type  1   force =     0.00000475   -0.00000274   -0.00000542
     atom   15 type  2   force =     0.00000000   -0.00000000    0.00000362
     atom   16 type  2   force =     0.00000005   -0.00000003   -0.00000589
     atom   17 type  1   force =     0.00000196   -0.00000113    0.00000442
     atom   18 type  1   force =    -0.00000000   -0.00000000    0.00001603
     atom   19 type  2   force =     0.00000015   -0.00000009   -0.00000119
     atom   20 type  2   force =    -0.00000000   -0.00000000    0.00000453
     atom   21 type  1   force =    -0.00000233    0.00000135   -0.00001883
     atom   22 type  1   force =    -0.00000000   -0.00000000   -0.00000060
     atom   23 type  2   force =     0.00000044   -0.00000026    0.00000312
     atom   24 type  2   force =    -0.00000000   -0.00000000   -0.00000493
     atom   25 type  1   force =     0.00000000    0.00000227    0.00000442
     atom   26 type  1   force =    -0.00000089   -0.00000051    0.00001808
     atom   27 type  2   force =     0.00000000    0.00000017   -0.00000119
     atom   28 type  2   force =     0.00000004    0.00000002    0.00000474
     atom   29 type  1   force =     0.00000000   -0.00000269   -0.00001883
     atom   30 type  1   force =    -0.00000475   -0.00000274   -0.00000542
     atom   31 type  2   force =     0.00000000    0.00000051    0.00000312
     atom   32 type  2   force =    -0.00000005   -0.00000003   -0.00000589

     Total force =     0.000548     Total SCF correction =     0.000057
     SCF correction compared to forces is large: reduce conv_thr to get better values
     Message from routine punch:
     Nothing written, as per user request (disk_io='none')

     General routines

     Parallel routines

   This run was terminated on:  10:45: 7  10Sep2025

   JOB DONE.
Note: The following floating-point exceptions are signalling: IEEE_INVALID_FLAG
Note: The following floating-point exceptions are signalling: IEEE_INVALID_FLAG
Note: The following floating-point exceptions are signalling: IEEE_INVALID_FLAG
Note: The following floating-point exceptions are signalling: IEEE_INVALID_FLAG
Note: The following floating-point exceptions are signalling: IEEE_INVALID_FLAG
Note: The following floating-point exceptions are signalling: IEEE_INVALID_FLAG
Note: The following floating-point exceptions are signalling: IEEE_INVALID_FLAG
Note: The following floating-point exceptions are signalling: IEEE_INVALID_FLAG
Note: The following floating-point exceptions are signalling: IEEE_INVALID_FLAG
Note: The following floating-point exceptions are signalling: IEEE_INVALID_FLAG
Note: The following floating-point exceptions are signalling: IEEE_INVALID_FLAG
Note: The following floating-point exceptions are signalling: IEEE_INVALID_FLAG
Note: The following floating-point exceptions are signalling: IEEE_INVALID_FLAG
Note: The following floating-point exceptions are signalling: IEEE_INVALID_FLAG
Note: The following floating-point exceptions are signalling: IEEE_INVALID_FLAG
Note: The following floating-point exceptions are signalling: IEEE_INVALID_FLAG
Note: The following floating-point exceptions are signalling: IEEE_INVALID_FLAG
Note: The following floating-point exceptions are signalling: IEEE_INVALID_FLAG
Note: The following floating-point exceptions are signalling: IEEE_INVALID_FLAG
Note: The following floating-point exceptions are signalling: IEEE_INVALID_FLAG
Note: The following floating-point exceptions are signalling: IEEE_INVALID_FLAG
Note: The following floating-point exceptions are signalling: IEEE_INVALID_FLAG
Note: The following floating-point exceptions are signalling: IEEE_INVALID_FLAG
Note: The following floating-point exceptions are signalling: IEEE_INVALID_FLAG
Note: The following floating-point exceptions are signalling: IEEE_INVALID_FLAG
Note: The following floating-point exceptions are signalling: IEEE_INVALID_FLAG
Note: The following floating-point exceptions are signalling: IEEE_INVALID_FLAG
Note: The following floating-point exceptions are signalling: IEEE_INVALID_FLAG
Note: The following floating-point exceptions are signalling: IEEE_INVALID_FLAG
Note: The following floating-point exceptions are signalling: IEEE_INVALID_FLAG
Note: The following floating-point exceptions are signalling: IEEE_INVALID_FLAG
Note: The following floating-point exceptions are signalling: IEEE_INVALID_FLAG