     Program PWSCF v.7.2 starts on 11Sep2025 at  4:13:55

     Reading input from /home/jvc/QEspresso7.2/ZnO_database/scripts/cell222.in/ZnO-3.53-1.58-222.in
Warning: card &CELL ignored
Warning: card / ignored
Warning: card &FCP ignored
Warning: card / ignored
Warning: card &RISM ignored
Warning: card / ignored

     Current dimensions of program PWSCF are:
     Max number of different atomic species (ntypx) = 10
     Max number of k-points (npk) =  40000
     Max angular momentum in pseudopotentials (lmaxx) =  4
     file Zn.upf: wavefunction(s)  3D renormalized
     Found identity + (  0.0000  0.0000  0.5000) symmetry
     This is a supercell, fractional translations are disabled
     Message from routine setup:
     using ibrav=0 with symmetry is DISCOURAGED, use correct ibrav instead

     K-points division:     npool     =       2
     R & G space division:  proc/nbgrp/npool/nimage =      16
     Subspace diagonalization in iterative solution of the eigenvalue problem:
     a serial algorithm will be used

     Using Slab Decomposition

     bravais-lattice index     =            0
     lattice parameter (alat)  =      13.3463  a.u.
     unit-cell volume          =    3257.1796 (a.u.)^3
     number of atoms/cell      =           32
     number of atomic types    =            2
     number of electrons       =       288.00
     number of Kohn-Sham states=          144
     kinetic-energy cutoff     =      50.0000  Ry
     charge density cutoff     =     400.0000  Ry
     scf convergence threshold =      1.0E-08
     mixing beta               =       0.3000
     number of iterations used =            8  plain     mixing
     Exchange-correlation= PBE
                           (   1   4   3   4   0   0   0)

     celldm(1)=  13.346325  celldm(2)=   0.000000  celldm(3)=   0.000000
     celldm(4)=   0.000000  celldm(5)=   0.000000  celldm(6)=   0.000000

     crystal axes: (cart. coord. in units of alat)
               a(1) = (   1.000000   0.000000   0.000000 )
               a(2) = (  -0.500000   0.866025   0.000000 )
               a(3) = (   0.000000   0.000000   1.582071 )

     reciprocal axes: (cart. coord. in units 2 pi/alat)
               b(1) = (  1.000000  0.577350 -0.000000 )
               b(2) = (  0.000000  1.154701  0.000000 )
               b(3) = (  0.000000 -0.000000  0.632083 )

     PseudoPot. # 1 for Zn read from file:
     /home/jvc/QEspresso7.2/ZnO_database/pseudos/Zn.upf
     MD5 check sum: 7f56cabf9682ed8c977c2f7d0c5985c5
     Pseudo is Ultrasoft + core correction, Zval = 12.0
     Generated using &quot;atomic&quot; code by A. Dal Corso  v.6.2.2
     Using radial grid of 1201 points,  6 beta functions with:
                l(1) =   0
                l(2) =   0
                l(3) =   1
                l(4) =   1
                l(5) =   2
                l(6) =   2
     Q(r) pseudized with 0 coefficients

     PseudoPot. # 2 for O  read from file:
     /home/jvc/QEspresso7.2/ZnO_database/pseudos/O.upf
     MD5 check sum: 91400c9766925bcf19f520983a725ff0
     Pseudo is Ultrasoft + core correction, Zval =  6.0
     Generated using &quot;atomic&quot; code by A. Dal Corso  v.6.3MaX
     Using radial grid of 1095 points,  4 beta functions with:
                l(1) =   0
                l(2) =   0
                l(3) =   1
                l(4) =   1
     Q(r) pseudized with 0 coefficients

     atomic species   valence    mass     pseudopotential
        Zn            12.00    65.38000     Zn( 1.00)
        O              6.00    15.99900     O ( 1.00)

      6 Sym. Ops. (no inversion) found

                                    s                        frac. trans.

      isym =  1     identity

 cryst.   s( 1) = (     1          0          0      )
                  (     0          1          0      )
                  (     0          0          1      )

 cart.    s( 1) = (  1.0000000  0.0000000  0.0000000 )
                  (  0.0000000  1.0000000  0.0000000 )
                  (  0.0000000  0.0000000  1.0000000 )

      isym =  2     120 deg rotation - cryst. axis [0,0,1]

[...]

      isym =  3     120 deg rotation - cryst. axis [0,0,-1]

[...]

      isym =  4     inv. 180 deg rotation - cart. axis [1,0,0]

[...]

      isym =  5     inv. 180 deg rotation - cryst. axis [0,1,0]

[...]

      isym =  6     inv. 180 deg rotation - cryst. axis [1,1,0]

 cryst.   s( 6) = (     0         -1          0      )
                  (    -1          0          0      )
                  (     0          0          1      )

 cart.    s( 6) = (  0.5000000 -0.8660254  0.0000000 )
                  ( -0.8660254 -0.5000000  0.0000000 )
                  (  0.0000000  0.0000000  1.0000000 )

   Cartesian axes

     site n.     atom                  positions (alat units)
         1           Zn  tau(   1) = (   0.2500000   0.1443376   0.3960190  )
         2           Zn  tau(   2) = (  -0.0000000   0.2886751   0.0005012  )
         3           O   tau(   3) = (   0.2500000   0.1443376   0.6958554  )
         4           O   tau(   4) = (  -0.0000000   0.2886751   0.3003376  )
         5           Zn  tau(   5) = (   0.2500000   0.1443376   1.1870546  )
         6           Zn  tau(   6) = (  -0.0000000   0.2886751   0.7915368  )
         7           O   tau(   7) = (   0.2500000   0.1443376   1.4868910  )
         8           O   tau(   8) = (  -0.0000000   0.2886751   1.0913732  )
         9           Zn  tau(   9) = (  -0.0000000   0.5773503   0.3960190  )
        10           Zn  tau(  10) = (  -0.2500000   0.7216878   0.0005012  )
        11           O   tau(  11) = (  -0.0000000   0.5773503   0.6958554  )
        12           O   tau(  12) = (  -0.2500000   0.7216878   0.3003376  )
        13           Zn  tau(  13) = (  -0.0000000   0.5773503   1.1870546  )
        14           Zn  tau(  14) = (  -0.2500000   0.7216878   0.7915368  )
        15           O   tau(  15) = (  -0.0000000   0.5773503   1.4868910  )
        16           O   tau(  16) = (  -0.2500000   0.7216878   1.0913732  )
        17           Zn  tau(  17) = (   0.7500000   0.1443376   0.3960190  )
        18           Zn  tau(  18) = (   0.5000000   0.2886751   0.0005012  )
        19           O   tau(  19) = (   0.7500000   0.1443376   0.6958554  )
        20           O   tau(  20) = (   0.5000000   0.2886751   0.3003376  )
        21           Zn  tau(  21) = (   0.7500000   0.1443376   1.1870546  )
        22           Zn  tau(  22) = (   0.5000000   0.2886751   0.7915368  )
        23           O   tau(  23) = (   0.7500000   0.1443376   1.4868910  )
        24           O   tau(  24) = (   0.5000000   0.2886751   1.0913732  )
        25           Zn  tau(  25) = (   0.5000000   0.5773503   0.3960190  )
        26           Zn  tau(  26) = (   0.2500000   0.7216878   0.0005012  )
        27           O   tau(  27) = (   0.5000000   0.5773503   0.6958554  )
        28           O   tau(  28) = (   0.2500000   0.7216878   0.3003376  )
        29           Zn  tau(  29) = (   0.5000000   0.5773503   1.1870546  )
        30           Zn  tau(  30) = (   0.2500000   0.7216878   0.7915368  )
        31           O   tau(  31) = (   0.5000000   0.5773503   1.4868910  )
        32           O   tau(  32) = (   0.2500000   0.7216878   1.0913732  )

   Crystallographic axes

     site n.     atom                  positions (cryst. coord.)
         1           Zn  tau(   1) = (  0.3333333  0.1666667  0.2503168  )
         2           Zn  tau(   2) = (  0.1666667  0.3333333  0.0003168  )
         3           O   tau(   3) = (  0.3333333  0.1666667  0.4398382  )
         4           O   tau(   4) = (  0.1666667  0.3333333  0.1898382  )
         5           Zn  tau(   5) = (  0.3333333  0.1666667  0.7503168  )
         6           Zn  tau(   6) = (  0.1666667  0.3333333  0.5003168  )
         7           O   tau(   7) = (  0.3333333  0.1666667  0.9398382  )
         8           O   tau(   8) = (  0.1666667  0.3333333  0.6898382  )
         9           Zn  tau(   9) = (  0.3333333  0.6666667  0.2503168  )
        10           Zn  tau(  10) = (  0.1666667  0.8333333  0.0003168  )
        11           O   tau(  11) = (  0.3333333  0.6666667  0.4398382  )
        12           O   tau(  12) = (  0.1666667  0.8333333  0.1898382  )
        13           Zn  tau(  13) = (  0.3333333  0.6666667  0.7503168  )
        14           Zn  tau(  14) = (  0.1666667  0.8333333  0.5003168  )
        15           O   tau(  15) = (  0.3333333  0.6666667  0.9398382  )
        16           O   tau(  16) = (  0.1666667  0.8333333  0.6898382  )
        17           Zn  tau(  17) = (  0.8333333  0.1666667  0.2503168  )
        18           Zn  tau(  18) = (  0.6666667  0.3333333  0.0003168  )
        19           O   tau(  19) = (  0.8333333  0.1666667  0.4398382  )
        20           O   tau(  20) = (  0.6666667  0.3333333  0.1898382  )
        21           Zn  tau(  21) = (  0.8333333  0.1666667  0.7503168  )
        22           Zn  tau(  22) = (  0.6666667  0.3333333  0.5003168  )
        23           O   tau(  23) = (  0.8333333  0.1666667  0.9398382  )
        24           O   tau(  24) = (  0.6666667  0.3333333  0.6898382  )
        25           Zn  tau(  25) = (  0.8333333  0.6666667  0.2503168  )
        26           Zn  tau(  26) = (  0.6666667  0.8333333  0.0003168  )
        27           O   tau(  27) = (  0.8333333  0.6666667  0.4398382  )
        28           O   tau(  28) = (  0.6666667  0.8333333  0.1898382  )
        29           Zn  tau(  29) = (  0.8333333  0.6666667  0.7503168  )
        30           Zn  tau(  30) = (  0.6666667  0.8333333  0.5003168  )
        31           O   tau(  31) = (  0.8333333  0.6666667  0.9398382  )
        32           O   tau(  32) = (  0.6666667  0.8333333  0.6898382  )

     number of k points=    34
                       cart. coord. in units 2pi/alat
        k(    1) = (   0.0000000   0.0000000   0.0000000), wk =   0.0092593
        k(    2) = (   0.0000000   0.0000000   0.1053471), wk =   0.0185185
        k(    3) = (   0.0000000   0.0000000   0.2106943), wk =   0.0185185
        k(    4) = (   0.0000000   0.0000000  -0.3160414), wk =   0.0092593
        k(    5) = (   0.0000000   0.1924501   0.0000000), wk =   0.0555556
        k(    6) = (   0.0000000   0.1924501   0.1053471), wk =   0.0555556
        k(    7) = (   0.0000000   0.1924501   0.2106943), wk =   0.0555556
        k(    8) = (   0.0000000   0.1924501  -0.3160414), wk =   0.0555556
        k(    9) = (   0.0000000   0.3849002   0.0000000), wk =   0.0555556
        k(   10) = (   0.0000000   0.3849002   0.1053471), wk =   0.0555556
        k(   11) = (   0.0000000   0.3849002   0.2106943), wk =   0.0555556
        k(   12) = (   0.0000000   0.3849002  -0.3160414), wk =   0.0555556
        k(   13) = (   0.0000000  -0.5773503   0.0000000), wk =   0.0277778
        k(   14) = (   0.0000000  -0.5773503   0.1053471), wk =   0.0555556
        k(   15) = (   0.0000000  -0.5773503   0.2106943), wk =   0.0555556
        k(   16) = (   0.0000000  -0.5773503  -0.3160414), wk =   0.0277778
        k(   17) = (   0.1666667   0.2886751   0.0000000), wk =   0.0555556
[...]
     atom   13 type  1   force =     0.00000000    0.00000000   -0.00013573
     atom   14 type  1   force =     0.00000246   -0.00000142   -0.00017345
     atom   15 type  2   force =     0.00000000    0.00000000    0.00013437
     atom   16 type  2   force =     0.00000042   -0.00000024    0.00013505
     atom   17 type  1   force =     0.00000039   -0.00000022   -0.00012816
     atom   18 type  1   force =     0.00000000    0.00000000   -0.00011026
     atom   19 type  2   force =    -0.00000058    0.00000034    0.00013489
     atom   20 type  2   force =     0.00000000    0.00000000    0.00013624
     atom   21 type  1   force =    -0.00000761    0.00000439   -0.00013610
     atom   22 type  1   force =     0.00000000    0.00000000   -0.00016714
     atom   23 type  2   force =     0.00000002   -0.00000001    0.00013531
     atom   24 type  2   force =     0.00000000    0.00000000    0.00013553
     atom   25 type  1   force =     0.00000000    0.00000045   -0.00012816
     atom   26 type  1   force =     0.00000554    0.00000320   -0.00010345
     atom   27 type  2   force =     0.00000000   -0.00000067    0.00013489
     atom   28 type  2   force =    -0.00000023   -0.00000013    0.00013497
     atom   29 type  1   force =     0.00000000   -0.00000879   -0.00013610
     atom   30 type  1   force =    -0.00000246   -0.00000142   -0.00017345
     atom   31 type  2   force =     0.00000000    0.00000003    0.00013531
     atom   32 type  2   force =    -0.00000042   -0.00000024    0.00013505
     The non-local contrib.  to forces
     atom    1 type  1   force =    -0.00000230   -0.00000133   -0.05624683
     atom    2 type  1   force =     0.00000000   -0.00000255   -0.05623269
     atom    3 type  2   force =    -0.00000197   -0.00000114   -0.04519943
     atom    4 type  2   force =     0.00000000    0.00000044   -0.04520984
     atom    5 type  1   force =     0.00000269    0.00000155   -0.05624949
     atom    6 type  1   force =     0.00000000   -0.00000068   -0.05627047
     atom    7 type  2   force =     0.00000047    0.00000027   -0.04521435
     atom    8 type  2   force =     0.00000000    0.00000168   -0.04520580
     atom    9 type  1   force =     0.00000000   -0.00000000   -0.05624860
     atom   10 type  1   force =    -0.00000221    0.00000127   -0.05623269
     atom   11 type  2   force =     0.00000000   -0.00000000   -0.04519405
     atom   12 type  2   force =     0.00000038   -0.00000022   -0.04520984
     atom   13 type  1   force =     0.00000000    0.00000000   -0.05624970
     atom   14 type  1   force =    -0.00000059    0.00000034   -0.05627047
     atom   15 type  2   force =     0.00000000    0.00000000   -0.04521879
     atom   16 type  2   force =     0.00000146   -0.00000084   -0.04520580
     atom   17 type  1   force =     0.00000230   -0.00000133   -0.05624683
     atom   18 type  1   force =     0.00000000    0.00000000   -0.05623783
     atom   19 type  2   force =     0.00000197   -0.00000114   -0.04519943
     atom   20 type  2   force =     0.00000000    0.00000000   -0.04521042
     atom   21 type  1   force =    -0.00000269    0.00000155   -0.05624949
     atom   22 type  1   force =     0.00000000   -0.00000000   -0.05626820
     atom   23 type  2   force =    -0.00000047    0.00000027   -0.04521435
     atom   24 type  2   force =     0.00000000   -0.00000000   -0.04520186
     atom   25 type  1   force =    -0.00000000    0.00000266   -0.05624683
     atom   26 type  1   force =     0.00000221    0.00000127   -0.05623269
     atom   27 type  2   force =     0.00000000    0.00000227   -0.04519943
     atom   28 type  2   force =    -0.00000038   -0.00000022   -0.04520984
     atom   29 type  1   force =     0.00000000   -0.00000311   -0.05624949
     atom   30 type  1   force =     0.00000059    0.00000034   -0.05627047
     atom   31 type  2   force =     0.00000000   -0.00000054   -0.04521435
     atom   32 type  2   force =    -0.00000146   -0.00000084   -0.04520580
     The ionic contribution  to forces
     atom    1 type  1   force =    -0.00000000    0.00000001   -0.30712516
     atom    2 type  1   force =     0.00000000    0.00000001   -0.30712516
     atom    3 type  2   force =    -0.00000000    0.00000000    0.30712516
     atom    4 type  2   force =     0.00000000    0.00000000    0.30712516
     atom    5 type  1   force =    -0.00000000    0.00000001   -0.30712516
     atom    6 type  1   force =     0.00000000    0.00000001   -0.30712516
     atom    7 type  2   force =    -0.00000000    0.00000000    0.30712516
     atom    8 type  2   force =     0.00000000    0.00000000    0.30712516
     atom    9 type  1   force =     0.00000000   -0.00000001   -0.30712516
     atom   10 type  1   force =    -0.00000000   -0.00000000   -0.30712516
     atom   11 type  2   force =     0.00000000   -0.00000001    0.30712516
     atom   12 type  2   force =    -0.00000000   -0.00000000    0.30712516
     atom   13 type  1   force =     0.00000000   -0.00000001   -0.30712516
     atom   14 type  1   force =    -0.00000000   -0.00000000   -0.30712516
     atom   15 type  2   force =     0.00000000   -0.00000001    0.30712516
     atom   16 type  2   force =    -0.00000000   -0.00000000    0.30712516
     atom   17 type  1   force =    -0.00000000    0.00000001   -0.30712516
     atom   18 type  1   force =     0.00000000    0.00000001   -0.30712516
     atom   19 type  2   force =    -0.00000000    0.00000000    0.30712516
     atom   20 type  2   force =     0.00000000    0.00000000    0.30712516
     atom   21 type  1   force =    -0.00000000    0.00000001   -0.30712516
     atom   22 type  1   force =     0.00000000    0.00000001   -0.30712516
     atom   23 type  2   force =    -0.00000000    0.00000000    0.30712516
     atom   24 type  2   force =     0.00000000    0.00000000    0.30712516
     atom   25 type  1   force =     0.00000000   -0.00000001   -0.30712516
     atom   26 type  1   force =    -0.00000000   -0.00000000   -0.30712516
     atom   27 type  2   force =     0.00000000   -0.00000001    0.30712516
     atom   28 type  2   force =    -0.00000000   -0.00000000    0.30712516
     atom   29 type  1   force =     0.00000000   -0.00000001   -0.30712516
     atom   30 type  1   force =    -0.00000000   -0.00000000   -0.30712516
     atom   31 type  2   force =     0.00000000   -0.00000001    0.30712516
     atom   32 type  2   force =    -0.00000000   -0.00000000    0.30712516
     The local contribution  to forces
     atom    1 type  1   force =     0.00000497    0.00000298    0.35977616
     atom    2 type  1   force =     0.00000009    0.00000917    0.35974310
     atom    3 type  2   force =    -0.00000536   -0.00000306   -0.26214149
     atom    4 type  2   force =     0.00000002    0.00000026   -0.26217115
     atom    5 type  1   force =    -0.00001099   -0.00000624    0.35978610
     atom    6 type  1   force =     0.00000009   -0.00000094    0.35983845
     atom    7 type  2   force =     0.00000173    0.00000103   -0.26218458
     atom    8 type  2   force =     0.00000002   -0.00000336   -0.26216231
     atom    9 type  1   force =     0.00000009   -0.00000005    0.35977749
     atom   10 type  1   force =     0.00000799   -0.00000451    0.35974310
     atom   11 type  2   force =     0.00000002   -0.00000001   -0.26214080
     atom   12 type  2   force =     0.00000024   -0.00000011   -0.26217115
     atom   13 type  1   force =     0.00000009   -0.00000005    0.35978758
     atom   14 type  1   force =    -0.00000077    0.00000055    0.35983845
     atom   15 type  2   force =     0.00000002   -0.00000001   -0.26217849
     atom   16 type  2   force =    -0.00000290    0.00000170   -0.26216231
     atom   17 type  1   force =    -0.00000497    0.00000298    0.35977616
     atom   18 type  1   force =     0.00000009    0.00000005    0.35975671
     atom   19 type  2   force =     0.00000536   -0.00000306   -0.26214149
     atom   20 type  2   force =     0.00000002    0.00000001   -0.26217467
     atom   21 type  1   force =     0.00001099   -0.00000624    0.35978610
     atom   22 type  1   force =     0.00000009    0.00000005    0.35982765
     atom   23 type  2   force =    -0.00000173    0.00000103   -0.26218458
     atom   24 type  2   force =     0.00000002    0.00000001   -0.26216368
     atom   25 type  1   force =     0.00000009   -0.00000579    0.35977616
     atom   26 type  1   force =    -0.00000780   -0.00000451    0.35974310
     atom   27 type  2   force =     0.00000002    0.00000617   -0.26214149
     atom   28 type  2   force =    -0.00000019   -0.00000011   -0.26217115
     atom   29 type  1   force =     0.00000009    0.00001263    0.35978610
     atom   30 type  1   force =     0.00000096    0.00000055    0.35983845
     atom   31 type  2   force =     0.00000002   -0.00000201   -0.26218458
     atom   32 type  2   force =     0.00000295    0.00000170   -0.26216231
     The core correction contribution to forces
     atom    1 type  1   force =    -0.00000018   -0.00000009    0.00345528
     atom    2 type  1   force =     0.00000001   -0.00000015    0.00345434
     atom    3 type  2   force =     0.00000001    0.00000001    0.00038343
     atom    4 type  2   force =    -0.00000000   -0.00000000    0.00038208
     atom    5 type  1   force =     0.00000026    0.00000017    0.00345154
     atom    6 type  1   force =     0.00000001   -0.00000005    0.00345229
     atom    7 type  2   force =     0.00000000    0.00000000    0.00038100
     atom    8 type  2   force =    -0.00000000   -0.00000003    0.00038236
     atom    9 type  1   force =     0.00000001   -0.00000001    0.00345513
     atom   10 type  1   force =    -0.00000012    0.00000008    0.00345434
     atom   11 type  2   force =    -0.00000000    0.00000000    0.00038337
     atom   12 type  2   force =    -0.00000000    0.00000000    0.00038208
     atom   13 type  1   force =     0.00000001   -0.00000001    0.00345148
     atom   14 type  1   force =    -0.00000004    0.00000003    0.00345229
     atom   15 type  2   force =    -0.00000000    0.00000000    0.00038107
     atom   16 type  2   force =    -0.00000002    0.00000001    0.00038236
     atom   17 type  1   force =     0.00000018   -0.00000009    0.00345528
     atom   18 type  1   force =     0.00000001    0.00000001    0.00345404
     atom   19 type  2   force =    -0.00000001    0.00000001    0.00038343
     atom   20 type  2   force =    -0.00000000   -0.00000000    0.00038207
     atom   21 type  1   force =    -0.00000026    0.00000017    0.00345154
     atom   22 type  1   force =     0.00000001    0.00000001    0.00345258
     atom   23 type  2   force =    -0.00000000    0.00000000    0.00038100
     atom   24 type  2   force =    -0.00000000   -0.00000000    0.00038231
     atom   25 type  1   force =     0.00000001    0.00000020    0.00345528
     atom   26 type  1   force =     0.00000014    0.00000008    0.00345434
     atom   27 type  2   force =    -0.00000000   -0.00000002    0.00038343
     atom   28 type  2   force =     0.00000000    0.00000000    0.00038208
     atom   29 type  1   force =     0.00000001   -0.00000031    0.00345154
     atom   30 type  1   force =     0.00000006    0.00000003    0.00345229
     atom   31 type  2   force =    -0.00000000   -0.00000000    0.00038100
     atom   32 type  2   force =     0.00000002    0.00000001    0.00038236
     The Hubbard contrib.    to forces
     atom    1 type  1   force =     0.00000000    0.00000000    0.00000000
     atom    2 type  1   force =     0.00000000    0.00000000    0.00000000
     atom    3 type  2   force =     0.00000000    0.00000000    0.00000000
     atom    4 type  2   force =     0.00000000    0.00000000    0.00000000
     atom    5 type  1   force =     0.00000000    0.00000000    0.00000000
     atom    6 type  1   force =     0.00000000    0.00000000    0.00000000
     atom    7 type  2   force =     0.00000000    0.00000000    0.00000000
     atom    8 type  2   force =     0.00000000    0.00000000    0.00000000
     atom    9 type  1   force =     0.00000000    0.00000000    0.00000000
     atom   10 type  1   force =     0.00000000    0.00000000    0.00000000
     atom   11 type  2   force =     0.00000000    0.00000000    0.00000000
     atom   12 type  2   force =     0.00000000    0.00000000    0.00000000
     atom   13 type  1   force =     0.00000000    0.00000000    0.00000000
     atom   14 type  1   force =     0.00000000    0.00000000    0.00000000
     atom   15 type  2   force =     0.00000000    0.00000000    0.00000000
     atom   16 type  2   force =     0.00000000    0.00000000    0.00000000
     atom   17 type  1   force =     0.00000000    0.00000000    0.00000000
     atom   18 type  1   force =     0.00000000    0.00000000    0.00000000
     atom   19 type  2   force =     0.00000000    0.00000000    0.00000000
     atom   20 type  2   force =     0.00000000    0.00000000    0.00000000
     atom   21 type  1   force =     0.00000000    0.00000000    0.00000000
     atom   22 type  1   force =     0.00000000    0.00000000    0.00000000
     atom   23 type  2   force =     0.00000000    0.00000000    0.00000000
     atom   24 type  2   force =     0.00000000    0.00000000    0.00000000
     atom   25 type  1   force =     0.00000000    0.00000000    0.00000000
     atom   26 type  1   force =     0.00000000    0.00000000    0.00000000
     atom   27 type  2   force =     0.00000000    0.00000000    0.00000000
     atom   28 type  2   force =     0.00000000    0.00000000    0.00000000
     atom   29 type  1   force =     0.00000000    0.00000000    0.00000000
     atom   30 type  1   force =     0.00000000    0.00000000    0.00000000
     atom   31 type  2   force =     0.00000000    0.00000000    0.00000000
     atom   32 type  2   force =     0.00000000    0.00000000    0.00000000
     The SCF correction term to forces
     atom    1 type  1   force =    -0.00000294   -0.00000170    0.00001222
     atom    2 type  1   force =    -0.00000000   -0.00001282    0.00005681
     atom    3 type  2   force =     0.00000788    0.00000455   -0.00003295
     atom    4 type  2   force =    -0.00000000   -0.00000042    0.00000855
     atom    5 type  1   force =     0.00001559    0.00000900    0.00000075
     atom    6 type  1   force =    -0.00000000    0.00000456   -0.00006873
     atom    7 type  2   force =    -0.00000224   -0.00000129    0.00002790
     atom    8 type  2   force =    -0.00000000    0.00000220   -0.00000452
     atom    9 type  1   force =    -0.00000000    0.00000000    0.00001668
     atom   10 type  1   force =    -0.00001110    0.00000641    0.00005681
     atom   11 type  2   force =    -0.00000000    0.00000000   -0.00003977
     atom   12 type  2   force =    -0.00000037    0.00000021    0.00000855
     atom   13 type  1   force =    -0.00000000    0.00000000   -0.00000009
     atom   14 type  1   force =     0.00000395   -0.00000228   -0.00006873
     atom   15 type  2   force =    -0.00000000    0.00000000    0.00002525
     atom   16 type  2   force =     0.00000190   -0.00000110   -0.00000452
     atom   17 type  1   force =     0.00000294   -0.00000170    0.00001222
     atom   18 type  1   force =    -0.00000000   -0.00000000    0.00004181
     atom   19 type  2   force =    -0.00000788    0.00000455   -0.00003295
     atom   20 type  2   force =    -0.00000000   -0.00000000    0.00001392
     atom   21 type  1   force =    -0.00001559    0.00000900    0.00000075
     atom   22 type  1   force =    -0.00000000   -0.00000000   -0.00005417
     atom   23 type  2   force =     0.00000224   -0.00000129    0.00002790
     atom   24 type  2   force =    -0.00000000   -0.00000000   -0.00000657
     atom   25 type  1   force =    -0.00000000    0.00000339    0.00001222
     atom   26 type  1   force =     0.00001110    0.00000641    0.00005681
     atom   27 type  2   force =    -0.00000000   -0.00000910   -0.00003295
     atom   28 type  2   force =     0.00000037    0.00000021    0.00000855
     atom   29 type  1   force =    -0.00000000   -0.00001800    0.00000075
     atom   30 type  1   force =    -0.00000395   -0.00000228   -0.00006873
     atom   31 type  2   force =    -0.00000000    0.00000259    0.00002790
     atom   32 type  2   force =    -0.00000190   -0.00000110   -0.00000452

     Total force =     0.000770     Total SCF correction =     0.000199
     SCF correction compared to forces is large: reduce conv_thr to get better values

     General routines

     Parallel routines

   This run was terminated on:   4:40: 5  11Sep2025

   JOB DONE.
Note: The following floating-point exceptions are signalling: IEEE_INVALID_FLAG
Note: The following floating-point exceptions are signalling: IEEE_INVALID_FLAG