     Program PWSCF v.7.2 starts on  8Sep2025 at 23:56:23

     Reading input from /home/jvc/QEspresso7.2/ZnO_database/scripts/cell222.in/ZnO-3.07-1.45-222.in
Warning: card &CELL ignored
Warning: card / ignored
Warning: card &FCP ignored
Warning: card / ignored
Warning: card &RISM ignored
Warning: card / ignored

     Current dimensions of program PWSCF are:
     Max number of different atomic species (ntypx) = 10
     Max number of k-points (npk) =  40000
     Max angular momentum in pseudopotentials (lmaxx) =  4
     file Zn.upf: wavefunction(s)  3D renormalized
     Found identity + (  0.0000  0.0000  0.5000) symmetry
     This is a supercell, fractional translations are disabled
     Message from routine setup:
     using ibrav=0 with symmetry is DISCOURAGED, use correct ibrav instead

     K-points division:     npool     =       2
     R & G space division:  proc/nbgrp/npool/nimage =      16
     Subspace diagonalization in iterative solution of the eigenvalue problem:
     a serial algorithm will be used

     Using Slab Decomposition

     bravais-lattice index     =            0
     lattice parameter (alat)  =      11.6162  a.u.
     unit-cell volume          =    1972.2884 (a.u.)^3
     number of atoms/cell      =           32
     number of atomic types    =            2
     number of electrons       =       288.00
     number of Kohn-Sham states=          144
     kinetic-energy cutoff     =      50.0000  Ry
     charge density cutoff     =     400.0000  Ry
     scf convergence threshold =      1.0E-08
     mixing beta               =       0.3000
     number of iterations used =            8  plain     mixing
     Exchange-correlation= PBE
                           (   1   4   3   4   0   0   0)

     celldm(1)=  11.616245  celldm(2)=   0.000000  celldm(3)=   0.000000
     celldm(4)=   0.000000  celldm(5)=   0.000000  celldm(6)=   0.000000

     crystal axes: (cart. coord. in units of alat)
               a(1) = (   1.000000   0.000000   0.000000 )
               a(2) = (  -0.500000   0.866025   0.000000 )
               a(3) = (   0.000000   0.000000   1.452923 )

     reciprocal axes: (cart. coord. in units 2 pi/alat)
               b(1) = (  1.000000  0.577350 -0.000000 )
               b(2) = (  0.000000  1.154701  0.000000 )
               b(3) = (  0.000000 -0.000000  0.688268 )

     PseudoPot. # 1 for Zn read from file:
     /home/jvc/QEspresso7.2/ZnO_database/pseudos/Zn.upf
     MD5 check sum: 7f56cabf9682ed8c977c2f7d0c5985c5
     Pseudo is Ultrasoft + core correction, Zval = 12.0
     Generated using &quot;atomic&quot; code by A. Dal Corso  v.6.2.2
     Using radial grid of 1201 points,  6 beta functions with:
                l(1) =   0
                l(2) =   0
                l(3) =   1
                l(4) =   1
                l(5) =   2
                l(6) =   2
     Q(r) pseudized with 0 coefficients

     PseudoPot. # 2 for O  read from file:
     /home/jvc/QEspresso7.2/ZnO_database/pseudos/O.upf
     MD5 check sum: 91400c9766925bcf19f520983a725ff0
     Pseudo is Ultrasoft + core correction, Zval =  6.0
     Generated using &quot;atomic&quot; code by A. Dal Corso  v.6.3MaX
     Using radial grid of 1095 points,  4 beta functions with:
                l(1) =   0
                l(2) =   0
                l(3) =   1
                l(4) =   1
     Q(r) pseudized with 0 coefficients

     atomic species   valence    mass     pseudopotential
        Zn            12.00    65.38000     Zn( 1.00)
        O              6.00    15.99900     O ( 1.00)

      6 Sym. Ops. (no inversion) found

                                    s                        frac. trans.

      isym =  1     identity

 cryst.   s( 1) = (     1          0          0      )
                  (     0          1          0      )
                  (     0          0          1      )

 cart.    s( 1) = (  1.0000000  0.0000000  0.0000000 )
                  (  0.0000000  1.0000000  0.0000000 )
                  (  0.0000000  0.0000000  1.0000000 )

      isym =  2     120 deg rotation - cryst. axis [0,0,1]

[...]

      isym =  3     120 deg rotation - cryst. axis [0,0,-1]

[...]

      isym =  4     inv. 180 deg rotation - cart. axis [1,0,0]

[...]

      isym =  5     inv. 180 deg rotation - cryst. axis [0,1,0]

[...]

      isym =  6     inv. 180 deg rotation - cryst. axis [1,1,0]

 cryst.   s( 6) = (     0         -1          0      )
                  (    -1          0          0      )
                  (     0          0          1      )

 cart.    s( 6) = (  0.5000000 -0.8660254  0.0000000 )
                  ( -0.8660254 -0.5000000  0.0000000 )
                  (  0.0000000  0.0000000  1.0000000 )

   Cartesian axes

     site n.     atom                  positions (alat units)
         1           Zn  tau(   1) = (   0.2500000   0.1443376   0.3636909  )
         2           Zn  tau(   2) = (  -0.0000000   0.2886751   0.0004603  )
         3           O   tau(   3) = (   0.2500000   0.1443376   0.6390508  )
         4           O   tau(   4) = (  -0.0000000   0.2886751   0.2758202  )
         5           Zn  tau(   5) = (   0.2500000   0.1443376   1.0901522  )
         6           Zn  tau(   6) = (  -0.0000000   0.2886751   0.7269215  )
         7           O   tau(   7) = (   0.2500000   0.1443376   1.3655121  )
         8           O   tau(   8) = (  -0.0000000   0.2886751   1.0022815  )
         9           Zn  tau(   9) = (  -0.0000000   0.5773503   0.3636909  )
        10           Zn  tau(  10) = (  -0.2500000   0.7216878   0.0004603  )
        11           O   tau(  11) = (  -0.0000000   0.5773503   0.6390508  )
        12           O   tau(  12) = (  -0.2500000   0.7216878   0.2758202  )
        13           Zn  tau(  13) = (  -0.0000000   0.5773503   1.0901522  )
        14           Zn  tau(  14) = (  -0.2500000   0.7216878   0.7269215  )
        15           O   tau(  15) = (  -0.0000000   0.5773503   1.3655121  )
        16           O   tau(  16) = (  -0.2500000   0.7216878   1.0022815  )
        17           Zn  tau(  17) = (   0.7500000   0.1443376   0.3636909  )
        18           Zn  tau(  18) = (   0.5000000   0.2886751   0.0004603  )
        19           O   tau(  19) = (   0.7500000   0.1443376   0.6390508  )
        20           O   tau(  20) = (   0.5000000   0.2886751   0.2758202  )
        21           Zn  tau(  21) = (   0.7500000   0.1443376   1.0901522  )
        22           Zn  tau(  22) = (   0.5000000   0.2886751   0.7269215  )
        23           O   tau(  23) = (   0.7500000   0.1443376   1.3655121  )
        24           O   tau(  24) = (   0.5000000   0.2886751   1.0022815  )
        25           Zn  tau(  25) = (   0.5000000   0.5773503   0.3636909  )
        26           Zn  tau(  26) = (   0.2500000   0.7216878   0.0004603  )
        27           O   tau(  27) = (   0.5000000   0.5773503   0.6390508  )
        28           O   tau(  28) = (   0.2500000   0.7216878   0.2758202  )
        29           Zn  tau(  29) = (   0.5000000   0.5773503   1.0901522  )
        30           Zn  tau(  30) = (   0.2500000   0.7216878   0.7269215  )
        31           O   tau(  31) = (   0.5000000   0.5773503   1.3655121  )
        32           O   tau(  32) = (   0.2500000   0.7216878   1.0022815  )

   Crystallographic axes

     site n.     atom                  positions (cryst. coord.)
         1           Zn  tau(   1) = (  0.3333333  0.1666667  0.2503168  )
         2           Zn  tau(   2) = (  0.1666667  0.3333333  0.0003168  )
         3           O   tau(   3) = (  0.3333333  0.1666667  0.4398382  )
         4           O   tau(   4) = (  0.1666667  0.3333333  0.1898382  )
         5           Zn  tau(   5) = (  0.3333333  0.1666667  0.7503168  )
         6           Zn  tau(   6) = (  0.1666667  0.3333333  0.5003168  )
         7           O   tau(   7) = (  0.3333333  0.1666667  0.9398382  )
         8           O   tau(   8) = (  0.1666667  0.3333333  0.6898382  )
         9           Zn  tau(   9) = (  0.3333333  0.6666667  0.2503168  )
        10           Zn  tau(  10) = (  0.1666667  0.8333333  0.0003168  )
        11           O   tau(  11) = (  0.3333333  0.6666667  0.4398382  )
        12           O   tau(  12) = (  0.1666667  0.8333333  0.1898382  )
        13           Zn  tau(  13) = (  0.3333333  0.6666667  0.7503168  )
        14           Zn  tau(  14) = (  0.1666667  0.8333333  0.5003168  )
        15           O   tau(  15) = (  0.3333333  0.6666667  0.9398382  )
        16           O   tau(  16) = (  0.1666667  0.8333333  0.6898382  )
        17           Zn  tau(  17) = (  0.8333333  0.1666667  0.2503168  )
        18           Zn  tau(  18) = (  0.6666667  0.3333333  0.0003168  )
        19           O   tau(  19) = (  0.8333333  0.1666667  0.4398382  )
        20           O   tau(  20) = (  0.6666667  0.3333333  0.1898382  )
        21           Zn  tau(  21) = (  0.8333333  0.1666667  0.7503168  )
        22           Zn  tau(  22) = (  0.6666667  0.3333333  0.5003168  )
        23           O   tau(  23) = (  0.8333333  0.1666667  0.9398382  )
        24           O   tau(  24) = (  0.6666667  0.3333333  0.6898382  )
        25           Zn  tau(  25) = (  0.8333333  0.6666667  0.2503168  )
        26           Zn  tau(  26) = (  0.6666667  0.8333333  0.0003168  )
        27           O   tau(  27) = (  0.8333333  0.6666667  0.4398382  )
        28           O   tau(  28) = (  0.6666667  0.8333333  0.1898382  )
        29           Zn  tau(  29) = (  0.8333333  0.6666667  0.7503168  )
        30           Zn  tau(  30) = (  0.6666667  0.8333333  0.5003168  )
        31           O   tau(  31) = (  0.8333333  0.6666667  0.9398382  )
        32           O   tau(  32) = (  0.6666667  0.8333333  0.6898382  )

     number of k points=    34
                       cart. coord. in units 2pi/alat
        k(    1) = (   0.0000000   0.0000000   0.0000000), wk =   0.0092593
        k(    2) = (   0.0000000   0.0000000   0.1147113), wk =   0.0185185
        k(    3) = (   0.0000000   0.0000000   0.2294226), wk =   0.0185185
        k(    4) = (   0.0000000   0.0000000  -0.3441340), wk =   0.0092593
        k(    5) = (   0.0000000   0.1924501   0.0000000), wk =   0.0555556
        k(    6) = (   0.0000000   0.1924501   0.1147113), wk =   0.0555556
        k(    7) = (   0.0000000   0.1924501   0.2294226), wk =   0.0555556
        k(    8) = (   0.0000000   0.1924501  -0.3441340), wk =   0.0555556
        k(    9) = (   0.0000000   0.3849002   0.0000000), wk =   0.0555556
        k(   10) = (   0.0000000   0.3849002   0.1147113), wk =   0.0555556
        k(   11) = (   0.0000000   0.3849002   0.2294226), wk =   0.0555556
        k(   12) = (   0.0000000   0.3849002  -0.3441340), wk =   0.0555556
        k(   13) = (   0.0000000  -0.5773503   0.0000000), wk =   0.0277778
        k(   14) = (   0.0000000  -0.5773503   0.1147113), wk =   0.0555556
        k(   15) = (   0.0000000  -0.5773503   0.2294226), wk =   0.0555556
        k(   16) = (   0.0000000  -0.5773503  -0.3441340), wk =   0.0277778
        k(   17) = (   0.1666667   0.2886751   0.0000000), wk =   0.0555556
[...]
     atom   12 type  2   force =     0.00000026   -0.00000015    0.14725952
     atom   13 type  1   force =     0.00000000    0.00000000   -0.14725786
     atom   14 type  1   force =    -0.00000045    0.00000026   -0.14725765
     atom   15 type  2   force =     0.00000000    0.00000000    0.14725926
     atom   16 type  2   force =    -0.00000005    0.00000003    0.14725888
     atom   17 type  1   force =     0.00000029   -0.00000017   -0.14726016
     atom   18 type  1   force =     0.00000000    0.00000000   -0.14726052
     atom   19 type  2   force =     0.00000009   -0.00000005    0.14725860
     atom   20 type  2   force =     0.00000000    0.00000000    0.14725939
     atom   21 type  1   force =    -0.00000029    0.00000017   -0.14725848
     atom   22 type  1   force =     0.00000000    0.00000000   -0.14725747
     atom   23 type  2   force =     0.00000006   -0.00000003    0.14725925
     atom   24 type  2   force =     0.00000000    0.00000000    0.14725915
     atom   25 type  1   force =    -0.00000000    0.00000033   -0.14726016
     atom   26 type  1   force =     0.00000020    0.00000011   -0.14726010
     atom   27 type  2   force =     0.00000000    0.00000010    0.14725860
     atom   28 type  2   force =    -0.00000026   -0.00000015    0.14725952
     atom   29 type  1   force =     0.00000000   -0.00000034   -0.14725848
     atom   30 type  1   force =     0.00000045    0.00000026   -0.14725765
     atom   31 type  2   force =    -0.00000000    0.00000007    0.14725925
     atom   32 type  2   force =     0.00000005    0.00000003    0.14725888
     The non-local contrib.  to forces
     atom    1 type  1   force =    -0.00000019   -0.00000011   -0.36003814
     atom    2 type  1   force =     0.00000000   -0.00000013   -0.36003772
     atom    3 type  2   force =    -0.00000008   -0.00000004   -0.19914876
     atom    4 type  2   force =     0.00000000    0.00000039   -0.19914732
     atom    5 type  1   force =     0.00000021    0.00000012   -0.36003642
     atom    6 type  1   force =    -0.00000000   -0.00000026   -0.36003589
     atom    7 type  2   force =    -0.00000005   -0.00000003   -0.19914765
     atom    8 type  2   force =     0.00000000   -0.00000002   -0.19914839
     atom    9 type  1   force =     0.00000000    0.00000000   -0.36003812
     atom   10 type  1   force =    -0.00000011    0.00000006   -0.36003772
     atom   11 type  2   force =     0.00000000    0.00000000   -0.19914832
     atom   12 type  2   force =     0.00000034   -0.00000019   -0.19914732
     atom   13 type  1   force =     0.00000000   -0.00000000   -0.36003616
     atom   14 type  1   force =    -0.00000022    0.00000013   -0.36003589
     atom   15 type  2   force =     0.00000000    0.00000000   -0.19914768
     atom   16 type  2   force =    -0.00000002    0.00000001   -0.19914839
     atom   17 type  1   force =     0.00000019   -0.00000011   -0.36003814
     atom   18 type  1   force =     0.00000000   -0.00000000   -0.36003807
     atom   19 type  2   force =     0.00000008   -0.00000004   -0.19914876
     atom   20 type  2   force =     0.00000000    0.00000000   -0.19914759
     atom   21 type  1   force =    -0.00000021    0.00000012   -0.36003642
     atom   22 type  1   force =     0.00000000    0.00000000   -0.36003577
     atom   23 type  2   force =     0.00000005   -0.00000003   -0.19914765
     atom   24 type  2   force =     0.00000000   -0.00000000   -0.19914803
     atom   25 type  1   force =     0.00000000    0.00000021   -0.36003814
     atom   26 type  1   force =     0.00000011    0.00000006   -0.36003772
     atom   27 type  2   force =     0.00000000    0.00000009   -0.19914876
     atom   28 type  2   force =    -0.00000034   -0.00000019   -0.19914732
     atom   29 type  1   force =     0.00000000   -0.00000024   -0.36003642
     atom   30 type  1   force =     0.00000022    0.00000013   -0.36003589
     atom   31 type  2   force =     0.00000000    0.00000006   -0.19914765
     atom   32 type  2   force =     0.00000002    0.00000001   -0.19914839
     The ionic contribution  to forces
     atom    1 type  1   force =     0.00000000    0.00000003   -2.55793342
     atom    2 type  1   force =     0.00000002    0.00000001   -2.55793342
     atom    3 type  2   force =     0.00000000    0.00000001    2.55793342
     atom    4 type  2   force =     0.00000001    0.00000001    2.55793342
     atom    5 type  1   force =     0.00000000    0.00000003   -2.55793342
     atom    6 type  1   force =     0.00000002    0.00000001   -2.55793342
     atom    7 type  2   force =     0.00000000    0.00000001    2.55793342
     atom    8 type  2   force =     0.00000001    0.00000001    2.55793342
     atom    9 type  1   force =     0.00000001   -0.00000002   -2.55793342
     atom   10 type  1   force =     0.00000001    0.00000001   -2.55793341
     atom   11 type  2   force =     0.00000001   -0.00000001    2.55793342
     atom   12 type  2   force =     0.00000000    0.00000000    2.55793341
     atom   13 type  1   force =     0.00000001   -0.00000002   -2.55793342
     atom   14 type  1   force =     0.00000001    0.00000001   -2.55793341
     atom   15 type  2   force =     0.00000001   -0.00000001    2.55793342
     atom   16 type  2   force =     0.00000000    0.00000000    2.55793341
     atom   17 type  1   force =     0.00000000    0.00000000   -2.55793342
     atom   18 type  1   force =    -0.00000002    0.00000001   -2.55793342
     atom   19 type  2   force =     0.00000000   -0.00000000    2.55793342
     atom   20 type  2   force =    -0.00000001    0.00000001    2.55793342
     atom   21 type  1   force =     0.00000000    0.00000000   -2.55793342
     atom   22 type  1   force =    -0.00000002    0.00000001   -2.55793342
     atom   23 type  2   force =     0.00000000   -0.00000000    2.55793342
     atom   24 type  2   force =    -0.00000001    0.00000001    2.55793342
     atom   25 type  1   force =    -0.00000002   -0.00000002   -2.55793342
     atom   26 type  1   force =     0.00000001   -0.00000002   -2.55793342
     atom   27 type  2   force =    -0.00000002   -0.00000001    2.55793342
     atom   28 type  2   force =     0.00000000   -0.00000001    2.55793342
     atom   29 type  1   force =    -0.00000002   -0.00000002   -2.55793342
     atom   30 type  1   force =     0.00000001   -0.00000002   -2.55793342
     atom   31 type  2   force =    -0.00000002   -0.00000001    2.55793342
     atom   32 type  2   force =     0.00000000   -0.00000001    2.55793342
     The local contribution  to forces
     atom    1 type  1   force =     0.00000044    0.00000035    2.73457982
     atom    2 type  1   force =     0.00000008    0.00000030    2.73457953
     atom    3 type  2   force =    -0.00000007   -0.00000001   -2.21245845
     atom    4 type  2   force =     0.00000002    0.00000045   -2.21245575
     atom    5 type  1   force =    -0.00000069   -0.00000031    2.73457623
     atom    6 type  1   force =     0.00000008    0.00000086    2.73457519
     atom    7 type  2   force =    -0.00000002    0.00000002   -2.21245641
     atom    8 type  2   force =     0.00000002    0.00000009   -2.21245794
     atom    9 type  1   force =     0.00000008   -0.00000005    2.73458023
     atom   10 type  1   force =     0.00000030   -0.00000008    2.73457953
     atom   11 type  2   force =     0.00000002   -0.00000001   -2.21245859
     atom   12 type  2   force =     0.00000040   -0.00000020   -2.21245575
     atom   13 type  1   force =     0.00000008   -0.00000005    2.73457545
     atom   14 type  1   force =     0.00000079   -0.00000036    2.73457519
     atom   15 type  2   force =     0.00000002   -0.00000001   -2.21245605
     atom   16 type  2   force =     0.00000009   -0.00000003   -2.21245794
     atom   17 type  1   force =    -0.00000044    0.00000035    2.73457982
     atom   18 type  1   force =    -0.00000008    0.00000005    2.73458033
     atom   19 type  2   force =     0.00000007   -0.00000001   -2.21245845
     atom   20 type  2   force =    -0.00000002    0.00000001   -2.21245579
     atom   21 type  1   force =     0.00000069   -0.00000031    2.73457623
     atom   22 type  1   force =    -0.00000008    0.00000005    2.73457465
     atom   23 type  2   force =     0.00000002    0.00000002   -2.21245641
     atom   24 type  2   force =    -0.00000002    0.00000001   -2.21245788
     atom   25 type  1   force =    -0.00000008   -0.00000055    2.73457982
     atom   26 type  1   force =    -0.00000014   -0.00000008    2.73457953
     atom   27 type  2   force =    -0.00000002    0.00000006   -2.21245845
     atom   28 type  2   force =    -0.00000035   -0.00000020   -2.21245575
     atom   29 type  1   force =    -0.00000008    0.00000075    2.73457623
     atom   30 type  1   force =    -0.00000063   -0.00000036    2.73457519
     atom   31 type  2   force =    -0.00000002    0.00000001   -2.21245641
     atom   32 type  2   force =    -0.00000005   -0.00000003   -2.21245794
     The core correction contribution to forces
     atom    1 type  1   force =    -0.00000004   -0.00000001    0.03614497
     atom    2 type  1   force =     0.00000001   -0.00000002    0.03614493
     atom    3 type  2   force =    -0.00000001   -0.00000000    0.00093226
     atom    4 type  2   force =    -0.00000000   -0.00000001    0.00093224
     atom    5 type  1   force =    -0.00000003   -0.00000000    0.03614496
     atom    6 type  1   force =     0.00000001   -0.00000004    0.03614496
     atom    7 type  2   force =    -0.00000001   -0.00000000    0.00093225
     atom    8 type  2   force =    -0.00000000   -0.00000001    0.00093225
     atom    9 type  1   force =     0.00000001   -0.00000001    0.03614492
     atom   10 type  1   force =    -0.00000002    0.00000002    0.03614493
     atom   11 type  2   force =    -0.00000000    0.00000000    0.00093223
     atom   12 type  2   force =    -0.00000001    0.00000001    0.00093224
     atom   13 type  1   force =     0.00000001   -0.00000001    0.03614494
     atom   14 type  1   force =    -0.00000003    0.00000003    0.03614496
     atom   15 type  2   force =    -0.00000000    0.00000000    0.00093223
     atom   16 type  2   force =    -0.00000001    0.00000000    0.00093225
     atom   17 type  1   force =     0.00000004   -0.00000001    0.03614497
     atom   18 type  1   force =    -0.00000001    0.00000001    0.03614490
     atom   19 type  2   force =     0.00000001   -0.00000000    0.00093226
     atom   20 type  2   force =     0.00000000   -0.00000000    0.00093223
     atom   21 type  1   force =     0.00000003   -0.00000000    0.03614496
     atom   22 type  1   force =    -0.00000001    0.00000001    0.03614494
     atom   23 type  2   force =     0.00000001   -0.00000000    0.00093225
     atom   24 type  2   force =     0.00000000   -0.00000000    0.00093223
     atom   25 type  1   force =    -0.00000001    0.00000004    0.03614497
     atom   26 type  1   force =     0.00000004    0.00000002    0.03614493
     atom   27 type  2   force =     0.00000000    0.00000001    0.00093226
     atom   28 type  2   force =     0.00000001    0.00000001    0.00093224
     atom   29 type  1   force =    -0.00000001    0.00000002    0.03614496
     atom   30 type  1   force =     0.00000005    0.00000003    0.03614496
     atom   31 type  2   force =     0.00000000    0.00000001    0.00093225
     atom   32 type  2   force =     0.00000001    0.00000000    0.00093225
     The Hubbard contrib.    to forces
     atom    1 type  1   force =     0.00000000    0.00000000    0.00000000
     atom    2 type  1   force =     0.00000000    0.00000000    0.00000000
     atom    3 type  2   force =     0.00000000    0.00000000    0.00000000
     atom    4 type  2   force =     0.00000000    0.00000000    0.00000000
     atom    5 type  1   force =     0.00000000    0.00000000    0.00000000
     atom    6 type  1   force =     0.00000000    0.00000000    0.00000000
     atom    7 type  2   force =     0.00000000    0.00000000    0.00000000
     atom    8 type  2   force =     0.00000000    0.00000000    0.00000000
     atom    9 type  1   force =     0.00000000    0.00000000    0.00000000
     atom   10 type  1   force =     0.00000000    0.00000000    0.00000000
     atom   11 type  2   force =     0.00000000    0.00000000    0.00000000
     atom   12 type  2   force =     0.00000000    0.00000000    0.00000000
     atom   13 type  1   force =     0.00000000    0.00000000    0.00000000
     atom   14 type  1   force =     0.00000000    0.00000000    0.00000000
     atom   15 type  2   force =     0.00000000    0.00000000    0.00000000
     atom   16 type  2   force =     0.00000000    0.00000000    0.00000000
     atom   17 type  1   force =     0.00000000    0.00000000    0.00000000
     atom   18 type  1   force =     0.00000000    0.00000000    0.00000000
     atom   19 type  2   force =     0.00000000    0.00000000    0.00000000
     atom   20 type  2   force =     0.00000000    0.00000000    0.00000000
     atom   21 type  1   force =     0.00000000    0.00000000    0.00000000
     atom   22 type  1   force =     0.00000000    0.00000000    0.00000000
     atom   23 type  2   force =     0.00000000    0.00000000    0.00000000
     atom   24 type  2   force =     0.00000000    0.00000000    0.00000000
     atom   25 type  1   force =     0.00000000    0.00000000    0.00000000
     atom   26 type  1   force =     0.00000000    0.00000000    0.00000000
     atom   27 type  2   force =     0.00000000    0.00000000    0.00000000
     atom   28 type  2   force =     0.00000000    0.00000000    0.00000000
     atom   29 type  1   force =     0.00000000    0.00000000    0.00000000
     atom   30 type  1   force =     0.00000000    0.00000000    0.00000000
     atom   31 type  2   force =     0.00000000    0.00000000    0.00000000
     atom   32 type  2   force =     0.00000000    0.00000000    0.00000000
     The SCF correction term to forces
     atom    1 type  1   force =    -0.00000055   -0.00000032   -0.00001270
     atom    2 type  1   force =     0.00000000   -0.00000033   -0.00001273
     atom    3 type  2   force =     0.00000004    0.00000003    0.00000082
     atom    4 type  2   force =    -0.00000000   -0.00000052   -0.00000238
     atom    5 type  1   force =     0.00000074    0.00000043   -0.00000913
     atom    6 type  1   force =     0.00000000   -0.00000104   -0.00000780
     atom    7 type  2   force =    -0.00000000   -0.00000000   -0.00000167
     atom    8 type  2   force =    -0.00000000   -0.00000010    0.00000023
     atom    9 type  1   force =     0.00000000   -0.00000000   -0.00001332
     atom   10 type  1   force =    -0.00000029    0.00000017   -0.00001273
     atom   11 type  2   force =    -0.00000000    0.00000000    0.00000081
     atom   12 type  2   force =    -0.00000045    0.00000026   -0.00000238
     atom   13 type  1   force =     0.00000000   -0.00000000   -0.00000798
     atom   14 type  1   force =    -0.00000090    0.00000052   -0.00000780
     atom   15 type  2   force =    -0.00000000    0.00000000   -0.00000196
     atom   16 type  2   force =    -0.00000009    0.00000005    0.00000023
     atom   17 type  1   force =     0.00000055   -0.00000032   -0.00001270
     atom   18 type  1   force =    -0.00000000    0.00000000   -0.00001357
     atom   19 type  2   force =    -0.00000004    0.00000003    0.00000082
     atom   20 type  2   force =     0.00000000   -0.00000000   -0.00000219
     atom   21 type  1   force =    -0.00000074    0.00000043   -0.00000913
     atom   22 type  1   force =    -0.00000000    0.00000000   -0.00000718
     atom   23 type  2   force =     0.00000000   -0.00000000   -0.00000167
     atom   24 type  2   force =     0.00000000   -0.00000000    0.00000010
     atom   25 type  1   force =    -0.00000000    0.00000064   -0.00001270
     atom   26 type  1   force =     0.00000029    0.00000017   -0.00001273
     atom   27 type  2   force =     0.00000000   -0.00000005    0.00000082
     atom   28 type  2   force =     0.00000045    0.00000026   -0.00000238
     atom   29 type  1   force =    -0.00000000   -0.00000086   -0.00000913
     atom   30 type  1   force =     0.00000090    0.00000052   -0.00000780
     atom   31 type  2   force =     0.00000000    0.00000000   -0.00000167
     atom   32 type  2   force =     0.00000009    0.00000005    0.00000023

     Total force =     0.833023     Total SCF correction =     0.000044

     General routines

     Parallel routines

   This run was terminated on:   0: 9:24   9Sep2025

   JOB DONE.
Note: The following floating-point exceptions are signalling: IEEE_INVALID_FLAG
Note: The following floating-point exceptions are signalling: IEEE_INVALID_FLAG