     Program PWSCF v.7.2 starts on  9Sep2025 at 11:49:17

     Reading input from /home/jvc/QEspresso7.2/ZnO_database/scripts/cell222.in/ZnO-3.27-1.61-222.in
Warning: card &CELL ignored
Warning: card / ignored
Warning: card &FCP ignored
Warning: card / ignored
Warning: card &RISM ignored
Warning: card / ignored

     Current dimensions of program PWSCF are:
     Max number of different atomic species (ntypx) = 10
     Max number of k-points (npk) =  40000
     Max angular momentum in pseudopotentials (lmaxx) =  4
     file Zn.upf: wavefunction(s)  3D renormalized
     Found identity + (  0.0000  0.0000  0.5000) symmetry
     This is a supercell, fractional translations are disabled
     Message from routine setup:
     using ibrav=0 with symmetry is DISCOURAGED, use correct ibrav instead

     K-points division:     npool     =       2
     R & G space division:  proc/nbgrp/npool/nimage =      16
     Subspace diagonalization in iterative solution of the eigenvalue problem:
     a serial algorithm will be used

     Using Slab Decomposition

     bravais-lattice index     =            0
     lattice parameter (alat)  =      12.3577  a.u.
     unit-cell volume          =    2638.4226 (a.u.)^3
     number of atoms/cell      =           32
     number of atomic types    =            2
     number of electrons       =       288.00
     number of Kohn-Sham states=          144
     kinetic-energy cutoff     =      50.0000  Ry
     charge density cutoff     =     400.0000  Ry
     scf convergence threshold =      1.0E-08
     mixing beta               =       0.3000
     number of iterations used =            8  plain     mixing
     Exchange-correlation= PBE
                           (   1   4   3   4   0   0   0)

     celldm(1)=  12.357708  celldm(2)=   0.000000  celldm(3)=   0.000000
     celldm(4)=   0.000000  celldm(5)=   0.000000  celldm(6)=   0.000000

     crystal axes: (cart. coord. in units of alat)
               a(1) = (   1.000000   0.000000   0.000000 )
               a(2) = (  -0.500000   0.866025   0.000000 )
               a(3) = (   0.000000   0.000000   1.614358 )

     reciprocal axes: (cart. coord. in units 2 pi/alat)
               b(1) = (  1.000000  0.577350 -0.000000 )
               b(2) = (  0.000000  1.154701  0.000000 )
               b(3) = (  0.000000 -0.000000  0.619441 )

     PseudoPot. # 1 for Zn read from file:
     /home/jvc/QEspresso7.2/ZnO_database/pseudos/Zn.upf
     MD5 check sum: 7f56cabf9682ed8c977c2f7d0c5985c5
     Pseudo is Ultrasoft + core correction, Zval = 12.0
     Generated using &quot;atomic&quot; code by A. Dal Corso  v.6.2.2
     Using radial grid of 1201 points,  6 beta functions with:
                l(1) =   0
                l(2) =   0
                l(3) =   1
                l(4) =   1
                l(5) =   2
                l(6) =   2
     Q(r) pseudized with 0 coefficients

     PseudoPot. # 2 for O  read from file:
     /home/jvc/QEspresso7.2/ZnO_database/pseudos/O.upf
     MD5 check sum: 91400c9766925bcf19f520983a725ff0
     Pseudo is Ultrasoft + core correction, Zval =  6.0
     Generated using &quot;atomic&quot; code by A. Dal Corso  v.6.3MaX
     Using radial grid of 1095 points,  4 beta functions with:
                l(1) =   0
                l(2) =   0
                l(3) =   1
                l(4) =   1
     Q(r) pseudized with 0 coefficients

     atomic species   valence    mass     pseudopotential
        Zn            12.00    65.38000     Zn( 1.00)
        O              6.00    15.99900     O ( 1.00)

      6 Sym. Ops. (no inversion) found

                                    s                        frac. trans.

      isym =  1     identity

 cryst.   s( 1) = (     1          0          0      )
                  (     0          1          0      )
                  (     0          0          1      )

 cart.    s( 1) = (  1.0000000  0.0000000  0.0000000 )
                  (  0.0000000  1.0000000  0.0000000 )
                  (  0.0000000  0.0000000  1.0000000 )

      isym =  2     120 deg rotation - cryst. axis [0,0,1]

[...]

      isym =  3     120 deg rotation - cryst. axis [0,0,-1]

[...]

      isym =  4     inv. 180 deg rotation - cart. axis [1,0,0]

[...]

      isym =  5     inv. 180 deg rotation - cryst. axis [0,1,0]

[...]

      isym =  6     inv. 180 deg rotation - cryst. axis [1,1,0]

 cryst.   s( 6) = (     0         -1          0      )
                  (    -1          0          0      )
                  (     0          0          1      )

 cart.    s( 6) = (  0.5000000 -0.8660254  0.0000000 )
                  ( -0.8660254 -0.5000000  0.0000000 )
                  (  0.0000000  0.0000000  1.0000000 )

   Cartesian axes

     site n.     atom                  positions (alat units)
         1           Zn  tau(   1) = (   0.2500000   0.1443376   0.4041010  )
         2           Zn  tau(   2) = (  -0.0000000   0.2886751   0.0005114  )
         3           O   tau(   3) = (   0.2500000   0.1443376   0.7100565  )
         4           O   tau(   4) = (  -0.0000000   0.2886751   0.3064669  )
         5           Zn  tau(   5) = (   0.2500000   0.1443376   1.2112802  )
         6           Zn  tau(   6) = (  -0.0000000   0.2886751   0.8076906  )
         7           O   tau(   7) = (   0.2500000   0.1443376   1.5172357  )
         8           O   tau(   8) = (  -0.0000000   0.2886751   1.1136461  )
         9           Zn  tau(   9) = (   0.0000000   0.5773503   0.4041010  )
        10           Zn  tau(  10) = (  -0.2500000   0.7216878   0.0005114  )
        11           O   tau(  11) = (   0.0000000   0.5773503   0.7100565  )
        12           O   tau(  12) = (  -0.2500000   0.7216878   0.3064669  )
        13           Zn  tau(  13) = (   0.0000000   0.5773503   1.2112802  )
        14           Zn  tau(  14) = (  -0.2500000   0.7216878   0.8076906  )
        15           O   tau(  15) = (   0.0000000   0.5773503   1.5172357  )
        16           O   tau(  16) = (  -0.2500000   0.7216878   1.1136461  )
        17           Zn  tau(  17) = (   0.7500000   0.1443376   0.4041010  )
        18           Zn  tau(  18) = (   0.5000000   0.2886751   0.0005114  )
        19           O   tau(  19) = (   0.7500000   0.1443376   0.7100565  )
        20           O   tau(  20) = (   0.5000000   0.2886751   0.3064669  )
        21           Zn  tau(  21) = (   0.7500000   0.1443376   1.2112802  )
        22           Zn  tau(  22) = (   0.5000000   0.2886751   0.8076906  )
        23           O   tau(  23) = (   0.7500000   0.1443376   1.5172357  )
        24           O   tau(  24) = (   0.5000000   0.2886751   1.1136461  )
        25           Zn  tau(  25) = (   0.5000000   0.5773503   0.4041010  )
        26           Zn  tau(  26) = (   0.2500000   0.7216878   0.0005114  )
        27           O   tau(  27) = (   0.5000000   0.5773503   0.7100565  )
        28           O   tau(  28) = (   0.2500000   0.7216878   0.3064669  )
        29           Zn  tau(  29) = (   0.5000000   0.5773503   1.2112802  )
        30           Zn  tau(  30) = (   0.2500000   0.7216878   0.8076906  )
        31           O   tau(  31) = (   0.5000000   0.5773503   1.5172357  )
        32           O   tau(  32) = (   0.2500000   0.7216878   1.1136461  )

   Crystallographic axes

     site n.     atom                  positions (cryst. coord.)
         1           Zn  tau(   1) = (  0.3333333  0.1666667  0.2503168  )
         2           Zn  tau(   2) = (  0.1666667  0.3333333  0.0003168  )
         3           O   tau(   3) = (  0.3333333  0.1666667  0.4398382  )
         4           O   tau(   4) = (  0.1666667  0.3333333  0.1898382  )
         5           Zn  tau(   5) = (  0.3333333  0.1666667  0.7503168  )
         6           Zn  tau(   6) = (  0.1666667  0.3333333  0.5003168  )
         7           O   tau(   7) = (  0.3333333  0.1666667  0.9398382  )
         8           O   tau(   8) = (  0.1666667  0.3333333  0.6898382  )
         9           Zn  tau(   9) = (  0.3333333  0.6666667  0.2503168  )
        10           Zn  tau(  10) = (  0.1666667  0.8333333  0.0003168  )
        11           O   tau(  11) = (  0.3333333  0.6666667  0.4398382  )
        12           O   tau(  12) = (  0.1666667  0.8333333  0.1898382  )
        13           Zn  tau(  13) = (  0.3333333  0.6666667  0.7503168  )
        14           Zn  tau(  14) = (  0.1666667  0.8333333  0.5003168  )
        15           O   tau(  15) = (  0.3333333  0.6666667  0.9398382  )
        16           O   tau(  16) = (  0.1666667  0.8333333  0.6898382  )
        17           Zn  tau(  17) = (  0.8333333  0.1666667  0.2503168  )
        18           Zn  tau(  18) = (  0.6666667  0.3333333  0.0003168  )
        19           O   tau(  19) = (  0.8333333  0.1666667  0.4398382  )
        20           O   tau(  20) = (  0.6666667  0.3333333  0.1898382  )
        21           Zn  tau(  21) = (  0.8333333  0.1666667  0.7503168  )
        22           Zn  tau(  22) = (  0.6666667  0.3333333  0.5003168  )
        23           O   tau(  23) = (  0.8333333  0.1666667  0.9398382  )
        24           O   tau(  24) = (  0.6666667  0.3333333  0.6898382  )
        25           Zn  tau(  25) = (  0.8333333  0.6666667  0.2503168  )
        26           Zn  tau(  26) = (  0.6666667  0.8333333  0.0003168  )
        27           O   tau(  27) = (  0.8333333  0.6666667  0.4398382  )
        28           O   tau(  28) = (  0.6666667  0.8333333  0.1898382  )
        29           Zn  tau(  29) = (  0.8333333  0.6666667  0.7503168  )
        30           Zn  tau(  30) = (  0.6666667  0.8333333  0.5003168  )
        31           O   tau(  31) = (  0.8333333  0.6666667  0.9398382  )
        32           O   tau(  32) = (  0.6666667  0.8333333  0.6898382  )

     number of k points=    34
                       cart. coord. in units 2pi/alat
        k(    1) = (   0.0000000   0.0000000   0.0000000), wk =   0.0092593
        k(    2) = (   0.0000000   0.0000000   0.1032402), wk =   0.0185185
        k(    3) = (   0.0000000   0.0000000   0.2064804), wk =   0.0185185
        k(    4) = (   0.0000000   0.0000000  -0.3097206), wk =   0.0092593
        k(    5) = (   0.0000000   0.1924501   0.0000000), wk =   0.0555556
        k(    6) = (   0.0000000   0.1924501   0.1032402), wk =   0.0555556
        k(    7) = (   0.0000000   0.1924501   0.2064804), wk =   0.0555556
        k(    8) = (   0.0000000   0.1924501  -0.3097206), wk =   0.0555556
        k(    9) = (   0.0000000   0.3849002   0.0000000), wk =   0.0555556
        k(   10) = (   0.0000000   0.3849002   0.1032402), wk =   0.0555556
        k(   11) = (   0.0000000   0.3849002   0.2064804), wk =   0.0555556
        k(   12) = (   0.0000000   0.3849002  -0.3097206), wk =   0.0555556
        k(   13) = (   0.0000000  -0.5773503   0.0000000), wk =   0.0277778
        k(   14) = (   0.0000000  -0.5773503   0.1032402), wk =   0.0555556
        k(   15) = (   0.0000000  -0.5773503   0.2064804), wk =   0.0555556
        k(   16) = (   0.0000000  -0.5773503  -0.3097206), wk =   0.0277778
        k(   17) = (   0.1666667   0.2886751   0.0000000), wk =   0.0555556
[...]
     atom   13 type  1   force =     0.00000000    0.00000000    0.00004648
     atom   14 type  1   force =    -0.00000097    0.00000056    0.00005241
     atom   15 type  2   force =     0.00000000    0.00000000   -0.00004588
     atom   16 type  2   force =    -0.00000121    0.00000070   -0.00005390
     atom   17 type  1   force =     0.00000137   -0.00000079    0.00004563
     atom   18 type  1   force =     0.00000000    0.00000000    0.00004780
     atom   19 type  2   force =     0.00000234   -0.00000135   -0.00005086
     atom   20 type  2   force =     0.00000000    0.00000000   -0.00004446
     atom   21 type  1   force =    -0.00000154    0.00000089    0.00004864
     atom   22 type  1   force =     0.00000000   -0.00000000    0.00005376
     atom   23 type  2   force =     0.00000129   -0.00000074   -0.00004549
     atom   24 type  2   force =     0.00000000    0.00000000   -0.00005339
     atom   25 type  1   force =     0.00000000    0.00000158    0.00004563
     atom   26 type  1   force =     0.00000053    0.00000030    0.00004755
     atom   27 type  2   force =    -0.00000000    0.00000270   -0.00005086
     atom   28 type  2   force =     0.00000198    0.00000114   -0.00004419
     atom   29 type  1   force =     0.00000000   -0.00000178    0.00004864
     atom   30 type  1   force =     0.00000097    0.00000056    0.00005241
     atom   31 type  2   force =     0.00000000    0.00000149   -0.00004549
     atom   32 type  2   force =     0.00000121    0.00000070   -0.00005390
     The non-local contrib.  to forces
     atom    1 type  1   force =     0.00000234    0.00000135   -0.00475598
     atom    2 type  1   force =     0.00000000    0.00000231   -0.00475197
     atom    3 type  2   force =    -0.00000177   -0.00000102    0.00544585
     atom    4 type  2   force =     0.00000000   -0.00000208    0.00545410
     atom    5 type  1   force =     0.00000126    0.00000073   -0.00474058
     atom    6 type  1   force =     0.00000000    0.00000328   -0.00474356
     atom    7 type  2   force =    -0.00000169   -0.00000097    0.00544877
     atom    8 type  2   force =     0.00000000   -0.00000204    0.00544093
     atom    9 type  1   force =     0.00000000    0.00000000   -0.00475373
     atom   10 type  1   force =     0.00000200   -0.00000116   -0.00475197
     atom   11 type  2   force =     0.00000000   -0.00000000    0.00544650
     atom   12 type  2   force =    -0.00000180    0.00000104    0.00545410
     atom   13 type  1   force =     0.00000000    0.00000000   -0.00474012
     atom   14 type  1   force =     0.00000284   -0.00000164   -0.00474356
     atom   15 type  2   force =     0.00000000    0.00000000    0.00544957
     atom   16 type  2   force =    -0.00000177    0.00000102    0.00544093
     atom   17 type  1   force =    -0.00000234    0.00000135   -0.00475598
     atom   18 type  1   force =     0.00000000   -0.00000000   -0.00474972
     atom   19 type  2   force =     0.00000177   -0.00000102    0.00544585
     atom   20 type  2   force =     0.00000000   -0.00000000    0.00545615
     atom   21 type  1   force =    -0.00000126    0.00000073   -0.00474058
     atom   22 type  1   force =     0.00000000    0.00000000   -0.00474273
     atom   23 type  2   force =     0.00000169   -0.00000097    0.00544877
     atom   24 type  2   force =     0.00000000    0.00000000    0.00544094
     atom   25 type  1   force =    -0.00000000   -0.00000270   -0.00475598
     atom   26 type  1   force =    -0.00000200   -0.00000116   -0.00475197
     atom   27 type  2   force =     0.00000000    0.00000204    0.00544585
     atom   28 type  2   force =     0.00000180    0.00000104    0.00545410
     atom   29 type  1   force =     0.00000000   -0.00000145   -0.00474058
     atom   30 type  1   force =    -0.00000284   -0.00000164   -0.00474356
     atom   31 type  2   force =     0.00000000    0.00000195    0.00544877
     atom   32 type  2   force =     0.00000177    0.00000102    0.00544093
     The ionic contribution  to forces
     atom    1 type  1   force =     0.00000000    0.00000001    0.06271682
     atom    2 type  1   force =     0.00000001    0.00000000    0.06271682
     atom    3 type  2   force =     0.00000000    0.00000001   -0.06271682
     atom    4 type  2   force =     0.00000001   -0.00000000   -0.06271682
     atom    5 type  1   force =     0.00000000    0.00000001    0.06271682
     atom    6 type  1   force =     0.00000001    0.00000000    0.06271682
     atom    7 type  2   force =     0.00000000    0.00000001   -0.06271682
     atom    8 type  2   force =     0.00000001   -0.00000000   -0.06271682
     atom    9 type  1   force =     0.00000000    0.00000001    0.06271682
     atom   10 type  1   force =     0.00000001    0.00000000    0.06271682
     atom   11 type  2   force =     0.00000000    0.00000001   -0.06271682
     atom   12 type  2   force =     0.00000001   -0.00000000   -0.06271682
     atom   13 type  1   force =     0.00000000    0.00000001    0.06271682
     atom   14 type  1   force =     0.00000001    0.00000000    0.06271682
     atom   15 type  2   force =     0.00000000    0.00000001   -0.06271682
     atom   16 type  2   force =     0.00000001   -0.00000000   -0.06271682
     atom   17 type  1   force =    -0.00000000   -0.00000000    0.06271682
     atom   18 type  1   force =    -0.00000001   -0.00000001    0.06271682
     atom   19 type  2   force =    -0.00000000   -0.00000000   -0.06271682
     atom   20 type  2   force =    -0.00000001   -0.00000000   -0.06271682
     atom   21 type  1   force =    -0.00000000   -0.00000000    0.06271682
     atom   22 type  1   force =    -0.00000001   -0.00000001    0.06271682
     atom   23 type  2   force =    -0.00000000   -0.00000000   -0.06271682
     atom   24 type  2   force =    -0.00000001   -0.00000000   -0.06271682
     atom   25 type  1   force =    -0.00000000   -0.00000000    0.06271682
     atom   26 type  1   force =    -0.00000001   -0.00000001    0.06271682
     atom   27 type  2   force =    -0.00000000   -0.00000000   -0.06271682
     atom   28 type  2   force =    -0.00000001   -0.00000000   -0.06271682
     atom   29 type  1   force =    -0.00000000   -0.00000000    0.06271682
     atom   30 type  1   force =    -0.00000001   -0.00000001    0.06271682
     atom   31 type  2   force =    -0.00000000   -0.00000000   -0.06271682
     atom   32 type  2   force =    -0.00000001   -0.00000000   -0.06271682
     The local contribution  to forces
     atom    1 type  1   force =    -0.00000255   -0.00000137   -0.05838223
     atom    2 type  1   force =     0.00000009   -0.00000288   -0.05838850
     atom    3 type  2   force =    -0.00000034   -0.00000017    0.05727577
     atom    4 type  2   force =     0.00000002   -0.00000243    0.05728252
     atom    5 type  1   force =    -0.00000258   -0.00000139   -0.05840514
     atom    6 type  1   force =     0.00000009   -0.00000401   -0.05840342
     atom    7 type  2   force =    -0.00000196   -0.00000111    0.05728339
     atom    8 type  2   force =     0.00000002   -0.00000105    0.05727919
     atom    9 type  1   force =    -0.00000000    0.00000010   -0.05838608
     atom   10 type  1   force =    -0.00000245    0.00000151   -0.05838850
     atom   11 type  2   force =     0.00000000    0.00000003    0.05727548
     atom   12 type  2   force =    -0.00000209    0.00000123    0.05728252
     atom   13 type  1   force =     0.00000000    0.00000010   -0.05840451
     atom   14 type  1   force =    -0.00000343    0.00000208   -0.05840342
     atom   15 type  2   force =    -0.00000000    0.00000003    0.05728569
     atom   16 type  2   force =    -0.00000090    0.00000055    0.05727919
     atom   17 type  1   force =     0.00000255   -0.00000137   -0.05838223
     atom   18 type  1   force =    -0.00000009    0.00000005   -0.05839065
     atom   19 type  2   force =     0.00000034   -0.00000017    0.05727577
     atom   20 type  2   force =    -0.00000002    0.00000001    0.05728409
     atom   21 type  1   force =     0.00000258   -0.00000139   -0.05840514
     atom   22 type  1   force =    -0.00000009    0.00000005   -0.05840452
     atom   23 type  2   force =     0.00000196   -0.00000111    0.05728339
     atom   24 type  2   force =    -0.00000002    0.00000001    0.05727829
     atom   25 type  1   force =    -0.00000000    0.00000304   -0.05838223
     atom   26 type  1   force =     0.00000245    0.00000151   -0.05838850
     atom   27 type  2   force =    -0.00000000    0.00000041    0.05727577
     atom   28 type  2   force =     0.00000209    0.00000123    0.05728252
     atom   29 type  1   force =    -0.00000000    0.00000308   -0.05840514
     atom   30 type  1   force =     0.00000343    0.00000208   -0.05840342
     atom   31 type  2   force =    -0.00000000    0.00000229    0.05728339
     atom   32 type  2   force =     0.00000090    0.00000055    0.05727919
     The core correction contribution to forces
     atom    1 type  1   force =     0.00000003    0.00000003    0.00047305
     atom    2 type  1   force =     0.00000001    0.00000002    0.00047297
     atom    3 type  2   force =     0.00000002    0.00000001   -0.00006149
     atom    4 type  2   force =    -0.00000000    0.00000002   -0.00006158
     atom    5 type  1   force =    -0.00000000    0.00000001    0.00047307
     atom    6 type  1   force =     0.00000001    0.00000004    0.00047312
     atom    7 type  2   force =     0.00000002    0.00000001   -0.00006151
     atom    8 type  2   force =    -0.00000000    0.00000002   -0.00006143
     atom    9 type  1   force =     0.00000000    0.00000001    0.00047305
     atom   10 type  1   force =     0.00000002   -0.00000000    0.00047297
     atom   11 type  2   force =     0.00000000   -0.00000000   -0.00006151
     atom   12 type  2   force =     0.00000002   -0.00000001   -0.00006158
     atom   13 type  1   force =    -0.00000000    0.00000001    0.00047312
     atom   14 type  1   force =     0.00000004   -0.00000001    0.00047312
     atom   15 type  2   force =     0.00000000   -0.00000000   -0.00006152
     atom   16 type  2   force =     0.00000002   -0.00000001   -0.00006143
     atom   17 type  1   force =    -0.00000003    0.00000003    0.00047305
     atom   18 type  1   force =    -0.00000001    0.00000001    0.00047297
     atom   19 type  2   force =    -0.00000002    0.00000001   -0.00006149
     atom   20 type  2   force =     0.00000000   -0.00000000   -0.00006160
     atom   21 type  1   force =     0.00000000    0.00000001    0.00047307
     atom   22 type  1   force =    -0.00000001    0.00000001    0.00047312
     atom   23 type  2   force =    -0.00000002    0.00000001   -0.00006151
     atom   24 type  2   force =     0.00000000   -0.00000000   -0.00006143
     atom   25 type  1   force =    -0.00000000   -0.00000003    0.00047305
     atom   26 type  1   force =    -0.00000002   -0.00000000    0.00047297
     atom   27 type  2   force =    -0.00000000   -0.00000002   -0.00006149
     atom   28 type  2   force =    -0.00000002   -0.00000001   -0.00006158
     atom   29 type  1   force =    -0.00000000    0.00000002    0.00047307
     atom   30 type  1   force =    -0.00000004   -0.00000001    0.00047312
     atom   31 type  2   force =    -0.00000000   -0.00000002   -0.00006151
     atom   32 type  2   force =    -0.00000002   -0.00000001   -0.00006143
     The Hubbard contrib.    to forces
     atom    1 type  1   force =     0.00000000    0.00000000    0.00000000
     atom    2 type  1   force =     0.00000000    0.00000000    0.00000000
     atom    3 type  2   force =     0.00000000    0.00000000    0.00000000
     atom    4 type  2   force =     0.00000000    0.00000000    0.00000000
     atom    5 type  1   force =     0.00000000    0.00000000    0.00000000
     atom    6 type  1   force =     0.00000000    0.00000000    0.00000000
     atom    7 type  2   force =     0.00000000    0.00000000    0.00000000
     atom    8 type  2   force =     0.00000000    0.00000000    0.00000000
     atom    9 type  1   force =     0.00000000    0.00000000    0.00000000
     atom   10 type  1   force =     0.00000000    0.00000000    0.00000000
     atom   11 type  2   force =     0.00000000    0.00000000    0.00000000
     atom   12 type  2   force =     0.00000000    0.00000000    0.00000000
     atom   13 type  1   force =     0.00000000    0.00000000    0.00000000
     atom   14 type  1   force =     0.00000000    0.00000000    0.00000000
     atom   15 type  2   force =     0.00000000    0.00000000    0.00000000
     atom   16 type  2   force =     0.00000000    0.00000000    0.00000000
     atom   17 type  1   force =     0.00000000    0.00000000    0.00000000
     atom   18 type  1   force =     0.00000000    0.00000000    0.00000000
     atom   19 type  2   force =     0.00000000    0.00000000    0.00000000
     atom   20 type  2   force =     0.00000000    0.00000000    0.00000000
     atom   21 type  1   force =     0.00000000    0.00000000    0.00000000
     atom   22 type  1   force =     0.00000000    0.00000000    0.00000000
     atom   23 type  2   force =     0.00000000    0.00000000    0.00000000
     atom   24 type  2   force =     0.00000000    0.00000000    0.00000000
     atom   25 type  1   force =     0.00000000    0.00000000    0.00000000
     atom   26 type  1   force =     0.00000000    0.00000000    0.00000000
     atom   27 type  2   force =     0.00000000    0.00000000    0.00000000
     atom   28 type  2   force =     0.00000000    0.00000000    0.00000000
     atom   29 type  1   force =     0.00000000    0.00000000    0.00000000
     atom   30 type  1   force =     0.00000000    0.00000000    0.00000000
     atom   31 type  2   force =     0.00000000    0.00000000    0.00000000
     atom   32 type  2   force =     0.00000000    0.00000000    0.00000000
     The SCF correction term to forces
     atom    1 type  1   force =    -0.00000120   -0.00000069   -0.00000756
     atom    2 type  1   force =    -0.00000000   -0.00000007   -0.00000330
     atom    3 type  2   force =    -0.00000025   -0.00000014    0.00000432
     atom    4 type  2   force =    -0.00000000    0.00000220   -0.00000393
     atom    5 type  1   force =     0.00000287    0.00000166    0.00000295
     atom    6 type  1   force =    -0.00000000   -0.00000045    0.00000792
     atom    7 type  2   force =     0.00000234    0.00000135   -0.00000083
     atom    8 type  2   force =    -0.00000000    0.00000167    0.00000272
     atom    9 type  1   force =    -0.00000000   -0.00000000   -0.00000382
     atom   10 type  1   force =    -0.00000006    0.00000003   -0.00000330
     atom   11 type  2   force =    -0.00000000   -0.00000000    0.00000338
     atom   12 type  2   force =     0.00000191   -0.00000110   -0.00000393
     atom   13 type  1   force =    -0.00000000   -0.00000000   -0.00000035
     atom   14 type  1   force =    -0.00000039    0.00000022    0.00000792
     atom   15 type  2   force =    -0.00000000   -0.00000000   -0.00000433
     atom   16 type  2   force =     0.00000145   -0.00000084    0.00000272
     atom   17 type  1   force =     0.00000120   -0.00000069   -0.00000756
     atom   18 type  1   force =     0.00000000   -0.00000000   -0.00000313
     atom   19 type  2   force =     0.00000025   -0.00000014    0.00000432
     atom   20 type  2   force =     0.00000000   -0.00000000   -0.00000780
     atom   21 type  1   force =    -0.00000287    0.00000166    0.00000295
     atom   22 type  1   force =     0.00000000   -0.00000000    0.00000954
     atom   23 type  2   force =    -0.00000234    0.00000135   -0.00000083
     atom   24 type  2   force =     0.00000000   -0.00000000    0.00000412
     atom   25 type  1   force =     0.00000000    0.00000139   -0.00000756
     atom   26 type  1   force =     0.00000006    0.00000003   -0.00000330
     atom   27 type  2   force =     0.00000000    0.00000029    0.00000432
     atom   28 type  2   force =    -0.00000191   -0.00000110   -0.00000393
     atom   29 type  1   force =     0.00000000   -0.00000331    0.00000295
     atom   30 type  1   force =     0.00000039    0.00000022    0.00000792
     atom   31 type  2   force =     0.00000000   -0.00000271   -0.00000083
     atom   32 type  2   force =    -0.00000145   -0.00000084    0.00000272

     Total force =     0.000276     Total SCF correction =     0.000029
     SCF correction compared to forces is large: reduce conv_thr to get better values

     General routines

     Parallel routines

   This run was terminated on:  12:13:10   9Sep2025

   JOB DONE.
Note: The following floating-point exceptions are signalling: IEEE_INVALID_FLAG
Note: The following floating-point exceptions are signalling: IEEE_INVALID_FLAG