     Program PWSCF v.7.2 starts on  8Sep2025 at 20:50:26

     Reading input from /home/jvc/QEspresso7.2/ZnO_database/scripts/cell222.in/ZnO-2.94-1.78-222.in
Warning: card &CELL ignored
Warning: card / ignored
Warning: card &FCP ignored
Warning: card / ignored
Warning: card &RISM ignored
Warning: card / ignored

     Current dimensions of program PWSCF are:
     Max number of different atomic species (ntypx) = 10
     Max number of k-points (npk) =  40000
     Max angular momentum in pseudopotentials (lmaxx) =  4
     file Zn.upf: wavefunction(s)  3D renormalized
     Found identity + (  0.0000  0.0000  0.5000) symmetry
     This is a supercell, fractional translations are disabled
     Message from routine setup:
     using ibrav=0 with symmetry is DISCOURAGED, use correct ibrav instead

     K-points division:     npool     =       2
     R & G space division:  proc/nbgrp/npool/nimage =      16
     Subspace diagonalization in iterative solution of the eigenvalue problem:
     a serial algorithm will be used

     Using Slab Decomposition

     bravais-lattice index     =            0
     lattice parameter (alat)  =      11.1219  a.u.
     unit-cell volume          =    2115.7511 (a.u.)^3
     number of atoms/cell      =           32
     number of atomic types    =            2
     number of electrons       =       288.00
     number of Kohn-Sham states=          144
     kinetic-energy cutoff     =      50.0000  Ry
     charge density cutoff     =     400.0000  Ry
     scf convergence threshold =      1.0E-08
     mixing beta               =       0.3000
     number of iterations used =            8  plain     mixing
     Exchange-correlation= PBE
                           (   1   4   3   4   0   0   0)

     celldm(1)=  11.121937  celldm(2)=   0.000000  celldm(3)=   0.000000
     celldm(4)=   0.000000  celldm(5)=   0.000000  celldm(6)=   0.000000

     crystal axes: (cart. coord. in units of alat)
               a(1) = (   1.000000   0.000000   0.000000 )
               a(2) = (  -0.500000   0.866025   0.000000 )
               a(3) = (   0.000000   0.000000   1.775794 )

     reciprocal axes: (cart. coord. in units 2 pi/alat)
               b(1) = (  1.000000  0.577350 -0.000000 )
               b(2) = (  0.000000  1.154701  0.000000 )
               b(3) = (  0.000000 -0.000000  0.563128 )

     PseudoPot. # 1 for Zn read from file:
     /home/jvc/QEspresso7.2/ZnO_database/pseudos/Zn.upf
     MD5 check sum: 7f56cabf9682ed8c977c2f7d0c5985c5
     Pseudo is Ultrasoft + core correction, Zval = 12.0
     Generated using &quot;atomic&quot; code by A. Dal Corso  v.6.2.2
     Using radial grid of 1201 points,  6 beta functions with:
                l(1) =   0
                l(2) =   0
                l(3) =   1
                l(4) =   1
                l(5) =   2
                l(6) =   2
     Q(r) pseudized with 0 coefficients

     PseudoPot. # 2 for O  read from file:
     /home/jvc/QEspresso7.2/ZnO_database/pseudos/O.upf
     MD5 check sum: 91400c9766925bcf19f520983a725ff0
     Pseudo is Ultrasoft + core correction, Zval =  6.0
     Generated using &quot;atomic&quot; code by A. Dal Corso  v.6.3MaX
     Using radial grid of 1095 points,  4 beta functions with:
                l(1) =   0
                l(2) =   0
                l(3) =   1
                l(4) =   1
     Q(r) pseudized with 0 coefficients

     atomic species   valence    mass     pseudopotential
        Zn            12.00    65.38000     Zn( 1.00)
        O              6.00    15.99900     O ( 1.00)

      6 Sym. Ops. (no inversion) found

                                    s                        frac. trans.

      isym =  1     identity

 cryst.   s( 1) = (     1          0          0      )
                  (     0          1          0      )
                  (     0          0          1      )

 cart.    s( 1) = (  1.0000000  0.0000000  0.0000000 )
                  (  0.0000000  1.0000000  0.0000000 )
                  (  0.0000000  0.0000000  1.0000000 )

      isym =  2     120 deg rotation - cryst. axis [0,0,1]

[...]

      isym =  3     120 deg rotation - cryst. axis [0,0,-1]

[...]

      isym =  4     inv. 180 deg rotation - cart. axis [1,0,0]

[...]

      isym =  5     inv. 180 deg rotation - cryst. axis [0,1,0]

[...]

      isym =  6     inv. 180 deg rotation - cryst. axis [1,1,0]

 cryst.   s( 6) = (     0         -1          0      )
                  (    -1          0          0      )
                  (     0          0          1      )

 cart.    s( 6) = (  0.5000000 -0.8660254  0.0000000 )
                  ( -0.8660254 -0.5000000  0.0000000 )
                  (  0.0000000  0.0000000  1.0000000 )

   Cartesian axes

     site n.     atom                  positions (alat units)
         1           Zn  tau(   1) = (   0.2500000   0.1443376   0.4445111  )
         2           Zn  tau(   2) = (  -0.0000000   0.2886751   0.0005626  )
         3           O   tau(   3) = (   0.2500000   0.1443376   0.7810621  )
         4           O   tau(   4) = (  -0.0000000   0.2886751   0.3371136  )
         5           Zn  tau(   5) = (   0.2500000   0.1443376   1.3324082  )
         6           Zn  tau(   6) = (  -0.0000000   0.2886751   0.8884597  )
         7           O   tau(   7) = (   0.2500000   0.1443376   1.6689592  )
         8           O   tau(   8) = (  -0.0000000   0.2886751   1.2250107  )
         9           Zn  tau(   9) = (   0.0000000   0.5773503   0.4445111  )
        10           Zn  tau(  10) = (  -0.2500000   0.7216878   0.0005626  )
        11           O   tau(  11) = (   0.0000000   0.5773503   0.7810621  )
        12           O   tau(  12) = (  -0.2500000   0.7216878   0.3371136  )
        13           Zn  tau(  13) = (   0.0000000   0.5773503   1.3324082  )
        14           Zn  tau(  14) = (  -0.2500000   0.7216878   0.8884597  )
        15           O   tau(  15) = (   0.0000000   0.5773503   1.6689592  )
        16           O   tau(  16) = (  -0.2500000   0.7216878   1.2250107  )
        17           Zn  tau(  17) = (   0.7500000   0.1443376   0.4445111  )
        18           Zn  tau(  18) = (   0.5000000   0.2886751   0.0005626  )
        19           O   tau(  19) = (   0.7500000   0.1443376   0.7810621  )
        20           O   tau(  20) = (   0.5000000   0.2886751   0.3371136  )
        21           Zn  tau(  21) = (   0.7500000   0.1443376   1.3324082  )
        22           Zn  tau(  22) = (   0.5000000   0.2886751   0.8884597  )
        23           O   tau(  23) = (   0.7500000   0.1443376   1.6689592  )
        24           O   tau(  24) = (   0.5000000   0.2886751   1.2250107  )
        25           Zn  tau(  25) = (   0.5000000   0.5773503   0.4445111  )
        26           Zn  tau(  26) = (   0.2500000   0.7216878   0.0005626  )
        27           O   tau(  27) = (   0.5000000   0.5773503   0.7810621  )
        28           O   tau(  28) = (   0.2500000   0.7216878   0.3371136  )
        29           Zn  tau(  29) = (   0.5000000   0.5773503   1.3324082  )
        30           Zn  tau(  30) = (   0.2500000   0.7216878   0.8884597  )
        31           O   tau(  31) = (   0.5000000   0.5773503   1.6689592  )
        32           O   tau(  32) = (   0.2500000   0.7216878   1.2250107  )

   Crystallographic axes

     site n.     atom                  positions (cryst. coord.)
         1           Zn  tau(   1) = (  0.3333333  0.1666667  0.2503168  )
         2           Zn  tau(   2) = (  0.1666667  0.3333333  0.0003168  )
         3           O   tau(   3) = (  0.3333333  0.1666667  0.4398382  )
         4           O   tau(   4) = (  0.1666667  0.3333333  0.1898382  )
         5           Zn  tau(   5) = (  0.3333333  0.1666667  0.7503168  )
         6           Zn  tau(   6) = (  0.1666667  0.3333333  0.5003168  )
         7           O   tau(   7) = (  0.3333333  0.1666667  0.9398382  )
         8           O   tau(   8) = (  0.1666667  0.3333333  0.6898382  )
         9           Zn  tau(   9) = (  0.3333333  0.6666667  0.2503168  )
        10           Zn  tau(  10) = (  0.1666667  0.8333333  0.0003168  )
        11           O   tau(  11) = (  0.3333333  0.6666667  0.4398382  )
        12           O   tau(  12) = (  0.1666667  0.8333333  0.1898382  )
        13           Zn  tau(  13) = (  0.3333333  0.6666667  0.7503168  )
        14           Zn  tau(  14) = (  0.1666667  0.8333333  0.5003168  )
        15           O   tau(  15) = (  0.3333333  0.6666667  0.9398382  )
        16           O   tau(  16) = (  0.1666667  0.8333333  0.6898382  )
        17           Zn  tau(  17) = (  0.8333333  0.1666667  0.2503168  )
        18           Zn  tau(  18) = (  0.6666667  0.3333333  0.0003168  )
        19           O   tau(  19) = (  0.8333333  0.1666667  0.4398382  )
        20           O   tau(  20) = (  0.6666667  0.3333333  0.1898382  )
        21           Zn  tau(  21) = (  0.8333333  0.1666667  0.7503168  )
        22           Zn  tau(  22) = (  0.6666667  0.3333333  0.5003168  )
        23           O   tau(  23) = (  0.8333333  0.1666667  0.9398382  )
        24           O   tau(  24) = (  0.6666667  0.3333333  0.6898382  )
        25           Zn  tau(  25) = (  0.8333333  0.6666667  0.2503168  )
        26           Zn  tau(  26) = (  0.6666667  0.8333333  0.0003168  )
        27           O   tau(  27) = (  0.8333333  0.6666667  0.4398382  )
        28           O   tau(  28) = (  0.6666667  0.8333333  0.1898382  )
        29           Zn  tau(  29) = (  0.8333333  0.6666667  0.7503168  )
        30           Zn  tau(  30) = (  0.6666667  0.8333333  0.5003168  )
        31           O   tau(  31) = (  0.8333333  0.6666667  0.9398382  )
        32           O   tau(  32) = (  0.6666667  0.8333333  0.6898382  )

     number of k points=    34
                       cart. coord. in units 2pi/alat
        k(    1) = (   0.0000000   0.0000000   0.0000000), wk =   0.0092593
        k(    2) = (   0.0000000   0.0000000   0.0938547), wk =   0.0185185
        k(    3) = (   0.0000000   0.0000000   0.1877094), wk =   0.0185185
        k(    4) = (   0.0000000   0.0000000  -0.2815642), wk =   0.0092593
        k(    5) = (   0.0000000   0.1924501   0.0000000), wk =   0.0555556
        k(    6) = (   0.0000000   0.1924501   0.0938547), wk =   0.0555556
        k(    7) = (   0.0000000   0.1924501   0.1877094), wk =   0.0555556
        k(    8) = (   0.0000000   0.1924501  -0.2815642), wk =   0.0555556
        k(    9) = (   0.0000000   0.3849002   0.0000000), wk =   0.0555556
        k(   10) = (   0.0000000   0.3849002   0.0938547), wk =   0.0555556
        k(   11) = (   0.0000000   0.3849002   0.1877094), wk =   0.0555556
        k(   12) = (   0.0000000   0.3849002  -0.2815642), wk =   0.0555556
        k(   13) = (   0.0000000  -0.5773503   0.0000000), wk =   0.0277778
        k(   14) = (   0.0000000  -0.5773503   0.0938547), wk =   0.0555556
        k(   15) = (   0.0000000  -0.5773503   0.1877094), wk =   0.0555556
        k(   16) = (   0.0000000  -0.5773503  -0.2815642), wk =   0.0277778
        k(   17) = (   0.1666667   0.2886751   0.0000000), wk =   0.0555556
[...]
     atom   12 type  2   force =     0.00000003   -0.00000002   -0.07092523
     atom   13 type  1   force =     0.00000000   -0.00000000    0.07092433
     atom   14 type  1   force =    -0.00000010    0.00000006    0.07092706
     atom   15 type  2   force =     0.00000000    0.00000000   -0.07092074
     atom   16 type  2   force =     0.00000000   -0.00000000   -0.07091841
     atom   17 type  1   force =    -0.00000006    0.00000004    0.07091945
     atom   18 type  1   force =     0.00000000    0.00000000    0.07091588
     atom   19 type  2   force =    -0.00000002    0.00000001   -0.07092271
     atom   20 type  2   force =     0.00000000    0.00000000   -0.07092533
     atom   21 type  1   force =    -0.00000019    0.00000011    0.07092455
     atom   22 type  1   force =     0.00000000    0.00000000    0.07092754
     atom   23 type  2   force =    -0.00000004    0.00000002   -0.07092083
     atom   24 type  2   force =     0.00000000    0.00000000   -0.07091845
     atom   25 type  1   force =    -0.00000000   -0.00000007    0.07091945
     atom   26 type  1   force =     0.00000009    0.00000005    0.07091614
     atom   27 type  2   force =     0.00000000   -0.00000002   -0.07092271
     atom   28 type  2   force =    -0.00000003   -0.00000002   -0.07092523
     atom   29 type  1   force =     0.00000000   -0.00000022    0.07092455
     atom   30 type  1   force =     0.00000010    0.00000006    0.07092706
     atom   31 type  2   force =     0.00000000   -0.00000004   -0.07092083
     atom   32 type  2   force =    -0.00000000   -0.00000000   -0.07091841
     The non-local contrib.  to forces
     atom    1 type  1   force =    -0.00000004   -0.00000003    0.28752684
     atom    2 type  1   force =     0.00000000   -0.00000009    0.28752747
     atom    3 type  2   force =     0.00000007    0.00000004    0.21978368
     atom    4 type  2   force =    -0.00000000    0.00000001    0.21978199
     atom    5 type  1   force =     0.00000011    0.00000006    0.28754083
     atom    6 type  1   force =     0.00000000   -0.00000006    0.28753955
     atom    7 type  2   force =     0.00000002    0.00000001    0.21978972
     atom    8 type  2   force =     0.00000000   -0.00000003    0.21979136
     atom    9 type  1   force =     0.00000000    0.00000000    0.28752691
     atom   10 type  1   force =    -0.00000008    0.00000004    0.28752747
     atom   11 type  2   force =     0.00000000   -0.00000000    0.21978374
     atom   12 type  2   force =     0.00000001   -0.00000001    0.21978199
     atom   13 type  1   force =     0.00000000    0.00000000    0.28754068
     atom   14 type  1   force =    -0.00000005    0.00000003    0.28753955
     atom   15 type  2   force =     0.00000000   -0.00000000    0.21978980
     atom   16 type  2   force =    -0.00000003    0.00000002    0.21979136
     atom   17 type  1   force =     0.00000004   -0.00000003    0.28752684
     atom   18 type  1   force =     0.00000000    0.00000000    0.28752746
     atom   19 type  2   force =    -0.00000007    0.00000004    0.21978368
     atom   20 type  2   force =     0.00000000    0.00000000    0.21978162
     atom   21 type  1   force =    -0.00000011    0.00000006    0.28754083
     atom   22 type  1   force =     0.00000000    0.00000000    0.28753962
     atom   23 type  2   force =    -0.00000002    0.00000001    0.21978972
     atom   24 type  2   force =     0.00000000   -0.00000000    0.21979117
     atom   25 type  1   force =     0.00000000    0.00000005    0.28752684
     atom   26 type  1   force =     0.00000008    0.00000004    0.28752747
     atom   27 type  2   force =     0.00000000   -0.00000009    0.21978368
     atom   28 type  2   force =    -0.00000001   -0.00000001    0.21978199
     atom   29 type  1   force =     0.00000000   -0.00000013    0.28754083
     atom   30 type  1   force =     0.00000005    0.00000003    0.28753955
     atom   31 type  2   force =     0.00000000   -0.00000002    0.21978972
     atom   32 type  2   force =     0.00000003    0.00000002    0.21979136
     The ionic contribution  to forces
     atom    1 type  1   force =    -0.00000000    0.00000001    2.36194458
     atom    2 type  1   force =     0.00000000    0.00000001    2.36194458
     atom    3 type  2   force =    -0.00000000    0.00000001   -2.36194458
     atom    4 type  2   force =     0.00000000    0.00000000   -2.36194458
     atom    5 type  1   force =    -0.00000000    0.00000001    2.36194458
     atom    6 type  1   force =     0.00000000    0.00000001    2.36194458
     atom    7 type  2   force =    -0.00000000    0.00000001   -2.36194458
     atom    8 type  2   force =     0.00000000    0.00000000   -2.36194458
     atom    9 type  1   force =     0.00000000   -0.00000000    2.36194458
     atom   10 type  1   force =    -0.00000000   -0.00000002    2.36194458
     atom   11 type  2   force =     0.00000000    0.00000000   -2.36194458
     atom   12 type  2   force =    -0.00000000   -0.00000001   -2.36194458
     atom   13 type  1   force =     0.00000000   -0.00000000    2.36194458
     atom   14 type  1   force =    -0.00000000   -0.00000002    2.36194458
     atom   15 type  2   force =     0.00000000    0.00000000   -2.36194458
     atom   16 type  2   force =    -0.00000000   -0.00000001   -2.36194458
     atom   17 type  1   force =    -0.00000000    0.00000001    2.36194458
     atom   18 type  1   force =     0.00000000    0.00000001    2.36194458
     atom   19 type  2   force =    -0.00000000    0.00000001   -2.36194458
     atom   20 type  2   force =     0.00000000    0.00000000   -2.36194458
     atom   21 type  1   force =    -0.00000000    0.00000001    2.36194458
     atom   22 type  1   force =     0.00000000    0.00000001    2.36194458
     atom   23 type  2   force =    -0.00000000    0.00000001   -2.36194458
     atom   24 type  2   force =     0.00000000    0.00000000   -2.36194458
     atom   25 type  1   force =     0.00000000   -0.00000000    2.36194458
     atom   26 type  1   force =    -0.00000000   -0.00000002    2.36194458
     atom   27 type  2   force =     0.00000000    0.00000000   -2.36194458
     atom   28 type  2   force =    -0.00000000   -0.00000001   -2.36194458
     atom   29 type  1   force =     0.00000000   -0.00000000    2.36194458
     atom   30 type  1   force =    -0.00000000   -0.00000002    2.36194458
     atom   31 type  2   force =     0.00000000    0.00000000   -2.36194458
     atom   32 type  2   force =    -0.00000000   -0.00000001   -2.36194458
     The local contribution  to forces
     atom    1 type  1   force =     0.00000010    0.00000015   -2.55380699
     atom    2 type  1   force =     0.00000007    0.00000024   -2.55381101
     atom    3 type  2   force =    -0.00000002    0.00000001    2.07270620
     atom    4 type  2   force =     0.00000002   -0.00000000    2.07270388
     atom    5 type  1   force =    -0.00000031   -0.00000009   -2.55381460
     atom    6 type  1   force =     0.00000007    0.00000020   -2.55380898
     atom    7 type  2   force =    -0.00000001    0.00000002    2.07270278
     atom    8 type  2   force =     0.00000002   -0.00000003    2.07270460
     atom    9 type  1   force =     0.00000000    0.00000009   -2.55380687
     atom   10 type  1   force =     0.00000017   -0.00000018   -2.55381101
     atom   11 type  2   force =    -0.00000000    0.00000002    2.07270604
     atom   12 type  2   force =    -0.00000001   -0.00000001    2.07270388
     atom   13 type  1   force =     0.00000000    0.00000009   -2.55381439
     atom   14 type  1   force =     0.00000013   -0.00000016   -2.55380898
     atom   15 type  2   force =     0.00000000    0.00000002    2.07270294
     atom   16 type  2   force =    -0.00000004    0.00000000    2.07270460
     atom   17 type  1   force =    -0.00000010    0.00000015   -2.55380699
     atom   18 type  1   force =     0.00000007    0.00000004   -2.55381073
     atom   19 type  2   force =     0.00000002    0.00000001    2.07270620
     atom   20 type  2   force =     0.00000002    0.00000001    2.07270432
     atom   21 type  1   force =     0.00000031   -0.00000009   -2.55381460
     atom   22 type  1   force =     0.00000007    0.00000004   -2.55380924
     atom   23 type  2   force =     0.00000001    0.00000002    2.07270278
     atom   24 type  2   force =     0.00000002    0.00000001    2.07270474
     atom   25 type  1   force =    -0.00000000   -0.00000003   -2.55380699
     atom   26 type  1   force =    -0.00000017   -0.00000018   -2.55381101
     atom   27 type  2   force =     0.00000000    0.00000004    2.07270620
     atom   28 type  2   force =     0.00000001   -0.00000001    2.07270388
     atom   29 type  1   force =     0.00000000    0.00000044   -2.55381460
     atom   30 type  1   force =    -0.00000013   -0.00000016   -2.55380898
     atom   31 type  2   force =    -0.00000000    0.00000003    2.07270278
     atom   32 type  2   force =     0.00000004    0.00000000    2.07270460
     The core correction contribution to forces
     atom    1 type  1   force =    -0.00000001    0.00000001   -0.02473967
     atom    2 type  1   force =     0.00000001   -0.00000000   -0.02473970
     atom    3 type  2   force =    -0.00000000   -0.00000000   -0.00146823
     atom    4 type  2   force =    -0.00000000   -0.00000000   -0.00146601
     atom    5 type  1   force =     0.00000000    0.00000001   -0.02474406
     atom    6 type  1   force =     0.00000001   -0.00000001   -0.02474405
     atom    7 type  2   force =    -0.00000000   -0.00000000   -0.00146846
     atom    8 type  2   force =    -0.00000000    0.00000000   -0.00147068
     atom    9 type  1   force =    -0.00000000    0.00000001   -0.02473968
     atom   10 type  1   force =    -0.00000001   -0.00000001   -0.02473970
     atom   11 type  2   force =    -0.00000000   -0.00000000   -0.00146823
     atom   12 type  2   force =    -0.00000000    0.00000000   -0.00146601
     atom   13 type  1   force =    -0.00000000    0.00000001   -0.02474406
     atom   14 type  1   force =    -0.00000001   -0.00000001   -0.02474405
     atom   15 type  2   force =    -0.00000000   -0.00000000   -0.00146846
     atom   16 type  2   force =     0.00000000   -0.00000000   -0.00147068
     atom   17 type  1   force =     0.00000001    0.00000001   -0.02473967
     atom   18 type  1   force =     0.00000001    0.00000001   -0.02473971
     atom   19 type  2   force =     0.00000000   -0.00000000   -0.00146823
     atom   20 type  2   force =    -0.00000000   -0.00000000   -0.00146601
     atom   21 type  1   force =    -0.00000000    0.00000001   -0.02474406
     atom   22 type  1   force =     0.00000001    0.00000001   -0.02474405
     atom   23 type  2   force =     0.00000000   -0.00000000   -0.00146846
     atom   24 type  2   force =    -0.00000000   -0.00000000   -0.00147067
     atom   25 type  1   force =    -0.00000000    0.00000002   -0.02473967
     atom   26 type  1   force =     0.00000001   -0.00000001   -0.02473970
     atom   27 type  2   force =    -0.00000000    0.00000000   -0.00146823
     atom   28 type  2   force =     0.00000000    0.00000000   -0.00146601
     atom   29 type  1   force =    -0.00000000    0.00000001   -0.02474406
     atom   30 type  1   force =     0.00000001   -0.00000001   -0.02474405
     atom   31 type  2   force =    -0.00000000    0.00000000   -0.00146846
     atom   32 type  2   force =    -0.00000000   -0.00000000   -0.00147068
     The Hubbard contrib.    to forces
     atom    1 type  1   force =     0.00000000    0.00000000    0.00000000
     atom    2 type  1   force =     0.00000000    0.00000000    0.00000000
     atom    3 type  2   force =     0.00000000    0.00000000    0.00000000
     atom    4 type  2   force =     0.00000000    0.00000000    0.00000000
     atom    5 type  1   force =     0.00000000    0.00000000    0.00000000
     atom    6 type  1   force =     0.00000000    0.00000000    0.00000000
     atom    7 type  2   force =     0.00000000    0.00000000    0.00000000
     atom    8 type  2   force =     0.00000000    0.00000000    0.00000000
     atom    9 type  1   force =     0.00000000    0.00000000    0.00000000
     atom   10 type  1   force =     0.00000000    0.00000000    0.00000000
     atom   11 type  2   force =     0.00000000    0.00000000    0.00000000
     atom   12 type  2   force =     0.00000000    0.00000000    0.00000000
     atom   13 type  1   force =     0.00000000    0.00000000    0.00000000
     atom   14 type  1   force =     0.00000000    0.00000000    0.00000000
     atom   15 type  2   force =     0.00000000    0.00000000    0.00000000
     atom   16 type  2   force =     0.00000000    0.00000000    0.00000000
     atom   17 type  1   force =     0.00000000    0.00000000    0.00000000
     atom   18 type  1   force =     0.00000000    0.00000000    0.00000000
     atom   19 type  2   force =     0.00000000    0.00000000    0.00000000
     atom   20 type  2   force =     0.00000000    0.00000000    0.00000000
     atom   21 type  1   force =     0.00000000    0.00000000    0.00000000
     atom   22 type  1   force =     0.00000000    0.00000000    0.00000000
     atom   23 type  2   force =     0.00000000    0.00000000    0.00000000
     atom   24 type  2   force =     0.00000000    0.00000000    0.00000000
     atom   25 type  1   force =     0.00000000    0.00000000    0.00000000
     atom   26 type  1   force =     0.00000000    0.00000000    0.00000000
     atom   27 type  2   force =     0.00000000    0.00000000    0.00000000
     atom   28 type  2   force =     0.00000000    0.00000000    0.00000000
     atom   29 type  1   force =     0.00000000    0.00000000    0.00000000
     atom   30 type  1   force =     0.00000000    0.00000000    0.00000000
     atom   31 type  2   force =     0.00000000    0.00000000    0.00000000
     atom   32 type  2   force =     0.00000000    0.00000000    0.00000000
     The SCF correction term to forces
     atom    1 type  1   force =     0.00000001    0.00000001   -0.00000599
     atom    2 type  1   force =     0.00000000   -0.00000026   -0.00000587
     atom    3 type  2   force =    -0.00000004   -0.00000003   -0.00000046
     atom    4 type  2   force =     0.00000000    0.00000002   -0.00000118
     atom    5 type  1   force =     0.00000037    0.00000022   -0.00000288
     atom    6 type  1   force =     0.00000000   -0.00000026   -0.00000472
     atom    7 type  2   force =     0.00000003    0.00000001   -0.00000096
     atom    8 type  2   force =     0.00000000    0.00000006    0.00000021
     atom    9 type  1   force =     0.00000000    0.00000000   -0.00000613
     atom   10 type  1   force =    -0.00000023    0.00000013   -0.00000587
     atom   11 type  2   force =     0.00000000    0.00000000   -0.00000043
     atom   12 type  2   force =     0.00000002   -0.00000001   -0.00000118
     atom   13 type  1   force =     0.00000000    0.00000000   -0.00000315
     atom   14 type  1   force =    -0.00000022    0.00000013   -0.00000472
     atom   15 type  2   force =     0.00000000    0.00000000   -0.00000112
     atom   16 type  2   force =     0.00000005   -0.00000003    0.00000021
     atom   17 type  1   force =    -0.00000001    0.00000001   -0.00000599
     atom   18 type  1   force =     0.00000000    0.00000000   -0.00000640
     atom   19 type  2   force =     0.00000004   -0.00000003   -0.00000046
     atom   20 type  2   force =     0.00000000    0.00000000   -0.00000136
     atom   21 type  1   force =    -0.00000037    0.00000022   -0.00000288
     atom   22 type  1   force =     0.00000000    0.00000000   -0.00000404
     atom   23 type  2   force =    -0.00000003    0.00000001   -0.00000096
     atom   24 type  2   force =     0.00000000    0.00000000    0.00000021
     atom   25 type  1   force =     0.00000000   -0.00000001   -0.00000599
     atom   26 type  1   force =     0.00000023    0.00000013   -0.00000587
     atom   27 type  2   force =     0.00000000    0.00000005   -0.00000046
     atom   28 type  2   force =    -0.00000002   -0.00000001   -0.00000118
     atom   29 type  1   force =     0.00000000   -0.00000043   -0.00000288
     atom   30 type  1   force =     0.00000022    0.00000013   -0.00000472
     atom   31 type  2   force =     0.00000000   -0.00000003   -0.00000096
     atom   32 type  2   force =    -0.00000005   -0.00000003    0.00000021

     Total force =     0.401194     Total SCF correction =     0.000020

     General routines

     Parallel routines

   This run was terminated on:  21: 7: 8   8Sep2025

   JOB DONE.
Note: The following floating-point exceptions are signalling: IEEE_INVALID_FLAG
Note: The following floating-point exceptions are signalling: IEEE_INVALID_FLAG