     Program PWSCF v.7.2 starts on  9Sep2025 at  1:49: 9

     Reading input from /home/jvc/QEspresso7.2/ZnO_database/scripts/cell222.in/ZnO-3.07-1.68-222.in
Warning: card &CELL ignored
Warning: card / ignored
Warning: card &FCP ignored
Warning: card / ignored
Warning: card &RISM ignored
Warning: card / ignored

     Current dimensions of program PWSCF are:
     Max number of different atomic species (ntypx) = 10
     Max number of k-points (npk) =  40000
     Max angular momentum in pseudopotentials (lmaxx) =  4
     file Zn.upf: wavefunction(s)  3D renormalized
     Found identity + (  0.0000  0.0000  0.5000) symmetry
     This is a supercell, fractional translations are disabled
     Message from routine setup:
     using ibrav=0 with symmetry is DISCOURAGED, use correct ibrav instead

     K-points division:     npool     =       2
     R & G space division:  proc/nbgrp/npool/nimage =      16
     Subspace diagonalization in iterative solution of the eigenvalue problem:
     a serial algorithm will be used

     Using Slab Decomposition

     bravais-lattice index     =            0
     lattice parameter (alat)  =      11.6162  a.u.
     unit-cell volume          =    2279.0889 (a.u.)^3
     number of atoms/cell      =           32
     number of atomic types    =            2
     number of electrons       =       288.00
     number of Kohn-Sham states=          144
     kinetic-energy cutoff     =      50.0000  Ry
     charge density cutoff     =     400.0000  Ry
     scf convergence threshold =      1.0E-08
     mixing beta               =       0.3000
     number of iterations used =            8  plain     mixing
     Exchange-correlation= PBE
                           (   1   4   3   4   0   0   0)

     celldm(1)=  11.616245  celldm(2)=   0.000000  celldm(3)=   0.000000
     celldm(4)=   0.000000  celldm(5)=   0.000000  celldm(6)=   0.000000

     crystal axes: (cart. coord. in units of alat)
               a(1) = (   1.000000   0.000000   0.000000 )
               a(2) = (  -0.500000   0.866025   0.000000 )
               a(3) = (   0.000000   0.000000   1.678933 )

     reciprocal axes: (cart. coord. in units 2 pi/alat)
               b(1) = (  1.000000  0.577350 -0.000000 )
               b(2) = (  0.000000  1.154701  0.000000 )
               b(3) = (  0.000000 -0.000000  0.595616 )

     PseudoPot. # 1 for Zn read from file:
     /home/jvc/QEspresso7.2/ZnO_database/pseudos/Zn.upf
     MD5 check sum: 7f56cabf9682ed8c977c2f7d0c5985c5
     Pseudo is Ultrasoft + core correction, Zval = 12.0
     Generated using &quot;atomic&quot; code by A. Dal Corso  v.6.2.2
     Using radial grid of 1201 points,  6 beta functions with:
                l(1) =   0
                l(2) =   0
                l(3) =   1
                l(4) =   1
                l(5) =   2
                l(6) =   2
     Q(r) pseudized with 0 coefficients

     PseudoPot. # 2 for O  read from file:
     /home/jvc/QEspresso7.2/ZnO_database/pseudos/O.upf
     MD5 check sum: 91400c9766925bcf19f520983a725ff0
     Pseudo is Ultrasoft + core correction, Zval =  6.0
     Generated using &quot;atomic&quot; code by A. Dal Corso  v.6.3MaX
     Using radial grid of 1095 points,  4 beta functions with:
                l(1) =   0
                l(2) =   0
                l(3) =   1
                l(4) =   1
     Q(r) pseudized with 0 coefficients

     atomic species   valence    mass     pseudopotential
        Zn            12.00    65.38000     Zn( 1.00)
        O              6.00    15.99900     O ( 1.00)

      6 Sym. Ops. (no inversion) found

                                    s                        frac. trans.

      isym =  1     identity

 cryst.   s( 1) = (     1          0          0      )
                  (     0          1          0      )
                  (     0          0          1      )

 cart.    s( 1) = (  1.0000000  0.0000000  0.0000000 )
                  (  0.0000000  1.0000000  0.0000000 )
                  (  0.0000000  0.0000000  1.0000000 )

      isym =  2     120 deg rotation - cryst. axis [0,0,1]

[...]

      isym =  3     120 deg rotation - cryst. axis [0,0,-1]

[...]

      isym =  4     inv. 180 deg rotation - cart. axis [1,0,0]

[...]

      isym =  5     inv. 180 deg rotation - cryst. axis [0,1,0]

[...]

      isym =  6     inv. 180 deg rotation - cryst. axis [1,1,0]

 cryst.   s( 6) = (     0         -1          0      )
                  (    -1          0          0      )
                  (     0          0          1      )

 cart.    s( 6) = (  0.5000000 -0.8660254  0.0000000 )
                  ( -0.8660254 -0.5000000  0.0000000 )
                  (  0.0000000  0.0000000  1.0000000 )

   Cartesian axes

     site n.     atom                  positions (alat units)
         1           Zn  tau(   1) = (   0.2500000   0.1443376   0.4202650  )
         2           Zn  tau(   2) = (  -0.0000000   0.2886751   0.0005319  )
         3           O   tau(   3) = (   0.2500000   0.1443376   0.7384587  )
         4           O   tau(   4) = (  -0.0000000   0.2886751   0.3187256  )
         5           Zn  tau(   5) = (   0.2500000   0.1443376   1.2597314  )
         6           Zn  tau(   6) = (  -0.0000000   0.2886751   0.8399982  )
         7           O   tau(   7) = (   0.2500000   0.1443376   1.5779251  )
         8           O   tau(   8) = (  -0.0000000   0.2886751   1.1581919  )
         9           Zn  tau(   9) = (  -0.0000000   0.5773503   0.4202650  )
        10           Zn  tau(  10) = (  -0.2500000   0.7216878   0.0005319  )
        11           O   tau(  11) = (  -0.0000000   0.5773503   0.7384587  )
        12           O   tau(  12) = (  -0.2500000   0.7216878   0.3187256  )
        13           Zn  tau(  13) = (  -0.0000000   0.5773503   1.2597314  )
        14           Zn  tau(  14) = (  -0.2500000   0.7216878   0.8399982  )
        15           O   tau(  15) = (  -0.0000000   0.5773503   1.5779251  )
        16           O   tau(  16) = (  -0.2500000   0.7216878   1.1581919  )
        17           Zn  tau(  17) = (   0.7500000   0.1443376   0.4202650  )
        18           Zn  tau(  18) = (   0.5000000   0.2886751   0.0005319  )
        19           O   tau(  19) = (   0.7500000   0.1443376   0.7384587  )
        20           O   tau(  20) = (   0.5000000   0.2886751   0.3187256  )
        21           Zn  tau(  21) = (   0.7500000   0.1443376   1.2597314  )
        22           Zn  tau(  22) = (   0.5000000   0.2886751   0.8399982  )
        23           O   tau(  23) = (   0.7500000   0.1443376   1.5779251  )
        24           O   tau(  24) = (   0.5000000   0.2886751   1.1581919  )
        25           Zn  tau(  25) = (   0.5000000   0.5773503   0.4202650  )
        26           Zn  tau(  26) = (   0.2500000   0.7216878   0.0005319  )
        27           O   tau(  27) = (   0.5000000   0.5773503   0.7384587  )
        28           O   tau(  28) = (   0.2500000   0.7216878   0.3187256  )
        29           Zn  tau(  29) = (   0.5000000   0.5773503   1.2597314  )
        30           Zn  tau(  30) = (   0.2500000   0.7216878   0.8399982  )
        31           O   tau(  31) = (   0.5000000   0.5773503   1.5779251  )
        32           O   tau(  32) = (   0.2500000   0.7216878   1.1581919  )

   Crystallographic axes

     site n.     atom                  positions (cryst. coord.)
         1           Zn  tau(   1) = (  0.3333333  0.1666667  0.2503168  )
         2           Zn  tau(   2) = (  0.1666667  0.3333333  0.0003168  )
         3           O   tau(   3) = (  0.3333333  0.1666667  0.4398382  )
         4           O   tau(   4) = (  0.1666667  0.3333333  0.1898382  )
         5           Zn  tau(   5) = (  0.3333333  0.1666667  0.7503168  )
         6           Zn  tau(   6) = (  0.1666667  0.3333333  0.5003168  )
         7           O   tau(   7) = (  0.3333333  0.1666667  0.9398382  )
         8           O   tau(   8) = (  0.1666667  0.3333333  0.6898382  )
         9           Zn  tau(   9) = (  0.3333333  0.6666667  0.2503168  )
        10           Zn  tau(  10) = (  0.1666667  0.8333333  0.0003168  )
        11           O   tau(  11) = (  0.3333333  0.6666667  0.4398382  )
        12           O   tau(  12) = (  0.1666667  0.8333333  0.1898382  )
        13           Zn  tau(  13) = (  0.3333333  0.6666667  0.7503168  )
        14           Zn  tau(  14) = (  0.1666667  0.8333333  0.5003168  )
        15           O   tau(  15) = (  0.3333333  0.6666667  0.9398382  )
        16           O   tau(  16) = (  0.1666667  0.8333333  0.6898382  )
        17           Zn  tau(  17) = (  0.8333333  0.1666667  0.2503168  )
        18           Zn  tau(  18) = (  0.6666667  0.3333333  0.0003168  )
        19           O   tau(  19) = (  0.8333333  0.1666667  0.4398382  )
        20           O   tau(  20) = (  0.6666667  0.3333333  0.1898382  )
        21           Zn  tau(  21) = (  0.8333333  0.1666667  0.7503168  )
        22           Zn  tau(  22) = (  0.6666667  0.3333333  0.5003168  )
        23           O   tau(  23) = (  0.8333333  0.1666667  0.9398382  )
        24           O   tau(  24) = (  0.6666667  0.3333333  0.6898382  )
        25           Zn  tau(  25) = (  0.8333333  0.6666667  0.2503168  )
        26           Zn  tau(  26) = (  0.6666667  0.8333333  0.0003168  )
        27           O   tau(  27) = (  0.8333333  0.6666667  0.4398382  )
        28           O   tau(  28) = (  0.6666667  0.8333333  0.1898382  )
        29           Zn  tau(  29) = (  0.8333333  0.6666667  0.7503168  )
        30           Zn  tau(  30) = (  0.6666667  0.8333333  0.5003168  )
        31           O   tau(  31) = (  0.8333333  0.6666667  0.9398382  )
        32           O   tau(  32) = (  0.6666667  0.8333333  0.6898382  )

     number of k points=    34
                       cart. coord. in units 2pi/alat
        k(    1) = (   0.0000000   0.0000000   0.0000000), wk =   0.0092593
        k(    2) = (   0.0000000   0.0000000   0.0992694), wk =   0.0185185
        k(    3) = (   0.0000000   0.0000000   0.1985388), wk =   0.0185185
        k(    4) = (   0.0000000   0.0000000  -0.2978082), wk =   0.0092593
        k(    5) = (   0.0000000   0.1924501   0.0000000), wk =   0.0555556
        k(    6) = (   0.0000000   0.1924501   0.0992694), wk =   0.0555556
        k(    7) = (   0.0000000   0.1924501   0.1985388), wk =   0.0555556
        k(    8) = (   0.0000000   0.1924501  -0.2978082), wk =   0.0555556
        k(    9) = (   0.0000000   0.3849002   0.0000000), wk =   0.0555556
        k(   10) = (   0.0000000   0.3849002   0.0992694), wk =   0.0555556
        k(   11) = (   0.0000000   0.3849002   0.1985388), wk =   0.0555556
        k(   12) = (   0.0000000   0.3849002  -0.2978082), wk =   0.0555556
        k(   13) = (   0.0000000  -0.5773503   0.0000000), wk =   0.0277778
        k(   14) = (   0.0000000  -0.5773503   0.0992694), wk =   0.0555556
        k(   15) = (   0.0000000  -0.5773503   0.1985388), wk =   0.0555556
        k(   16) = (   0.0000000  -0.5773503  -0.2978082), wk =   0.0277778
        k(   17) = (   0.1666667   0.2886751   0.0000000), wk =   0.0555556
[...]
     atom   12 type  2   force =    -0.00000026    0.00000015   -0.02388492
     atom   13 type  1   force =     0.00000000    0.00000000    0.02388688
     atom   14 type  1   force =    -0.00000218    0.00000126    0.02388634
     atom   15 type  2   force =     0.00000000    0.00000000   -0.02388143
     atom   16 type  2   force =    -0.00000022    0.00000012   -0.02387970
     atom   17 type  1   force =    -0.00000073    0.00000042    0.02388070
     atom   18 type  1   force =     0.00000000    0.00000000    0.02387545
     atom   19 type  2   force =     0.00000006   -0.00000003   -0.02388229
     atom   20 type  2   force =     0.00000000   -0.00000000   -0.02388488
     atom   21 type  1   force =    -0.00000312    0.00000180    0.02388539
     atom   22 type  1   force =     0.00000000    0.00000000    0.02388677
     atom   23 type  2   force =    -0.00000001    0.00000001   -0.02388083
     atom   24 type  2   force =     0.00000000   -0.00000000   -0.02387967
     atom   25 type  1   force =     0.00000000   -0.00000085    0.02388070
     atom   26 type  1   force =    -0.00000133   -0.00000077    0.02387444
     atom   27 type  2   force =    -0.00000000    0.00000006   -0.02388229
     atom   28 type  2   force =     0.00000026    0.00000015   -0.02388492
     atom   29 type  1   force =     0.00000000   -0.00000360    0.02388539
     atom   30 type  1   force =     0.00000218    0.00000126    0.02388634
     atom   31 type  2   force =     0.00000000   -0.00000001   -0.02388083
     atom   32 type  2   force =     0.00000022    0.00000012   -0.02387970
     The non-local contrib.  to forces
     atom    1 type  1   force =     0.00000062    0.00000036    0.11322001
     atom    2 type  1   force =     0.00000000    0.00000071    0.11321669
     atom    3 type  2   force =     0.00000003    0.00000002    0.09407011
     atom    4 type  2   force =    -0.00000000   -0.00000069    0.09406948
     atom    5 type  1   force =     0.00000071    0.00000041    0.11322986
     atom    6 type  1   force =     0.00000000   -0.00000085    0.11322964
     atom    7 type  2   force =     0.00000030    0.00000017    0.09407557
     atom    8 type  2   force =     0.00000000   -0.00000104    0.09407750
     atom    9 type  1   force =     0.00000000    0.00000000    0.11321898
     atom   10 type  1   force =     0.00000062   -0.00000036    0.11321669
     atom   11 type  2   force =     0.00000000   -0.00000000    0.09407034
     atom   12 type  2   force =    -0.00000060    0.00000034    0.09406948
     atom   13 type  1   force =     0.00000000    0.00000000    0.11322987
     atom   14 type  1   force =    -0.00000073    0.00000042    0.11322964
     atom   15 type  2   force =     0.00000000    0.00000000    0.09407514
     atom   16 type  2   force =    -0.00000090    0.00000052    0.09407750
     atom   17 type  1   force =    -0.00000062    0.00000036    0.11322001
     atom   18 type  1   force =     0.00000000    0.00000000    0.11321695
     atom   19 type  2   force =    -0.00000003    0.00000002    0.09407011
     atom   20 type  2   force =     0.00000000    0.00000000    0.09406908
     atom   21 type  1   force =    -0.00000071    0.00000041    0.11322986
     atom   22 type  1   force =     0.00000000    0.00000000    0.11322921
     atom   23 type  2   force =    -0.00000030    0.00000017    0.09407557
     atom   24 type  2   force =     0.00000000    0.00000000    0.09407721
     atom   25 type  1   force =     0.00000000   -0.00000072    0.11322001
     atom   26 type  1   force =    -0.00000062   -0.00000036    0.11321669
     atom   27 type  2   force =     0.00000000   -0.00000004    0.09407011
     atom   28 type  2   force =     0.00000060    0.00000034    0.09406948
     atom   29 type  1   force =     0.00000000   -0.00000082    0.11322986
     atom   30 type  1   force =     0.00000073    0.00000042    0.11322964
     atom   31 type  2   force =     0.00000000   -0.00000034    0.09407557
     atom   32 type  2   force =     0.00000090    0.00000052    0.09407750
     The ionic contribution  to forces
     atom    1 type  1   force =     0.00000000    0.00000002    0.96206593
     atom    2 type  1   force =     0.00000002    0.00000001    0.96206593
     atom    3 type  2   force =     0.00000000    0.00000001   -0.96206593
     atom    4 type  2   force =     0.00000001    0.00000001   -0.96206593
     atom    5 type  1   force =     0.00000000    0.00000002    0.96206593
     atom    6 type  1   force =     0.00000002    0.00000001    0.96206593
     atom    7 type  2   force =     0.00000000    0.00000001   -0.96206593
     atom    8 type  2   force =     0.00000001    0.00000001   -0.96206593
     atom    9 type  1   force =     0.00000001   -0.00000001    0.96206593
     atom   10 type  1   force =     0.00000000    0.00000001    0.96206594
     atom   11 type  2   force =     0.00000001   -0.00000001   -0.96206593
     atom   12 type  2   force =     0.00000000    0.00000000   -0.96206594
     atom   13 type  1   force =     0.00000001   -0.00000001    0.96206593
     atom   14 type  1   force =     0.00000000    0.00000001    0.96206594
     atom   15 type  2   force =     0.00000001   -0.00000001   -0.96206593
     atom   16 type  2   force =     0.00000000    0.00000000   -0.96206594
     atom   17 type  1   force =     0.00000000    0.00000000    0.96206594
     atom   18 type  1   force =    -0.00000002    0.00000001    0.96206593
     atom   19 type  2   force =     0.00000000   -0.00000000   -0.96206594
     atom   20 type  2   force =    -0.00000001    0.00000001   -0.96206593
     atom   21 type  1   force =     0.00000000    0.00000000    0.96206594
     atom   22 type  1   force =    -0.00000002    0.00000001    0.96206593
     atom   23 type  2   force =     0.00000000   -0.00000000   -0.96206594
     atom   24 type  2   force =    -0.00000001    0.00000001   -0.96206593
     atom   25 type  1   force =    -0.00000002   -0.00000001    0.96206593
     atom   26 type  1   force =     0.00000000   -0.00000002    0.96206593
     atom   27 type  2   force =    -0.00000001   -0.00000001   -0.96206593
     atom   28 type  2   force =     0.00000000   -0.00000001   -0.96206593
     atom   29 type  1   force =    -0.00000002   -0.00000001    0.96206593
     atom   30 type  1   force =     0.00000000   -0.00000002    0.96206593
     atom   31 type  2   force =    -0.00000001   -0.00000001   -0.96206593
     atom   32 type  2   force =     0.00000000   -0.00000001   -0.96206593
     The local contribution  to forces
     atom    1 type  1   force =    -0.00000223   -0.00000120   -1.04230177
     atom    2 type  1   force =     0.00000008   -0.00000268   -1.04229867
     atom    3 type  2   force =     0.00000036    0.00000023    0.84479274
     atom    4 type  2   force =     0.00000002    0.00000033    0.84479205
     atom    5 type  1   force =    -0.00000268   -0.00000146   -1.04230793
     atom    6 type  1   force =     0.00000008    0.00000289   -1.04229994
     atom    7 type  2   force =    -0.00000086   -0.00000047    0.84479718
     atom    8 type  2   force =     0.00000002    0.00000028    0.84479621
     atom    9 type  1   force =     0.00000008   -0.00000005   -1.04229973
     atom   10 type  1   force =    -0.00000228    0.00000141   -1.04229867
     atom   11 type  2   force =     0.00000002   -0.00000001    0.84479444
     atom   12 type  2   force =     0.00000030   -0.00000015    0.84479205
     atom   13 type  1   force =     0.00000008   -0.00000005   -1.04230887
     atom   14 type  1   force =     0.00000254   -0.00000138   -1.04229994
     atom   15 type  2   force =     0.00000002   -0.00000001    0.84479534
     atom   16 type  2   force =     0.00000025   -0.00000012    0.84479621
     atom   17 type  1   force =     0.00000223   -0.00000120   -1.04230177
     atom   18 type  1   force =    -0.00000008    0.00000005   -1.04230051
     atom   19 type  2   force =    -0.00000036    0.00000023    0.84479274
     atom   20 type  2   force =    -0.00000002    0.00000001    0.84479192
     atom   21 type  1   force =     0.00000268   -0.00000146   -1.04230793
     atom   22 type  1   force =    -0.00000008    0.00000005   -1.04229924
     atom   23 type  2   force =     0.00000086   -0.00000047    0.84479718
     atom   24 type  2   force =    -0.00000002    0.00000001    0.84479442
     atom   25 type  1   force =    -0.00000008    0.00000253   -1.04230177
     atom   26 type  1   force =     0.00000244    0.00000141   -1.04229867
     atom   27 type  2   force =    -0.00000002   -0.00000042    0.84479274
     atom   28 type  2   force =    -0.00000026   -0.00000015    0.84479205
     atom   29 type  1   force =    -0.00000008    0.00000305   -1.04230793
     atom   30 type  1   force =    -0.00000239   -0.00000138   -1.04229994
     atom   31 type  2   force =    -0.00000002    0.00000098    0.84479718
     atom   32 type  2   force =    -0.00000021   -0.00000012    0.84479621
     The core correction contribution to forces
     atom    1 type  1   force =     0.00000022    0.00000014   -0.00910670
     atom    2 type  1   force =     0.00000001    0.00000024   -0.00910618
     atom    3 type  2   force =     0.00000002    0.00000001   -0.00067382
     atom    4 type  2   force =    -0.00000000    0.00000004   -0.00067250
     atom    5 type  1   force =     0.00000014    0.00000009   -0.00911061
     atom    6 type  1   force =     0.00000001    0.00000017   -0.00911135
     atom    7 type  2   force =     0.00000002    0.00000001   -0.00067494
     atom    8 type  2   force =    -0.00000000    0.00000004   -0.00067628
     atom    9 type  1   force =     0.00000001   -0.00000001   -0.00910677
     atom   10 type  1   force =     0.00000022   -0.00000011   -0.00910618
     atom   11 type  2   force =    -0.00000000    0.00000000   -0.00067381
     atom   12 type  2   force =     0.00000003   -0.00000002   -0.00067250
     atom   13 type  1   force =     0.00000001   -0.00000001   -0.00911055
     atom   14 type  1   force =     0.00000015   -0.00000007   -0.00911135
     atom   15 type  2   force =    -0.00000000    0.00000000   -0.00067494
     atom   16 type  2   force =     0.00000004   -0.00000002   -0.00067628
     atom   17 type  1   force =    -0.00000022    0.00000014   -0.00910670
     atom   18 type  1   force =    -0.00000001    0.00000001   -0.00910611
     atom   19 type  2   force =    -0.00000002    0.00000001   -0.00067382
     atom   20 type  2   force =     0.00000000   -0.00000000   -0.00067249
     atom   21 type  1   force =    -0.00000014    0.00000009   -0.00911061
     atom   22 type  1   force =    -0.00000001    0.00000001   -0.00911135
     atom   23 type  2   force =    -0.00000002    0.00000001   -0.00067494
     atom   24 type  2   force =     0.00000000   -0.00000000   -0.00067628
     atom   25 type  1   force =    -0.00000001   -0.00000026   -0.00910670
     atom   26 type  1   force =    -0.00000020   -0.00000011   -0.00910618
     atom   27 type  2   force =     0.00000000   -0.00000003   -0.00067382
     atom   28 type  2   force =    -0.00000003   -0.00000002   -0.00067250
     atom   29 type  1   force =    -0.00000001   -0.00000017   -0.00911061
     atom   30 type  1   force =    -0.00000013   -0.00000007   -0.00911135
     atom   31 type  2   force =     0.00000000   -0.00000002   -0.00067494
     atom   32 type  2   force =    -0.00000004   -0.00000002   -0.00067628
     The Hubbard contrib.    to forces
     atom    1 type  1   force =     0.00000000    0.00000000    0.00000000
     atom    2 type  1   force =     0.00000000    0.00000000    0.00000000
     atom    3 type  2   force =     0.00000000    0.00000000    0.00000000
     atom    4 type  2   force =     0.00000000    0.00000000    0.00000000
     atom    5 type  1   force =     0.00000000    0.00000000    0.00000000
     atom    6 type  1   force =     0.00000000    0.00000000    0.00000000
     atom    7 type  2   force =     0.00000000    0.00000000    0.00000000
     atom    8 type  2   force =     0.00000000    0.00000000    0.00000000
     atom    9 type  1   force =     0.00000000    0.00000000    0.00000000
     atom   10 type  1   force =     0.00000000    0.00000000    0.00000000
     atom   11 type  2   force =     0.00000000    0.00000000    0.00000000
     atom   12 type  2   force =     0.00000000    0.00000000    0.00000000
     atom   13 type  1   force =     0.00000000    0.00000000    0.00000000
     atom   14 type  1   force =     0.00000000    0.00000000    0.00000000
     atom   15 type  2   force =     0.00000000    0.00000000    0.00000000
     atom   16 type  2   force =     0.00000000    0.00000000    0.00000000
     atom   17 type  1   force =     0.00000000    0.00000000    0.00000000
     atom   18 type  1   force =     0.00000000    0.00000000    0.00000000
     atom   19 type  2   force =     0.00000000    0.00000000    0.00000000
     atom   20 type  2   force =     0.00000000    0.00000000    0.00000000
     atom   21 type  1   force =     0.00000000    0.00000000    0.00000000
     atom   22 type  1   force =     0.00000000    0.00000000    0.00000000
     atom   23 type  2   force =     0.00000000    0.00000000    0.00000000
     atom   24 type  2   force =     0.00000000    0.00000000    0.00000000
     atom   25 type  1   force =     0.00000000    0.00000000    0.00000000
     atom   26 type  1   force =     0.00000000    0.00000000    0.00000000
     atom   27 type  2   force =     0.00000000    0.00000000    0.00000000
     atom   28 type  2   force =     0.00000000    0.00000000    0.00000000
     atom   29 type  1   force =     0.00000000    0.00000000    0.00000000
     atom   30 type  1   force =     0.00000000    0.00000000    0.00000000
     atom   31 type  2   force =     0.00000000    0.00000000    0.00000000
     atom   32 type  2   force =     0.00000000    0.00000000    0.00000000
     The SCF correction term to forces
     atom    1 type  1   force =     0.00000207    0.00000120    0.00000628
     atom    2 type  1   force =     0.00000000    0.00000330   -0.00000029
     atom    3 type  2   force =    -0.00000048   -0.00000028   -0.00000233
     atom    4 type  2   force =     0.00000000    0.00000002   -0.00000496
     atom    5 type  1   force =     0.00000490    0.00000283    0.00001119
     atom    6 type  1   force =     0.00000000   -0.00000468    0.00000511
     atom    7 type  2   force =     0.00000054    0.00000031   -0.00000966
     atom    8 type  2   force =     0.00000000    0.00000047   -0.00000814
     atom    9 type  1   force =     0.00000000   -0.00000000    0.00000601
     atom   10 type  1   force =     0.00000286   -0.00000165   -0.00000029
     atom   11 type  2   force =     0.00000000   -0.00000000   -0.00000383
     atom   12 type  2   force =     0.00000002   -0.00000001   -0.00000496
     atom   13 type  1   force =     0.00000000   -0.00000000    0.00001355
     atom   14 type  1   force =    -0.00000405    0.00000234    0.00000511
     atom   15 type  2   force =     0.00000000   -0.00000000   -0.00000798
     atom   16 type  2   force =     0.00000041   -0.00000024   -0.00000814
     atom   17 type  1   force =    -0.00000207    0.00000120    0.00000628
     atom   18 type  1   force =    -0.00000000    0.00000000    0.00000224
     atom   19 type  2   force =     0.00000048   -0.00000028   -0.00000233
     atom   20 type  2   force =    -0.00000000    0.00000000   -0.00000440
     atom   21 type  1   force =    -0.00000490    0.00000283    0.00001119
     atom   22 type  1   force =    -0.00000000    0.00000000    0.00000529
     atom   23 type  2   force =    -0.00000054    0.00000031   -0.00000966
     atom   24 type  2   force =    -0.00000000    0.00000000   -0.00000604
     atom   25 type  1   force =    -0.00000000   -0.00000239    0.00000628
     atom   26 type  1   force =    -0.00000286   -0.00000165   -0.00000029
     atom   27 type  2   force =    -0.00000000    0.00000056   -0.00000233
     atom   28 type  2   force =    -0.00000002   -0.00000001   -0.00000496
     atom   29 type  1   force =    -0.00000000   -0.00000566    0.00001119
     atom   30 type  1   force =     0.00000405    0.00000234    0.00000511
     atom   31 type  2   force =    -0.00000000   -0.00000063   -0.00000966
     atom   32 type  2   force =    -0.00000041   -0.00000024   -0.00000814

     Total force =     0.135097     Total SCF correction =     0.000042

     General routines

     Parallel routines

   This run was terminated on:   2:10: 9   9Sep2025

   JOB DONE.
Note: The following floating-point exceptions are signalling: IEEE_INVALID_FLAG
Note: The following floating-point exceptions are signalling: IEEE_INVALID_FLAG