     Program PWSCF v.7.2 starts on 11Sep2025 at  7: 8:30

     Reading input from /home/jvc/QEspresso7.2/ZnO_database/scripts/cell222.in/ZnO-3.60-1.45-222.in
Warning: card &CELL ignored
Warning: card / ignored
Warning: card &FCP ignored
Warning: card / ignored
Warning: card &RISM ignored
Warning: card / ignored

     Current dimensions of program PWSCF are:
     Max number of different atomic species (ntypx) = 10
     Max number of k-points (npk) =  40000
     Max angular momentum in pseudopotentials (lmaxx) =  4
     file Zn.upf: wavefunction(s)  3D renormalized
     Found identity + (  0.0000  0.0000 -0.5000) symmetry
     This is a supercell, fractional translations are disabled
     Message from routine setup:
     using ibrav=0 with symmetry is DISCOURAGED, use correct ibrav instead

     K-points division:     npool     =       2
     R & G space division:  proc/nbgrp/npool/nimage =      16
     Subspace diagonalization in iterative solution of the eigenvalue problem:
     a serial algorithm will be used

     Using Slab Decomposition

     bravais-lattice index     =            0
     lattice parameter (alat)  =      13.5935  a.u.
     unit-cell volume          =    3160.5664 (a.u.)^3
     number of atoms/cell      =           32
     number of atomic types    =            2
     number of electrons       =       288.00
     number of Kohn-Sham states=          144
     kinetic-energy cutoff     =      50.0000  Ry
     charge density cutoff     =     400.0000  Ry
     scf convergence threshold =      1.0E-08
     mixing beta               =       0.3000
     number of iterations used =            8  plain     mixing
     Exchange-correlation= PBE
                           (   1   4   3   4   0   0   0)

     celldm(1)=  13.593479  celldm(2)=   0.000000  celldm(3)=   0.000000
     celldm(4)=   0.000000  celldm(5)=   0.000000  celldm(6)=   0.000000

     crystal axes: (cart. coord. in units of alat)
               a(1) = (   1.000000   0.000000   0.000000 )
               a(2) = (  -0.500000   0.866025   0.000000 )
               a(3) = (   0.000000   0.000000   1.452923 )

     reciprocal axes: (cart. coord. in units 2 pi/alat)
               b(1) = (  1.000000  0.577350 -0.000000 )
               b(2) = (  0.000000  1.154701  0.000000 )
               b(3) = (  0.000000 -0.000000  0.688268 )

     PseudoPot. # 1 for Zn read from file:
     /home/jvc/QEspresso7.2/ZnO_database/pseudos/Zn.upf
     MD5 check sum: 7f56cabf9682ed8c977c2f7d0c5985c5
     Pseudo is Ultrasoft + core correction, Zval = 12.0
     Generated using &quot;atomic&quot; code by A. Dal Corso  v.6.2.2
     Using radial grid of 1201 points,  6 beta functions with:
                l(1) =   0
                l(2) =   0
                l(3) =   1
                l(4) =   1
                l(5) =   2
                l(6) =   2
     Q(r) pseudized with 0 coefficients

     PseudoPot. # 2 for O  read from file:
     /home/jvc/QEspresso7.2/ZnO_database/pseudos/O.upf
     MD5 check sum: 91400c9766925bcf19f520983a725ff0
     Pseudo is Ultrasoft + core correction, Zval =  6.0
     Generated using &quot;atomic&quot; code by A. Dal Corso  v.6.3MaX
     Using radial grid of 1095 points,  4 beta functions with:
                l(1) =   0
                l(2) =   0
                l(3) =   1
                l(4) =   1
     Q(r) pseudized with 0 coefficients

     atomic species   valence    mass     pseudopotential
        Zn            12.00    65.38000     Zn( 1.00)
        O              6.00    15.99900     O ( 1.00)

      6 Sym. Ops. (no inversion) found

                                    s                        frac. trans.

      isym =  1     identity

 cryst.   s( 1) = (     1          0          0      )
                  (     0          1          0      )
                  (     0          0          1      )

 cart.    s( 1) = (  1.0000000  0.0000000  0.0000000 )
                  (  0.0000000  1.0000000  0.0000000 )
                  (  0.0000000  0.0000000  1.0000000 )

      isym =  2     120 deg rotation - cryst. axis [0,0,1]

[...]

      isym =  3     120 deg rotation - cryst. axis [0,0,-1]

[...]

      isym =  4     inv. 180 deg rotation - cart. axis [1,0,0]

[...]

      isym =  5     inv. 180 deg rotation - cryst. axis [0,1,0]

[...]

      isym =  6     inv. 180 deg rotation - cryst. axis [1,1,0]

 cryst.   s( 6) = (     0         -1          0      )
                  (    -1          0          0      )
                  (     0          0          1      )

 cart.    s( 6) = (  0.5000000 -0.8660254  0.0000000 )
                  ( -0.8660254 -0.5000000  0.0000000 )
                  (  0.0000000  0.0000000  1.0000000 )

   Cartesian axes

     site n.     atom                  positions (alat units)
         1           Zn  tau(   1) = (   0.2500000   0.1443376   0.3636909  )
         2           Zn  tau(   2) = (  -0.0000000   0.2886751   0.0004603  )
         3           O   tau(   3) = (   0.2500000   0.1443376   0.6390508  )
         4           O   tau(   4) = (  -0.0000000   0.2886751   0.2758202  )
         5           Zn  tau(   5) = (   0.2500000   0.1443376   1.0901522  )
         6           Zn  tau(   6) = (  -0.0000000   0.2886751   0.7269215  )
         7           O   tau(   7) = (   0.2500000   0.1443376   1.3655121  )
         8           O   tau(   8) = (  -0.0000000   0.2886751   1.0022815  )
         9           Zn  tau(   9) = (  -0.0000000   0.5773503   0.3636909  )
        10           Zn  tau(  10) = (  -0.2500000   0.7216878   0.0004603  )
        11           O   tau(  11) = (  -0.0000000   0.5773503   0.6390508  )
        12           O   tau(  12) = (  -0.2500000   0.7216878   0.2758202  )
        13           Zn  tau(  13) = (  -0.0000000   0.5773503   1.0901522  )
        14           Zn  tau(  14) = (  -0.2500000   0.7216878   0.7269215  )
        15           O   tau(  15) = (  -0.0000000   0.5773503   1.3655121  )
        16           O   tau(  16) = (  -0.2500000   0.7216878   1.0022815  )
        17           Zn  tau(  17) = (   0.7500000   0.1443376   0.3636909  )
        18           Zn  tau(  18) = (   0.5000000   0.2886751   0.0004603  )
        19           O   tau(  19) = (   0.7500000   0.1443376   0.6390508  )
        20           O   tau(  20) = (   0.5000000   0.2886751   0.2758202  )
        21           Zn  tau(  21) = (   0.7500000   0.1443376   1.0901522  )
        22           Zn  tau(  22) = (   0.5000000   0.2886751   0.7269215  )
        23           O   tau(  23) = (   0.7500000   0.1443376   1.3655121  )
        24           O   tau(  24) = (   0.5000000   0.2886751   1.0022815  )
        25           Zn  tau(  25) = (   0.5000000   0.5773503   0.3636909  )
        26           Zn  tau(  26) = (   0.2500000   0.7216878   0.0004603  )
        27           O   tau(  27) = (   0.5000000   0.5773503   0.6390508  )
        28           O   tau(  28) = (   0.2500000   0.7216878   0.2758202  )
        29           Zn  tau(  29) = (   0.5000000   0.5773503   1.0901522  )
        30           Zn  tau(  30) = (   0.2500000   0.7216878   0.7269215  )
        31           O   tau(  31) = (   0.5000000   0.5773503   1.3655121  )
        32           O   tau(  32) = (   0.2500000   0.7216878   1.0022815  )

   Crystallographic axes

     site n.     atom                  positions (cryst. coord.)
         1           Zn  tau(   1) = (  0.3333333  0.1666667  0.2503168  )
         2           Zn  tau(   2) = (  0.1666667  0.3333333  0.0003168  )
         3           O   tau(   3) = (  0.3333333  0.1666667  0.4398382  )
         4           O   tau(   4) = (  0.1666667  0.3333333  0.1898382  )
         5           Zn  tau(   5) = (  0.3333333  0.1666667  0.7503168  )
         6           Zn  tau(   6) = (  0.1666667  0.3333333  0.5003168  )
         7           O   tau(   7) = (  0.3333333  0.1666667  0.9398382  )
         8           O   tau(   8) = (  0.1666667  0.3333333  0.6898382  )
         9           Zn  tau(   9) = (  0.3333333  0.6666667  0.2503168  )
        10           Zn  tau(  10) = (  0.1666667  0.8333333  0.0003168  )
        11           O   tau(  11) = (  0.3333333  0.6666667  0.4398382  )
        12           O   tau(  12) = (  0.1666667  0.8333333  0.1898382  )
        13           Zn  tau(  13) = (  0.3333333  0.6666667  0.7503168  )
        14           Zn  tau(  14) = (  0.1666667  0.8333333  0.5003168  )
        15           O   tau(  15) = (  0.3333333  0.6666667  0.9398382  )
        16           O   tau(  16) = (  0.1666667  0.8333333  0.6898382  )
        17           Zn  tau(  17) = (  0.8333333  0.1666667  0.2503168  )
        18           Zn  tau(  18) = (  0.6666667  0.3333333  0.0003168  )
        19           O   tau(  19) = (  0.8333333  0.1666667  0.4398382  )
        20           O   tau(  20) = (  0.6666667  0.3333333  0.1898382  )
        21           Zn  tau(  21) = (  0.8333333  0.1666667  0.7503168  )
        22           Zn  tau(  22) = (  0.6666667  0.3333333  0.5003168  )
        23           O   tau(  23) = (  0.8333333  0.1666667  0.9398382  )
        24           O   tau(  24) = (  0.6666667  0.3333333  0.6898382  )
        25           Zn  tau(  25) = (  0.8333333  0.6666667  0.2503168  )
        26           Zn  tau(  26) = (  0.6666667  0.8333333  0.0003168  )
        27           O   tau(  27) = (  0.8333333  0.6666667  0.4398382  )
        28           O   tau(  28) = (  0.6666667  0.8333333  0.1898382  )
        29           Zn  tau(  29) = (  0.8333333  0.6666667  0.7503168  )
        30           Zn  tau(  30) = (  0.6666667  0.8333333  0.5003168  )
        31           O   tau(  31) = (  0.8333333  0.6666667  0.9398382  )
        32           O   tau(  32) = (  0.6666667  0.8333333  0.6898382  )

     number of k points=    34
                       cart. coord. in units 2pi/alat
        k(    1) = (   0.0000000   0.0000000   0.0000000), wk =   0.0092593
        k(    2) = (   0.0000000   0.0000000   0.1147113), wk =   0.0185185
        k(    3) = (   0.0000000   0.0000000   0.2294226), wk =   0.0185185
        k(    4) = (   0.0000000   0.0000000  -0.3441340), wk =   0.0092593
        k(    5) = (   0.0000000   0.1924501   0.0000000), wk =   0.0555556
        k(    6) = (   0.0000000   0.1924501   0.1147113), wk =   0.0555556
        k(    7) = (   0.0000000   0.1924501   0.2294226), wk =   0.0555556
        k(    8) = (   0.0000000   0.1924501  -0.3441340), wk =   0.0555556
        k(    9) = (   0.0000000   0.3849002   0.0000000), wk =   0.0555556
        k(   10) = (   0.0000000   0.3849002   0.1147113), wk =   0.0555556
        k(   11) = (   0.0000000   0.3849002   0.2294226), wk =   0.0555556
        k(   12) = (   0.0000000   0.3849002  -0.3441340), wk =   0.0555556
        k(   13) = (   0.0000000  -0.5773503   0.0000000), wk =   0.0277778
        k(   14) = (   0.0000000  -0.5773503   0.1147113), wk =   0.0555556
        k(   15) = (   0.0000000  -0.5773503   0.2294226), wk =   0.0555556
        k(   16) = (   0.0000000  -0.5773503  -0.3441340), wk =   0.0277778
        k(   17) = (   0.1666667   0.2886751   0.0000000), wk =   0.0555556
[...]
     atom   12 type  2   force =     0.00000026   -0.00000015    0.01340564
     atom   13 type  1   force =     0.00000000    0.00000000   -0.01341147
     atom   14 type  1   force =    -0.00000155    0.00000089   -0.01340780
     atom   15 type  2   force =     0.00000000   -0.00000000    0.01340949
     atom   16 type  2   force =     0.00000059   -0.00000034    0.01341016
     atom   17 type  1   force =    -0.00000039    0.00000022   -0.01340319
     atom   18 type  1   force =     0.00000000    0.00000000   -0.01340671
     atom   19 type  2   force =    -0.00000009    0.00000005    0.01340552
     atom   20 type  2   force =     0.00000000    0.00000000    0.01340527
     atom   21 type  1   force =     0.00000035   -0.00000020   -0.01341168
     atom   22 type  1   force =     0.00000000    0.00000000   -0.01340670
     atom   23 type  2   force =    -0.00000033    0.00000019    0.01340986
     atom   24 type  2   force =     0.00000000    0.00000000    0.01341028
     atom   25 type  1   force =     0.00000000   -0.00000045   -0.01340319
     atom   26 type  1   force =     0.00000156    0.00000090   -0.01340898
     atom   27 type  2   force =     0.00000000   -0.00000011    0.01340552
     atom   28 type  2   force =    -0.00000026   -0.00000015    0.01340564
     atom   29 type  1   force =    -0.00000000    0.00000040   -0.01341168
     atom   30 type  1   force =     0.00000155    0.00000089   -0.01340780
     atom   31 type  2   force =     0.00000000   -0.00000038    0.01340986
     atom   32 type  2   force =    -0.00000059   -0.00000034    0.01341016
     The non-local contrib.  to forces
     atom    1 type  1   force =    -0.00000138   -0.00000080   -0.28578159
     atom    2 type  1   force =    -0.00000000   -0.00000064   -0.28578134
     atom    3 type  2   force =     0.00000085    0.00000049   -0.24995452
     atom    4 type  2   force =    -0.00000000    0.00000111   -0.24995989
     atom    5 type  1   force =    -0.00000144   -0.00000083   -0.28577300
     atom    6 type  1   force =     0.00000000   -0.00000113   -0.28577384
     atom    7 type  2   force =     0.00000142    0.00000082   -0.24994858
     atom    8 type  2   force =     0.00000000    0.00000142   -0.24994413
     atom    9 type  1   force =     0.00000000    0.00000000   -0.28578234
     atom   10 type  1   force =    -0.00000055    0.00000032   -0.28578134
     atom   11 type  2   force =     0.00000000    0.00000000   -0.24995432
     atom   12 type  2   force =     0.00000096   -0.00000056   -0.24995989
     atom   13 type  1   force =     0.00000000   -0.00000000   -0.28577248
     atom   14 type  1   force =    -0.00000098    0.00000056   -0.28577384
     atom   15 type  2   force =     0.00000000    0.00000000   -0.24994841
     atom   16 type  2   force =     0.00000123   -0.00000071   -0.24994413
     atom   17 type  1   force =     0.00000138   -0.00000080   -0.28578159
     atom   18 type  1   force =     0.00000000   -0.00000000   -0.28578100
     atom   19 type  2   force =    -0.00000085    0.00000049   -0.24995452
     atom   20 type  2   force =     0.00000000    0.00000000   -0.24996087
     atom   21 type  1   force =     0.00000144   -0.00000083   -0.28577300
     atom   22 type  1   force =     0.00000000   -0.00000000   -0.28577347
     atom   23 type  2   force =    -0.00000142    0.00000082   -0.24994858
     atom   24 type  2   force =     0.00000000    0.00000000   -0.24994429
     atom   25 type  1   force =    -0.00000000    0.00000160   -0.28578159
     atom   26 type  1   force =     0.00000055    0.00000032   -0.28578134
     atom   27 type  2   force =     0.00000000   -0.00000098   -0.24995452
     atom   28 type  2   force =    -0.00000096   -0.00000056   -0.24995989
     atom   29 type  1   force =     0.00000000    0.00000167   -0.28577300
     atom   30 type  1   force =     0.00000098    0.00000056   -0.28577384
     atom   31 type  2   force =     0.00000000   -0.00000164   -0.24994858
     atom   32 type  2   force =    -0.00000123   -0.00000071   -0.24994413
     The ionic contribution  to forces
     atom    1 type  1   force =     0.00000000    0.00000002   -1.86792559
     atom    2 type  1   force =     0.00000001    0.00000002   -1.86792559
     atom    3 type  2   force =    -0.00000000    0.00000001    1.86792559
     atom    4 type  2   force =     0.00000001    0.00000001    1.86792559
     atom    5 type  1   force =     0.00000000    0.00000002   -1.86792559
     atom    6 type  1   force =     0.00000001    0.00000002   -1.86792559
     atom    7 type  2   force =    -0.00000000    0.00000001    1.86792559
     atom    8 type  2   force =     0.00000001    0.00000001    1.86792559
     atom    9 type  1   force =     0.00000001   -0.00000001   -1.86792560
     atom   10 type  1   force =    -0.00000000   -0.00000002   -1.86792559
     atom   11 type  2   force =     0.00000000   -0.00000001    1.86792560
     atom   12 type  2   force =    -0.00000000   -0.00000001    1.86792559
     atom   13 type  1   force =     0.00000001   -0.00000001   -1.86792560
     atom   14 type  1   force =    -0.00000000   -0.00000002   -1.86792559
     atom   15 type  2   force =     0.00000000   -0.00000001    1.86792560
     atom   16 type  2   force =    -0.00000000   -0.00000001    1.86792559
     atom   17 type  1   force =    -0.00000002    0.00000002   -1.86792559
     atom   18 type  1   force =     0.00000001    0.00000001   -1.86792560
     atom   19 type  2   force =    -0.00000001    0.00000001    1.86792559
     atom   20 type  2   force =     0.00000001    0.00000000    1.86792560
     atom   21 type  1   force =    -0.00000002    0.00000002   -1.86792559
     atom   22 type  1   force =     0.00000001    0.00000001   -1.86792560
     atom   23 type  2   force =    -0.00000001    0.00000001    1.86792559
     atom   24 type  2   force =     0.00000001    0.00000000    1.86792560
     atom   25 type  1   force =     0.00000001   -0.00000002   -1.86792560
     atom   26 type  1   force =    -0.00000001   -0.00000002   -1.86792559
     atom   27 type  2   force =     0.00000000   -0.00000001    1.86792560
     atom   28 type  2   force =    -0.00000001   -0.00000001    1.86792559
     atom   29 type  1   force =     0.00000001   -0.00000002   -1.86792560
     atom   30 type  1   force =    -0.00000001   -0.00000002   -1.86792559
     atom   31 type  2   force =     0.00000000   -0.00000001    1.86792560
     atom   32 type  2   force =    -0.00000001   -0.00000001    1.86792559
     The local contribution  to forces
     atom    1 type  1   force =     0.00000142    0.00000093    2.12188530
     atom    2 type  1   force =     0.00000010    0.00000237    2.12188727
     atom    3 type  2   force =     0.00000050    0.00000032   -1.60665667
     atom    4 type  2   force =     0.00000003   -0.00000028   -1.60666086
     atom    5 type  1   force =     0.00000197    0.00000125    2.12189435
     atom    6 type  1   force =     0.00000010    0.00000302    2.12189460
     atom    7 type  2   force =     0.00000024    0.00000017   -1.60666097
     atom    8 type  2   force =     0.00000003    0.00000067   -1.60665362
     atom    9 type  1   force =     0.00000010   -0.00000006    2.12188722
     atom   10 type  1   force =     0.00000200   -0.00000127    2.12188727
     atom   11 type  2   force =     0.00000003   -0.00000001   -1.60665684
     atom   12 type  2   force =    -0.00000026    0.00000012   -1.60666086
     atom   13 type  1   force =     0.00000010   -0.00000006    2.12189447
     atom   14 type  1   force =     0.00000257   -0.00000159    2.12189460
     atom   15 type  2   force =     0.00000003   -0.00000001   -1.60666177
     atom   16 type  2   force =     0.00000057   -0.00000036   -1.60665362
     atom   17 type  1   force =    -0.00000162    0.00000093    2.12188530
     atom   18 type  1   force =     0.00000010    0.00000006    2.12188586
     atom   19 type  2   force =    -0.00000055    0.00000032   -1.60665667
     atom   20 type  2   force =     0.00000003    0.00000001   -1.60666069
     atom   21 type  1   force =    -0.00000217    0.00000125    2.12189435
     atom   22 type  1   force =     0.00000010    0.00000006    2.12189322
     atom   23 type  2   force =    -0.00000029    0.00000017   -1.60666097
     atom   24 type  2   force =     0.00000003    0.00000001   -1.60665415
     atom   25 type  1   force =     0.00000010   -0.00000170    2.12188530
     atom   26 type  1   force =    -0.00000200   -0.00000127    2.12188727
     atom   27 type  2   force =     0.00000003   -0.00000059   -1.60665667
     atom   28 type  2   force =     0.00000026    0.00000012   -1.60666086
     atom   29 type  1   force =     0.00000010   -0.00000234    2.12189435
     atom   30 type  1   force =    -0.00000257   -0.00000159    2.12189460
     atom   31 type  2   force =     0.00000003   -0.00000030   -1.60666097
     atom   32 type  2   force =    -0.00000057   -0.00000036   -1.60665362
     The core correction contribution to forces
     atom    1 type  1   force =     0.00000002    0.00000002    0.01839428
     atom    2 type  1   force =     0.00000001   -0.00000006    0.01839361
     atom    3 type  2   force =    -0.00000001   -0.00000001    0.00208670
     atom    4 type  2   force =    -0.00000000   -0.00000002    0.00208923
     atom    5 type  1   force =     0.00000002    0.00000003    0.01839038
     atom    6 type  1   force =     0.00000001   -0.00000003    0.01839105
     atom    7 type  2   force =    -0.00000002   -0.00000001    0.00208657
     atom    8 type  2   force =    -0.00000000   -0.00000002    0.00208407
     atom    9 type  1   force =     0.00000001   -0.00000001    0.01839429
     atom   10 type  1   force =    -0.00000005    0.00000002    0.01839361
     atom   11 type  2   force =    -0.00000000    0.00000000    0.00208671
     atom   12 type  2   force =    -0.00000001    0.00000001    0.00208923
     atom   13 type  1   force =     0.00000001   -0.00000001    0.01839033
     atom   14 type  1   force =    -0.00000003    0.00000001    0.01839105
     atom   15 type  2   force =    -0.00000000    0.00000000    0.00208657
     atom   16 type  2   force =    -0.00000002    0.00000001    0.00208407
     atom   17 type  1   force =    -0.00000004    0.00000002    0.01839428
     atom   18 type  1   force =     0.00000001    0.00000001    0.01839361
     atom   19 type  2   force =     0.00000001   -0.00000001    0.00208670
     atom   20 type  2   force =    -0.00000000   -0.00000000    0.00208924
     atom   21 type  1   force =    -0.00000005    0.00000003    0.01839038
     atom   22 type  1   force =     0.00000001    0.00000001    0.01839106
     atom   23 type  2   force =     0.00000002   -0.00000001    0.00208657
     atom   24 type  2   force =    -0.00000000   -0.00000000    0.00208407
     atom   25 type  1   force =     0.00000001   -0.00000003    0.01839428
     atom   26 type  1   force =     0.00000005    0.00000002    0.01839361
     atom   27 type  2   force =    -0.00000000    0.00000001    0.00208670
     atom   28 type  2   force =     0.00000001    0.00000001    0.00208923
     atom   29 type  1   force =     0.00000001   -0.00000004    0.01839038
     atom   30 type  1   force =     0.00000003    0.00000001    0.01839105
     atom   31 type  2   force =    -0.00000000    0.00000002    0.00208657
     atom   32 type  2   force =     0.00000002    0.00000001    0.00208407
     The Hubbard contrib.    to forces
     atom    1 type  1   force =     0.00000000    0.00000000    0.00000000
     atom    2 type  1   force =     0.00000000    0.00000000    0.00000000
     atom    3 type  2   force =     0.00000000    0.00000000    0.00000000
     atom    4 type  2   force =     0.00000000    0.00000000    0.00000000
     atom    5 type  1   force =     0.00000000    0.00000000    0.00000000
     atom    6 type  1   force =     0.00000000    0.00000000    0.00000000
     atom    7 type  2   force =     0.00000000    0.00000000    0.00000000
     atom    8 type  2   force =     0.00000000    0.00000000    0.00000000
     atom    9 type  1   force =     0.00000000    0.00000000    0.00000000
     atom   10 type  1   force =     0.00000000    0.00000000    0.00000000
     atom   11 type  2   force =     0.00000000    0.00000000    0.00000000
     atom   12 type  2   force =     0.00000000    0.00000000    0.00000000
     atom   13 type  1   force =     0.00000000    0.00000000    0.00000000
     atom   14 type  1   force =     0.00000000    0.00000000    0.00000000
     atom   15 type  2   force =     0.00000000    0.00000000    0.00000000
     atom   16 type  2   force =     0.00000000    0.00000000    0.00000000
     atom   17 type  1   force =     0.00000000    0.00000000    0.00000000
     atom   18 type  1   force =     0.00000000    0.00000000    0.00000000
     atom   19 type  2   force =     0.00000000    0.00000000    0.00000000
     atom   20 type  2   force =     0.00000000    0.00000000    0.00000000
     atom   21 type  1   force =     0.00000000    0.00000000    0.00000000
     atom   22 type  1   force =     0.00000000    0.00000000    0.00000000
     atom   23 type  2   force =     0.00000000    0.00000000    0.00000000
     atom   24 type  2   force =     0.00000000    0.00000000    0.00000000
     atom   25 type  1   force =     0.00000000    0.00000000    0.00000000
     atom   26 type  1   force =     0.00000000    0.00000000    0.00000000
     atom   27 type  2   force =     0.00000000    0.00000000    0.00000000
     atom   28 type  2   force =     0.00000000    0.00000000    0.00000000
     atom   29 type  1   force =     0.00000000    0.00000000    0.00000000
     atom   30 type  1   force =     0.00000000    0.00000000    0.00000000
     atom   31 type  2   force =     0.00000000    0.00000000    0.00000000
     atom   32 type  2   force =     0.00000000    0.00000000    0.00000000
     The SCF correction term to forces
     atom    1 type  1   force =     0.00000020    0.00000012    0.00002372
     atom    2 type  1   force =     0.00000000   -0.00000349    0.00001637
     atom    3 type  2   force =    -0.00000128   -0.00000074    0.00000372
     atom    4 type  2   force =     0.00000000   -0.00000052    0.00001087
     atom    5 type  1   force =    -0.00000103   -0.00000059    0.00000148
     atom    6 type  1   force =     0.00000000   -0.00000366    0.00000529
     atom    7 type  2   force =    -0.00000135   -0.00000078    0.00000654
     atom    8 type  2   force =     0.00000000   -0.00000139   -0.00000245
     atom    9 type  1   force =     0.00000000   -0.00000000    0.00002173
     atom   10 type  1   force =    -0.00000303    0.00000175    0.00001637
     atom   11 type  2   force =     0.00000000   -0.00000000    0.00000341
     atom   12 type  2   force =    -0.00000045    0.00000026    0.00001087
     atom   13 type  1   force =     0.00000000   -0.00000000    0.00000110
     atom   14 type  1   force =    -0.00000317    0.00000183    0.00000529
     atom   15 type  2   force =     0.00000000   -0.00000000    0.00000680
     atom   16 type  2   force =    -0.00000121    0.00000070   -0.00000245
     atom   17 type  1   force =    -0.00000020    0.00000012    0.00002372
     atom   18 type  1   force =     0.00000000    0.00000000    0.00001972
     atom   19 type  2   force =     0.00000128   -0.00000074    0.00000372
     atom   20 type  2   force =     0.00000000    0.00000000    0.00001129
     atom   21 type  1   force =     0.00000103   -0.00000059    0.00000148
     atom   22 type  1   force =     0.00000000    0.00000000    0.00000739
     atom   23 type  2   force =     0.00000135   -0.00000078    0.00000654
     atom   24 type  2   force =     0.00000000    0.00000000   -0.00000165
     atom   25 type  1   force =     0.00000000   -0.00000024    0.00002372
     atom   26 type  1   force =     0.00000303    0.00000175    0.00001637
     atom   27 type  2   force =     0.00000000    0.00000147    0.00000372
     atom   28 type  2   force =     0.00000045    0.00000026    0.00001087
     atom   29 type  1   force =     0.00000000    0.00000119    0.00000148
     atom   30 type  1   force =     0.00000317    0.00000183    0.00000529
     atom   31 type  2   force =     0.00000000    0.00000156    0.00000654
     atom   32 type  2   force =     0.00000121    0.00000070   -0.00000245

     Total force =     0.075846     Total SCF correction =     0.000066

     General routines

     Parallel routines

   This run was terminated on:   7:42:16  11Sep2025

   JOB DONE.
Note: The following floating-point exceptions are signalling: IEEE_INVALID_FLAG
Note: The following floating-point exceptions are signalling: IEEE_INVALID_FLAG