     Program PWSCF v.7.2 starts on 10Sep2025 at 21:56: 0

     Reading input from /home/jvc/QEspresso7.2/ZnO_database/scripts/cell222.in/ZnO-3.47-1.52-222.in
Warning: card &CELL ignored
Warning: card / ignored
Warning: card &FCP ignored
Warning: card / ignored
Warning: card &RISM ignored
Warning: card / ignored

     Current dimensions of program PWSCF are:
     Max number of different atomic species (ntypx) = 10
     Max number of k-points (npk) =  40000
     Max angular momentum in pseudopotentials (lmaxx) =  4
     file Zn.upf: wavefunction(s)  3D renormalized
     Found identity + (  0.0000  0.0000 -0.5000) symmetry
     This is a supercell, fractional translations are disabled
     Message from routine setup:
     using ibrav=0 with symmetry is DISCOURAGED, use correct ibrav instead

     K-points division:     npool     =       2
     R & G space division:  proc/nbgrp/npool/nimage =      16
     Subspace diagonalization in iterative solution of the eigenvalue problem:
     a serial algorithm will be used

     Using Slab Decomposition

     bravais-lattice index     =            0
     lattice parameter (alat)  =      13.0992  a.u.
     unit-cell volume          =    2953.8593 (a.u.)^3
     number of atoms/cell      =           32
     number of atomic types    =            2
     number of electrons       =       288.00
     number of Kohn-Sham states=          144
     kinetic-energy cutoff     =      50.0000  Ry
     charge density cutoff     =     400.0000  Ry
     scf convergence threshold =      1.0E-08
     mixing beta               =       0.3000
     number of iterations used =            8  plain     mixing
     Exchange-correlation= PBE
                           (   1   4   3   4   0   0   0)

     celldm(1)=  13.099170  celldm(2)=   0.000000  celldm(3)=   0.000000
     celldm(4)=   0.000000  celldm(5)=   0.000000  celldm(6)=   0.000000

     crystal axes: (cart. coord. in units of alat)
               a(1) = (   1.000000   0.000000   0.000000 )
               a(2) = (  -0.500000   0.866025   0.000000 )
               a(3) = (   0.000000   0.000000   1.517497 )

     reciprocal axes: (cart. coord. in units 2 pi/alat)
               b(1) = (  1.000000  0.577350 -0.000000 )
               b(2) = (  0.000000  1.154701  0.000000 )
               b(3) = (  0.000000 -0.000000  0.658980 )

     PseudoPot. # 1 for Zn read from file:
     /home/jvc/QEspresso7.2/ZnO_database/pseudos/Zn.upf
     MD5 check sum: 7f56cabf9682ed8c977c2f7d0c5985c5
     Pseudo is Ultrasoft + core correction, Zval = 12.0
     Generated using &quot;atomic&quot; code by A. Dal Corso  v.6.2.2
     Using radial grid of 1201 points,  6 beta functions with:
                l(1) =   0
                l(2) =   0
                l(3) =   1
                l(4) =   1
                l(5) =   2
                l(6) =   2
     Q(r) pseudized with 0 coefficients

     PseudoPot. # 2 for O  read from file:
     /home/jvc/QEspresso7.2/ZnO_database/pseudos/O.upf
     MD5 check sum: 91400c9766925bcf19f520983a725ff0
     Pseudo is Ultrasoft + core correction, Zval =  6.0
     Generated using &quot;atomic&quot; code by A. Dal Corso  v.6.3MaX
     Using radial grid of 1095 points,  4 beta functions with:
                l(1) =   0
                l(2) =   0
                l(3) =   1
                l(4) =   1
     Q(r) pseudized with 0 coefficients

     atomic species   valence    mass     pseudopotential
        Zn            12.00    65.38000     Zn( 1.00)
        O              6.00    15.99900     O ( 1.00)

      6 Sym. Ops. (no inversion) found

                                    s                        frac. trans.

      isym =  1     identity

 cryst.   s( 1) = (     1          0          0      )
                  (     0          1          0      )
                  (     0          0          1      )

 cart.    s( 1) = (  1.0000000  0.0000000  0.0000000 )
                  (  0.0000000  1.0000000  0.0000000 )
                  (  0.0000000  0.0000000  1.0000000 )

      isym =  2     120 deg rotation - cryst. axis [0,0,1]

[...]

      isym =  3     120 deg rotation - cryst. axis [0,0,-1]

[...]

      isym =  4     inv. 180 deg rotation - cart. axis [1,0,0]

[...]

      isym =  5     inv. 180 deg rotation - cryst. axis [0,1,0]

[...]

      isym =  6     inv. 180 deg rotation - cryst. axis [1,1,0]

 cryst.   s( 6) = (     0         -1          0      )
                  (    -1          0          0      )
                  (     0          0          1      )

 cart.    s( 6) = (  0.5000000 -0.8660254  0.0000000 )
                  ( -0.8660254 -0.5000000  0.0000000 )
                  (  0.0000000  0.0000000  1.0000000 )

   Cartesian axes

     site n.     atom                  positions (alat units)
         1           Zn  tau(   1) = (   0.2500000   0.1443376   0.3798549  )
         2           Zn  tau(   2) = (  -0.0000000   0.2886751   0.0004807  )
         3           O   tau(   3) = (   0.2500000   0.1443376   0.6674531  )
         4           O   tau(   4) = (  -0.0000000   0.2886751   0.2880789  )
         5           Zn  tau(   5) = (   0.2500000   0.1443376   1.1386034  )
         6           Zn  tau(   6) = (  -0.0000000   0.2886751   0.7592292  )
         7           O   tau(   7) = (   0.2500000   0.1443376   1.4262015  )
         8           O   tau(   8) = (  -0.0000000   0.2886751   1.0468273  )
         9           Zn  tau(   9) = (   0.0000000   0.5773503   0.3798549  )
        10           Zn  tau(  10) = (  -0.2500000   0.7216878   0.0004807  )
        11           O   tau(  11) = (   0.0000000   0.5773503   0.6674531  )
        12           O   tau(  12) = (  -0.2500000   0.7216878   0.2880789  )
        13           Zn  tau(  13) = (   0.0000000   0.5773503   1.1386034  )
        14           Zn  tau(  14) = (  -0.2500000   0.7216878   0.7592292  )
        15           O   tau(  15) = (   0.0000000   0.5773503   1.4262015  )
        16           O   tau(  16) = (  -0.2500000   0.7216878   1.0468273  )
        17           Zn  tau(  17) = (   0.7500000   0.1443376   0.3798549  )
        18           Zn  tau(  18) = (   0.5000000   0.2886751   0.0004807  )
        19           O   tau(  19) = (   0.7500000   0.1443376   0.6674531  )
        20           O   tau(  20) = (   0.5000000   0.2886751   0.2880789  )
        21           Zn  tau(  21) = (   0.7500000   0.1443376   1.1386034  )
        22           Zn  tau(  22) = (   0.5000000   0.2886751   0.7592292  )
        23           O   tau(  23) = (   0.7500000   0.1443376   1.4262015  )
        24           O   tau(  24) = (   0.5000000   0.2886751   1.0468273  )
        25           Zn  tau(  25) = (   0.5000000   0.5773503   0.3798549  )
        26           Zn  tau(  26) = (   0.2500000   0.7216878   0.0004807  )
        27           O   tau(  27) = (   0.5000000   0.5773503   0.6674531  )
        28           O   tau(  28) = (   0.2500000   0.7216878   0.2880789  )
        29           Zn  tau(  29) = (   0.5000000   0.5773503   1.1386034  )
        30           Zn  tau(  30) = (   0.2500000   0.7216878   0.7592292  )
        31           O   tau(  31) = (   0.5000000   0.5773503   1.4262015  )
        32           O   tau(  32) = (   0.2500000   0.7216878   1.0468273  )

   Crystallographic axes

     site n.     atom                  positions (cryst. coord.)
         1           Zn  tau(   1) = (  0.3333333  0.1666667  0.2503168  )
         2           Zn  tau(   2) = (  0.1666667  0.3333333  0.0003168  )
         3           O   tau(   3) = (  0.3333333  0.1666667  0.4398382  )
         4           O   tau(   4) = (  0.1666667  0.3333333  0.1898382  )
         5           Zn  tau(   5) = (  0.3333333  0.1666667  0.7503168  )
         6           Zn  tau(   6) = (  0.1666667  0.3333333  0.5003168  )
         7           O   tau(   7) = (  0.3333333  0.1666667  0.9398382  )
         8           O   tau(   8) = (  0.1666667  0.3333333  0.6898382  )
         9           Zn  tau(   9) = (  0.3333333  0.6666667  0.2503168  )
        10           Zn  tau(  10) = (  0.1666667  0.8333333  0.0003168  )
        11           O   tau(  11) = (  0.3333333  0.6666667  0.4398382  )
        12           O   tau(  12) = (  0.1666667  0.8333333  0.1898382  )
        13           Zn  tau(  13) = (  0.3333333  0.6666667  0.7503168  )
        14           Zn  tau(  14) = (  0.1666667  0.8333333  0.5003168  )
        15           O   tau(  15) = (  0.3333333  0.6666667  0.9398382  )
        16           O   tau(  16) = (  0.1666667  0.8333333  0.6898382  )
        17           Zn  tau(  17) = (  0.8333333  0.1666667  0.2503168  )
        18           Zn  tau(  18) = (  0.6666667  0.3333333  0.0003168  )
        19           O   tau(  19) = (  0.8333333  0.1666667  0.4398382  )
        20           O   tau(  20) = (  0.6666667  0.3333333  0.1898382  )
        21           Zn  tau(  21) = (  0.8333333  0.1666667  0.7503168  )
        22           Zn  tau(  22) = (  0.6666667  0.3333333  0.5003168  )
        23           O   tau(  23) = (  0.8333333  0.1666667  0.9398382  )
        24           O   tau(  24) = (  0.6666667  0.3333333  0.6898382  )
        25           Zn  tau(  25) = (  0.8333333  0.6666667  0.2503168  )
        26           Zn  tau(  26) = (  0.6666667  0.8333333  0.0003168  )
        27           O   tau(  27) = (  0.8333333  0.6666667  0.4398382  )
        28           O   tau(  28) = (  0.6666667  0.8333333  0.1898382  )
        29           Zn  tau(  29) = (  0.8333333  0.6666667  0.7503168  )
        30           Zn  tau(  30) = (  0.6666667  0.8333333  0.5003168  )
        31           O   tau(  31) = (  0.8333333  0.6666667  0.9398382  )
        32           O   tau(  32) = (  0.6666667  0.8333333  0.6898382  )

     number of k points=    34
                       cart. coord. in units 2pi/alat
        k(    1) = (   0.0000000   0.0000000   0.0000000), wk =   0.0092593
        k(    2) = (   0.0000000   0.0000000   0.1098300), wk =   0.0185185
        k(    3) = (   0.0000000   0.0000000   0.2196600), wk =   0.0185185
        k(    4) = (   0.0000000   0.0000000  -0.3294900), wk =   0.0092593
        k(    5) = (   0.0000000   0.1924501   0.0000000), wk =   0.0555556
        k(    6) = (   0.0000000   0.1924501   0.1098300), wk =   0.0555556
        k(    7) = (   0.0000000   0.1924501   0.2196600), wk =   0.0555556
        k(    8) = (   0.0000000   0.1924501  -0.3294900), wk =   0.0555556
        k(    9) = (   0.0000000   0.3849002   0.0000000), wk =   0.0555556
        k(   10) = (   0.0000000   0.3849002   0.1098300), wk =   0.0555556
        k(   11) = (   0.0000000   0.3849002   0.2196600), wk =   0.0555556
        k(   12) = (   0.0000000   0.3849002  -0.3294900), wk =   0.0555556
        k(   13) = (   0.0000000  -0.5773503   0.0000000), wk =   0.0277778
        k(   14) = (   0.0000000  -0.5773503   0.1098300), wk =   0.0555556
        k(   15) = (   0.0000000  -0.5773503   0.2196600), wk =   0.0555556
        k(   16) = (   0.0000000  -0.5773503  -0.3294900), wk =   0.0277778
        k(   17) = (   0.1666667   0.2886751   0.0000000), wk =   0.0555556
[...]
     atom   12 type  2   force =    -0.00000025    0.00000015    0.01104335
     atom   13 type  1   force =     0.00000000    0.00000000   -0.01104530
     atom   14 type  1   force =     0.00000020   -0.00000012   -0.01104269
     atom   15 type  2   force =     0.00000000    0.00000000    0.01104207
     atom   16 type  2   force =     0.00000032   -0.00000019    0.01104370
     atom   17 type  1   force =     0.00000079   -0.00000046   -0.01104282
     atom   18 type  1   force =     0.00000000    0.00000000   -0.01104351
     atom   19 type  2   force =     0.00000020   -0.00000012    0.01104373
     atom   20 type  2   force =     0.00000000   -0.00000000    0.01104071
     atom   21 type  1   force =     0.00000027   -0.00000016   -0.01104454
     atom   22 type  1   force =     0.00000000    0.00000000   -0.01104325
     atom   23 type  2   force =     0.00000056   -0.00000032    0.01104315
     atom   24 type  2   force =     0.00000000   -0.00000000    0.01104156
     atom   25 type  1   force =     0.00000000    0.00000092   -0.01104282
     atom   26 type  1   force =     0.00000074    0.00000043   -0.01104231
     atom   27 type  2   force =    -0.00000000    0.00000023    0.01104373
     atom   28 type  2   force =     0.00000025    0.00000015    0.01104335
     atom   29 type  1   force =     0.00000000    0.00000031   -0.01104454
     atom   30 type  1   force =    -0.00000020   -0.00000012   -0.01104269
     atom   31 type  2   force =     0.00000000    0.00000065    0.01104315
     atom   32 type  2   force =    -0.00000032   -0.00000019    0.01104370
     The non-local contrib.  to forces
     atom    1 type  1   force =     0.00000015    0.00000009   -0.17373336
     atom    2 type  1   force =     0.00000000   -0.00000026   -0.17373346
     atom    3 type  2   force =    -0.00000027   -0.00000016   -0.14477191
     atom    4 type  2   force =     0.00000000    0.00000024   -0.14477198
     atom    5 type  1   force =     0.00000019    0.00000011   -0.17373347
     atom    6 type  1   force =    -0.00000000    0.00000018   -0.17373395
     atom    7 type  2   force =    -0.00000017   -0.00000010   -0.14477137
     atom    8 type  2   force =     0.00000000    0.00000049   -0.14477142
     atom    9 type  1   force =     0.00000000   -0.00000000   -0.17373275
     atom   10 type  1   force =    -0.00000023    0.00000013   -0.17373346
     atom   11 type  2   force =     0.00000000   -0.00000000   -0.14477090
     atom   12 type  2   force =     0.00000020   -0.00000012   -0.14477198
     atom   13 type  1   force =     0.00000000   -0.00000000   -0.17373411
     atom   14 type  1   force =     0.00000015   -0.00000009   -0.17373395
     atom   15 type  2   force =     0.00000000    0.00000000   -0.14477248
     atom   16 type  2   force =     0.00000042   -0.00000025   -0.14477142
     atom   17 type  1   force =    -0.00000015    0.00000009   -0.17373336
     atom   18 type  1   force =     0.00000000   -0.00000000   -0.17373479
     atom   19 type  2   force =     0.00000027   -0.00000016   -0.14477191
     atom   20 type  2   force =     0.00000000    0.00000000   -0.14477454
     atom   21 type  1   force =    -0.00000019    0.00000011   -0.17373347
     atom   22 type  1   force =     0.00000000   -0.00000000   -0.17373436
     atom   23 type  2   force =     0.00000017   -0.00000010   -0.14477137
     atom   24 type  2   force =     0.00000000    0.00000000   -0.14477282
     atom   25 type  1   force =     0.00000000   -0.00000018   -0.17373336
     atom   26 type  1   force =     0.00000023    0.00000013   -0.17373346
     atom   27 type  2   force =     0.00000000    0.00000031   -0.14477191
     atom   28 type  2   force =    -0.00000020   -0.00000012   -0.14477198
     atom   29 type  1   force =     0.00000000   -0.00000021   -0.17373347
     atom   30 type  1   force =    -0.00000015   -0.00000009   -0.17373395
     atom   31 type  2   force =     0.00000000    0.00000020   -0.14477137
     atom   32 type  2   force =    -0.00000042   -0.00000025   -0.14477142
     The ionic contribution  to forces
     atom    1 type  1   force =    -0.00000001    0.00000001   -1.12322816
     atom    2 type  1   force =     0.00000002   -0.00000000   -1.12322816
     atom    3 type  2   force =    -0.00000001    0.00000001    1.12322816
     atom    4 type  2   force =     0.00000001   -0.00000000    1.12322816
     atom    5 type  1   force =    -0.00000001    0.00000001   -1.12322816
     atom    6 type  1   force =     0.00000002   -0.00000000   -1.12322816
     atom    7 type  2   force =    -0.00000001    0.00000001    1.12322816
     atom    8 type  2   force =     0.00000001   -0.00000000    1.12322816
     atom    9 type  1   force =    -0.00000001    0.00000000   -1.12322816
     atom   10 type  1   force =     0.00000001    0.00000000   -1.12322816
     atom   11 type  2   force =    -0.00000001    0.00000000    1.12322816
     atom   12 type  2   force =     0.00000001   -0.00000000    1.12322816
     atom   13 type  1   force =    -0.00000001    0.00000000   -1.12322816
     atom   14 type  1   force =     0.00000001    0.00000000   -1.12322816
     atom   15 type  2   force =    -0.00000001    0.00000000    1.12322816
     atom   16 type  2   force =     0.00000001   -0.00000000    1.12322816
     atom   17 type  1   force =    -0.00000001   -0.00000000   -1.12322816
     atom   18 type  1   force =    -0.00000001   -0.00000000   -1.12322816
     atom   19 type  2   force =    -0.00000001   -0.00000000    1.12322816
     atom   20 type  2   force =    -0.00000000   -0.00000000    1.12322816
     atom   21 type  1   force =    -0.00000001   -0.00000000   -1.12322816
     atom   22 type  1   force =    -0.00000001   -0.00000000   -1.12322816
     atom   23 type  2   force =    -0.00000001   -0.00000000    1.12322816
     atom   24 type  2   force =    -0.00000000   -0.00000000    1.12322816
     atom   25 type  1   force =    -0.00000001    0.00000000   -1.12322816
     atom   26 type  1   force =     0.00000001   -0.00000001   -1.12322816
     atom   27 type  2   force =    -0.00000001    0.00000000    1.12322816
     atom   28 type  2   force =     0.00000001   -0.00000000    1.12322816
     atom   29 type  1   force =    -0.00000001    0.00000000   -1.12322816
     atom   30 type  1   force =     0.00000001   -0.00000001   -1.12322816
     atom   31 type  2   force =    -0.00000001    0.00000000    1.12322816
     atom   32 type  2   force =     0.00000001   -0.00000000    1.12322816
     The local contribution  to forces
     atom    1 type  1   force =     0.00000001    0.00000022    1.27416213
     atom    2 type  1   force =     0.00000009    0.00000126    1.27416153
     atom    3 type  2   force =    -0.00000029   -0.00000011   -0.96859048
     atom    4 type  2   force =     0.00000002   -0.00000063   -0.96859104
     atom    5 type  1   force =    -0.00000054   -0.00000010    1.27416345
     atom    6 type  1   force =     0.00000009   -0.00000049    1.27416267
     atom    7 type  2   force =    -0.00000085   -0.00000044   -0.96859195
     atom    8 type  2   force =     0.00000002    0.00000033   -0.96859003
     atom    9 type  1   force =    -0.00000018    0.00000011    1.27416059
     atom   10 type  1   force =     0.00000114   -0.00000055    1.27416153
     atom   11 type  2   force =    -0.00000005    0.00000003   -0.96859109
     atom   12 type  2   force =    -0.00000053    0.00000033   -0.96859104
     atom   13 type  1   force =    -0.00000018    0.00000011    1.27416490
     atom   14 type  1   force =    -0.00000038    0.00000033    1.27416267
     atom   15 type  2   force =    -0.00000005    0.00000003   -0.96859231
     atom   16 type  2   force =     0.00000029   -0.00000014   -0.96859003
     atom   17 type  1   force =    -0.00000038    0.00000022    1.27416213
     atom   18 type  1   force =    -0.00000009    0.00000005    1.27416446
     atom   19 type  2   force =     0.00000019   -0.00000011   -0.96859048
     atom   20 type  2   force =    -0.00000002    0.00000001   -0.96859302
     atom   21 type  1   force =     0.00000017   -0.00000010    1.27416345
     atom   22 type  1   force =    -0.00000009    0.00000005    1.27416308
     atom   23 type  2   force =     0.00000076   -0.00000044   -0.96859195
     atom   24 type  2   force =    -0.00000002    0.00000001   -0.96859237
     atom   25 type  1   force =    -0.00000018   -0.00000012    1.27416213
     atom   26 type  1   force =    -0.00000096   -0.00000055    1.27416153
     atom   27 type  2   force =    -0.00000005    0.00000030   -0.96859048
     atom   28 type  2   force =     0.00000058    0.00000033   -0.96859104
     atom   29 type  1   force =    -0.00000018    0.00000051    1.27416345
     atom   30 type  1   force =     0.00000056    0.00000033    1.27416267
     atom   31 type  2   force =    -0.00000005    0.00000096   -0.96859195
     atom   32 type  2   force =    -0.00000025   -0.00000014   -0.96859003
     The core correction contribution to forces
     atom    1 type  1   force =    -0.00000003    0.00000001    0.01174650
     atom    2 type  1   force =     0.00000001   -0.00000002    0.01174654
     atom    3 type  2   force =     0.00000000    0.00000000    0.00117352
     atom    4 type  2   force =    -0.00000000   -0.00000001    0.00117353
     atom    5 type  1   force =    -0.00000001    0.00000002    0.01174651
     atom    6 type  1   force =     0.00000001    0.00000003    0.01174651
     atom    7 type  2   force =    -0.00000000   -0.00000000    0.00117351
     atom    8 type  2   force =    -0.00000000   -0.00000001    0.00117352
     atom    9 type  1   force =    -0.00000002    0.00000001    0.01174648
     atom   10 type  1   force =    -0.00000001    0.00000002    0.01174654
     atom   11 type  2   force =     0.00000000   -0.00000000    0.00117351
     atom   12 type  2   force =    -0.00000001    0.00000000    0.00117353
     atom   13 type  1   force =    -0.00000002    0.00000001    0.01174650
     atom   14 type  1   force =     0.00000003   -0.00000000    0.01174651
     atom   15 type  2   force =     0.00000000   -0.00000000    0.00117352
     atom   16 type  2   force =    -0.00000000    0.00000000    0.00117352
     atom   17 type  1   force =    -0.00000002    0.00000001    0.01174650
     atom   18 type  1   force =    -0.00000001    0.00000001    0.01174652
     atom   19 type  2   force =    -0.00000000    0.00000000    0.00117352
     atom   20 type  2   force =     0.00000000   -0.00000000    0.00117354
     atom   21 type  1   force =    -0.00000004    0.00000002    0.01174651
     atom   22 type  1   force =    -0.00000001    0.00000001    0.01174656
     atom   23 type  2   force =     0.00000000   -0.00000000    0.00117351
     atom   24 type  2   force =     0.00000000   -0.00000000    0.00117353
     atom   25 type  1   force =    -0.00000002    0.00000002    0.01174650
     atom   26 type  1   force =     0.00000003    0.00000002    0.01174654
     atom   27 type  2   force =     0.00000000   -0.00000000    0.00117352
     atom   28 type  2   force =     0.00000001    0.00000000    0.00117353
     atom   29 type  1   force =    -0.00000002   -0.00000001    0.01174651
     atom   30 type  1   force =    -0.00000001   -0.00000000    0.01174651
     atom   31 type  2   force =     0.00000000    0.00000000    0.00117351
     atom   32 type  2   force =     0.00000000    0.00000000    0.00117352
     The Hubbard contrib.    to forces
     atom    1 type  1   force =     0.00000000    0.00000000    0.00000000
     atom    2 type  1   force =     0.00000000    0.00000000    0.00000000
     atom    3 type  2   force =     0.00000000    0.00000000    0.00000000
     atom    4 type  2   force =     0.00000000    0.00000000    0.00000000
     atom    5 type  1   force =     0.00000000    0.00000000    0.00000000
     atom    6 type  1   force =     0.00000000    0.00000000    0.00000000
     atom    7 type  2   force =     0.00000000    0.00000000    0.00000000
     atom    8 type  2   force =     0.00000000    0.00000000    0.00000000
     atom    9 type  1   force =     0.00000000    0.00000000    0.00000000
     atom   10 type  1   force =     0.00000000    0.00000000    0.00000000
     atom   11 type  2   force =     0.00000000    0.00000000    0.00000000
     atom   12 type  2   force =     0.00000000    0.00000000    0.00000000
     atom   13 type  1   force =     0.00000000    0.00000000    0.00000000
     atom   14 type  1   force =     0.00000000    0.00000000    0.00000000
     atom   15 type  2   force =     0.00000000    0.00000000    0.00000000
     atom   16 type  2   force =     0.00000000    0.00000000    0.00000000
     atom   17 type  1   force =     0.00000000    0.00000000    0.00000000
     atom   18 type  1   force =     0.00000000    0.00000000    0.00000000
     atom   19 type  2   force =     0.00000000    0.00000000    0.00000000
     atom   20 type  2   force =     0.00000000    0.00000000    0.00000000
     atom   21 type  1   force =     0.00000000    0.00000000    0.00000000
     atom   22 type  1   force =     0.00000000    0.00000000    0.00000000
     atom   23 type  2   force =     0.00000000    0.00000000    0.00000000
     atom   24 type  2   force =     0.00000000    0.00000000    0.00000000
     atom   25 type  1   force =     0.00000000    0.00000000    0.00000000
     atom   26 type  1   force =     0.00000000    0.00000000    0.00000000
     atom   27 type  2   force =     0.00000000    0.00000000    0.00000000
     atom   28 type  2   force =     0.00000000    0.00000000    0.00000000
     atom   29 type  1   force =     0.00000000    0.00000000    0.00000000
     atom   30 type  1   force =     0.00000000    0.00000000    0.00000000
     atom   31 type  2   force =     0.00000000    0.00000000    0.00000000
     atom   32 type  2   force =     0.00000000    0.00000000    0.00000000
     The SCF correction term to forces
     atom    1 type  1   force =    -0.00000114   -0.00000066    0.00000886
     atom    2 type  1   force =    -0.00000000   -0.00000178    0.00001003
     atom    3 type  2   force =     0.00000031    0.00000018    0.00000323
     atom    4 type  2   force =    -0.00000000    0.00000012    0.00000347
     atom    5 type  1   force =    -0.00000012   -0.00000007    0.00000592
     atom    6 type  1   force =    -0.00000000    0.00000057    0.00000904
     atom    7 type  2   force =     0.00000042    0.00000024    0.00000359
     atom    8 type  2   force =    -0.00000000   -0.00000043    0.00000225
     atom    9 type  1   force =     0.00000000   -0.00000000    0.00001133
     atom   10 type  1   force =    -0.00000154    0.00000089    0.00001003
     atom   11 type  2   force =     0.00000000   -0.00000000    0.00000341
     atom   12 type  2   force =     0.00000010   -0.00000006    0.00000347
     atom   13 type  1   force =     0.00000000   -0.00000000    0.00000436
     atom   14 type  1   force =     0.00000050   -0.00000029    0.00000904
     atom   15 type  2   force =     0.00000000   -0.00000000    0.00000397
     atom   16 type  2   force =    -0.00000037    0.00000021    0.00000225
     atom   17 type  1   force =     0.00000114   -0.00000066    0.00000886
     atom   18 type  1   force =     0.00000000   -0.00000000    0.00000724
     atom   19 type  2   force =    -0.00000031    0.00000018    0.00000323
     atom   20 type  2   force =     0.00000000   -0.00000000    0.00000535
     atom   21 type  1   force =     0.00000012   -0.00000007    0.00000592
     atom   22 type  1   force =     0.00000000   -0.00000000    0.00000842
     atom   23 type  2   force =    -0.00000042    0.00000024    0.00000359
     atom   24 type  2   force =     0.00000000   -0.00000000    0.00000385
     atom   25 type  1   force =     0.00000000    0.00000132    0.00000886
     atom   26 type  1   force =     0.00000154    0.00000089    0.00001003
     atom   27 type  2   force =     0.00000000   -0.00000035    0.00000323
     atom   28 type  2   force =    -0.00000010   -0.00000006    0.00000347
     atom   29 type  1   force =     0.00000000    0.00000014    0.00000592
     atom   30 type  1   force =    -0.00000050   -0.00000029    0.00000904
     atom   31 type  2   force =     0.00000000   -0.00000049    0.00000359
     atom   32 type  2   force =     0.00000037    0.00000021    0.00000225

     Total force =     0.062469     Total SCF correction =     0.000037

     General routines

     Parallel routines

   This run was terminated on:  22:21:19  10Sep2025

   JOB DONE.
Note: The following floating-point exceptions are signalling: IEEE_INVALID_FLAG
Note: The following floating-point exceptions are signalling: IEEE_INVALID_FLAG