     Program PWSCF v.7.4 starts on 10Sep2025 at 10:45: 8

     Reading input from /home/jvc/QEspresso7.2/ZnO_database/scripts/cell222.in/ZnO-3.40-1.65-222.in
Warning: card &CELL ignored
Warning: card / ignored
Warning: card &FCP ignored
Warning: card / ignored
Warning: card &RISM ignored
Warning: card / ignored

     Current dimensions of program PWSCF are:
     Max number of different atomic species (ntypx) = 10
     Max number of k-points (npk) =  40000
     Max angular momentum in pseudopotentials (lmaxx) =  4
     file Zn.upf: wavefunction(s)  3D renormalized
     Found identity + (  0.0000  0.0000  0.5000) symmetry
     This is a supercell, fractional translations are disabled
     Message from routine setup:
     using ibrav=0 with symmetry is DISCOURAGED, use correct ibrav instead

     K-points division:     npool     =       2
     R & G space division:  proc/nbgrp/npool/nimage =      16
     Subspace diagonalization in iterative solution of the eigenvalue problem:
     a serial algorithm will be used

     Using Slab Decomposition

     bravais-lattice index     =            0
     lattice parameter (alat)  =      12.8520  a.u.
     unit-cell volume          =    3027.2239 (a.u.)^3
     number of atoms/cell      =           32
     number of atomic types    =            2
     number of electrons       =       288.00
     number of Kohn-Sham states=          144
     kinetic-energy cutoff     =      50.0000  Ry
     charge density cutoff     =     400.0000  Ry
     scf convergence threshold =      1.0E-08
     mixing beta               =       0.3000
     number of iterations used =            8  plain     mixing
     Exchange-correlation= PBE
                           (   1   4   3   4   0   0   0)

     celldm(1)=  12.852016  celldm(2)=   0.000000  celldm(3)=   0.000000
     celldm(4)=   0.000000  celldm(5)=   0.000000  celldm(6)=   0.000000

     crystal axes: (cart. coord. in units of alat)
               a(1) = (   1.000000   0.000000   0.000000 )
               a(2) = (  -0.500000   0.866025   0.000000 )
               a(3) = (   0.000000   0.000000   1.646646 )

     reciprocal axes: (cart. coord. in units 2 pi/alat)
               b(1) = (  1.000000  0.577350 -0.000000 )
               b(2) = (  0.000000  1.154701  0.000000 )
               b(3) = (  0.000000 -0.000000  0.607295 )

     PseudoPot. # 1 for Zn read from file:
     /home/jvc/QEspresso7.2/ZnO_database/pseudos/Zn.upf
     MD5 check sum: 7f56cabf9682ed8c977c2f7d0c5985c5
     Pseudo is Ultrasoft + core correction, Zval = 12.0
     Generated using &quot;atomic&quot; code by A. Dal Corso  v.6.2.2
     Using radial grid of 1201 points,  6 beta functions with:
                l(1) =   0
                l(2) =   0
                l(3) =   1
                l(4) =   1
                l(5) =   2
                l(6) =   2
     Q(r) pseudized with 0 coefficients

     PseudoPot. # 2 for O  read from file:
     /home/jvc/QEspresso7.2/ZnO_database/pseudos/O.upf
     MD5 check sum: 91400c9766925bcf19f520983a725ff0
     Pseudo is Ultrasoft + core correction, Zval =  6.0
     Generated using &quot;atomic&quot; code by A. Dal Corso  v.6.3MaX
     Using radial grid of 1095 points,  4 beta functions with:
                l(1) =   0
                l(2) =   0
                l(3) =   1
                l(4) =   1
     Q(r) pseudized with 0 coefficients

     atomic species   valence    mass     pseudopotential
     Zn               12.00    65.38000     Zn( 1.00)
     O                 6.00    15.99900     O ( 1.00)

      6 Sym. Ops. (no inversion) found

                                    s                        frac. trans.

      isym =  1     identity

 cryst.   s( 1) = (     1          0          0      )
                  (     0          1          0      )
                  (     0          0          1      )

 cart.    s( 1) = (  1.0000000  0.0000000  0.0000000 )
                  (  0.0000000  1.0000000  0.0000000 )
                  (  0.0000000  0.0000000  1.0000000 )

      isym =  2     120 deg rotation - cryst. axis [0,0,1]

[...]

      isym =  3     120 deg rotation - cryst. axis [0,0,-1]

[...]

      isym =  4     inv. 180 deg rotation - cart. axis [1,0,0]

[...]

      isym =  5     inv. 180 deg rotation - cryst. axis [0,1,0]

[...]

      isym =  6     inv. 180 deg rotation - cryst. axis [1,1,0]

 cryst.   s( 6) = (     0         -1          0      )
                  (    -1          0          0      )
                  (     0          0          1      )

 cart.    s( 6) = (  0.5000000 -0.8660254  0.0000000 )
                  ( -0.8660254 -0.5000000  0.0000000 )
                  (  0.0000000  0.0000000  1.0000000 )

   Cartesian axes

     site n.     atom                  positions (alat units)
         1        Zn     tau(   1) = (   0.2500000   0.1443376   0.4121830  )
         2        Zn     tau(   2) = (  -0.0000000   0.2886751   0.0005216  )
         3        O      tau(   3) = (   0.2500000   0.1443376   0.7242576  )
         4        O      tau(   4) = (  -0.0000000   0.2886751   0.3125962  )
         5        Zn     tau(   5) = (   0.2500000   0.1443376   1.2355058  )
         6        Zn     tau(   6) = (  -0.0000000   0.2886751   0.8238444  )
         7        O      tau(   7) = (   0.2500000   0.1443376   1.5475804  )
         8        O      tau(   8) = (  -0.0000000   0.2886751   1.1359190  )
         9        Zn     tau(   9) = (   0.0000000   0.5773503   0.4121830  )
        10        Zn     tau(  10) = (  -0.2500000   0.7216878   0.0005216  )
        11        O      tau(  11) = (   0.0000000   0.5773503   0.7242576  )
        12        O      tau(  12) = (  -0.2500000   0.7216878   0.3125962  )
        13        Zn     tau(  13) = (   0.0000000   0.5773503   1.2355058  )
        14        Zn     tau(  14) = (  -0.2500000   0.7216878   0.8238444  )
        15        O      tau(  15) = (   0.0000000   0.5773503   1.5475804  )
        16        O      tau(  16) = (  -0.2500000   0.7216878   1.1359190  )
        17        Zn     tau(  17) = (   0.7500000   0.1443376   0.4121830  )
        18        Zn     tau(  18) = (   0.5000000   0.2886751   0.0005216  )
        19        O      tau(  19) = (   0.7500000   0.1443376   0.7242576  )
        20        O      tau(  20) = (   0.5000000   0.2886751   0.3125962  )
        21        Zn     tau(  21) = (   0.7500000   0.1443376   1.2355058  )
        22        Zn     tau(  22) = (   0.5000000   0.2886751   0.8238444  )
        23        O      tau(  23) = (   0.7500000   0.1443376   1.5475804  )
        24        O      tau(  24) = (   0.5000000   0.2886751   1.1359190  )
        25        Zn     tau(  25) = (   0.5000000   0.5773503   0.4121830  )
        26        Zn     tau(  26) = (   0.2500000   0.7216878   0.0005216  )
        27        O      tau(  27) = (   0.5000000   0.5773503   0.7242576  )
        28        O      tau(  28) = (   0.2500000   0.7216878   0.3125962  )
        29        Zn     tau(  29) = (   0.5000000   0.5773503   1.2355058  )
        30        Zn     tau(  30) = (   0.2500000   0.7216878   0.8238444  )
        31        O      tau(  31) = (   0.5000000   0.5773503   1.5475804  )
        32        O      tau(  32) = (   0.2500000   0.7216878   1.1359190  )

   Crystallographic axes

     site n.     atom                  positions (cryst. coord.)
         1        Zn     tau(   1) = (  0.3333333  0.1666667  0.2503168  )
         2        Zn     tau(   2) = (  0.1666667  0.3333333  0.0003168  )
         3        O      tau(   3) = (  0.3333333  0.1666667  0.4398382  )
         4        O      tau(   4) = (  0.1666667  0.3333333  0.1898382  )
         5        Zn     tau(   5) = (  0.3333333  0.1666667  0.7503168  )
         6        Zn     tau(   6) = (  0.1666667  0.3333333  0.5003168  )
         7        O      tau(   7) = (  0.3333333  0.1666667  0.9398382  )
         8        O      tau(   8) = (  0.1666667  0.3333333  0.6898382  )
         9        Zn     tau(   9) = (  0.3333333  0.6666667  0.2503168  )
        10        Zn     tau(  10) = (  0.1666667  0.8333333  0.0003168  )
        11        O      tau(  11) = (  0.3333333  0.6666667  0.4398382  )
        12        O      tau(  12) = (  0.1666667  0.8333333  0.1898382  )
        13        Zn     tau(  13) = (  0.3333333  0.6666667  0.7503168  )
        14        Zn     tau(  14) = (  0.1666667  0.8333333  0.5003168  )
        15        O      tau(  15) = (  0.3333333  0.6666667  0.9398382  )
        16        O      tau(  16) = (  0.1666667  0.8333333  0.6898382  )
        17        Zn     tau(  17) = (  0.8333333  0.1666667  0.2503168  )
        18        Zn     tau(  18) = (  0.6666667  0.3333333  0.0003168  )
        19        O      tau(  19) = (  0.8333333  0.1666667  0.4398382  )
        20        O      tau(  20) = (  0.6666667  0.3333333  0.1898382  )
        21        Zn     tau(  21) = (  0.8333333  0.1666667  0.7503168  )
        22        Zn     tau(  22) = (  0.6666667  0.3333333  0.5003168  )
        23        O      tau(  23) = (  0.8333333  0.1666667  0.9398382  )
        24        O      tau(  24) = (  0.6666667  0.3333333  0.6898382  )
        25        Zn     tau(  25) = (  0.8333333  0.6666667  0.2503168  )
        26        Zn     tau(  26) = (  0.6666667  0.8333333  0.0003168  )
        27        O      tau(  27) = (  0.8333333  0.6666667  0.4398382  )
        28        O      tau(  28) = (  0.6666667  0.8333333  0.1898382  )
        29        Zn     tau(  29) = (  0.8333333  0.6666667  0.7503168  )
        30        Zn     tau(  30) = (  0.6666667  0.8333333  0.5003168  )
        31        O      tau(  31) = (  0.8333333  0.6666667  0.9398382  )
        32        O      tau(  32) = (  0.6666667  0.8333333  0.6898382  )

     number of k points=    34
                       cart. coord. in units 2pi/alat
        k(    1) = (   0.0000000   0.0000000   0.0000000), wk =   0.0092593
        k(    2) = (   0.0000000   0.0000000   0.1012159), wk =   0.0185185
        k(    3) = (   0.0000000   0.0000000   0.2024317), wk =   0.0185185
        k(    4) = (   0.0000000   0.0000000  -0.3036476), wk =   0.0092593
        k(    5) = (   0.0000000   0.1924501   0.0000000), wk =   0.0555556
        k(    6) = (   0.0000000   0.1924501   0.1012159), wk =   0.0555556
        k(    7) = (   0.0000000   0.1924501   0.2024317), wk =   0.0555556
        k(    8) = (   0.0000000   0.1924501  -0.3036476), wk =   0.0555556
        k(    9) = (   0.0000000   0.3849002   0.0000000), wk =   0.0555556
        k(   10) = (   0.0000000   0.3849002   0.1012159), wk =   0.0555556
        k(   11) = (   0.0000000   0.3849002   0.2024317), wk =   0.0555556
        k(   12) = (   0.0000000   0.3849002  -0.3036476), wk =   0.0555556
        k(   13) = (   0.0000000  -0.5773503   0.0000000), wk =   0.0277778
        k(   14) = (   0.0000000  -0.5773503   0.1012159), wk =   0.0555556
        k(   15) = (   0.0000000  -0.5773503   0.2024317), wk =   0.0555556
        k(   16) = (   0.0000000  -0.5773503  -0.3036476), wk =   0.0277778
        k(   17) = (   0.1666667   0.2886751   0.0000000), wk =   0.0555556
[...]
     atom   12 type  2   force =     0.00000005   -0.00000003    0.05635192
     atom   13 type  1   force =     0.00000000    0.00000000    0.04750239
     atom   14 type  1   force =     0.00000029   -0.00000017    0.04750154
     atom   15 type  2   force =     0.00000000    0.00000000    0.05635216
     atom   16 type  2   force =    -0.00000014    0.00000008    0.05634976
     atom   17 type  1   force =    -0.00000078    0.00000045    0.04750113
     atom   18 type  1   force =     0.00000000    0.00000000    0.04750252
     atom   19 type  2   force =     0.00000040   -0.00000023    0.05635082
     atom   20 type  2   force =     0.00000000   -0.00000000    0.05635232
     atom   21 type  1   force =     0.00000031   -0.00000018    0.04750260
     atom   22 type  1   force =     0.00000000    0.00000000    0.04750166
     atom   23 type  2   force =     0.00000042   -0.00000024    0.05635158
     atom   24 type  2   force =     0.00000000   -0.00000000    0.05635080
     atom   25 type  1   force =     0.00000000   -0.00000090    0.04750113
     atom   26 type  1   force =     0.00000029    0.00000016    0.04750160
     atom   27 type  2   force =     0.00000000    0.00000047    0.05635082
     atom   28 type  2   force =    -0.00000005   -0.00000003    0.05635192
     atom   29 type  1   force =     0.00000000    0.00000036    0.04750260
     atom   30 type  1   force =    -0.00000029   -0.00000017    0.04750154
     atom   31 type  2   force =     0.00000000    0.00000049    0.05635158
     atom   32 type  2   force =     0.00000014    0.00000008    0.05634976
     The ionic contribution  to forces
     atom    1 type  1   force =    -0.00000000    0.00000000    0.42995591
     atom    2 type  1   force =     0.00000000   -0.00000000    0.42995591
     atom    3 type  2   force =    -0.00000000    0.00000000   -0.42995591
     atom    4 type  2   force =     0.00000000   -0.00000000   -0.42995591
     atom    5 type  1   force =    -0.00000000    0.00000000    0.42995591
     atom    6 type  1   force =     0.00000000   -0.00000000    0.42995591
     atom    7 type  2   force =    -0.00000000    0.00000000   -0.42995591
     atom    8 type  2   force =     0.00000000   -0.00000000   -0.42995591
     atom    9 type  1   force =    -0.00000000    0.00000000    0.42995591
     atom   10 type  1   force =     0.00000000   -0.00000000    0.42995591
     atom   11 type  2   force =    -0.00000000    0.00000000   -0.42995591
     atom   12 type  2   force =     0.00000000   -0.00000000   -0.42995591
     atom   13 type  1   force =    -0.00000000    0.00000000    0.42995591
     atom   14 type  1   force =     0.00000000   -0.00000000    0.42995591
     atom   15 type  2   force =    -0.00000000    0.00000000   -0.42995591
     atom   16 type  2   force =     0.00000000   -0.00000000   -0.42995591
     atom   17 type  1   force =    -0.00000000    0.00000000    0.42995591
     atom   18 type  1   force =     0.00000000   -0.00000000    0.42995591
     atom   19 type  2   force =    -0.00000000    0.00000000   -0.42995591
     atom   20 type  2   force =     0.00000000   -0.00000000   -0.42995591
     atom   21 type  1   force =    -0.00000000    0.00000000    0.42995591
     atom   22 type  1   force =     0.00000000   -0.00000000    0.42995591
     atom   23 type  2   force =    -0.00000000    0.00000000   -0.42995591
     atom   24 type  2   force =     0.00000000   -0.00000000   -0.42995591
     atom   25 type  1   force =    -0.00000000    0.00000000    0.42995591
     atom   26 type  1   force =     0.00000000   -0.00000000    0.42995591
     atom   27 type  2   force =    -0.00000000    0.00000000   -0.42995591
     atom   28 type  2   force =     0.00000000   -0.00000000   -0.42995591
     atom   29 type  1   force =    -0.00000000    0.00000000    0.42995591
     atom   30 type  1   force =     0.00000000   -0.00000000    0.42995591
     atom   31 type  2   force =    -0.00000000    0.00000000   -0.42995591
     atom   32 type  2   force =     0.00000000   -0.00000000   -0.42995591
     The local contribution  to forces
     atom    1 type  1   force =    -0.00000348   -0.00000190   -0.47338077
     atom    2 type  1   force =     0.00000009    0.00000103   -0.47337218
     atom    3 type  2   force =     0.00000007    0.00000007    0.37304052
     atom    4 type  2   force =     0.00000002   -0.00000012    0.37303876
     atom    5 type  1   force =     0.00000117    0.00000078   -0.47337058
     atom    6 type  1   force =     0.00000009   -0.00000135   -0.47337712
     atom    7 type  2   force =    -0.00000020   -0.00000009    0.37304555
     atom    8 type  2   force =     0.00000002    0.00000002    0.37304835
     atom    9 type  1   force =    -0.00000000    0.00000010   -0.47338334
     atom   10 type  1   force =     0.00000094   -0.00000044   -0.47337218
     atom   11 type  2   force =    -0.00000000    0.00000003    0.37304027
     atom   12 type  2   force =    -0.00000009    0.00000008    0.37303876
     atom   13 type  1   force =    -0.00000000    0.00000010   -0.47336870
     atom   14 type  1   force =    -0.00000113    0.00000075   -0.47337712
     atom   15 type  2   force =    -0.00000000    0.00000003    0.37304493
     atom   16 type  2   force =     0.00000003    0.00000001    0.37304835
     atom   17 type  1   force =     0.00000348   -0.00000190   -0.47338077
     atom   18 type  1   force =     0.00000009    0.00000005   -0.47337584
     atom   19 type  2   force =    -0.00000007    0.00000007    0.37304052
     atom   20 type  2   force =     0.00000002    0.00000001    0.37303933
     atom   21 type  1   force =    -0.00000117    0.00000078   -0.47337058
     atom   22 type  1   force =     0.00000009    0.00000005   -0.47337596
     atom   23 type  2   force =     0.00000020   -0.00000009    0.37304555
     atom   24 type  2   force =     0.00000002    0.00000001    0.37304691
     atom   25 type  1   force =     0.00000000    0.00000412   -0.47338077
     atom   26 type  1   force =    -0.00000076   -0.00000044   -0.47337218
     atom   27 type  2   force =    -0.00000000   -0.00000006    0.37304052
     atom   28 type  2   force =     0.00000014    0.00000008    0.37303876
     atom   29 type  1   force =     0.00000000   -0.00000125   -0.47337058
     atom   30 type  1   force =     0.00000131    0.00000075   -0.47337712
     atom   31 type  2   force =    -0.00000000    0.00000026    0.37304555
     atom   32 type  2   force =     0.00000001    0.00000001    0.37304835
     The core correction contribution to forces
     atom    1 type  1   force =     0.00000019    0.00000012   -0.00301622
     atom    2 type  1   force =     0.00000001    0.00000011   -0.00301715
     atom    3 type  2   force =     0.00000003    0.00000002   -0.00049878
     atom    4 type  2   force =    -0.00000000    0.00000003   -0.00050065
     atom    5 type  1   force =     0.00000009    0.00000007   -0.00301967
     atom    6 type  1   force =     0.00000001    0.00000015   -0.00301875
     atom    7 type  2   force =     0.00000003    0.00000002   -0.00050166
     atom    8 type  2   force =    -0.00000000    0.00000003   -0.00049977
     atom    9 type  1   force =    -0.00000000    0.00000001   -0.00301611
     atom   10 type  1   force =     0.00000010   -0.00000004   -0.00301715
     atom   11 type  2   force =    -0.00000000   -0.00000000   -0.00049875
     atom   12 type  2   force =     0.00000002   -0.00000001   -0.00050065
     atom   13 type  1   force =    -0.00000000    0.00000001   -0.00301965
     atom   14 type  1   force =     0.00000013   -0.00000006   -0.00301875
     atom   15 type  2   force =    -0.00000000   -0.00000000   -0.00050165
     atom   16 type  2   force =     0.00000003   -0.00000002   -0.00049977
     atom   17 type  1   force =    -0.00000019    0.00000012   -0.00301622
     atom   18 type  1   force =     0.00000001    0.00000001   -0.00301700
     atom   19 type  2   force =    -0.00000003    0.00000002   -0.00049878
     atom   20 type  2   force =    -0.00000000   -0.00000000   -0.00050063
     atom   21 type  1   force =    -0.00000009    0.00000007   -0.00301967
     atom   22 type  1   force =     0.00000001    0.00000001   -0.00301872
     atom   23 type  2   force =    -0.00000003    0.00000002   -0.00050166
     atom   24 type  2   force =    -0.00000000   -0.00000000   -0.00049976
     atom   25 type  1   force =    -0.00000000   -0.00000021   -0.00301622
     atom   26 type  1   force =    -0.00000008   -0.00000004   -0.00301715
     atom   27 type  2   force =    -0.00000000   -0.00000004   -0.00049878
     atom   28 type  2   force =    -0.00000002   -0.00000001   -0.00050065
     atom   29 type  1   force =    -0.00000000   -0.00000010   -0.00301967
     atom   30 type  1   force =    -0.00000011   -0.00000006   -0.00301875
     atom   31 type  2   force =    -0.00000000   -0.00000003   -0.00050166
     atom   32 type  2   force =    -0.00000003   -0.00000002   -0.00049977
     The Hubbard contrib.    to forces
     atom    1 type  1   force =     0.00000000    0.00000000    0.00000000
     atom    2 type  1   force =     0.00000000    0.00000000    0.00000000
     atom    3 type  2   force =     0.00000000    0.00000000    0.00000000
     atom    4 type  2   force =     0.00000000    0.00000000    0.00000000
     atom    5 type  1   force =     0.00000000    0.00000000    0.00000000
     atom    6 type  1   force =     0.00000000    0.00000000    0.00000000
     atom    7 type  2   force =     0.00000000    0.00000000    0.00000000
     atom    8 type  2   force =     0.00000000    0.00000000    0.00000000
     atom    9 type  1   force =     0.00000000    0.00000000    0.00000000
     atom   10 type  1   force =     0.00000000    0.00000000    0.00000000
     atom   11 type  2   force =     0.00000000    0.00000000    0.00000000
     atom   12 type  2   force =     0.00000000    0.00000000    0.00000000
     atom   13 type  1   force =     0.00000000    0.00000000    0.00000000
     atom   14 type  1   force =     0.00000000    0.00000000    0.00000000
     atom   15 type  2   force =     0.00000000    0.00000000    0.00000000
     atom   16 type  2   force =     0.00000000    0.00000000    0.00000000
     atom   17 type  1   force =     0.00000000    0.00000000    0.00000000
     atom   18 type  1   force =     0.00000000    0.00000000    0.00000000
     atom   19 type  2   force =     0.00000000    0.00000000    0.00000000
     atom   20 type  2   force =     0.00000000    0.00000000    0.00000000
     atom   21 type  1   force =     0.00000000    0.00000000    0.00000000
     atom   22 type  1   force =     0.00000000    0.00000000    0.00000000
     atom   23 type  2   force =     0.00000000    0.00000000    0.00000000
     atom   24 type  2   force =     0.00000000    0.00000000    0.00000000
     atom   25 type  1   force =     0.00000000    0.00000000    0.00000000
     atom   26 type  1   force =     0.00000000    0.00000000    0.00000000
     atom   27 type  2   force =     0.00000000    0.00000000    0.00000000
     atom   28 type  2   force =     0.00000000    0.00000000    0.00000000
     atom   29 type  1   force =     0.00000000    0.00000000    0.00000000
     atom   30 type  1   force =     0.00000000    0.00000000    0.00000000
     atom   31 type  2   force =     0.00000000    0.00000000    0.00000000
     atom   32 type  2   force =     0.00000000    0.00000000    0.00000000
     The SCF correction term to forces
     atom    1 type  1   force =     0.00000450    0.00000260    0.00000729
     atom    2 type  1   force =    -0.00000000   -0.00000161   -0.00000814
     atom    3 type  2   force =     0.00000011    0.00000006    0.00000136
     atom    4 type  2   force =     0.00000000    0.00000009    0.00000348
     atom    5 type  1   force =    -0.00000222   -0.00000128   -0.00001265
     atom    6 type  1   force =    -0.00000000    0.00000160   -0.00000071
     atom    7 type  2   force =     0.00000055    0.00000032   -0.00000321
     atom    8 type  2   force =     0.00000000    0.00000013   -0.00000609
     atom    9 type  1   force =     0.00000000   -0.00000000    0.00001075
     atom   10 type  1   force =    -0.00000140    0.00000081   -0.00000814
     atom   11 type  2   force =     0.00000000    0.00000000    0.00000187
     atom   12 type  2   force =     0.00000007   -0.00000004    0.00000348
     atom   13 type  1   force =     0.00000000   -0.00000000   -0.00001630
     atom   14 type  1   force =     0.00000139   -0.00000080   -0.00000071
     atom   15 type  2   force =     0.00000000    0.00000000   -0.00000306
     atom   16 type  2   force =     0.00000011   -0.00000006   -0.00000609
     atom   17 type  1   force =    -0.00000450    0.00000260    0.00000729
     atom   18 type  1   force =    -0.00000000   -0.00000000   -0.00000282
     atom   19 type  2   force =    -0.00000011    0.00000006    0.00000136
     atom   20 type  2   force =     0.00000000    0.00000000    0.00000250
     atom   21 type  1   force =     0.00000222   -0.00000128   -0.00001265
     atom   22 type  1   force =    -0.00000000   -0.00000000   -0.00000364
     atom   23 type  2   force =    -0.00000055    0.00000032   -0.00000321
     atom   24 type  2   force =     0.00000000    0.00000000   -0.00000518
     atom   25 type  1   force =     0.00000000   -0.00000520    0.00000729
     atom   26 type  1   force =     0.00000140    0.00000081   -0.00000814
     atom   27 type  2   force =     0.00000000   -0.00000013    0.00000136
     atom   28 type  2   force =    -0.00000007   -0.00000004    0.00000348
     atom   29 type  1   force =     0.00000000    0.00000256   -0.00001265
     atom   30 type  1   force =    -0.00000139   -0.00000080   -0.00000071
     atom   31 type  2   force =     0.00000000   -0.00000064   -0.00000321
     atom   32 type  2   force =    -0.00000011   -0.00000006   -0.00000609

     Total force =     0.006007     Total SCF correction =     0.000040
     Message from routine punch:
     Nothing written, as per user request (disk_io='none')

     General routines

     Parallel routines

   This run was terminated on:  14: 5:12  10Sep2025

   JOB DONE.
Note: The following floating-point exceptions are signalling: IEEE_INVALID_FLAG
Note: The following floating-point exceptions are signalling: IEEE_INVALID_FLAG
Note: The following floating-point exceptions are signalling: IEEE_INVALID_FLAG
Note: The following floating-point exceptions are signalling: IEEE_INVALID_FLAG
Note: The following floating-point exceptions are signalling: IEEE_INVALID_FLAG
Note: The following floating-point exceptions are signalling: IEEE_INVALID_FLAG
Note: The following floating-point exceptions are signalling: IEEE_INVALID_FLAG
Note: The following floating-point exceptions are signalling: IEEE_INVALID_FLAG
Note: The following floating-point exceptions are signalling: IEEE_INVALID_FLAG
Note: The following floating-point exceptions are signalling: IEEE_INVALID_FLAG
Note: The following floating-point exceptions are signalling: IEEE_INVALID_FLAG
Note: The following floating-point exceptions are signalling: IEEE_INVALID_FLAG
Note: The following floating-point exceptions are signalling: IEEE_INVALID_FLAG
Note: The following floating-point exceptions are signalling: IEEE_INVALID_FLAG
Note: The following floating-point exceptions are signalling: IEEE_INVALID_FLAG
Note: The following floating-point exceptions are signalling: IEEE_INVALID_FLAG
Note: The following floating-point exceptions are signalling: IEEE_INVALID_FLAG
Note: The following floating-point exceptions are signalling: IEEE_INVALID_FLAG
Note: The following floating-point exceptions are signalling: IEEE_INVALID_FLAG
Note: The following floating-point exceptions are signalling: IEEE_INVALID_FLAG
Note: The following floating-point exceptions are signalling: IEEE_INVALID_FLAG
Note: The following floating-point exceptions are signalling: IEEE_INVALID_FLAG
Note: The following floating-point exceptions are signalling: IEEE_INVALID_FLAG
Note: The following floating-point exceptions are signalling: IEEE_INVALID_FLAG
Note: The following floating-point exceptions are signalling: IEEE_INVALID_FLAG
Note: The following floating-point exceptions are signalling: IEEE_INVALID_FLAG
Note: The following floating-point exceptions are signalling: IEEE_INVALID_FLAG
Note: The following floating-point exceptions are signalling: IEEE_INVALID_FLAG
Note: The following floating-point exceptions are signalling: IEEE_INVALID_FLAG
Note: The following floating-point exceptions are signalling: IEEE_INVALID_FLAG
Note: The following floating-point exceptions are signalling: IEEE_INVALID_FLAG
Note: The following floating-point exceptions are signalling: IEEE_INVALID_FLAG