     Program PWSCF v.7.2 starts on  8Sep2025 at 21: 7: 9

     Reading input from /home/jvc/QEspresso7.2/ZnO_database/scripts/cell222.in/ZnO-3.01-1.45-222.in
Warning: card &CELL ignored
Warning: card / ignored
Warning: card &FCP ignored
Warning: card / ignored
Warning: card &RISM ignored
Warning: card / ignored

     Current dimensions of program PWSCF are:
     Max number of different atomic species (ntypx) = 10
     Max number of k-points (npk) =  40000
     Max angular momentum in pseudopotentials (lmaxx) =  4
     file Zn.upf: wavefunction(s)  3D renormalized
     Found identity + (  0.0000  0.0000 -0.5000) symmetry
     This is a supercell, fractional translations are disabled
     Message from routine setup:
     using ibrav=0 with symmetry is DISCOURAGED, use correct ibrav instead

     K-points division:     npool     =       2
     R & G space division:  proc/nbgrp/npool/nimage =      16
     Subspace diagonalization in iterative solution of the eigenvalue problem:
     a serial algorithm will be used

     Using Slab Decomposition

     bravais-lattice index     =            0
     lattice parameter (alat)  =      11.3691  a.u.
     unit-cell volume          =    1849.0572 (a.u.)^3
     number of atoms/cell      =           32
     number of atomic types    =            2
     number of electrons       =       288.00
     number of Kohn-Sham states=          144
     kinetic-energy cutoff     =      50.0000  Ry
     charge density cutoff     =     400.0000  Ry
     scf convergence threshold =      1.0E-08
     mixing beta               =       0.3000
     number of iterations used =            8  plain     mixing
     Exchange-correlation= PBE
                           (   1   4   3   4   0   0   0)

     celldm(1)=  11.369091  celldm(2)=   0.000000  celldm(3)=   0.000000
     celldm(4)=   0.000000  celldm(5)=   0.000000  celldm(6)=   0.000000

     crystal axes: (cart. coord. in units of alat)
               a(1) = (   1.000000   0.000000   0.000000 )
               a(2) = (  -0.500000   0.866025   0.000000 )
               a(3) = (   0.000000   0.000000   1.452923 )

     reciprocal axes: (cart. coord. in units 2 pi/alat)
               b(1) = (  1.000000  0.577350 -0.000000 )
               b(2) = (  0.000000  1.154701  0.000000 )
               b(3) = (  0.000000 -0.000000  0.688268 )

     PseudoPot. # 1 for Zn read from file:
     /home/jvc/QEspresso7.2/ZnO_database/pseudos/Zn.upf
     MD5 check sum: 7f56cabf9682ed8c977c2f7d0c5985c5
     Pseudo is Ultrasoft + core correction, Zval = 12.0
     Generated using &quot;atomic&quot; code by A. Dal Corso  v.6.2.2
     Using radial grid of 1201 points,  6 beta functions with:
                l(1) =   0
                l(2) =   0
                l(3) =   1
                l(4) =   1
                l(5) =   2
                l(6) =   2
     Q(r) pseudized with 0 coefficients

     PseudoPot. # 2 for O  read from file:
     /home/jvc/QEspresso7.2/ZnO_database/pseudos/O.upf
     MD5 check sum: 91400c9766925bcf19f520983a725ff0
     Pseudo is Ultrasoft + core correction, Zval =  6.0
     Generated using &quot;atomic&quot; code by A. Dal Corso  v.6.3MaX
     Using radial grid of 1095 points,  4 beta functions with:
                l(1) =   0
                l(2) =   0
                l(3) =   1
                l(4) =   1
     Q(r) pseudized with 0 coefficients

     atomic species   valence    mass     pseudopotential
        Zn            12.00    65.38000     Zn( 1.00)
        O              6.00    15.99900     O ( 1.00)

      6 Sym. Ops. (no inversion) found

                                    s                        frac. trans.

      isym =  1     identity

 cryst.   s( 1) = (     1          0          0      )
                  (     0          1          0      )
                  (     0          0          1      )

 cart.    s( 1) = (  1.0000000  0.0000000  0.0000000 )
                  (  0.0000000  1.0000000  0.0000000 )
                  (  0.0000000  0.0000000  1.0000000 )

      isym =  2     120 deg rotation - cryst. axis [0,0,1]

[...]

      isym =  3     120 deg rotation - cryst. axis [0,0,-1]

[...]

      isym =  4     inv. 180 deg rotation - cart. axis [1,0,0]

[...]

      isym =  5     inv. 180 deg rotation - cryst. axis [0,1,0]

[...]

      isym =  6     inv. 180 deg rotation - cryst. axis [1,1,0]

 cryst.   s( 6) = (     0         -1          0      )
                  (    -1          0          0      )
                  (     0          0          1      )

 cart.    s( 6) = (  0.5000000 -0.8660254  0.0000000 )
                  ( -0.8660254 -0.5000000  0.0000000 )
                  (  0.0000000  0.0000000  1.0000000 )

   Cartesian axes

     site n.     atom                  positions (alat units)
         1           Zn  tau(   1) = (   0.2500000   0.1443376   0.3636909  )
         2           Zn  tau(   2) = (  -0.0000000   0.2886751   0.0004603  )
         3           O   tau(   3) = (   0.2500000   0.1443376   0.6390508  )
         4           O   tau(   4) = (  -0.0000000   0.2886751   0.2758202  )
         5           Zn  tau(   5) = (   0.2500000   0.1443376   1.0901522  )
         6           Zn  tau(   6) = (  -0.0000000   0.2886751   0.7269215  )
         7           O   tau(   7) = (   0.2500000   0.1443376   1.3655121  )
         8           O   tau(   8) = (  -0.0000000   0.2886751   1.0022815  )
         9           Zn  tau(   9) = (   0.0000000   0.5773503   0.3636909  )
        10           Zn  tau(  10) = (  -0.2500000   0.7216878   0.0004603  )
        11           O   tau(  11) = (   0.0000000   0.5773503   0.6390508  )
        12           O   tau(  12) = (  -0.2500000   0.7216878   0.2758202  )
        13           Zn  tau(  13) = (   0.0000000   0.5773503   1.0901522  )
        14           Zn  tau(  14) = (  -0.2500000   0.7216878   0.7269215  )
        15           O   tau(  15) = (   0.0000000   0.5773503   1.3655121  )
        16           O   tau(  16) = (  -0.2500000   0.7216878   1.0022815  )
        17           Zn  tau(  17) = (   0.7500000   0.1443376   0.3636909  )
        18           Zn  tau(  18) = (   0.5000000   0.2886751   0.0004603  )
        19           O   tau(  19) = (   0.7500000   0.1443376   0.6390508  )
        20           O   tau(  20) = (   0.5000000   0.2886751   0.2758202  )
        21           Zn  tau(  21) = (   0.7500000   0.1443376   1.0901522  )
        22           Zn  tau(  22) = (   0.5000000   0.2886751   0.7269215  )
        23           O   tau(  23) = (   0.7500000   0.1443376   1.3655121  )
        24           O   tau(  24) = (   0.5000000   0.2886751   1.0022815  )
        25           Zn  tau(  25) = (   0.5000000   0.5773503   0.3636909  )
        26           Zn  tau(  26) = (   0.2500000   0.7216878   0.0004603  )
        27           O   tau(  27) = (   0.5000000   0.5773503   0.6390508  )
        28           O   tau(  28) = (   0.2500000   0.7216878   0.2758202  )
        29           Zn  tau(  29) = (   0.5000000   0.5773503   1.0901522  )
        30           Zn  tau(  30) = (   0.2500000   0.7216878   0.7269215  )
        31           O   tau(  31) = (   0.5000000   0.5773503   1.3655121  )
        32           O   tau(  32) = (   0.2500000   0.7216878   1.0022815  )

   Crystallographic axes

     site n.     atom                  positions (cryst. coord.)
         1           Zn  tau(   1) = (  0.3333333  0.1666667  0.2503168  )
         2           Zn  tau(   2) = (  0.1666667  0.3333333  0.0003168  )
         3           O   tau(   3) = (  0.3333333  0.1666667  0.4398382  )
         4           O   tau(   4) = (  0.1666667  0.3333333  0.1898382  )
         5           Zn  tau(   5) = (  0.3333333  0.1666667  0.7503168  )
         6           Zn  tau(   6) = (  0.1666667  0.3333333  0.5003168  )
         7           O   tau(   7) = (  0.3333333  0.1666667  0.9398382  )
         8           O   tau(   8) = (  0.1666667  0.3333333  0.6898382  )
         9           Zn  tau(   9) = (  0.3333333  0.6666667  0.2503168  )
        10           Zn  tau(  10) = (  0.1666667  0.8333333  0.0003168  )
        11           O   tau(  11) = (  0.3333333  0.6666667  0.4398382  )
        12           O   tau(  12) = (  0.1666667  0.8333333  0.1898382  )
        13           Zn  tau(  13) = (  0.3333333  0.6666667  0.7503168  )
        14           Zn  tau(  14) = (  0.1666667  0.8333333  0.5003168  )
        15           O   tau(  15) = (  0.3333333  0.6666667  0.9398382  )
        16           O   tau(  16) = (  0.1666667  0.8333333  0.6898382  )
        17           Zn  tau(  17) = (  0.8333333  0.1666667  0.2503168  )
        18           Zn  tau(  18) = (  0.6666667  0.3333333  0.0003168  )
        19           O   tau(  19) = (  0.8333333  0.1666667  0.4398382  )
        20           O   tau(  20) = (  0.6666667  0.3333333  0.1898382  )
        21           Zn  tau(  21) = (  0.8333333  0.1666667  0.7503168  )
        22           Zn  tau(  22) = (  0.6666667  0.3333333  0.5003168  )
        23           O   tau(  23) = (  0.8333333  0.1666667  0.9398382  )
        24           O   tau(  24) = (  0.6666667  0.3333333  0.6898382  )
        25           Zn  tau(  25) = (  0.8333333  0.6666667  0.2503168  )
        26           Zn  tau(  26) = (  0.6666667  0.8333333  0.0003168  )
        27           O   tau(  27) = (  0.8333333  0.6666667  0.4398382  )
        28           O   tau(  28) = (  0.6666667  0.8333333  0.1898382  )
        29           Zn  tau(  29) = (  0.8333333  0.6666667  0.7503168  )
        30           Zn  tau(  30) = (  0.6666667  0.8333333  0.5003168  )
        31           O   tau(  31) = (  0.8333333  0.6666667  0.9398382  )
        32           O   tau(  32) = (  0.6666667  0.8333333  0.6898382  )

     number of k points=    34
                       cart. coord. in units 2pi/alat
        k(    1) = (   0.0000000   0.0000000   0.0000000), wk =   0.0092593
        k(    2) = (   0.0000000   0.0000000   0.1147113), wk =   0.0185185
        k(    3) = (   0.0000000   0.0000000   0.2294226), wk =   0.0185185
        k(    4) = (   0.0000000   0.0000000  -0.3441340), wk =   0.0092593
        k(    5) = (   0.0000000   0.1924501   0.0000000), wk =   0.0555556
        k(    6) = (   0.0000000   0.1924501   0.1147113), wk =   0.0555556
        k(    7) = (   0.0000000   0.1924501   0.2294226), wk =   0.0555556
        k(    8) = (   0.0000000   0.1924501  -0.3441340), wk =   0.0555556
        k(    9) = (   0.0000000   0.3849002   0.0000000), wk =   0.0555556
        k(   10) = (   0.0000000   0.3849002   0.1147113), wk =   0.0555556
        k(   11) = (   0.0000000   0.3849002   0.2294226), wk =   0.0555556
        k(   12) = (   0.0000000   0.3849002  -0.3441340), wk =   0.0555556
        k(   13) = (   0.0000000  -0.5773503   0.0000000), wk =   0.0277778
        k(   14) = (   0.0000000  -0.5773503   0.1147113), wk =   0.0555556
        k(   15) = (   0.0000000  -0.5773503   0.2294226), wk =   0.0555556
        k(   16) = (   0.0000000  -0.5773503  -0.3441340), wk =   0.0277778
        k(   17) = (   0.1666667   0.2886751   0.0000000), wk =   0.0555556
[...]
     atom   12 type  2   force =     0.00000018   -0.00000010    0.17910627
     atom   13 type  1   force =     0.00000000    0.00000000   -0.17910542
     atom   14 type  1   force =     0.00000653   -0.00000377   -0.17910793
     atom   15 type  2   force =     0.00000000   -0.00000000    0.17910596
     atom   16 type  2   force =    -0.00000018    0.00000011    0.17910617
     atom   17 type  1   force =    -0.00000174    0.00000100   -0.17911273
     atom   18 type  1   force =     0.00000000    0.00000000   -0.17910168
     atom   19 type  2   force =     0.00000012   -0.00000007    0.17910660
     atom   20 type  2   force =    -0.00000000   -0.00000000    0.17910616
     atom   21 type  1   force =    -0.00000403    0.00000233   -0.17910553
     atom   22 type  1   force =     0.00000000    0.00000000   -0.17910631
     atom   23 type  2   force =     0.00000007   -0.00000004    0.17910635
     atom   24 type  2   force =     0.00000000    0.00000000    0.17910569
     atom   25 type  1   force =     0.00000000   -0.00000201   -0.17911273
     atom   26 type  1   force =    -0.00000043   -0.00000025   -0.17910047
     atom   27 type  2   force =    -0.00000000    0.00000014    0.17910660
     atom   28 type  2   force =    -0.00000018   -0.00000010    0.17910627
     atom   29 type  1   force =    -0.00000000   -0.00000465   -0.17910553
     atom   30 type  1   force =    -0.00000653   -0.00000377   -0.17910793
     atom   31 type  2   force =     0.00000000    0.00000008    0.17910635
     atom   32 type  2   force =     0.00000018    0.00000011    0.17910617
     The non-local contrib.  to forces
     atom    1 type  1   force =     0.00000129    0.00000074   -0.37103206
     atom    2 type  1   force =     0.00000000    0.00000108   -0.37102490
     atom    3 type  2   force =    -0.00000177   -0.00000102   -0.19036684
     atom    4 type  2   force =     0.00000000   -0.00000070   -0.19036704
     atom    5 type  1   force =     0.00000267    0.00000154   -0.37102709
     atom    6 type  1   force =     0.00000000    0.00000504   -0.37102986
     atom    7 type  2   force =    -0.00000051   -0.00000030   -0.19036983
     atom    8 type  2   force =     0.00000000   -0.00000238   -0.19036949
     atom    9 type  1   force =     0.00000000    0.00000000   -0.37102742
     atom   10 type  1   force =     0.00000093   -0.00000054   -0.37102490
     atom   11 type  2   force =     0.00000000   -0.00000000   -0.19036632
     atom   12 type  2   force =    -0.00000061    0.00000035   -0.19036704
     atom   13 type  1   force =     0.00000000    0.00000000   -0.37102783
     atom   14 type  1   force =     0.00000437   -0.00000252   -0.37102986
     atom   15 type  2   force =     0.00000000    0.00000000   -0.19037038
     atom   16 type  2   force =    -0.00000206    0.00000119   -0.19036949
     atom   17 type  1   force =    -0.00000129    0.00000074   -0.37103206
     atom   18 type  1   force =     0.00000000    0.00000000   -0.37102561
     atom   19 type  2   force =     0.00000177   -0.00000102   -0.19036684
     atom   20 type  2   force =     0.00000000    0.00000000   -0.19036718
     atom   21 type  1   force =    -0.00000267    0.00000154   -0.37102709
     atom   22 type  1   force =     0.00000000    0.00000000   -0.37102769
     atom   23 type  2   force =     0.00000051   -0.00000030   -0.19036983
     atom   24 type  2   force =     0.00000000    0.00000000   -0.19037021
     atom   25 type  1   force =     0.00000000   -0.00000149   -0.37103206
     atom   26 type  1   force =    -0.00000093   -0.00000054   -0.37102490
     atom   27 type  2   force =     0.00000000    0.00000204   -0.19036684
     atom   28 type  2   force =     0.00000061    0.00000035   -0.19036704
     atom   29 type  1   force =     0.00000000   -0.00000308   -0.37102709
     atom   30 type  1   force =    -0.00000437   -0.00000252   -0.37102986
     atom   31 type  2   force =     0.00000000    0.00000059   -0.19036983
     atom   32 type  2   force =     0.00000206    0.00000119   -0.19036949
     The ionic contribution  to forces
     atom    1 type  1   force =     0.00000000    0.00000003   -2.67035677
     atom    2 type  1   force =     0.00000002    0.00000001   -2.67035677
     atom    3 type  2   force =     0.00000000    0.00000002    2.67035677
     atom    4 type  2   force =     0.00000001    0.00000000    2.67035677
     atom    5 type  1   force =     0.00000000    0.00000003   -2.67035677
     atom    6 type  1   force =     0.00000002    0.00000001   -2.67035677
     atom    7 type  2   force =     0.00000000    0.00000002    2.67035677
     atom    8 type  2   force =     0.00000001    0.00000000    2.67035677
     atom    9 type  1   force =     0.00000001   -0.00000000   -2.67035677
     atom   10 type  1   force =     0.00000001   -0.00000001   -2.67035677
     atom   11 type  2   force =     0.00000001    0.00000000    2.67035677
     atom   12 type  2   force =     0.00000001   -0.00000001    2.67035677
     atom   13 type  1   force =     0.00000001   -0.00000000   -2.67035677
     atom   14 type  1   force =     0.00000001   -0.00000001   -2.67035677
     atom   15 type  2   force =     0.00000001    0.00000000    2.67035677
     atom   16 type  2   force =     0.00000001   -0.00000001    2.67035677
     atom   17 type  1   force =     0.00000000    0.00000000   -2.67035676
     atom   18 type  1   force =    -0.00000002    0.00000001   -2.67035677
     atom   19 type  2   force =     0.00000000    0.00000000    2.67035676
     atom   20 type  2   force =    -0.00000001    0.00000000    2.67035677
     atom   21 type  1   force =     0.00000000    0.00000000   -2.67035676
     atom   22 type  1   force =    -0.00000002    0.00000001   -2.67035677
     atom   23 type  2   force =     0.00000000    0.00000000    2.67035676
     atom   24 type  2   force =    -0.00000001    0.00000000    2.67035677
     atom   25 type  1   force =    -0.00000003   -0.00000000   -2.67035677
     atom   26 type  1   force =     0.00000001   -0.00000003   -2.67035677
     atom   27 type  2   force =    -0.00000002    0.00000000    2.67035677
     atom   28 type  2   force =     0.00000001   -0.00000002    2.67035677
     atom   29 type  1   force =    -0.00000003   -0.00000000   -2.67035677
     atom   30 type  1   force =     0.00000001   -0.00000003   -2.67035677
     atom   31 type  2   force =    -0.00000002    0.00000000    2.67035677
     atom   32 type  2   force =     0.00000001   -0.00000002    2.67035677
     The local contribution  to forces
     atom    1 type  1   force =    -0.00000295   -0.00000161    2.82267770
     atom    2 type  1   force =     0.00000008   -0.00000278    2.82265392
     atom    3 type  2   force =    -0.00000157   -0.00000088   -2.30161742
     atom    4 type  2   force =     0.00000002   -0.00000136   -2.30162006
     atom    5 type  1   force =    -0.00000852   -0.00000483    2.82266348
     atom    6 type  1   force =     0.00000008   -0.00001629    2.82266673
     atom    7 type  2   force =     0.00000013    0.00000010   -2.30162550
     atom    8 type  2   force =     0.00000002   -0.00000004   -2.30162333
     atom    9 type  1   force =     0.00000000    0.00000009    2.82266081
     atom   10 type  1   force =    -0.00000244    0.00000132    2.82265392
     atom   11 type  2   force =     0.00000000    0.00000002   -2.30161795
     atom   12 type  2   force =    -0.00000119    0.00000066   -2.30162006
     atom   13 type  1   force =     0.00000000    0.00000009    2.82266245
     atom   14 type  1   force =    -0.00001415    0.00000808    2.82266673
     atom   15 type  2   force =     0.00000000    0.00000002   -2.30162309
     atom   16 type  2   force =    -0.00000004    0.00000000   -2.30162333
     atom   17 type  1   force =     0.00000295   -0.00000161    2.82267770
     atom   18 type  1   force =    -0.00000008    0.00000004    2.82265497
     atom   19 type  2   force =     0.00000157   -0.00000088   -2.30161742
     atom   20 type  2   force =    -0.00000002    0.00000001   -2.30162014
     atom   21 type  1   force =     0.00000852   -0.00000483    2.82266348
     atom   22 type  1   force =    -0.00000008    0.00000004    2.82265695
     atom   23 type  2   force =    -0.00000013    0.00000010   -2.30162550
     atom   24 type  2   force =    -0.00000002    0.00000001   -2.30162086
     atom   25 type  1   force =    -0.00000015    0.00000349    2.82267770
     atom   26 type  1   force =     0.00000244    0.00000132    2.82265392
     atom   27 type  2   force =    -0.00000004    0.00000183   -2.30161742
     atom   28 type  2   force =     0.00000119    0.00000066   -2.30162006
     atom   29 type  1   force =    -0.00000015    0.00000992    2.82266348
     atom   30 type  1   force =     0.00001415    0.00000808    2.82266673
     atom   31 type  2   force =    -0.00000004   -0.00000013   -2.30162550
     atom   32 type  2   force =     0.00000004    0.00000000   -2.30162333
     The core correction contribution to forces
     atom    1 type  1   force =    -0.00000001    0.00000001    0.03962047
     atom    2 type  1   force =     0.00000001    0.00000006    0.03962083
     atom    3 type  2   force =     0.00000006    0.00000004    0.00073431
     atom    4 type  2   force =    -0.00000000    0.00000005    0.00073430
     atom    5 type  1   force =     0.00000013    0.00000009    0.03962063
     atom    6 type  1   force =     0.00000001    0.00000028    0.03962080
     atom    7 type  2   force =     0.00000005    0.00000003    0.00073433
     atom    8 type  2   force =    -0.00000000    0.00000008    0.00073433
     atom    9 type  1   force =     0.00000000    0.00000001    0.03962085
     atom   10 type  1   force =     0.00000004   -0.00000004    0.03962083
     atom   11 type  2   force =     0.00000000   -0.00000000    0.00073432
     atom   12 type  2   force =     0.00000004   -0.00000003    0.00073430
     atom   13 type  1   force =     0.00000000    0.00000001    0.03962082
     atom   14 type  1   force =     0.00000024   -0.00000015    0.03962080
     atom   15 type  2   force =     0.00000000   -0.00000000    0.00073436
     atom   16 type  2   force =     0.00000007   -0.00000004    0.00073433
     atom   17 type  1   force =     0.00000001    0.00000001    0.03962047
     atom   18 type  1   force =    -0.00000001    0.00000001    0.03962091
     atom   19 type  2   force =    -0.00000006    0.00000004    0.00073431
     atom   20 type  2   force =     0.00000000   -0.00000000    0.00073432
     atom   21 type  1   force =    -0.00000013    0.00000009    0.03962063
     atom   22 type  1   force =    -0.00000001    0.00000001    0.03962118
     atom   23 type  2   force =    -0.00000005    0.00000003    0.00073433
     atom   24 type  2   force =     0.00000000   -0.00000000    0.00073436
     atom   25 type  1   force =    -0.00000002    0.00000002    0.03962047
     atom   26 type  1   force =    -0.00000004   -0.00000004    0.03962083
     atom   27 type  2   force =     0.00000000   -0.00000007    0.00073431
     atom   28 type  2   force =    -0.00000004   -0.00000003    0.00073430
     atom   29 type  1   force =    -0.00000002   -0.00000014    0.03962063
     atom   30 type  1   force =    -0.00000024   -0.00000015    0.03962080
     atom   31 type  2   force =     0.00000000   -0.00000006    0.00073433
     atom   32 type  2   force =    -0.00000007   -0.00000004    0.00073433
     The Hubbard contrib.    to forces
     atom    1 type  1   force =     0.00000000    0.00000000    0.00000000
     atom    2 type  1   force =     0.00000000    0.00000000    0.00000000
     atom    3 type  2   force =     0.00000000    0.00000000    0.00000000
     atom    4 type  2   force =     0.00000000    0.00000000    0.00000000
     atom    5 type  1   force =     0.00000000    0.00000000    0.00000000
     atom    6 type  1   force =     0.00000000    0.00000000    0.00000000
     atom    7 type  2   force =     0.00000000    0.00000000    0.00000000
     atom    8 type  2   force =     0.00000000    0.00000000    0.00000000
     atom    9 type  1   force =     0.00000000    0.00000000    0.00000000
     atom   10 type  1   force =     0.00000000    0.00000000    0.00000000
     atom   11 type  2   force =     0.00000000    0.00000000    0.00000000
     atom   12 type  2   force =     0.00000000    0.00000000    0.00000000
     atom   13 type  1   force =     0.00000000    0.00000000    0.00000000
     atom   14 type  1   force =     0.00000000    0.00000000    0.00000000
     atom   15 type  2   force =     0.00000000    0.00000000    0.00000000
     atom   16 type  2   force =     0.00000000    0.00000000    0.00000000
     atom   17 type  1   force =     0.00000000    0.00000000    0.00000000
     atom   18 type  1   force =     0.00000000    0.00000000    0.00000000
     atom   19 type  2   force =     0.00000000    0.00000000    0.00000000
     atom   20 type  2   force =     0.00000000    0.00000000    0.00000000
     atom   21 type  1   force =     0.00000000    0.00000000    0.00000000
     atom   22 type  1   force =     0.00000000    0.00000000    0.00000000
     atom   23 type  2   force =     0.00000000    0.00000000    0.00000000
     atom   24 type  2   force =     0.00000000    0.00000000    0.00000000
     atom   25 type  1   force =     0.00000000    0.00000000    0.00000000
     atom   26 type  1   force =     0.00000000    0.00000000    0.00000000
     atom   27 type  2   force =     0.00000000    0.00000000    0.00000000
     atom   28 type  2   force =     0.00000000    0.00000000    0.00000000
     atom   29 type  1   force =     0.00000000    0.00000000    0.00000000
     atom   30 type  1   force =     0.00000000    0.00000000    0.00000000
     atom   31 type  2   force =     0.00000000    0.00000000    0.00000000
     atom   32 type  2   force =     0.00000000    0.00000000    0.00000000
     The SCF correction term to forces
     atom    1 type  1   force =     0.00000340    0.00000196   -0.00002207
     atom    2 type  1   force =    -0.00000000    0.00000213    0.00000644
     atom    3 type  2   force =     0.00000315    0.00000182   -0.00000022
     atom    4 type  2   force =    -0.00000000    0.00000221    0.00000230
     atom    5 type  1   force =     0.00000974    0.00000562   -0.00000578
     atom    6 type  1   force =    -0.00000000    0.00001850   -0.00000883
     atom    7 type  2   force =     0.00000026    0.00000015    0.00001058
     atom    8 type  2   force =    -0.00000000    0.00000212    0.00000789
     atom    9 type  1   force =    -0.00000000   -0.00000000   -0.00000426
     atom   10 type  1   force =     0.00000185   -0.00000107    0.00000644
     atom   11 type  2   force =    -0.00000000   -0.00000000   -0.00000064
     atom   12 type  2   force =     0.00000191   -0.00000110    0.00000230
     atom   13 type  1   force =    -0.00000000   -0.00000000   -0.00000409
     atom   14 type  1   force =     0.00001602   -0.00000925   -0.00000883
     atom   15 type  2   force =    -0.00000000   -0.00000000    0.00000830
     atom   16 type  2   force =     0.00000183   -0.00000106    0.00000789
     atom   17 type  1   force =    -0.00000340    0.00000196   -0.00002207
     atom   18 type  1   force =     0.00000000   -0.00000000    0.00000482
     atom   19 type  2   force =    -0.00000315    0.00000182   -0.00000022
     atom   20 type  2   force =     0.00000000   -0.00000000    0.00000240
     atom   21 type  1   force =    -0.00000974    0.00000562   -0.00000578
     atom   22 type  1   force =     0.00000000   -0.00000000    0.00000001
     atom   23 type  2   force =    -0.00000026    0.00000015    0.00001058
     atom   24 type  2   force =     0.00000000   -0.00000000    0.00000564
     atom   25 type  1   force =     0.00000000   -0.00000393   -0.00002207
     atom   26 type  1   force =    -0.00000185   -0.00000107    0.00000644
     atom   27 type  2   force =     0.00000000   -0.00000364   -0.00000022
     atom   28 type  2   force =    -0.00000191   -0.00000110    0.00000230
     atom   29 type  1   force =     0.00000000   -0.00001125   -0.00000578
     atom   30 type  1   force =    -0.00001602   -0.00000925   -0.00000883
     atom   31 type  2   force =     0.00000000   -0.00000030    0.00001058
     atom   32 type  2   force =    -0.00000183   -0.00000106    0.00000789

     Total force =     1.013178     Total SCF correction =     0.000064

     General routines

     Parallel routines

   This run was terminated on:  21:22:11   8Sep2025

   JOB DONE.
Note: The following floating-point exceptions are signalling: IEEE_INVALID_FLAG
Note: The following floating-point exceptions are signalling: IEEE_INVALID_FLAG