     Program PWSCF v.7.2 starts on 11Sep2025 at  0:21:24

     Reading input from /home/jvc/QEspresso7.2/ZnO_database/scripts/cell222.in/ZnO-3.47-1.68-222.in
Warning: card &CELL ignored
Warning: card / ignored
Warning: card &FCP ignored
Warning: card / ignored
Warning: card &RISM ignored
Warning: card / ignored

     Current dimensions of program PWSCF are:
     Max number of different atomic species (ntypx) = 10
     Max number of k-points (npk) =  40000
     Max angular momentum in pseudopotentials (lmaxx) =  4
     file Zn.upf: wavefunction(s)  3D renormalized
     Found identity + (  0.0000  0.0000  0.5000) symmetry
     This is a supercell, fractional translations are disabled
     Message from routine setup:
     using ibrav=0 with symmetry is DISCOURAGED, use correct ibrav instead

     K-points division:     npool     =       2
     R & G space division:  proc/nbgrp/npool/nimage =      16
     Subspace diagonalization in iterative solution of the eigenvalue problem:
     a serial algorithm will be used

     Using Slab Decomposition

     bravais-lattice index     =            0
     lattice parameter (alat)  =      13.0992  a.u.
     unit-cell volume          =    3268.0997 (a.u.)^3
     number of atoms/cell      =           32
     number of atomic types    =            2
     number of electrons       =       288.00
     number of Kohn-Sham states=          144
     kinetic-energy cutoff     =      50.0000  Ry
     charge density cutoff     =     400.0000  Ry
     scf convergence threshold =      1.0E-08
     mixing beta               =       0.3000
     number of iterations used =            8  plain     mixing
     Exchange-correlation= PBE
                           (   1   4   3   4   0   0   0)

     celldm(1)=  13.099170  celldm(2)=   0.000000  celldm(3)=   0.000000
     celldm(4)=   0.000000  celldm(5)=   0.000000  celldm(6)=   0.000000

     crystal axes: (cart. coord. in units of alat)
               a(1) = (   1.000000   0.000000   0.000000 )
               a(2) = (  -0.500000   0.866025   0.000000 )
               a(3) = (   0.000000   0.000000   1.678933 )

     reciprocal axes: (cart. coord. in units 2 pi/alat)
               b(1) = (  1.000000  0.577350 -0.000000 )
               b(2) = (  0.000000  1.154701  0.000000 )
               b(3) = (  0.000000 -0.000000  0.595616 )

     PseudoPot. # 1 for Zn read from file:
     /home/jvc/QEspresso7.2/ZnO_database/pseudos/Zn.upf
     MD5 check sum: 7f56cabf9682ed8c977c2f7d0c5985c5
     Pseudo is Ultrasoft + core correction, Zval = 12.0
     Generated using &quot;atomic&quot; code by A. Dal Corso  v.6.2.2
     Using radial grid of 1201 points,  6 beta functions with:
                l(1) =   0
                l(2) =   0
                l(3) =   1
                l(4) =   1
                l(5) =   2
                l(6) =   2
     Q(r) pseudized with 0 coefficients

     PseudoPot. # 2 for O  read from file:
     /home/jvc/QEspresso7.2/ZnO_database/pseudos/O.upf
     MD5 check sum: 91400c9766925bcf19f520983a725ff0
     Pseudo is Ultrasoft + core correction, Zval =  6.0
     Generated using &quot;atomic&quot; code by A. Dal Corso  v.6.3MaX
     Using radial grid of 1095 points,  4 beta functions with:
                l(1) =   0
                l(2) =   0
                l(3) =   1
                l(4) =   1
     Q(r) pseudized with 0 coefficients

     atomic species   valence    mass     pseudopotential
        Zn            12.00    65.38000     Zn( 1.00)
        O              6.00    15.99900     O ( 1.00)

      6 Sym. Ops. (no inversion) found

                                    s                        frac. trans.

      isym =  1     identity

 cryst.   s( 1) = (     1          0          0      )
                  (     0          1          0      )
                  (     0          0          1      )

 cart.    s( 1) = (  1.0000000  0.0000000  0.0000000 )
                  (  0.0000000  1.0000000  0.0000000 )
                  (  0.0000000  0.0000000  1.0000000 )

      isym =  2     120 deg rotation - cryst. axis [0,0,1]

[...]

      isym =  3     120 deg rotation - cryst. axis [0,0,-1]

[...]

      isym =  4     inv. 180 deg rotation - cart. axis [1,0,0]

[...]

      isym =  5     inv. 180 deg rotation - cryst. axis [0,1,0]

[...]

      isym =  6     inv. 180 deg rotation - cryst. axis [1,1,0]

 cryst.   s( 6) = (     0         -1          0      )
                  (    -1          0          0      )
                  (     0          0          1      )

 cart.    s( 6) = (  0.5000000 -0.8660254  0.0000000 )
                  ( -0.8660254 -0.5000000  0.0000000 )
                  (  0.0000000  0.0000000  1.0000000 )

   Cartesian axes

     site n.     atom                  positions (alat units)
         1           Zn  tau(   1) = (   0.2500000   0.1443376   0.4202650  )
         2           Zn  tau(   2) = (  -0.0000000   0.2886751   0.0005319  )
         3           O   tau(   3) = (   0.2500000   0.1443376   0.7384587  )
         4           O   tau(   4) = (  -0.0000000   0.2886751   0.3187256  )
         5           Zn  tau(   5) = (   0.2500000   0.1443376   1.2597314  )
         6           Zn  tau(   6) = (  -0.0000000   0.2886751   0.8399982  )
         7           O   tau(   7) = (   0.2500000   0.1443376   1.5779251  )
         8           O   tau(   8) = (  -0.0000000   0.2886751   1.1581919  )
         9           Zn  tau(   9) = (   0.0000000   0.5773503   0.4202650  )
        10           Zn  tau(  10) = (  -0.2500000   0.7216878   0.0005319  )
        11           O   tau(  11) = (   0.0000000   0.5773503   0.7384587  )
        12           O   tau(  12) = (  -0.2500000   0.7216878   0.3187256  )
        13           Zn  tau(  13) = (   0.0000000   0.5773503   1.2597314  )
        14           Zn  tau(  14) = (  -0.2500000   0.7216878   0.8399982  )
        15           O   tau(  15) = (   0.0000000   0.5773503   1.5779251  )
        16           O   tau(  16) = (  -0.2500000   0.7216878   1.1581919  )
        17           Zn  tau(  17) = (   0.7500000   0.1443376   0.4202650  )
        18           Zn  tau(  18) = (   0.5000000   0.2886751   0.0005319  )
        19           O   tau(  19) = (   0.7500000   0.1443376   0.7384587  )
        20           O   tau(  20) = (   0.5000000   0.2886751   0.3187256  )
        21           Zn  tau(  21) = (   0.7500000   0.1443376   1.2597314  )
        22           Zn  tau(  22) = (   0.5000000   0.2886751   0.8399982  )
        23           O   tau(  23) = (   0.7500000   0.1443376   1.5779251  )
        24           O   tau(  24) = (   0.5000000   0.2886751   1.1581919  )
        25           Zn  tau(  25) = (   0.5000000   0.5773503   0.4202650  )
        26           Zn  tau(  26) = (   0.2500000   0.7216878   0.0005319  )
        27           O   tau(  27) = (   0.5000000   0.5773503   0.7384587  )
        28           O   tau(  28) = (   0.2500000   0.7216878   0.3187256  )
        29           Zn  tau(  29) = (   0.5000000   0.5773503   1.2597314  )
        30           Zn  tau(  30) = (   0.2500000   0.7216878   0.8399982  )
        31           O   tau(  31) = (   0.5000000   0.5773503   1.5779251  )
        32           O   tau(  32) = (   0.2500000   0.7216878   1.1581919  )

   Crystallographic axes

     site n.     atom                  positions (cryst. coord.)
         1           Zn  tau(   1) = (  0.3333333  0.1666667  0.2503168  )
         2           Zn  tau(   2) = (  0.1666667  0.3333333  0.0003168  )
         3           O   tau(   3) = (  0.3333333  0.1666667  0.4398382  )
         4           O   tau(   4) = (  0.1666667  0.3333333  0.1898382  )
         5           Zn  tau(   5) = (  0.3333333  0.1666667  0.7503168  )
         6           Zn  tau(   6) = (  0.1666667  0.3333333  0.5003168  )
         7           O   tau(   7) = (  0.3333333  0.1666667  0.9398382  )
         8           O   tau(   8) = (  0.1666667  0.3333333  0.6898382  )
         9           Zn  tau(   9) = (  0.3333333  0.6666667  0.2503168  )
        10           Zn  tau(  10) = (  0.1666667  0.8333333  0.0003168  )
        11           O   tau(  11) = (  0.3333333  0.6666667  0.4398382  )
        12           O   tau(  12) = (  0.1666667  0.8333333  0.1898382  )
        13           Zn  tau(  13) = (  0.3333333  0.6666667  0.7503168  )
        14           Zn  tau(  14) = (  0.1666667  0.8333333  0.5003168  )
        15           O   tau(  15) = (  0.3333333  0.6666667  0.9398382  )
        16           O   tau(  16) = (  0.1666667  0.8333333  0.6898382  )
        17           Zn  tau(  17) = (  0.8333333  0.1666667  0.2503168  )
        18           Zn  tau(  18) = (  0.6666667  0.3333333  0.0003168  )
        19           O   tau(  19) = (  0.8333333  0.1666667  0.4398382  )
        20           O   tau(  20) = (  0.6666667  0.3333333  0.1898382  )
        21           Zn  tau(  21) = (  0.8333333  0.1666667  0.7503168  )
        22           Zn  tau(  22) = (  0.6666667  0.3333333  0.5003168  )
        23           O   tau(  23) = (  0.8333333  0.1666667  0.9398382  )
        24           O   tau(  24) = (  0.6666667  0.3333333  0.6898382  )
        25           Zn  tau(  25) = (  0.8333333  0.6666667  0.2503168  )
        26           Zn  tau(  26) = (  0.6666667  0.8333333  0.0003168  )
        27           O   tau(  27) = (  0.8333333  0.6666667  0.4398382  )
        28           O   tau(  28) = (  0.6666667  0.8333333  0.1898382  )
        29           Zn  tau(  29) = (  0.8333333  0.6666667  0.7503168  )
        30           Zn  tau(  30) = (  0.6666667  0.8333333  0.5003168  )
        31           O   tau(  31) = (  0.8333333  0.6666667  0.9398382  )
        32           O   tau(  32) = (  0.6666667  0.8333333  0.6898382  )

     number of k points=    34
                       cart. coord. in units 2pi/alat
        k(    1) = (   0.0000000   0.0000000   0.0000000), wk =   0.0092593
        k(    2) = (   0.0000000   0.0000000   0.0992694), wk =   0.0185185
        k(    3) = (   0.0000000   0.0000000   0.1985388), wk =   0.0185185
        k(    4) = (   0.0000000   0.0000000  -0.2978082), wk =   0.0092593
        k(    5) = (   0.0000000   0.1924501   0.0000000), wk =   0.0555556
        k(    6) = (   0.0000000   0.1924501   0.0992694), wk =   0.0555556
        k(    7) = (   0.0000000   0.1924501   0.1985388), wk =   0.0555556
        k(    8) = (   0.0000000   0.1924501  -0.2978082), wk =   0.0555556
        k(    9) = (   0.0000000   0.3849002   0.0000000), wk =   0.0555556
        k(   10) = (   0.0000000   0.3849002   0.0992694), wk =   0.0555556
        k(   11) = (   0.0000000   0.3849002   0.1985388), wk =   0.0555556
        k(   12) = (   0.0000000   0.3849002  -0.2978082), wk =   0.0555556
        k(   13) = (   0.0000000  -0.5773503   0.0000000), wk =   0.0277778
        k(   14) = (   0.0000000  -0.5773503   0.0992694), wk =   0.0555556
        k(   15) = (   0.0000000  -0.5773503   0.1985388), wk =   0.0555556
        k(   16) = (   0.0000000  -0.5773503  -0.2978082), wk =   0.0277778
        k(   17) = (   0.1666667   0.2886751   0.0000000), wk =   0.0555556
[...]
     atom   12 type  2   force =    -0.00000012    0.00000007    0.00192469
     atom   13 type  1   force =     0.00000000    0.00000000   -0.00193183
     atom   14 type  1   force =     0.00000158   -0.00000091   -0.00191801
     atom   15 type  2   force =     0.00000000    0.00000000    0.00192445
     atom   16 type  2   force =     0.00000010   -0.00000006    0.00192493
     atom   17 type  1   force =    -0.00000137    0.00000079   -0.00192792
     atom   18 type  1   force =     0.00000000    0.00000000   -0.00192180
     atom   19 type  2   force =    -0.00000006    0.00000003    0.00192442
     atom   20 type  2   force =     0.00000000    0.00000000    0.00192479
     atom   21 type  1   force =     0.00000060   -0.00000035   -0.00193069
     atom   22 type  1   force =     0.00000000    0.00000000   -0.00191763
     atom   23 type  2   force =    -0.00000006    0.00000004    0.00192437
     atom   24 type  2   force =     0.00000000    0.00000000    0.00192482
     atom   25 type  1   force =    -0.00000000   -0.00000158   -0.00192792
     atom   26 type  1   force =    -0.00000041   -0.00000024   -0.00192253
     atom   27 type  2   force =     0.00000000   -0.00000007    0.00192442
     atom   28 type  2   force =     0.00000012    0.00000007    0.00192469
     atom   29 type  1   force =     0.00000000    0.00000069   -0.00193069
     atom   30 type  1   force =    -0.00000158   -0.00000091   -0.00191801
     atom   31 type  2   force =     0.00000000   -0.00000007    0.00192437
     atom   32 type  2   force =    -0.00000010   -0.00000006    0.00192493
     The non-local contrib.  to forces
     atom    1 type  1   force =     0.00000095    0.00000055    0.09340776
     atom    2 type  1   force =     0.00000000    0.00000009    0.09341119
     atom    3 type  2   force =     0.00000038    0.00000022    0.10769545
     atom    4 type  2   force =     0.00000000   -0.00000070    0.10769817
     atom    5 type  1   force =    -0.00000080   -0.00000046    0.09340563
     atom    6 type  1   force =     0.00000000    0.00000005    0.09341458
     atom    7 type  2   force =     0.00000046    0.00000026    0.10769710
     atom    8 type  2   force =     0.00000000    0.00000038    0.10769901
     atom    9 type  1   force =     0.00000000    0.00000000    0.09340815
     atom   10 type  1   force =     0.00000007   -0.00000004    0.09341119
     atom   11 type  2   force =     0.00000000    0.00000000    0.10769615
     atom   12 type  2   force =    -0.00000061    0.00000035    0.10769817
     atom   13 type  1   force =     0.00000000    0.00000000    0.09340497
     atom   14 type  1   force =     0.00000005   -0.00000003    0.09341458
     atom   15 type  2   force =     0.00000000   -0.00000000    0.10769685
     atom   16 type  2   force =     0.00000033   -0.00000019    0.10769901
     atom   17 type  1   force =    -0.00000095    0.00000055    0.09340776
     atom   18 type  1   force =     0.00000000    0.00000000    0.09341174
     atom   19 type  2   force =    -0.00000038    0.00000022    0.10769545
     atom   20 type  2   force =     0.00000000   -0.00000000    0.10769809
     atom   21 type  1   force =     0.00000080   -0.00000046    0.09340563
     atom   22 type  1   force =     0.00000000    0.00000000    0.09341436
     atom   23 type  2   force =    -0.00000046    0.00000026    0.10769710
     atom   24 type  2   force =     0.00000000    0.00000000    0.10769832
     atom   25 type  1   force =     0.00000000   -0.00000109    0.09340776
     atom   26 type  1   force =    -0.00000007   -0.00000004    0.09341119
     atom   27 type  2   force =     0.00000000   -0.00000044    0.10769545
     atom   28 type  2   force =     0.00000061    0.00000035    0.10769817
     atom   29 type  1   force =     0.00000000    0.00000093    0.09340563
     atom   30 type  1   force =    -0.00000005   -0.00000003    0.09341458
     atom   31 type  2   force =     0.00000000   -0.00000053    0.10769710
     atom   32 type  2   force =    -0.00000033   -0.00000019    0.10769901
     The ionic contribution  to forces
     atom    1 type  1   force =    -0.00000000    0.00000001    0.75656947
     atom    2 type  1   force =     0.00000002   -0.00000000    0.75656947
     atom    3 type  2   force =    -0.00000000    0.00000001   -0.75656947
     atom    4 type  2   force =     0.00000001   -0.00000000   -0.75656947
     atom    5 type  1   force =    -0.00000000    0.00000001    0.75656947
     atom    6 type  1   force =     0.00000002   -0.00000000    0.75656947
     atom    7 type  2   force =    -0.00000000    0.00000001   -0.75656947
     atom    8 type  2   force =     0.00000001   -0.00000000   -0.75656947
     atom    9 type  1   force =    -0.00000001    0.00000000    0.75656947
     atom   10 type  1   force =     0.00000001    0.00000000    0.75656947
     atom   11 type  2   force =    -0.00000001    0.00000000   -0.75656947
     atom   12 type  2   force =     0.00000001   -0.00000000   -0.75656947
     atom   13 type  1   force =    -0.00000001    0.00000000    0.75656947
     atom   14 type  1   force =     0.00000001    0.00000000    0.75656947
     atom   15 type  2   force =    -0.00000001    0.00000000   -0.75656947
     atom   16 type  2   force =     0.00000001   -0.00000000   -0.75656947
     atom   17 type  1   force =    -0.00000000   -0.00000000    0.75656947
     atom   18 type  1   force =    -0.00000001   -0.00000000    0.75656947
     atom   19 type  2   force =    -0.00000000   -0.00000000   -0.75656947
     atom   20 type  2   force =    -0.00000000   -0.00000000   -0.75656947
     atom   21 type  1   force =    -0.00000000   -0.00000000    0.75656947
     atom   22 type  1   force =    -0.00000001   -0.00000000    0.75656947
     atom   23 type  2   force =    -0.00000000   -0.00000000   -0.75656947
     atom   24 type  2   force =    -0.00000000   -0.00000000   -0.75656947
     atom   25 type  1   force =    -0.00000001    0.00000000    0.75656947
     atom   26 type  1   force =     0.00000001   -0.00000001    0.75656947
     atom   27 type  2   force =    -0.00000001    0.00000000   -0.75656947
     atom   28 type  2   force =     0.00000001   -0.00000000   -0.75656947
     atom   29 type  1   force =    -0.00000001    0.00000000    0.75656947
     atom   30 type  1   force =     0.00000001   -0.00000001    0.75656947
     atom   31 type  2   force =    -0.00000001    0.00000000   -0.75656947
     atom   32 type  2   force =     0.00000001   -0.00000000   -0.75656947
     The local contribution  to forces
     atom    1 type  1   force =    -0.00000334   -0.00000172   -0.84629094
     atom    2 type  1   force =     0.00000009    0.00000026   -0.84630093
     atom    3 type  2   force =     0.00000031    0.00000023    0.65176961
     atom    4 type  2   force =     0.00000002   -0.00000247    0.65177632
     atom    5 type  1   force =     0.00000284    0.00000185   -0.84628509
     atom    6 type  1   force =     0.00000009   -0.00000074   -0.84630984
     atom    7 type  2   force =     0.00000027    0.00000021    0.65177214
     atom    8 type  2   force =     0.00000002    0.00000132    0.65177892
     atom    9 type  1   force =    -0.00000018    0.00000011   -0.84629303
     atom   10 type  1   force =     0.00000027   -0.00000005   -0.84630093
     atom   11 type  2   force =    -0.00000005    0.00000003    0.65177142
     atom   12 type  2   force =    -0.00000212    0.00000125    0.65177632
     atom   13 type  1   force =    -0.00000018    0.00000011   -0.84628260
     atom   14 type  1   force =    -0.00000060    0.00000045   -0.84630984
     atom   15 type  2   force =    -0.00000005    0.00000003    0.65177044
     atom   16 type  2   force =     0.00000115   -0.00000064    0.65177892
     atom   17 type  1   force =     0.00000298   -0.00000172   -0.84629094
     atom   18 type  1   force =    -0.00000009    0.00000005   -0.84630305
     atom   19 type  2   force =    -0.00000040    0.00000023    0.65176961
     atom   20 type  2   force =    -0.00000002    0.00000001    0.65177665
     atom   21 type  1   force =    -0.00000321    0.00000185   -0.84628509
     atom   22 type  1   force =    -0.00000009    0.00000005   -0.84630794
     atom   23 type  2   force =    -0.00000036    0.00000021    0.65177214
     atom   24 type  2   force =    -0.00000002    0.00000001    0.65177792
     atom   25 type  1   force =    -0.00000018    0.00000375   -0.84629094
     atom   26 type  1   force =    -0.00000009   -0.00000005   -0.84630093
     atom   27 type  2   force =    -0.00000005   -0.00000038    0.65176961
     atom   28 type  2   force =     0.00000217    0.00000125    0.65177632
     atom   29 type  1   force =    -0.00000018   -0.00000339   -0.84628509
     atom   30 type  1   force =     0.00000078    0.00000045   -0.84630984
     atom   31 type  2   force =    -0.00000005   -0.00000033    0.65177214
     atom   32 type  2   force =    -0.00000110   -0.00000064    0.65177892
     The core correction contribution to forces
     atom    1 type  1   force =     0.00000005    0.00000006   -0.00560849
     atom    2 type  1   force =     0.00000001   -0.00000003   -0.00560834
     atom    3 type  2   force =    -0.00000000   -0.00000000   -0.00097653
     atom    4 type  2   force =    -0.00000000    0.00000000   -0.00097655
     atom    5 type  1   force =    -0.00000013   -0.00000005   -0.00560859
     atom    6 type  1   force =     0.00000001    0.00000002   -0.00560820
     atom    7 type  2   force =    -0.00000000   -0.00000000   -0.00097655
     atom    8 type  2   force =    -0.00000000   -0.00000000   -0.00097656
     atom    9 type  1   force =    -0.00000002    0.00000001   -0.00560846
     atom   10 type  1   force =    -0.00000002    0.00000003   -0.00560834
     atom   11 type  2   force =     0.00000000   -0.00000000   -0.00097653
     atom   12 type  2   force =     0.00000000   -0.00000000   -0.00097655
     atom   13 type  1   force =    -0.00000002    0.00000001   -0.00560866
     atom   14 type  1   force =     0.00000002    0.00000000   -0.00560820
     atom   15 type  2   force =     0.00000000   -0.00000000   -0.00097655
     atom   16 type  2   force =    -0.00000000    0.00000000   -0.00097656
     atom   17 type  1   force =    -0.00000010    0.00000006   -0.00560849
     atom   18 type  1   force =    -0.00000001    0.00000001   -0.00560827
     atom   19 type  2   force =     0.00000000   -0.00000000   -0.00097653
     atom   20 type  2   force =     0.00000000   -0.00000000   -0.00097655
     atom   21 type  1   force =     0.00000008   -0.00000005   -0.00560859
     atom   22 type  1   force =    -0.00000001    0.00000001   -0.00560833
     atom   23 type  2   force =     0.00000000   -0.00000000   -0.00097655
     atom   24 type  2   force =     0.00000000   -0.00000000   -0.00097655
     atom   25 type  1   force =    -0.00000002   -0.00000008   -0.00560849
     atom   26 type  1   force =     0.00000004    0.00000003   -0.00560834
     atom   27 type  2   force =     0.00000000    0.00000000   -0.00097653
     atom   28 type  2   force =    -0.00000000   -0.00000000   -0.00097655
     atom   29 type  1   force =    -0.00000002    0.00000014   -0.00560859
     atom   30 type  1   force =     0.00000000    0.00000000   -0.00560820
     atom   31 type  2   force =     0.00000000    0.00000001   -0.00097655
     atom   32 type  2   force =     0.00000000    0.00000000   -0.00097656
     The Hubbard contrib.    to forces
     atom    1 type  1   force =     0.00000000    0.00000000    0.00000000
     atom    2 type  1   force =     0.00000000    0.00000000    0.00000000
     atom    3 type  2   force =     0.00000000    0.00000000    0.00000000
     atom    4 type  2   force =     0.00000000    0.00000000    0.00000000
     atom    5 type  1   force =     0.00000000    0.00000000    0.00000000
     atom    6 type  1   force =     0.00000000    0.00000000    0.00000000
     atom    7 type  2   force =     0.00000000    0.00000000    0.00000000
     atom    8 type  2   force =     0.00000000    0.00000000    0.00000000
     atom    9 type  1   force =     0.00000000    0.00000000    0.00000000
     atom   10 type  1   force =     0.00000000    0.00000000    0.00000000
     atom   11 type  2   force =     0.00000000    0.00000000    0.00000000
     atom   12 type  2   force =     0.00000000    0.00000000    0.00000000
     atom   13 type  1   force =     0.00000000    0.00000000    0.00000000
     atom   14 type  1   force =     0.00000000    0.00000000    0.00000000
     atom   15 type  2   force =     0.00000000    0.00000000    0.00000000
     atom   16 type  2   force =     0.00000000    0.00000000    0.00000000
     atom   17 type  1   force =     0.00000000    0.00000000    0.00000000
     atom   18 type  1   force =     0.00000000    0.00000000    0.00000000
     atom   19 type  2   force =     0.00000000    0.00000000    0.00000000
     atom   20 type  2   force =     0.00000000    0.00000000    0.00000000
     atom   21 type  1   force =     0.00000000    0.00000000    0.00000000
     atom   22 type  1   force =     0.00000000    0.00000000    0.00000000
     atom   23 type  2   force =     0.00000000    0.00000000    0.00000000
     atom   24 type  2   force =     0.00000000    0.00000000    0.00000000
     atom   25 type  1   force =     0.00000000    0.00000000    0.00000000
     atom   26 type  1   force =     0.00000000    0.00000000    0.00000000
     atom   27 type  2   force =     0.00000000    0.00000000    0.00000000
     atom   28 type  2   force =     0.00000000    0.00000000    0.00000000
     atom   29 type  1   force =     0.00000000    0.00000000    0.00000000
     atom   30 type  1   force =     0.00000000    0.00000000    0.00000000
     atom   31 type  2   force =     0.00000000    0.00000000    0.00000000
     atom   32 type  2   force =     0.00000000    0.00000000    0.00000000
     The SCF correction term to forces
     atom    1 type  1   force =     0.00000351    0.00000203   -0.00000560
     atom    2 type  1   force =    -0.00000000    0.00000022    0.00000619
     atom    3 type  2   force =    -0.00000068   -0.00000039    0.00000548
     atom    4 type  2   force =    -0.00000000    0.00000304   -0.00000367
     atom    5 type  1   force =    -0.00000271   -0.00000157   -0.00001200
     atom    6 type  1   force =    -0.00000000    0.00000256    0.00001610
     atom    7 type  2   force =    -0.00000070   -0.00000041    0.00000126
     atom    8 type  2   force =    -0.00000000   -0.00000157   -0.00000686
     atom    9 type  1   force =     0.00000000   -0.00000000   -0.00000126
     atom   10 type  1   force =     0.00000019   -0.00000011    0.00000619
     atom   11 type  2   force =     0.00000000   -0.00000000    0.00000326
     atom   12 type  2   force =     0.00000263   -0.00000152   -0.00000367
     atom   13 type  1   force =     0.00000000   -0.00000000   -0.00001490
     atom   14 type  1   force =     0.00000222   -0.00000128    0.00001610
     atom   15 type  2   force =     0.00000000   -0.00000000    0.00000329
     atom   16 type  2   force =    -0.00000136    0.00000079   -0.00000686
     atom   17 type  1   force =    -0.00000351    0.00000203   -0.00000560
     atom   18 type  1   force =     0.00000000   -0.00000000    0.00000844
     atom   19 type  2   force =     0.00000068   -0.00000039    0.00000548
     atom   20 type  2   force =     0.00000000   -0.00000000   -0.00000382
     atom   21 type  1   force =     0.00000271   -0.00000157   -0.00001200
     atom   22 type  1   force =     0.00000000   -0.00000000    0.00001493
     atom   23 type  2   force =     0.00000070   -0.00000041    0.00000126
     atom   24 type  2   force =     0.00000000   -0.00000000   -0.00000528
     atom   25 type  1   force =     0.00000000   -0.00000405   -0.00000560
     atom   26 type  1   force =    -0.00000019   -0.00000011    0.00000619
     atom   27 type  2   force =     0.00000000    0.00000078    0.00000548
     atom   28 type  2   force =    -0.00000263   -0.00000152   -0.00000367
     atom   29 type  1   force =     0.00000000    0.00000313   -0.00001200
     atom   30 type  1   force =    -0.00000222   -0.00000128    0.00001610
     atom   31 type  2   force =     0.00000000    0.00000081    0.00000126
     atom   32 type  2   force =     0.00000136    0.00000079   -0.00000686

     Total force =     0.010887     Total SCF correction =     0.000049

     General routines

     Parallel routines

   This run was terminated on:   0:49:21  11Sep2025

   JOB DONE.
Note: The following floating-point exceptions are signalling: IEEE_INVALID_FLAG
Note: The following floating-point exceptions are signalling: IEEE_INVALID_FLAG