     Program PWSCF v.7.2 starts on  8Sep2025 at 23: 9:49

     Reading input from /home/jvc/QEspresso7.2/ZnO_database/scripts/cell222.in/ZnO-3.01-1.71-222.in
Warning: card &CELL ignored
Warning: card / ignored
Warning: card &FCP ignored
Warning: card / ignored
Warning: card &RISM ignored
Warning: card / ignored

     Current dimensions of program PWSCF are:
     Max number of different atomic species (ntypx) = 10
     Max number of k-points (npk) =  40000
     Max angular momentum in pseudopotentials (lmaxx) =  4
     file Zn.upf: wavefunction(s)  3D renormalized
     Found identity + (  0.0000  0.0000  0.5000) symmetry
     This is a supercell, fractional translations are disabled
     Message from routine setup:
     using ibrav=0 with symmetry is DISCOURAGED, use correct ibrav instead

     K-points division:     npool     =       2
     R & G space division:  proc/nbgrp/npool/nimage =      16
     Subspace diagonalization in iterative solution of the eigenvalue problem:
     a serial algorithm will be used

     Using Slab Decomposition

     bravais-lattice index     =            0
     lattice parameter (alat)  =      11.3691  a.u.
     unit-cell volume          =    2177.7785 (a.u.)^3
     number of atoms/cell      =           32
     number of atomic types    =            2
     number of electrons       =       288.00
     number of Kohn-Sham states=          144
     kinetic-energy cutoff     =      50.0000  Ry
     charge density cutoff     =     400.0000  Ry
     scf convergence threshold =      1.0E-08
     mixing beta               =       0.3000
     number of iterations used =            8  plain     mixing
     Exchange-correlation= PBE
                           (   1   4   3   4   0   0   0)

     celldm(1)=  11.369091  celldm(2)=   0.000000  celldm(3)=   0.000000
     celldm(4)=   0.000000  celldm(5)=   0.000000  celldm(6)=   0.000000

     crystal axes: (cart. coord. in units of alat)
               a(1) = (   1.000000   0.000000   0.000000 )
               a(2) = (  -0.500000   0.866025   0.000000 )
               a(3) = (   0.000000   0.000000   1.711220 )

     reciprocal axes: (cart. coord. in units 2 pi/alat)
               b(1) = (  1.000000  0.577350 -0.000000 )
               b(2) = (  0.000000  1.154701  0.000000 )
               b(3) = (  0.000000 -0.000000  0.584378 )

     PseudoPot. # 1 for Zn read from file:
     /home/jvc/QEspresso7.2/ZnO_database/pseudos/Zn.upf
     MD5 check sum: 7f56cabf9682ed8c977c2f7d0c5985c5
     Pseudo is Ultrasoft + core correction, Zval = 12.0
     Generated using &quot;atomic&quot; code by A. Dal Corso  v.6.2.2
     Using radial grid of 1201 points,  6 beta functions with:
                l(1) =   0
                l(2) =   0
                l(3) =   1
                l(4) =   1
                l(5) =   2
                l(6) =   2
     Q(r) pseudized with 0 coefficients

     PseudoPot. # 2 for O  read from file:
     /home/jvc/QEspresso7.2/ZnO_database/pseudos/O.upf
     MD5 check sum: 91400c9766925bcf19f520983a725ff0
     Pseudo is Ultrasoft + core correction, Zval =  6.0
     Generated using &quot;atomic&quot; code by A. Dal Corso  v.6.3MaX
     Using radial grid of 1095 points,  4 beta functions with:
                l(1) =   0
                l(2) =   0
                l(3) =   1
                l(4) =   1
     Q(r) pseudized with 0 coefficients

     atomic species   valence    mass     pseudopotential
        Zn            12.00    65.38000     Zn( 1.00)
        O              6.00    15.99900     O ( 1.00)

      6 Sym. Ops. (no inversion) found

                                    s                        frac. trans.

      isym =  1     identity

 cryst.   s( 1) = (     1          0          0      )
                  (     0          1          0      )
                  (     0          0          1      )

 cart.    s( 1) = (  1.0000000  0.0000000  0.0000000 )
                  (  0.0000000  1.0000000  0.0000000 )
                  (  0.0000000  0.0000000  1.0000000 )

      isym =  2     120 deg rotation - cryst. axis [0,0,1]

[...]

      isym =  3     120 deg rotation - cryst. axis [0,0,-1]

[...]

      isym =  4     inv. 180 deg rotation - cart. axis [1,0,0]

[...]

      isym =  5     inv. 180 deg rotation - cryst. axis [0,1,0]

[...]

      isym =  6     inv. 180 deg rotation - cryst. axis [1,1,0]

 cryst.   s( 6) = (     0         -1          0      )
                  (    -1          0          0      )
                  (     0          0          1      )

 cart.    s( 6) = (  0.5000000 -0.8660254  0.0000000 )
                  ( -0.8660254 -0.5000000  0.0000000 )
                  (  0.0000000  0.0000000  1.0000000 )

   Cartesian axes

     site n.     atom                  positions (alat units)
         1           Zn  tau(   1) = (   0.2500000   0.1443376   0.4283471  )
         2           Zn  tau(   2) = (  -0.0000000   0.2886751   0.0005421  )
         3           O   tau(   3) = (   0.2500000   0.1443376   0.7526599  )
         4           O   tau(   4) = (  -0.0000000   0.2886751   0.3248549  )
         5           Zn  tau(   5) = (   0.2500000   0.1443376   1.2839570  )
         6           Zn  tau(   6) = (  -0.0000000   0.2886751   0.8561520  )
         7           O   tau(   7) = (   0.2500000   0.1443376   1.6082698  )
         8           O   tau(   8) = (  -0.0000000   0.2886751   1.1804648  )
         9           Zn  tau(   9) = (   0.0000000   0.5773503   0.4283471  )
        10           Zn  tau(  10) = (  -0.2500000   0.7216878   0.0005421  )
        11           O   tau(  11) = (   0.0000000   0.5773503   0.7526599  )
        12           O   tau(  12) = (  -0.2500000   0.7216878   0.3248549  )
        13           Zn  tau(  13) = (   0.0000000   0.5773503   1.2839570  )
        14           Zn  tau(  14) = (  -0.2500000   0.7216878   0.8561520  )
        15           O   tau(  15) = (   0.0000000   0.5773503   1.6082698  )
        16           O   tau(  16) = (  -0.2500000   0.7216878   1.1804648  )
        17           Zn  tau(  17) = (   0.7500000   0.1443376   0.4283471  )
        18           Zn  tau(  18) = (   0.5000000   0.2886751   0.0005421  )
        19           O   tau(  19) = (   0.7500000   0.1443376   0.7526599  )
        20           O   tau(  20) = (   0.5000000   0.2886751   0.3248549  )
        21           Zn  tau(  21) = (   0.7500000   0.1443376   1.2839570  )
        22           Zn  tau(  22) = (   0.5000000   0.2886751   0.8561520  )
        23           O   tau(  23) = (   0.7500000   0.1443376   1.6082698  )
        24           O   tau(  24) = (   0.5000000   0.2886751   1.1804648  )
        25           Zn  tau(  25) = (   0.5000000   0.5773503   0.4283471  )
        26           Zn  tau(  26) = (   0.2500000   0.7216878   0.0005421  )
        27           O   tau(  27) = (   0.5000000   0.5773503   0.7526599  )
        28           O   tau(  28) = (   0.2500000   0.7216878   0.3248549  )
        29           Zn  tau(  29) = (   0.5000000   0.5773503   1.2839570  )
        30           Zn  tau(  30) = (   0.2500000   0.7216878   0.8561520  )
        31           O   tau(  31) = (   0.5000000   0.5773503   1.6082698  )
        32           O   tau(  32) = (   0.2500000   0.7216878   1.1804648  )

   Crystallographic axes

     site n.     atom                  positions (cryst. coord.)
         1           Zn  tau(   1) = (  0.3333333  0.1666667  0.2503168  )
         2           Zn  tau(   2) = (  0.1666667  0.3333333  0.0003168  )
         3           O   tau(   3) = (  0.3333333  0.1666667  0.4398382  )
         4           O   tau(   4) = (  0.1666667  0.3333333  0.1898382  )
         5           Zn  tau(   5) = (  0.3333333  0.1666667  0.7503168  )
         6           Zn  tau(   6) = (  0.1666667  0.3333333  0.5003168  )
         7           O   tau(   7) = (  0.3333333  0.1666667  0.9398382  )
         8           O   tau(   8) = (  0.1666667  0.3333333  0.6898382  )
         9           Zn  tau(   9) = (  0.3333333  0.6666667  0.2503168  )
        10           Zn  tau(  10) = (  0.1666667  0.8333333  0.0003168  )
        11           O   tau(  11) = (  0.3333333  0.6666667  0.4398382  )
        12           O   tau(  12) = (  0.1666667  0.8333333  0.1898382  )
        13           Zn  tau(  13) = (  0.3333333  0.6666667  0.7503168  )
        14           Zn  tau(  14) = (  0.1666667  0.8333333  0.5003168  )
        15           O   tau(  15) = (  0.3333333  0.6666667  0.9398382  )
        16           O   tau(  16) = (  0.1666667  0.8333333  0.6898382  )
        17           Zn  tau(  17) = (  0.8333333  0.1666667  0.2503168  )
        18           Zn  tau(  18) = (  0.6666667  0.3333333  0.0003168  )
        19           O   tau(  19) = (  0.8333333  0.1666667  0.4398382  )
        20           O   tau(  20) = (  0.6666667  0.3333333  0.1898382  )
        21           Zn  tau(  21) = (  0.8333333  0.1666667  0.7503168  )
        22           Zn  tau(  22) = (  0.6666667  0.3333333  0.5003168  )
        23           O   tau(  23) = (  0.8333333  0.1666667  0.9398382  )
        24           O   tau(  24) = (  0.6666667  0.3333333  0.6898382  )
        25           Zn  tau(  25) = (  0.8333333  0.6666667  0.2503168  )
        26           Zn  tau(  26) = (  0.6666667  0.8333333  0.0003168  )
        27           O   tau(  27) = (  0.8333333  0.6666667  0.4398382  )
        28           O   tau(  28) = (  0.6666667  0.8333333  0.1898382  )
        29           Zn  tau(  29) = (  0.8333333  0.6666667  0.7503168  )
        30           Zn  tau(  30) = (  0.6666667  0.8333333  0.5003168  )
        31           O   tau(  31) = (  0.8333333  0.6666667  0.9398382  )
        32           O   tau(  32) = (  0.6666667  0.8333333  0.6898382  )

     number of k points=    34
                       cart. coord. in units 2pi/alat
        k(    1) = (   0.0000000   0.0000000   0.0000000), wk =   0.0092593
        k(    2) = (   0.0000000   0.0000000   0.0973964), wk =   0.0185185
        k(    3) = (   0.0000000   0.0000000   0.1947928), wk =   0.0185185
        k(    4) = (   0.0000000   0.0000000  -0.2921892), wk =   0.0092593
        k(    5) = (   0.0000000   0.1924501   0.0000000), wk =   0.0555556
        k(    6) = (   0.0000000   0.1924501   0.0973964), wk =   0.0555556
        k(    7) = (   0.0000000   0.1924501   0.1947928), wk =   0.0555556
        k(    8) = (   0.0000000   0.1924501  -0.2921892), wk =   0.0555556
        k(    9) = (   0.0000000   0.3849002   0.0000000), wk =   0.0555556
        k(   10) = (   0.0000000   0.3849002   0.0973964), wk =   0.0555556
        k(   11) = (   0.0000000   0.3849002   0.1947928), wk =   0.0555556
        k(   12) = (   0.0000000   0.3849002  -0.2921892), wk =   0.0555556
        k(   13) = (   0.0000000  -0.5773503   0.0000000), wk =   0.0277778
        k(   14) = (   0.0000000  -0.5773503   0.0973964), wk =   0.0555556
        k(   15) = (   0.0000000  -0.5773503   0.1947928), wk =   0.0555556
        k(   16) = (   0.0000000  -0.5773503  -0.2921892), wk =   0.0277778
        k(   17) = (   0.1666667   0.2886751   0.0000000), wk =   0.0555556
[...]
     atom   12 type  2   force =     0.00000122   -0.00000071   -0.04141694
     atom   13 type  1   force =     0.00000000    0.00000000    0.04140871
     atom   14 type  1   force =    -0.00000293    0.00000169    0.04140574
     atom   15 type  2   force =     0.00000000    0.00000000   -0.04141739
     atom   16 type  2   force =     0.00000074   -0.00000043   -0.04142048
     atom   17 type  1   force =    -0.00000627    0.00000362    0.04145419
     atom   18 type  1   force =     0.00000000    0.00000000    0.04142441
     atom   19 type  2   force =     0.00000008   -0.00000004   -0.04142187
     atom   20 type  2   force =     0.00000000    0.00000000   -0.04141733
     atom   21 type  1   force =    -0.00001792    0.00001034    0.04139100
     atom   22 type  1   force =     0.00000000    0.00000000    0.04141342
     atom   23 type  2   force =    -0.00000100    0.00000058   -0.04141743
     atom   24 type  2   force =     0.00000000    0.00000000   -0.04141726
     atom   25 type  1   force =     0.00000000   -0.00000724    0.04145419
     atom   26 type  1   force =    -0.00002305   -0.00001331    0.04141615
     atom   27 type  2   force =     0.00000000    0.00000009   -0.04142187
     atom   28 type  2   force =    -0.00000122   -0.00000071   -0.04141694
     atom   29 type  1   force =     0.00000000   -0.00002069    0.04139100
     atom   30 type  1   force =     0.00000293    0.00000169    0.04140574
     atom   31 type  2   force =     0.00000000   -0.00000116   -0.04141743
     atom   32 type  2   force =    -0.00000074   -0.00000043   -0.04142048
     The non-local contrib.  to forces
     atom    1 type  1   force =     0.00000250    0.00000145    0.17347721
     atom    2 type  1   force =     0.00000000    0.00000972    0.17345418
     atom    3 type  2   force =    -0.00000145   -0.00000084    0.13538708
     atom    4 type  2   force =     0.00000000    0.00000030    0.13538165
     atom    5 type  1   force =     0.00000545    0.00000315    0.17345341
     atom    6 type  1   force =     0.00000000   -0.00000168    0.17346407
     atom    7 type  2   force =    -0.00000292   -0.00000169    0.13540486
     atom    8 type  2   force =     0.00000000    0.00000041    0.13540812
     atom    9 type  1   force =     0.00000000    0.00000000    0.17347794
     atom   10 type  1   force =     0.00000841   -0.00000486    0.17345418
     atom   11 type  2   force =    -0.00000000    0.00000000    0.13538795
     atom   12 type  2   force =     0.00000026   -0.00000015    0.13538165
     atom   13 type  1   force =     0.00000000   -0.00000000    0.17346190
     atom   14 type  1   force =    -0.00000145    0.00000084    0.17346407
     atom   15 type  2   force =     0.00000000    0.00000000    0.13540074
     atom   16 type  2   force =     0.00000036   -0.00000021    0.13540812
     atom   17 type  1   force =    -0.00000250    0.00000145    0.17347721
     atom   18 type  1   force =     0.00000000    0.00000000    0.17345715
     atom   19 type  2   force =     0.00000145   -0.00000084    0.13538708
     atom   20 type  2   force =     0.00000000    0.00000000    0.13537924
     atom   21 type  1   force =    -0.00000545    0.00000315    0.17345341
     atom   22 type  1   force =     0.00000000   -0.00000000    0.17347017
     atom   23 type  2   force =     0.00000292   -0.00000169    0.13540486
     atom   24 type  2   force =     0.00000000   -0.00000000    0.13540994
     atom   25 type  1   force =     0.00000000   -0.00000289    0.17347721
     atom   26 type  1   force =    -0.00000841   -0.00000486    0.17345418
     atom   27 type  2   force =     0.00000000    0.00000167    0.13538708
     atom   28 type  2   force =    -0.00000026   -0.00000015    0.13538165
     atom   29 type  1   force =     0.00000000   -0.00000630    0.17345341
     atom   30 type  1   force =     0.00000145    0.00000084    0.17346407
     atom   31 type  2   force =     0.00000000    0.00000338    0.13540486
     atom   32 type  2   force =    -0.00000036   -0.00000021    0.13540812
     The ionic contribution  to forces
     atom    1 type  1   force =     0.00000000    0.00000002    1.44028868
     atom    2 type  1   force =     0.00000002    0.00000001    1.44028868
     atom    3 type  2   force =     0.00000000    0.00000002   -1.44028868
     atom    4 type  2   force =     0.00000001    0.00000000   -1.44028868
     atom    5 type  1   force =     0.00000000    0.00000002    1.44028868
     atom    6 type  1   force =     0.00000002    0.00000001    1.44028868
     atom    7 type  2   force =     0.00000000    0.00000002   -1.44028868
     atom    8 type  2   force =     0.00000001    0.00000000   -1.44028868
     atom    9 type  1   force =     0.00000001   -0.00000000    1.44028868
     atom   10 type  1   force =     0.00000000   -0.00000001    1.44028868
     atom   11 type  2   force =     0.00000001    0.00000000   -1.44028868
     atom   12 type  2   force =     0.00000000   -0.00000001   -1.44028868
     atom   13 type  1   force =     0.00000001   -0.00000000    1.44028868
     atom   14 type  1   force =     0.00000000   -0.00000001    1.44028868
     atom   15 type  2   force =     0.00000001    0.00000000   -1.44028868
     atom   16 type  2   force =     0.00000000   -0.00000001   -1.44028868
     atom   17 type  1   force =     0.00000000    0.00000000    1.44028868
     atom   18 type  1   force =    -0.00000002    0.00000001    1.44028868
     atom   19 type  2   force =     0.00000000    0.00000000   -1.44028868
     atom   20 type  2   force =    -0.00000001    0.00000000   -1.44028868
     atom   21 type  1   force =     0.00000000    0.00000000    1.44028868
     atom   22 type  1   force =    -0.00000002    0.00000001    1.44028868
     atom   23 type  2   force =     0.00000000    0.00000000   -1.44028868
     atom   24 type  2   force =    -0.00000001    0.00000000   -1.44028868
     atom   25 type  1   force =    -0.00000002   -0.00000000    1.44028868
     atom   26 type  1   force =     0.00000000   -0.00000003    1.44028868
     atom   27 type  2   force =    -0.00000001    0.00000000   -1.44028868
     atom   28 type  2   force =     0.00000000   -0.00000002   -1.44028868
     atom   29 type  1   force =    -0.00000002   -0.00000000    1.44028868
     atom   30 type  1   force =     0.00000000   -0.00000003    1.44028868
     atom   31 type  2   force =    -0.00000001    0.00000000   -1.44028868
     atom   32 type  2   force =     0.00000000   -0.00000002   -1.44028868
     The local contribution  to forces
     atom    1 type  1   force =    -0.00001007   -0.00000572   -1.55780245
     atom    2 type  1   force =     0.00000008   -0.00003176   -1.55775536
     atom    3 type  2   force =     0.00000759    0.00000441    1.26437758
     atom    4 type  2   force =     0.00000002    0.00000145    1.26436880
     atom    5 type  1   force =    -0.00002333   -0.00001338   -1.55771688
     atom    6 type  1   force =     0.00000008    0.00000481   -1.55773256
     atom    7 type  2   force =     0.00000133    0.00000079    1.26438176
     atom    8 type  2   force =     0.00000002    0.00000493    1.26436877
     atom    9 type  1   force =    -0.00000000    0.00000009   -1.55780607
     atom   10 type  1   force =    -0.00002755    0.00001582   -1.55775536
     atom   11 type  2   force =    -0.00000000    0.00000002    1.26438471
     atom   12 type  2   force =     0.00000125   -0.00000074    1.26436880
     atom   13 type  1   force =     0.00000000    0.00000009   -1.55774913
     atom   14 type  1   force =     0.00000413   -0.00000247   -1.55773256
     atom   15 type  2   force =    -0.00000000    0.00000002    1.26438307
     atom   16 type  2   force =     0.00000426   -0.00000248    1.26436877
     atom   17 type  1   force =     0.00001007   -0.00000572   -1.55780245
     atom   18 type  1   force =    -0.00000008    0.00000004   -1.55776864
     atom   19 type  2   force =    -0.00000759    0.00000441    1.26437758
     atom   20 type  2   force =    -0.00000002    0.00000001    1.26437476
     atom   21 type  1   force =     0.00002333   -0.00001338   -1.55771688
     atom   22 type  1   force =    -0.00000008    0.00000004   -1.55775175
     atom   23 type  2   force =    -0.00000133    0.00000079    1.26438176
     atom   24 type  2   force =    -0.00000002    0.00000001    1.26436680
     atom   25 type  1   force =    -0.00000015    0.00001171   -1.55780245
     atom   26 type  1   force =     0.00002755    0.00001582   -1.55775536
     atom   27 type  2   force =    -0.00000004   -0.00000875    1.26437758
     atom   28 type  2   force =    -0.00000125   -0.00000074    1.26436880
     atom   29 type  1   force =    -0.00000015    0.00002702   -1.55771688
     atom   30 type  1   force =    -0.00000413   -0.00000247   -1.55773256
     atom   31 type  2   force =    -0.00000004   -0.00000151    1.26438176
     atom   32 type  2   force =    -0.00000426   -0.00000248    1.26436877
     The core correction contribution to forces
     atom    1 type  1   force =     0.00000021    0.00000013   -0.01456331
     atom    2 type  1   force =     0.00000001    0.00000033   -0.01456269
     atom    3 type  2   force =     0.00000007    0.00000004   -0.00092194
     atom    4 type  2   force =    -0.00000000    0.00000003   -0.00092059
     atom    5 type  1   force =     0.00000039    0.00000024   -0.01456782
     atom    6 type  1   force =     0.00000001    0.00000009   -0.01456853
     atom    7 type  2   force =     0.00000007    0.00000004   -0.00092323
     atom    8 type  2   force =    -0.00000000    0.00000004   -0.00092461
     atom    9 type  1   force =    -0.00000000    0.00000001   -0.01456323
     atom   10 type  1   force =     0.00000028   -0.00000017   -0.01456269
     atom   11 type  2   force =     0.00000000   -0.00000000   -0.00092193
     atom   12 type  2   force =     0.00000003   -0.00000002   -0.00092059
     atom   13 type  1   force =    -0.00000000    0.00000001   -0.01456719
     atom   14 type  1   force =     0.00000007   -0.00000005   -0.01456853
     atom   15 type  2   force =    -0.00000000   -0.00000000   -0.00092316
     atom   16 type  2   force =     0.00000003   -0.00000002   -0.00092461
     atom   17 type  1   force =    -0.00000021    0.00000013   -0.01456331
     atom   18 type  1   force =    -0.00000001    0.00000001   -0.01456226
     atom   19 type  2   force =    -0.00000007    0.00000004   -0.00092194
     atom   20 type  2   force =     0.00000000   -0.00000000   -0.00092054
     atom   21 type  1   force =    -0.00000039    0.00000024   -0.01456782
     atom   22 type  1   force =    -0.00000001    0.00000001   -0.01456798
     atom   23 type  2   force =    -0.00000007    0.00000004   -0.00092323
     atom   24 type  2   force =     0.00000000   -0.00000000   -0.00092462
     atom   25 type  1   force =    -0.00000002   -0.00000023   -0.01456331
     atom   26 type  1   force =    -0.00000028   -0.00000017   -0.01456269
     atom   27 type  2   force =     0.00000000   -0.00000008   -0.00092194
     atom   28 type  2   force =    -0.00000003   -0.00000002   -0.00092059
     atom   29 type  1   force =    -0.00000002   -0.00000044   -0.01456782
     atom   30 type  1   force =    -0.00000007   -0.00000005   -0.01456853
     atom   31 type  2   force =     0.00000000   -0.00000008   -0.00092323
     atom   32 type  2   force =    -0.00000003   -0.00000002   -0.00092461
     The Hubbard contrib.    to forces
     atom    1 type  1   force =     0.00000000    0.00000000    0.00000000
     atom    2 type  1   force =     0.00000000    0.00000000    0.00000000
     atom    3 type  2   force =     0.00000000    0.00000000    0.00000000
     atom    4 type  2   force =     0.00000000    0.00000000    0.00000000
     atom    5 type  1   force =     0.00000000    0.00000000    0.00000000
     atom    6 type  1   force =     0.00000000    0.00000000    0.00000000
     atom    7 type  2   force =     0.00000000    0.00000000    0.00000000
     atom    8 type  2   force =     0.00000000    0.00000000    0.00000000
     atom    9 type  1   force =     0.00000000    0.00000000    0.00000000
     atom   10 type  1   force =     0.00000000    0.00000000    0.00000000
     atom   11 type  2   force =     0.00000000    0.00000000    0.00000000
     atom   12 type  2   force =     0.00000000    0.00000000    0.00000000
     atom   13 type  1   force =     0.00000000    0.00000000    0.00000000
     atom   14 type  1   force =     0.00000000    0.00000000    0.00000000
     atom   15 type  2   force =     0.00000000    0.00000000    0.00000000
     atom   16 type  2   force =     0.00000000    0.00000000    0.00000000
     atom   17 type  1   force =     0.00000000    0.00000000    0.00000000
     atom   18 type  1   force =     0.00000000    0.00000000    0.00000000
     atom   19 type  2   force =     0.00000000    0.00000000    0.00000000
     atom   20 type  2   force =     0.00000000    0.00000000    0.00000000
     atom   21 type  1   force =     0.00000000    0.00000000    0.00000000
     atom   22 type  1   force =     0.00000000    0.00000000    0.00000000
     atom   23 type  2   force =     0.00000000    0.00000000    0.00000000
     atom   24 type  2   force =     0.00000000    0.00000000    0.00000000
     atom   25 type  1   force =     0.00000000    0.00000000    0.00000000
     atom   26 type  1   force =     0.00000000    0.00000000    0.00000000
     atom   27 type  2   force =     0.00000000    0.00000000    0.00000000
     atom   28 type  2   force =     0.00000000    0.00000000    0.00000000
     atom   29 type  1   force =     0.00000000    0.00000000    0.00000000
     atom   30 type  1   force =     0.00000000    0.00000000    0.00000000
     atom   31 type  2   force =     0.00000000    0.00000000    0.00000000
     atom   32 type  2   force =     0.00000000    0.00000000    0.00000000
     The SCF correction term to forces
     atom    1 type  1   force =     0.00001362    0.00000787    0.00004731
     atom    2 type  1   force =    -0.00000000    0.00004832   -0.00001541
     atom    3 type  2   force =    -0.00000629   -0.00000363    0.00001735
     atom    4 type  2   force =    -0.00000000   -0.00000038    0.00003514
     atom    5 type  1   force =     0.00003539    0.00002043   -0.00007313
     atom    6 type  1   force =    -0.00000000   -0.00000661   -0.00005267
     atom    7 type  2   force =     0.00000253    0.00000146    0.00000112
     atom    8 type  2   force =    -0.00000000   -0.00000452    0.00000918
     atom    9 type  1   force =    -0.00000000   -0.00000000    0.00005230
     atom   10 type  1   force =     0.00004185   -0.00002416   -0.00001541
     atom   11 type  2   force =    -0.00000000   -0.00000000    0.00000926
     atom   12 type  2   force =    -0.00000033    0.00000019    0.00003514
     atom   13 type  1   force =    -0.00000000   -0.00000000   -0.00003228
     atom   14 type  1   force =    -0.00000572    0.00000330   -0.00005267
     atom   15 type  2   force =    -0.00000000   -0.00000000    0.00000389
     atom   16 type  2   force =    -0.00000392    0.00000226    0.00000918
     atom   17 type  1   force =    -0.00001362    0.00000787    0.00004731
     atom   18 type  1   force =     0.00000000   -0.00000000    0.00000273
     atom   19 type  2   force =     0.00000629   -0.00000363    0.00001735
     atom   20 type  2   force =     0.00000000   -0.00000000    0.00003114
     atom   21 type  1   force =    -0.00003539    0.00002043   -0.00007313
     atom   22 type  1   force =     0.00000000   -0.00000000   -0.00003244
     atom   23 type  2   force =    -0.00000253    0.00000146    0.00000112
     atom   24 type  2   force =     0.00000000   -0.00000000    0.00001255
     atom   25 type  1   force =     0.00000000   -0.00001573    0.00004731
     atom   26 type  1   force =    -0.00004185   -0.00002416   -0.00001541
     atom   27 type  2   force =     0.00000000    0.00000727    0.00001735
     atom   28 type  2   force =     0.00000033    0.00000019    0.00003514
     atom   29 type  1   force =     0.00000000   -0.00004087   -0.00007313
     atom   30 type  1   force =     0.00000572    0.00000330   -0.00005267
     atom   31 type  2   force =     0.00000000   -0.00000292    0.00000112
     atom   32 type  2   force =     0.00000392    0.00000226    0.00000918

     Total force =     0.234301     Total SCF correction =     0.000236

     General routines

     Parallel routines

   This run was terminated on:  23:23: 2   8Sep2025

   JOB DONE.
Note: The following floating-point exceptions are signalling: IEEE_INVALID_FLAG
Note: The following floating-point exceptions are signalling: IEEE_INVALID_FLAG