     Program PWSCF v.7.2 starts on 11Sep2025 at 11:28:32

     Reading input from /home/jvc/QEspresso7.2/ZnO_database/scripts/cell222.in/ZnO-3.60-1.74-222.in
Warning: card &CELL ignored
Warning: card / ignored
Warning: card &FCP ignored
Warning: card / ignored
Warning: card &RISM ignored
Warning: card / ignored

     Current dimensions of program PWSCF are:
     Max number of different atomic species (ntypx) = 10
     Max number of k-points (npk) =  40000
     Max angular momentum in pseudopotentials (lmaxx) =  4
     file Zn.upf: wavefunction(s)  3D renormalized
     Found identity + (  0.0000  0.0000  0.5000) symmetry
     This is a supercell, fractional translations are disabled
     Message from routine setup:
     using ibrav=0 with symmetry is DISCOURAGED, use correct ibrav instead

     K-points division:     npool     =       2
     R & G space division:  proc/nbgrp/npool/nimage =      16
     Subspace diagonalization in iterative solution of the eigenvalue problem:
     a serial algorithm will be used

     Using Slab Decomposition

     bravais-lattice index     =            0
     lattice parameter (alat)  =      13.5935  a.u.
     unit-cell volume          =    3792.6797 (a.u.)^3
     number of atoms/cell      =           32
     number of atomic types    =            2
     number of electrons       =       288.00
     number of Kohn-Sham states=          144
     kinetic-energy cutoff     =      50.0000  Ry
     charge density cutoff     =     400.0000  Ry
     scf convergence threshold =      1.0E-08
     mixing beta               =       0.3000
     number of iterations used =            8  plain     mixing
     Exchange-correlation= PBE
                           (   1   4   3   4   0   0   0)

     celldm(1)=  13.593479  celldm(2)=   0.000000  celldm(3)=   0.000000
     celldm(4)=   0.000000  celldm(5)=   0.000000  celldm(6)=   0.000000

     crystal axes: (cart. coord. in units of alat)
               a(1) = (   1.000000   0.000000   0.000000 )
               a(2) = (  -0.500000   0.866025   0.000000 )
               a(3) = (   0.000000   0.000000   1.743507 )

     reciprocal axes: (cart. coord. in units 2 pi/alat)
               b(1) = (  1.000000  0.577350 -0.000000 )
               b(2) = (  0.000000  1.154701  0.000000 )
               b(3) = (  0.000000 -0.000000  0.573557 )

     PseudoPot. # 1 for Zn read from file:
     /home/jvc/QEspresso7.2/ZnO_database/pseudos/Zn.upf
     MD5 check sum: 7f56cabf9682ed8c977c2f7d0c5985c5
     Pseudo is Ultrasoft + core correction, Zval = 12.0
     Generated using &quot;atomic&quot; code by A. Dal Corso  v.6.2.2
     Using radial grid of 1201 points,  6 beta functions with:
                l(1) =   0
                l(2) =   0
                l(3) =   1
                l(4) =   1
                l(5) =   2
                l(6) =   2
     Q(r) pseudized with 0 coefficients

     PseudoPot. # 2 for O  read from file:
     /home/jvc/QEspresso7.2/ZnO_database/pseudos/O.upf
     MD5 check sum: 91400c9766925bcf19f520983a725ff0
     Pseudo is Ultrasoft + core correction, Zval =  6.0
     Generated using &quot;atomic&quot; code by A. Dal Corso  v.6.3MaX
     Using radial grid of 1095 points,  4 beta functions with:
                l(1) =   0
                l(2) =   0
                l(3) =   1
                l(4) =   1
     Q(r) pseudized with 0 coefficients

     atomic species   valence    mass     pseudopotential
        Zn            12.00    65.38000     Zn( 1.00)
        O              6.00    15.99900     O ( 1.00)

      6 Sym. Ops. (no inversion) found

                                    s                        frac. trans.

      isym =  1     identity

 cryst.   s( 1) = (     1          0          0      )
                  (     0          1          0      )
                  (     0          0          1      )

 cart.    s( 1) = (  1.0000000  0.0000000  0.0000000 )
                  (  0.0000000  1.0000000  0.0000000 )
                  (  0.0000000  0.0000000  1.0000000 )

      isym =  2     120 deg rotation - cryst. axis [0,0,1]

[...]

      isym =  3     120 deg rotation - cryst. axis [0,0,-1]

[...]

      isym =  4     inv. 180 deg rotation - cart. axis [1,0,0]

[...]

      isym =  5     inv. 180 deg rotation - cryst. axis [0,1,0]

[...]

      isym =  6     inv. 180 deg rotation - cryst. axis [1,1,0]

 cryst.   s( 6) = (     0         -1          0      )
                  (    -1          0          0      )
                  (     0          0          1      )

 cart.    s( 6) = (  0.5000000 -0.8660254  0.0000000 )
                  ( -0.8660254 -0.5000000  0.0000000 )
                  (  0.0000000  0.0000000  1.0000000 )

   Cartesian axes

     site n.     atom                  positions (alat units)
         1           Zn  tau(   1) = (   0.2500000   0.1443376   0.4364291  )
         2           Zn  tau(   2) = (  -0.0000000   0.2886751   0.0005523  )
         3           O   tau(   3) = (   0.2500000   0.1443376   0.7668610  )
         4           O   tau(   4) = (  -0.0000000   0.2886751   0.3309842  )
         5           Zn  tau(   5) = (   0.2500000   0.1443376   1.3081826  )
         6           Zn  tau(   6) = (  -0.0000000   0.2886751   0.8723058  )
         7           O   tau(   7) = (   0.2500000   0.1443376   1.6386145  )
         8           O   tau(   8) = (  -0.0000000   0.2886751   1.2027378  )
         9           Zn  tau(   9) = (  -0.0000000   0.5773503   0.4364291  )
        10           Zn  tau(  10) = (  -0.2500000   0.7216878   0.0005523  )
        11           O   tau(  11) = (  -0.0000000   0.5773503   0.7668610  )
        12           O   tau(  12) = (  -0.2500000   0.7216878   0.3309842  )
        13           Zn  tau(  13) = (  -0.0000000   0.5773503   1.3081826  )
        14           Zn  tau(  14) = (  -0.2500000   0.7216878   0.8723058  )
        15           O   tau(  15) = (  -0.0000000   0.5773503   1.6386145  )
        16           O   tau(  16) = (  -0.2500000   0.7216878   1.2027378  )
        17           Zn  tau(  17) = (   0.7500000   0.1443376   0.4364291  )
        18           Zn  tau(  18) = (   0.5000000   0.2886751   0.0005523  )
        19           O   tau(  19) = (   0.7500000   0.1443376   0.7668610  )
        20           O   tau(  20) = (   0.5000000   0.2886751   0.3309842  )
        21           Zn  tau(  21) = (   0.7500000   0.1443376   1.3081826  )
        22           Zn  tau(  22) = (   0.5000000   0.2886751   0.8723058  )
        23           O   tau(  23) = (   0.7500000   0.1443376   1.6386145  )
        24           O   tau(  24) = (   0.5000000   0.2886751   1.2027378  )
        25           Zn  tau(  25) = (   0.5000000   0.5773503   0.4364291  )
        26           Zn  tau(  26) = (   0.2500000   0.7216878   0.0005523  )
        27           O   tau(  27) = (   0.5000000   0.5773503   0.7668610  )
        28           O   tau(  28) = (   0.2500000   0.7216878   0.3309842  )
        29           Zn  tau(  29) = (   0.5000000   0.5773503   1.3081826  )
        30           Zn  tau(  30) = (   0.2500000   0.7216878   0.8723058  )
        31           O   tau(  31) = (   0.5000000   0.5773503   1.6386145  )
        32           O   tau(  32) = (   0.2500000   0.7216878   1.2027378  )

   Crystallographic axes

     site n.     atom                  positions (cryst. coord.)
         1           Zn  tau(   1) = (  0.3333333  0.1666667  0.2503168  )
         2           Zn  tau(   2) = (  0.1666667  0.3333333  0.0003168  )
         3           O   tau(   3) = (  0.3333333  0.1666667  0.4398382  )
         4           O   tau(   4) = (  0.1666667  0.3333333  0.1898382  )
         5           Zn  tau(   5) = (  0.3333333  0.1666667  0.7503168  )
         6           Zn  tau(   6) = (  0.1666667  0.3333333  0.5003168  )
         7           O   tau(   7) = (  0.3333333  0.1666667  0.9398382  )
         8           O   tau(   8) = (  0.1666667  0.3333333  0.6898382  )
         9           Zn  tau(   9) = (  0.3333333  0.6666667  0.2503168  )
        10           Zn  tau(  10) = (  0.1666667  0.8333333  0.0003168  )
        11           O   tau(  11) = (  0.3333333  0.6666667  0.4398382  )
        12           O   tau(  12) = (  0.1666667  0.8333333  0.1898382  )
        13           Zn  tau(  13) = (  0.3333333  0.6666667  0.7503168  )
        14           Zn  tau(  14) = (  0.1666667  0.8333333  0.5003168  )
        15           O   tau(  15) = (  0.3333333  0.6666667  0.9398382  )
        16           O   tau(  16) = (  0.1666667  0.8333333  0.6898382  )
        17           Zn  tau(  17) = (  0.8333333  0.1666667  0.2503168  )
        18           Zn  tau(  18) = (  0.6666667  0.3333333  0.0003168  )
        19           O   tau(  19) = (  0.8333333  0.1666667  0.4398382  )
        20           O   tau(  20) = (  0.6666667  0.3333333  0.1898382  )
        21           Zn  tau(  21) = (  0.8333333  0.1666667  0.7503168  )
        22           Zn  tau(  22) = (  0.6666667  0.3333333  0.5003168  )
        23           O   tau(  23) = (  0.8333333  0.1666667  0.9398382  )
        24           O   tau(  24) = (  0.6666667  0.3333333  0.6898382  )
        25           Zn  tau(  25) = (  0.8333333  0.6666667  0.2503168  )
        26           Zn  tau(  26) = (  0.6666667  0.8333333  0.0003168  )
        27           O   tau(  27) = (  0.8333333  0.6666667  0.4398382  )
        28           O   tau(  28) = (  0.6666667  0.8333333  0.1898382  )
        29           Zn  tau(  29) = (  0.8333333  0.6666667  0.7503168  )
        30           Zn  tau(  30) = (  0.6666667  0.8333333  0.5003168  )
        31           O   tau(  31) = (  0.8333333  0.6666667  0.9398382  )
        32           O   tau(  32) = (  0.6666667  0.8333333  0.6898382  )

     number of k points=    34
                       cart. coord. in units 2pi/alat
        k(    1) = (   0.0000000   0.0000000   0.0000000), wk =   0.0092593
        k(    2) = (   0.0000000   0.0000000   0.0955928), wk =   0.0185185
        k(    3) = (   0.0000000   0.0000000   0.1911855), wk =   0.0185185
        k(    4) = (   0.0000000   0.0000000  -0.2867783), wk =   0.0092593
        k(    5) = (   0.0000000   0.1924501   0.0000000), wk =   0.0555556
        k(    6) = (   0.0000000   0.1924501   0.0955928), wk =   0.0555556
        k(    7) = (   0.0000000   0.1924501   0.1911855), wk =   0.0555556
        k(    8) = (   0.0000000   0.1924501  -0.2867783), wk =   0.0555556
        k(    9) = (   0.0000000   0.3849002   0.0000000), wk =   0.0555556
        k(   10) = (   0.0000000   0.3849002   0.0955928), wk =   0.0555556
        k(   11) = (   0.0000000   0.3849002   0.1911855), wk =   0.0555556
        k(   12) = (   0.0000000   0.3849002  -0.2867783), wk =   0.0555556
        k(   13) = (   0.0000000  -0.5773503   0.0000000), wk =   0.0277778
        k(   14) = (   0.0000000  -0.5773503   0.0955928), wk =   0.0555556
        k(   15) = (   0.0000000  -0.5773503   0.1911855), wk =   0.0555556
        k(   16) = (   0.0000000  -0.5773503  -0.2867783), wk =   0.0277778
        k(   17) = (   0.1666667   0.2886751   0.0000000), wk =   0.0555556
[...]
     atom   12 type  2   force =    -0.00000004    0.00000002    0.01419189
     atom   13 type  1   force =     0.00000000    0.00000000   -0.01418619
     atom   14 type  1   force =     0.00000164   -0.00000095   -0.01419733
     atom   15 type  2   force =     0.00000000    0.00000000    0.01419206
     atom   16 type  2   force =     0.00000002   -0.00000001    0.01419207
     atom   17 type  1   force =    -0.00000912    0.00000527   -0.01419588
     atom   18 type  1   force =     0.00000000    0.00000000   -0.01418595
     atom   19 type  2   force =    -0.00000011    0.00000006    0.01419181
     atom   20 type  2   force =     0.00000000    0.00000000    0.01419269
     atom   21 type  1   force =     0.00000504   -0.00000291   -0.01418114
     atom   22 type  1   force =     0.00000000    0.00000000   -0.01420469
     atom   23 type  2   force =    -0.00000001    0.00000000    0.01419243
     atom   24 type  2   force =     0.00000000    0.00000000    0.01419138
     atom   25 type  1   force =     0.00000000   -0.00001053   -0.01419588
     atom   26 type  1   force =     0.00000247    0.00000143   -0.01419387
     atom   27 type  2   force =     0.00000000   -0.00000012    0.01419181
     atom   28 type  2   force =     0.00000004    0.00000002    0.01419189
     atom   29 type  1   force =     0.00000000    0.00000582   -0.01418114
     atom   30 type  1   force =    -0.00000164   -0.00000095   -0.01419733
     atom   31 type  2   force =     0.00000000   -0.00000001    0.01419243
     atom   32 type  2   force =    -0.00000002   -0.00000001    0.01419207
     The non-local contrib.  to forces
     atom    1 type  1   force =     0.00000302    0.00000175    0.16826344
     atom    2 type  1   force =     0.00000000   -0.00000102    0.16826543
     atom    3 type  2   force =    -0.00000008   -0.00000005    0.20852257
     atom    4 type  2   force =     0.00000000    0.00000018    0.20852167
     atom    5 type  1   force =    -0.00000148   -0.00000085    0.16827130
     atom    6 type  1   force =     0.00000000    0.00000107    0.16826227
     atom    7 type  2   force =    -0.00000033   -0.00000019    0.20852049
     atom    8 type  2   force =     0.00000000   -0.00000031    0.20851957
     atom    9 type  1   force =     0.00000000   -0.00000000    0.16826533
     atom   10 type  1   force =    -0.00000089    0.00000051    0.16826543
     atom   11 type  2   force =     0.00000000   -0.00000000    0.20852112
     atom   12 type  2   force =     0.00000016   -0.00000009    0.20852167
     atom   13 type  1   force =     0.00000000   -0.00000000    0.16826932
     atom   14 type  1   force =     0.00000092   -0.00000053    0.16826227
     atom   15 type  2   force =     0.00000000   -0.00000000    0.20852090
     atom   16 type  2   force =    -0.00000027    0.00000015    0.20851957
     atom   17 type  1   force =    -0.00000302    0.00000175    0.16826344
     atom   18 type  1   force =     0.00000000    0.00000000    0.16826855
     atom   19 type  2   force =     0.00000008   -0.00000005    0.20852257
     atom   20 type  2   force =     0.00000000    0.00000000    0.20852283
     atom   21 type  1   force =     0.00000148   -0.00000085    0.16827130
     atom   22 type  1   force =     0.00000000    0.00000000    0.16825913
     atom   23 type  2   force =     0.00000033   -0.00000019    0.20852049
     atom   24 type  2   force =     0.00000000    0.00000000    0.20851849
     atom   25 type  1   force =     0.00000000   -0.00000349    0.16826344
     atom   26 type  1   force =     0.00000089    0.00000051    0.16826543
     atom   27 type  2   force =     0.00000000    0.00000010    0.20852257
     atom   28 type  2   force =    -0.00000016   -0.00000009    0.20852167
     atom   29 type  1   force =     0.00000000    0.00000171    0.16827130
     atom   30 type  1   force =    -0.00000092   -0.00000053    0.16826227
     atom   31 type  2   force =     0.00000000    0.00000038    0.20852049
     atom   32 type  2   force =     0.00000027    0.00000015    0.20851957
     The ionic contribution  to forces
     atom    1 type  1   force =     0.00000000    0.00000002    1.30007236
     atom    2 type  1   force =     0.00000001    0.00000002    1.30007236
     atom    3 type  2   force =    -0.00000000    0.00000001   -1.30007236
     atom    4 type  2   force =     0.00000001    0.00000001   -1.30007236
     atom    5 type  1   force =     0.00000000    0.00000002    1.30007236
     atom    6 type  1   force =     0.00000001    0.00000002    1.30007236
     atom    7 type  2   force =    -0.00000000    0.00000001   -1.30007236
     atom    8 type  2   force =     0.00000001    0.00000001   -1.30007236
     atom    9 type  1   force =     0.00000000   -0.00000001    1.30007235
     atom   10 type  1   force =    -0.00000000   -0.00000002    1.30007236
     atom   11 type  2   force =     0.00000000   -0.00000001   -1.30007235
     atom   12 type  2   force =    -0.00000000   -0.00000001   -1.30007236
     atom   13 type  1   force =     0.00000000   -0.00000001    1.30007235
     atom   14 type  1   force =    -0.00000000   -0.00000002    1.30007236
     atom   15 type  2   force =     0.00000000   -0.00000001   -1.30007235
     atom   16 type  2   force =    -0.00000000   -0.00000001   -1.30007236
     atom   17 type  1   force =    -0.00000002    0.00000002    1.30007236
     atom   18 type  1   force =     0.00000001    0.00000001    1.30007235
     atom   19 type  2   force =    -0.00000001    0.00000001   -1.30007236
     atom   20 type  2   force =     0.00000001    0.00000000   -1.30007235
     atom   21 type  1   force =    -0.00000002    0.00000002    1.30007236
     atom   22 type  1   force =     0.00000001    0.00000001    1.30007235
     atom   23 type  2   force =    -0.00000001    0.00000001   -1.30007236
     atom   24 type  2   force =     0.00000001    0.00000000   -1.30007235
     atom   25 type  1   force =     0.00000000   -0.00000002    1.30007235
     atom   26 type  1   force =    -0.00000001   -0.00000002    1.30007236
     atom   27 type  2   force =     0.00000000   -0.00000001   -1.30007235
     atom   28 type  2   force =    -0.00000001   -0.00000001   -1.30007236
     atom   29 type  1   force =     0.00000000   -0.00000002    1.30007235
     atom   30 type  1   force =    -0.00000001   -0.00000002    1.30007236
     atom   31 type  2   force =     0.00000000   -0.00000001   -1.30007235
     atom   32 type  2   force =    -0.00000001   -0.00000001   -1.30007236
     The local contribution  to forces
     atom    1 type  1   force =    -0.00001164   -0.00000661   -1.47354499
     atom    2 type  1   force =     0.00000010    0.00000368   -1.47354836
     atom    3 type  2   force =    -0.00000156   -0.00000087    1.10773839
     atom    4 type  2   force =     0.00000002   -0.00000060    1.10773545
     atom    5 type  1   force =     0.00000681    0.00000404   -1.47356556
     atom    6 type  1   force =     0.00000010   -0.00000275   -1.47354447
     atom    7 type  2   force =     0.00000007    0.00000007    1.10773191
     atom    8 type  2   force =     0.00000002   -0.00000006    1.10772815
     atom    9 type  1   force =     0.00000010   -0.00000006   -1.47355141
     atom   10 type  1   force =     0.00000314   -0.00000192   -1.47354836
     atom   11 type  2   force =     0.00000002   -0.00000001    1.10773800
     atom   12 type  2   force =    -0.00000053    0.00000028    1.10773545
     atom   13 type  1   force =     0.00000010   -0.00000006   -1.47355897
     atom   14 type  1   force =    -0.00000243    0.00000129   -1.47354447
     atom   15 type  2   force =     0.00000002   -0.00000001    1.10773388
     atom   16 type  2   force =    -0.00000007    0.00000001    1.10772815
     atom   17 type  1   force =     0.00001145   -0.00000661   -1.47354499
     atom   18 type  1   force =     0.00000010    0.00000006   -1.47355854
     atom   19 type  2   force =     0.00000151   -0.00000087    1.10773839
     atom   20 type  2   force =     0.00000002    0.00000001    1.10773573
     atom   21 type  1   force =    -0.00000700    0.00000404   -1.47356556
     atom   22 type  1   force =     0.00000010    0.00000006   -1.47353452
     atom   23 type  2   force =    -0.00000012    0.00000007    1.10773191
     atom   24 type  2   force =     0.00000002    0.00000001    1.10772886
     atom   25 type  1   force =     0.00000010    0.00001338   -1.47354499
     atom   26 type  1   force =    -0.00000314   -0.00000192   -1.47354836
     atom   27 type  2   force =     0.00000002    0.00000179    1.10773839
     atom   28 type  2   force =     0.00000053    0.00000028    1.10773545
     atom   29 type  1   force =     0.00000010   -0.00000792   -1.47356556
     atom   30 type  1   force =     0.00000243    0.00000129   -1.47354447
     atom   31 type  2   force =     0.00000002   -0.00000010    1.10773191
     atom   32 type  2   force =     0.00000007    0.00000001    1.10772815
     The core correction contribution to forces
     atom    1 type  1   force =     0.00000027    0.00000017   -0.00897390
     atom    2 type  1   force =     0.00000001   -0.00000010   -0.00897395
     atom    3 type  2   force =    -0.00000000   -0.00000000   -0.00199183
     atom    4 type  2   force =    -0.00000000   -0.00000000   -0.00199183
     atom    5 type  1   force =    -0.00000021   -0.00000010   -0.00897371
     atom    6 type  1   force =     0.00000001    0.00000001   -0.00897381
     atom    7 type  2   force =     0.00000000    0.00000000   -0.00199182
     atom    8 type  2   force =    -0.00000000    0.00000000   -0.00199181
     atom    9 type  1   force =     0.00000001   -0.00000001   -0.00897378
     atom   10 type  1   force =    -0.00000009    0.00000004   -0.00897395
     atom   11 type  2   force =    -0.00000000    0.00000000   -0.00199182
     atom   12 type  2   force =    -0.00000000    0.00000000   -0.00199183
     atom   13 type  1   force =     0.00000001   -0.00000001   -0.00897385
     atom   14 type  1   force =     0.00000000   -0.00000002   -0.00897381
     atom   15 type  2   force =    -0.00000000    0.00000000   -0.00199182
     atom   16 type  2   force =     0.00000000   -0.00000000   -0.00199181
     atom   17 type  1   force =    -0.00000029    0.00000017   -0.00897390
     atom   18 type  1   force =     0.00000001    0.00000001   -0.00897373
     atom   19 type  2   force =     0.00000000   -0.00000000   -0.00199183
     atom   20 type  2   force =    -0.00000000   -0.00000000   -0.00199184
     atom   21 type  1   force =     0.00000018   -0.00000010   -0.00897371
     atom   22 type  1   force =     0.00000001    0.00000001   -0.00897397
     atom   23 type  2   force =    -0.00000000    0.00000000   -0.00199182
     atom   24 type  2   force =    -0.00000000   -0.00000000   -0.00199180
     atom   25 type  1   force =     0.00000001   -0.00000032   -0.00897390
     atom   26 type  1   force =     0.00000009    0.00000004   -0.00897395
     atom   27 type  2   force =    -0.00000000    0.00000000   -0.00199183
     atom   28 type  2   force =     0.00000000    0.00000000   -0.00199183
     atom   29 type  1   force =     0.00000001    0.00000023   -0.00897371
     atom   30 type  1   force =    -0.00000000   -0.00000002   -0.00897381
     atom   31 type  2   force =    -0.00000000   -0.00000000   -0.00199182
     atom   32 type  2   force =    -0.00000000   -0.00000000   -0.00199181
     The Hubbard contrib.    to forces
     atom    1 type  1   force =     0.00000000    0.00000000    0.00000000
     atom    2 type  1   force =     0.00000000    0.00000000    0.00000000
     atom    3 type  2   force =     0.00000000    0.00000000    0.00000000
     atom    4 type  2   force =     0.00000000    0.00000000    0.00000000
     atom    5 type  1   force =     0.00000000    0.00000000    0.00000000
     atom    6 type  1   force =     0.00000000    0.00000000    0.00000000
     atom    7 type  2   force =     0.00000000    0.00000000    0.00000000
     atom    8 type  2   force =     0.00000000    0.00000000    0.00000000
     atom    9 type  1   force =     0.00000000    0.00000000    0.00000000
     atom   10 type  1   force =     0.00000000    0.00000000    0.00000000
     atom   11 type  2   force =     0.00000000    0.00000000    0.00000000
     atom   12 type  2   force =     0.00000000    0.00000000    0.00000000
     atom   13 type  1   force =     0.00000000    0.00000000    0.00000000
     atom   14 type  1   force =     0.00000000    0.00000000    0.00000000
     atom   15 type  2   force =     0.00000000    0.00000000    0.00000000
     atom   16 type  2   force =     0.00000000    0.00000000    0.00000000
     atom   17 type  1   force =     0.00000000    0.00000000    0.00000000
     atom   18 type  1   force =     0.00000000    0.00000000    0.00000000
     atom   19 type  2   force =     0.00000000    0.00000000    0.00000000
     atom   20 type  2   force =     0.00000000    0.00000000    0.00000000
     atom   21 type  1   force =     0.00000000    0.00000000    0.00000000
     atom   22 type  1   force =     0.00000000    0.00000000    0.00000000
     atom   23 type  2   force =     0.00000000    0.00000000    0.00000000
     atom   24 type  2   force =     0.00000000    0.00000000    0.00000000
     atom   25 type  1   force =     0.00000000    0.00000000    0.00000000
     atom   26 type  1   force =     0.00000000    0.00000000    0.00000000
     atom   27 type  2   force =     0.00000000    0.00000000    0.00000000
     atom   28 type  2   force =     0.00000000    0.00000000    0.00000000
     atom   29 type  1   force =     0.00000000    0.00000000    0.00000000
     atom   30 type  1   force =     0.00000000    0.00000000    0.00000000
     atom   31 type  2   force =     0.00000000    0.00000000    0.00000000
     atom   32 type  2   force =     0.00000000    0.00000000    0.00000000
     The SCF correction term to forces
     atom    1 type  1   force =     0.00001735    0.00001002   -0.00001579
     atom    2 type  1   force =     0.00000000   -0.00000542   -0.00001236
     atom    3 type  2   force =     0.00000172    0.00000099   -0.00000796
     atom    4 type  2   force =     0.00000000    0.00000037   -0.00000404
     atom    5 type  1   force =    -0.00001029   -0.00000594    0.00001146
     atom    6 type  1   force =     0.00000000    0.00000356   -0.00001668
     atom    7 type  2   force =     0.00000022    0.00000013    0.00000120
     atom    8 type  2   force =     0.00000000    0.00000038    0.00000551
     atom    9 type  1   force =     0.00000000   -0.00000000   -0.00000646
     atom   10 type  1   force =    -0.00000469    0.00000271   -0.00001236
     atom   11 type  2   force =     0.00000000   -0.00000000   -0.00000621
     atom   12 type  2   force =     0.00000032   -0.00000019   -0.00000404
     atom   13 type  1   force =     0.00000000   -0.00000000    0.00000195
     atom   14 type  1   force =     0.00000308   -0.00000178   -0.00001668
     atom   15 type  2   force =     0.00000000   -0.00000000   -0.00000154
     atom   16 type  2   force =     0.00000033   -0.00000019    0.00000551
     atom   17 type  1   force =    -0.00001735    0.00001002   -0.00001579
     atom   18 type  1   force =     0.00000000    0.00000000    0.00000242
     atom   19 type  2   force =    -0.00000172    0.00000099   -0.00000796
     atom   20 type  2   force =     0.00000000    0.00000000   -0.00000468
     atom   21 type  1   force =     0.00001029   -0.00000594    0.00001146
     atom   22 type  1   force =     0.00000000    0.00000000   -0.00003068
     atom   23 type  2   force =    -0.00000022    0.00000013    0.00000120
     atom   24 type  2   force =     0.00000000    0.00000000    0.00000518
     atom   25 type  1   force =     0.00000000   -0.00002003   -0.00001579
     atom   26 type  1   force =     0.00000469    0.00000271   -0.00001236
     atom   27 type  2   force =     0.00000000   -0.00000199   -0.00000796
     atom   28 type  2   force =    -0.00000032   -0.00000019   -0.00000404
     atom   29 type  1   force =     0.00000000    0.00001188    0.00001146
     atom   30 type  1   force =    -0.00000308   -0.00000178   -0.00001668
     atom   31 type  2   force =     0.00000000   -0.00000026    0.00000120
     atom   32 type  2   force =    -0.00000033   -0.00000019    0.00000551

     Total force =     0.080282     Total SCF correction =     0.000075

     General routines

     Parallel routines

   This run was terminated on:  11:59: 8  11Sep2025

   JOB DONE.
Note: The following floating-point exceptions are signalling: IEEE_INVALID_FLAG
Note: The following floating-point exceptions are signalling: IEEE_INVALID_FLAG