     Program PWSCF v.7.4 starts on 10Sep2025 at 14: 5:12

     Reading input from /home/jvc/QEspresso7.2/ZnO_database/scripts/cell222.in/ZnO-3.40-1.68-222.in
Warning: card &CELL ignored
Warning: card / ignored
Warning: card &FCP ignored
Warning: card / ignored
Warning: card &RISM ignored
Warning: card / ignored

     Current dimensions of program PWSCF are:
     Max number of different atomic species (ntypx) = 10
     Max number of k-points (npk) =  40000
     Max angular momentum in pseudopotentials (lmaxx) =  4
     file Zn.upf: wavefunction(s)  3D renormalized
     Found identity + (  0.0000  0.0000  0.5000) symmetry
     This is a supercell, fractional translations are disabled
     Message from routine setup:
     using ibrav=0 with symmetry is DISCOURAGED, use correct ibrav instead

     K-points division:     npool     =       2
     R & G space division:  proc/nbgrp/npool/nimage =      16
     Subspace diagonalization in iterative solution of the eigenvalue problem:
     a serial algorithm will be used

     Using Slab Decomposition

     bravais-lattice index     =            0
     lattice parameter (alat)  =      12.8520  a.u.
     unit-cell volume          =    3086.5813 (a.u.)^3
     number of atoms/cell      =           32
     number of atomic types    =            2
     number of electrons       =       288.00
     number of Kohn-Sham states=          144
     kinetic-energy cutoff     =      50.0000  Ry
     charge density cutoff     =     400.0000  Ry
     scf convergence threshold =      1.0E-08
     mixing beta               =       0.3000
     number of iterations used =            8  plain     mixing
     Exchange-correlation= PBE
                           (   1   4   3   4   0   0   0)

     celldm(1)=  12.852016  celldm(2)=   0.000000  celldm(3)=   0.000000
     celldm(4)=   0.000000  celldm(5)=   0.000000  celldm(6)=   0.000000

     crystal axes: (cart. coord. in units of alat)
               a(1) = (   1.000000   0.000000   0.000000 )
               a(2) = (  -0.500000   0.866025   0.000000 )
               a(3) = (   0.000000   0.000000   1.678933 )

     reciprocal axes: (cart. coord. in units 2 pi/alat)
               b(1) = (  1.000000  0.577350 -0.000000 )
               b(2) = (  0.000000  1.154701  0.000000 )
               b(3) = (  0.000000 -0.000000  0.595616 )

     PseudoPot. # 1 for Zn read from file:
     /home/jvc/QEspresso7.2/ZnO_database/pseudos/Zn.upf
     MD5 check sum: 7f56cabf9682ed8c977c2f7d0c5985c5
     Pseudo is Ultrasoft + core correction, Zval = 12.0
     Generated using &quot;atomic&quot; code by A. Dal Corso  v.6.2.2
     Using radial grid of 1201 points,  6 beta functions with:
                l(1) =   0
                l(2) =   0
                l(3) =   1
                l(4) =   1
                l(5) =   2
                l(6) =   2
     Q(r) pseudized with 0 coefficients

     PseudoPot. # 2 for O  read from file:
     /home/jvc/QEspresso7.2/ZnO_database/pseudos/O.upf
     MD5 check sum: 91400c9766925bcf19f520983a725ff0
     Pseudo is Ultrasoft + core correction, Zval =  6.0
     Generated using &quot;atomic&quot; code by A. Dal Corso  v.6.3MaX
     Using radial grid of 1095 points,  4 beta functions with:
                l(1) =   0
                l(2) =   0
                l(3) =   1
                l(4) =   1
     Q(r) pseudized with 0 coefficients

     atomic species   valence    mass     pseudopotential
     Zn               12.00    65.38000     Zn( 1.00)
     O                 6.00    15.99900     O ( 1.00)

      6 Sym. Ops. (no inversion) found

                                    s                        frac. trans.

      isym =  1     identity

 cryst.   s( 1) = (     1          0          0      )
                  (     0          1          0      )
                  (     0          0          1      )

 cart.    s( 1) = (  1.0000000  0.0000000  0.0000000 )
                  (  0.0000000  1.0000000  0.0000000 )
                  (  0.0000000  0.0000000  1.0000000 )

      isym =  2     120 deg rotation - cryst. axis [0,0,1]

[...]

      isym =  3     120 deg rotation - cryst. axis [0,0,-1]

[...]

      isym =  4     inv. 180 deg rotation - cart. axis [1,0,0]

[...]

      isym =  5     inv. 180 deg rotation - cryst. axis [0,1,0]

[...]

      isym =  6     inv. 180 deg rotation - cryst. axis [1,1,0]

 cryst.   s( 6) = (     0         -1          0      )
                  (    -1          0          0      )
                  (     0          0          1      )

 cart.    s( 6) = (  0.5000000 -0.8660254  0.0000000 )
                  ( -0.8660254 -0.5000000  0.0000000 )
                  (  0.0000000  0.0000000  1.0000000 )

   Cartesian axes

     site n.     atom                  positions (alat units)
         1        Zn     tau(   1) = (   0.2500000   0.1443376   0.4202650  )
         2        Zn     tau(   2) = (  -0.0000000   0.2886751   0.0005319  )
         3        O      tau(   3) = (   0.2500000   0.1443376   0.7384587  )
         4        O      tau(   4) = (  -0.0000000   0.2886751   0.3187256  )
         5        Zn     tau(   5) = (   0.2500000   0.1443376   1.2597314  )
         6        Zn     tau(   6) = (  -0.0000000   0.2886751   0.8399982  )
         7        O      tau(   7) = (   0.2500000   0.1443376   1.5779251  )
         8        O      tau(   8) = (  -0.0000000   0.2886751   1.1581919  )
         9        Zn     tau(   9) = (   0.0000000   0.5773503   0.4202650  )
        10        Zn     tau(  10) = (  -0.2500000   0.7216878   0.0005319  )
        11        O      tau(  11) = (   0.0000000   0.5773503   0.7384587  )
        12        O      tau(  12) = (  -0.2500000   0.7216878   0.3187256  )
        13        Zn     tau(  13) = (   0.0000000   0.5773503   1.2597314  )
        14        Zn     tau(  14) = (  -0.2500000   0.7216878   0.8399982  )
        15        O      tau(  15) = (   0.0000000   0.5773503   1.5779251  )
        16        O      tau(  16) = (  -0.2500000   0.7216878   1.1581919  )
        17        Zn     tau(  17) = (   0.7500000   0.1443376   0.4202650  )
        18        Zn     tau(  18) = (   0.5000000   0.2886751   0.0005319  )
        19        O      tau(  19) = (   0.7500000   0.1443376   0.7384587  )
        20        O      tau(  20) = (   0.5000000   0.2886751   0.3187256  )
        21        Zn     tau(  21) = (   0.7500000   0.1443376   1.2597314  )
        22        Zn     tau(  22) = (   0.5000000   0.2886751   0.8399982  )
        23        O      tau(  23) = (   0.7500000   0.1443376   1.5779251  )
        24        O      tau(  24) = (   0.5000000   0.2886751   1.1581919  )
        25        Zn     tau(  25) = (   0.5000000   0.5773503   0.4202650  )
        26        Zn     tau(  26) = (   0.2500000   0.7216878   0.0005319  )
        27        O      tau(  27) = (   0.5000000   0.5773503   0.7384587  )
        28        O      tau(  28) = (   0.2500000   0.7216878   0.3187256  )
        29        Zn     tau(  29) = (   0.5000000   0.5773503   1.2597314  )
        30        Zn     tau(  30) = (   0.2500000   0.7216878   0.8399982  )
        31        O      tau(  31) = (   0.5000000   0.5773503   1.5779251  )
        32        O      tau(  32) = (   0.2500000   0.7216878   1.1581919  )

   Crystallographic axes

     site n.     atom                  positions (cryst. coord.)
         1        Zn     tau(   1) = (  0.3333333  0.1666667  0.2503168  )
         2        Zn     tau(   2) = (  0.1666667  0.3333333  0.0003168  )
         3        O      tau(   3) = (  0.3333333  0.1666667  0.4398382  )
         4        O      tau(   4) = (  0.1666667  0.3333333  0.1898382  )
         5        Zn     tau(   5) = (  0.3333333  0.1666667  0.7503168  )
         6        Zn     tau(   6) = (  0.1666667  0.3333333  0.5003168  )
         7        O      tau(   7) = (  0.3333333  0.1666667  0.9398382  )
         8        O      tau(   8) = (  0.1666667  0.3333333  0.6898382  )
         9        Zn     tau(   9) = (  0.3333333  0.6666667  0.2503168  )
        10        Zn     tau(  10) = (  0.1666667  0.8333333  0.0003168  )
        11        O      tau(  11) = (  0.3333333  0.6666667  0.4398382  )
        12        O      tau(  12) = (  0.1666667  0.8333333  0.1898382  )
        13        Zn     tau(  13) = (  0.3333333  0.6666667  0.7503168  )
        14        Zn     tau(  14) = (  0.1666667  0.8333333  0.5003168  )
        15        O      tau(  15) = (  0.3333333  0.6666667  0.9398382  )
        16        O      tau(  16) = (  0.1666667  0.8333333  0.6898382  )
        17        Zn     tau(  17) = (  0.8333333  0.1666667  0.2503168  )
        18        Zn     tau(  18) = (  0.6666667  0.3333333  0.0003168  )
        19        O      tau(  19) = (  0.8333333  0.1666667  0.4398382  )
        20        O      tau(  20) = (  0.6666667  0.3333333  0.1898382  )
        21        Zn     tau(  21) = (  0.8333333  0.1666667  0.7503168  )
        22        Zn     tau(  22) = (  0.6666667  0.3333333  0.5003168  )
        23        O      tau(  23) = (  0.8333333  0.1666667  0.9398382  )
        24        O      tau(  24) = (  0.6666667  0.3333333  0.6898382  )
        25        Zn     tau(  25) = (  0.8333333  0.6666667  0.2503168  )
        26        Zn     tau(  26) = (  0.6666667  0.8333333  0.0003168  )
        27        O      tau(  27) = (  0.8333333  0.6666667  0.4398382  )
        28        O      tau(  28) = (  0.6666667  0.8333333  0.1898382  )
        29        Zn     tau(  29) = (  0.8333333  0.6666667  0.7503168  )
        30        Zn     tau(  30) = (  0.6666667  0.8333333  0.5003168  )
        31        O      tau(  31) = (  0.8333333  0.6666667  0.9398382  )
        32        O      tau(  32) = (  0.6666667  0.8333333  0.6898382  )

     number of k points=    34
                       cart. coord. in units 2pi/alat
        k(    1) = (   0.0000000   0.0000000   0.0000000), wk =   0.0092593
        k(    2) = (   0.0000000   0.0000000   0.0992694), wk =   0.0185185
        k(    3) = (   0.0000000   0.0000000   0.1985388), wk =   0.0185185
        k(    4) = (   0.0000000   0.0000000  -0.2978082), wk =   0.0092593
        k(    5) = (   0.0000000   0.1924501   0.0000000), wk =   0.0555556
        k(    6) = (   0.0000000   0.1924501   0.0992694), wk =   0.0555556
        k(    7) = (   0.0000000   0.1924501   0.1985388), wk =   0.0555556
        k(    8) = (   0.0000000   0.1924501  -0.2978082), wk =   0.0555556
        k(    9) = (   0.0000000   0.3849002   0.0000000), wk =   0.0555556
        k(   10) = (   0.0000000   0.3849002   0.0992694), wk =   0.0555556
        k(   11) = (   0.0000000   0.3849002   0.1985388), wk =   0.0555556
        k(   12) = (   0.0000000   0.3849002  -0.2978082), wk =   0.0555556
        k(   13) = (   0.0000000  -0.5773503   0.0000000), wk =   0.0277778
        k(   14) = (   0.0000000  -0.5773503   0.0992694), wk =   0.0555556
        k(   15) = (   0.0000000  -0.5773503   0.1985388), wk =   0.0555556
        k(   16) = (   0.0000000  -0.5773503  -0.2978082), wk =   0.0277778
        k(   17) = (   0.1666667   0.2886751   0.0000000), wk =   0.0555556
[...]
     atom   12 type  2   force =    -0.00000093    0.00000053    0.10650903
     atom   13 type  1   force =     0.00000000    0.00000000    0.09662081
     atom   14 type  1   force =     0.00000350   -0.00000202    0.09662585
     atom   15 type  2   force =     0.00000000    0.00000000    0.10651503
     atom   16 type  2   force =    -0.00000019    0.00000011    0.10651641
     atom   17 type  1   force =     0.00000054   -0.00000031    0.09663050
     atom   18 type  1   force =     0.00000000    0.00000000    0.09662552
     atom   19 type  2   force =    -0.00000048    0.00000028    0.10651246
     atom   20 type  2   force =     0.00000000    0.00000000    0.10651165
     atom   21 type  1   force =     0.00000077   -0.00000044    0.09662290
     atom   22 type  1   force =     0.00000000   -0.00000000    0.09662501
     atom   23 type  2   force =    -0.00000195    0.00000113    0.10651526
     atom   24 type  2   force =     0.00000000   -0.00000000    0.10651413
     atom   25 type  1   force =     0.00000000    0.00000062    0.09663050
     atom   26 type  1   force =     0.00000102    0.00000059    0.09662508
     atom   27 type  2   force =     0.00000000   -0.00000055    0.10651246
     atom   28 type  2   force =     0.00000093    0.00000053    0.10650903
     atom   29 type  1   force =     0.00000000    0.00000089    0.09662290
     atom   30 type  1   force =    -0.00000350   -0.00000202    0.09662585
     atom   31 type  2   force =    -0.00000000   -0.00000226    0.10651526
     atom   32 type  2   force =     0.00000019    0.00000011    0.10651641
     The ionic contribution  to forces
     atom    1 type  1   force =    -0.00000000    0.00000000    0.78594809
     atom    2 type  1   force =     0.00000000   -0.00000000    0.78594809
     atom    3 type  2   force =    -0.00000000    0.00000000   -0.78594809
     atom    4 type  2   force =     0.00000000   -0.00000000   -0.78594809
     atom    5 type  1   force =    -0.00000000    0.00000000    0.78594809
     atom    6 type  1   force =     0.00000000   -0.00000000    0.78594809
     atom    7 type  2   force =    -0.00000000    0.00000000   -0.78594809
     atom    8 type  2   force =     0.00000000   -0.00000000   -0.78594809
     atom    9 type  1   force =    -0.00000000    0.00000000    0.78594809
     atom   10 type  1   force =     0.00000000   -0.00000000    0.78594809
     atom   11 type  2   force =    -0.00000000    0.00000000   -0.78594809
     atom   12 type  2   force =     0.00000000   -0.00000000   -0.78594809
     atom   13 type  1   force =    -0.00000000    0.00000000    0.78594809
     atom   14 type  1   force =     0.00000000   -0.00000000    0.78594809
     atom   15 type  2   force =    -0.00000000    0.00000000   -0.78594809
     atom   16 type  2   force =     0.00000000   -0.00000000   -0.78594809
     atom   17 type  1   force =    -0.00000000    0.00000000    0.78594809
     atom   18 type  1   force =     0.00000000   -0.00000000    0.78594809
     atom   19 type  2   force =    -0.00000000    0.00000000   -0.78594809
     atom   20 type  2   force =     0.00000000   -0.00000000   -0.78594809
     atom   21 type  1   force =    -0.00000000    0.00000000    0.78594809
     atom   22 type  1   force =     0.00000000   -0.00000000    0.78594809
     atom   23 type  2   force =    -0.00000000    0.00000000   -0.78594809
     atom   24 type  2   force =     0.00000000   -0.00000000   -0.78594809
     atom   25 type  1   force =    -0.00000000    0.00000000    0.78594809
     atom   26 type  1   force =     0.00000000   -0.00000000    0.78594809
     atom   27 type  2   force =    -0.00000000    0.00000000   -0.78594809
     atom   28 type  2   force =     0.00000000   -0.00000000   -0.78594809
     atom   29 type  1   force =    -0.00000000    0.00000000    0.78594809
     atom   30 type  1   force =     0.00000000   -0.00000000    0.78594809
     atom   31 type  2   force =    -0.00000000    0.00000000   -0.78594809
     atom   32 type  2   force =     0.00000000   -0.00000000   -0.78594809
     The local contribution  to forces
     atom    1 type  1   force =    -0.00000051   -0.00000019   -0.87588762
     atom    2 type  1   force =     0.00000009   -0.00000037   -0.87587660
     atom    3 type  2   force =    -0.00000311   -0.00000177    0.67974679
     atom    4 type  2   force =     0.00000002   -0.00000013    0.67974469
     atom    5 type  1   force =     0.00000270    0.00000166   -0.87587102
     atom    6 type  1   force =     0.00000009   -0.00000799   -0.87587892
     atom    7 type  2   force =    -0.00000143   -0.00000080    0.67974500
     atom    8 type  2   force =     0.00000002   -0.00000080    0.67974745
     atom    9 type  1   force =    -0.00000000    0.00000010   -0.87589120
     atom   10 type  1   force =    -0.00000027    0.00000026   -0.87587660
     atom   11 type  2   force =     0.00000000    0.00000003    0.67974358
     atom   12 type  2   force =    -0.00000010    0.00000009    0.67974469
     atom   13 type  1   force =    -0.00000000    0.00000010   -0.87586934
     atom   14 type  1   force =    -0.00000687    0.00000407   -0.87587892
     atom   15 type  2   force =     0.00000000    0.00000003    0.67974679
     atom   16 type  2   force =    -0.00000068    0.00000042    0.67974745
     atom   17 type  1   force =     0.00000051   -0.00000019   -0.87588762
     atom   18 type  1   force =     0.00000009    0.00000005   -0.87587784
     atom   19 type  2   force =     0.00000311   -0.00000177    0.67974679
     atom   20 type  2   force =     0.00000002    0.00000001    0.67974052
     atom   21 type  1   force =    -0.00000270    0.00000166   -0.87587102
     atom   22 type  1   force =     0.00000009    0.00000005   -0.87587613
     atom   23 type  2   force =     0.00000143   -0.00000080    0.67974500
     atom   24 type  2   force =     0.00000002    0.00000001    0.67975053
     atom   25 type  1   force =     0.00000000    0.00000069   -0.87588762
     atom   26 type  1   force =     0.00000045    0.00000026   -0.87587660
     atom   27 type  2   force =     0.00000000    0.00000362    0.67974679
     atom   28 type  2   force =     0.00000015    0.00000009    0.67974469
     atom   29 type  1   force =     0.00000000   -0.00000301   -0.87587102
     atom   30 type  1   force =     0.00000705    0.00000407   -0.87587892
     atom   31 type  2   force =     0.00000000    0.00000168    0.67974500
     atom   32 type  2   force =     0.00000073    0.00000042    0.67974745
     The core correction contribution to forces
     atom    1 type  1   force =     0.00000011    0.00000008   -0.00607034
     atom    2 type  1   force =     0.00000001    0.00000017   -0.00607034
     atom    3 type  2   force =    -0.00000000   -0.00000000   -0.00094107
     atom    4 type  2   force =    -0.00000000    0.00000003   -0.00094103
     atom    5 type  1   force =     0.00000001    0.00000002   -0.00607052
     atom    6 type  1   force =     0.00000001    0.00000011   -0.00607054
     atom    7 type  2   force =    -0.00000001   -0.00000001   -0.00094112
     atom    8 type  2   force =    -0.00000000    0.00000001   -0.00094113
     atom    9 type  1   force =     0.00000000    0.00000001   -0.00607019
     atom   10 type  1   force =     0.00000015   -0.00000007   -0.00607034
     atom   11 type  2   force =     0.00000000   -0.00000000   -0.00094109
     atom   12 type  2   force =     0.00000003   -0.00000002   -0.00094103
     atom   13 type  1   force =     0.00000000    0.00000001   -0.00607044
     atom   14 type  1   force =     0.00000011   -0.00000005   -0.00607054
     atom   15 type  2   force =     0.00000000   -0.00000000   -0.00094111
     atom   16 type  2   force =     0.00000001   -0.00000001   -0.00094113
     atom   17 type  1   force =    -0.00000011    0.00000008   -0.00607034
     atom   18 type  1   force =     0.00000001    0.00000001   -0.00607033
     atom   19 type  2   force =     0.00000000   -0.00000000   -0.00094107
     atom   20 type  2   force =    -0.00000000   -0.00000000   -0.00094108
     atom   21 type  1   force =    -0.00000001    0.00000002   -0.00607052
     atom   22 type  1   force =     0.00000001    0.00000001   -0.00607049
     atom   23 type  2   force =     0.00000001   -0.00000001   -0.00094112
     atom   24 type  2   force =    -0.00000000   -0.00000000   -0.00094109
     atom   25 type  1   force =     0.00000000   -0.00000011   -0.00607034
     atom   26 type  1   force =    -0.00000013   -0.00000007   -0.00607034
     atom   27 type  2   force =     0.00000000    0.00000000   -0.00094107
     atom   28 type  2   force =    -0.00000003   -0.00000002   -0.00094103
     atom   29 type  1   force =     0.00000000    0.00000001   -0.00607052
     atom   30 type  1   force =    -0.00000008   -0.00000005   -0.00607054
     atom   31 type  2   force =     0.00000000    0.00000002   -0.00094112
     atom   32 type  2   force =    -0.00000001   -0.00000001   -0.00094113
     The Hubbard contrib.    to forces
     atom    1 type  1   force =     0.00000000    0.00000000    0.00000000
     atom    2 type  1   force =     0.00000000    0.00000000    0.00000000
     atom    3 type  2   force =     0.00000000    0.00000000    0.00000000
     atom    4 type  2   force =     0.00000000    0.00000000    0.00000000
     atom    5 type  1   force =     0.00000000    0.00000000    0.00000000
     atom    6 type  1   force =     0.00000000    0.00000000    0.00000000
     atom    7 type  2   force =     0.00000000    0.00000000    0.00000000
     atom    8 type  2   force =     0.00000000    0.00000000    0.00000000
     atom    9 type  1   force =     0.00000000    0.00000000    0.00000000
     atom   10 type  1   force =     0.00000000    0.00000000    0.00000000
     atom   11 type  2   force =     0.00000000    0.00000000    0.00000000
     atom   12 type  2   force =     0.00000000    0.00000000    0.00000000
     atom   13 type  1   force =     0.00000000    0.00000000    0.00000000
     atom   14 type  1   force =     0.00000000    0.00000000    0.00000000
     atom   15 type  2   force =     0.00000000    0.00000000    0.00000000
     atom   16 type  2   force =     0.00000000    0.00000000    0.00000000
     atom   17 type  1   force =     0.00000000    0.00000000    0.00000000
     atom   18 type  1   force =     0.00000000    0.00000000    0.00000000
     atom   19 type  2   force =     0.00000000    0.00000000    0.00000000
     atom   20 type  2   force =     0.00000000    0.00000000    0.00000000
     atom   21 type  1   force =     0.00000000    0.00000000    0.00000000
     atom   22 type  1   force =     0.00000000    0.00000000    0.00000000
     atom   23 type  2   force =     0.00000000    0.00000000    0.00000000
     atom   24 type  2   force =     0.00000000    0.00000000    0.00000000
     atom   25 type  1   force =     0.00000000    0.00000000    0.00000000
     atom   26 type  1   force =     0.00000000    0.00000000    0.00000000
     atom   27 type  2   force =     0.00000000    0.00000000    0.00000000
     atom   28 type  2   force =     0.00000000    0.00000000    0.00000000
     atom   29 type  1   force =     0.00000000    0.00000000    0.00000000
     atom   30 type  1   force =     0.00000000    0.00000000    0.00000000
     atom   31 type  2   force =     0.00000000    0.00000000    0.00000000
     atom   32 type  2   force =     0.00000000    0.00000000    0.00000000
     The SCF correction term to forces
     atom    1 type  1   force =     0.00000077    0.00000044    0.00001293
     atom    2 type  1   force =     0.00000000    0.00000093    0.00000280
     atom    3 type  2   force =     0.00000224    0.00000129    0.00000506
     atom    4 type  2   force =     0.00000000    0.00000176    0.00000797
     atom    5 type  1   force =    -0.00000471   -0.00000272   -0.00000394
     atom    6 type  1   force =     0.00000000    0.00000870    0.00000812
     atom    7 type  2   force =     0.00000014    0.00000008    0.00000272
     atom    8 type  2   force =     0.00000000    0.00000070    0.00000025
     atom    9 type  1   force =    -0.00000000    0.00000000    0.00001801
     atom   10 type  1   force =     0.00000081   -0.00000047    0.00000280
     atom   11 type  2   force =    -0.00000000    0.00000000    0.00000744
     atom   12 type  2   force =     0.00000152   -0.00000088    0.00000797
     atom   13 type  1   force =    -0.00000000    0.00000000   -0.00000472
     atom   14 type  1   force =     0.00000753   -0.00000435    0.00000812
     atom   15 type  2   force =    -0.00000000    0.00000000    0.00000199
     atom   16 type  2   force =     0.00000060   -0.00000035    0.00000025
     atom   17 type  1   force =    -0.00000077    0.00000044    0.00001293
     atom   18 type  1   force =     0.00000000    0.00000000    0.00000204
     atom   19 type  2   force =    -0.00000224    0.00000129    0.00000506
     atom   20 type  2   force =     0.00000000    0.00000000    0.00001147
     atom   21 type  1   force =     0.00000471   -0.00000272   -0.00000394
     atom   22 type  1   force =     0.00000000    0.00000000    0.00000225
     atom   23 type  2   force =    -0.00000014    0.00000008    0.00000272
     atom   24 type  2   force =     0.00000000    0.00000000   -0.00000095
     atom   25 type  1   force =    -0.00000000   -0.00000089    0.00001293
     atom   26 type  1   force =    -0.00000081   -0.00000047    0.00000280
     atom   27 type  2   force =    -0.00000000   -0.00000259    0.00000506
     atom   28 type  2   force =    -0.00000152   -0.00000088    0.00000797
     atom   29 type  1   force =    -0.00000000    0.00000544   -0.00000394
     atom   30 type  1   force =    -0.00000753   -0.00000435    0.00000812
     atom   31 type  2   force =    -0.00000000   -0.00000016    0.00000272
     atom   32 type  2   force =    -0.00000060   -0.00000035    0.00000025

     Total force =     0.003552     Total SCF correction =     0.000044
     Message from routine punch:
     Nothing written, as per user request (disk_io='none')

     General routines

     Parallel routines

   This run was terminated on:  17:16:54  10Sep2025

   JOB DONE.
Note: The following floating-point exceptions are signalling: IEEE_INVALID_FLAG
Note: The following floating-point exceptions are signalling: IEEE_INVALID_FLAG
Note: The following floating-point exceptions are signalling: IEEE_INVALID_FLAG
Note: The following floating-point exceptions are signalling: IEEE_INVALID_FLAG
Note: The following floating-point exceptions are signalling: IEEE_INVALID_FLAG
Note: The following floating-point exceptions are signalling: IEEE_INVALID_FLAG
Note: The following floating-point exceptions are signalling: IEEE_INVALID_FLAG
Note: The following floating-point exceptions are signalling: IEEE_INVALID_FLAG
Note: The following floating-point exceptions are signalling: IEEE_INVALID_FLAG
Note: The following floating-point exceptions are signalling: IEEE_INVALID_FLAG
Note: The following floating-point exceptions are signalling: IEEE_INVALID_FLAG
Note: The following floating-point exceptions are signalling: IEEE_INVALID_FLAG
Note: The following floating-point exceptions are signalling: IEEE_INVALID_FLAG
Note: The following floating-point exceptions are signalling: IEEE_INVALID_FLAG
Note: The following floating-point exceptions are signalling: IEEE_INVALID_FLAG
Note: The following floating-point exceptions are signalling: IEEE_INVALID_FLAG
Note: The following floating-point exceptions are signalling: IEEE_INVALID_FLAG
Note: The following floating-point exceptions are signalling: IEEE_INVALID_FLAG
Note: The following floating-point exceptions are signalling: IEEE_INVALID_FLAG
Note: The following floating-point exceptions are signalling: IEEE_INVALID_FLAG
Note: The following floating-point exceptions are signalling: IEEE_INVALID_FLAG
Note: The following floating-point exceptions are signalling: IEEE_INVALID_FLAG
Note: The following floating-point exceptions are signalling: IEEE_INVALID_FLAG
Note: The following floating-point exceptions are signalling: IEEE_INVALID_FLAG
Note: The following floating-point exceptions are signalling: IEEE_INVALID_FLAG
Note: The following floating-point exceptions are signalling: IEEE_INVALID_FLAG
Note: The following floating-point exceptions are signalling: IEEE_INVALID_FLAG
Note: The following floating-point exceptions are signalling: IEEE_INVALID_FLAG
Note: The following floating-point exceptions are signalling: IEEE_INVALID_FLAG
Note: The following floating-point exceptions are signalling: IEEE_INVALID_FLAG
Note: The following floating-point exceptions are signalling: IEEE_INVALID_FLAG
Note: The following floating-point exceptions are signalling: IEEE_INVALID_FLAG