     Program PWSCF v.7.2 starts on 20Jul2025 at 17: 5:59

     Reading input from /home/jvc/QEspresso7.2/ZnO_database/scripts/cell213.in/ZnO-3.47-1.65-213.in
Warning: card &CELL ignored
Warning: card / ignored
Warning: card &FCP ignored
Warning: card / ignored
Warning: card &RISM ignored
Warning: card / ignored

     Current dimensions of program PWSCF are:
     Max number of different atomic species (ntypx) = 10
     Max number of k-points (npk) =  40000
     Max angular momentum in pseudopotentials (lmaxx) =  4
     file Zn.upf: wavefunction(s)  3D renormalized
     Found identity + (  0.0000  0.0000  0.3333) symmetry
     This is a supercell, fractional translations are disabled
     Message from routine setup:
     using ibrav=0 with symmetry is DISCOURAGED, use correct ibrav instead

     K-points division:     npool     =       8
     R & G space division:  proc/nbgrp/npool/nimage =       4
     Subspace diagonalization in iterative solution of the eigenvalue problem:
     a serial algorithm will be used

     Using Slab Decomposition

     bravais-lattice index     =            0
     lattice parameter (alat)  =      12.3576  a.u.
     unit-cell volume          =    1978.7861 (a.u.)^3
     number of atoms/cell      =           24
     number of atomic types    =            2
     number of electrons       =       216.00
     number of Kohn-Sham states=          108
     kinetic-energy cutoff     =      50.0000  Ry
     charge density cutoff     =     400.0000  Ry
     scf convergence threshold =      1.0E-08
     mixing beta               =       0.3000
     number of iterations used =            8  plain     mixing
     Exchange-correlation= PBE
                           (   1   4   3   4   0   0   0)

     celldm(1)=  12.357644  celldm(2)=   0.000000  celldm(3)=   0.000000
     celldm(4)=   0.000000  celldm(5)=   0.000000  celldm(6)=   0.000000

     crystal axes: (cart. coord. in units of alat)
               a(1) = (   1.000000   0.000000   0.000000 )
               a(2) = (  -0.250000   0.433013   0.000000 )
               a(3) = (   0.000000   0.000000   2.421538 )

     reciprocal axes: (cart. coord. in units 2 pi/alat)
               b(1) = (  1.000000  0.577350 -0.000000 )
               b(2) = (  0.000000  2.309401  0.000000 )
               b(3) = (  0.000000 -0.000000  0.412961 )

     PseudoPot. # 1 for Zn read from file:
     /home/jvc/QEspresso7.2/ZnO_database/pseudos/Zn.upf
     MD5 check sum: 7f56cabf9682ed8c977c2f7d0c5985c5
     Pseudo is Ultrasoft + core correction, Zval = 12.0
     Generated using &quot;atomic&quot; code by A. Dal Corso  v.6.2.2
     Using radial grid of 1201 points,  6 beta functions with:
                l(1) =   0
                l(2) =   0
                l(3) =   1
                l(4) =   1
                l(5) =   2
                l(6) =   2
     Q(r) pseudized with 0 coefficients

     PseudoPot. # 2 for O  read from file:
     /home/jvc/QEspresso7.2/ZnO_database/pseudos/O.upf
     MD5 check sum: 91400c9766925bcf19f520983a725ff0
     Pseudo is Ultrasoft + core correction, Zval =  6.0
     Generated using &quot;atomic&quot; code by A. Dal Corso  v.6.3MaX
     Using radial grid of 1095 points,  4 beta functions with:
                l(1) =   0
                l(2) =   0
                l(3) =   1
                l(4) =   1
     Q(r) pseudized with 0 coefficients

     atomic species   valence    mass     pseudopotential
        Zn            12.00    65.38000     Zn( 1.00)
        O              6.00    15.99900     O ( 1.00)

      2 Sym. Ops. (no inversion) found

                                    s                        frac. trans.

      isym =  1     identity

 cryst.   s( 1) = (     1          0          0      )
                  (     0          1          0      )
                  (     0          0          1      )

 cart.    s( 1) = (  1.0000000  0.0000000  0.0000000 )
                  (  0.0000000  1.0000000  0.0000000 )
                  (  0.0000000  0.0000000  1.0000000 )

      isym =  2     inv. 180 deg rotation - cryst. axis [0,1,0]

 cryst.   s( 2) = (     1          2          0      )
                  (     0         -1          0      )
                  (     0          0          1      )

 cart.    s( 2) = (  0.5000000  0.8660254  0.0000000 )
                  (  0.8660254 -0.5000000  0.0000000 )
                  (  0.0000000  0.0000000  1.0000000 )

   Cartesian axes

     site n.     atom                  positions (alat units)
         1           Zn  tau(   1) = (   0.2500000   0.1443376   0.4041010  )
         2           Zn  tau(   2) = (  -0.0000000   0.2886751   0.0005114  )
         3           O   tau(   3) = (   0.2500000   0.1443376   0.7100565  )
         4           O   tau(   4) = (  -0.0000000   0.2886751   0.3064669  )
         5           Zn  tau(   5) = (   0.2500000   0.1443376   1.2112802  )
         6           Zn  tau(   6) = (  -0.0000000   0.2886751   0.8076906  )
         7           O   tau(   7) = (   0.2500000   0.1443376   1.5172357  )
         8           O   tau(   8) = (  -0.0000000   0.2886751   1.1136461  )
         9           Zn  tau(   9) = (   0.2500000   0.1443376   2.0184594  )
        10           Zn  tau(  10) = (  -0.0000000   0.2886751   1.6148698  )
        11           O   tau(  11) = (   0.2500000   0.1443376   2.3244148  )
        12           O   tau(  12) = (  -0.0000000   0.2886751   1.9208253  )
        13           Zn  tau(  13) = (   0.7500000   0.1443376   0.4041010  )
        14           Zn  tau(  14) = (   0.5000000   0.2886751   0.0005114  )
        15           O   tau(  15) = (   0.7500000   0.1443376   0.7100565  )
        16           O   tau(  16) = (   0.5000000   0.2886751   0.3064669  )
        17           Zn  tau(  17) = (   0.7500000   0.1443376   1.2112802  )
        18           Zn  tau(  18) = (   0.5000000   0.2886751   0.8076906  )
        19           O   tau(  19) = (   0.7500000   0.1443376   1.5172357  )
        20           O   tau(  20) = (   0.5000000   0.2886751   1.1136461  )
        21           Zn  tau(  21) = (   0.7500000   0.1443376   2.0184594  )
        22           Zn  tau(  22) = (   0.5000000   0.2886751   1.6148698  )
        23           O   tau(  23) = (   0.7500000   0.1443376   2.3244148  )
        24           O   tau(  24) = (   0.5000000   0.2886751   1.9208253  )

   Crystallographic axes

     site n.     atom                  positions (cryst. coord.)
         1           Zn  tau(   1) = (  0.3333333  0.3333333  0.1668779  )
         2           Zn  tau(   2) = (  0.1666667  0.6666667  0.0002112  )
         3           O   tau(   3) = (  0.3333333  0.3333333  0.2932255  )
         4           O   tau(   4) = (  0.1666667  0.6666667  0.1265588  )
         5           Zn  tau(   5) = (  0.3333333  0.3333333  0.5002112  )
         6           Zn  tau(   6) = (  0.1666667  0.6666667  0.3335445  )
         7           O   tau(   7) = (  0.3333333  0.3333333  0.6265588  )
         8           O   tau(   8) = (  0.1666667  0.6666667  0.4598921  )
         9           Zn  tau(   9) = (  0.3333333  0.3333333  0.8335445  )
        10           Zn  tau(  10) = (  0.1666667  0.6666667  0.6668779  )
        11           O   tau(  11) = (  0.3333333  0.3333333  0.9598921  )
        12           O   tau(  12) = (  0.1666667  0.6666667  0.7932255  )
        13           Zn  tau(  13) = (  0.8333333  0.3333333  0.1668779  )
        14           Zn  tau(  14) = (  0.6666667  0.6666667  0.0002112  )
        15           O   tau(  15) = (  0.8333333  0.3333333  0.2932255  )
        16           O   tau(  16) = (  0.6666667  0.6666667  0.1265588  )
        17           Zn  tau(  17) = (  0.8333333  0.3333333  0.5002112  )
        18           Zn  tau(  18) = (  0.6666667  0.6666667  0.3335445  )
        19           O   tau(  19) = (  0.8333333  0.3333333  0.6265588  )
        20           O   tau(  20) = (  0.6666667  0.6666667  0.4598921  )
        21           Zn  tau(  21) = (  0.8333333  0.3333333  0.8335445  )
        22           Zn  tau(  22) = (  0.6666667  0.6666667  0.6668779  )
        23           O   tau(  23) = (  0.8333333  0.3333333  0.9598921  )
        24           O   tau(  24) = (  0.6666667  0.6666667  0.7932255  )

     number of k points=    16
                       cart. coord. in units 2pi/alat
        k(    1) = (   0.0000000   0.0000000   0.0000000), wk =   0.0555556
        k(    2) = (   0.0000000   0.0000000  -0.2064804), wk =   0.0555556
        k(    3) = (   0.0000000   0.3849002   0.0000000), wk =   0.2222222
        k(    4) = (   0.0000000   0.3849002  -0.2064804), wk =   0.2222222
        k(    5) = (   0.0000000   0.7698004   0.0000000), wk =   0.2222222
        k(    6) = (   0.0000000   0.7698004  -0.2064804), wk =   0.2222222
        k(    7) = (   0.0000000  -1.1547005   0.0000000), wk =   0.0555556
        k(    8) = (   0.0000000  -1.1547005  -0.2064804), wk =   0.0555556
        k(    9) = (   0.3333333   0.1924501   0.0000000), wk =   0.1111111
        k(   10) = (   0.3333333   0.1924501  -0.2064804), wk =   0.1111111
        k(   11) = (   0.3333333   0.5773503   0.0000000), wk =   0.1111111
        k(   12) = (   0.3333333   0.5773503  -0.2064804), wk =   0.1111111
        k(   13) = (   0.3333333  -0.9622504   0.0000000), wk =   0.1111111
        k(   14) = (   0.3333333  -0.9622504  -0.2064804), wk =   0.1111111
        k(   15) = (   0.3333333  -0.5773503   0.0000000), wk =   0.1111111
        k(   16) = (   0.3333333  -0.5773503  -0.2064804), wk =   0.1111111

                       cryst. coord.
        k(    1) = (   0.0000000   0.0000000   0.0000000), wk =   0.0555556
        k(    2) = (   0.0000000   0.0000000  -0.5000000), wk =   0.0555556
        k(    3) = (   0.0000000   0.1666667   0.0000000), wk =   0.2222222
        k(    4) = (   0.0000000   0.1666667  -0.5000000), wk =   0.2222222
        k(    5) = (   0.0000000   0.3333333   0.0000000), wk =   0.2222222
        k(    6) = (   0.0000000   0.3333333  -0.5000000), wk =   0.2222222
        k(    7) = (   0.0000000  -0.5000000   0.0000000), wk =   0.0555556
        k(    8) = (   0.0000000  -0.5000000  -0.5000000), wk =   0.0555556
        k(    9) = (   0.3333333   0.0000000   0.0000000), wk =   0.1111111
        k(   10) = (   0.3333333   0.0000000  -0.5000000), wk =   0.1111111
        k(   11) = (   0.3333333   0.1666667   0.0000000), wk =   0.1111111
        k(   12) = (   0.3333333   0.1666667  -0.5000000), wk =   0.1111111
        k(   13) = (   0.3333333  -0.5000000   0.0000000), wk =   0.1111111
        k(   14) = (   0.3333333  -0.5000000  -0.5000000), wk =   0.1111111
        k(   15) = (   0.3333333  -0.3333333   0.0000000), wk =   0.1111111
        k(   16) = (   0.3333333  -0.3333333  -0.5000000), wk =   0.1111111

     Check: negative core charge=   -0.000002

     Initial potential from superposition of free atoms

     starting charge     215.9553, renormalised to     216.0000
     Starting wfcs are  156 randomized atomic wfcs

     Self-consistent Calculation

     iteration #  1     ecut=    50.00 Ry     beta= 0.30
     Davidson diagonalization with overlap

[...]
     1.0000   1.0000   1.0000   1.0000   1.0000   1.0000   1.0000   1.0000
     1.0000   1.0000   1.0000   1.0000   1.0000   1.0000   1.0000   1.0000
     1.0000   1.0000   1.0000   1.0000

[...]

          k = 0.3333-0.5774-0.2065 ( 11810 PWs)   bands (ev):

   -10.6015 -10.6015 -10.4038 -10.4038 -10.2081 -10.2081 -10.1919 -10.1919
   -10.1919 -10.1919 -10.1848 -10.1848   1.0209   1.0209   1.1086   1.1086
     1.2850   1.2850   1.3081   1.3081   1.3212   1.3212   1.5188   1.5188
     1.5305   1.5305   1.5328   1.5328   1.5573   1.5573   1.5787   1.5787
     1.5787   1.5787   1.6781   1.6781   1.8092   1.8092   1.8094   1.8094
     1.9187   1.9187   2.0556   2.0556   2.1585   2.1585   2.1585   2.1585
     2.3642   2.3643   2.3793   2.3793   2.4346   2.4346   2.4789   2.4789
     2.4791   2.4792   2.5519   2.5519   2.5835   2.5835   2.6363   2.6364
     2.6812   2.6812   2.6812   2.6812   2.7500   2.7501   2.9254   2.9254
     3.2429   3.2429   3.3685   3.3685   3.3685   3.3685   3.3752   3.3752
     3.4090   3.4090   4.2135   4.2135   4.2827   4.2827   4.5551   4.5551
     4.6101   4.6101   5.0893   5.0893   5.1982   5.1982   5.1982   5.1983
     5.2328   5.2328   5.5301   5.5301   5.6818   5.6818   5.7237   5.7237
     6.1732   6.1733   6.2739   6.2739

     occupation numbers
     1.0000   1.0000   1.0000   1.0000   1.0000   1.0000   1.0000   1.0000
     1.0000   1.0000   1.0000   1.0000   1.0000   1.0000   1.0000   1.0000
     1.0000   1.0000   1.0000   1.0000   1.0000   1.0000   1.0000   1.0000
     1.0000   1.0000   1.0000   1.0000   1.0000   1.0000   1.0000   1.0000
     1.0000   1.0000   1.0000   1.0000   1.0000   1.0000   1.0000   1.0000
     1.0000   1.0000   1.0000   1.0000   1.0000   1.0000   1.0000   1.0000
     1.0000   1.0000   1.0000   1.0000   1.0000   1.0000   1.0000   1.0000
     1.0000   1.0000   1.0000   1.0000   1.0000   1.0000   1.0000   1.0000
     1.0000   1.0000   1.0000   1.0000   1.0000   1.0000   1.0000   1.0000
     1.0000   1.0000   1.0000   1.0000   1.0000   1.0000   1.0000   1.0000
     1.0000   1.0000   1.0000   1.0000   1.0000   1.0000   1.0000   1.0000
     1.0000   1.0000   1.0000   1.0000   1.0000   1.0000   1.0000   1.0000
     1.0000   1.0000   1.0000   1.0000   1.0000   1.0000   1.0000   1.0000
     1.0000   1.0000   1.0000   1.0000

     highest occupied level (ev):     6.8874

!    total energy              =   -2169.82132736 Ry
     estimated scf accuracy    <          7.2E-09 Ry

     The total energy is the sum of the following terms:
     one-electron contribution =    -927.15042511 Ry
     hartree contribution      =     709.73377401 Ry
     xc contribution           =    -657.27628435 Ry
     ewald contribution        =   -1295.12839192 Ry

     convergence has been achieved in  25 iterations

     Forces acting on atoms (cartesian axes, Ry/au):

     atom    1 type  1   force =    -0.00000004   -0.00000002    0.00006341
     atom    2 type  1   force =    -0.00000321   -0.00000185    0.00005335
     atom    3 type  2   force =     0.00000104    0.00000060   -0.00005642
     atom    4 type  2   force =    -0.00000073   -0.00000042   -0.00005408
     atom    5 type  1   force =     0.00000105    0.00000060    0.00005652
     atom    6 type  1   force =    -0.00000133   -0.00000077    0.00005828
     atom    7 type  2   force =     0.00000045    0.00000026   -0.00006012
     atom    8 type  2   force =    -0.00000106   -0.00000061   -0.00005781
     atom    9 type  1   force =    -0.00000136   -0.00000079    0.00005950
     atom   10 type  1   force =    -0.00000481   -0.00000278    0.00006063
     atom   11 type  2   force =    -0.00000172   -0.00000099   -0.00006024
     atom   12 type  2   force =    -0.00000184   -0.00000106   -0.00005997
     atom   13 type  1   force =     0.00000192    0.00000111    0.00006174
     atom   14 type  1   force =     0.00000183    0.00000106    0.00005455
     atom   15 type  2   force =     0.00000096    0.00000055   -0.00005770
     atom   16 type  2   force =    -0.00000305   -0.00000176   -0.00005436
     atom   17 type  1   force =     0.00000232    0.00000134    0.00005627
     atom   18 type  1   force =    -0.00000184   -0.00000106    0.00006167
     atom   19 type  2   force =     0.00000089    0.00000051   -0.00006134
     atom   20 type  2   force =    -0.00000160   -0.00000092   -0.00005624
     atom   21 type  1   force =     0.00000884    0.00000510    0.00005647
     atom   22 type  1   force =     0.00000140    0.00000081    0.00005765
     atom   23 type  2   force =     0.00000265    0.00000153   -0.00006230
     atom   24 type  2   force =    -0.00000074   -0.00000043   -0.00005948
     The non-local contrib.  to forces
     atom    1 type  1   force =    -0.00000189   -0.00000109   -0.00483696
     atom    2 type  1   force =    -0.00000011   -0.00000006   -0.00483050
     atom    3 type  2   force =    -0.00000050   -0.00000029    0.00575106
     atom    4 type  2   force =     0.00000110    0.00000063    0.00575089
     atom    5 type  1   force =    -0.00000060   -0.00000035   -0.00483534
     atom    6 type  1   force =     0.00000048    0.00000028   -0.00483784
     atom    7 type  2   force =    -0.00000042   -0.00000024    0.00575258
     atom    8 type  2   force =     0.00000135    0.00000078    0.00575306
     atom    9 type  1   force =    -0.00000054   -0.00000031   -0.00482754
     atom   10 type  1   force =    -0.00000022   -0.00000013   -0.00482793
     atom   11 type  2   force =    -0.00000160   -0.00000092    0.00575872
     atom   12 type  2   force =     0.00000157    0.00000091    0.00575247
     atom   13 type  1   force =     0.00000037    0.00000022   -0.00483851
     atom   14 type  1   force =     0.00000027    0.00000016   -0.00483089
     atom   15 type  2   force =    -0.00000056   -0.00000032    0.00575195
     atom   16 type  2   force =    -0.00000074   -0.00000043    0.00575240
     atom   17 type  1   force =    -0.00000021   -0.00000012   -0.00483644
     atom   18 type  1   force =     0.00000012    0.00000007   -0.00483544
     atom   19 type  2   force =    -0.00000142   -0.00000082    0.00575000
     atom   20 type  2   force =     0.00000083    0.00000048    0.00575406
     atom   21 type  1   force =     0.00000018    0.00000010   -0.00482941
     atom   22 type  1   force =     0.00000120    0.00000069   -0.00482794
     atom   23 type  2   force =    -0.00000061   -0.00000035    0.00575382
     atom   24 type  2   force =     0.00000003    0.00000002    0.00575434
     The ionic contribution  to forces
     atom    1 type  1   force =    -0.00000000    0.00000000    0.06271746
     atom    2 type  1   force =     0.00000000   -0.00000000    0.06271750
     atom    3 type  2   force =    -0.00000000    0.00000000   -0.06271747
     atom    4 type  2   force =     0.00000000   -0.00000000   -0.06271748
     atom    5 type  1   force =    -0.00000000    0.00000000    0.06271750
     atom    6 type  1   force =     0.00000000   -0.00000000    0.06271746
     atom    7 type  2   force =    -0.00000000    0.00000000   -0.06271748
     atom    8 type  2   force =     0.00000000   -0.00000000   -0.06271746
     atom    9 type  1   force =    -0.00000000    0.00000000    0.06271746
     atom   10 type  1   force =     0.00000000   -0.00000000    0.06271746
     atom   11 type  2   force =    -0.00000000    0.00000000   -0.06271746
     atom   12 type  2   force =     0.00000000   -0.00000000   -0.06271747
     atom   13 type  1   force =    -0.00000000    0.00000000    0.06271746
     atom   14 type  1   force =     0.00000000   -0.00000000    0.06271750
     atom   15 type  2   force =    -0.00000000    0.00000000   -0.06271747
     atom   16 type  2   force =     0.00000000   -0.00000000   -0.06271748
     atom   17 type  1   force =    -0.00000000    0.00000000    0.06271750
     atom   18 type  1   force =     0.00000000   -0.00000000    0.06271746
     atom   19 type  2   force =    -0.00000000    0.00000000   -0.06271748
     atom   20 type  2   force =     0.00000000   -0.00000000   -0.06271746
     atom   21 type  1   force =    -0.00000000    0.00000000    0.06271746
     atom   22 type  1   force =     0.00000000   -0.00000000    0.06271746
     atom   23 type  2   force =    -0.00000000    0.00000000   -0.06271746
     atom   24 type  2   force =     0.00000000   -0.00000000   -0.06271747
     The local contribution  to forces
     atom    1 type  1   force =     0.00000353    0.00000204   -0.05828539
     atom    2 type  1   force =     0.00000148    0.00000075   -0.05828988
     atom    3 type  2   force =    -0.00000075   -0.00000043    0.05697622
     atom    4 type  2   force =     0.00000052    0.00000027    0.05697667
     atom    5 type  1   force =    -0.00000051   -0.00000029   -0.05828303
     atom    6 type  1   force =    -0.00000105   -0.00000071   -0.05827951
     atom    7 type  2   force =     0.00000074    0.00000043    0.05696722
     atom    8 type  2   force =    -0.00000088   -0.00000054    0.05697268
     atom    9 type  1   force =     0.00000272    0.00000157   -0.05829527
     atom   10 type  1   force =     0.00000362    0.00000199   -0.05829823
     atom   11 type  2   force =    -0.00000075   -0.00000043    0.05696588
     atom   12 type  2   force =    -0.00000316   -0.00000185    0.05696775
     atom   13 type  1   force =    -0.00000231   -0.00000133   -0.05828134
     atom   14 type  1   force =    -0.00000146   -0.00000094   -0.05828852
     atom   15 type  2   force =     0.00000069    0.00000040    0.05697341
     atom   16 type  2   force =    -0.00000215   -0.00000127    0.05697515
     atom   17 type  1   force =     0.00000102    0.00000059   -0.05828174
     atom   18 type  1   force =     0.00000157    0.00000081   -0.05828647
     atom   19 type  2   force =     0.00000259    0.00000150    0.05696729
     atom   20 type  2   force =    -0.00000336   -0.00000197    0.05697718
     atom   21 type  1   force =    -0.00000414   -0.00000239   -0.05829196
     atom   22 type  1   force =    -0.00000348   -0.00000211   -0.05829546
     atom   23 type  2   force =     0.00000334    0.00000193    0.05696449
     atom   24 type  2   force =    -0.00000104   -0.00000063    0.05696807
     The core correction contribution to forces
     atom    1 type  1   force =    -0.00000005   -0.00000003    0.00046404
     atom    2 type  1   force =     0.00000001   -0.00000000    0.00046403
     atom    3 type  2   force =    -0.00000000   -0.00000000   -0.00006497
     atom    4 type  2   force =    -0.00000001   -0.00000001   -0.00006497
     atom    5 type  1   force =     0.00000009    0.00000005    0.00046401
     atom    6 type  1   force =     0.00000007    0.00000003    0.00046398
     atom    7 type  2   force =     0.00000001    0.00000000   -0.00006500
     atom    8 type  2   force =    -0.00000001   -0.00000001   -0.00006501
     atom    9 type  1   force =    -0.00000002   -0.00000001    0.00046400
     atom   10 type  1   force =    -0.00000003   -0.00000003    0.00046416
     atom   11 type  2   force =     0.00000002    0.00000001   -0.00006507
     atom   12 type  2   force =    -0.00000003   -0.00000002   -0.00006500
     atom   13 type  1   force =     0.00000008    0.00000005    0.00046402
     atom   14 type  1   force =    -0.00000001   -0.00000002    0.00046395
     atom   15 type  2   force =     0.00000001    0.00000000   -0.00006499
     atom   16 type  2   force =     0.00000001    0.00000000   -0.00006500
     atom   17 type  1   force =    -0.00000007   -0.00000004    0.00046408
     atom   18 type  1   force =    -0.00000006   -0.00000005    0.00046401
     atom   19 type  2   force =     0.00000002    0.00000001   -0.00006497
     atom   20 type  2   force =    -0.00000002   -0.00000001   -0.00006500
     atom   21 type  1   force =     0.00000001    0.00000000    0.00046406
     atom   22 type  1   force =     0.00000006    0.00000002    0.00046409
     atom   23 type  2   force =     0.00000001    0.00000001   -0.00006503
     atom   24 type  2   force =    -0.00000000   -0.00000000   -0.00006502
     The Hubbard contrib.    to forces
     atom    1 type  1   force =     0.00000000    0.00000000    0.00000000
     atom    2 type  1   force =     0.00000000    0.00000000    0.00000000
     atom    3 type  2   force =     0.00000000    0.00000000    0.00000000
     atom    4 type  2   force =     0.00000000    0.00000000    0.00000000
     atom    5 type  1   force =     0.00000000    0.00000000    0.00000000
     atom    6 type  1   force =     0.00000000    0.00000000    0.00000000
     atom    7 type  2   force =     0.00000000    0.00000000    0.00000000
     atom    8 type  2   force =     0.00000000    0.00000000    0.00000000
     atom    9 type  1   force =     0.00000000    0.00000000    0.00000000
     atom   10 type  1   force =     0.00000000    0.00000000    0.00000000
     atom   11 type  2   force =     0.00000000    0.00000000    0.00000000
     atom   12 type  2   force =     0.00000000    0.00000000    0.00000000
     atom   13 type  1   force =     0.00000000    0.00000000    0.00000000
     atom   14 type  1   force =     0.00000000    0.00000000    0.00000000
     atom   15 type  2   force =     0.00000000    0.00000000    0.00000000
     atom   16 type  2   force =     0.00000000    0.00000000    0.00000000
     atom   17 type  1   force =     0.00000000    0.00000000    0.00000000
     atom   18 type  1   force =     0.00000000    0.00000000    0.00000000
     atom   19 type  2   force =     0.00000000    0.00000000    0.00000000
     atom   20 type  2   force =     0.00000000    0.00000000    0.00000000
     atom   21 type  1   force =     0.00000000    0.00000000    0.00000000
     atom   22 type  1   force =     0.00000000    0.00000000    0.00000000
     atom   23 type  2   force =     0.00000000    0.00000000    0.00000000
     atom   24 type  2   force =     0.00000000    0.00000000    0.00000000
     The SCF correction term to forces
     atom    1 type  1   force =    -0.00000169   -0.00000097    0.00000386
     atom    2 type  1   force =    -0.00000460   -0.00000265   -0.00000821
     atom    3 type  2   force =     0.00000224    0.00000129   -0.00000166
     atom    4 type  2   force =    -0.00000237   -0.00000137    0.00000040
     atom    5 type  1   force =     0.00000202    0.00000117   -0.00000702
     atom    6 type  1   force =    -0.00000083   -0.00000048   -0.00000621
     atom    7 type  2   force =     0.00000007    0.00000004    0.00000214
     atom    8 type  2   force =    -0.00000155   -0.00000090   -0.00000149
     atom    9 type  1   force =    -0.00000357   -0.00000206    0.00000046
     atom   10 type  1   force =    -0.00000817   -0.00000472    0.00000477
     atom   11 type  2   force =     0.00000057    0.00000033   -0.00000272
     atom   12 type  2   force =    -0.00000026   -0.00000015    0.00000187
     atom   13 type  1   force =     0.00000372    0.00000215   -0.00000029
     atom   14 type  1   force =     0.00000303    0.00000175   -0.00000789
     atom   15 type  2   force =     0.00000077    0.00000045   -0.00000101
     atom   16 type  2   force =    -0.00000021   -0.00000012    0.00000016
     atom   17 type  1   force =     0.00000154    0.00000089   -0.00000753
     atom   18 type  1   force =    -0.00000348   -0.00000201    0.00000170
     atom   19 type  2   force =    -0.00000036   -0.00000021    0.00000341
     atom   20 type  2   force =     0.00000092    0.00000053   -0.00000543
     atom   21 type  1   force =     0.00001274    0.00000735   -0.00000409
     atom   22 type  1   force =     0.00000362    0.00000209   -0.00000090
     atom   23 type  2   force =    -0.00000013   -0.00000008    0.00000147
     atom   24 type  2   force =     0.00000023    0.00000013    0.00000019

     Total force =     0.000287     Total SCF correction =     0.000029
     SCF correction compared to forces is large: reduce conv_thr to get better values

     General routines

     Parallel routines

   This run was terminated on:  17:10: 9  20Jul2025

   JOB DONE.
Note: The following floating-point exceptions are signalling: IEEE_INVALID_FLAG
Note: The following floating-point exceptions are signalling: IEEE_INVALID_FLAG
Note: The following floating-point exceptions are signalling: IEEE_INVALID_FLAG
Note: The following floating-point exceptions are signalling: IEEE_INVALID_FLAG
Note: The following floating-point exceptions are signalling: IEEE_INVALID_FLAG
Note: The following floating-point exceptions are signalling: IEEE_INVALID_FLAG
Note: The following floating-point exceptions are signalling: IEEE_INVALID_FLAG
Note: The following floating-point exceptions are signalling: IEEE_INVALID_FLAG