     Program PWSCF v.7.2 starts on 20Jul2025 at 18: 0:18

     Reading input from /home/jvc/QEspresso7.2/ZnO_database/scripts/cell213.in/ZnO-3.53-1.71-213.in
Warning: card &CELL ignored
Warning: card / ignored
Warning: card &FCP ignored
Warning: card / ignored
Warning: card &RISM ignored
Warning: card / ignored

     Current dimensions of program PWSCF are:
     Max number of different atomic species (ntypx) = 10
     Max number of k-points (npk) =  40000
     Max angular momentum in pseudopotentials (lmaxx) =  4
     file Zn.upf: wavefunction(s)  3D renormalized
     Found identity + (  0.0000  0.0000  0.3333) symmetry
     This is a supercell, fractional translations are disabled
     Message from routine setup:
     using ibrav=0 with symmetry is DISCOURAGED, use correct ibrav instead

     K-points division:     npool     =       8
     R & G space division:  proc/nbgrp/npool/nimage =       4
     Subspace diagonalization in iterative solution of the eigenvalue problem:
     a serial algorithm will be used

     Using Slab Decomposition

     bravais-lattice index     =            0
     lattice parameter (alat)  =      12.3576  a.u.
     unit-cell volume          =    1978.7861 (a.u.)^3
     number of atoms/cell      =           24
     number of atomic types    =            2
     number of electrons       =       216.00
     number of Kohn-Sham states=          108
     kinetic-energy cutoff     =      50.0000  Ry
     charge density cutoff     =     400.0000  Ry
     scf convergence threshold =      1.0E-08
     mixing beta               =       0.3000
     number of iterations used =            8  plain     mixing
     Exchange-correlation= PBE
                           (   1   4   3   4   0   0   0)

     celldm(1)=  12.357644  celldm(2)=   0.000000  celldm(3)=   0.000000
     celldm(4)=   0.000000  celldm(5)=   0.000000  celldm(6)=   0.000000

     crystal axes: (cart. coord. in units of alat)
               a(1) = (   1.000000   0.000000   0.000000 )
               a(2) = (  -0.250000   0.433013   0.000000 )
               a(3) = (   0.000000   0.000000   2.421538 )

     reciprocal axes: (cart. coord. in units 2 pi/alat)
               b(1) = (  1.000000  0.577350 -0.000000 )
               b(2) = (  0.000000  2.309401  0.000000 )
               b(3) = (  0.000000 -0.000000  0.412961 )

     PseudoPot. # 1 for Zn read from file:
     /home/jvc/QEspresso7.2/ZnO_database/pseudos/Zn.upf
     MD5 check sum: 7f56cabf9682ed8c977c2f7d0c5985c5
     Pseudo is Ultrasoft + core correction, Zval = 12.0
     Generated using &quot;atomic&quot; code by A. Dal Corso  v.6.2.2
     Using radial grid of 1201 points,  6 beta functions with:
                l(1) =   0
                l(2) =   0
                l(3) =   1
                l(4) =   1
                l(5) =   2
                l(6) =   2
     Q(r) pseudized with 0 coefficients

     PseudoPot. # 2 for O  read from file:
     /home/jvc/QEspresso7.2/ZnO_database/pseudos/O.upf
     MD5 check sum: 91400c9766925bcf19f520983a725ff0
     Pseudo is Ultrasoft + core correction, Zval =  6.0
     Generated using &quot;atomic&quot; code by A. Dal Corso  v.6.3MaX
     Using radial grid of 1095 points,  4 beta functions with:
                l(1) =   0
                l(2) =   0
                l(3) =   1
                l(4) =   1
     Q(r) pseudized with 0 coefficients

     atomic species   valence    mass     pseudopotential
        Zn            12.00    65.38000     Zn( 1.00)
        O              6.00    15.99900     O ( 1.00)

      2 Sym. Ops. (no inversion) found

                                    s                        frac. trans.

      isym =  1     identity

 cryst.   s( 1) = (     1          0          0      )
                  (     0          1          0      )
                  (     0          0          1      )

 cart.    s( 1) = (  1.0000000  0.0000000  0.0000000 )
                  (  0.0000000  1.0000000  0.0000000 )
                  (  0.0000000  0.0000000  1.0000000 )

      isym =  2     inv. 180 deg rotation - cryst. axis [0,1,0]

 cryst.   s( 2) = (     1          2          0      )
                  (     0         -1          0      )
                  (     0          0          1      )

 cart.    s( 2) = (  0.5000000  0.8660254  0.0000000 )
                  (  0.8660254 -0.5000000  0.0000000 )
                  (  0.0000000  0.0000000  1.0000000 )

   Cartesian axes

     site n.     atom                  positions (alat units)
         1           Zn  tau(   1) = (   0.2500000   0.1443376   0.4041010  )
         2           Zn  tau(   2) = (  -0.0000000   0.2886751   0.0005114  )
         3           O   tau(   3) = (   0.2500000   0.1443376   0.7100565  )
         4           O   tau(   4) = (  -0.0000000   0.2886751   0.3064669  )
         5           Zn  tau(   5) = (   0.2500000   0.1443376   1.2112802  )
         6           Zn  tau(   6) = (  -0.0000000   0.2886751   0.8076906  )
         7           O   tau(   7) = (   0.2500000   0.1443376   1.5172357  )
         8           O   tau(   8) = (  -0.0000000   0.2886751   1.1136461  )
         9           Zn  tau(   9) = (   0.2500000   0.1443376   2.0184594  )
        10           Zn  tau(  10) = (  -0.0000000   0.2886751   1.6148698  )
        11           O   tau(  11) = (   0.2500000   0.1443376   2.3244148  )
        12           O   tau(  12) = (  -0.0000000   0.2886751   1.9208253  )
        13           Zn  tau(  13) = (   0.7500000   0.1443376   0.4041010  )
        14           Zn  tau(  14) = (   0.5000000   0.2886751   0.0005114  )
        15           O   tau(  15) = (   0.7500000   0.1443376   0.7100565  )
        16           O   tau(  16) = (   0.5000000   0.2886751   0.3064669  )
        17           Zn  tau(  17) = (   0.7500000   0.1443376   1.2112802  )
        18           Zn  tau(  18) = (   0.5000000   0.2886751   0.8076906  )
        19           O   tau(  19) = (   0.7500000   0.1443376   1.5172357  )
        20           O   tau(  20) = (   0.5000000   0.2886751   1.1136461  )
        21           Zn  tau(  21) = (   0.7500000   0.1443376   2.0184594  )
        22           Zn  tau(  22) = (   0.5000000   0.2886751   1.6148698  )
        23           O   tau(  23) = (   0.7500000   0.1443376   2.3244148  )
        24           O   tau(  24) = (   0.5000000   0.2886751   1.9208253  )

   Crystallographic axes

     site n.     atom                  positions (cryst. coord.)
         1           Zn  tau(   1) = (  0.3333333  0.3333333  0.1668779  )
         2           Zn  tau(   2) = (  0.1666667  0.6666667  0.0002112  )
         3           O   tau(   3) = (  0.3333333  0.3333333  0.2932255  )
         4           O   tau(   4) = (  0.1666667  0.6666667  0.1265588  )
         5           Zn  tau(   5) = (  0.3333333  0.3333333  0.5002112  )
         6           Zn  tau(   6) = (  0.1666667  0.6666667  0.3335445  )
         7           O   tau(   7) = (  0.3333333  0.3333333  0.6265588  )
         8           O   tau(   8) = (  0.1666667  0.6666667  0.4598921  )
         9           Zn  tau(   9) = (  0.3333333  0.3333333  0.8335445  )
        10           Zn  tau(  10) = (  0.1666667  0.6666667  0.6668779  )
        11           O   tau(  11) = (  0.3333333  0.3333333  0.9598921  )
        12           O   tau(  12) = (  0.1666667  0.6666667  0.7932255  )
        13           Zn  tau(  13) = (  0.8333333  0.3333333  0.1668779  )
        14           Zn  tau(  14) = (  0.6666667  0.6666667  0.0002112  )
        15           O   tau(  15) = (  0.8333333  0.3333333  0.2932255  )
        16           O   tau(  16) = (  0.6666667  0.6666667  0.1265588  )
        17           Zn  tau(  17) = (  0.8333333  0.3333333  0.5002112  )
        18           Zn  tau(  18) = (  0.6666667  0.6666667  0.3335445  )
        19           O   tau(  19) = (  0.8333333  0.3333333  0.6265588  )
        20           O   tau(  20) = (  0.6666667  0.6666667  0.4598921  )
        21           Zn  tau(  21) = (  0.8333333  0.3333333  0.8335445  )
        22           Zn  tau(  22) = (  0.6666667  0.6666667  0.6668779  )
        23           O   tau(  23) = (  0.8333333  0.3333333  0.9598921  )
        24           O   tau(  24) = (  0.6666667  0.6666667  0.7932255  )

     number of k points=    16
                       cart. coord. in units 2pi/alat
        k(    1) = (   0.0000000   0.0000000   0.0000000), wk =   0.0555556
        k(    2) = (   0.0000000   0.0000000  -0.2064804), wk =   0.0555556
        k(    3) = (   0.0000000   0.3849002   0.0000000), wk =   0.2222222
        k(    4) = (   0.0000000   0.3849002  -0.2064804), wk =   0.2222222
        k(    5) = (   0.0000000   0.7698004   0.0000000), wk =   0.2222222
        k(    6) = (   0.0000000   0.7698004  -0.2064804), wk =   0.2222222
        k(    7) = (   0.0000000  -1.1547005   0.0000000), wk =   0.0555556
        k(    8) = (   0.0000000  -1.1547005  -0.2064804), wk =   0.0555556
        k(    9) = (   0.3333333   0.1924501   0.0000000), wk =   0.1111111
        k(   10) = (   0.3333333   0.1924501  -0.2064804), wk =   0.1111111
        k(   11) = (   0.3333333   0.5773503   0.0000000), wk =   0.1111111
        k(   12) = (   0.3333333   0.5773503  -0.2064804), wk =   0.1111111
        k(   13) = (   0.3333333  -0.9622504   0.0000000), wk =   0.1111111
        k(   14) = (   0.3333333  -0.9622504  -0.2064804), wk =   0.1111111
        k(   15) = (   0.3333333  -0.5773503   0.0000000), wk =   0.1111111
        k(   16) = (   0.3333333  -0.5773503  -0.2064804), wk =   0.1111111

                       cryst. coord.
        k(    1) = (   0.0000000   0.0000000   0.0000000), wk =   0.0555556
        k(    2) = (   0.0000000   0.0000000  -0.5000000), wk =   0.0555556
        k(    3) = (   0.0000000   0.1666667   0.0000000), wk =   0.2222222
        k(    4) = (   0.0000000   0.1666667  -0.5000000), wk =   0.2222222
        k(    5) = (   0.0000000   0.3333333   0.0000000), wk =   0.2222222
        k(    6) = (   0.0000000   0.3333333  -0.5000000), wk =   0.2222222
        k(    7) = (   0.0000000  -0.5000000   0.0000000), wk =   0.0555556
        k(    8) = (   0.0000000  -0.5000000  -0.5000000), wk =   0.0555556
        k(    9) = (   0.3333333   0.0000000   0.0000000), wk =   0.1111111
        k(   10) = (   0.3333333   0.0000000  -0.5000000), wk =   0.1111111
        k(   11) = (   0.3333333   0.1666667   0.0000000), wk =   0.1111111
        k(   12) = (   0.3333333   0.1666667  -0.5000000), wk =   0.1111111
        k(   13) = (   0.3333333  -0.5000000   0.0000000), wk =   0.1111111
        k(   14) = (   0.3333333  -0.5000000  -0.5000000), wk =   0.1111111
        k(   15) = (   0.3333333  -0.3333333   0.0000000), wk =   0.1111111
        k(   16) = (   0.3333333  -0.3333333  -0.5000000), wk =   0.1111111

     Check: negative core charge=   -0.000002

     Initial potential from superposition of free atoms

     starting charge     215.9553, renormalised to     216.0000
     Starting wfcs are  156 randomized atomic wfcs

     Self-consistent Calculation

     iteration #  1     ecut=    50.00 Ry     beta= 0.30
     Davidson diagonalization with overlap

[...]
     1.0000   1.0000   1.0000   1.0000   1.0000   1.0000   1.0000   1.0000
     1.0000   1.0000   1.0000   1.0000   1.0000   1.0000   1.0000   1.0000
     1.0000   1.0000   1.0000   1.0000

[...]

          k = 0.3333-0.5774-0.2065 ( 11810 PWs)   bands (ev):

   -10.6015 -10.6015 -10.4038 -10.4038 -10.2081 -10.2081 -10.1919 -10.1919
   -10.1919 -10.1919 -10.1848 -10.1848   1.0209   1.0209   1.1086   1.1086
     1.2850   1.2850   1.3081   1.3081   1.3212   1.3212   1.5188   1.5188
     1.5305   1.5305   1.5328   1.5328   1.5573   1.5573   1.5787   1.5787
     1.5787   1.5787   1.6781   1.6781   1.8092   1.8092   1.8094   1.8094
     1.9187   1.9187   2.0556   2.0556   2.1585   2.1585   2.1585   2.1585
     2.3642   2.3643   2.3793   2.3793   2.4346   2.4346   2.4789   2.4789
     2.4791   2.4792   2.5519   2.5519   2.5835   2.5835   2.6363   2.6364
     2.6812   2.6812   2.6812   2.6812   2.7500   2.7501   2.9254   2.9254
     3.2429   3.2429   3.3685   3.3685   3.3685   3.3685   3.3752   3.3752
     3.4090   3.4090   4.2135   4.2135   4.2827   4.2827   4.5551   4.5551
     4.6101   4.6101   5.0893   5.0893   5.1982   5.1982   5.1982   5.1983
     5.2328   5.2328   5.5301   5.5301   5.6818   5.6818   5.7237   5.7237
     6.1732   6.1733   6.2739   6.2739

     occupation numbers
     1.0000   1.0000   1.0000   1.0000   1.0000   1.0000   1.0000   1.0000
     1.0000   1.0000   1.0000   1.0000   1.0000   1.0000   1.0000   1.0000
     1.0000   1.0000   1.0000   1.0000   1.0000   1.0000   1.0000   1.0000
     1.0000   1.0000   1.0000   1.0000   1.0000   1.0000   1.0000   1.0000
     1.0000   1.0000   1.0000   1.0000   1.0000   1.0000   1.0000   1.0000
     1.0000   1.0000   1.0000   1.0000   1.0000   1.0000   1.0000   1.0000
     1.0000   1.0000   1.0000   1.0000   1.0000   1.0000   1.0000   1.0000
     1.0000   1.0000   1.0000   1.0000   1.0000   1.0000   1.0000   1.0000
     1.0000   1.0000   1.0000   1.0000   1.0000   1.0000   1.0000   1.0000
     1.0000   1.0000   1.0000   1.0000   1.0000   1.0000   1.0000   1.0000
     1.0000   1.0000   1.0000   1.0000   1.0000   1.0000   1.0000   1.0000
     1.0000   1.0000   1.0000   1.0000   1.0000   1.0000   1.0000   1.0000
     1.0000   1.0000   1.0000   1.0000   1.0000   1.0000   1.0000   1.0000
     1.0000   1.0000   1.0000   1.0000

     highest occupied level (ev):     6.8874

!    total energy              =   -2169.82132736 Ry
     estimated scf accuracy    <          7.1E-09 Ry

     The total energy is the sum of the following terms:
     one-electron contribution =    -927.15041975 Ry
     hartree contribution      =     709.73376657 Ry
     xc contribution           =    -657.27628226 Ry
     ewald contribution        =   -1295.12839192 Ry

     convergence has been achieved in  25 iterations

     Forces acting on atoms (cartesian axes, Ry/au):

     atom    1 type  1   force =    -0.00000006   -0.00000003    0.00006315
     atom    2 type  1   force =    -0.00000323   -0.00000187    0.00005331
     atom    3 type  2   force =     0.00000114    0.00000066   -0.00005646
     atom    4 type  2   force =    -0.00000082   -0.00000047   -0.00005398
     atom    5 type  1   force =     0.00000112    0.00000064    0.00005622
     atom    6 type  1   force =    -0.00000129   -0.00000075    0.00005781
     atom    7 type  2   force =     0.00000044    0.00000025   -0.00006017
     atom    8 type  2   force =    -0.00000114   -0.00000066   -0.00005786
     atom    9 type  1   force =    -0.00000142   -0.00000082    0.00006030
     atom   10 type  1   force =    -0.00000478   -0.00000276    0.00006108
     atom   11 type  2   force =    -0.00000166   -0.00000096   -0.00006036
     atom   12 type  2   force =    -0.00000191   -0.00000110   -0.00005993
     atom   13 type  1   force =     0.00000192    0.00000111    0.00006150
     atom   14 type  1   force =     0.00000191    0.00000110    0.00005451
     atom   15 type  2   force =     0.00000098    0.00000056   -0.00005787
     atom   16 type  2   force =    -0.00000304   -0.00000176   -0.00005435
     atom   17 type  1   force =     0.00000227    0.00000131    0.00005606
     atom   18 type  1   force =    -0.00000185   -0.00000107    0.00006124
     atom   19 type  2   force =     0.00000099    0.00000057   -0.00006132
     atom   20 type  2   force =    -0.00000168   -0.00000097   -0.00005640
     atom   21 type  1   force =     0.00000874    0.00000505    0.00005734
     atom   22 type  1   force =     0.00000140    0.00000081    0.00005799
     atom   23 type  2   force =     0.00000271    0.00000156   -0.00006244
     atom   24 type  2   force =    -0.00000074   -0.00000043   -0.00005935
     The non-local contrib.  to forces
     atom    1 type  1   force =    -0.00000188   -0.00000109   -0.00483737
     atom    2 type  1   force =    -0.00000006   -0.00000004   -0.00483033
     atom    3 type  2   force =    -0.00000050   -0.00000029    0.00575101
     atom    4 type  2   force =     0.00000102    0.00000059    0.00575074
     atom    5 type  1   force =    -0.00000052   -0.00000030   -0.00483548
     atom    6 type  1   force =     0.00000050    0.00000029   -0.00483814
     atom    7 type  2   force =    -0.00000043   -0.00000025    0.00575213
     atom    8 type  2   force =     0.00000160    0.00000092    0.00575312
     atom    9 type  1   force =    -0.00000051   -0.00000029   -0.00482704
     atom   10 type  1   force =    -0.00000017   -0.00000010   -0.00482772
     atom   11 type  2   force =    -0.00000142   -0.00000082    0.00575871
     atom   12 type  2   force =     0.00000174    0.00000101    0.00575186
     atom   13 type  1   force =     0.00000036    0.00000021   -0.00483895
     atom   14 type  1   force =     0.00000029    0.00000017   -0.00483081
     atom   15 type  2   force =    -0.00000053   -0.00000031    0.00575153
     atom   16 type  2   force =    -0.00000088   -0.00000051    0.00575200
     atom   17 type  1   force =    -0.00000023   -0.00000013   -0.00483656
     atom   18 type  1   force =     0.00000015    0.00000009   -0.00483582
     atom   19 type  2   force =    -0.00000162   -0.00000094    0.00574973
     atom   20 type  2   force =     0.00000083    0.00000048    0.00575368
     atom   21 type  1   force =    -0.00000002   -0.00000001   -0.00482874
     atom   22 type  1   force =     0.00000115    0.00000066   -0.00482793
     atom   23 type  2   force =    -0.00000084   -0.00000048    0.00575393
     atom   24 type  2   force =    -0.00000005   -0.00000003    0.00575378
     The ionic contribution  to forces
     atom    1 type  1   force =    -0.00000000    0.00000000    0.06271746
     atom    2 type  1   force =     0.00000000   -0.00000000    0.06271750
     atom    3 type  2   force =    -0.00000000    0.00000000   -0.06271747
     atom    4 type  2   force =     0.00000000   -0.00000000   -0.06271748
     atom    5 type  1   force =    -0.00000000    0.00000000    0.06271750
     atom    6 type  1   force =     0.00000000   -0.00000000    0.06271746
     atom    7 type  2   force =    -0.00000000    0.00000000   -0.06271748
     atom    8 type  2   force =     0.00000000   -0.00000000   -0.06271746
     atom    9 type  1   force =    -0.00000000    0.00000000    0.06271746
     atom   10 type  1   force =     0.00000000   -0.00000000    0.06271746
     atom   11 type  2   force =    -0.00000000    0.00000000   -0.06271746
     atom   12 type  2   force =     0.00000000   -0.00000000   -0.06271747
     atom   13 type  1   force =    -0.00000000    0.00000000    0.06271746
     atom   14 type  1   force =     0.00000000   -0.00000000    0.06271750
     atom   15 type  2   force =    -0.00000000    0.00000000   -0.06271747
     atom   16 type  2   force =     0.00000000   -0.00000000   -0.06271748
     atom   17 type  1   force =    -0.00000000    0.00000000    0.06271750
     atom   18 type  1   force =     0.00000000   -0.00000000    0.06271746
     atom   19 type  2   force =    -0.00000000    0.00000000   -0.06271748
     atom   20 type  2   force =     0.00000000   -0.00000000   -0.06271746
     atom   21 type  1   force =    -0.00000000    0.00000000    0.06271746
     atom   22 type  1   force =     0.00000000   -0.00000000    0.06271746
     atom   23 type  2   force =    -0.00000000    0.00000000   -0.06271746
     atom   24 type  2   force =     0.00000000   -0.00000000   -0.06271747
     The local contribution  to forces
     atom    1 type  1   force =     0.00000359    0.00000207   -0.05828463
     atom    2 type  1   force =     0.00000138    0.00000070   -0.05829001
     atom    3 type  2   force =    -0.00000059   -0.00000034    0.05697665
     atom    4 type  2   force =     0.00000048    0.00000025    0.05697738
     atom    5 type  1   force =    -0.00000063   -0.00000036   -0.05828258
     atom    6 type  1   force =    -0.00000119   -0.00000079   -0.05827881
     atom    7 type  2   force =     0.00000071    0.00000041    0.05696759
     atom    8 type  2   force =    -0.00000131   -0.00000078    0.05697291
     atom    9 type  1   force =     0.00000269    0.00000156   -0.05829633
     atom   10 type  1   force =     0.00000352    0.00000193   -0.05829884
     atom   11 type  2   force =    -0.00000085   -0.00000049    0.05696568
     atom   12 type  2   force =    -0.00000355   -0.00000208    0.05696776
     atom   13 type  1   force =    -0.00000230   -0.00000132   -0.05828050
     atom   14 type  1   force =    -0.00000140   -0.00000091   -0.05828852
     atom   15 type  2   force =     0.00000068    0.00000039    0.05697408
     atom   16 type  2   force =    -0.00000201   -0.00000119    0.05697594
     atom   17 type  1   force =     0.00000109    0.00000064   -0.05828143
     atom   18 type  1   force =     0.00000158    0.00000081   -0.05828581
     atom   19 type  2   force =     0.00000296    0.00000171    0.05696764
     atom   20 type  2   force =    -0.00000353   -0.00000207    0.05697770
     atom   21 type  1   force =    -0.00000387   -0.00000223   -0.05829328
     atom   22 type  1   force =    -0.00000343   -0.00000208   -0.05829576
     atom   23 type  2   force =     0.00000359    0.00000207    0.05696425
     atom   24 type  2   force =    -0.00000093   -0.00000057    0.05696805
     The core correction contribution to forces
     atom    1 type  1   force =    -0.00000005   -0.00000003    0.00046405
     atom    2 type  1   force =     0.00000001   -0.00000001    0.00046403
     atom    3 type  2   force =    -0.00000000   -0.00000000   -0.00006497
     atom    4 type  2   force =    -0.00000001   -0.00000001   -0.00006497
     atom    5 type  1   force =     0.00000008    0.00000005    0.00046401
     atom    6 type  1   force =     0.00000007    0.00000003    0.00046398
     atom    7 type  2   force =     0.00000001    0.00000000   -0.00006499
     atom    8 type  2   force =    -0.00000002   -0.00000001   -0.00006501
     atom    9 type  1   force =    -0.00000002   -0.00000001    0.00046400
     atom   10 type  1   force =    -0.00000004   -0.00000003    0.00046416
     atom   11 type  2   force =     0.00000001    0.00000001   -0.00006507
     atom   12 type  2   force =    -0.00000003   -0.00000002   -0.00006499
     atom   13 type  1   force =     0.00000008    0.00000005    0.00046403
     atom   14 type  1   force =    -0.00000001   -0.00000002    0.00046394
     atom   15 type  2   force =     0.00000001    0.00000000   -0.00006498
     atom   16 type  2   force =     0.00000001    0.00000000   -0.00006499
     atom   17 type  1   force =    -0.00000007   -0.00000004    0.00046408
     atom   18 type  1   force =    -0.00000006   -0.00000005    0.00046402
     atom   19 type  2   force =     0.00000003    0.00000002   -0.00006496
     atom   20 type  2   force =    -0.00000002   -0.00000001   -0.00006500
     atom   21 type  1   force =     0.00000001    0.00000001    0.00046406
     atom   22 type  1   force =     0.00000006    0.00000002    0.00046410
     atom   23 type  2   force =     0.00000002    0.00000001   -0.00006503
     atom   24 type  2   force =    -0.00000000   -0.00000000   -0.00006501
     The Hubbard contrib.    to forces
     atom    1 type  1   force =     0.00000000    0.00000000    0.00000000
     atom    2 type  1   force =     0.00000000    0.00000000    0.00000000
     atom    3 type  2   force =     0.00000000    0.00000000    0.00000000
     atom    4 type  2   force =     0.00000000    0.00000000    0.00000000
     atom    5 type  1   force =     0.00000000    0.00000000    0.00000000
     atom    6 type  1   force =     0.00000000    0.00000000    0.00000000
     atom    7 type  2   force =     0.00000000    0.00000000    0.00000000
     atom    8 type  2   force =     0.00000000    0.00000000    0.00000000
     atom    9 type  1   force =     0.00000000    0.00000000    0.00000000
     atom   10 type  1   force =     0.00000000    0.00000000    0.00000000
     atom   11 type  2   force =     0.00000000    0.00000000    0.00000000
     atom   12 type  2   force =     0.00000000    0.00000000    0.00000000
     atom   13 type  1   force =     0.00000000    0.00000000    0.00000000
     atom   14 type  1   force =     0.00000000    0.00000000    0.00000000
     atom   15 type  2   force =     0.00000000    0.00000000    0.00000000
     atom   16 type  2   force =     0.00000000    0.00000000    0.00000000
     atom   17 type  1   force =     0.00000000    0.00000000    0.00000000
     atom   18 type  1   force =     0.00000000    0.00000000    0.00000000
     atom   19 type  2   force =     0.00000000    0.00000000    0.00000000
     atom   20 type  2   force =     0.00000000    0.00000000    0.00000000
     atom   21 type  1   force =     0.00000000    0.00000000    0.00000000
     atom   22 type  1   force =     0.00000000    0.00000000    0.00000000
     atom   23 type  2   force =     0.00000000    0.00000000    0.00000000
     atom   24 type  2   force =     0.00000000    0.00000000    0.00000000
     The SCF correction term to forces
     atom    1 type  1   force =    -0.00000178   -0.00000103    0.00000322
     atom    2 type  1   force =    -0.00000457   -0.00000264   -0.00000830
     atom    3 type  2   force =     0.00000217    0.00000125   -0.00000211
     atom    4 type  2   force =    -0.00000236   -0.00000136   -0.00000007
     atom    5 type  1   force =     0.00000211    0.00000122   -0.00000765
     atom    6 type  1   force =    -0.00000069   -0.00000040   -0.00000711
     atom    7 type  2   force =     0.00000009    0.00000005    0.00000216
     atom    8 type  2   force =    -0.00000146   -0.00000084   -0.00000184
     atom    9 type  1   force =    -0.00000364   -0.00000210    0.00000180
     atom   10 type  1   force =    -0.00000810   -0.00000468    0.00000559
     atom   11 type  2   force =     0.00000054    0.00000031   -0.00000265
     atom   12 type  2   force =    -0.00000012   -0.00000007    0.00000249
     atom   13 type  1   force =     0.00000371    0.00000214   -0.00000097
     atom   14 type  1   force =     0.00000302    0.00000174   -0.00000803
     atom   15 type  2   force =     0.00000076    0.00000044   -0.00000146
     atom   16 type  2   force =    -0.00000021   -0.00000012   -0.00000024
     atom   17 type  1   force =     0.00000141    0.00000081   -0.00000796
     atom   18 type  1   force =    -0.00000353   -0.00000204    0.00000096
     atom   19 type  2   force =    -0.00000043   -0.00000025    0.00000333
     atom   20 type  2   force =     0.00000099    0.00000057   -0.00000576
     atom   21 type  1   force =     0.00001256    0.00000725   -0.00000258
     atom   22 type  1   force =     0.00000362    0.00000209   -0.00000030
     atom   23 type  2   force =    -0.00000012   -0.00000007    0.00000144
     atom   24 type  2   force =     0.00000020    0.00000012    0.00000087

     Total force =     0.000287     Total SCF correction =     0.000030
     SCF correction compared to forces is large: reduce conv_thr to get better values

     General routines

     Parallel routines

   This run was terminated on:  18: 4:28  20Jul2025

   JOB DONE.
Note: The following floating-point exceptions are signalling: IEEE_INVALID_FLAG
Note: The following floating-point exceptions are signalling: IEEE_INVALID_FLAG
Note: The following floating-point exceptions are signalling: IEEE_INVALID_FLAG
Note: The following floating-point exceptions are signalling: IEEE_INVALID_FLAG
Note: The following floating-point exceptions are signalling: IEEE_INVALID_FLAG
Note: The following floating-point exceptions are signalling: IEEE_INVALID_FLAG
Note: The following floating-point exceptions are signalling: IEEE_INVALID_FLAG
Note: The following floating-point exceptions are signalling: IEEE_INVALID_FLAG