     Program PWSCF v.7.2 starts on 19Aug2025 at 19: 7:15

     Reading input from /home/jvc/QEspresso7.2/ZnO_database/scripts/cell332.in/ZnO-3.34-1.61-332.in
Warning: card &CELL ignored
Warning: card / ignored
Warning: card &FCP ignored
Warning: card / ignored
Warning: card &RISM ignored
Warning: card / ignored

     Current dimensions of program PWSCF are:
     Max number of different atomic species (ntypx) = 10
     Max number of k-points (npk) =  40000
     Max angular momentum in pseudopotentials (lmaxx) =  4
     file Zn.upf: wavefunction(s)  3D renormalized
     Found identity + (  0.0000  0.0000  0.5000) symmetry
     This is a supercell, fractional translations are disabled
     Message from routine setup:
     using ibrav=0 with symmetry is DISCOURAGED, use correct ibrav instead

     K-points division:     npool     =       8
     R & G space division:  proc/nbgrp/npool/nimage =       8
     Subspace diagonalization in iterative solution of the eigenvalue problem:
     one sub-group per band group will be used

     Message from routine divide_et_impera:
     suboptimal parallelization: some nodes have no k-points

     Using Slab Decomposition

     bravais-lattice index     =            0
     lattice parameter (alat)  =      18.5365  a.u.
     unit-cell volume          =    5936.3583 (a.u.)^3
     number of atoms/cell      =           72
     number of atomic types    =            2
     number of electrons       =       648.00
     number of Kohn-Sham states=          324
     kinetic-energy cutoff     =      50.0000  Ry
     charge density cutoff     =     400.0000  Ry
     scf convergence threshold =      1.0E-08
     mixing beta               =       0.3000
     number of iterations used =            8  plain     mixing
     Exchange-correlation= PBE
                           (   1   4   3   4   0   0   0)

     celldm(1)=  18.536466  celldm(2)=   0.000000  celldm(3)=   0.000000
     celldm(4)=   0.000000  celldm(5)=   0.000000  celldm(6)=   0.000000

     crystal axes: (cart. coord. in units of alat)
               a(1) = (   1.000000   0.000000   0.000000 )
               a(2) = (  -0.500000   0.866025   0.000000 )
               a(3) = (   0.000000   0.000000   1.076239 )

     reciprocal axes: (cart. coord. in units 2 pi/alat)
               b(1) = (  1.000000  0.577350 -0.000000 )
               b(2) = (  0.000000  1.154701  0.000000 )
               b(3) = (  0.000000 -0.000000  0.929162 )

     PseudoPot. # 1 for Zn read from file:
     /home/jvc/QEspresso7.2/ZnO_database/pseudos/Zn.upf
     MD5 check sum: 7f56cabf9682ed8c977c2f7d0c5985c5
     Pseudo is Ultrasoft + core correction, Zval = 12.0
     Generated using &quot;atomic&quot; code by A. Dal Corso  v.6.2.2
     Using radial grid of 1201 points,  6 beta functions with:
                l(1) =   0
                l(2) =   0
                l(3) =   1
                l(4) =   1
                l(5) =   2
                l(6) =   2
     Q(r) pseudized with 0 coefficients

     PseudoPot. # 2 for O  read from file:
     /home/jvc/QEspresso7.2/ZnO_database/pseudos/O.upf
     MD5 check sum: 91400c9766925bcf19f520983a725ff0
     Pseudo is Ultrasoft + core correction, Zval =  6.0
     Generated using &quot;atomic&quot; code by A. Dal Corso  v.6.3MaX
     Using radial grid of 1095 points,  4 beta functions with:
                l(1) =   0
                l(2) =   0
                l(3) =   1
                l(4) =   1
     Q(r) pseudized with 0 coefficients

     atomic species   valence    mass     pseudopotential
        Zn            12.00    65.38000     Zn( 1.00)
        O              6.00    15.99900     O ( 1.00)

      6 Sym. Ops. (no inversion) found

                                    s                        frac. trans.

      isym =  1     identity

 cryst.   s( 1) = (     1          0          0      )
                  (     0          1          0      )
                  (     0          0          1      )

 cart.    s( 1) = (  1.0000000  0.0000000  0.0000000 )
                  (  0.0000000  1.0000000  0.0000000 )
                  (  0.0000000  0.0000000  1.0000000 )

      isym =  2     120 deg rotation - cryst. axis [0,0,1]

[...]

      isym =  3     120 deg rotation - cryst. axis [0,0,-1]

[...]

      isym =  4     inv. 180 deg rotation - cart. axis [1,0,0]

[...]

      isym =  5     inv. 180 deg rotation - cryst. axis [0,1,0]

[...]

      isym =  6     inv. 180 deg rotation - cryst. axis [1,1,0]

 cryst.   s( 6) = (     0         -1          0      )
                  (    -1          0          0      )
                  (     0          0          1      )

 cart.    s( 6) = (  0.5000000 -0.8660254  0.0000000 )
                  ( -0.8660254 -0.5000000  0.0000000 )
                  (  0.0000000  0.0000000  1.0000000 )

   Cartesian axes

     site n.     atom                  positions (alat units)
         1           Zn  tau(   1) = (   0.1666667   0.0962250   0.2694007  )
         2           Zn  tau(   2) = (   0.0000000   0.1924501   0.0003409  )
         3           O   tau(   3) = (   0.1666667   0.0962250   0.4733710  )
         4           O   tau(   4) = (   0.0000000   0.1924501   0.2043113  )
         5           Zn  tau(   5) = (   0.1666667   0.0962250   0.8075201  )
         6           Zn  tau(   6) = (   0.0000000   0.1924501   0.5384604  )
         7           O   tau(   7) = (   0.1666667   0.0962250   1.0114904  )
         8           O   tau(   8) = (   0.0000000   0.1924501   0.7424307  )
         9           Zn  tau(   9) = (   0.0000000   0.3849002   0.2694007  )
        10           Zn  tau(  10) = (  -0.1666667   0.4811252   0.0003409  )
        11           O   tau(  11) = (   0.0000000   0.3849002   0.4733710  )
        12           O   tau(  12) = (  -0.1666667   0.4811252   0.2043113  )
        13           Zn  tau(  13) = (   0.0000000   0.3849002   0.8075201  )
        14           Zn  tau(  14) = (  -0.1666667   0.4811252   0.5384604  )
        15           O   tau(  15) = (   0.0000000   0.3849002   1.0114904  )
        16           O   tau(  16) = (  -0.1666667   0.4811252   0.7424307  )
        17           Zn  tau(  17) = (  -0.1666667   0.6735753   0.2694007  )
        18           Zn  tau(  18) = (  -0.3333333   0.7698004   0.0003409  )
        19           O   tau(  19) = (  -0.1666667   0.6735753   0.4733710  )
        20           O   tau(  20) = (  -0.3333333   0.7698004   0.2043113  )
        21           Zn  tau(  21) = (  -0.1666667   0.6735753   0.8075201  )
        22           Zn  tau(  22) = (  -0.3333333   0.7698004   0.5384604  )
        23           O   tau(  23) = (  -0.1666667   0.6735753   1.0114904  )
        24           O   tau(  24) = (  -0.3333333   0.7698004   0.7424307  )
        25           Zn  tau(  25) = (   0.5000000   0.0962250   0.2694007  )
        26           Zn  tau(  26) = (   0.3333333   0.1924501   0.0003409  )
        27           O   tau(  27) = (   0.5000000   0.0962250   0.4733710  )
        28           O   tau(  28) = (   0.3333333   0.1924501   0.2043113  )
        29           Zn  tau(  29) = (   0.5000000   0.0962250   0.8075201  )
        30           Zn  tau(  30) = (   0.3333333   0.1924501   0.5384604  )
        31           O   tau(  31) = (   0.5000000   0.0962250   1.0114904  )
        32           O   tau(  32) = (   0.3333333   0.1924501   0.7424307  )
        33           Zn  tau(  33) = (   0.3333333   0.3849002   0.2694007  )
        34           Zn  tau(  34) = (   0.1666667   0.4811252   0.0003409  )
        35           O   tau(  35) = (   0.3333333   0.3849002   0.4733710  )
        36           O   tau(  36) = (   0.1666667   0.4811252   0.2043113  )
        37           Zn  tau(  37) = (   0.3333333   0.3849002   0.8075201  )
        38           Zn  tau(  38) = (   0.1666667   0.4811252   0.5384604  )
        39           O   tau(  39) = (   0.3333333   0.3849002   1.0114904  )
        40           O   tau(  40) = (   0.1666667   0.4811252   0.7424307  )
        41           Zn  tau(  41) = (   0.1666667   0.6735753   0.2694007  )
        42           Zn  tau(  42) = (   0.0000000   0.7698004   0.0003409  )
        43           O   tau(  43) = (   0.1666667   0.6735753   0.4733710  )
        44           O   tau(  44) = (   0.0000000   0.7698004   0.2043113  )
        45           Zn  tau(  45) = (   0.1666667   0.6735753   0.8075201  )
        46           Zn  tau(  46) = (   0.0000000   0.7698004   0.5384604  )
        47           O   tau(  47) = (   0.1666667   0.6735753   1.0114904  )
        48           O   tau(  48) = (   0.0000000   0.7698004   0.7424307  )
        49           Zn  tau(  49) = (   0.8333333   0.0962250   0.2694007  )
        50           Zn  tau(  50) = (   0.6666667   0.1924501   0.0003409  )
        51           O   tau(  51) = (   0.8333333   0.0962250   0.4733710  )
        52           O   tau(  52) = (   0.6666667   0.1924501   0.2043113  )
        53           Zn  tau(  53) = (   0.8333333   0.0962250   0.8075201  )
        54           Zn  tau(  54) = (   0.6666667   0.1924501   0.5384604  )
        55           O   tau(  55) = (   0.8333333   0.0962250   1.0114904  )
        56           O   tau(  56) = (   0.6666667   0.1924501   0.7424307  )
        57           Zn  tau(  57) = (   0.6666667   0.3849002   0.2694007  )
        58           Zn  tau(  58) = (   0.5000000   0.4811252   0.0003409  )
        59           O   tau(  59) = (   0.6666667   0.3849002   0.4733710  )
        60           O   tau(  60) = (   0.5000000   0.4811252   0.2043113  )
        61           Zn  tau(  61) = (   0.6666667   0.3849002   0.8075201  )
        62           Zn  tau(  62) = (   0.5000000   0.4811252   0.5384604  )
        63           O   tau(  63) = (   0.6666667   0.3849002   1.0114904  )
        64           O   tau(  64) = (   0.5000000   0.4811252   0.7424307  )
        65           Zn  tau(  65) = (   0.5000000   0.6735753   0.2694007  )
        66           Zn  tau(  66) = (   0.3333333   0.7698004   0.0003409  )
        67           O   tau(  67) = (   0.5000000   0.6735753   0.4733710  )
        68           O   tau(  68) = (   0.3333333   0.7698004   0.2043113  )
        69           Zn  tau(  69) = (   0.5000000   0.6735753   0.8075201  )
        70           Zn  tau(  70) = (   0.3333333   0.7698004   0.5384604  )
        71           O   tau(  71) = (   0.5000000   0.6735753   1.0114904  )
        72           O   tau(  72) = (   0.3333333   0.7698004   0.7424307  )

   Crystallographic axes

     site n.     atom                  positions (cryst. coord.)
         1           Zn  tau(   1) = (  0.2222222  0.1111111  0.2503168  )
         2           Zn  tau(   2) = (  0.1111111  0.2222222  0.0003168  )
         3           O   tau(   3) = (  0.2222222  0.1111111  0.4398382  )
         4           O   tau(   4) = (  0.1111111  0.2222222  0.1898382  )
         5           Zn  tau(   5) = (  0.2222222  0.1111111  0.7503168  )
         6           Zn  tau(   6) = (  0.1111111  0.2222222  0.5003168  )
         7           O   tau(   7) = (  0.2222222  0.1111111  0.9398382  )
         8           O   tau(   8) = (  0.1111111  0.2222222  0.6898382  )
[...]
     atom   12 type  2   force =    -0.00000001   -0.00000000   -0.00006504
     atom   13 type  1   force =     0.00000000    0.00000003    0.00046415
     atom   14 type  1   force =    -0.00000010   -0.00000008    0.00046407
     atom   15 type  2   force =     0.00000000   -0.00000001   -0.00006504
     atom   16 type  2   force =    -0.00000001   -0.00000000   -0.00006502
     atom   17 type  1   force =    -0.00000007    0.00000004    0.00046390
     atom   18 type  1   force =    -0.00000004    0.00000002    0.00046391
     atom   19 type  2   force =    -0.00000001    0.00000001   -0.00006504
     atom   20 type  2   force =    -0.00000001    0.00000001   -0.00006505
     atom   21 type  1   force =     0.00000003   -0.00000001    0.00046415
     atom   22 type  1   force =    -0.00000027    0.00000016    0.00046391
     atom   23 type  2   force =    -0.00000001    0.00000001   -0.00006504
     atom   24 type  2   force =    -0.00000002    0.00000001   -0.00006503
     atom   25 type  1   force =    -0.00000002   -0.00000000    0.00046421
     atom   26 type  1   force =    -0.00000021   -0.00000012    0.00046395
     atom   27 type  2   force =     0.00000000    0.00000001   -0.00006502
     atom   28 type  2   force =    -0.00000001   -0.00000000   -0.00006504
     atom   29 type  1   force =    -0.00000002    0.00000024    0.00046386
     atom   30 type  1   force =    -0.00000018   -0.00000010    0.00046409
     atom   31 type  2   force =     0.00000000    0.00000000   -0.00006504
     atom   32 type  2   force =    -0.00000000   -0.00000000   -0.00006503
     atom   33 type  1   force =    -0.00000003    0.00000001    0.00046421
     atom   34 type  1   force =    -0.00000012    0.00000007    0.00046392
     atom   35 type  2   force =     0.00000001   -0.00000001   -0.00006502
     atom   36 type  2   force =     0.00000001   -0.00000000   -0.00006504
     atom   37 type  1   force =     0.00000018   -0.00000011    0.00046386
     atom   38 type  1   force =     0.00000013   -0.00000008    0.00046407
     atom   39 type  2   force =     0.00000000   -0.00000000   -0.00006504
     atom   40 type  2   force =     0.00000001   -0.00000000   -0.00006502
     atom   41 type  1   force =     0.00000007    0.00000004    0.00046390
     atom   42 type  1   force =     0.00000002   -0.00000017    0.00046392
     atom   43 type  2   force =     0.00000001    0.00000001   -0.00006504
     atom   44 type  2   force =    -0.00000000    0.00000001   -0.00006504
     atom   45 type  1   force =    -0.00000003   -0.00000001    0.00046415
     atom   46 type  1   force =     0.00000002    0.00000012    0.00046407
     atom   47 type  2   force =     0.00000001    0.00000001   -0.00006504
     atom   48 type  2   force =    -0.00000000    0.00000001   -0.00006502
     atom   49 type  1   force =     0.00000006   -0.00000003    0.00046431
     atom   50 type  1   force =     0.00000021   -0.00000012    0.00046395
     atom   51 type  2   force =     0.00000000   -0.00000000   -0.00006504
     atom   52 type  2   force =     0.00000001   -0.00000000   -0.00006504
     atom   53 type  1   force =    -0.00000020    0.00000012    0.00046422
     atom   54 type  1   force =     0.00000018   -0.00000010    0.00046409
     atom   55 type  2   force =     0.00000001   -0.00000001   -0.00006503
     atom   56 type  2   force =     0.00000000   -0.00000000   -0.00006503
     atom   57 type  1   force =    -0.00000001    0.00000001    0.00046421
     atom   58 type  1   force =    -0.00000000    0.00000024    0.00046395
     atom   59 type  2   force =    -0.00000001   -0.00000001   -0.00006502
     atom   60 type  2   force =    -0.00000000    0.00000001   -0.00006504
     atom   61 type  1   force =    -0.00000022   -0.00000011    0.00046386
     atom   62 type  1   force =    -0.00000000    0.00000021    0.00046409
     atom   63 type  2   force =    -0.00000000   -0.00000000   -0.00006504
     atom   64 type  2   force =    -0.00000000    0.00000000   -0.00006503
     atom   65 type  1   force =     0.00000000    0.00000007    0.00046431
     atom   66 type  1   force =     0.00000004    0.00000002    0.00046391
     atom   67 type  2   force =     0.00000000    0.00000000   -0.00006504
     atom   68 type  2   force =     0.00000001    0.00000001   -0.00006505
     atom   69 type  1   force =     0.00000000   -0.00000023    0.00046422
     atom   70 type  1   force =     0.00000027    0.00000016    0.00046391
     atom   71 type  2   force =     0.00000000    0.00000001   -0.00006503
     atom   72 type  2   force =     0.00000002    0.00000001   -0.00006503
     The Hubbard contrib.    to forces
     atom    1 type  1   force =     0.00000000    0.00000000    0.00000000
     atom    2 type  1   force =     0.00000000    0.00000000    0.00000000
     atom    3 type  2   force =     0.00000000    0.00000000    0.00000000
     atom    4 type  2   force =     0.00000000    0.00000000    0.00000000
     atom    5 type  1   force =     0.00000000    0.00000000    0.00000000
     atom    6 type  1   force =     0.00000000    0.00000000    0.00000000
     atom    7 type  2   force =     0.00000000    0.00000000    0.00000000
     atom    8 type  2   force =     0.00000000    0.00000000    0.00000000
     atom    9 type  1   force =     0.00000000    0.00000000    0.00000000
     atom   10 type  1   force =     0.00000000    0.00000000    0.00000000
     atom   11 type  2   force =     0.00000000    0.00000000    0.00000000
     atom   12 type  2   force =     0.00000000    0.00000000    0.00000000
     atom   13 type  1   force =     0.00000000    0.00000000    0.00000000
     atom   14 type  1   force =     0.00000000    0.00000000    0.00000000
     atom   15 type  2   force =     0.00000000    0.00000000    0.00000000
     atom   16 type  2   force =     0.00000000    0.00000000    0.00000000
     atom   17 type  1   force =     0.00000000    0.00000000    0.00000000
     atom   18 type  1   force =     0.00000000    0.00000000    0.00000000
     atom   19 type  2   force =     0.00000000    0.00000000    0.00000000
     atom   20 type  2   force =     0.00000000    0.00000000    0.00000000
     atom   21 type  1   force =     0.00000000    0.00000000    0.00000000
     atom   22 type  1   force =     0.00000000    0.00000000    0.00000000
     atom   23 type  2   force =     0.00000000    0.00000000    0.00000000
     atom   24 type  2   force =     0.00000000    0.00000000    0.00000000
     atom   25 type  1   force =     0.00000000    0.00000000    0.00000000
     atom   26 type  1   force =     0.00000000    0.00000000    0.00000000
     atom   27 type  2   force =     0.00000000    0.00000000    0.00000000
     atom   28 type  2   force =     0.00000000    0.00000000    0.00000000
     atom   29 type  1   force =     0.00000000    0.00000000    0.00000000
     atom   30 type  1   force =     0.00000000    0.00000000    0.00000000
     atom   31 type  2   force =     0.00000000    0.00000000    0.00000000
     atom   32 type  2   force =     0.00000000    0.00000000    0.00000000
     atom   33 type  1   force =     0.00000000    0.00000000    0.00000000
     atom   34 type  1   force =     0.00000000    0.00000000    0.00000000
     atom   35 type  2   force =     0.00000000    0.00000000    0.00000000
     atom   36 type  2   force =     0.00000000    0.00000000    0.00000000
     atom   37 type  1   force =     0.00000000    0.00000000    0.00000000
     atom   38 type  1   force =     0.00000000    0.00000000    0.00000000
     atom   39 type  2   force =     0.00000000    0.00000000    0.00000000
     atom   40 type  2   force =     0.00000000    0.00000000    0.00000000
     atom   41 type  1   force =     0.00000000    0.00000000    0.00000000
     atom   42 type  1   force =     0.00000000    0.00000000    0.00000000
     atom   43 type  2   force =     0.00000000    0.00000000    0.00000000
     atom   44 type  2   force =     0.00000000    0.00000000    0.00000000
     atom   45 type  1   force =     0.00000000    0.00000000    0.00000000
     atom   46 type  1   force =     0.00000000    0.00000000    0.00000000
     atom   47 type  2   force =     0.00000000    0.00000000    0.00000000
     atom   48 type  2   force =     0.00000000    0.00000000    0.00000000
     atom   49 type  1   force =     0.00000000    0.00000000    0.00000000
     atom   50 type  1   force =     0.00000000    0.00000000    0.00000000
     atom   51 type  2   force =     0.00000000    0.00000000    0.00000000
     atom   52 type  2   force =     0.00000000    0.00000000    0.00000000
     atom   53 type  1   force =     0.00000000    0.00000000    0.00000000
     atom   54 type  1   force =     0.00000000    0.00000000    0.00000000
     atom   55 type  2   force =     0.00000000    0.00000000    0.00000000
     atom   56 type  2   force =     0.00000000    0.00000000    0.00000000
     atom   57 type  1   force =     0.00000000    0.00000000    0.00000000
     atom   58 type  1   force =     0.00000000    0.00000000    0.00000000
     atom   59 type  2   force =     0.00000000    0.00000000    0.00000000
     atom   60 type  2   force =     0.00000000    0.00000000    0.00000000
     atom   61 type  1   force =     0.00000000    0.00000000    0.00000000
     atom   62 type  1   force =     0.00000000    0.00000000    0.00000000
     atom   63 type  2   force =     0.00000000    0.00000000    0.00000000
     atom   64 type  2   force =     0.00000000    0.00000000    0.00000000
     atom   65 type  1   force =     0.00000000    0.00000000    0.00000000
     atom   66 type  1   force =     0.00000000    0.00000000    0.00000000
     atom   67 type  2   force =     0.00000000    0.00000000    0.00000000
     atom   68 type  2   force =     0.00000000    0.00000000    0.00000000
     atom   69 type  1   force =     0.00000000    0.00000000    0.00000000
     atom   70 type  1   force =     0.00000000    0.00000000    0.00000000
     atom   71 type  2   force =     0.00000000    0.00000000    0.00000000
     atom   72 type  2   force =     0.00000000    0.00000000    0.00000000
     The SCF correction term to forces
     atom    1 type  1   force =    -0.00001360   -0.00000785    0.00000534
     atom    2 type  1   force =     0.00000000   -0.00001321   -0.00000928
     atom    3 type  2   force =    -0.00000745   -0.00000430    0.00000362
     atom    4 type  2   force =     0.00000000   -0.00000798   -0.00000139
     atom    5 type  1   force =     0.00000259    0.00000149    0.00000328
     atom    6 type  1   force =     0.00000000   -0.00002738   -0.00000925
     atom    7 type  2   force =    -0.00000544   -0.00000314    0.00000009
     atom    8 type  2   force =     0.00000000   -0.00000547    0.00000319
     atom    9 type  1   force =     0.00000000   -0.00000771   -0.00001093
     atom   10 type  1   force =     0.00000441    0.00000255   -0.00000777
     atom   11 type  2   force =    -0.00000000   -0.00000882    0.00000237
     atom   12 type  2   force =     0.00000000    0.00000000   -0.00000390
     atom   13 type  1   force =     0.00000000   -0.00000615    0.00001386
     atom   14 type  1   force =    -0.00001863   -0.00001076    0.00000520
     atom   15 type  2   force =    -0.00000000   -0.00000359    0.00000067
     atom   16 type  2   force =    -0.00000506   -0.00000292    0.00000705
     atom   17 type  1   force =    -0.00000668    0.00000386   -0.00001093
     atom   18 type  1   force =    -0.00001144    0.00000661   -0.00000928
     atom   19 type  2   force =    -0.00000764    0.00000441    0.00000237
     atom   20 type  2   force =    -0.00000691    0.00000399   -0.00000139
     atom   21 type  1   force =    -0.00000533    0.00000308    0.00001386
     atom   22 type  1   force =    -0.00002371    0.00001369   -0.00000925
     atom   23 type  2   force =    -0.00000311    0.00000180    0.00000067
     atom   24 type  2   force =    -0.00000473    0.00000273    0.00000319
     atom   25 type  1   force =    -0.00000000   -0.00000480    0.00000289
     atom   26 type  1   force =    -0.00001329   -0.00000767   -0.00001410
     atom   27 type  2   force =    -0.00000000    0.00000117    0.00000730
     atom   28 type  2   force =    -0.00000626   -0.00000361   -0.00000018
     atom   29 type  1   force =    -0.00000000    0.00000859   -0.00000681
     atom   30 type  1   force =    -0.00000231   -0.00000133    0.00001241
     atom   31 type  2   force =    -0.00000000   -0.00000221   -0.00000490
     atom   32 type  2   force =     0.00000054    0.00000031    0.00000274
     atom   33 type  1   force =    -0.00000416    0.00000240    0.00000289
     atom   34 type  1   force =    -0.00000441    0.00000255   -0.00000777
     atom   35 type  2   force =     0.00000101   -0.00000058    0.00000730
     atom   36 type  2   force =    -0.00000000    0.00000000   -0.00000390
     atom   37 type  1   force =     0.00000744   -0.00000429   -0.00000681
     atom   38 type  1   force =     0.00001863   -0.00001076    0.00000520
     atom   39 type  2   force =    -0.00000192    0.00000111   -0.00000490
     atom   40 type  2   force =     0.00000506   -0.00000292    0.00000705
     atom   41 type  1   force =     0.00000668    0.00000386   -0.00001093
     atom   42 type  1   force =     0.00000000   -0.00000509   -0.00000777
     atom   43 type  2   force =     0.00000764    0.00000441    0.00000237
     atom   44 type  2   force =     0.00000000   -0.00000000   -0.00000390
     atom   45 type  1   force =     0.00000533    0.00000308    0.00001386
     atom   46 type  1   force =     0.00000000    0.00002151    0.00000520
     atom   47 type  2   force =     0.00000311    0.00000180    0.00000067
     atom   48 type  2   force =     0.00000000    0.00000585    0.00000705
     atom   49 type  1   force =     0.00001360   -0.00000785    0.00000534
     atom   50 type  1   force =     0.00001329   -0.00000767   -0.00001410
     atom   51 type  2   force =     0.00000745   -0.00000430    0.00000362
     atom   52 type  2   force =     0.00000626   -0.00000361   -0.00000018
     atom   53 type  1   force =    -0.00000259    0.00000149    0.00000328
     atom   54 type  1   force =     0.00000231   -0.00000133    0.00001241
     atom   55 type  2   force =     0.00000544   -0.00000314    0.00000009
     atom   56 type  2   force =    -0.00000054    0.00000031    0.00000274
     atom   57 type  1   force =     0.00000416    0.00000240    0.00000289
     atom   58 type  1   force =    -0.00000000    0.00001534   -0.00001410
     atom   59 type  2   force =    -0.00000101   -0.00000058    0.00000730
     atom   60 type  2   force =     0.00000000    0.00000723   -0.00000018
     atom   61 type  1   force =    -0.00000744   -0.00000429   -0.00000681
     atom   62 type  1   force =    -0.00000000    0.00000267    0.00001241
     atom   63 type  2   force =     0.00000192    0.00000111   -0.00000490
     atom   64 type  2   force =     0.00000000   -0.00000062    0.00000274
     atom   65 type  1   force =    -0.00000000    0.00001571    0.00000534
     atom   66 type  1   force =     0.00001144    0.00000661   -0.00000928
     atom   67 type  2   force =    -0.00000000    0.00000860    0.00000362
     atom   68 type  2   force =     0.00000691    0.00000399   -0.00000139
     atom   69 type  1   force =    -0.00000000   -0.00000299    0.00000328
     atom   70 type  1   force =     0.00002371    0.00001369   -0.00000925
     atom   71 type  2   force =    -0.00000000    0.00000629    0.00000009
     atom   72 type  2   force =     0.00000473    0.00000273    0.00000319

     Total force =     0.000521     Total SCF correction =     0.000105
     SCF correction compared to forces is large: reduce conv_thr to get better values

     General routines

     Parallel routines

   This run was terminated on:  19:54:57  19Aug2025

   JOB DONE.
Note: The following floating-point exceptions are signalling: IEEE_DENORMAL
Note: The following floating-point exceptions are signalling: IEEE_INVALID_FLAG
Note: The following floating-point exceptions are signalling: IEEE_DENORMAL
Note: The following floating-point exceptions are signalling: IEEE_INVALID_FLAG
Note: The following floating-point exceptions are signalling: IEEE_INVALID_FLAG
Note: The following floating-point exceptions are signalling: IEEE_INVALID_FLAG
Note: The following floating-point exceptions are signalling: IEEE_INVALID_FLAG
Note: The following floating-point exceptions are signalling: IEEE_INVALID_FLAG
Note: The following floating-point exceptions are signalling: IEEE_DENORMAL
Note: The following floating-point exceptions are signalling: IEEE_INVALID_FLAG
Note: The following floating-point exceptions are signalling: IEEE_INVALID_FLAG