     Program PWSCF v.7.0 starts on 29Aug2025 at  1:20: 8

     K-points division:     npool     =       8
     R & G space division:  proc/nbgrp/npool/nimage =       4

     Reading input from /home/jvc/QEspresso7.2/ZnO_database/scripts/cell212.in/ZnO-3.20-1.49-212.in
Warning: card &CELL ignored
Warning: card / ignored
Warning: card &FCP ignored
Warning: card / ignored
Warning: card &RISM ignored
Warning: card / ignored

     Current dimensions of program PWSCF are:
     Max number of different atomic species (ntypx) = 10
     Max number of k-points (npk) =  40000
     Max angular momentum in pseudopotentials (lmaxx) =  4
     file Zn.upf: wavefunction(s)  3D renormalized
     Found identity + (  0.0000  0.0000  0.5000) symmetry
     This is a supercell, fractional translations are disabled
     Message from routine setup:
     using ibrav=0 with symmetry is DISCOURAGED, use correct ibrav instead

     Using Slab Decomposition

     bravais-lattice index     =            0
     lattice parameter (alat)  =      12.1106  a.u.
     unit-cell volume          =    1142.3006 (a.u.)^3
     number of atoms/cell      =           16
     number of atomic types    =            2
     number of electrons       =       144.00
     number of Kohn-Sham states=           72
     kinetic-energy cutoff     =      50.0000  Ry
     charge density cutoff     =     400.0000  Ry
     scf convergence threshold =      1.0E-08
     mixing beta               =       0.3000
     number of iterations used =            8  plain     mixing
     Exchange-correlation= PBE
                           (   1   4   3   4   0   0   0)

     celldm(1)=  12.110554  celldm(2)=   0.000000  celldm(3)=   0.000000
     celldm(4)=   0.000000  celldm(5)=   0.000000  celldm(6)=   0.000000

     crystal axes: (cart. coord. in units of alat)
               a(1) = (   1.000000   0.000000   0.000000 )
               a(2) = (  -0.250000   0.433013   0.000000 )
               a(3) = (   0.000000   0.000000   1.485210 )

     reciprocal axes: (cart. coord. in units 2 pi/alat)
               b(1) = (  1.000000  0.577350 -0.000000 )
               b(2) = (  0.000000  2.309401  0.000000 )
               b(3) = (  0.000000 -0.000000  0.673306 )

     PseudoPot. # 1 for Zn read from file:
     /home/jvc/QEspresso7.2/ZnO_database/pseudos/Zn.upf
     MD5 check sum: 7f56cabf9682ed8c977c2f7d0c5985c5
     Pseudo is Ultrasoft + core correction, Zval = 12.0
     Generated using &quot;atomic&quot; code by A. Dal Corso  v.6.2.2
     Using radial grid of 1201 points,  6 beta functions with:
                l(1) =   0
                l(2) =   0
                l(3) =   1
                l(4) =   1
                l(5) =   2
                l(6) =   2
     Q(r) pseudized with 0 coefficients

     PseudoPot. # 2 for O  read from file:
     /home/jvc/QEspresso7.2/ZnO_database/pseudos/O.upf
     MD5 check sum: 91400c9766925bcf19f520983a725ff0
     Pseudo is Ultrasoft + core correction, Zval =  6.0
     Generated using &quot;atomic&quot; code by A. Dal Corso  v.6.3MaX
     Using radial grid of 1095 points,  4 beta functions with:
                l(1) =   0
                l(2) =   0
                l(3) =   1
                l(4) =   1
     Q(r) pseudized with 0 coefficients

     atomic species   valence    mass     pseudopotential
        Zn            12.00    65.38000     Zn( 1.00)
        O              6.00    15.99900     O ( 1.00)

      2 Sym. Ops. (no inversion) found

                                    s                        frac. trans.

      isym =  1     identity

 cryst.   s( 1) = (     1          0          0      )
                  (     0          1          0      )
                  (     0          0          1      )

 cart.    s( 1) = (  1.0000000  0.0000000  0.0000000 )
                  (  0.0000000  1.0000000  0.0000000 )
                  (  0.0000000  0.0000000  1.0000000 )

      isym =  2     inv. 180 deg rotation - cryst. axis [0,1,0]

 cryst.   s( 2) = (     1          2          0      )
                  (     0         -1          0      )
                  (     0          0          1      )

 cart.    s( 2) = (  0.5000000  0.8660254  0.0000000 )
                  (  0.8660254 -0.5000000  0.0000000 )
                  (  0.0000000  0.0000000  1.0000000 )

   Cartesian axes

     site n.     atom                  positions (alat units)
         1           Zn  tau(   1) = (   0.2500000   0.1443376   0.3717729  )
         2           Zn  tau(   2) = (   0.0000000   0.2886751   0.0004705  )
         3           O   tau(   3) = (   0.2500000   0.1443376   0.6532520  )
         4           O   tau(   4) = (   0.0000000   0.2886751   0.2819495  )
         5           Zn  tau(   5) = (   0.2500000   0.1443376   1.1143778  )
         6           Zn  tau(   6) = (   0.0000000   0.2886751   0.7430753  )
         7           O   tau(   7) = (   0.2500000   0.1443376   1.3958568  )
         8           O   tau(   8) = (   0.0000000   0.2886751   1.0245544  )
         9           Zn  tau(   9) = (   0.7500000   0.1443376   0.3717729  )
        10           Zn  tau(  10) = (   0.5000000   0.2886751   0.0004705  )
        11           O   tau(  11) = (   0.7500000   0.1443376   0.6532520  )
        12           O   tau(  12) = (   0.5000000   0.2886751   0.2819495  )
        13           Zn  tau(  13) = (   0.7500000   0.1443376   1.1143778  )
        14           Zn  tau(  14) = (   0.5000000   0.2886751   0.7430753  )
        15           O   tau(  15) = (   0.7500000   0.1443376   1.3958568  )
        16           O   tau(  16) = (   0.5000000   0.2886751   1.0245544  )

   Crystallographic axes

     site n.     atom                  positions (cryst. coord.)
         1           Zn  tau(   1) = (  0.3333333  0.3333333  0.2503168  )
         2           Zn  tau(   2) = (  0.1666667  0.6666667  0.0003168  )
         3           O   tau(   3) = (  0.3333333  0.3333333  0.4398382  )
         4           O   tau(   4) = (  0.1666667  0.6666667  0.1898382  )
         5           Zn  tau(   5) = (  0.3333333  0.3333333  0.7503168  )
         6           Zn  tau(   6) = (  0.1666667  0.6666667  0.5003168  )
         7           O   tau(   7) = (  0.3333333  0.3333333  0.9398382  )
         8           O   tau(   8) = (  0.1666667  0.6666667  0.6898382  )
         9           Zn  tau(   9) = (  0.8333333  0.3333333  0.2503168  )
        10           Zn  tau(  10) = (  0.6666667  0.6666667  0.0003168  )
        11           O   tau(  11) = (  0.8333333  0.3333333  0.4398382  )
        12           O   tau(  12) = (  0.6666667  0.6666667  0.1898382  )
        13           Zn  tau(  13) = (  0.8333333  0.3333333  0.7503168  )
        14           Zn  tau(  14) = (  0.6666667  0.6666667  0.5003168  )
        15           O   tau(  15) = (  0.8333333  0.3333333  0.9398382  )
        16           O   tau(  16) = (  0.6666667  0.6666667  0.6898382  )

     number of k points=    80
                       cart. coord. in units 2pi/alat
        k(    1) = (   0.0000000   0.0000000   0.0000000), wk =   0.0092593
        k(    2) = (   0.0000000   0.0000000   0.1122176), wk =   0.0185185
        k(    3) = (   0.0000000   0.0000000   0.2244352), wk =   0.0185185
        k(    4) = (   0.0000000   0.0000000  -0.3366528), wk =   0.0092593
        k(    5) = (   0.0000000   0.3849002   0.0000000), wk =   0.0370370
        k(    6) = (   0.0000000   0.3849002   0.1122176), wk =   0.0370370
        k(    7) = (   0.0000000   0.3849002   0.2244352), wk =   0.0370370
        k(    8) = (   0.0000000   0.3849002  -0.3366528), wk =   0.0370370
        k(    9) = (   0.0000000   0.7698004   0.0000000), wk =   0.0370370
        k(   10) = (   0.0000000   0.7698004   0.1122176), wk =   0.0370370
        k(   11) = (   0.0000000   0.7698004   0.2244352), wk =   0.0370370
        k(   12) = (   0.0000000   0.7698004  -0.3366528), wk =   0.0370370
        k(   13) = (   0.0000000  -1.1547005   0.0000000), wk =   0.0092593
        k(   14) = (   0.0000000  -1.1547005   0.1122176), wk =   0.0185185
        k(   15) = (   0.0000000  -1.1547005   0.2244352), wk =   0.0185185
        k(   16) = (   0.0000000  -1.1547005  -0.3366528), wk =   0.0092593
        k(   17) = (   0.1666667   0.0962250   0.0000000), wk =   0.0185185
        k(   18) = (   0.1666667   0.0962250   0.1122176), wk =   0.0185185
        k(   19) = (   0.1666667   0.0962250   0.2244352), wk =   0.0185185
        k(   20) = (   0.1666667   0.0962250  -0.3366528), wk =   0.0185185
        k(   21) = (   0.1666667   0.4811252   0.0000000), wk =   0.0370370
        k(   22) = (   0.1666667   0.4811252   0.1122176), wk =   0.0370370
        k(   23) = (   0.1666667   0.4811252   0.2244352), wk =   0.0370370
        k(   24) = (   0.1666667   0.4811252  -0.3366528), wk =   0.0370370
        k(   25) = (   0.1666667   0.8660254   0.0000000), wk =   0.0185185
        k(   26) = (   0.1666667   0.8660254   0.1122176), wk =   0.0370370
        k(   27) = (   0.1666667   0.8660254   0.2244352), wk =   0.0370370
        k(   28) = (   0.1666667   0.8660254  -0.3366528), wk =   0.0185185
        k(   29) = (   0.1666667  -1.0584755   0.0000000), wk =   0.0185185
        k(   30) = (   0.1666667  -1.0584755   0.1122176), wk =   0.0185185
        k(   31) = (   0.1666667  -1.0584755   0.2244352), wk =   0.0185185
        k(   32) = (   0.1666667  -1.0584755  -0.3366528), wk =   0.0185185
        k(   33) = (   0.1666667  -0.6735753   0.0000000), wk =   0.0370370
        k(   34) = (   0.1666667  -0.6735753   0.1122176), wk =   0.0370370
        k(   35) = (   0.1666667  -0.6735753   0.2244352), wk =   0.0370370
        k(   36) = (   0.1666667  -0.6735753  -0.3366528), wk =   0.0370370
        k(   37) = (   0.1666667  -0.2886751   0.0000000), wk =   0.0185185
        k(   38) = (   0.1666667  -0.2886751   0.1122176), wk =   0.0370370
        k(   39) = (   0.1666667  -0.2886751   0.2244352), wk =   0.0370370
        k(   40) = (   0.1666667  -0.2886751  -0.3366528), wk =   0.0185185
        k(   41) = (   0.3333333   0.1924501   0.0000000), wk =   0.0185185
        k(   42) = (   0.3333333   0.1924501   0.1122176), wk =   0.0185185
        k(   43) = (   0.3333333   0.1924501   0.2244352), wk =   0.0185185
        k(   44) = (   0.3333333   0.1924501  -0.3366528), wk =   0.0185185
        k(   45) = (   0.3333333   0.5773503   0.0000000), wk =   0.0185185
        k(   46) = (   0.3333333   0.5773503   0.1122176), wk =   0.0370370
        k(   47) = (   0.3333333   0.5773503   0.2244352), wk =   0.0370370
        k(   48) = (   0.3333333   0.5773503  -0.3366528), wk =   0.0185185
        k(   49) = (   0.3333333  -0.9622504   0.0000000), wk =   0.0185185
        k(   50) = (   0.3333333  -0.9622504   0.1122176), wk =   0.0185185
        k(   51) = (   0.3333333  -0.9622504   0.2244352), wk =   0.0185185
        k(   52) = (   0.3333333  -0.9622504  -0.3366528), wk =   0.0185185
        k(   53) = (   0.3333333  -0.5773503   0.0000000), wk =   0.0185185
        k(   54) = (   0.3333333  -0.5773503   0.1122176), wk =   0.0370370
        k(   55) = (   0.3333333  -0.5773503   0.2244352), wk =   0.0370370
[...]
        k(   79) = (  -0.6666667   0.5000000  -0.1666667), wk =   0.0185185
        k(   80) = (  -0.6666667   0.5000000  -0.3333333), wk =   0.0185185

     Check: negative core charge=   -0.000002

     Initial potential from superposition of free atoms

     starting charge     143.9702, renormalised to     144.0000
     Starting wfcs are  104 randomized atomic wfcs

     Self-consistent Calculation

     iteration #  1     ecut=    50.00 Ry     beta= 0.30
     Davidson diagonalization with overlap

     ethr =  1.00E-02,  avg # of iterations =  2.0

     total energy              =   -1445.74650299 Ry
     estimated scf accuracy    <       2.73421515 Ry

[...]

     c_bands:  1 eigenvalues not converged
     ethr =  5.56E-10,  avg # of iterations = 10.4

[...]

     c_bands:  1 eigenvalues not converged
     ethr =  2.70E-11,  avg # of iterations = 11.6

[...]

     total energy              =   -1446.32463518 Ry
     estimated scf accuracy    <       0.00000005 Ry

     iteration # 28     ecut=    50.00 Ry     beta= 0.30
     Davidson diagonalization with overlap

     ethr =  2.70E-11,  avg # of iterations =  5.5

     End of self-consistent calculation

          k = 0.0000 0.0000 0.0000 (  6815 PWs)   bands (ev):

    -9.9796  -9.4553  -9.4553  -9.1565  -8.9634  -8.9634  -8.9070  -8.8229
     2.0684   2.0684   2.3733   2.3733   2.4521   2.6376   2.7291   2.8537
     2.8539   2.8688   2.9346   2.9346   2.9347   2.9347   3.0981   3.1414
     3.1415   3.2901   3.2901   3.3066   3.3884   3.3884   3.5830   3.8584
     4.3341   4.3341   4.3990   4.5671   4.5671   4.5671   4.5671   4.5832
     4.6257   4.6257   4.6778   4.6778   4.7403   4.7403   4.7512   4.8067
     4.9499   5.2850   5.2850   5.3682   5.3761   6.0432   6.1753   7.0798
     7.0798   7.3235   7.3235   7.7881   7.8912   7.8912   7.9236   7.9238
     8.2399   8.5233   8.5234   8.5236   8.5236   9.0958   9.0961   9.1512

     occupation numbers
     1.0000   1.0000   1.0000   1.0000   1.0000   1.0000   1.0000   1.0000
     1.0000   1.0000   1.0000   1.0000   1.0000   1.0000   1.0000   1.0000
     1.0000   1.0000   1.0000   1.0000   1.0000   1.0000   1.0000   1.0000
     1.0000   1.0000   1.0000   1.0000   1.0000   1.0000   1.0000   1.0000
     1.0000   1.0000   1.0000   1.0000   1.0000   1.0000   1.0000   1.0000
     1.0000   1.0000   1.0000   1.0000   1.0000   1.0000   1.0000   1.0000
     1.0000   1.0000   1.0000   1.0000   1.0000   1.0000   1.0000   1.0000
     1.0000   1.0000   1.0000   1.0000   1.0000   1.0000   1.0000   1.0000
     1.0000   1.0000   1.0000   1.0000   1.0000   1.0000   1.0000   1.0000

[...]

          k =-0.5000-0.2887 0.0000 (  6836 PWs)   bands (ev):

[...]

          k = 0.3333 0.1925-0.2244 (  6802 PWs)   bands (ev):

[...]

          k =-0.6667 0.7698-0.2244 (  6828 PWs)   bands (ev):

    -9.1378  -9.1378  -9.0609  -9.0609  -8.8836  -8.8836  -8.8325  -8.8325
     2.2890   2.2890   2.3587   2.3587   2.4751   2.4751   2.6696   2.6696
     3.0382   3.0382   3.0633   3.0633   3.1763   3.1763   3.2155   3.2155
     3.4563   3.4563   3.5596   3.5596   3.5851   3.5851   3.7511   3.7511
     4.3508   4.3508   4.4590   4.4590   4.5270   4.5270   4.5614   4.5614
     4.7366   4.7366   4.7485   4.7485   4.8889   4.8889   4.9154   4.9154
     5.0770   5.0770   5.2835   5.2835   5.6794   5.6794   5.7168   5.7168
     5.9491   5.9491   6.3140   6.3140   6.6118   6.6118   7.2310   7.2310
     7.4601   7.4601   7.7360   7.7360   7.9749   7.9749   8.1511   8.1511

     occupation numbers
     1.0000   1.0000   1.0000   1.0000   1.0000   1.0000   1.0000   1.0000
     1.0000   1.0000   1.0000   1.0000   1.0000   1.0000   1.0000   1.0000
     1.0000   1.0000   1.0000   1.0000   1.0000   1.0000   1.0000   1.0000
     1.0000   1.0000   1.0000   1.0000   1.0000   1.0000   1.0000   1.0000
     1.0000   1.0000   1.0000   1.0000   1.0000   1.0000   1.0000   1.0000
     1.0000   1.0000   1.0000   1.0000   1.0000   1.0000   1.0000   1.0000
     1.0000   1.0000   1.0000   1.0000   1.0000   1.0000   1.0000   1.0000
     1.0000   1.0000   1.0000   1.0000   1.0000   1.0000   1.0000   1.0000
     1.0000   1.0000   1.0000   1.0000   1.0000   1.0000   1.0000   1.0000

     highest occupied level (ev):     9.1512

!    total energy              =   -1446.32463520 Ry
     estimated scf accuracy    <          9.8E-10 Ry

     The total energy is the sum of the following terms:
     one-electron contribution =    -554.82014716 Ry
     hartree contribution      =     451.71567883 Ry
     xc contribution           =    -439.52106230 Ry
     ewald contribution        =    -903.69910457 Ry

     convergence has been achieved in  28 iterations

     Forces acting on atoms (cartesian axes, Ry/au):

     atom    1 type  1   force =     0.00001329    0.00000767   -0.06646707
     atom    2 type  1   force =    -0.00001095   -0.00000632   -0.06646798
     atom    3 type  2   force =    -0.00000125   -0.00000072    0.06646611
     atom    4 type  2   force =     0.00000171    0.00000099    0.06646664
     atom    5 type  1   force =     0.00001375    0.00000794   -0.06646433
     atom    6 type  1   force =    -0.00001325   -0.00000765   -0.06646760
     atom    7 type  2   force =    -0.00000150   -0.00000086    0.06646624
     atom    8 type  2   force =     0.00000131    0.00000075    0.06646678
     atom    9 type  1   force =     0.00001192    0.00000688   -0.06646419
     atom   10 type  1   force =    -0.00001370   -0.00000791   -0.06646796
     atom   11 type  2   force =    -0.00000166   -0.00000096    0.06646601
     atom   12 type  2   force =     0.00000137    0.00000079    0.06646638
     atom   13 type  1   force =     0.00001287    0.00000743   -0.06646499
     atom   14 type  1   force =    -0.00001374   -0.00000793   -0.06646649
     atom   15 type  2   force =    -0.00000155   -0.00000090    0.06646589
     atom   16 type  2   force =     0.00000139    0.00000080    0.06646656
     The non-local contrib.  to forces
     atom    1 type  1   force =    -0.00001677   -0.00000968   -0.26600042
     atom    2 type  1   force =     0.00001705    0.00000985   -0.26600072
     atom    3 type  2   force =    -0.00015135   -0.00008738   -0.17496740
     atom    4 type  2   force =     0.00015201    0.00008777   -0.17496639
     atom    5 type  1   force =    -0.00001671   -0.00000964   -0.26599936
     atom    6 type  1   force =     0.00001688    0.00000974   -0.26600039
     atom    7 type  2   force =    -0.00015144   -0.00008743   -0.17496697
     atom    8 type  2   force =     0.00015171    0.00008759   -0.17496748
     atom    9 type  1   force =    -0.00001673   -0.00000966   -0.26600026
     atom   10 type  1   force =     0.00001623    0.00000937   -0.26600056
     atom   11 type  2   force =    -0.00015157   -0.00008751   -0.17496716
     atom   12 type  2   force =     0.00015185    0.00008767   -0.17496694
     atom   13 type  1   force =    -0.00001683   -0.00000972   -0.26600016
     atom   14 type  1   force =     0.00001679    0.00000969   -0.26599991
     atom   15 type  2   force =    -0.00015178   -0.00008763   -0.17496706
     atom   16 type  2   force =     0.00015177    0.00008762   -0.17496740
     The ionic contribution  to forces
     atom    1 type  1   force =     0.00000001    0.00000001   -1.82045668
     atom    2 type  1   force =     0.00000000    0.00000000   -1.82045667
     atom    3 type  2   force =     0.00000001    0.00000000    1.82045668
     atom    4 type  2   force =     0.00000000    0.00000000    1.82045667
     atom    5 type  1   force =     0.00000001    0.00000001   -1.82045668
     atom    6 type  1   force =     0.00000000    0.00000000   -1.82045667
     atom    7 type  2   force =     0.00000001    0.00000000    1.82045668
     atom    8 type  2   force =     0.00000000    0.00000000    1.82045667
     atom    9 type  1   force =    -0.00000001   -0.00000000   -1.82045668
     atom   10 type  1   force =    -0.00000000   -0.00000001   -1.82045668
     atom   11 type  2   force =    -0.00000001    0.00000000    1.82045668
     atom   12 type  2   force =    -0.00000000   -0.00000001    1.82045668
     atom   13 type  1   force =    -0.00000001   -0.00000000   -1.82045668
     atom   14 type  1   force =    -0.00000000   -0.00000001   -1.82045668
     atom   15 type  2   force =    -0.00000001    0.00000000    1.82045668
     atom   16 type  2   force =    -0.00000000   -0.00000001    1.82045668
     The local contribution  to forces
     atom    1 type  1   force =     0.00002906    0.00001678    1.99698115
     atom    2 type  1   force =    -0.00003149   -0.00001818    1.99698360
     atom    3 type  2   force =     0.00014786    0.00008537   -1.58012983
     atom    4 type  2   force =    -0.00014844   -0.00008570   -1.58012796
     atom    5 type  1   force =     0.00002870    0.00001657    1.99697744
     atom    6 type  1   force =    -0.00002907   -0.00001678    1.99698264
     atom    7 type  2   force =     0.00014826    0.00008560   -1.58012944
     atom    8 type  2   force =    -0.00014801   -0.00008545   -1.58012939
     atom    9 type  1   force =     0.00002968    0.00001723    1.99697974
     atom   10 type  1   force =    -0.00002742   -0.00001583    1.99698287
     atom   11 type  2   force =     0.00014765    0.00008527   -1.58012888
     atom   12 type  2   force =    -0.00014863   -0.00008581   -1.58012797
     atom   13 type  1   force =     0.00002957    0.00001717    1.99698059
     atom   14 type  1   force =    -0.00002925   -0.00001689    1.99698145
     atom   15 type  2   force =     0.00014776    0.00008533   -1.58012821
     atom   16 type  2   force =    -0.00014791   -0.00008539   -1.58012859
     The core correction contribution to forces
     atom    1 type  1   force =    -0.00000258   -0.00000149    0.02301499
     atom    2 type  1   force =     0.00000261    0.00000151    0.02301489
     atom    3 type  2   force =     0.00000173    0.00000100    0.00110255
     atom    4 type  2   force =    -0.00000174   -0.00000100    0.00110254
     atom    5 type  1   force =    -0.00000257   -0.00000149    0.02301501
     atom    6 type  1   force =     0.00000257    0.00000148    0.02301491
     atom    7 type  2   force =     0.00000173    0.00000100    0.00110254
     atom    8 type  2   force =    -0.00000174   -0.00000100    0.00110255
     atom    9 type  1   force =    -0.00000256   -0.00000147    0.02301496
     atom   10 type  1   force =     0.00000252    0.00000145    0.02301492
     atom   11 type  2   force =     0.00000173    0.00000100    0.00110255
     atom   12 type  2   force =    -0.00000174   -0.00000100    0.00110255
     atom   13 type  1   force =    -0.00000258   -0.00000148    0.02301494
     atom   14 type  1   force =     0.00000259    0.00000150    0.02301490
     atom   15 type  2   force =     0.00000173    0.00000100    0.00110255
     atom   16 type  2   force =    -0.00000174   -0.00000100    0.00110255
     The Hubbard contrib.    to forces
     atom    1 type  1   force =     0.00000000    0.00000000    0.00000000
     atom    2 type  1   force =     0.00000000    0.00000000    0.00000000
     atom    3 type  2   force =     0.00000000    0.00000000    0.00000000
     atom    4 type  2   force =     0.00000000    0.00000000    0.00000000
     atom    5 type  1   force =     0.00000000    0.00000000    0.00000000
     atom    6 type  1   force =     0.00000000    0.00000000    0.00000000
     atom    7 type  2   force =     0.00000000    0.00000000    0.00000000
     atom    8 type  2   force =     0.00000000    0.00000000    0.00000000
     atom    9 type  1   force =     0.00000000    0.00000000    0.00000000
     atom   10 type  1   force =     0.00000000    0.00000000    0.00000000
     atom   11 type  2   force =     0.00000000    0.00000000    0.00000000
     atom   12 type  2   force =     0.00000000    0.00000000    0.00000000
     atom   13 type  1   force =     0.00000000    0.00000000    0.00000000
     atom   14 type  1   force =     0.00000000    0.00000000    0.00000000
     atom   15 type  2   force =     0.00000000    0.00000000    0.00000000
     atom   16 type  2   force =     0.00000000    0.00000000    0.00000000
     The SCF correction term to forces
     atom    1 type  1   force =     0.00000357    0.00000206   -0.00000957
     atom    2 type  1   force =     0.00000089    0.00000051   -0.00001253
     atom    3 type  2   force =     0.00000052    0.00000030    0.00000066
     atom    4 type  2   force =    -0.00000011   -0.00000006   -0.00000169
     atom    5 type  1   force =     0.00000434    0.00000250   -0.00000419
     atom    6 type  1   force =    -0.00000361   -0.00000209   -0.00001154
     atom    7 type  2   force =    -0.00000004   -0.00000002   -0.00000002
     atom    8 type  2   force =    -0.00000064   -0.00000037    0.00000096
     atom    9 type  1   force =     0.00000151    0.00000087   -0.00000541
     atom   10 type  1   force =    -0.00000500   -0.00000289   -0.00001198
     atom   11 type  2   force =     0.00000053    0.00000031   -0.00000063
     atom   12 type  2   force =    -0.00000010   -0.00000006   -0.00000140
     atom   13 type  1   force =     0.00000270    0.00000156   -0.00000714
     atom   14 type  1   force =    -0.00000384   -0.00000222   -0.00000971
     atom   15 type  2   force =     0.00000075    0.00000043   -0.00000151
     atom   16 type  2   force =    -0.00000071   -0.00000041   -0.00000014

     Total force =     0.265865     Total SCF correction =     0.000029

     General routines

     Parallel routines

   This run was terminated on:   1:31:25  29Aug2025

   JOB DONE.
Note: The following floating-point exceptions are signalling: IEEE_UNDERFLOW_FLAG IEEE_DENORMAL
Note: The following floating-point exceptions are signalling: IEEE_UNDERFLOW_FLAG IEEE_DENORMAL
Note: The following floating-point exceptions are signalling: IEEE_UNDERFLOW_FLAG IEEE_DENORMAL
Note: The following floating-point exceptions are signalling: IEEE_UNDERFLOW_FLAG IEEE_DENORMAL
Note: The following floating-point exceptions are signalling: IEEE_UNDERFLOW_FLAG IEEE_DENORMAL
Note: The following floating-point exceptions are signalling: IEEE_UNDERFLOW_FLAG IEEE_DENORMAL
Note: The following floating-point exceptions are signalling: IEEE_UNDERFLOW_FLAG IEEE_DENORMAL
Note: The following floating-point exceptions are signalling: IEEE_UNDERFLOW_FLAG IEEE_DENORMAL
Note: The following floating-point exceptions are signalling: IEEE_UNDERFLOW_FLAG IEEE_DENORMAL
Note: The following floating-point exceptions are signalling: IEEE_UNDERFLOW_FLAG IEEE_DENORMAL
Note: The following floating-point exceptions are signalling: IEEE_UNDERFLOW_FLAG IEEE_DENORMAL
Note: The following floating-point exceptions are signalling: IEEE_UNDERFLOW_FLAG IEEE_DENORMAL
Note: The following floating-point exceptions are signalling: IEEE_UNDERFLOW_FLAG IEEE_DENORMAL
Note: The following floating-point exceptions are signalling: IEEE_UNDERFLOW_FLAG IEEE_DENORMAL
Note: The following floating-point exceptions are signalling: IEEE_UNDERFLOW_FLAG IEEE_DENORMAL
Note: The following floating-point exceptions are signalling: IEEE_UNDERFLOW_FLAG IEEE_DENORMAL
Note: The following floating-point exceptions are signalling: IEEE_UNDERFLOW_FLAG IEEE_DENORMAL
Note: The following floating-point exceptions are signalling: IEEE_UNDERFLOW_FLAG IEEE_DENORMAL
Note: The following floating-point exceptions are signalling: IEEE_UNDERFLOW_FLAG IEEE_DENORMAL
Note: The following floating-point exceptions are signalling: IEEE_UNDERFLOW_FLAG IEEE_DENORMAL
Note: The following floating-point exceptions are signalling: IEEE_UNDERFLOW_FLAG IEEE_DENORMAL
Note: The following floating-point exceptions are signalling: IEEE_UNDERFLOW_FLAG IEEE_DENORMAL
Note: The following floating-point exceptions are signalling: IEEE_UNDERFLOW_FLAG IEEE_DENORMAL
Note: The following floating-point exceptions are signalling: IEEE_UNDERFLOW_FLAG IEEE_DENORMAL
Note: The following floating-point exceptions are signalling: IEEE_UNDERFLOW_FLAG IEEE_DENORMAL
Note: The following floating-point exceptions are signalling: IEEE_UNDERFLOW_FLAG IEEE_DENORMAL
Note: The following floating-point exceptions are signalling: IEEE_UNDERFLOW_FLAG IEEE_DENORMAL
Note: The following floating-point exceptions are signalling: IEEE_UNDERFLOW_FLAG IEEE_DENORMAL
Note: The following floating-point exceptions are signalling: IEEE_UNDERFLOW_FLAG IEEE_DENORMAL
Note: The following floating-point exceptions are signalling: IEEE_UNDERFLOW_FLAG IEEE_DENORMAL
Note: The following floating-point exceptions are signalling: IEEE_UNDERFLOW_FLAG IEEE_DENORMAL
Note: The following floating-point exceptions are signalling: IEEE_UNDERFLOW_FLAG IEEE_DENORMAL