     Program PWSCF v.7.0 starts on 29Aug2025 at  3: 5:27

     K-points division:     npool     =       8
     R & G space division:  proc/nbgrp/npool/nimage =       4

     Reading input from /home/jvc/QEspresso7.2/ZnO_database/scripts/cell212.in/ZnO-3.20-1.78-212.in
Warning: card &CELL ignored
Warning: card / ignored
Warning: card &FCP ignored
Warning: card / ignored
Warning: card &RISM ignored
Warning: card / ignored

     Current dimensions of program PWSCF are:
     Max number of different atomic species (ntypx) = 10
     Max number of k-points (npk) =  40000
     Max angular momentum in pseudopotentials (lmaxx) =  4
     file Zn.upf: wavefunction(s)  3D renormalized
     Found identity + (  0.0000  0.0000  0.5000) symmetry
     This is a supercell, fractional translations are disabled
     Message from routine setup:
     using ibrav=0 with symmetry is DISCOURAGED, use correct ibrav instead

     Using Slab Decomposition

     bravais-lattice index     =            0
     lattice parameter (alat)  =      12.1106  a.u.
     unit-cell volume          =    1365.7942 (a.u.)^3
     number of atoms/cell      =           16
     number of atomic types    =            2
     number of electrons       =       144.00
     number of Kohn-Sham states=           72
     kinetic-energy cutoff     =      50.0000  Ry
     charge density cutoff     =     400.0000  Ry
     scf convergence threshold =      1.0E-08
     mixing beta               =       0.3000
     number of iterations used =            8  plain     mixing
     Exchange-correlation= PBE
                           (   1   4   3   4   0   0   0)

     celldm(1)=  12.110554  celldm(2)=   0.000000  celldm(3)=   0.000000
     celldm(4)=   0.000000  celldm(5)=   0.000000  celldm(6)=   0.000000

     crystal axes: (cart. coord. in units of alat)
               a(1) = (   1.000000   0.000000   0.000000 )
               a(2) = (  -0.250000   0.433013   0.000000 )
               a(3) = (   0.000000   0.000000   1.775794 )

     reciprocal axes: (cart. coord. in units 2 pi/alat)
               b(1) = (  1.000000  0.577350 -0.000000 )
               b(2) = (  0.000000  2.309401  0.000000 )
               b(3) = (  0.000000 -0.000000  0.563128 )

     PseudoPot. # 1 for Zn read from file:
     /home/jvc/QEspresso7.2/ZnO_database/pseudos/Zn.upf
     MD5 check sum: 7f56cabf9682ed8c977c2f7d0c5985c5
     Pseudo is Ultrasoft + core correction, Zval = 12.0
     Generated using &quot;atomic&quot; code by A. Dal Corso  v.6.2.2
     Using radial grid of 1201 points,  6 beta functions with:
                l(1) =   0
                l(2) =   0
                l(3) =   1
                l(4) =   1
                l(5) =   2
                l(6) =   2
     Q(r) pseudized with 0 coefficients

     PseudoPot. # 2 for O  read from file:
     /home/jvc/QEspresso7.2/ZnO_database/pseudos/O.upf
     MD5 check sum: 91400c9766925bcf19f520983a725ff0
     Pseudo is Ultrasoft + core correction, Zval =  6.0
     Generated using &quot;atomic&quot; code by A. Dal Corso  v.6.3MaX
     Using radial grid of 1095 points,  4 beta functions with:
                l(1) =   0
                l(2) =   0
                l(3) =   1
                l(4) =   1
     Q(r) pseudized with 0 coefficients

     atomic species   valence    mass     pseudopotential
        Zn            12.00    65.38000     Zn( 1.00)
        O              6.00    15.99900     O ( 1.00)

      2 Sym. Ops. (no inversion) found

                                    s                        frac. trans.

      isym =  1     identity

 cryst.   s( 1) = (     1          0          0      )
                  (     0          1          0      )
                  (     0          0          1      )

 cart.    s( 1) = (  1.0000000  0.0000000  0.0000000 )
                  (  0.0000000  1.0000000  0.0000000 )
                  (  0.0000000  0.0000000  1.0000000 )

      isym =  2     inv. 180 deg rotation - cryst. axis [0,1,0]

 cryst.   s( 2) = (     1          2          0      )
                  (     0         -1          0      )
                  (     0          0          1      )

 cart.    s( 2) = (  0.5000000  0.8660254  0.0000000 )
                  (  0.8660254 -0.5000000  0.0000000 )
                  (  0.0000000  0.0000000  1.0000000 )

   Cartesian axes

     site n.     atom                  positions (alat units)
         1           Zn  tau(   1) = (   0.2500000   0.1443376   0.4445111  )
         2           Zn  tau(   2) = (   0.0000000   0.2886751   0.0005626  )
         3           O   tau(   3) = (   0.2500000   0.1443376   0.7810621  )
         4           O   tau(   4) = (   0.0000000   0.2886751   0.3371136  )
         5           Zn  tau(   5) = (   0.2500000   0.1443376   1.3324082  )
         6           Zn  tau(   6) = (   0.0000000   0.2886751   0.8884597  )
         7           O   tau(   7) = (   0.2500000   0.1443376   1.6689592  )
         8           O   tau(   8) = (   0.0000000   0.2886751   1.2250107  )
         9           Zn  tau(   9) = (   0.7500000   0.1443376   0.4445111  )
        10           Zn  tau(  10) = (   0.5000000   0.2886751   0.0005626  )
        11           O   tau(  11) = (   0.7500000   0.1443376   0.7810621  )
        12           O   tau(  12) = (   0.5000000   0.2886751   0.3371136  )
        13           Zn  tau(  13) = (   0.7500000   0.1443376   1.3324082  )
        14           Zn  tau(  14) = (   0.5000000   0.2886751   0.8884597  )
        15           O   tau(  15) = (   0.7500000   0.1443376   1.6689592  )
        16           O   tau(  16) = (   0.5000000   0.2886751   1.2250107  )

   Crystallographic axes

     site n.     atom                  positions (cryst. coord.)
         1           Zn  tau(   1) = (  0.3333333  0.3333333  0.2503168  )
         2           Zn  tau(   2) = (  0.1666667  0.6666667  0.0003168  )
         3           O   tau(   3) = (  0.3333333  0.3333333  0.4398382  )
         4           O   tau(   4) = (  0.1666667  0.6666667  0.1898382  )
         5           Zn  tau(   5) = (  0.3333333  0.3333333  0.7503168  )
         6           Zn  tau(   6) = (  0.1666667  0.6666667  0.5003168  )
         7           O   tau(   7) = (  0.3333333  0.3333333  0.9398382  )
         8           O   tau(   8) = (  0.1666667  0.6666667  0.6898382  )
         9           Zn  tau(   9) = (  0.8333333  0.3333333  0.2503168  )
        10           Zn  tau(  10) = (  0.6666667  0.6666667  0.0003168  )
        11           O   tau(  11) = (  0.8333333  0.3333333  0.4398382  )
        12           O   tau(  12) = (  0.6666667  0.6666667  0.1898382  )
        13           Zn  tau(  13) = (  0.8333333  0.3333333  0.7503168  )
        14           Zn  tau(  14) = (  0.6666667  0.6666667  0.5003168  )
        15           O   tau(  15) = (  0.8333333  0.3333333  0.9398382  )
        16           O   tau(  16) = (  0.6666667  0.6666667  0.6898382  )

     number of k points=    80
                       cart. coord. in units 2pi/alat
        k(    1) = (   0.0000000   0.0000000   0.0000000), wk =   0.0092593
        k(    2) = (   0.0000000   0.0000000   0.0938547), wk =   0.0185185
        k(    3) = (   0.0000000   0.0000000   0.1877094), wk =   0.0185185
        k(    4) = (   0.0000000   0.0000000  -0.2815642), wk =   0.0092593
        k(    5) = (   0.0000000   0.3849002   0.0000000), wk =   0.0370370
        k(    6) = (   0.0000000   0.3849002   0.0938547), wk =   0.0370370
        k(    7) = (   0.0000000   0.3849002   0.1877094), wk =   0.0370370
        k(    8) = (   0.0000000   0.3849002  -0.2815642), wk =   0.0370370
        k(    9) = (   0.0000000   0.7698004   0.0000000), wk =   0.0370370
        k(   10) = (   0.0000000   0.7698004   0.0938547), wk =   0.0370370
        k(   11) = (   0.0000000   0.7698004   0.1877094), wk =   0.0370370
        k(   12) = (   0.0000000   0.7698004  -0.2815642), wk =   0.0370370
        k(   13) = (   0.0000000  -1.1547005   0.0000000), wk =   0.0092593
        k(   14) = (   0.0000000  -1.1547005   0.0938547), wk =   0.0185185
        k(   15) = (   0.0000000  -1.1547005   0.1877094), wk =   0.0185185
        k(   16) = (   0.0000000  -1.1547005  -0.2815642), wk =   0.0092593
        k(   17) = (   0.1666667   0.0962250   0.0000000), wk =   0.0185185
        k(   18) = (   0.1666667   0.0962250   0.0938547), wk =   0.0185185
        k(   19) = (   0.1666667   0.0962250   0.1877094), wk =   0.0185185
        k(   20) = (   0.1666667   0.0962250  -0.2815642), wk =   0.0185185
        k(   21) = (   0.1666667   0.4811252   0.0000000), wk =   0.0370370
        k(   22) = (   0.1666667   0.4811252   0.0938547), wk =   0.0370370
        k(   23) = (   0.1666667   0.4811252   0.1877094), wk =   0.0370370
        k(   24) = (   0.1666667   0.4811252  -0.2815642), wk =   0.0370370
        k(   25) = (   0.1666667   0.8660254   0.0000000), wk =   0.0185185
        k(   26) = (   0.1666667   0.8660254   0.0938547), wk =   0.0370370
        k(   27) = (   0.1666667   0.8660254   0.1877094), wk =   0.0370370
        k(   28) = (   0.1666667   0.8660254  -0.2815642), wk =   0.0185185
        k(   29) = (   0.1666667  -1.0584755   0.0000000), wk =   0.0185185
        k(   30) = (   0.1666667  -1.0584755   0.0938547), wk =   0.0185185
        k(   31) = (   0.1666667  -1.0584755   0.1877094), wk =   0.0185185
        k(   32) = (   0.1666667  -1.0584755  -0.2815642), wk =   0.0185185
        k(   33) = (   0.1666667  -0.6735753   0.0000000), wk =   0.0370370
        k(   34) = (   0.1666667  -0.6735753   0.0938547), wk =   0.0370370
        k(   35) = (   0.1666667  -0.6735753   0.1877094), wk =   0.0370370
        k(   36) = (   0.1666667  -0.6735753  -0.2815642), wk =   0.0370370
        k(   37) = (   0.1666667  -0.2886751   0.0000000), wk =   0.0185185
        k(   38) = (   0.1666667  -0.2886751   0.0938547), wk =   0.0370370
        k(   39) = (   0.1666667  -0.2886751   0.1877094), wk =   0.0370370
        k(   40) = (   0.1666667  -0.2886751  -0.2815642), wk =   0.0185185
        k(   41) = (   0.3333333   0.1924501   0.0000000), wk =   0.0185185
        k(   42) = (   0.3333333   0.1924501   0.0938547), wk =   0.0185185
        k(   43) = (   0.3333333   0.1924501   0.1877094), wk =   0.0185185
        k(   44) = (   0.3333333   0.1924501  -0.2815642), wk =   0.0185185
        k(   45) = (   0.3333333   0.5773503   0.0000000), wk =   0.0185185
        k(   46) = (   0.3333333   0.5773503   0.0938547), wk =   0.0370370
        k(   47) = (   0.3333333   0.5773503   0.1877094), wk =   0.0370370
        k(   48) = (   0.3333333   0.5773503  -0.2815642), wk =   0.0185185
        k(   49) = (   0.3333333  -0.9622504   0.0000000), wk =   0.0185185
        k(   50) = (   0.3333333  -0.9622504   0.0938547), wk =   0.0185185
        k(   51) = (   0.3333333  -0.9622504   0.1877094), wk =   0.0185185
        k(   52) = (   0.3333333  -0.9622504  -0.2815642), wk =   0.0185185
        k(   53) = (   0.3333333  -0.5773503   0.0000000), wk =   0.0185185
        k(   54) = (   0.3333333  -0.5773503   0.0938547), wk =   0.0370370
        k(   55) = (   0.3333333  -0.5773503   0.1877094), wk =   0.0370370
[...]
        k(   80) = (  -0.6666667   0.5000000  -0.3333333), wk =   0.0185185

     Check: negative core charge=   -0.000002

     Initial potential from superposition of free atoms

     starting charge     143.9702, renormalised to     144.0000
     Starting wfcs are  104 randomized atomic wfcs

     Self-consistent Calculation

     iteration #  1     ecut=    50.00 Ry     beta= 0.30
     Davidson diagonalization with overlap

     ethr =  1.00E-02,  avg # of iterations =  1.9

     total energy              =   -1445.83990857 Ry
     estimated scf accuracy    <       2.85918089 Ry

[...]

[barbara][[501,1],31][../../../../../../opal/mca/btl/tcp/btl_tcp.c:559:mca_btl_tcp_recv_blocking] recv(18) failed: Connection reset by peer (104)
     ethr =  4.84E-05,  avg # of iterations =  8.6

[...]

     c_bands:  1 eigenvalues not converged
     ethr =  3.71E-07,  avg # of iterations = 10.3

[...]

     total energy              =   -1446.49683672 Ry
     estimated scf accuracy    <       0.00000001 Ry

     iteration # 41     ecut=    50.00 Ry     beta= 0.30
     Davidson diagonalization with overlap

     ethr =  8.14E-12,  avg # of iterations =  2.2

     End of self-consistent calculation

          k = 0.0000 0.0000 0.0000 (  8167 PWs)   bands (ev):

   -11.2685 -11.0267 -11.0267 -10.7709 -10.6189 -10.5419 -10.5419 -10.4704
     0.6593   0.6593   0.7311   0.8290   0.8290   0.8638   0.8911   0.8914
     0.9473   0.9473   0.9476   0.9476   0.9634   0.9737   1.0204   1.0206
     1.1707   1.3407   1.3407   1.5442   1.5592   1.5813   1.5813   1.7455
     1.9882   1.9882   2.0261   2.0583   2.0583   2.0584   2.0584   2.1151
     2.1151   2.1386   2.1515   2.1515   2.1776   2.2043   2.2043   2.2571
     2.5004   2.5920   2.6534   2.6534   2.8874   3.8277   3.9750   3.9750
     4.6379   4.9104   4.9104   5.1355   5.1355   5.1400   5.6052   5.9637
     5.9642   6.1328   6.2270   6.2270   6.2275   6.2275   6.4891   6.4896

     occupation numbers
     1.0000   1.0000   1.0000   1.0000   1.0000   1.0000   1.0000   1.0000
     1.0000   1.0000   1.0000   1.0000   1.0000   1.0000   1.0000   1.0000
     1.0000   1.0000   1.0000   1.0000   1.0000   1.0000   1.0000   1.0000
     1.0000   1.0000   1.0000   1.0000   1.0000   1.0000   1.0000   1.0000
     1.0000   1.0000   1.0000   1.0000   1.0000   1.0000   1.0000   1.0000
     1.0000   1.0000   1.0000   1.0000   1.0000   1.0000   1.0000   1.0000
     1.0000   1.0000   1.0000   1.0000   1.0000   1.0000   1.0000   1.0000
     1.0000   1.0000   1.0000   1.0000   1.0000   1.0000   1.0000   1.0000
     1.0000   1.0000   1.0000   1.0000   1.0000   1.0000   1.0000   1.0000

[...]

          k =-0.5000-0.2887 0.0000 (  8164 PWs)   bands (ev):

[...]

          k = 0.3333 0.1925-0.1877 (  8145 PWs)   bands (ev):

[...]

          k =-0.6667 0.7698-0.1877 (  8152 PWs)   bands (ev):

   -10.6146 -10.6146 -10.5845 -10.5845 -10.5055 -10.5055 -10.4779 -10.4779
     0.7932   0.7932   0.8111   0.8111   0.8848   0.8848   0.9897   0.9897
     1.1883   1.1883   1.2112   1.2112   1.3813   1.3813   1.4604   1.4604
     1.4868   1.4868   1.5286   1.5286   1.5295   1.5295   1.5921   1.5921
     1.9428   1.9428   2.0149   2.0149   2.0742   2.0742   2.1005   2.1005
     2.2034   2.2034   2.2098   2.2098   2.3074   2.3074   2.3782   2.3782
     2.6939   2.6939   2.8075   2.8075   3.0992   3.0992   3.1885   3.1885
     3.9289   3.9289   4.2257   4.2257   4.2606   4.2606   4.5452   4.5452
     4.9364   4.9364   5.0815   5.0815   5.2506   5.2506   5.3057   5.3057

     occupation numbers
     1.0000   1.0000   1.0000   1.0000   1.0000   1.0000   1.0000   1.0000
     1.0000   1.0000   1.0000   1.0000   1.0000   1.0000   1.0000   1.0000
     1.0000   1.0000   1.0000   1.0000   1.0000   1.0000   1.0000   1.0000
     1.0000   1.0000   1.0000   1.0000   1.0000   1.0000   1.0000   1.0000
     1.0000   1.0000   1.0000   1.0000   1.0000   1.0000   1.0000   1.0000
     1.0000   1.0000   1.0000   1.0000   1.0000   1.0000   1.0000   1.0000
     1.0000   1.0000   1.0000   1.0000   1.0000   1.0000   1.0000   1.0000
     1.0000   1.0000   1.0000   1.0000   1.0000   1.0000   1.0000   1.0000
     1.0000   1.0000   1.0000   1.0000   1.0000   1.0000   1.0000   1.0000

     highest occupied level (ev):     6.4896

!    total energy              =   -1446.49683671 Ry
     estimated scf accuracy    <          7.6E-09 Ry

     The total energy is the sum of the following terms:
     one-electron contribution =    -636.61466064 Ry
     hartree contribution      =     480.04495245 Ry
     xc contribution           =    -437.93451861 Ry
     ewald contribution        =    -851.99260991 Ry

     convergence has been achieved in  41 iterations

     Forces acting on atoms (cartesian axes, Ry/au):

     atom    1 type  1   force =     0.00000220    0.00000127    0.01428174
     atom    2 type  1   force =    -0.00000151   -0.00000087    0.01428210
     atom    3 type  2   force =    -0.00000465   -0.00000269   -0.01428383
     atom    4 type  2   force =     0.00000444    0.00000256   -0.01428391
     atom    5 type  1   force =     0.00000255    0.00000147    0.01428763
     atom    6 type  1   force =    -0.00000239   -0.00000138    0.01428450
     atom    7 type  2   force =    -0.00000470   -0.00000271   -0.01428390
     atom    8 type  2   force =     0.00000474    0.00000274   -0.01428437
     atom    9 type  1   force =     0.00000147    0.00000085    0.01428226
     atom   10 type  1   force =    -0.00000237   -0.00000137    0.01428233
     atom   11 type  2   force =    -0.00000440   -0.00000254   -0.01428372
     atom   12 type  2   force =     0.00000470    0.00000271   -0.01428381
     atom   13 type  1   force =     0.00000135    0.00000078    0.01428680
     atom   14 type  1   force =    -0.00000134   -0.00000077    0.01428435
     atom   15 type  2   force =    -0.00000463   -0.00000267   -0.01428392
     atom   16 type  2   force =     0.00000455    0.00000263   -0.01428426
     The non-local contrib.  to forces
     atom    1 type  1   force =    -0.00001575   -0.00000909    0.25206331
     atom    2 type  1   force =     0.00001620    0.00000935    0.25206378
     atom    3 type  2   force =    -0.00019013   -0.00010977    0.24544139
     atom    4 type  2   force =     0.00018986    0.00010961    0.24544210
     atom    5 type  1   force =    -0.00001573   -0.00000908    0.25206737
     atom    6 type  1   force =     0.00001598    0.00000922    0.25206469
     atom    7 type  2   force =    -0.00019011   -0.00010976    0.24544076
     atom    8 type  2   force =     0.00019009    0.00010975    0.24543986
     atom    9 type  1   force =    -0.00001628   -0.00000940    0.25206360
     atom   10 type  1   force =     0.00001581    0.00000913    0.25206379
     atom   11 type  2   force =    -0.00018982   -0.00010959    0.24544084
     atom   12 type  2   force =     0.00018987    0.00010962    0.24544143
     atom   13 type  1   force =    -0.00001610   -0.00000930    0.25206698
     atom   14 type  1   force =     0.00001602    0.00000925    0.25206460
     atom   15 type  2   force =    -0.00018978   -0.00010957    0.24544114
     atom   16 type  2   force =     0.00018962    0.00010948    0.24543981
     The ionic contribution  to forces
     atom    1 type  1   force =     0.00000001    0.00000001    1.99206071
     atom    2 type  1   force =     0.00000000    0.00000000    1.99206072
     atom    3 type  2   force =     0.00000001    0.00000000   -1.99206071
     atom    4 type  2   force =     0.00000000    0.00000000   -1.99206072
     atom    5 type  1   force =     0.00000001    0.00000001    1.99206071
     atom    6 type  1   force =     0.00000000    0.00000000    1.99206072
     atom    7 type  2   force =     0.00000001    0.00000000   -1.99206071
     atom    8 type  2   force =     0.00000000    0.00000000   -1.99206072
     atom    9 type  1   force =    -0.00000001   -0.00000000    1.99206071
     atom   10 type  1   force =    -0.00000000   -0.00000001    1.99206071
     atom   11 type  2   force =    -0.00000001    0.00000000   -1.99206071
     atom   12 type  2   force =    -0.00000000   -0.00000001   -1.99206071
     atom   13 type  1   force =    -0.00000001   -0.00000000    1.99206071
     atom   14 type  1   force =    -0.00000000   -0.00000001    1.99206071
     atom   15 type  2   force =    -0.00000001    0.00000000   -1.99206071
     atom   16 type  2   force =    -0.00000000   -0.00000001   -1.99206071
     The local contribution  to forces
     atom    1 type  1   force =     0.00002517    0.00001453   -2.21238826
     atom    2 type  1   force =    -0.00002669   -0.00001541   -2.21238845
     atom    3 type  2   force =     0.00018289    0.00010559    1.73437487
     atom    4 type  2   force =    -0.00018312   -0.00010572    1.73437582
     atom    5 type  1   force =     0.00002499    0.00001443   -2.21239806
     atom    6 type  1   force =    -0.00002520   -0.00001455   -2.21239200
     atom    7 type  2   force =     0.00018313    0.00010573    1.73437594
     atom    8 type  2   force =    -0.00018280   -0.00010554    1.73437233
     atom    9 type  1   force =     0.00002671    0.00001552   -2.21238897
     atom   10 type  1   force =    -0.00002520   -0.00001455   -2.21238880
     atom   11 type  2   force =     0.00018351    0.00010598    1.73437543
     atom   12 type  2   force =    -0.00018275   -0.00010551    1.73437677
     atom   13 type  1   force =     0.00002672    0.00001552   -2.21239679
     atom   14 type  1   force =    -0.00002667   -0.00001540   -2.21239190
     atom   15 type  2   force =     0.00018317    0.00010578    1.73437548
     atom   16 type  2   force =    -0.00018293   -0.00010561    1.73437288
     The core correction contribution to forces
     atom    1 type  1   force =    -0.00000817   -0.00000471   -0.01746123
     atom    2 type  1   force =     0.00000820    0.00000473   -0.01746127
     atom    3 type  2   force =     0.00000215    0.00000124   -0.00203997
     atom    4 type  2   force =    -0.00000215   -0.00000124   -0.00203998
     atom    5 type  1   force =    -0.00000817   -0.00000471   -0.01746117
     atom    6 type  1   force =     0.00000815    0.00000471   -0.01746121
     atom    7 type  2   force =     0.00000215    0.00000124   -0.00203996
     atom    8 type  2   force =    -0.00000215   -0.00000124   -0.00203995
     atom    9 type  1   force =    -0.00000820   -0.00000472   -0.01746122
     atom   10 type  1   force =     0.00000817    0.00000472   -0.01746125
     atom   11 type  2   force =     0.00000215    0.00000124   -0.00203996
     atom   12 type  2   force =    -0.00000215   -0.00000124   -0.00203997
     atom   13 type  1   force =    -0.00000821   -0.00000473   -0.01746119
     atom   14 type  1   force =     0.00000821    0.00000474   -0.01746120
     atom   15 type  2   force =     0.00000215    0.00000124   -0.00203996
     atom   16 type  2   force =    -0.00000215   -0.00000124   -0.00203995
     The Hubbard contrib.    to forces
     atom    1 type  1   force =     0.00000000    0.00000000    0.00000000
     atom    2 type  1   force =     0.00000000    0.00000000    0.00000000
     atom    3 type  2   force =     0.00000000    0.00000000    0.00000000
     atom    4 type  2   force =     0.00000000    0.00000000    0.00000000
     atom    5 type  1   force =     0.00000000    0.00000000    0.00000000
     atom    6 type  1   force =     0.00000000    0.00000000    0.00000000
     atom    7 type  2   force =     0.00000000    0.00000000    0.00000000
     atom    8 type  2   force =     0.00000000    0.00000000    0.00000000
     atom    9 type  1   force =     0.00000000    0.00000000    0.00000000
     atom   10 type  1   force =     0.00000000    0.00000000    0.00000000
     atom   11 type  2   force =     0.00000000    0.00000000    0.00000000
     atom   12 type  2   force =     0.00000000    0.00000000    0.00000000
     atom   13 type  1   force =     0.00000000    0.00000000    0.00000000
     atom   14 type  1   force =     0.00000000    0.00000000    0.00000000
     atom   15 type  2   force =     0.00000000    0.00000000    0.00000000
     atom   16 type  2   force =     0.00000000    0.00000000    0.00000000
     The SCF correction term to forces
     atom    1 type  1   force =     0.00000095    0.00000055    0.00000976
     atom    2 type  1   force =     0.00000080    0.00000046    0.00000987
     atom    3 type  2   force =     0.00000044    0.00000025    0.00000314
     atom    4 type  2   force =    -0.00000013   -0.00000008    0.00000142
     atom    5 type  1   force =     0.00000147    0.00000085    0.00002132
     atom    6 type  1   force =    -0.00000130   -0.00000075    0.00001486
     atom    7 type  2   force =     0.00000014    0.00000008    0.00000263
     atom    8 type  2   force =    -0.00000037   -0.00000021    0.00000666
     atom    9 type  1   force =    -0.00000078   -0.00000045    0.00001069
     atom   10 type  1   force =    -0.00000111   -0.00000064    0.00001042
     atom   11 type  2   force =    -0.00000023   -0.00000013    0.00000325
     atom   12 type  2   force =    -0.00000024   -0.00000014    0.00000122
     atom   13 type  1   force =    -0.00000107   -0.00000062    0.00001964
     atom   14 type  1   force =     0.00000113    0.00000065    0.00001469
     atom   15 type  2   force =    -0.00000016   -0.00000009    0.00000269
     atom   16 type  2   force =     0.00000004    0.00000002    0.00000626

     Total force =     0.057136     Total SCF correction =     0.000043

     General routines

     Parallel routines

   This run was terminated on:   3:23:30  29Aug2025

   JOB DONE.
Note: The following floating-point exceptions are signalling: IEEE_UNDERFLOW_FLAG IEEE_DENORMAL
Note: The following floating-point exceptions are signalling: IEEE_UNDERFLOW_FLAG IEEE_DENORMAL
Note: The following floating-point exceptions are signalling: IEEE_UNDERFLOW_FLAG IEEE_DENORMAL
Note: The following floating-point exceptions are signalling: IEEE_UNDERFLOW_FLAG IEEE_DENORMAL
Note: The following floating-point exceptions are signalling: IEEE_UNDERFLOW_FLAG IEEE_DENORMAL
Note: The following floating-point exceptions are signalling: IEEE_UNDERFLOW_FLAG IEEE_DENORMAL
Note: The following floating-point exceptions are signalling: IEEE_UNDERFLOW_FLAG IEEE_DENORMAL
Note: The following floating-point exceptions are signalling: IEEE_UNDERFLOW_FLAG IEEE_DENORMAL
Note: The following floating-point exceptions are signalling: IEEE_UNDERFLOW_FLAG IEEE_DENORMAL
Note: The following floating-point exceptions are signalling: IEEE_UNDERFLOW_FLAG IEEE_DENORMAL
Note: The following floating-point exceptions are signalling: IEEE_UNDERFLOW_FLAG IEEE_DENORMAL
Note: The following floating-point exceptions are signalling: IEEE_UNDERFLOW_FLAG IEEE_DENORMAL
Note: The following floating-point exceptions are signalling: IEEE_UNDERFLOW_FLAG IEEE_DENORMAL
Note: The following floating-point exceptions are signalling: IEEE_UNDERFLOW_FLAG IEEE_DENORMAL
Note: The following floating-point exceptions are signalling: IEEE_UNDERFLOW_FLAG IEEE_DENORMAL
Note: The following floating-point exceptions are signalling: IEEE_UNDERFLOW_FLAG IEEE_DENORMAL
Note: The following floating-point exceptions are signalling: IEEE_UNDERFLOW_FLAG IEEE_DENORMAL
Note: The following floating-point exceptions are signalling: IEEE_UNDERFLOW_FLAG IEEE_DENORMAL
Note: The following floating-point exceptions are signalling: IEEE_UNDERFLOW_FLAG IEEE_DENORMAL
Note: The following floating-point exceptions are signalling: IEEE_UNDERFLOW_FLAG IEEE_DENORMAL
Note: The following floating-point exceptions are signalling: IEEE_UNDERFLOW_FLAG IEEE_DENORMAL
Note: The following floating-point exceptions are signalling: IEEE_UNDERFLOW_FLAG IEEE_DENORMAL
Note: The following floating-point exceptions are signalling: IEEE_UNDERFLOW_FLAG IEEE_DENORMAL
Note: The following floating-point exceptions are signalling: IEEE_UNDERFLOW_FLAG IEEE_DENORMAL
Note: The following floating-point exceptions are signalling: IEEE_UNDERFLOW_FLAG IEEE_DENORMAL
Note: The following floating-point exceptions are signalling: IEEE_UNDERFLOW_FLAG IEEE_DENORMAL
Note: The following floating-point exceptions are signalling: IEEE_UNDERFLOW_FLAG IEEE_DENORMAL
Note: The following floating-point exceptions are signalling: IEEE_UNDERFLOW_FLAG IEEE_DENORMAL
Note: The following floating-point exceptions are signalling: IEEE_UNDERFLOW_FLAG IEEE_DENORMAL
Note: The following floating-point exceptions are signalling: IEEE_UNDERFLOW_FLAG IEEE_DENORMAL
Note: The following floating-point exceptions are signalling: IEEE_UNDERFLOW_FLAG IEEE_DENORMAL
Note: The following floating-point exceptions are signalling: IEEE_UNDERFLOW_FLAG IEEE_DENORMAL