     Program PWSCF v.7.0 starts on 29Aug2025 at  7:34:34

     K-points division:     npool     =       8
     R & G space division:  proc/nbgrp/npool/nimage =       4

     Reading input from /home/jvc/QEspresso7.2/ZnO_database/scripts/cell212.in/ZnO-3.34-1.68-212.in
Warning: card &CELL ignored
Warning: card / ignored
Warning: card &FCP ignored
Warning: card / ignored
Warning: card &RISM ignored
Warning: card / ignored

     Current dimensions of program PWSCF are:
     Max number of different atomic species (ntypx) = 10
     Max number of k-points (npk) =  40000
     Max angular momentum in pseudopotentials (lmaxx) =  4
     file Zn.upf: wavefunction(s)  3D renormalized
     Found identity + (  0.0000  0.0000  0.5000) symmetry
     This is a supercell, fractional translations are disabled
     Message from routine setup:
     using ibrav=0 with symmetry is DISCOURAGED, use correct ibrav instead

     Using Slab Decomposition

     bravais-lattice index     =            0
     lattice parameter (alat)  =      12.6049  a.u.
     unit-cell volume          =    1455.9559 (a.u.)^3
     number of atoms/cell      =           16
     number of atomic types    =            2
     number of electrons       =       144.00
     number of Kohn-Sham states=           72
     kinetic-energy cutoff     =      50.0000  Ry
     charge density cutoff     =     400.0000  Ry
     scf convergence threshold =      1.0E-08
     mixing beta               =       0.3000
     number of iterations used =            8  plain     mixing
     Exchange-correlation= PBE
                           (   1   4   3   4   0   0   0)

     celldm(1)=  12.604862  celldm(2)=   0.000000  celldm(3)=   0.000000
     celldm(4)=   0.000000  celldm(5)=   0.000000  celldm(6)=   0.000000

     crystal axes: (cart. coord. in units of alat)
               a(1) = (   1.000000   0.000000   0.000000 )
               a(2) = (  -0.250000   0.433013   0.000000 )
               a(3) = (   0.000000   0.000000   1.678933 )

     reciprocal axes: (cart. coord. in units 2 pi/alat)
               b(1) = (  1.000000  0.577350 -0.000000 )
               b(2) = (  0.000000  2.309401  0.000000 )
               b(3) = (  0.000000 -0.000000  0.595616 )

     PseudoPot. # 1 for Zn read from file:
     /home/jvc/QEspresso7.2/ZnO_database/pseudos/Zn.upf
     MD5 check sum: 7f56cabf9682ed8c977c2f7d0c5985c5
     Pseudo is Ultrasoft + core correction, Zval = 12.0
     Generated using &quot;atomic&quot; code by A. Dal Corso  v.6.2.2
     Using radial grid of 1201 points,  6 beta functions with:
                l(1) =   0
                l(2) =   0
                l(3) =   1
                l(4) =   1
                l(5) =   2
                l(6) =   2
     Q(r) pseudized with 0 coefficients

     PseudoPot. # 2 for O  read from file:
     /home/jvc/QEspresso7.2/ZnO_database/pseudos/O.upf
     MD5 check sum: 91400c9766925bcf19f520983a725ff0
     Pseudo is Ultrasoft + core correction, Zval =  6.0
     Generated using &quot;atomic&quot; code by A. Dal Corso  v.6.3MaX
     Using radial grid of 1095 points,  4 beta functions with:
                l(1) =   0
                l(2) =   0
                l(3) =   1
                l(4) =   1
     Q(r) pseudized with 0 coefficients

     atomic species   valence    mass     pseudopotential
        Zn            12.00    65.38000     Zn( 1.00)
        O              6.00    15.99900     O ( 1.00)

      2 Sym. Ops. (no inversion) found

                                    s                        frac. trans.

      isym =  1     identity

 cryst.   s( 1) = (     1          0          0      )
                  (     0          1          0      )
                  (     0          0          1      )

 cart.    s( 1) = (  1.0000000  0.0000000  0.0000000 )
                  (  0.0000000  1.0000000  0.0000000 )
                  (  0.0000000  0.0000000  1.0000000 )

      isym =  2     inv. 180 deg rotation - cryst. axis [0,1,0]

 cryst.   s( 2) = (     1          2          0      )
                  (     0         -1          0      )
                  (     0          0          1      )

 cart.    s( 2) = (  0.5000000  0.8660254  0.0000000 )
                  (  0.8660254 -0.5000000  0.0000000 )
                  (  0.0000000  0.0000000  1.0000000 )

   Cartesian axes

     site n.     atom                  positions (alat units)
         1           Zn  tau(   1) = (   0.2500000   0.1443376   0.4202650  )
         2           Zn  tau(   2) = (  -0.0000000   0.2886751   0.0005319  )
         3           O   tau(   3) = (   0.2500000   0.1443376   0.7384587  )
         4           O   tau(   4) = (  -0.0000000   0.2886751   0.3187256  )
         5           Zn  tau(   5) = (   0.2500000   0.1443376   1.2597314  )
         6           Zn  tau(   6) = (  -0.0000000   0.2886751   0.8399982  )
         7           O   tau(   7) = (   0.2500000   0.1443376   1.5779251  )
         8           O   tau(   8) = (  -0.0000000   0.2886751   1.1581919  )
         9           Zn  tau(   9) = (   0.7500000   0.1443376   0.4202650  )
        10           Zn  tau(  10) = (   0.5000000   0.2886751   0.0005319  )
        11           O   tau(  11) = (   0.7500000   0.1443376   0.7384587  )
        12           O   tau(  12) = (   0.5000000   0.2886751   0.3187256  )
        13           Zn  tau(  13) = (   0.7500000   0.1443376   1.2597314  )
        14           Zn  tau(  14) = (   0.5000000   0.2886751   0.8399982  )
        15           O   tau(  15) = (   0.7500000   0.1443376   1.5779251  )
        16           O   tau(  16) = (   0.5000000   0.2886751   1.1581919  )

   Crystallographic axes

     site n.     atom                  positions (cryst. coord.)
         1           Zn  tau(   1) = (  0.3333333  0.3333333  0.2503168  )
         2           Zn  tau(   2) = (  0.1666667  0.6666667  0.0003168  )
         3           O   tau(   3) = (  0.3333333  0.3333333  0.4398382  )
         4           O   tau(   4) = (  0.1666667  0.6666667  0.1898382  )
         5           Zn  tau(   5) = (  0.3333333  0.3333333  0.7503168  )
         6           Zn  tau(   6) = (  0.1666667  0.6666667  0.5003168  )
         7           O   tau(   7) = (  0.3333333  0.3333333  0.9398382  )
         8           O   tau(   8) = (  0.1666667  0.6666667  0.6898382  )
         9           Zn  tau(   9) = (  0.8333333  0.3333333  0.2503168  )
        10           Zn  tau(  10) = (  0.6666667  0.6666667  0.0003168  )
        11           O   tau(  11) = (  0.8333333  0.3333333  0.4398382  )
        12           O   tau(  12) = (  0.6666667  0.6666667  0.1898382  )
        13           Zn  tau(  13) = (  0.8333333  0.3333333  0.7503168  )
        14           Zn  tau(  14) = (  0.6666667  0.6666667  0.5003168  )
        15           O   tau(  15) = (  0.8333333  0.3333333  0.9398382  )
        16           O   tau(  16) = (  0.6666667  0.6666667  0.6898382  )

     number of k points=    80
                       cart. coord. in units 2pi/alat
        k(    1) = (   0.0000000   0.0000000   0.0000000), wk =   0.0092593
        k(    2) = (   0.0000000   0.0000000   0.0992694), wk =   0.0185185
        k(    3) = (   0.0000000   0.0000000   0.1985388), wk =   0.0185185
        k(    4) = (   0.0000000   0.0000000  -0.2978082), wk =   0.0092593
        k(    5) = (   0.0000000   0.3849002   0.0000000), wk =   0.0370370
        k(    6) = (   0.0000000   0.3849002   0.0992694), wk =   0.0370370
        k(    7) = (   0.0000000   0.3849002   0.1985388), wk =   0.0370370
        k(    8) = (   0.0000000   0.3849002  -0.2978082), wk =   0.0370370
        k(    9) = (   0.0000000   0.7698004   0.0000000), wk =   0.0370370
        k(   10) = (   0.0000000   0.7698004   0.0992694), wk =   0.0370370
        k(   11) = (   0.0000000   0.7698004   0.1985388), wk =   0.0370370
        k(   12) = (   0.0000000   0.7698004  -0.2978082), wk =   0.0370370
        k(   13) = (   0.0000000  -1.1547005   0.0000000), wk =   0.0092593
        k(   14) = (   0.0000000  -1.1547005   0.0992694), wk =   0.0185185
        k(   15) = (   0.0000000  -1.1547005   0.1985388), wk =   0.0185185
        k(   16) = (   0.0000000  -1.1547005  -0.2978082), wk =   0.0092593
        k(   17) = (   0.1666667   0.0962250   0.0000000), wk =   0.0185185
        k(   18) = (   0.1666667   0.0962250   0.0992694), wk =   0.0185185
        k(   19) = (   0.1666667   0.0962250   0.1985388), wk =   0.0185185
        k(   20) = (   0.1666667   0.0962250  -0.2978082), wk =   0.0185185
        k(   21) = (   0.1666667   0.4811252   0.0000000), wk =   0.0370370
        k(   22) = (   0.1666667   0.4811252   0.0992694), wk =   0.0370370
        k(   23) = (   0.1666667   0.4811252   0.1985388), wk =   0.0370370
        k(   24) = (   0.1666667   0.4811252  -0.2978082), wk =   0.0370370
        k(   25) = (   0.1666667   0.8660254   0.0000000), wk =   0.0185185
        k(   26) = (   0.1666667   0.8660254   0.0992694), wk =   0.0370370
        k(   27) = (   0.1666667   0.8660254   0.1985388), wk =   0.0370370
        k(   28) = (   0.1666667   0.8660254  -0.2978082), wk =   0.0185185
        k(   29) = (   0.1666667  -1.0584755   0.0000000), wk =   0.0185185
        k(   30) = (   0.1666667  -1.0584755   0.0992694), wk =   0.0185185
        k(   31) = (   0.1666667  -1.0584755   0.1985388), wk =   0.0185185
        k(   32) = (   0.1666667  -1.0584755  -0.2978082), wk =   0.0185185
        k(   33) = (   0.1666667  -0.6735753   0.0000000), wk =   0.0370370
        k(   34) = (   0.1666667  -0.6735753   0.0992694), wk =   0.0370370
        k(   35) = (   0.1666667  -0.6735753   0.1985388), wk =   0.0370370
        k(   36) = (   0.1666667  -0.6735753  -0.2978082), wk =   0.0370370
        k(   37) = (   0.1666667  -0.2886751   0.0000000), wk =   0.0185185
        k(   38) = (   0.1666667  -0.2886751   0.0992694), wk =   0.0370370
        k(   39) = (   0.1666667  -0.2886751   0.1985388), wk =   0.0370370
        k(   40) = (   0.1666667  -0.2886751  -0.2978082), wk =   0.0185185
        k(   41) = (   0.3333333   0.1924501   0.0000000), wk =   0.0185185
        k(   42) = (   0.3333333   0.1924501   0.0992694), wk =   0.0185185
        k(   43) = (   0.3333333   0.1924501   0.1985388), wk =   0.0185185
        k(   44) = (   0.3333333   0.1924501  -0.2978082), wk =   0.0185185
        k(   45) = (   0.3333333   0.5773503   0.0000000), wk =   0.0185185
        k(   46) = (   0.3333333   0.5773503   0.0992694), wk =   0.0370370
        k(   47) = (   0.3333333   0.5773503   0.1985388), wk =   0.0370370
        k(   48) = (   0.3333333   0.5773503  -0.2978082), wk =   0.0185185
        k(   49) = (   0.3333333  -0.9622504   0.0000000), wk =   0.0185185
        k(   50) = (   0.3333333  -0.9622504   0.0992694), wk =   0.0185185
        k(   51) = (   0.3333333  -0.9622504   0.1985388), wk =   0.0185185
        k(   52) = (   0.3333333  -0.9622504  -0.2978082), wk =   0.0185185
        k(   53) = (   0.3333333  -0.5773503   0.0000000), wk =   0.0185185
        k(   54) = (   0.3333333  -0.5773503   0.0992694), wk =   0.0370370
        k(   55) = (   0.3333333  -0.5773503   0.1985388), wk =   0.0370370
[...]
        k(   76) = (  -0.5000000   0.3333333  -0.3333333), wk =   0.0370370
        k(   77) = (   0.3333333   0.0000000  -0.1666667), wk =   0.0185185
        k(   78) = (   0.3333333   0.0000000  -0.3333333), wk =   0.0185185
        k(   79) = (  -0.6666667   0.5000000  -0.1666667), wk =   0.0185185
        k(   80) = (  -0.6666667   0.5000000  -0.3333333), wk =   0.0185185

     Check: negative core charge=   -0.000002

     Initial potential from superposition of free atoms

     starting charge     143.9702, renormalised to     144.0000
     Starting wfcs are  104 randomized atomic wfcs

     Self-consistent Calculation

     iteration #  1     ecut=    50.00 Ry     beta= 0.30
     Davidson diagonalization with overlap

     ethr =  1.00E-02,  avg # of iterations =  1.8

     total energy              =   -1445.81176994 Ry
     estimated scf accuracy    <       2.92967923 Ry

[...]

     total energy              =   -1446.49858913 Ry
     estimated scf accuracy    <       0.00000105 Ry

     iteration # 28     ecut=    50.00 Ry     beta= 0.30
     Davidson diagonalization with overlap

     ethr =  7.32E-10,  avg # of iterations =  6.1

     End of self-consistent calculation

          k = 0.0000 0.0000 0.0000 (  8709 PWs)   bands (ev):

   -11.6590 -11.4163 -11.4162 -11.1618 -11.1212 -11.0418 -11.0418 -10.9699
     0.1546   0.1546   0.2162   0.2668   0.2668   0.3093   0.3095   0.3566
     0.3645   0.3645   0.3647   0.3647   0.4355   0.4460   0.4462   0.5306
     0.6539   0.7035   0.7036   0.8549   0.8675   0.8675   0.9132   1.0060
     1.1871   1.1871   1.2421   1.2654   1.2655   1.2655   1.2655   1.3152
     1.3226   1.3226   1.3300   1.3300   1.3632   1.3957   1.3957   1.4286
     1.6491   1.9073   1.9722   1.9722   2.2989   3.0997   3.2895   3.2895
     3.7767   4.2800   4.2800   4.3168   4.3169   4.4188   4.8211   4.9809
     4.9814   5.2717   5.2717   5.2722   5.2722   5.4102   5.5578   5.5583

     occupation numbers
     1.0000   1.0000   1.0000   1.0000   1.0000   1.0000   1.0000   1.0000
     1.0000   1.0000   1.0000   1.0000   1.0000   1.0000   1.0000   1.0000
     1.0000   1.0000   1.0000   1.0000   1.0000   1.0000   1.0000   1.0000
     1.0000   1.0000   1.0000   1.0000   1.0000   1.0000   1.0000   1.0000
     1.0000   1.0000   1.0000   1.0000   1.0000   1.0000   1.0000   1.0000
     1.0000   1.0000   1.0000   1.0000   1.0000   1.0000   1.0000   1.0000
     1.0000   1.0000   1.0000   1.0000   1.0000   1.0000   1.0000   1.0000
     1.0000   1.0000   1.0000   1.0000   1.0000   1.0000   1.0000   1.0000
     1.0000   1.0000   1.0000   1.0000   1.0000   1.0000   1.0000   1.0000

[...]

          k =-0.5000-0.2887 0.0000 (  8676 PWs)   bands (ev):

[...]

          k = 0.3333 0.1925-0.1985 (  8674 PWs)   bands (ev):

[...]

          k =-0.6667 0.7698-0.1985 (  8722 PWs)   bands (ev):

   -11.1151 -11.1151 -11.0842 -11.0842 -11.0044 -11.0044 -10.9770 -10.9770
     0.2584   0.2584   0.2798   0.2798   0.3560   0.3561   0.4679   0.4679
     0.5685   0.5685   0.5788   0.5788   0.7472   0.7472   0.7862   0.7862
     0.8052   0.8052   0.8393   0.8393   0.8852   0.8852   0.9100   0.9100
     1.1751   1.1751   1.2359   1.2359   1.2719   1.2720   1.2934   1.2934
     1.3820   1.3820   1.3917   1.3917   1.4860   1.4860   1.5372   1.5372
     1.9988   1.9988   2.0828   2.0828   2.3661   2.3661   2.4751   2.4751
     3.2107   3.2107   3.4903   3.4903   3.5406   3.5406   3.9083   3.9083
     4.1862   4.1862   4.3655   4.3656   4.5571   4.5571   4.5694   4.5694

     occupation numbers
     1.0000   1.0000   1.0000   1.0000   1.0000   1.0000   1.0000   1.0000
     1.0000   1.0000   1.0000   1.0000   1.0000   1.0000   1.0000   1.0000
     1.0000   1.0000   1.0000   1.0000   1.0000   1.0000   1.0000   1.0000
     1.0000   1.0000   1.0000   1.0000   1.0000   1.0000   1.0000   1.0000
     1.0000   1.0000   1.0000   1.0000   1.0000   1.0000   1.0000   1.0000
     1.0000   1.0000   1.0000   1.0000   1.0000   1.0000   1.0000   1.0000
     1.0000   1.0000   1.0000   1.0000   1.0000   1.0000   1.0000   1.0000
     1.0000   1.0000   1.0000   1.0000   1.0000   1.0000   1.0000   1.0000
     1.0000   1.0000   1.0000   1.0000   1.0000   1.0000   1.0000   1.0000

     highest occupied level (ev):     5.5583

!    total energy              =   -1446.49858938 Ry
     estimated scf accuracy    <          5.3E-09 Ry

     The total energy is the sum of the following terms:
     one-electron contribution =    -662.94081841 Ry
     hartree contribution      =     489.24304558 Ry
     xc contribution           =    -437.42342439 Ry
     ewald contribution        =    -835.37739216 Ry

     convergence has been achieved in  28 iterations

     Forces acting on atoms (cartesian axes, Ry/au):

     atom    1 type  1   force =     0.00002058    0.00001188    0.00366959
     atom    2 type  1   force =     0.00000147    0.00000085    0.00367695
     atom    3 type  2   force =    -0.00000344   -0.00000198   -0.00371403
     atom    4 type  2   force =     0.00000100    0.00000058   -0.00369954
     atom    5 type  1   force =     0.00000068    0.00000039    0.00373056
     atom    6 type  1   force =    -0.00001000   -0.00000577    0.00374530
     atom    7 type  2   force =    -0.00000261   -0.00000151   -0.00370526
     atom    8 type  2   force =     0.00000409    0.00000236   -0.00371417
     atom    9 type  1   force =    -0.00001701   -0.00000982    0.00368081
     atom   10 type  1   force =    -0.00000484   -0.00000279    0.00369372
     atom   11 type  2   force =    -0.00000328   -0.00000189   -0.00371101
     atom   12 type  2   force =     0.00000417    0.00000241   -0.00369871
     atom   13 type  1   force =     0.00000120    0.00000069    0.00372828
     atom   14 type  1   force =     0.00000842    0.00000486    0.00373650
     atom   15 type  2   force =    -0.00000365   -0.00000211   -0.00370535
     atom   16 type  2   force =     0.00000321    0.00000185   -0.00371362
     The non-local contrib.  to forces
     atom    1 type  1   force =    -0.00000210   -0.00000121    0.09985091
     atom    2 type  1   force =     0.00001458    0.00000842    0.09986618
     atom    3 type  2   force =    -0.00019378   -0.00011188    0.10521099
     atom    4 type  2   force =     0.00018741    0.00010820    0.10525511
     atom    5 type  1   force =    -0.00001259   -0.00000727    0.09991610
     atom    6 type  1   force =     0.00000824    0.00000476    0.09991496
     atom    7 type  2   force =    -0.00018987   -0.00010962    0.10523675
     atom    8 type  2   force =     0.00019085    0.00011018    0.10519529
     atom    9 type  1   force =    -0.00002386   -0.00001378    0.09986108
     atom   10 type  1   force =     0.00001024    0.00000591    0.09987864
     atom   11 type  2   force =    -0.00018371   -0.00010606    0.10522008
     atom   12 type  2   force =     0.00018802    0.00010855    0.10525500
     atom   13 type  1   force =    -0.00001184   -0.00000684    0.09991327
     atom   14 type  1   force =     0.00001811    0.00001045    0.09991008
     atom   15 type  2   force =    -0.00018622   -0.00010751    0.10523662
     atom   16 type  2   force =     0.00018684    0.00010787    0.10520039
     The ionic contribution  to forces
     atom    1 type  1   force =     0.00000000    0.00000001    0.81707176
     atom    2 type  1   force =     0.00000001    0.00000000    0.81707176
     atom    3 type  2   force =     0.00000000    0.00000000   -0.81707176
     atom    4 type  2   force =     0.00000001    0.00000000   -0.81707176
     atom    5 type  1   force =     0.00000000    0.00000001    0.81707176
     atom    6 type  1   force =     0.00000001    0.00000000    0.81707176
     atom    7 type  2   force =     0.00000000    0.00000000   -0.81707176
     atom    8 type  2   force =     0.00000001    0.00000000   -0.81707176
     atom    9 type  1   force =    -0.00000002   -0.00000000    0.81707176
     atom   10 type  1   force =     0.00000000   -0.00000001    0.81707176
     atom   11 type  2   force =    -0.00000001    0.00000000   -0.81707176
     atom   12 type  2   force =     0.00000000   -0.00000001   -0.81707176
     atom   13 type  1   force =    -0.00000002   -0.00000000    0.81707176
     atom   14 type  1   force =     0.00000000   -0.00000001    0.81707176
     atom   15 type  2   force =    -0.00000001    0.00000000   -0.81707176
     atom   16 type  2   force =     0.00000000   -0.00000001   -0.81707176
     The local contribution  to forces
     atom    1 type  1   force =    -0.00001318   -0.00000761   -0.90659123
     atom    2 type  1   force =    -0.00002510   -0.00001459   -0.90660516
     atom    3 type  2   force =     0.00018377    0.00010610    0.70901427
     atom    4 type  2   force =    -0.00018695   -0.00010796    0.70904369
     atom    5 type  1   force =     0.00002093    0.00001208   -0.90671495
     atom    6 type  1   force =    -0.00000192   -0.00000121   -0.90674151
     atom    7 type  2   force =     0.00018050    0.00010421    0.70904128
     atom    8 type  2   force =    -0.00018060   -0.00010429    0.70902227
     atom    9 type  1   force =     0.00005487    0.00003178   -0.90661295
     atom   10 type  1   force =    -0.00001582   -0.00000924   -0.90663838
     atom   11 type  2   force =     0.00018343    0.00010593    0.70900591
     atom   12 type  2   force =    -0.00017832   -0.00010298    0.70904376
     atom   13 type  1   force =     0.00002041    0.00001188   -0.90670943
     atom   14 type  1   force =    -0.00004106   -0.00002381   -0.90672658
     atom   15 type  2   force =     0.00018513    0.00010691    0.70904436
     atom   16 type  2   force =    -0.00018642   -0.00010766    0.70902017
     The core correction contribution to forces
     atom    1 type  1   force =    -0.00000544   -0.00000308   -0.00657858
     atom    2 type  1   force =     0.00000633    0.00000368   -0.00658014
     atom    3 type  2   force =     0.00000222    0.00000128   -0.00090506
     atom    4 type  2   force =    -0.00000212   -0.00000122   -0.00090753
     atom    5 type  1   force =    -0.00000625   -0.00000355   -0.00658213
     atom    6 type  1   force =     0.00000569    0.00000332   -0.00657964
     atom    7 type  2   force =     0.00000216    0.00000124   -0.00090832
     atom    8 type  2   force =    -0.00000214   -0.00000123   -0.00090587
     atom    9 type  1   force =    -0.00000717   -0.00000416   -0.00657847
     atom   10 type  1   force =     0.00000624    0.00000353   -0.00657951
     atom   11 type  2   force =     0.00000206    0.00000119   -0.00090520
     atom   12 type  2   force =    -0.00000213   -0.00000123   -0.00090752
     atom   13 type  1   force =    -0.00000639   -0.00000372   -0.00658217
     atom   14 type  1   force =     0.00000684    0.00000388   -0.00657996
     atom   15 type  2   force =     0.00000210    0.00000121   -0.00090831
     atom   16 type  2   force =    -0.00000214   -0.00000123   -0.00090594
     The Hubbard contrib.    to forces
     atom    1 type  1   force =     0.00000000    0.00000000    0.00000000
     atom    2 type  1   force =     0.00000000    0.00000000    0.00000000
     atom    3 type  2   force =     0.00000000    0.00000000    0.00000000
     atom    4 type  2   force =     0.00000000    0.00000000    0.00000000
     atom    5 type  1   force =     0.00000000    0.00000000    0.00000000
     atom    6 type  1   force =     0.00000000    0.00000000    0.00000000
     atom    7 type  2   force =     0.00000000    0.00000000    0.00000000
     atom    8 type  2   force =     0.00000000    0.00000000    0.00000000
     atom    9 type  1   force =     0.00000000    0.00000000    0.00000000
     atom   10 type  1   force =     0.00000000    0.00000000    0.00000000
     atom   11 type  2   force =     0.00000000    0.00000000    0.00000000
     atom   12 type  2   force =     0.00000000    0.00000000    0.00000000
     atom   13 type  1   force =     0.00000000    0.00000000    0.00000000
     atom   14 type  1   force =     0.00000000    0.00000000    0.00000000
     atom   15 type  2   force =     0.00000000    0.00000000    0.00000000
     atom   16 type  2   force =     0.00000000    0.00000000    0.00000000
     The SCF correction term to forces
     atom    1 type  1   force =     0.00004129    0.00002384   -0.00009296
     atom    2 type  1   force =     0.00000570    0.00000329   -0.00008538
     atom    3 type  2   force =     0.00000438    0.00000253    0.00002785
     atom    4 type  2   force =     0.00000268    0.00000155   -0.00002873
     atom    5 type  1   force =    -0.00000141   -0.00000082    0.00003010
     atom    6 type  1   force =    -0.00002196   -0.00001268    0.00007004
     atom    7 type  2   force =     0.00000463    0.00000267   -0.00001289
     atom    8 type  2   force =    -0.00000399   -0.00000231    0.00003621
     atom    9 type  1   force =    -0.00004084   -0.00002358   -0.00007029
     atom   10 type  1   force =    -0.00000540   -0.00000312   -0.00004848
     atom   11 type  2   force =    -0.00000504   -0.00000291    0.00003028
     atom   12 type  2   force =    -0.00000336   -0.00000194   -0.00002787
     atom   13 type  1   force =    -0.00000097   -0.00000056    0.00002516
     atom   14 type  1   force =     0.00002464    0.00001422    0.00005151
     atom   15 type  2   force =    -0.00000463   -0.00000267   -0.00001595
     atom   16 type  2   force =     0.00000497    0.00000287    0.00003382

     Total force =     0.014831     Total SCF correction =     0.000211

     General routines

     Parallel routines

   This run was terminated on:   7:46: 0  29Aug2025

   JOB DONE.
Note: The following floating-point exceptions are signalling: IEEE_UNDERFLOW_FLAG IEEE_DENORMAL
Note: The following floating-point exceptions are signalling: IEEE_UNDERFLOW_FLAG IEEE_DENORMAL
Note: The following floating-point exceptions are signalling: IEEE_UNDERFLOW_FLAG IEEE_DENORMAL
Note: The following floating-point exceptions are signalling: IEEE_UNDERFLOW_FLAG IEEE_DENORMAL
Note: The following floating-point exceptions are signalling: IEEE_UNDERFLOW_FLAG IEEE_DENORMAL
Note: The following floating-point exceptions are signalling: IEEE_UNDERFLOW_FLAG IEEE_DENORMAL
Note: The following floating-point exceptions are signalling: IEEE_UNDERFLOW_FLAG IEEE_DENORMAL
Note: The following floating-point exceptions are signalling: IEEE_UNDERFLOW_FLAG IEEE_DENORMAL
Note: The following floating-point exceptions are signalling: IEEE_UNDERFLOW_FLAG IEEE_DENORMAL
Note: The following floating-point exceptions are signalling: IEEE_UNDERFLOW_FLAG IEEE_DENORMAL
Note: The following floating-point exceptions are signalling: IEEE_UNDERFLOW_FLAG IEEE_DENORMAL
Note: The following floating-point exceptions are signalling: IEEE_UNDERFLOW_FLAG IEEE_DENORMAL
Note: The following floating-point exceptions are signalling: IEEE_UNDERFLOW_FLAG IEEE_DENORMAL
Note: The following floating-point exceptions are signalling: IEEE_UNDERFLOW_FLAG IEEE_DENORMAL
Note: The following floating-point exceptions are signalling: IEEE_UNDERFLOW_FLAG IEEE_DENORMAL
Note: The following floating-point exceptions are signalling: IEEE_UNDERFLOW_FLAG IEEE_DENORMAL
Note: The following floating-point exceptions are signalling: IEEE_UNDERFLOW_FLAG IEEE_DENORMAL
Note: The following floating-point exceptions are signalling: IEEE_UNDERFLOW_FLAG IEEE_DENORMAL
Note: The following floating-point exceptions are signalling: IEEE_UNDERFLOW_FLAG IEEE_DENORMAL
Note: The following floating-point exceptions are signalling: IEEE_UNDERFLOW_FLAG IEEE_DENORMAL
Note: The following floating-point exceptions are signalling: IEEE_UNDERFLOW_FLAG IEEE_DENORMAL
Note: The following floating-point exceptions are signalling: IEEE_UNDERFLOW_FLAG IEEE_DENORMAL
Note: The following floating-point exceptions are signalling: IEEE_UNDERFLOW_FLAG IEEE_DENORMAL
Note: The following floating-point exceptions are signalling: IEEE_UNDERFLOW_FLAG IEEE_DENORMAL
Note: The following floating-point exceptions are signalling: IEEE_UNDERFLOW_FLAG IEEE_DENORMAL
Note: The following floating-point exceptions are signalling: IEEE_UNDERFLOW_FLAG IEEE_DENORMAL
Note: The following floating-point exceptions are signalling: IEEE_UNDERFLOW_FLAG IEEE_DENORMAL
Note: The following floating-point exceptions are signalling: IEEE_UNDERFLOW_FLAG IEEE_DENORMAL
Note: The following floating-point exceptions are signalling: IEEE_UNDERFLOW_FLAG IEEE_DENORMAL
Note: The following floating-point exceptions are signalling: IEEE_UNDERFLOW_FLAG IEEE_DENORMAL
Note: The following floating-point exceptions are signalling: IEEE_UNDERFLOW_FLAG IEEE_DENORMAL
Note: The following floating-point exceptions are signalling: IEEE_UNDERFLOW_FLAG IEEE_DENORMAL