     Program PWSCF v.7.0 starts on 29Aug2025 at  4:45:27

     K-points division:     npool     =       8
     R & G space division:  proc/nbgrp/npool/nimage =       4

     Reading input from /home/jvc/QEspresso7.2/ZnO_database/scripts/cell212.in/ZnO-3.27-1.65-212.in
Warning: card &CELL ignored
Warning: card / ignored
Warning: card &FCP ignored
Warning: card / ignored
Warning: card &RISM ignored
Warning: card / ignored

     Current dimensions of program PWSCF are:
     Max number of different atomic species (ntypx) = 10
     Max number of k-points (npk) =  40000
     Max angular momentum in pseudopotentials (lmaxx) =  4
     file Zn.upf: wavefunction(s)  3D renormalized
     Found identity + (  0.0000  0.0000 -0.5000) symmetry
     This is a supercell, fractional translations are disabled
     Message from routine setup:
     using ibrav=0 with symmetry is DISCOURAGED, use correct ibrav instead

     Using Slab Decomposition

     bravais-lattice index     =            0
     lattice parameter (alat)  =      12.3577  a.u.
     unit-cell volume          =    1345.5955 (a.u.)^3
     number of atoms/cell      =           16
     number of atomic types    =            2
     number of electrons       =       144.00
     number of Kohn-Sham states=           72
     kinetic-energy cutoff     =      50.0000  Ry
     charge density cutoff     =     400.0000  Ry
     scf convergence threshold =      1.0E-08
     mixing beta               =       0.3000
     number of iterations used =            8  plain     mixing
     Exchange-correlation= PBE
                           (   1   4   3   4   0   0   0)

     celldm(1)=  12.357708  celldm(2)=   0.000000  celldm(3)=   0.000000
     celldm(4)=   0.000000  celldm(5)=   0.000000  celldm(6)=   0.000000

     crystal axes: (cart. coord. in units of alat)
               a(1) = (   1.000000   0.000000   0.000000 )
               a(2) = (  -0.250000   0.433013   0.000000 )
               a(3) = (   0.000000   0.000000   1.646646 )

     reciprocal axes: (cart. coord. in units 2 pi/alat)
               b(1) = (  1.000000  0.577350 -0.000000 )
               b(2) = (  0.000000  2.309401  0.000000 )
               b(3) = (  0.000000 -0.000000  0.607295 )

     PseudoPot. # 1 for Zn read from file:
     /home/jvc/QEspresso7.2/ZnO_database/pseudos/Zn.upf
     MD5 check sum: 7f56cabf9682ed8c977c2f7d0c5985c5
     Pseudo is Ultrasoft + core correction, Zval = 12.0
     Generated using &quot;atomic&quot; code by A. Dal Corso  v.6.2.2
     Using radial grid of 1201 points,  6 beta functions with:
                l(1) =   0
                l(2) =   0
                l(3) =   1
                l(4) =   1
                l(5) =   2
                l(6) =   2
     Q(r) pseudized with 0 coefficients

     PseudoPot. # 2 for O  read from file:
     /home/jvc/QEspresso7.2/ZnO_database/pseudos/O.upf
     MD5 check sum: 91400c9766925bcf19f520983a725ff0
     Pseudo is Ultrasoft + core correction, Zval =  6.0
     Generated using &quot;atomic&quot; code by A. Dal Corso  v.6.3MaX
     Using radial grid of 1095 points,  4 beta functions with:
                l(1) =   0
                l(2) =   0
                l(3) =   1
                l(4) =   1
     Q(r) pseudized with 0 coefficients

     atomic species   valence    mass     pseudopotential
        Zn            12.00    65.38000     Zn( 1.00)
        O              6.00    15.99900     O ( 1.00)

      2 Sym. Ops. (no inversion) found

                                    s                        frac. trans.

      isym =  1     identity

 cryst.   s( 1) = (     1          0          0      )
                  (     0          1          0      )
                  (     0          0          1      )

 cart.    s( 1) = (  1.0000000 -0.0000000  0.0000000 )
                  (  0.0000000  1.0000000  0.0000000 )
                  (  0.0000000  0.0000000  1.0000000 )

      isym =  2     inv. 180 deg rotation - cryst. axis [0,1,0]

 cryst.   s( 2) = (     1          2          0      )
                  (     0         -1          0      )
                  (     0          0          1      )

 cart.    s( 2) = (  0.5000000  0.8660254  0.0000000 )
                  (  0.8660254 -0.5000000  0.0000000 )
                  (  0.0000000  0.0000000  1.0000000 )

   Cartesian axes

     site n.     atom                  positions (alat units)
         1           Zn  tau(   1) = (   0.2500000   0.1443376   0.4121830  )
         2           Zn  tau(   2) = (  -0.0000000   0.2886751   0.0005216  )
         3           O   tau(   3) = (   0.2500000   0.1443376   0.7242576  )
         4           O   tau(   4) = (  -0.0000000   0.2886751   0.3125962  )
         5           Zn  tau(   5) = (   0.2500000   0.1443376   1.2355058  )
         6           Zn  tau(   6) = (  -0.0000000   0.2886751   0.8238444  )
         7           O   tau(   7) = (   0.2500000   0.1443376   1.5475804  )
         8           O   tau(   8) = (  -0.0000000   0.2886751   1.1359190  )
         9           Zn  tau(   9) = (   0.7500000   0.1443376   0.4121830  )
        10           Zn  tau(  10) = (   0.5000000   0.2886751   0.0005216  )
        11           O   tau(  11) = (   0.7500000   0.1443376   0.7242576  )
        12           O   tau(  12) = (   0.5000000   0.2886751   0.3125962  )
        13           Zn  tau(  13) = (   0.7500000   0.1443376   1.2355058  )
        14           Zn  tau(  14) = (   0.5000000   0.2886751   0.8238444  )
        15           O   tau(  15) = (   0.7500000   0.1443376   1.5475804  )
        16           O   tau(  16) = (   0.5000000   0.2886751   1.1359190  )

   Crystallographic axes

     site n.     atom                  positions (cryst. coord.)
         1           Zn  tau(   1) = (  0.3333333  0.3333333  0.2503168  )
         2           Zn  tau(   2) = (  0.1666667  0.6666667  0.0003168  )
         3           O   tau(   3) = (  0.3333333  0.3333333  0.4398382  )
         4           O   tau(   4) = (  0.1666667  0.6666667  0.1898382  )
         5           Zn  tau(   5) = (  0.3333333  0.3333333  0.7503168  )
         6           Zn  tau(   6) = (  0.1666667  0.6666667  0.5003168  )
         7           O   tau(   7) = (  0.3333333  0.3333333  0.9398382  )
         8           O   tau(   8) = (  0.1666667  0.6666667  0.6898382  )
         9           Zn  tau(   9) = (  0.8333333  0.3333333  0.2503168  )
        10           Zn  tau(  10) = (  0.6666667  0.6666667  0.0003168  )
        11           O   tau(  11) = (  0.8333333  0.3333333  0.4398382  )
        12           O   tau(  12) = (  0.6666667  0.6666667  0.1898382  )
        13           Zn  tau(  13) = (  0.8333333  0.3333333  0.7503168  )
        14           Zn  tau(  14) = (  0.6666667  0.6666667  0.5003168  )
        15           O   tau(  15) = (  0.8333333  0.3333333  0.9398382  )
        16           O   tau(  16) = (  0.6666667  0.6666667  0.6898382  )

     number of k points=    80
                       cart. coord. in units 2pi/alat
        k(    1) = (   0.0000000   0.0000000   0.0000000), wk =   0.0092593
        k(    2) = (   0.0000000   0.0000000   0.1012159), wk =   0.0185185
        k(    3) = (   0.0000000   0.0000000   0.2024317), wk =   0.0185185
        k(    4) = (   0.0000000   0.0000000  -0.3036476), wk =   0.0092593
        k(    5) = (   0.0000000   0.3849002   0.0000000), wk =   0.0370370
        k(    6) = (   0.0000000   0.3849002   0.1012159), wk =   0.0370370
        k(    7) = (   0.0000000   0.3849002   0.2024317), wk =   0.0370370
        k(    8) = (   0.0000000   0.3849002  -0.3036476), wk =   0.0370370
        k(    9) = (   0.0000000   0.7698004   0.0000000), wk =   0.0370370
        k(   10) = (   0.0000000   0.7698004   0.1012159), wk =   0.0370370
        k(   11) = (   0.0000000   0.7698004   0.2024317), wk =   0.0370370
        k(   12) = (   0.0000000   0.7698004  -0.3036476), wk =   0.0370370
        k(   13) = (   0.0000000  -1.1547005   0.0000000), wk =   0.0092593
        k(   14) = (   0.0000000  -1.1547005   0.1012159), wk =   0.0185185
        k(   15) = (   0.0000000  -1.1547005   0.2024317), wk =   0.0185185
        k(   16) = (   0.0000000  -1.1547005  -0.3036476), wk =   0.0092593
        k(   17) = (   0.1666667   0.0962250   0.0000000), wk =   0.0185185
        k(   18) = (   0.1666667   0.0962250   0.1012159), wk =   0.0185185
        k(   19) = (   0.1666667   0.0962250   0.2024317), wk =   0.0185185
        k(   20) = (   0.1666667   0.0962250  -0.3036476), wk =   0.0185185
        k(   21) = (   0.1666667   0.4811252   0.0000000), wk =   0.0370370
        k(   22) = (   0.1666667   0.4811252   0.1012159), wk =   0.0370370
        k(   23) = (   0.1666667   0.4811252   0.2024317), wk =   0.0370370
        k(   24) = (   0.1666667   0.4811252  -0.3036476), wk =   0.0370370
        k(   25) = (   0.1666667   0.8660254   0.0000000), wk =   0.0185185
        k(   26) = (   0.1666667   0.8660254   0.1012159), wk =   0.0370370
        k(   27) = (   0.1666667   0.8660254   0.2024317), wk =   0.0370370
        k(   28) = (   0.1666667   0.8660254  -0.3036476), wk =   0.0185185
        k(   29) = (   0.1666667  -1.0584755   0.0000000), wk =   0.0185185
        k(   30) = (   0.1666667  -1.0584755   0.1012159), wk =   0.0185185
        k(   31) = (   0.1666667  -1.0584755   0.2024317), wk =   0.0185185
        k(   32) = (   0.1666667  -1.0584755  -0.3036476), wk =   0.0185185
        k(   33) = (   0.1666667  -0.6735753   0.0000000), wk =   0.0370370
        k(   34) = (   0.1666667  -0.6735753   0.1012159), wk =   0.0370370
        k(   35) = (   0.1666667  -0.6735753   0.2024317), wk =   0.0370370
        k(   36) = (   0.1666667  -0.6735753  -0.3036476), wk =   0.0370370
        k(   37) = (   0.1666667  -0.2886751   0.0000000), wk =   0.0185185
        k(   38) = (   0.1666667  -0.2886751   0.1012159), wk =   0.0370370
        k(   39) = (   0.1666667  -0.2886751   0.2024317), wk =   0.0370370
        k(   40) = (   0.1666667  -0.2886751  -0.3036476), wk =   0.0185185
        k(   41) = (   0.3333333   0.1924501   0.0000000), wk =   0.0185185
        k(   42) = (   0.3333333   0.1924501   0.1012159), wk =   0.0185185
        k(   43) = (   0.3333333   0.1924501   0.2024317), wk =   0.0185185
        k(   44) = (   0.3333333   0.1924501  -0.3036476), wk =   0.0185185
        k(   45) = (   0.3333333   0.5773503   0.0000000), wk =   0.0185185
        k(   46) = (   0.3333333   0.5773503   0.1012159), wk =   0.0370370
        k(   47) = (   0.3333333   0.5773503   0.2024317), wk =   0.0370370
        k(   48) = (   0.3333333   0.5773503  -0.3036476), wk =   0.0185185
        k(   49) = (   0.3333333  -0.9622504   0.0000000), wk =   0.0185185
        k(   50) = (   0.3333333  -0.9622504   0.1012159), wk =   0.0185185
        k(   51) = (   0.3333333  -0.9622504   0.2024317), wk =   0.0185185
        k(   52) = (   0.3333333  -0.9622504  -0.3036476), wk =   0.0185185
        k(   53) = (   0.3333333  -0.5773503   0.0000000), wk =   0.0185185
        k(   54) = (   0.3333333  -0.5773503   0.1012159), wk =   0.0370370
        k(   55) = (   0.3333333  -0.5773503   0.2024317), wk =   0.0370370
[...]
        k(   79) = (  -0.6666667   0.5000000  -0.1666667), wk =   0.0185185
        k(   80) = (  -0.6666667   0.5000000  -0.3333333), wk =   0.0185185

     Check: negative core charge=   -0.000002

     Initial potential from superposition of free atoms

     starting charge     143.9702, renormalised to     144.0000
     Starting wfcs are  104 randomized atomic wfcs

     Self-consistent Calculation

     iteration #  1     ecut=    50.00 Ry     beta= 0.30
     Davidson diagonalization with overlap

     ethr =  1.00E-02,  avg # of iterations =  1.9

     total energy              =   -1445.90629767 Ry
     estimated scf accuracy    <       2.79067300 Ry

[...]

     c_bands:  2 eigenvalues not converged
     c_bands:  1 eigenvalues not converged
     ethr =  1.63E-04,  avg # of iterations = 12.0

[...]

     c_bands:  1 eigenvalues not converged
     ethr =  7.55E-05,  avg # of iterations =  6.4

[...]

     total energy              =   -1446.54560116 Ry
     estimated scf accuracy    <       0.00000001 Ry

     iteration # 38     ecut=    50.00 Ry     beta= 0.30
     Davidson diagonalization with overlap

     ethr =  7.02E-12,  avg # of iterations =  5.8

     End of self-consistent calculation

          k = 0.0000 0.0000 0.0000 (  7937 PWs)   bands (ev):

   -11.1370 -10.8340 -10.8340 -10.5144 -10.5058 -10.4048 -10.4048 -10.3158
     0.7967   0.7967   0.9261   0.9617   0.9617   1.1022   1.1024   1.1252
     1.1503   1.1681   1.1681   1.1683   1.1683   1.2542   1.2713   1.2714
     1.3501   1.5570   1.5570   1.6713   1.6713   1.7226   1.7854   1.8229
     2.1760   2.1760   2.2118   2.2800   2.2800   2.2800   2.2800   2.3298
     2.3493   2.3493   2.3517   2.3517   2.3972   2.4271   2.4271   2.4699
     2.6382   2.9127   2.9154   2.9154   3.1677   3.9224   4.3422   4.3422
     4.5564   5.2147   5.2147   5.2513   5.2513   5.3723   5.8106   5.9227
     5.9231   6.2736   6.2736   6.2740   6.2740   6.4936   6.6178   6.6183

     occupation numbers
     1.0000   1.0000   1.0000   1.0000   1.0000   1.0000   1.0000   1.0000
     1.0000   1.0000   1.0000   1.0000   1.0000   1.0000   1.0000   1.0000
     1.0000   1.0000   1.0000   1.0000   1.0000   1.0000   1.0000   1.0000
     1.0000   1.0000   1.0000   1.0000   1.0000   1.0000   1.0000   1.0000
     1.0000   1.0000   1.0000   1.0000   1.0000   1.0000   1.0000   1.0000
     1.0000   1.0000   1.0000   1.0000   1.0000   1.0000   1.0000   1.0000
     1.0000   1.0000   1.0000   1.0000   1.0000   1.0000   1.0000   1.0000
     1.0000   1.0000   1.0000   1.0000   1.0000   1.0000   1.0000   1.0000
     1.0000   1.0000   1.0000   1.0000   1.0000   1.0000   1.0000   1.0000

[...]

          k =-0.5000-0.2887 0.0000 (  7992 PWs)   bands (ev):

[...]

          k = 0.3333 0.1925-0.2024 (  8011 PWs)   bands (ev):

[...]

          k =-0.6667 0.7698-0.2024 (  8066 PWs)   bands (ev):

   -10.4981 -10.4981 -10.4585 -10.4585 -10.3580 -10.3579 -10.3242 -10.3242
     0.9384   0.9384   0.9942   0.9942   1.0330   1.0330   1.1896   1.1896
     1.3603   1.3603   1.3804   1.3804   1.5392   1.5392   1.5832   1.5832
     1.6732   1.6732   1.6885   1.6885   1.7635   1.7635   1.7844   1.7844
     2.1590   2.1590   2.2343   2.2343   2.2778   2.2778   2.3051   2.3051
     2.4112   2.4112   2.4213   2.4213   2.5365   2.5365   2.5972   2.5972
     2.8725   2.8725   3.0020   3.0020   3.3247   3.3247   3.4294   3.4294
     4.0119   4.0119   4.3249   4.3249   4.3833   4.3833   4.8084   4.8084
     5.1238   5.1238   5.3237   5.3237   5.5265   5.5266   5.5493   5.5493

     occupation numbers
     1.0000   1.0000   1.0000   1.0000   1.0000   1.0000   1.0000   1.0000
     1.0000   1.0000   1.0000   1.0000   1.0000   1.0000   1.0000   1.0000
     1.0000   1.0000   1.0000   1.0000   1.0000   1.0000   1.0000   1.0000
     1.0000   1.0000   1.0000   1.0000   1.0000   1.0000   1.0000   1.0000
     1.0000   1.0000   1.0000   1.0000   1.0000   1.0000   1.0000   1.0000
     1.0000   1.0000   1.0000   1.0000   1.0000   1.0000   1.0000   1.0000
     1.0000   1.0000   1.0000   1.0000   1.0000   1.0000   1.0000   1.0000
     1.0000   1.0000   1.0000   1.0000   1.0000   1.0000   1.0000   1.0000
     1.0000   1.0000   1.0000   1.0000   1.0000   1.0000   1.0000   1.0000

     highest occupied level (ev):     6.6183

!    total energy              =   -1446.54560116 Ry
     estimated scf accuracy    <          1.9E-09 Ry

     The total energy is the sum of the following terms:
     one-electron contribution =    -627.08115638 Ry
     hartree contribution      =     476.31994315 Ry
     xc contribution           =    -438.02190781 Ry
     ewald contribution        =    -857.76248012 Ry

     convergence has been achieved in  38 iterations

     Forces acting on atoms (cartesian axes, Ry/au):

     atom    1 type  1   force =     0.00000421    0.00000243    0.00484822
     atom    2 type  1   force =    -0.00000667   -0.00000385    0.00483955
     atom    3 type  2   force =    -0.00000245   -0.00000142   -0.00484223
     atom    4 type  2   force =     0.00000264    0.00000152   -0.00484414
     atom    5 type  1   force =     0.00000431    0.00000249    0.00483771
     atom    6 type  1   force =    -0.00000497   -0.00000287    0.00484810
     atom    7 type  2   force =    -0.00000217   -0.00000125   -0.00484448
     atom    8 type  2   force =     0.00000264    0.00000153   -0.00484261
     atom    9 type  1   force =     0.00000550    0.00000318    0.00484757
     atom   10 type  1   force =    -0.00000347   -0.00000201    0.00483892
     atom   11 type  2   force =    -0.00000220   -0.00000127   -0.00484236
     atom   12 type  2   force =     0.00000229    0.00000132   -0.00484394
     atom   13 type  1   force =     0.00000556    0.00000321    0.00483903
     atom   14 type  1   force =    -0.00000494   -0.00000285    0.00484788
     atom   15 type  2   force =    -0.00000262   -0.00000151   -0.00484473
     atom   16 type  2   force =     0.00000234    0.00000135   -0.00484250
     The non-local contrib.  to forces
     atom    1 type  1   force =    -0.00001868   -0.00001079    0.05067888
     atom    2 type  1   force =     0.00001687    0.00000974    0.05067668
     atom    3 type  2   force =    -0.00018114   -0.00010458    0.05425391
     atom    4 type  2   force =     0.00018181    0.00010497    0.05425424
     atom    5 type  1   force =    -0.00001871   -0.00001080    0.05067232
     atom    6 type  1   force =     0.00001803    0.00001041    0.05067551
     atom    7 type  2   force =    -0.00018059   -0.00010426    0.05425705
     atom    8 type  2   force =     0.00018188    0.00010501    0.05425664
     atom    9 type  1   force =    -0.00001776   -0.00001025    0.05067841
     atom   10 type  1   force =     0.00001924    0.00001111    0.05067650
     atom   11 type  2   force =    -0.00018107   -0.00010454    0.05425382
     atom   12 type  2   force =     0.00018050    0.00010421    0.05425459
     atom   13 type  1   force =    -0.00001775   -0.00001025    0.05067289
     atom   14 type  1   force =     0.00001831    0.00001057    0.05067540
     atom   15 type  2   force =    -0.00018182   -0.00010498    0.05425724
     atom   16 type  2   force =     0.00018065    0.00010430    0.05425636
     The ionic contribution  to forces
     atom    1 type  1   force =     0.00000000    0.00000001    0.46504031
     atom    2 type  1   force =     0.00000001    0.00000000    0.46504031
     atom    3 type  2   force =     0.00000000    0.00000001   -0.46504031
     atom    4 type  2   force =     0.00000001   -0.00000000   -0.46504031
     atom    5 type  1   force =     0.00000000    0.00000001    0.46504031
     atom    6 type  1   force =     0.00000001    0.00000000    0.46504031
     atom    7 type  2   force =     0.00000000    0.00000001   -0.46504031
     atom    8 type  2   force =     0.00000001   -0.00000000   -0.46504031
     atom    9 type  1   force =    -0.00000000   -0.00000000    0.46504031
     atom   10 type  1   force =    -0.00000001   -0.00000001    0.46504031
     atom   11 type  2   force =    -0.00000000   -0.00000000   -0.46504031
     atom   12 type  2   force =    -0.00000001   -0.00000000   -0.46504031
     atom   13 type  1   force =    -0.00000000   -0.00000000    0.46504031
     atom   14 type  1   force =    -0.00000001   -0.00000001    0.46504031
     atom   15 type  2   force =    -0.00000000   -0.00000000   -0.46504031
     atom   16 type  2   force =    -0.00000001   -0.00000000   -0.46504031
     The local contribution  to forces
     atom    1 type  1   force =     0.00003042    0.00001756   -0.50735665
     atom    2 type  1   force =    -0.00002518   -0.00001464   -0.50734782
     atom    3 type  2   force =     0.00017673    0.00010204    0.40639134
     atom    4 type  2   force =    -0.00017665   -0.00010201    0.40639329
     atom    5 type  1   force =     0.00003025    0.00001747   -0.50734823
     atom    6 type  1   force =    -0.00002863   -0.00001663   -0.50736095
     atom    7 type  2   force =     0.00017699    0.00010218    0.40639713
     atom    8 type  2   force =    -0.00017637   -0.00010185    0.40639637
     atom    9 type  1   force =     0.00002762    0.00001595   -0.50735567
     atom   10 type  1   force =    -0.00003231   -0.00001865   -0.50734649
     atom   11 type  2   force =     0.00017686    0.00010211    0.40639140
     atom   12 type  2   force =    -0.00017696   -0.00010217    0.40639298
     atom   13 type  1   force =     0.00002769    0.00001599   -0.50735085
     atom   14 type  1   force =    -0.00002908   -0.00001679   -0.50736060
     atom   15 type  2   force =     0.00017672    0.00010203    0.40639728
     atom   16 type  2   force =    -0.00017726   -0.00010234    0.40639668
     The core correction contribution to forces
     atom    1 type  1   force =    -0.00000552   -0.00000319   -0.00351955
     atom    2 type  1   force =     0.00000544    0.00000313   -0.00352278
     atom    3 type  2   force =     0.00000206    0.00000119   -0.00045338
     atom    4 type  2   force =    -0.00000207   -0.00000119   -0.00045245
     atom    5 type  1   force =    -0.00000550   -0.00000318   -0.00352143
     atom    6 type  1   force =     0.00000550    0.00000316   -0.00351809
     atom    7 type  2   force =     0.00000205    0.00000119   -0.00045348
     atom    8 type  2   force =    -0.00000207   -0.00000119   -0.00045441
     atom    9 type  1   force =    -0.00000547   -0.00000316   -0.00351953
     atom   10 type  1   force =     0.00000557    0.00000321   -0.00352285
     atom   11 type  2   force =     0.00000206    0.00000119   -0.00045338
     atom   12 type  2   force =    -0.00000205   -0.00000118   -0.00045245
     atom   13 type  1   force =    -0.00000548   -0.00000317   -0.00352135
     atom   14 type  1   force =     0.00000549    0.00000317   -0.00351809
     atom   15 type  2   force =     0.00000207    0.00000119   -0.00045348
     atom   16 type  2   force =    -0.00000205   -0.00000119   -0.00045441
     The Hubbard contrib.    to forces
     atom    1 type  1   force =     0.00000000    0.00000000    0.00000000
     atom    2 type  1   force =     0.00000000    0.00000000    0.00000000
     atom    3 type  2   force =     0.00000000    0.00000000    0.00000000
     atom    4 type  2   force =     0.00000000    0.00000000    0.00000000
     atom    5 type  1   force =     0.00000000    0.00000000    0.00000000
     atom    6 type  1   force =     0.00000000    0.00000000    0.00000000
     atom    7 type  2   force =     0.00000000    0.00000000    0.00000000
     atom    8 type  2   force =     0.00000000    0.00000000    0.00000000
     atom    9 type  1   force =     0.00000000    0.00000000    0.00000000
     atom   10 type  1   force =     0.00000000    0.00000000    0.00000000
     atom   11 type  2   force =     0.00000000    0.00000000    0.00000000
     atom   12 type  2   force =     0.00000000    0.00000000    0.00000000
     atom   13 type  1   force =     0.00000000    0.00000000    0.00000000
     atom   14 type  1   force =     0.00000000    0.00000000    0.00000000
     atom   15 type  2   force =     0.00000000    0.00000000    0.00000000
     atom   16 type  2   force =     0.00000000    0.00000000    0.00000000
     The SCF correction term to forces
     atom    1 type  1   force =    -0.00000208   -0.00000120    0.00000554
     atom    2 type  1   force =    -0.00000382   -0.00000221   -0.00000655
     atom    3 type  2   force =    -0.00000016   -0.00000009    0.00000651
     atom    4 type  2   force =    -0.00000051   -0.00000029    0.00000138
     atom    5 type  1   force =    -0.00000180   -0.00000104   -0.00000495
     atom    6 type  1   force =     0.00000011    0.00000006    0.00001162
     atom    7 type  2   force =    -0.00000069   -0.00000040   -0.00000458
     atom    8 type  2   force =    -0.00000085   -0.00000049   -0.00000060
     atom    9 type  1   force =     0.00000106    0.00000061    0.00000435
     atom   10 type  1   force =     0.00000398    0.00000230   -0.00000824
     atom   11 type  2   force =    -0.00000010   -0.00000006    0.00000642
     atom   12 type  2   force =     0.00000076    0.00000044    0.00000155
     atom   13 type  1   force =     0.00000104    0.00000060   -0.00000167
     atom   14 type  1   force =     0.00000030    0.00000017    0.00001117
     atom   15 type  2   force =     0.00000036    0.00000021   -0.00000516
     atom   16 type  2   force =     0.00000096    0.00000055   -0.00000053

     Total force =     0.019374     Total SCF correction =     0.000025

     General routines

     Parallel routines

   This run was terminated on:   5: 0: 8  29Aug2025

   JOB DONE.
Note: The following floating-point exceptions are signalling: IEEE_UNDERFLOW_FLAG IEEE_DENORMAL
Note: The following floating-point exceptions are signalling: IEEE_UNDERFLOW_FLAG IEEE_DENORMAL
Note: The following floating-point exceptions are signalling: IEEE_UNDERFLOW_FLAG IEEE_DENORMAL
Note: The following floating-point exceptions are signalling: IEEE_UNDERFLOW_FLAG IEEE_DENORMAL
Note: The following floating-point exceptions are signalling: IEEE_UNDERFLOW_FLAG IEEE_DENORMAL
Note: The following floating-point exceptions are signalling: IEEE_UNDERFLOW_FLAG IEEE_DENORMAL
Note: The following floating-point exceptions are signalling: IEEE_UNDERFLOW_FLAG IEEE_DENORMAL
Note: The following floating-point exceptions are signalling: IEEE_UNDERFLOW_FLAG IEEE_DENORMAL
Note: The following floating-point exceptions are signalling: IEEE_UNDERFLOW_FLAG IEEE_DENORMAL
Note: The following floating-point exceptions are signalling: IEEE_UNDERFLOW_FLAG IEEE_DENORMAL
Note: The following floating-point exceptions are signalling: IEEE_UNDERFLOW_FLAG IEEE_DENORMAL
Note: The following floating-point exceptions are signalling: IEEE_UNDERFLOW_FLAG IEEE_DENORMAL
Note: The following floating-point exceptions are signalling: IEEE_UNDERFLOW_FLAG IEEE_DENORMAL
Note: The following floating-point exceptions are signalling: IEEE_UNDERFLOW_FLAG IEEE_DENORMAL
Note: The following floating-point exceptions are signalling: IEEE_UNDERFLOW_FLAG IEEE_DENORMAL
Note: The following floating-point exceptions are signalling: IEEE_UNDERFLOW_FLAG IEEE_DENORMAL
Note: The following floating-point exceptions are signalling: IEEE_UNDERFLOW_FLAG IEEE_DENORMAL
Note: The following floating-point exceptions are signalling: IEEE_UNDERFLOW_FLAG IEEE_DENORMAL
Note: The following floating-point exceptions are signalling: IEEE_UNDERFLOW_FLAG IEEE_DENORMAL
Note: The following floating-point exceptions are signalling: IEEE_UNDERFLOW_FLAG IEEE_DENORMAL
Note: The following floating-point exceptions are signalling: IEEE_UNDERFLOW_FLAG IEEE_DENORMAL
Note: The following floating-point exceptions are signalling: IEEE_UNDERFLOW_FLAG IEEE_DENORMAL
Note: The following floating-point exceptions are signalling: IEEE_UNDERFLOW_FLAG IEEE_DENORMAL
Note: The following floating-point exceptions are signalling: IEEE_UNDERFLOW_FLAG IEEE_DENORMAL
Note: The following floating-point exceptions are signalling: IEEE_UNDERFLOW_FLAG IEEE_DENORMAL
Note: The following floating-point exceptions are signalling: IEEE_UNDERFLOW_FLAG IEEE_DENORMAL
Note: The following floating-point exceptions are signalling: IEEE_UNDERFLOW_FLAG IEEE_DENORMAL
Note: The following floating-point exceptions are signalling: IEEE_UNDERFLOW_FLAG IEEE_DENORMAL
Note: The following floating-point exceptions are signalling: IEEE_UNDERFLOW_FLAG IEEE_DENORMAL
Note: The following floating-point exceptions are signalling: IEEE_UNDERFLOW_FLAG IEEE_DENORMAL
Note: The following floating-point exceptions are signalling: IEEE_UNDERFLOW_FLAG IEEE_DENORMAL
Note: The following floating-point exceptions are signalling: IEEE_UNDERFLOW_FLAG IEEE_DENORMAL