     Program PWSCF v.7.0 starts on 29Aug2025 at  0:31: 6

     K-points division:     npool     =       8
     R & G space division:  proc/nbgrp/npool/nimage =       4

     Reading input from /home/jvc/QEspresso7.2/ZnO_database/scripts/cell212.in/ZnO-3.14-1.71-212.in
Warning: card &CELL ignored
Warning: card / ignored
Warning: card &FCP ignored
Warning: card / ignored
Warning: card &RISM ignored
Warning: card / ignored

     Current dimensions of program PWSCF are:
     Max number of different atomic species (ntypx) = 10
     Max number of k-points (npk) =  40000
     Max angular momentum in pseudopotentials (lmaxx) =  4
     file Zn.upf: wavefunction(s)  3D renormalized
     Found identity + (  0.0000  0.0000  0.5000) symmetry
     This is a supercell, fractional translations are disabled
     Message from routine setup:
     using ibrav=0 with symmetry is DISCOURAGED, use correct ibrav instead

     Using Slab Decomposition

     bravais-lattice index     =            0
     lattice parameter (alat)  =      11.8634  a.u.
     unit-cell volume          =    1237.1830 (a.u.)^3
     number of atoms/cell      =           16
     number of atomic types    =            2
     number of electrons       =       144.00
     number of Kohn-Sham states=           72
     kinetic-energy cutoff     =      50.0000  Ry
     charge density cutoff     =     400.0000  Ry
     scf convergence threshold =      1.0E-08
     mixing beta               =       0.3000
     number of iterations used =            8  plain     mixing
     Exchange-correlation= PBE
                           (   1   4   3   4   0   0   0)

     celldm(1)=  11.863400  celldm(2)=   0.000000  celldm(3)=   0.000000
     celldm(4)=   0.000000  celldm(5)=   0.000000  celldm(6)=   0.000000

     crystal axes: (cart. coord. in units of alat)
               a(1) = (   1.000000   0.000000   0.000000 )
               a(2) = (  -0.250000   0.433013   0.000000 )
               a(3) = (   0.000000   0.000000   1.711220 )

     reciprocal axes: (cart. coord. in units 2 pi/alat)
               b(1) = (  1.000000  0.577350 -0.000000 )
               b(2) = (  0.000000  2.309401  0.000000 )
               b(3) = (  0.000000 -0.000000  0.584378 )

     PseudoPot. # 1 for Zn read from file:
     /home/jvc/QEspresso7.2/ZnO_database/pseudos/Zn.upf
     MD5 check sum: 7f56cabf9682ed8c977c2f7d0c5985c5
     Pseudo is Ultrasoft + core correction, Zval = 12.0
     Generated using &quot;atomic&quot; code by A. Dal Corso  v.6.2.2
     Using radial grid of 1201 points,  6 beta functions with:
                l(1) =   0
                l(2) =   0
                l(3) =   1
                l(4) =   1
                l(5) =   2
                l(6) =   2
     Q(r) pseudized with 0 coefficients

     PseudoPot. # 2 for O  read from file:
     /home/jvc/QEspresso7.2/ZnO_database/pseudos/O.upf
     MD5 check sum: 91400c9766925bcf19f520983a725ff0
     Pseudo is Ultrasoft + core correction, Zval =  6.0
     Generated using &quot;atomic&quot; code by A. Dal Corso  v.6.3MaX
     Using radial grid of 1095 points,  4 beta functions with:
                l(1) =   0
                l(2) =   0
                l(3) =   1
                l(4) =   1
     Q(r) pseudized with 0 coefficients

     atomic species   valence    mass     pseudopotential
        Zn            12.00    65.38000     Zn( 1.00)
        O              6.00    15.99900     O ( 1.00)

      2 Sym. Ops. (no inversion) found

                                    s                        frac. trans.

      isym =  1     identity

 cryst.   s( 1) = (     1          0          0      )
                  (     0          1          0      )
                  (     0          0          1      )

 cart.    s( 1) = (  1.0000000  0.0000000  0.0000000 )
                  (  0.0000000  1.0000000  0.0000000 )
                  (  0.0000000  0.0000000  1.0000000 )

      isym =  2     inv. 180 deg rotation - cryst. axis [0,1,0]

 cryst.   s( 2) = (     1          2          0      )
                  (     0         -1          0      )
                  (     0          0          1      )

 cart.    s( 2) = (  0.5000000  0.8660254  0.0000000 )
                  (  0.8660254 -0.5000000  0.0000000 )
                  (  0.0000000  0.0000000  1.0000000 )

   Cartesian axes

     site n.     atom                  positions (alat units)
         1           Zn  tau(   1) = (   0.2500000   0.1443376   0.4283471  )
         2           Zn  tau(   2) = (  -0.0000000   0.2886751   0.0005421  )
         3           O   tau(   3) = (   0.2500000   0.1443376   0.7526599  )
         4           O   tau(   4) = (  -0.0000000   0.2886751   0.3248549  )
         5           Zn  tau(   5) = (   0.2500000   0.1443376   1.2839570  )
         6           Zn  tau(   6) = (  -0.0000000   0.2886751   0.8561520  )
         7           O   tau(   7) = (   0.2500000   0.1443376   1.6082698  )
         8           O   tau(   8) = (  -0.0000000   0.2886751   1.1804648  )
         9           Zn  tau(   9) = (   0.7500000   0.1443376   0.4283471  )
        10           Zn  tau(  10) = (   0.5000000   0.2886751   0.0005421  )
        11           O   tau(  11) = (   0.7500000   0.1443376   0.7526599  )
        12           O   tau(  12) = (   0.5000000   0.2886751   0.3248549  )
        13           Zn  tau(  13) = (   0.7500000   0.1443376   1.2839570  )
        14           Zn  tau(  14) = (   0.5000000   0.2886751   0.8561520  )
        15           O   tau(  15) = (   0.7500000   0.1443376   1.6082698  )
        16           O   tau(  16) = (   0.5000000   0.2886751   1.1804648  )

   Crystallographic axes

     site n.     atom                  positions (cryst. coord.)
         1           Zn  tau(   1) = (  0.3333333  0.3333333  0.2503168  )
         2           Zn  tau(   2) = (  0.1666667  0.6666667  0.0003168  )
         3           O   tau(   3) = (  0.3333333  0.3333333  0.4398382  )
         4           O   tau(   4) = (  0.1666667  0.6666667  0.1898382  )
         5           Zn  tau(   5) = (  0.3333333  0.3333333  0.7503168  )
         6           Zn  tau(   6) = (  0.1666667  0.6666667  0.5003168  )
         7           O   tau(   7) = (  0.3333333  0.3333333  0.9398382  )
         8           O   tau(   8) = (  0.1666667  0.6666667  0.6898382  )
         9           Zn  tau(   9) = (  0.8333333  0.3333333  0.2503168  )
        10           Zn  tau(  10) = (  0.6666667  0.6666667  0.0003168  )
        11           O   tau(  11) = (  0.8333333  0.3333333  0.4398382  )
        12           O   tau(  12) = (  0.6666667  0.6666667  0.1898382  )
        13           Zn  tau(  13) = (  0.8333333  0.3333333  0.7503168  )
        14           Zn  tau(  14) = (  0.6666667  0.6666667  0.5003168  )
        15           O   tau(  15) = (  0.8333333  0.3333333  0.9398382  )
        16           O   tau(  16) = (  0.6666667  0.6666667  0.6898382  )

     number of k points=    80
                       cart. coord. in units 2pi/alat
        k(    1) = (   0.0000000   0.0000000   0.0000000), wk =   0.0092593
        k(    2) = (   0.0000000   0.0000000   0.0973964), wk =   0.0185185
        k(    3) = (   0.0000000   0.0000000   0.1947928), wk =   0.0185185
        k(    4) = (   0.0000000   0.0000000  -0.2921892), wk =   0.0092593
        k(    5) = (   0.0000000   0.3849002   0.0000000), wk =   0.0370370
        k(    6) = (   0.0000000   0.3849002   0.0973964), wk =   0.0370370
        k(    7) = (   0.0000000   0.3849002   0.1947928), wk =   0.0370370
        k(    8) = (   0.0000000   0.3849002  -0.2921892), wk =   0.0370370
        k(    9) = (   0.0000000   0.7698004   0.0000000), wk =   0.0370370
        k(   10) = (   0.0000000   0.7698004   0.0973964), wk =   0.0370370
        k(   11) = (   0.0000000   0.7698004   0.1947928), wk =   0.0370370
        k(   12) = (   0.0000000   0.7698004  -0.2921892), wk =   0.0370370
        k(   13) = (   0.0000000  -1.1547005   0.0000000), wk =   0.0092593
        k(   14) = (   0.0000000  -1.1547005   0.0973964), wk =   0.0185185
        k(   15) = (   0.0000000  -1.1547005   0.1947928), wk =   0.0185185
        k(   16) = (   0.0000000  -1.1547005  -0.2921892), wk =   0.0092593
        k(   17) = (   0.1666667   0.0962250   0.0000000), wk =   0.0185185
        k(   18) = (   0.1666667   0.0962250   0.0973964), wk =   0.0185185
        k(   19) = (   0.1666667   0.0962250   0.1947928), wk =   0.0185185
        k(   20) = (   0.1666667   0.0962250  -0.2921892), wk =   0.0185185
        k(   21) = (   0.1666667   0.4811252   0.0000000), wk =   0.0370370
        k(   22) = (   0.1666667   0.4811252   0.0973964), wk =   0.0370370
        k(   23) = (   0.1666667   0.4811252   0.1947928), wk =   0.0370370
        k(   24) = (   0.1666667   0.4811252  -0.2921892), wk =   0.0370370
        k(   25) = (   0.1666667   0.8660254   0.0000000), wk =   0.0185185
        k(   26) = (   0.1666667   0.8660254   0.0973964), wk =   0.0370370
        k(   27) = (   0.1666667   0.8660254   0.1947928), wk =   0.0370370
        k(   28) = (   0.1666667   0.8660254  -0.2921892), wk =   0.0185185
        k(   29) = (   0.1666667  -1.0584755   0.0000000), wk =   0.0185185
        k(   30) = (   0.1666667  -1.0584755   0.0973964), wk =   0.0185185
        k(   31) = (   0.1666667  -1.0584755   0.1947928), wk =   0.0185185
        k(   32) = (   0.1666667  -1.0584755  -0.2921892), wk =   0.0185185
        k(   33) = (   0.1666667  -0.6735753   0.0000000), wk =   0.0370370
        k(   34) = (   0.1666667  -0.6735753   0.0973964), wk =   0.0370370
        k(   35) = (   0.1666667  -0.6735753   0.1947928), wk =   0.0370370
        k(   36) = (   0.1666667  -0.6735753  -0.2921892), wk =   0.0370370
        k(   37) = (   0.1666667  -0.2886751   0.0000000), wk =   0.0185185
        k(   38) = (   0.1666667  -0.2886751   0.0973964), wk =   0.0370370
        k(   39) = (   0.1666667  -0.2886751   0.1947928), wk =   0.0370370
        k(   40) = (   0.1666667  -0.2886751  -0.2921892), wk =   0.0185185
        k(   41) = (   0.3333333   0.1924501   0.0000000), wk =   0.0185185
        k(   42) = (   0.3333333   0.1924501   0.0973964), wk =   0.0185185
        k(   43) = (   0.3333333   0.1924501   0.1947928), wk =   0.0185185
        k(   44) = (   0.3333333   0.1924501  -0.2921892), wk =   0.0185185
        k(   45) = (   0.3333333   0.5773503   0.0000000), wk =   0.0185185
        k(   46) = (   0.3333333   0.5773503   0.0973964), wk =   0.0370370
        k(   47) = (   0.3333333   0.5773503   0.1947928), wk =   0.0370370
        k(   48) = (   0.3333333   0.5773503  -0.2921892), wk =   0.0185185
        k(   49) = (   0.3333333  -0.9622504   0.0000000), wk =   0.0185185
        k(   50) = (   0.3333333  -0.9622504   0.0973964), wk =   0.0185185
        k(   51) = (   0.3333333  -0.9622504   0.1947928), wk =   0.0185185
        k(   52) = (   0.3333333  -0.9622504  -0.2921892), wk =   0.0185185
        k(   53) = (   0.3333333  -0.5773503   0.0000000), wk =   0.0185185
        k(   54) = (   0.3333333  -0.5773503   0.0973964), wk =   0.0370370
        k(   55) = (   0.3333333  -0.5773503   0.1947928), wk =   0.0370370
[...]
        k(   76) = (  -0.5000000   0.3333333  -0.3333333), wk =   0.0370370
        k(   77) = (   0.3333333   0.0000000  -0.1666667), wk =   0.0185185
        k(   78) = (   0.3333333   0.0000000  -0.3333333), wk =   0.0185185
        k(   79) = (  -0.6666667   0.5000000  -0.1666667), wk =   0.0185185
        k(   80) = (  -0.6666667   0.5000000  -0.3333333), wk =   0.0185185

     Check: negative core charge=   -0.000002

     Initial potential from superposition of free atoms

     starting charge     143.9702, renormalised to     144.0000
     Starting wfcs are  104 randomized atomic wfcs

     Self-consistent Calculation

     iteration #  1     ecut=    50.00 Ry     beta= 0.30
     Davidson diagonalization with overlap

     ethr =  1.00E-02,  avg # of iterations =  2.0

     total energy              =   -1445.88737541 Ry
     estimated scf accuracy    <       2.71873245 Ry

[...]

     total energy              =   -1446.48987951 Ry
     estimated scf accuracy    <       0.00000001 Ry

     iteration # 34     ecut=    50.00 Ry     beta= 0.30
     Davidson diagonalization with overlap

     ethr =  8.34E-12,  avg # of iterations =  6.1

     End of self-consistent calculation

          k = 0.0000 0.0000 0.0000 (  7435 PWs)   bands (ev):

   -10.5625 -10.2336 -10.2336  -9.8818  -9.7860  -9.6777  -9.6777  -9.5809
     1.4877   1.4877   1.6473   1.7280   1.7280   1.7521   1.7805   1.9256
     1.9259   1.9964   1.9967   1.9967   1.9969   1.9969   2.0987   2.0989
     2.2368   2.4565   2.4565   2.6069   2.6069   2.6770   2.7073   2.7357
     3.2947   3.2947   3.3115   3.4010   3.4010   3.4011   3.4011   3.4791
     3.4822   3.4822   3.5002   3.5002   3.5453   3.5693   3.5693   3.6368
     3.8310   3.9683   3.9683   4.0123   4.0947   4.9669   5.4413   5.4413
     5.6985   6.2533   6.2533   6.3596   6.3596   6.4615   6.9611   7.2355
     7.2359   7.5849   7.5849   7.5852   7.5852   7.6561   7.9317   7.9321

     occupation numbers
     1.0000   1.0000   1.0000   1.0000   1.0000   1.0000   1.0000   1.0000
     1.0000   1.0000   1.0000   1.0000   1.0000   1.0000   1.0000   1.0000
     1.0000   1.0000   1.0000   1.0000   1.0000   1.0000   1.0000   1.0000
     1.0000   1.0000   1.0000   1.0000   1.0000   1.0000   1.0000   1.0000
     1.0000   1.0000   1.0000   1.0000   1.0000   1.0000   1.0000   1.0000
     1.0000   1.0000   1.0000   1.0000   1.0000   1.0000   1.0000   1.0000
     1.0000   1.0000   1.0000   1.0000   1.0000   1.0000   1.0000   1.0000
     1.0000   1.0000   1.0000   1.0000   1.0000   1.0000   1.0000   1.0000
     1.0000   1.0000   1.0000   1.0000   1.0000   1.0000   1.0000   1.0000

[...]

          k =-0.5000-0.2887 0.0000 (  7392 PWs)   bands (ev):

[...]

          k = 0.3333 0.1925-0.1948 (  7385 PWs)   bands (ev):

[...]

          k =-0.6667 0.7698-0.1948 (  7406 PWs)   bands (ev):

    -9.7794  -9.7794  -9.7368  -9.7368  -9.6275  -9.6275  -9.5904  -9.5904
     1.6677   1.6677   1.7265   1.7265   1.7569   1.7569   1.9082   1.9082
     2.2238   2.2239   2.2470   2.2470   2.4117   2.4117   2.4833   2.4833
     2.6054   2.6054   2.6260   2.6260   2.6868   2.6868   2.6971   2.6971
     3.2416   3.2416   3.3357   3.3357   3.4020   3.4020   3.4398   3.4398
     3.5644   3.5644   3.5719   3.5719   3.7025   3.7025   3.7907   3.7907
     3.9100   3.9100   4.0777   4.0777   4.4285   4.4285   4.5180   4.5180
     5.0463   5.0463   5.3851   5.3851   5.4188   5.4188   5.7834   5.7834
     6.2270   6.2270   6.4010   6.4010   6.5997   6.5997   6.6422   6.6422

     occupation numbers
     1.0000   1.0000   1.0000   1.0000   1.0000   1.0000   1.0000   1.0000
     1.0000   1.0000   1.0000   1.0000   1.0000   1.0000   1.0000   1.0000
     1.0000   1.0000   1.0000   1.0000   1.0000   1.0000   1.0000   1.0000
     1.0000   1.0000   1.0000   1.0000   1.0000   1.0000   1.0000   1.0000
     1.0000   1.0000   1.0000   1.0000   1.0000   1.0000   1.0000   1.0000
     1.0000   1.0000   1.0000   1.0000   1.0000   1.0000   1.0000   1.0000
     1.0000   1.0000   1.0000   1.0000   1.0000   1.0000   1.0000   1.0000
     1.0000   1.0000   1.0000   1.0000   1.0000   1.0000   1.0000   1.0000
     1.0000   1.0000   1.0000   1.0000   1.0000   1.0000   1.0000   1.0000

     highest occupied level (ev):     7.9321

!    total energy              =   -1446.48987952 Ry
     estimated scf accuracy    <          1.0E-09 Ry

     The total energy is the sum of the following terms:
     one-electron contribution =    -589.06308244 Ry
     hartree contribution      =     462.96315210 Ry
     xc contribution           =    -438.73628350 Ry
     ewald contribution        =    -881.65366568 Ry

     convergence has been achieved in  34 iterations

     Forces acting on atoms (cartesian axes, Ry/au):

     atom    1 type  1   force =     0.00000711    0.00000410    0.02180021
     atom    2 type  1   force =    -0.00000674   -0.00000389    0.02179523
     atom    3 type  2   force =    -0.00000233   -0.00000134   -0.02179432
     atom    4 type  2   force =     0.00000238    0.00000137   -0.02179707
     atom    5 type  1   force =     0.00000677    0.00000391    0.02179279
     atom    6 type  1   force =    -0.00000661   -0.00000382    0.02179694
     atom    7 type  2   force =    -0.00000225   -0.00000130   -0.02179788
     atom    8 type  2   force =     0.00000241    0.00000139   -0.02179555
     atom    9 type  1   force =     0.00000715    0.00000413    0.02180009
     atom   10 type  1   force =    -0.00000731   -0.00000422    0.02179536
     atom   11 type  2   force =    -0.00000254   -0.00000146   -0.02179441
     atom   12 type  2   force =     0.00000229    0.00000132   -0.02179688
     atom   13 type  1   force =     0.00000733    0.00000423    0.02179264
     atom   14 type  1   force =    -0.00000743   -0.00000429    0.02179668
     atom   15 type  2   force =    -0.00000242   -0.00000140   -0.02179797
     atom   16 type  2   force =     0.00000220    0.00000127   -0.02179586
     The non-local contrib.  to forces
     atom    1 type  1   force =    -0.00002409   -0.00001391    0.16289123
     atom    2 type  1   force =     0.00002454    0.00001417    0.16289215
     atom    3 type  2   force =    -0.00017778   -0.00010264    0.14541594
     atom    4 type  2   force =     0.00017796    0.00010274    0.14541343
     atom    5 type  1   force =    -0.00002435   -0.00001406    0.16288616
     atom    6 type  1   force =     0.00002453    0.00001416    0.16288448
     atom    7 type  2   force =    -0.00017781   -0.00010266    0.14541233
     atom    8 type  2   force =     0.00017800    0.00010277    0.14541510
     atom    9 type  1   force =    -0.00002427   -0.00001401    0.16289090
     atom   10 type  1   force =     0.00002441    0.00001410    0.16289237
     atom   11 type  2   force =    -0.00017816   -0.00010286    0.14541610
     atom   12 type  2   force =     0.00017793    0.00010273    0.14541358
     atom   13 type  1   force =    -0.00002443   -0.00001411    0.16288610
     atom   14 type  1   force =     0.00002429    0.00001402    0.16288454
     atom   15 type  2   force =    -0.00017794   -0.00010273    0.14541194
     atom   16 type  2   force =     0.00017794    0.00010273    0.14541485
     The ionic contribution  to forces
     atom    1 type  1   force =     0.00000001    0.00000001    1.32276512
     atom    2 type  1   force =     0.00000002    0.00000001    1.32276513
     atom    3 type  2   force =     0.00000001    0.00000001   -1.32276512
     atom    4 type  2   force =     0.00000001    0.00000000   -1.32276513
     atom    5 type  1   force =     0.00000001    0.00000001    1.32276512
     atom    6 type  1   force =     0.00000002    0.00000001    1.32276513
     atom    7 type  2   force =     0.00000001    0.00000001   -1.32276512
     atom    8 type  2   force =     0.00000001    0.00000000   -1.32276513
     atom    9 type  1   force =    -0.00000002   -0.00000001    1.32276513
     atom   10 type  1   force =    -0.00000001   -0.00000001    1.32276512
     atom   11 type  2   force =    -0.00000001   -0.00000000   -1.32276513
     atom   12 type  2   force =    -0.00000001   -0.00000001   -1.32276512
     atom   13 type  1   force =    -0.00000002   -0.00000001    1.32276513
     atom   14 type  1   force =    -0.00000001   -0.00000001    1.32276512
     atom   15 type  2   force =    -0.00000001   -0.00000000   -1.32276513
     atom   16 type  2   force =    -0.00000001   -0.00000001   -1.32276512
     The local contribution  to forces
     atom    1 type  1   force =     0.00003739    0.00002159   -1.45156925
     atom    2 type  1   force =    -0.00003846   -0.00002230   -1.45156906
     atom    3 type  2   force =     0.00017313    0.00009996    1.15667676
     atom    4 type  2   force =    -0.00017368   -0.00010030    1.15667600
     atom    5 type  1   force =     0.00003810    0.00002200   -1.45156878
     atom    6 type  1   force =    -0.00003861   -0.00002238   -1.45156604
     atom    7 type  2   force =     0.00017332    0.00010006    1.15667773
     atom    8 type  2   force =    -0.00017355   -0.00010023    1.15667813
     atom    9 type  1   force =     0.00003804    0.00002205   -1.45156862
     atom   10 type  1   force =    -0.00003761   -0.00002171   -1.45156960
     atom   11 type  2   force =     0.00017342    0.00010015    1.15667677
     atom   12 type  2   force =    -0.00017330   -0.00010005    1.15667614
     atom   13 type  1   force =     0.00003780    0.00002192   -1.45156859
     atom   14 type  1   force =    -0.00003739   -0.00002159   -1.45156597
     atom   15 type  2   force =     0.00017390    0.00010042    1.15667751
     atom   16 type  2   force =    -0.00017319   -0.00009999    1.15667837
     The core correction contribution to forces
     atom    1 type  1   force =    -0.00000655   -0.00000380   -0.01228633
     atom    2 type  1   force =     0.00000641    0.00000364   -0.01228954
     atom    3 type  2   force =     0.00000203    0.00000118   -0.00112326
     atom    4 type  2   force =    -0.00000201   -0.00000116   -0.00112237
     atom    5 type  1   force =    -0.00000656   -0.00000380   -0.01228794
     atom    6 type  1   force =     0.00000641    0.00000364   -0.01228471
     atom    7 type  2   force =     0.00000203    0.00000118   -0.00112338
     atom    8 type  2   force =    -0.00000201   -0.00000116   -0.00112428
     atom    9 type  1   force =    -0.00000642   -0.00000365   -0.01228628
     atom   10 type  1   force =     0.00000654    0.00000379   -0.01228959
     atom   11 type  2   force =     0.00000201    0.00000116   -0.00112326
     atom   12 type  2   force =    -0.00000203   -0.00000118   -0.00112236
     atom   13 type  1   force =    -0.00000639   -0.00000364   -0.01228788
     atom   14 type  1   force =     0.00000655    0.00000379   -0.01228478
     atom   15 type  2   force =     0.00000201    0.00000116   -0.00112338
     atom   16 type  2   force =    -0.00000203   -0.00000118   -0.00112427
     The Hubbard contrib.    to forces
     atom    1 type  1   force =     0.00000000    0.00000000    0.00000000
     atom    2 type  1   force =     0.00000000    0.00000000    0.00000000
     atom    3 type  2   force =     0.00000000    0.00000000    0.00000000
     atom    4 type  2   force =     0.00000000    0.00000000    0.00000000
     atom    5 type  1   force =     0.00000000    0.00000000    0.00000000
     atom    6 type  1   force =     0.00000000    0.00000000    0.00000000
     atom    7 type  2   force =     0.00000000    0.00000000    0.00000000
     atom    8 type  2   force =     0.00000000    0.00000000    0.00000000
     atom    9 type  1   force =     0.00000000    0.00000000    0.00000000
     atom   10 type  1   force =     0.00000000    0.00000000    0.00000000
     atom   11 type  2   force =     0.00000000    0.00000000    0.00000000
     atom   12 type  2   force =     0.00000000    0.00000000    0.00000000
     atom   13 type  1   force =     0.00000000    0.00000000    0.00000000
     atom   14 type  1   force =     0.00000000    0.00000000    0.00000000
     atom   15 type  2   force =     0.00000000    0.00000000    0.00000000
     atom   16 type  2   force =     0.00000000    0.00000000    0.00000000
     The SCF correction term to forces
     atom    1 type  1   force =     0.00000037    0.00000021   -0.00000182
     atom    2 type  1   force =     0.00000084    0.00000048   -0.00000471
     atom    3 type  2   force =     0.00000030    0.00000017    0.00000010
     atom    4 type  2   force =     0.00000013    0.00000007   -0.00000027
     atom    5 type  1   force =    -0.00000042   -0.00000024   -0.00000303
     atom    6 type  1   force =     0.00000112    0.00000065   -0.00000319
     atom    7 type  2   force =     0.00000022    0.00000013   -0.00000071
     atom    8 type  2   force =    -0.00000001   -0.00000001   -0.00000063
     atom    9 type  1   force =    -0.00000023   -0.00000013   -0.00000230
     atom   10 type  1   force =    -0.00000063   -0.00000037   -0.00000420
     atom   11 type  2   force =     0.00000020    0.00000012   -0.00000015
     atom   12 type  2   force =    -0.00000029   -0.00000017   -0.00000038
     atom   13 type  1   force =     0.00000033    0.00000019   -0.00000337
     atom   14 type  1   force =    -0.00000085   -0.00000049   -0.00000350
     atom   15 type  2   force =    -0.00000037   -0.00000021   -0.00000018
     atom   16 type  2   force =    -0.00000049   -0.00000028   -0.00000095

     Total force =     0.087185     Total SCF correction =     0.000010

     General routines

     Parallel routines

   This run was terminated on:   0:43:49  29Aug2025

   JOB DONE.
Note: The following floating-point exceptions are signalling: IEEE_UNDERFLOW_FLAG IEEE_DENORMAL
Note: The following floating-point exceptions are signalling: IEEE_UNDERFLOW_FLAG IEEE_DENORMAL
Note: The following floating-point exceptions are signalling: IEEE_UNDERFLOW_FLAG IEEE_DENORMAL
Note: The following floating-point exceptions are signalling: IEEE_UNDERFLOW_FLAG IEEE_DENORMAL
Note: The following floating-point exceptions are signalling: IEEE_UNDERFLOW_FLAG IEEE_DENORMAL
Note: The following floating-point exceptions are signalling: IEEE_UNDERFLOW_FLAG IEEE_DENORMAL
Note: The following floating-point exceptions are signalling: IEEE_UNDERFLOW_FLAG IEEE_DENORMAL
Note: The following floating-point exceptions are signalling: IEEE_UNDERFLOW_FLAG IEEE_DENORMAL
Note: The following floating-point exceptions are signalling: IEEE_UNDERFLOW_FLAG IEEE_DENORMAL
Note: The following floating-point exceptions are signalling: IEEE_UNDERFLOW_FLAG IEEE_DENORMAL
Note: The following floating-point exceptions are signalling: IEEE_UNDERFLOW_FLAG IEEE_DENORMAL
Note: The following floating-point exceptions are signalling: IEEE_UNDERFLOW_FLAG IEEE_DENORMAL
Note: The following floating-point exceptions are signalling: IEEE_UNDERFLOW_FLAG IEEE_DENORMAL
Note: The following floating-point exceptions are signalling: IEEE_UNDERFLOW_FLAG IEEE_DENORMAL
Note: The following floating-point exceptions are signalling: IEEE_UNDERFLOW_FLAG IEEE_DENORMAL
Note: The following floating-point exceptions are signalling: IEEE_UNDERFLOW_FLAG IEEE_DENORMAL
Note: The following floating-point exceptions are signalling: IEEE_UNDERFLOW_FLAG IEEE_DENORMAL
Note: The following floating-point exceptions are signalling: IEEE_UNDERFLOW_FLAG IEEE_DENORMAL
Note: The following floating-point exceptions are signalling: IEEE_UNDERFLOW_FLAG IEEE_DENORMAL
Note: The following floating-point exceptions are signalling: IEEE_UNDERFLOW_FLAG IEEE_DENORMAL
Note: The following floating-point exceptions are signalling: IEEE_UNDERFLOW_FLAG IEEE_DENORMAL
Note: The following floating-point exceptions are signalling: IEEE_UNDERFLOW_FLAG IEEE_DENORMAL
Note: The following floating-point exceptions are signalling: IEEE_UNDERFLOW_FLAG IEEE_DENORMAL
Note: The following floating-point exceptions are signalling: IEEE_UNDERFLOW_FLAG IEEE_DENORMAL
Note: The following floating-point exceptions are signalling: IEEE_UNDERFLOW_FLAG IEEE_DENORMAL
Note: The following floating-point exceptions are signalling: IEEE_UNDERFLOW_FLAG IEEE_DENORMAL
Note: The following floating-point exceptions are signalling: IEEE_UNDERFLOW_FLAG IEEE_DENORMAL
Note: The following floating-point exceptions are signalling: IEEE_UNDERFLOW_FLAG IEEE_DENORMAL
Note: The following floating-point exceptions are signalling: IEEE_UNDERFLOW_FLAG IEEE_DENORMAL
Note: The following floating-point exceptions are signalling: IEEE_UNDERFLOW_FLAG IEEE_DENORMAL
Note: The following floating-point exceptions are signalling: IEEE_UNDERFLOW_FLAG IEEE_DENORMAL
Note: The following floating-point exceptions are signalling: IEEE_UNDERFLOW_FLAG IEEE_DENORMAL