     Program PWSCF v.7.0 starts on 29Aug2025 at 13:52:38

     K-points division:     npool     =       8
     R & G space division:  proc/nbgrp/npool/nimage =       4

     Reading input from /home/jvc/QEspresso7.2/ZnO_database/scripts/cell212.in/ZnO-3.47-1.74-212.in
Warning: card &CELL ignored
Warning: card / ignored
Warning: card &FCP ignored
Warning: card / ignored
Warning: card &RISM ignored
Warning: card / ignored

     Current dimensions of program PWSCF are:
     Max number of different atomic species (ntypx) = 10
     Max number of k-points (npk) =  40000
     Max angular momentum in pseudopotentials (lmaxx) =  4
     file Zn.upf: wavefunction(s)  3D renormalized
     Found identity + (  0.0000  0.0000 -0.5000) symmetry
     This is a supercell, fractional translations are disabled
     Message from routine setup:
     using ibrav=0 with symmetry is DISCOURAGED, use correct ibrav instead

     Using Slab Decomposition

     bravais-lattice index     =            0
     lattice parameter (alat)  =      13.0992  a.u.
     unit-cell volume          =    1696.8979 (a.u.)^3
     number of atoms/cell      =           16
     number of atomic types    =            2
     number of electrons       =       144.00
     number of Kohn-Sham states=           72
     kinetic-energy cutoff     =      50.0000  Ry
     charge density cutoff     =     400.0000  Ry
     scf convergence threshold =      1.0E-08
     mixing beta               =       0.3000
     number of iterations used =            8  plain     mixing
     Exchange-correlation= PBE
                           (   1   4   3   4   0   0   0)

     celldm(1)=  13.099170  celldm(2)=   0.000000  celldm(3)=   0.000000
     celldm(4)=   0.000000  celldm(5)=   0.000000  celldm(6)=   0.000000

     crystal axes: (cart. coord. in units of alat)
               a(1) = (   1.000000   0.000000   0.000000 )
               a(2) = (  -0.250000   0.433013   0.000000 )
               a(3) = (   0.000000   0.000000   1.743507 )

     reciprocal axes: (cart. coord. in units 2 pi/alat)
               b(1) = (  1.000000  0.577350 -0.000000 )
               b(2) = (  0.000000  2.309401  0.000000 )
               b(3) = (  0.000000 -0.000000  0.573557 )

     PseudoPot. # 1 for Zn read from file:
     /home/jvc/QEspresso7.2/ZnO_database/pseudos/Zn.upf
     MD5 check sum: 7f56cabf9682ed8c977c2f7d0c5985c5
     Pseudo is Ultrasoft + core correction, Zval = 12.0
     Generated using &quot;atomic&quot; code by A. Dal Corso  v.6.2.2
     Using radial grid of 1201 points,  6 beta functions with:
                l(1) =   0
                l(2) =   0
                l(3) =   1
                l(4) =   1
                l(5) =   2
                l(6) =   2
     Q(r) pseudized with 0 coefficients

     PseudoPot. # 2 for O  read from file:
     /home/jvc/QEspresso7.2/ZnO_database/pseudos/O.upf
     MD5 check sum: 91400c9766925bcf19f520983a725ff0
     Pseudo is Ultrasoft + core correction, Zval =  6.0
     Generated using &quot;atomic&quot; code by A. Dal Corso  v.6.3MaX
     Using radial grid of 1095 points,  4 beta functions with:
                l(1) =   0
                l(2) =   0
                l(3) =   1
                l(4) =   1
     Q(r) pseudized with 0 coefficients

     atomic species   valence    mass     pseudopotential
        Zn            12.00    65.38000     Zn( 1.00)
        O              6.00    15.99900     O ( 1.00)

      2 Sym. Ops. (no inversion) found

                                    s                        frac. trans.

      isym =  1     identity

 cryst.   s( 1) = (     1          0          0      )
                  (     0          1          0      )
                  (     0          0          1      )

 cart.    s( 1) = (  1.0000000  0.0000000  0.0000000 )
                  (  0.0000000  1.0000000  0.0000000 )
                  (  0.0000000  0.0000000  1.0000000 )

      isym =  2     inv. 180 deg rotation - cryst. axis [0,1,0]

 cryst.   s( 2) = (     1          2          0      )
                  (     0         -1          0      )
                  (     0          0          1      )

 cart.    s( 2) = (  0.5000000  0.8660254  0.0000000 )
                  (  0.8660254 -0.5000000  0.0000000 )
                  (  0.0000000  0.0000000  1.0000000 )

   Cartesian axes

     site n.     atom                  positions (alat units)
         1           Zn  tau(   1) = (   0.2500000   0.1443376   0.4364291  )
         2           Zn  tau(   2) = (  -0.0000000   0.2886751   0.0005523  )
         3           O   tau(   3) = (   0.2500000   0.1443376   0.7668610  )
         4           O   tau(   4) = (  -0.0000000   0.2886751   0.3309842  )
         5           Zn  tau(   5) = (   0.2500000   0.1443376   1.3081826  )
         6           Zn  tau(   6) = (  -0.0000000   0.2886751   0.8723058  )
         7           O   tau(   7) = (   0.2500000   0.1443376   1.6386145  )
         8           O   tau(   8) = (  -0.0000000   0.2886751   1.2027378  )
         9           Zn  tau(   9) = (   0.7500000   0.1443376   0.4364291  )
        10           Zn  tau(  10) = (   0.5000000   0.2886751   0.0005523  )
        11           O   tau(  11) = (   0.7500000   0.1443376   0.7668610  )
        12           O   tau(  12) = (   0.5000000   0.2886751   0.3309842  )
        13           Zn  tau(  13) = (   0.7500000   0.1443376   1.3081826  )
        14           Zn  tau(  14) = (   0.5000000   0.2886751   0.8723058  )
        15           O   tau(  15) = (   0.7500000   0.1443376   1.6386145  )
        16           O   tau(  16) = (   0.5000000   0.2886751   1.2027378  )

   Crystallographic axes

     site n.     atom                  positions (cryst. coord.)
         1           Zn  tau(   1) = (  0.3333333  0.3333333  0.2503168  )
         2           Zn  tau(   2) = (  0.1666667  0.6666667  0.0003168  )
         3           O   tau(   3) = (  0.3333333  0.3333333  0.4398382  )
         4           O   tau(   4) = (  0.1666667  0.6666667  0.1898382  )
         5           Zn  tau(   5) = (  0.3333333  0.3333333  0.7503168  )
         6           Zn  tau(   6) = (  0.1666667  0.6666667  0.5003168  )
         7           O   tau(   7) = (  0.3333333  0.3333333  0.9398382  )
         8           O   tau(   8) = (  0.1666667  0.6666667  0.6898382  )
         9           Zn  tau(   9) = (  0.8333333  0.3333333  0.2503168  )
        10           Zn  tau(  10) = (  0.6666667  0.6666667  0.0003168  )
        11           O   tau(  11) = (  0.8333333  0.3333333  0.4398382  )
        12           O   tau(  12) = (  0.6666667  0.6666667  0.1898382  )
        13           Zn  tau(  13) = (  0.8333333  0.3333333  0.7503168  )
        14           Zn  tau(  14) = (  0.6666667  0.6666667  0.5003168  )
        15           O   tau(  15) = (  0.8333333  0.3333333  0.9398382  )
        16           O   tau(  16) = (  0.6666667  0.6666667  0.6898382  )

     number of k points=    80
                       cart. coord. in units 2pi/alat
        k(    1) = (   0.0000000   0.0000000   0.0000000), wk =   0.0092593
        k(    2) = (   0.0000000   0.0000000   0.0955928), wk =   0.0185185
        k(    3) = (   0.0000000   0.0000000   0.1911855), wk =   0.0185185
        k(    4) = (   0.0000000   0.0000000  -0.2867783), wk =   0.0092593
        k(    5) = (   0.0000000   0.3849002   0.0000000), wk =   0.0370370
        k(    6) = (   0.0000000   0.3849002   0.0955928), wk =   0.0370370
        k(    7) = (   0.0000000   0.3849002   0.1911855), wk =   0.0370370
        k(    8) = (   0.0000000   0.3849002  -0.2867783), wk =   0.0370370
        k(    9) = (   0.0000000   0.7698004   0.0000000), wk =   0.0370370
        k(   10) = (   0.0000000   0.7698004   0.0955928), wk =   0.0370370
        k(   11) = (   0.0000000   0.7698004   0.1911855), wk =   0.0370370
        k(   12) = (   0.0000000   0.7698004  -0.2867783), wk =   0.0370370
        k(   13) = (   0.0000000  -1.1547005   0.0000000), wk =   0.0092593
        k(   14) = (   0.0000000  -1.1547005   0.0955928), wk =   0.0185185
        k(   15) = (   0.0000000  -1.1547005   0.1911855), wk =   0.0185185
        k(   16) = (   0.0000000  -1.1547005  -0.2867783), wk =   0.0092593
        k(   17) = (   0.1666667   0.0962250   0.0000000), wk =   0.0185185
        k(   18) = (   0.1666667   0.0962250   0.0955928), wk =   0.0185185
        k(   19) = (   0.1666667   0.0962250   0.1911855), wk =   0.0185185
        k(   20) = (   0.1666667   0.0962250  -0.2867783), wk =   0.0185185
        k(   21) = (   0.1666667   0.4811252   0.0000000), wk =   0.0370370
        k(   22) = (   0.1666667   0.4811252   0.0955928), wk =   0.0370370
        k(   23) = (   0.1666667   0.4811252   0.1911855), wk =   0.0370370
        k(   24) = (   0.1666667   0.4811252  -0.2867783), wk =   0.0370370
        k(   25) = (   0.1666667   0.8660254   0.0000000), wk =   0.0185185
        k(   26) = (   0.1666667   0.8660254   0.0955928), wk =   0.0370370
        k(   27) = (   0.1666667   0.8660254   0.1911855), wk =   0.0370370
        k(   28) = (   0.1666667   0.8660254  -0.2867783), wk =   0.0185185
        k(   29) = (   0.1666667  -1.0584755   0.0000000), wk =   0.0185185
        k(   30) = (   0.1666667  -1.0584755   0.0955928), wk =   0.0185185
        k(   31) = (   0.1666667  -1.0584755   0.1911855), wk =   0.0185185
        k(   32) = (   0.1666667  -1.0584755  -0.2867783), wk =   0.0185185
        k(   33) = (   0.1666667  -0.6735753   0.0000000), wk =   0.0370370
        k(   34) = (   0.1666667  -0.6735753   0.0955928), wk =   0.0370370
        k(   35) = (   0.1666667  -0.6735753   0.1911855), wk =   0.0370370
        k(   36) = (   0.1666667  -0.6735753  -0.2867783), wk =   0.0370370
        k(   37) = (   0.1666667  -0.2886751   0.0000000), wk =   0.0185185
        k(   38) = (   0.1666667  -0.2886751   0.0955928), wk =   0.0370370
        k(   39) = (   0.1666667  -0.2886751   0.1911855), wk =   0.0370370
        k(   40) = (   0.1666667  -0.2886751  -0.2867783), wk =   0.0185185
        k(   41) = (   0.3333333   0.1924501   0.0000000), wk =   0.0185185
        k(   42) = (   0.3333333   0.1924501   0.0955928), wk =   0.0185185
        k(   43) = (   0.3333333   0.1924501   0.1911855), wk =   0.0185185
        k(   44) = (   0.3333333   0.1924501  -0.2867783), wk =   0.0185185
        k(   45) = (   0.3333333   0.5773503   0.0000000), wk =   0.0185185
        k(   46) = (   0.3333333   0.5773503   0.0955928), wk =   0.0370370
        k(   47) = (   0.3333333   0.5773503   0.1911855), wk =   0.0370370
        k(   48) = (   0.3333333   0.5773503  -0.2867783), wk =   0.0185185
        k(   49) = (   0.3333333  -0.9622504   0.0000000), wk =   0.0185185
        k(   50) = (   0.3333333  -0.9622504   0.0955928), wk =   0.0185185
        k(   51) = (   0.3333333  -0.9622504   0.1911855), wk =   0.0185185
        k(   52) = (   0.3333333  -0.9622504  -0.2867783), wk =   0.0185185
        k(   53) = (   0.3333333  -0.5773503   0.0000000), wk =   0.0185185
        k(   54) = (   0.3333333  -0.5773503   0.0955928), wk =   0.0370370
        k(   55) = (   0.3333333  -0.5773503   0.1911855), wk =   0.0370370
[...]
        k(   80) = (  -0.6666667   0.5000000  -0.3333333), wk =   0.0185185

     Check: negative core charge=   -0.000002

     Initial potential from superposition of free atoms

     starting charge     143.9702, renormalised to     144.0000
     Starting wfcs are  104 randomized atomic wfcs

     Self-consistent Calculation

     iteration #  1     ecut=    50.00 Ry     beta= 0.30
     Davidson diagonalization with overlap

     ethr =  1.00E-02,  avg # of iterations =  1.4

     total energy              =   -1445.44777832 Ry
     estimated scf accuracy    <       3.32738089 Ry

[...]

     c_bands:  1 eigenvalues not converged
     c_bands:  1 eigenvalues not converged
     ethr =  7.82E-08,  avg # of iterations = 13.5

[...]

     c_bands:  2 eigenvalues not converged
     c_bands:  1 eigenvalues not converged
     ethr =  7.82E-08,  avg # of iterations = 11.8

[...]

     total energy              =   -1446.25256689 Ry
     estimated scf accuracy    <       0.00000002 Ry

     iteration # 32     ecut=    50.00 Ry     beta= 0.30
     Davidson diagonalization with overlap

     ethr =  1.35E-11,  avg # of iterations =  6.3

     End of self-consistent calculation

          k = 0.0000 0.0000 0.0000 ( 10149 PWs)   bands (ev):

   -12.6023 -12.4503 -12.4503 -12.2931 -12.2159 -12.1678 -12.1677 -12.1223
    -1.1685  -1.1682  -1.1566  -1.1460  -1.1460  -1.1319  -1.1319  -1.1317
    -1.1317  -1.1278  -1.0890  -1.0890  -1.0836  -1.0834  -1.0008  -0.9672
    -0.8895  -0.8895  -0.7729  -0.7653  -0.6993  -0.6993  -0.6833  -0.6270
    -0.6004  -0.6004  -0.5563  -0.5563  -0.5563  -0.5562  -0.5213  -0.5213
    -0.5063  -0.4994  -0.4994  -0.4851  -0.4833  -0.4568  -0.4568  -0.4350
     0.1849   0.4097   0.5030   0.5031   0.8645   1.5807   1.5807   1.7929
     2.4545   2.6922   2.6922   2.8121   2.8122   2.8545   3.1623   3.3822
     3.3829   3.5565   3.5780   3.5780   3.5787   3.5787   3.7721   3.7729

     occupation numbers
     1.0000   1.0000   1.0000   1.0000   1.0000   1.0000   1.0000   1.0000
     1.0000   1.0000   1.0000   1.0000   1.0000   1.0000   1.0000   1.0000
     1.0000   1.0000   1.0000   1.0000   1.0000   1.0000   1.0000   1.0000
     1.0000   1.0000   1.0000   1.0000   1.0000   1.0000   1.0000   1.0000
     1.0000   1.0000   1.0000   1.0000   1.0000   1.0000   1.0000   1.0000
     1.0000   1.0000   1.0000   1.0000   1.0000   1.0000   1.0000   1.0000
     1.0000   1.0000   1.0000   1.0000   1.0000   1.0000   1.0000   1.0000
     1.0000   1.0000   1.0000   1.0000   1.0000   1.0000   1.0000   1.0000
     1.0000   1.0000   1.0000   1.0000   1.0000   1.0000   1.0000   1.0000

[...]

          k =-0.5000-0.2887 0.0000 ( 10130 PWs)   bands (ev):

[...]

          k = 0.3333 0.1925-0.1912 ( 10139 PWs)   bands (ev):

[...]

          k =-0.6667 0.7698-0.1912 ( 10110 PWs)   bands (ev):

   -12.2122 -12.2121 -12.1936 -12.1935 -12.1445 -12.1444 -12.1272 -12.1271
    -1.1204  -1.1204  -1.1040  -1.1040  -1.0206  -1.0206  -0.9861  -0.9861
    -0.9414  -0.9414  -0.9191  -0.9191  -0.8359  -0.8359  -0.7948  -0.7948
    -0.7680  -0.7680  -0.7516  -0.7516  -0.7471  -0.7471  -0.7196  -0.7196
    -0.6030  -0.6030  -0.5652  -0.5652  -0.5378  -0.5378  -0.5262  -0.5262
    -0.4609  -0.4609  -0.4536  -0.4536  -0.3971  -0.3971  -0.3658  -0.3658
     0.6309   0.6309   0.6420   0.6421   0.8367   0.8367   0.9450   0.9450
     1.8964   1.8965   2.1164   2.1164   2.1809   2.1809   2.4377   2.4377
     2.6314   2.6314   2.7678   2.7678   2.9536   2.9536   2.9574   2.9574

     occupation numbers
     1.0000   1.0000   1.0000   1.0000   1.0000   1.0000   1.0000   1.0000
     1.0000   1.0000   1.0000   1.0000   1.0000   1.0000   1.0000   1.0000
     1.0000   1.0000   1.0000   1.0000   1.0000   1.0000   1.0000   1.0000
     1.0000   1.0000   1.0000   1.0000   1.0000   1.0000   1.0000   1.0000
     1.0000   1.0000   1.0000   1.0000   1.0000   1.0000   1.0000   1.0000
     1.0000   1.0000   1.0000   1.0000   1.0000   1.0000   1.0000   1.0000
     1.0000   1.0000   1.0000   1.0000   1.0000   1.0000   1.0000   1.0000
     1.0000   1.0000   1.0000   1.0000   1.0000   1.0000   1.0000   1.0000
     1.0000   1.0000   1.0000   1.0000   1.0000   1.0000   1.0000   1.0000

     highest occupied level (ev):     3.7729

!    total energy              =   -1446.25256690 Ry
     estimated scf accuracy    <          5.5E-09 Ry

     The total energy is the sum of the following terms:
     one-electron contribution =    -731.35619307 Ry
     hartree contribution      =     514.60138114 Ry
     xc contribution           =    -436.40786158 Ry
     ewald contribution        =    -793.08989339 Ry

     convergence has been achieved in  32 iterations

     Forces acting on atoms (cartesian axes, Ry/au):

     atom    1 type  1   force =     0.00001108    0.00000640   -0.00806508
     atom    2 type  1   force =     0.00000805    0.00000465   -0.00806161
     atom    3 type  2   force =    -0.00000859   -0.00000496    0.00807156
     atom    4 type  2   force =     0.00000833    0.00000481    0.00806861
     atom    5 type  1   force =    -0.00001187   -0.00000685   -0.00805082
     atom    6 type  1   force =     0.00000764    0.00000441   -0.00810285
     atom    7 type  2   force =    -0.00000834   -0.00000481    0.00806860
     atom    8 type  2   force =     0.00000842    0.00000486    0.00806835
     atom    9 type  1   force =    -0.00002433   -0.00001405   -0.00807214
     atom   10 type  1   force =     0.00000792    0.00000458   -0.00804359
     atom   11 type  2   force =    -0.00000827   -0.00000478    0.00807156
     atom   12 type  2   force =     0.00000830    0.00000479    0.00807019
     atom   13 type  1   force =    -0.00000307   -0.00000177   -0.00804976
     atom   14 type  1   force =     0.00000506    0.00000292   -0.00810841
     atom   15 type  2   force =    -0.00000839   -0.00000484    0.00806797
     atom   16 type  2   force =     0.00000804    0.00000464    0.00806741
     The non-local contrib.  to forces
     atom    1 type  1   force =     0.00001775    0.00001025    0.18043729
     atom    2 type  1   force =    -0.00000834   -0.00000481    0.18044322
     atom    3 type  2   force =    -0.00020216   -0.00011672    0.20774857
     atom    4 type  2   force =     0.00020249    0.00011691    0.20773610
     atom    5 type  1   force =     0.00000696    0.00000402    0.18044507
     atom    6 type  1   force =    -0.00000736   -0.00000425    0.18041032
     atom    7 type  2   force =    -0.00020219   -0.00011674    0.20773070
     atom    8 type  2   force =     0.00020127    0.00011620    0.20773893
     atom    9 type  1   force =     0.00000013    0.00000007    0.18043355
     atom   10 type  1   force =    -0.00000943   -0.00000544    0.18045059
     atom   11 type  2   force =    -0.00020149   -0.00011633    0.20775339
     atom   12 type  2   force =     0.00020073    0.00011589    0.20773964
     atom   13 type  1   force =     0.00001084    0.00000626    0.18044569
     atom   14 type  1   force =    -0.00001011   -0.00000583    0.18040574
     atom   15 type  2   force =    -0.00020073   -0.00011589    0.20772613
     atom   16 type  2   force =     0.00020064    0.00011584    0.20773646
     The ionic contribution  to forces
     atom    1 type  1   force =    -0.00000000    0.00000001    1.40004232
     atom    2 type  1   force =     0.00000002    0.00000000    1.40004232
     atom    3 type  2   force =    -0.00000000    0.00000001   -1.40004232
     atom    4 type  2   force =     0.00000001   -0.00000000   -1.40004232
     atom    5 type  1   force =    -0.00000000    0.00000001    1.40004232
     atom    6 type  1   force =     0.00000002    0.00000000    1.40004232
     atom    7 type  2   force =    -0.00000000    0.00000001   -1.40004232
     atom    8 type  2   force =     0.00000001   -0.00000000   -1.40004232
     atom    9 type  1   force =    -0.00000001   -0.00000000    1.40004232
     atom   10 type  1   force =    -0.00000000   -0.00000001    1.40004232
     atom   11 type  2   force =    -0.00000001   -0.00000000   -1.40004232
     atom   12 type  2   force =    -0.00000000   -0.00000000   -1.40004232
     atom   13 type  1   force =    -0.00000001   -0.00000000    1.40004232
     atom   14 type  1   force =    -0.00000000   -0.00000001    1.40004232
     atom   15 type  2   force =    -0.00000001   -0.00000000   -1.40004232
     atom   16 type  2   force =    -0.00000000   -0.00000000   -1.40004232
     The local contribution  to forces
     atom    1 type  1   force =    -0.00004027   -0.00002315   -1.57807283
     atom    2 type  1   force =     0.00000674    0.00000378   -1.57807882
     atom    3 type  2   force =     0.00018837    0.00010878    1.20230651
     atom    4 type  2   force =    -0.00019359   -0.00011180    1.20228424
     atom    5 type  1   force =     0.00000028    0.00000027   -1.57809595
     atom    6 type  1   force =     0.00000558    0.00000311   -1.57800971
     atom    7 type  2   force =     0.00018853    0.00010888    1.20227212
     atom    8 type  2   force =    -0.00019251   -0.00011118    1.20227293
     atom    9 type  1   force =     0.00002268    0.00001320   -1.57805991
     atom   10 type  1   force =     0.00000936    0.00000541   -1.57810682
     atom   11 type  2   force =     0.00019316    0.00011155    1.20230383
     atom   12 type  2   force =    -0.00018548   -0.00010708    1.20228328
     atom   13 type  1   force =    -0.00001687   -0.00000964   -1.57809892
     atom   14 type  1   force =     0.00001162    0.00000671   -1.57799640
     atom   15 type  2   force =     0.00019392    0.00011199    1.20227337
     atom   16 type  2   force =    -0.00018784   -0.00010845    1.20227357
     The core correction contribution to forces
     atom    1 type  1   force =    -0.00000699   -0.00000402   -0.01047802
     atom    2 type  1   force =     0.00000775    0.00000446   -0.01047705
     atom    3 type  2   force =     0.00000227    0.00000131   -0.00191154
     atom    4 type  2   force =    -0.00000228   -0.00000132   -0.00191134
     atom    5 type  1   force =    -0.00000801   -0.00000461   -0.01047768
     atom    6 type  1   force =     0.00000776    0.00000447   -0.01047707
     atom    7 type  2   force =     0.00000227    0.00000131   -0.00191133
     atom    8 type  2   force =    -0.00000227   -0.00000131   -0.00191139
     atom    9 type  1   force =    -0.00000849   -0.00000489   -0.01047832
     atom   10 type  1   force =     0.00000768    0.00000444   -0.01047630
     atom   11 type  2   force =     0.00000227    0.00000131   -0.00191161
     atom   12 type  2   force =    -0.00000224   -0.00000129   -0.00191137
     atom   13 type  1   force =    -0.00000744   -0.00000428   -0.01047755
     atom   14 type  1   force =     0.00000770    0.00000444   -0.01047739
     atom   15 type  2   force =     0.00000227    0.00000131   -0.00191127
     atom   16 type  2   force =    -0.00000224   -0.00000130   -0.00191137
     The Hubbard contrib.    to forces
     atom    1 type  1   force =     0.00000000    0.00000000    0.00000000
     atom    2 type  1   force =     0.00000000    0.00000000    0.00000000
     atom    3 type  2   force =     0.00000000    0.00000000    0.00000000
     atom    4 type  2   force =     0.00000000    0.00000000    0.00000000
     atom    5 type  1   force =     0.00000000    0.00000000    0.00000000
     atom    6 type  1   force =     0.00000000    0.00000000    0.00000000
     atom    7 type  2   force =     0.00000000    0.00000000    0.00000000
     atom    8 type  2   force =     0.00000000    0.00000000    0.00000000
     atom    9 type  1   force =     0.00000000    0.00000000    0.00000000
     atom   10 type  1   force =     0.00000000    0.00000000    0.00000000
     atom   11 type  2   force =     0.00000000    0.00000000    0.00000000
     atom   12 type  2   force =     0.00000000    0.00000000    0.00000000
     atom   13 type  1   force =     0.00000000    0.00000000    0.00000000
     atom   14 type  1   force =     0.00000000    0.00000000    0.00000000
     atom   15 type  2   force =     0.00000000    0.00000000    0.00000000
     atom   16 type  2   force =     0.00000000    0.00000000    0.00000000
     The SCF correction term to forces
     atom    1 type  1   force =     0.00004057    0.00002342    0.00000467
     atom    2 type  1   force =     0.00000198    0.00000114    0.00000723
     atom    3 type  2   force =     0.00000296    0.00000171   -0.00003116
     atom    4 type  2   force =     0.00000175    0.00000101    0.00000045
     atom    5 type  1   force =    -0.00001111   -0.00000641    0.00003393
     atom    6 type  1   force =     0.00000174    0.00000101   -0.00007020
     atom    7 type  2   force =     0.00000308    0.00000178    0.00001793
     atom    8 type  2   force =     0.00000198    0.00000114    0.00000871
     atom    9 type  1   force =    -0.00003865   -0.00002231   -0.00001128
     atom   10 type  1   force =     0.00000035    0.00000020    0.00004513
     atom   11 type  2   force =    -0.00000218   -0.00000126   -0.00003322
     atom   12 type  2   force =    -0.00000467   -0.00000270   -0.00000054
     atom   13 type  1   force =     0.00001040    0.00000600    0.00003721
     atom   14 type  1   force =    -0.00000411   -0.00000238   -0.00008417
     atom   15 type  2   force =    -0.00000382   -0.00000221    0.00002058
     atom   16 type  2   force =    -0.00000247   -0.00000142    0.00000957

     Total force =     0.032277     Total SCF correction =     0.000156

     General routines

     Parallel routines

   This run was terminated on:  14: 7:45  29Aug2025

   JOB DONE.
Note: The following floating-point exceptions are signalling: IEEE_UNDERFLOW_FLAG IEEE_DENORMAL
Note: The following floating-point exceptions are signalling: IEEE_UNDERFLOW_FLAG IEEE_DENORMAL
Note: The following floating-point exceptions are signalling: IEEE_UNDERFLOW_FLAG IEEE_DENORMAL
Note: The following floating-point exceptions are signalling: IEEE_UNDERFLOW_FLAG IEEE_DENORMAL
Note: The following floating-point exceptions are signalling: IEEE_UNDERFLOW_FLAG IEEE_DENORMAL
Note: The following floating-point exceptions are signalling: IEEE_UNDERFLOW_FLAG IEEE_DENORMAL
Note: The following floating-point exceptions are signalling: IEEE_UNDERFLOW_FLAG IEEE_DENORMAL
Note: The following floating-point exceptions are signalling: IEEE_UNDERFLOW_FLAG IEEE_DENORMAL
Note: The following floating-point exceptions are signalling: IEEE_UNDERFLOW_FLAG IEEE_DENORMAL
Note: The following floating-point exceptions are signalling: IEEE_UNDERFLOW_FLAG IEEE_DENORMAL
Note: The following floating-point exceptions are signalling: IEEE_UNDERFLOW_FLAG IEEE_DENORMAL
Note: The following floating-point exceptions are signalling: IEEE_UNDERFLOW_FLAG IEEE_DENORMAL
Note: The following floating-point exceptions are signalling: IEEE_UNDERFLOW_FLAG IEEE_DENORMAL
Note: The following floating-point exceptions are signalling: IEEE_UNDERFLOW_FLAG IEEE_DENORMAL
Note: The following floating-point exceptions are signalling: IEEE_UNDERFLOW_FLAG IEEE_DENORMAL
Note: The following floating-point exceptions are signalling: IEEE_UNDERFLOW_FLAG IEEE_DENORMAL
Note: The following floating-point exceptions are signalling: IEEE_UNDERFLOW_FLAG IEEE_DENORMAL
Note: The following floating-point exceptions are signalling: IEEE_UNDERFLOW_FLAG IEEE_DENORMAL
Note: The following floating-point exceptions are signalling: IEEE_UNDERFLOW_FLAG IEEE_DENORMAL
Note: The following floating-point exceptions are signalling: IEEE_UNDERFLOW_FLAG IEEE_DENORMAL
Note: The following floating-point exceptions are signalling: IEEE_UNDERFLOW_FLAG IEEE_DENORMAL
Note: The following floating-point exceptions are signalling: IEEE_UNDERFLOW_FLAG IEEE_DENORMAL
Note: The following floating-point exceptions are signalling: IEEE_UNDERFLOW_FLAG IEEE_DENORMAL
Note: The following floating-point exceptions are signalling: IEEE_UNDERFLOW_FLAG IEEE_DENORMAL
Note: The following floating-point exceptions are signalling: IEEE_UNDERFLOW_FLAG IEEE_DENORMAL
Note: The following floating-point exceptions are signalling: IEEE_UNDERFLOW_FLAG IEEE_DENORMAL
Note: The following floating-point exceptions are signalling: IEEE_UNDERFLOW_FLAG IEEE_DENORMAL
Note: The following floating-point exceptions are signalling: IEEE_UNDERFLOW_FLAG IEEE_DENORMAL
Note: The following floating-point exceptions are signalling: IEEE_UNDERFLOW_FLAG IEEE_DENORMAL
Note: The following floating-point exceptions are signalling: IEEE_UNDERFLOW_FLAG IEEE_DENORMAL
Note: The following floating-point exceptions are signalling: IEEE_UNDERFLOW_FLAG IEEE_DENORMAL
Note: The following floating-point exceptions are signalling: IEEE_UNDERFLOW_FLAG IEEE_DENORMAL