     Program PWSCF v.7.0 starts on 29Aug2025 at  9:46:50

     K-points division:     npool     =       8
     R & G space division:  proc/nbgrp/npool/nimage =       4

     Reading input from /home/jvc/QEspresso7.2/ZnO_database/scripts/cell212.in/ZnO-3.40-1.61-212.in
Warning: card &CELL ignored
Warning: card / ignored
Warning: card &FCP ignored
Warning: card / ignored
Warning: card &RISM ignored
Warning: card / ignored

     Current dimensions of program PWSCF are:
     Max number of different atomic species (ntypx) = 10
     Max number of k-points (npk) =  40000
     Max angular momentum in pseudopotentials (lmaxx) =  4
     file Zn.upf: wavefunction(s)  3D renormalized
     Found identity + (  0.0000  0.0000  0.5000) symmetry
     This is a supercell, fractional translations are disabled
     Message from routine setup:
     using ibrav=0 with symmetry is DISCOURAGED, use correct ibrav instead

     Using Slab Decomposition

     bravais-lattice index     =            0
     lattice parameter (alat)  =      12.8520  a.u.
     unit-cell volume          =    1483.9333 (a.u.)^3
     number of atoms/cell      =           16
     number of atomic types    =            2
     number of electrons       =       144.00
     number of Kohn-Sham states=           72
     kinetic-energy cutoff     =      50.0000  Ry
     charge density cutoff     =     400.0000  Ry
     scf convergence threshold =      1.0E-08
     mixing beta               =       0.3000
     number of iterations used =            8  plain     mixing
     Exchange-correlation= PBE
                           (   1   4   3   4   0   0   0)

     celldm(1)=  12.852016  celldm(2)=   0.000000  celldm(3)=   0.000000
     celldm(4)=   0.000000  celldm(5)=   0.000000  celldm(6)=   0.000000

     crystal axes: (cart. coord. in units of alat)
               a(1) = (   1.000000   0.000000   0.000000 )
               a(2) = (  -0.250000   0.433013   0.000000 )
               a(3) = (   0.000000   0.000000   1.614358 )

     reciprocal axes: (cart. coord. in units 2 pi/alat)
               b(1) = (  1.000000  0.577350 -0.000000 )
               b(2) = (  0.000000  2.309401  0.000000 )
               b(3) = (  0.000000 -0.000000  0.619441 )

     PseudoPot. # 1 for Zn read from file:
     /home/jvc/QEspresso7.2/ZnO_database/pseudos/Zn.upf
     MD5 check sum: 7f56cabf9682ed8c977c2f7d0c5985c5
     Pseudo is Ultrasoft + core correction, Zval = 12.0
     Generated using &quot;atomic&quot; code by A. Dal Corso  v.6.2.2
     Using radial grid of 1201 points,  6 beta functions with:
                l(1) =   0
                l(2) =   0
                l(3) =   1
                l(4) =   1
                l(5) =   2
                l(6) =   2
     Q(r) pseudized with 0 coefficients

     PseudoPot. # 2 for O  read from file:
     /home/jvc/QEspresso7.2/ZnO_database/pseudos/O.upf
     MD5 check sum: 91400c9766925bcf19f520983a725ff0
     Pseudo is Ultrasoft + core correction, Zval =  6.0
     Generated using &quot;atomic&quot; code by A. Dal Corso  v.6.3MaX
     Using radial grid of 1095 points,  4 beta functions with:
                l(1) =   0
                l(2) =   0
                l(3) =   1
                l(4) =   1
     Q(r) pseudized with 0 coefficients

     atomic species   valence    mass     pseudopotential
        Zn            12.00    65.38000     Zn( 1.00)
        O              6.00    15.99900     O ( 1.00)

      2 Sym. Ops. (no inversion) found

                                    s                        frac. trans.

      isym =  1     identity

 cryst.   s( 1) = (     1          0          0      )
                  (     0          1          0      )
                  (     0          0          1      )

 cart.    s( 1) = (  1.0000000  0.0000000  0.0000000 )
                  (  0.0000000  1.0000000  0.0000000 )
                  (  0.0000000  0.0000000  1.0000000 )

      isym =  2     inv. 180 deg rotation - cryst. axis [0,1,0]

 cryst.   s( 2) = (     1          2          0      )
                  (     0         -1          0      )
                  (     0          0          1      )

 cart.    s( 2) = (  0.5000000  0.8660254  0.0000000 )
                  (  0.8660254 -0.5000000  0.0000000 )
                  (  0.0000000  0.0000000  1.0000000 )

   Cartesian axes

     site n.     atom                  positions (alat units)
         1           Zn  tau(   1) = (   0.2500000   0.1443376   0.4041010  )
         2           Zn  tau(   2) = (  -0.0000000   0.2886751   0.0005114  )
         3           O   tau(   3) = (   0.2500000   0.1443376   0.7100565  )
         4           O   tau(   4) = (  -0.0000000   0.2886751   0.3064669  )
         5           Zn  tau(   5) = (   0.2500000   0.1443376   1.2112802  )
         6           Zn  tau(   6) = (  -0.0000000   0.2886751   0.8076906  )
         7           O   tau(   7) = (   0.2500000   0.1443376   1.5172357  )
         8           O   tau(   8) = (  -0.0000000   0.2886751   1.1136461  )
         9           Zn  tau(   9) = (   0.7500000   0.1443376   0.4041010  )
        10           Zn  tau(  10) = (   0.5000000   0.2886751   0.0005114  )
        11           O   tau(  11) = (   0.7500000   0.1443376   0.7100565  )
        12           O   tau(  12) = (   0.5000000   0.2886751   0.3064669  )
        13           Zn  tau(  13) = (   0.7500000   0.1443376   1.2112802  )
        14           Zn  tau(  14) = (   0.5000000   0.2886751   0.8076906  )
        15           O   tau(  15) = (   0.7500000   0.1443376   1.5172357  )
        16           O   tau(  16) = (   0.5000000   0.2886751   1.1136461  )

   Crystallographic axes

     site n.     atom                  positions (cryst. coord.)
         1           Zn  tau(   1) = (  0.3333333  0.3333333  0.2503168  )
         2           Zn  tau(   2) = (  0.1666667  0.6666667  0.0003168  )
         3           O   tau(   3) = (  0.3333333  0.3333333  0.4398382  )
         4           O   tau(   4) = (  0.1666667  0.6666667  0.1898382  )
         5           Zn  tau(   5) = (  0.3333333  0.3333333  0.7503168  )
         6           Zn  tau(   6) = (  0.1666667  0.6666667  0.5003168  )
         7           O   tau(   7) = (  0.3333333  0.3333333  0.9398382  )
         8           O   tau(   8) = (  0.1666667  0.6666667  0.6898382  )
         9           Zn  tau(   9) = (  0.8333333  0.3333333  0.2503168  )
        10           Zn  tau(  10) = (  0.6666667  0.6666667  0.0003168  )
        11           O   tau(  11) = (  0.8333333  0.3333333  0.4398382  )
        12           O   tau(  12) = (  0.6666667  0.6666667  0.1898382  )
        13           Zn  tau(  13) = (  0.8333333  0.3333333  0.7503168  )
        14           Zn  tau(  14) = (  0.6666667  0.6666667  0.5003168  )
        15           O   tau(  15) = (  0.8333333  0.3333333  0.9398382  )
        16           O   tau(  16) = (  0.6666667  0.6666667  0.6898382  )

     number of k points=    80
                       cart. coord. in units 2pi/alat
        k(    1) = (   0.0000000   0.0000000   0.0000000), wk =   0.0092593
        k(    2) = (   0.0000000   0.0000000   0.1032402), wk =   0.0185185
        k(    3) = (   0.0000000   0.0000000   0.2064804), wk =   0.0185185
        k(    4) = (   0.0000000   0.0000000  -0.3097206), wk =   0.0092593
        k(    5) = (   0.0000000   0.3849002   0.0000000), wk =   0.0370370
        k(    6) = (   0.0000000   0.3849002   0.1032402), wk =   0.0370370
        k(    7) = (   0.0000000   0.3849002   0.2064804), wk =   0.0370370
        k(    8) = (   0.0000000   0.3849002  -0.3097206), wk =   0.0370370
        k(    9) = (   0.0000000   0.7698004   0.0000000), wk =   0.0370370
        k(   10) = (   0.0000000   0.7698004   0.1032402), wk =   0.0370370
        k(   11) = (   0.0000000   0.7698004   0.2064804), wk =   0.0370370
        k(   12) = (   0.0000000   0.7698004  -0.3097206), wk =   0.0370370
        k(   13) = (   0.0000000  -1.1547005   0.0000000), wk =   0.0092593
        k(   14) = (   0.0000000  -1.1547005   0.1032402), wk =   0.0185185
        k(   15) = (   0.0000000  -1.1547005   0.2064804), wk =   0.0185185
        k(   16) = (   0.0000000  -1.1547005  -0.3097206), wk =   0.0092593
        k(   17) = (   0.1666667   0.0962250   0.0000000), wk =   0.0185185
        k(   18) = (   0.1666667   0.0962250   0.1032402), wk =   0.0185185
        k(   19) = (   0.1666667   0.0962250   0.2064804), wk =   0.0185185
        k(   20) = (   0.1666667   0.0962250  -0.3097206), wk =   0.0185185
        k(   21) = (   0.1666667   0.4811252   0.0000000), wk =   0.0370370
        k(   22) = (   0.1666667   0.4811252   0.1032402), wk =   0.0370370
        k(   23) = (   0.1666667   0.4811252   0.2064804), wk =   0.0370370
        k(   24) = (   0.1666667   0.4811252  -0.3097206), wk =   0.0370370
        k(   25) = (   0.1666667   0.8660254   0.0000000), wk =   0.0185185
        k(   26) = (   0.1666667   0.8660254   0.1032402), wk =   0.0370370
        k(   27) = (   0.1666667   0.8660254   0.2064804), wk =   0.0370370
        k(   28) = (   0.1666667   0.8660254  -0.3097206), wk =   0.0185185
        k(   29) = (   0.1666667  -1.0584755   0.0000000), wk =   0.0185185
        k(   30) = (   0.1666667  -1.0584755   0.1032402), wk =   0.0185185
        k(   31) = (   0.1666667  -1.0584755   0.2064804), wk =   0.0185185
        k(   32) = (   0.1666667  -1.0584755  -0.3097206), wk =   0.0185185
        k(   33) = (   0.1666667  -0.6735753   0.0000000), wk =   0.0370370
        k(   34) = (   0.1666667  -0.6735753   0.1032402), wk =   0.0370370
        k(   35) = (   0.1666667  -0.6735753   0.2064804), wk =   0.0370370
        k(   36) = (   0.1666667  -0.6735753  -0.3097206), wk =   0.0370370
        k(   37) = (   0.1666667  -0.2886751   0.0000000), wk =   0.0185185
        k(   38) = (   0.1666667  -0.2886751   0.1032402), wk =   0.0370370
        k(   39) = (   0.1666667  -0.2886751   0.2064804), wk =   0.0370370
        k(   40) = (   0.1666667  -0.2886751  -0.3097206), wk =   0.0185185
        k(   41) = (   0.3333333   0.1924501   0.0000000), wk =   0.0185185
        k(   42) = (   0.3333333   0.1924501   0.1032402), wk =   0.0185185
        k(   43) = (   0.3333333   0.1924501   0.2064804), wk =   0.0185185
        k(   44) = (   0.3333333   0.1924501  -0.3097206), wk =   0.0185185
        k(   45) = (   0.3333333   0.5773503   0.0000000), wk =   0.0185185
        k(   46) = (   0.3333333   0.5773503   0.1032402), wk =   0.0370370
        k(   47) = (   0.3333333   0.5773503   0.2064804), wk =   0.0370370
        k(   48) = (   0.3333333   0.5773503  -0.3097206), wk =   0.0185185
        k(   49) = (   0.3333333  -0.9622504   0.0000000), wk =   0.0185185
        k(   50) = (   0.3333333  -0.9622504   0.1032402), wk =   0.0185185
        k(   51) = (   0.3333333  -0.9622504   0.2064804), wk =   0.0185185
        k(   52) = (   0.3333333  -0.9622504  -0.3097206), wk =   0.0185185
        k(   53) = (   0.3333333  -0.5773503   0.0000000), wk =   0.0185185
        k(   54) = (   0.3333333  -0.5773503   0.1032402), wk =   0.0370370
        k(   55) = (   0.3333333  -0.5773503   0.2064804), wk =   0.0370370
[...]
        k(   77) = (   0.3333333   0.0000000  -0.1666667), wk =   0.0185185
        k(   78) = (   0.3333333   0.0000000  -0.3333333), wk =   0.0185185
        k(   79) = (  -0.6666667   0.5000000  -0.1666667), wk =   0.0185185
        k(   80) = (  -0.6666667   0.5000000  -0.3333333), wk =   0.0185185

     Check: negative core charge=   -0.000002

     Initial potential from superposition of free atoms

     starting charge     143.9702, renormalised to     144.0000
     Starting wfcs are  104 randomized atomic wfcs

     Self-consistent Calculation

     iteration #  1     ecut=    50.00 Ry     beta= 0.30
     Davidson diagonalization with overlap

     ethr =  1.00E-02,  avg # of iterations =  1.8

     total energy              =   -1445.78706535 Ry
     estimated scf accuracy    <       2.96397881 Ry

[...]

     total energy              =   -1446.48585446 Ry
     estimated scf accuracy    <       0.00000004 Ry

     iteration # 31     ecut=    50.00 Ry     beta= 0.30
     Davidson diagonalization with overlap

     ethr =  2.51E-11,  avg # of iterations =  5.6

     End of self-consistent calculation

          k = 0.0000 0.0000 0.0000 (  8869 PWs)   bands (ev):

   -11.7733 -11.5172 -11.5171 -11.2739 -11.2503 -11.1885 -11.1884 -11.1131
    -0.0082  -0.0082   0.0634   0.0821   0.0821   0.1475   0.1477   0.1748
     0.2032   0.2032   0.2034   0.2034   0.2957   0.2959   0.3352   0.3405
     0.5204   0.5204   0.6121   0.6355   0.6355   0.6392   0.7429   0.7596
     0.9478   0.9478   1.0047   1.0370   1.0370   1.0370   1.0370   1.0716
     1.0882   1.0882   1.0966   1.0967   1.1306   1.1602   1.1602   1.1868
     1.3730   1.7364   1.8007   1.8008   2.1771   2.8846   3.1321   3.1321
     3.4754   4.0687   4.0687   4.1503   4.1503   4.2187   4.6154   4.6415
     4.6420   4.9645   4.9645   4.9649   4.9650   5.2294   5.2790   5.2795

     occupation numbers
     1.0000   1.0000   1.0000   1.0000   1.0000   1.0000   1.0000   1.0000
     1.0000   1.0000   1.0000   1.0000   1.0000   1.0000   1.0000   1.0000
     1.0000   1.0000   1.0000   1.0000   1.0000   1.0000   1.0000   1.0000
     1.0000   1.0000   1.0000   1.0000   1.0000   1.0000   1.0000   1.0000
     1.0000   1.0000   1.0000   1.0000   1.0000   1.0000   1.0000   1.0000
     1.0000   1.0000   1.0000   1.0000   1.0000   1.0000   1.0000   1.0000
     1.0000   1.0000   1.0000   1.0000   1.0000   1.0000   1.0000   1.0000
     1.0000   1.0000   1.0000   1.0000   1.0000   1.0000   1.0000   1.0000
     1.0000   1.0000   1.0000   1.0000   1.0000   1.0000   1.0000   1.0000

[...]

          k =-0.5000-0.2887 0.0000 (  8818 PWs)   bands (ev):

[...]

          k = 0.3333 0.1925-0.2065 (  8868 PWs)   bands (ev):

[...]

          k =-0.6667 0.7698-0.2065 (  8860 PWs)   bands (ev):

   -11.2665 -11.2664 -11.2332 -11.2331 -11.1487 -11.1486 -11.1203 -11.1203
     0.0867   0.0867   0.1194   0.1194   0.1852   0.1852   0.2956   0.2956
     0.3887   0.3887   0.3990   0.3990   0.5433   0.5433   0.5697   0.5697
     0.6169   0.6170   0.6297   0.6297   0.6995   0.6995   0.7205   0.7205
     0.9527   0.9527   1.0084   1.0084   1.0367   1.0367   1.0559   1.0559
     1.1432   1.1432   1.1547   1.1547   1.2459   1.2459   1.2885   1.2885
     1.8094   1.8095   1.8850   1.8850   2.1718   2.1718   2.2918   2.2918
     2.9831   2.9832   3.2612   3.2613   3.3424   3.3425   3.7672   3.7672
     3.9870   3.9870   4.1890   4.1890   4.3590   4.3591   4.4172   4.4173

     occupation numbers
     1.0000   1.0000   1.0000   1.0000   1.0000   1.0000   1.0000   1.0000
     1.0000   1.0000   1.0000   1.0000   1.0000   1.0000   1.0000   1.0000
     1.0000   1.0000   1.0000   1.0000   1.0000   1.0000   1.0000   1.0000
     1.0000   1.0000   1.0000   1.0000   1.0000   1.0000   1.0000   1.0000
     1.0000   1.0000   1.0000   1.0000   1.0000   1.0000   1.0000   1.0000
     1.0000   1.0000   1.0000   1.0000   1.0000   1.0000   1.0000   1.0000
     1.0000   1.0000   1.0000   1.0000   1.0000   1.0000   1.0000   1.0000
     1.0000   1.0000   1.0000   1.0000   1.0000   1.0000   1.0000   1.0000
     1.0000   1.0000   1.0000   1.0000   1.0000   1.0000   1.0000   1.0000

     highest occupied level (ev):     5.2795

!    total energy              =   -1446.48585447 Ry
     estimated scf accuracy    <          5.6E-09 Ry

     The total energy is the sum of the following terms:
     one-electron contribution =    -671.26827737 Ry
     hartree contribution      =     492.27061061 Ry
     xc contribution           =    -437.28199594 Ry
     ewald contribution        =    -830.20619177 Ry

     convergence has been achieved in  31 iterations

     Forces acting on atoms (cartesian axes, Ry/au):

     atom    1 type  1   force =     0.00000651    0.00000376   -0.00008392
     atom    2 type  1   force =    -0.00001230   -0.00000710   -0.00008339
     atom    3 type  2   force =    -0.00000284   -0.00000164    0.00009498
     atom    4 type  2   force =     0.00000225    0.00000130    0.00009575
     atom    5 type  1   force =    -0.00001507   -0.00000870   -0.00011449
     atom    6 type  1   force =    -0.00000509   -0.00000294   -0.00009201
     atom    7 type  2   force =    -0.00000328   -0.00000189    0.00009234
     atom    8 type  2   force =     0.00000299    0.00000173    0.00009196
     atom    9 type  1   force =    -0.00000227   -0.00000131   -0.00008517
     atom   10 type  1   force =     0.00000679    0.00000392   -0.00007194
     atom   11 type  2   force =    -0.00000299   -0.00000172    0.00009499
     atom   12 type  2   force =     0.00000240    0.00000139    0.00009438
     atom   13 type  1   force =     0.00002004    0.00001157   -0.00010430
     atom   14 type  1   force =     0.00000191    0.00000110   -0.00011459
     atom   15 type  2   force =    -0.00000219   -0.00000126    0.00009304
     atom   16 type  2   force =     0.00000312    0.00000180    0.00009234
     The non-local contrib.  to forces
     atom    1 type  1   force =    -0.00000809   -0.00000467   -0.00453445
     atom    2 type  1   force =     0.00000282    0.00000163   -0.00452865
     atom    3 type  2   force =    -0.00018578   -0.00010726    0.00622993
     atom    4 type  2   force =     0.00018601    0.00010739    0.00622976
     atom    5 type  1   force =    -0.00001282   -0.00000740   -0.00454234
     atom    6 type  1   force =     0.00000732    0.00000423   -0.00454127
     atom    7 type  2   force =    -0.00018664   -0.00010776    0.00622645
     atom    8 type  2   force =     0.00018807    0.00010858    0.00622657
     atom    9 type  1   force =    -0.00000749   -0.00000433   -0.00453539
     atom   10 type  1   force =     0.00001158    0.00000668   -0.00452757
     atom   11 type  2   force =    -0.00018749   -0.00010825    0.00623155
     atom   12 type  2   force =     0.00018460    0.00010658    0.00622782
     atom   13 type  1   force =    -0.00000256   -0.00000148   -0.00453756
     atom   14 type  1   force =     0.00000857    0.00000495   -0.00454983
     atom   15 type  2   force =    -0.00018676   -0.00010783    0.00622475
     atom   16 type  2   force =     0.00018642    0.00010763    0.00622753
     The ionic contribution  to forces
     atom    1 type  1   force =    -0.00000000    0.00000000    0.05798523
     atom    2 type  1   force =     0.00000000   -0.00000000    0.05798523
     atom    3 type  2   force =    -0.00000000    0.00000000   -0.05798523
     atom    4 type  2   force =     0.00000000   -0.00000000   -0.05798523
     atom    5 type  1   force =    -0.00000000    0.00000000    0.05798523
     atom    6 type  1   force =     0.00000000   -0.00000000    0.05798523
     atom    7 type  2   force =    -0.00000000    0.00000000   -0.05798523
     atom    8 type  2   force =     0.00000000   -0.00000000   -0.05798523
     atom    9 type  1   force =    -0.00000000    0.00000000    0.05798523
     atom   10 type  1   force =     0.00000000   -0.00000000    0.05798523
     atom   11 type  2   force =    -0.00000000    0.00000000   -0.05798523
     atom   12 type  2   force =     0.00000000   -0.00000000   -0.05798523
     atom   13 type  1   force =    -0.00000000    0.00000000    0.05798523
     atom   14 type  1   force =     0.00000000   -0.00000000    0.05798523
     atom   15 type  2   force =    -0.00000000    0.00000000   -0.05798523
     atom   16 type  2   force =     0.00000000   -0.00000000   -0.05798523
     The local contribution  to forces
     atom    1 type  1   force =     0.00001029    0.00000594   -0.05389806
     atom    2 type  1   force =    -0.00000159   -0.00000102   -0.05390567
     atom    3 type  2   force =     0.00018141    0.00010474    0.05192259
     atom    4 type  2   force =    -0.00017835   -0.00010300    0.05191310
     atom    5 type  1   force =     0.00003777    0.00002181   -0.05386743
     atom    6 type  1   force =    -0.00001270   -0.00000744   -0.05389145
     atom    7 type  2   force =     0.00018480    0.00010669    0.05191920
     atom    8 type  2   force =    -0.00018032   -0.00010413    0.05192909
     atom    9 type  1   force =     0.00002023    0.00001168   -0.05389479
     atom   10 type  1   force =    -0.00002755   -0.00001601   -0.05391565
     atom   11 type  2   force =     0.00018173    0.00010492    0.05192442
     atom   12 type  2   force =    -0.00018246   -0.00010537    0.05191503
     atom   13 type  1   force =    -0.00000764   -0.00000441   -0.05388519
     atom   14 type  1   force =    -0.00001851   -0.00001079   -0.05386244
     atom   15 type  2   force =     0.00017838    0.00010299    0.05191755
     atom   16 type  2   force =    -0.00018387   -0.00010619    0.05192931
     The core correction contribution to forces
     atom    1 type  1   force =    -0.00000499   -0.00000289    0.00035100
     atom    2 type  1   force =     0.00000531    0.00000300    0.00034807
     atom    3 type  2   force =     0.00000211    0.00000121   -0.00006985
     atom    4 type  2   force =    -0.00000210   -0.00000122   -0.00007038
     atom    5 type  1   force =    -0.00000559   -0.00000323    0.00034738
     atom    6 type  1   force =     0.00000537    0.00000304    0.00035095
     atom    7 type  2   force =     0.00000212    0.00000122   -0.00007182
     atom    8 type  2   force =    -0.00000213   -0.00000123   -0.00007131
     atom    9 type  1   force =    -0.00000557   -0.00000317    0.00035094
     atom   10 type  1   force =     0.00000537    0.00000309    0.00034825
     atom   11 type  2   force =     0.00000213    0.00000123   -0.00006988
     atom   12 type  2   force =    -0.00000209   -0.00000121   -0.00007035
     atom   13 type  1   force =    -0.00000504   -0.00000287    0.00034778
     atom   14 type  1   force =     0.00000520    0.00000299    0.00035061
     atom   15 type  2   force =     0.00000211    0.00000122   -0.00007181
     atom   16 type  2   force =    -0.00000211   -0.00000122   -0.00007132
     The Hubbard contrib.    to forces
     atom    1 type  1   force =     0.00000000    0.00000000    0.00000000
     atom    2 type  1   force =     0.00000000    0.00000000    0.00000000
     atom    3 type  2   force =     0.00000000    0.00000000    0.00000000
     atom    4 type  2   force =     0.00000000    0.00000000    0.00000000
     atom    5 type  1   force =     0.00000000    0.00000000    0.00000000
     atom    6 type  1   force =     0.00000000    0.00000000    0.00000000
     atom    7 type  2   force =     0.00000000    0.00000000    0.00000000
     atom    8 type  2   force =     0.00000000    0.00000000    0.00000000
     atom    9 type  1   force =     0.00000000    0.00000000    0.00000000
     atom   10 type  1   force =     0.00000000    0.00000000    0.00000000
     atom   11 type  2   force =     0.00000000    0.00000000    0.00000000
     atom   12 type  2   force =     0.00000000    0.00000000    0.00000000
     atom   13 type  1   force =     0.00000000    0.00000000    0.00000000
     atom   14 type  1   force =     0.00000000    0.00000000    0.00000000
     atom   15 type  2   force =     0.00000000    0.00000000    0.00000000
     atom   16 type  2   force =     0.00000000    0.00000000    0.00000000
     The SCF correction term to forces
     atom    1 type  1   force =     0.00000923    0.00000533    0.00001192
     atom    2 type  1   force =    -0.00001883   -0.00001087    0.00001719
     atom    3 type  2   force =    -0.00000064   -0.00000037   -0.00000291
     atom    4 type  2   force =    -0.00000337   -0.00000195    0.00000805
     atom    5 type  1   force =    -0.00003450   -0.00001992   -0.00003778
     atom    6 type  1   force =    -0.00000508   -0.00000293    0.00000408
     atom    7 type  2   force =    -0.00000362   -0.00000209    0.00000330
     atom    8 type  2   force =    -0.00000268   -0.00000155   -0.00000762
     atom    9 type  1   force =    -0.00000952   -0.00000550    0.00000840
     atom   10 type  1   force =     0.00001738    0.00001003    0.00003736
     atom   11 type  2   force =     0.00000058    0.00000034   -0.00000632
     atom   12 type  2   force =     0.00000230    0.00000133    0.00000665
     atom   13 type  1   force =     0.00003520    0.00002032   -0.00001500
     atom   14 type  1   force =     0.00000663    0.00000383   -0.00003860
     atom   15 type  2   force =     0.00000402    0.00000232    0.00000733
     atom   16 type  2   force =     0.00000263    0.00000152   -0.00000840

     Total force =     0.000379     Total SCF correction =     0.000100
     SCF correction compared to forces is large: reduce conv_thr to get better values

     General routines

     Parallel routines

   This run was terminated on:  10: 0:25  29Aug2025

   JOB DONE.
Note: The following floating-point exceptions are signalling: IEEE_UNDERFLOW_FLAG IEEE_DENORMAL
Note: The following floating-point exceptions are signalling: IEEE_UNDERFLOW_FLAG IEEE_DENORMAL
Note: The following floating-point exceptions are signalling: IEEE_UNDERFLOW_FLAG IEEE_DENORMAL
Note: The following floating-point exceptions are signalling: IEEE_UNDERFLOW_FLAG IEEE_DENORMAL
Note: The following floating-point exceptions are signalling: IEEE_UNDERFLOW_FLAG IEEE_DENORMAL
Note: The following floating-point exceptions are signalling: IEEE_UNDERFLOW_FLAG IEEE_DENORMAL
Note: The following floating-point exceptions are signalling: IEEE_UNDERFLOW_FLAG IEEE_DENORMAL
Note: The following floating-point exceptions are signalling: IEEE_UNDERFLOW_FLAG IEEE_DENORMAL
Note: The following floating-point exceptions are signalling: IEEE_UNDERFLOW_FLAG IEEE_DENORMAL
Note: The following floating-point exceptions are signalling: IEEE_UNDERFLOW_FLAG IEEE_DENORMAL
Note: The following floating-point exceptions are signalling: IEEE_UNDERFLOW_FLAG IEEE_DENORMAL
Note: The following floating-point exceptions are signalling: IEEE_UNDERFLOW_FLAG IEEE_DENORMAL
Note: The following floating-point exceptions are signalling: IEEE_UNDERFLOW_FLAG IEEE_DENORMAL
Note: The following floating-point exceptions are signalling: IEEE_UNDERFLOW_FLAG IEEE_DENORMAL
Note: The following floating-point exceptions are signalling: IEEE_UNDERFLOW_FLAG IEEE_DENORMAL
Note: The following floating-point exceptions are signalling: IEEE_UNDERFLOW_FLAG IEEE_DENORMAL
Note: The following floating-point exceptions are signalling: IEEE_UNDERFLOW_FLAG IEEE_DENORMAL
Note: The following floating-point exceptions are signalling: IEEE_UNDERFLOW_FLAG IEEE_DENORMAL
Note: The following floating-point exceptions are signalling: IEEE_UNDERFLOW_FLAG IEEE_DENORMAL
Note: The following floating-point exceptions are signalling: IEEE_UNDERFLOW_FLAG IEEE_DENORMAL
Note: The following floating-point exceptions are signalling: IEEE_UNDERFLOW_FLAG IEEE_DENORMAL
Note: The following floating-point exceptions are signalling: IEEE_UNDERFLOW_FLAG IEEE_DENORMAL
Note: The following floating-point exceptions are signalling: IEEE_UNDERFLOW_FLAG IEEE_DENORMAL
Note: The following floating-point exceptions are signalling: IEEE_UNDERFLOW_FLAG IEEE_DENORMAL
Note: The following floating-point exceptions are signalling: IEEE_UNDERFLOW_FLAG IEEE_DENORMAL
Note: The following floating-point exceptions are signalling: IEEE_UNDERFLOW_FLAG IEEE_DENORMAL
Note: The following floating-point exceptions are signalling: IEEE_UNDERFLOW_FLAG IEEE_DENORMAL
Note: The following floating-point exceptions are signalling: IEEE_UNDERFLOW_FLAG IEEE_DENORMAL
Note: The following floating-point exceptions are signalling: IEEE_UNDERFLOW_FLAG IEEE_DENORMAL
Note: The following floating-point exceptions are signalling: IEEE_UNDERFLOW_FLAG IEEE_DENORMAL
Note: The following floating-point exceptions are signalling: IEEE_UNDERFLOW_FLAG IEEE_DENORMAL
Note: The following floating-point exceptions are signalling: IEEE_UNDERFLOW_FLAG IEEE_DENORMAL