     Program PWSCF v.7.0 starts on 29Aug2025 at  7: 6: 7

     K-points division:     npool     =       8
     R & G space division:  proc/nbgrp/npool/nimage =       4

     Reading input from /home/jvc/QEspresso7.2/ZnO_database/scripts/cell212.in/ZnO-3.34-1.61-212.in
Warning: card &CELL ignored
Warning: card / ignored
Warning: card &FCP ignored
Warning: card / ignored
Warning: card &RISM ignored
Warning: card / ignored

     Current dimensions of program PWSCF are:
     Max number of different atomic species (ntypx) = 10
     Max number of k-points (npk) =  40000
     Max angular momentum in pseudopotentials (lmaxx) =  4
     file Zn.upf: wavefunction(s)  3D renormalized
     Found identity + (  0.0000  0.0000  0.5000) symmetry
     This is a supercell, fractional translations are disabled
     Message from routine setup:
     using ibrav=0 with symmetry is DISCOURAGED, use correct ibrav instead

     Using Slab Decomposition

     bravais-lattice index     =            0
     lattice parameter (alat)  =      12.6049  a.u.
     unit-cell volume          =    1399.9576 (a.u.)^3
     number of atoms/cell      =           16
     number of atomic types    =            2
     number of electrons       =       144.00
     number of Kohn-Sham states=           72
     kinetic-energy cutoff     =      50.0000  Ry
     charge density cutoff     =     400.0000  Ry
     scf convergence threshold =      1.0E-08
     mixing beta               =       0.3000
     number of iterations used =            8  plain     mixing
     Exchange-correlation= PBE
                           (   1   4   3   4   0   0   0)

     celldm(1)=  12.604862  celldm(2)=   0.000000  celldm(3)=   0.000000
     celldm(4)=   0.000000  celldm(5)=   0.000000  celldm(6)=   0.000000

     crystal axes: (cart. coord. in units of alat)
               a(1) = (   1.000000   0.000000   0.000000 )
               a(2) = (  -0.250000   0.433013   0.000000 )
               a(3) = (   0.000000   0.000000   1.614358 )

     reciprocal axes: (cart. coord. in units 2 pi/alat)
               b(1) = (  1.000000  0.577350 -0.000000 )
               b(2) = (  0.000000  2.309401  0.000000 )
               b(3) = (  0.000000 -0.000000  0.619441 )

     PseudoPot. # 1 for Zn read from file:
     /home/jvc/QEspresso7.2/ZnO_database/pseudos/Zn.upf
     MD5 check sum: 7f56cabf9682ed8c977c2f7d0c5985c5
     Pseudo is Ultrasoft + core correction, Zval = 12.0
     Generated using &quot;atomic&quot; code by A. Dal Corso  v.6.2.2
     Using radial grid of 1201 points,  6 beta functions with:
                l(1) =   0
                l(2) =   0
                l(3) =   1
                l(4) =   1
                l(5) =   2
                l(6) =   2
     Q(r) pseudized with 0 coefficients

     PseudoPot. # 2 for O  read from file:
     /home/jvc/QEspresso7.2/ZnO_database/pseudos/O.upf
     MD5 check sum: 91400c9766925bcf19f520983a725ff0
     Pseudo is Ultrasoft + core correction, Zval =  6.0
     Generated using &quot;atomic&quot; code by A. Dal Corso  v.6.3MaX
     Using radial grid of 1095 points,  4 beta functions with:
                l(1) =   0
                l(2) =   0
                l(3) =   1
                l(4) =   1
     Q(r) pseudized with 0 coefficients

     atomic species   valence    mass     pseudopotential
        Zn            12.00    65.38000     Zn( 1.00)
        O              6.00    15.99900     O ( 1.00)

      2 Sym. Ops. (no inversion) found

                                    s                        frac. trans.

      isym =  1     identity

 cryst.   s( 1) = (     1          0          0      )
                  (     0          1          0      )
                  (     0          0          1      )

 cart.    s( 1) = (  1.0000000  0.0000000  0.0000000 )
                  (  0.0000000  1.0000000  0.0000000 )
                  (  0.0000000  0.0000000  1.0000000 )

      isym =  2     inv. 180 deg rotation - cryst. axis [0,1,0]

 cryst.   s( 2) = (     1          2          0      )
                  (     0         -1          0      )
                  (     0          0          1      )

 cart.    s( 2) = (  0.5000000  0.8660254  0.0000000 )
                  (  0.8660254 -0.5000000  0.0000000 )
                  (  0.0000000  0.0000000  1.0000000 )

   Cartesian axes

     site n.     atom                  positions (alat units)
         1           Zn  tau(   1) = (   0.2500000   0.1443376   0.4041010  )
         2           Zn  tau(   2) = (  -0.0000000   0.2886751   0.0005114  )
         3           O   tau(   3) = (   0.2500000   0.1443376   0.7100565  )
         4           O   tau(   4) = (  -0.0000000   0.2886751   0.3064669  )
         5           Zn  tau(   5) = (   0.2500000   0.1443376   1.2112802  )
         6           Zn  tau(   6) = (  -0.0000000   0.2886751   0.8076906  )
         7           O   tau(   7) = (   0.2500000   0.1443376   1.5172357  )
         8           O   tau(   8) = (  -0.0000000   0.2886751   1.1136461  )
         9           Zn  tau(   9) = (   0.7500000   0.1443376   0.4041010  )
        10           Zn  tau(  10) = (   0.5000000   0.2886751   0.0005114  )
        11           O   tau(  11) = (   0.7500000   0.1443376   0.7100565  )
        12           O   tau(  12) = (   0.5000000   0.2886751   0.3064669  )
        13           Zn  tau(  13) = (   0.7500000   0.1443376   1.2112802  )
        14           Zn  tau(  14) = (   0.5000000   0.2886751   0.8076906  )
        15           O   tau(  15) = (   0.7500000   0.1443376   1.5172357  )
        16           O   tau(  16) = (   0.5000000   0.2886751   1.1136461  )

   Crystallographic axes

     site n.     atom                  positions (cryst. coord.)
         1           Zn  tau(   1) = (  0.3333333  0.3333333  0.2503168  )
         2           Zn  tau(   2) = (  0.1666667  0.6666667  0.0003168  )
         3           O   tau(   3) = (  0.3333333  0.3333333  0.4398382  )
         4           O   tau(   4) = (  0.1666667  0.6666667  0.1898382  )
         5           Zn  tau(   5) = (  0.3333333  0.3333333  0.7503168  )
         6           Zn  tau(   6) = (  0.1666667  0.6666667  0.5003168  )
         7           O   tau(   7) = (  0.3333333  0.3333333  0.9398382  )
         8           O   tau(   8) = (  0.1666667  0.6666667  0.6898382  )
         9           Zn  tau(   9) = (  0.8333333  0.3333333  0.2503168  )
        10           Zn  tau(  10) = (  0.6666667  0.6666667  0.0003168  )
        11           O   tau(  11) = (  0.8333333  0.3333333  0.4398382  )
        12           O   tau(  12) = (  0.6666667  0.6666667  0.1898382  )
        13           Zn  tau(  13) = (  0.8333333  0.3333333  0.7503168  )
        14           Zn  tau(  14) = (  0.6666667  0.6666667  0.5003168  )
        15           O   tau(  15) = (  0.8333333  0.3333333  0.9398382  )
        16           O   tau(  16) = (  0.6666667  0.6666667  0.6898382  )

     number of k points=    80
                       cart. coord. in units 2pi/alat
        k(    1) = (   0.0000000   0.0000000   0.0000000), wk =   0.0092593
        k(    2) = (   0.0000000   0.0000000   0.1032402), wk =   0.0185185
        k(    3) = (   0.0000000   0.0000000   0.2064804), wk =   0.0185185
        k(    4) = (   0.0000000   0.0000000  -0.3097206), wk =   0.0092593
        k(    5) = (   0.0000000   0.3849002   0.0000000), wk =   0.0370370
        k(    6) = (   0.0000000   0.3849002   0.1032402), wk =   0.0370370
        k(    7) = (   0.0000000   0.3849002   0.2064804), wk =   0.0370370
        k(    8) = (   0.0000000   0.3849002  -0.3097206), wk =   0.0370370
        k(    9) = (   0.0000000   0.7698004   0.0000000), wk =   0.0370370
        k(   10) = (   0.0000000   0.7698004   0.1032402), wk =   0.0370370
        k(   11) = (   0.0000000   0.7698004   0.2064804), wk =   0.0370370
        k(   12) = (   0.0000000   0.7698004  -0.3097206), wk =   0.0370370
        k(   13) = (   0.0000000  -1.1547005   0.0000000), wk =   0.0092593
        k(   14) = (   0.0000000  -1.1547005   0.1032402), wk =   0.0185185
        k(   15) = (   0.0000000  -1.1547005   0.2064804), wk =   0.0185185
        k(   16) = (   0.0000000  -1.1547005  -0.3097206), wk =   0.0092593
        k(   17) = (   0.1666667   0.0962250   0.0000000), wk =   0.0185185
        k(   18) = (   0.1666667   0.0962250   0.1032402), wk =   0.0185185
        k(   19) = (   0.1666667   0.0962250   0.2064804), wk =   0.0185185
        k(   20) = (   0.1666667   0.0962250  -0.3097206), wk =   0.0185185
        k(   21) = (   0.1666667   0.4811252   0.0000000), wk =   0.0370370
        k(   22) = (   0.1666667   0.4811252   0.1032402), wk =   0.0370370
        k(   23) = (   0.1666667   0.4811252   0.2064804), wk =   0.0370370
        k(   24) = (   0.1666667   0.4811252  -0.3097206), wk =   0.0370370
        k(   25) = (   0.1666667   0.8660254   0.0000000), wk =   0.0185185
        k(   26) = (   0.1666667   0.8660254   0.1032402), wk =   0.0370370
        k(   27) = (   0.1666667   0.8660254   0.2064804), wk =   0.0370370
        k(   28) = (   0.1666667   0.8660254  -0.3097206), wk =   0.0185185
        k(   29) = (   0.1666667  -1.0584755   0.0000000), wk =   0.0185185
        k(   30) = (   0.1666667  -1.0584755   0.1032402), wk =   0.0185185
        k(   31) = (   0.1666667  -1.0584755   0.2064804), wk =   0.0185185
        k(   32) = (   0.1666667  -1.0584755  -0.3097206), wk =   0.0185185
        k(   33) = (   0.1666667  -0.6735753   0.0000000), wk =   0.0370370
        k(   34) = (   0.1666667  -0.6735753   0.1032402), wk =   0.0370370
        k(   35) = (   0.1666667  -0.6735753   0.2064804), wk =   0.0370370
        k(   36) = (   0.1666667  -0.6735753  -0.3097206), wk =   0.0370370
        k(   37) = (   0.1666667  -0.2886751   0.0000000), wk =   0.0185185
        k(   38) = (   0.1666667  -0.2886751   0.1032402), wk =   0.0370370
        k(   39) = (   0.1666667  -0.2886751   0.2064804), wk =   0.0370370
        k(   40) = (   0.1666667  -0.2886751  -0.3097206), wk =   0.0185185
        k(   41) = (   0.3333333   0.1924501   0.0000000), wk =   0.0185185
        k(   42) = (   0.3333333   0.1924501   0.1032402), wk =   0.0185185
        k(   43) = (   0.3333333   0.1924501   0.2064804), wk =   0.0185185
        k(   44) = (   0.3333333   0.1924501  -0.3097206), wk =   0.0185185
        k(   45) = (   0.3333333   0.5773503   0.0000000), wk =   0.0185185
        k(   46) = (   0.3333333   0.5773503   0.1032402), wk =   0.0370370
        k(   47) = (   0.3333333   0.5773503   0.2064804), wk =   0.0370370
        k(   48) = (   0.3333333   0.5773503  -0.3097206), wk =   0.0185185
        k(   49) = (   0.3333333  -0.9622504   0.0000000), wk =   0.0185185
        k(   50) = (   0.3333333  -0.9622504   0.1032402), wk =   0.0185185
        k(   51) = (   0.3333333  -0.9622504   0.2064804), wk =   0.0185185
        k(   52) = (   0.3333333  -0.9622504  -0.3097206), wk =   0.0185185
        k(   53) = (   0.3333333  -0.5773503   0.0000000), wk =   0.0185185
        k(   54) = (   0.3333333  -0.5773503   0.1032402), wk =   0.0370370
        k(   55) = (   0.3333333  -0.5773503   0.2064804), wk =   0.0370370
[...]
        k(   80) = (  -0.6666667   0.5000000  -0.3333333), wk =   0.0185185

     Check: negative core charge=   -0.000002

     Initial potential from superposition of free atoms

     starting charge     143.9702, renormalised to     144.0000
     Starting wfcs are  104 randomized atomic wfcs

     Self-consistent Calculation

     iteration #  1     ecut=    50.00 Ry     beta= 0.30
     Davidson diagonalization with overlap

     ethr =  1.00E-02,  avg # of iterations =  1.9

     total energy              =   -1445.87182025 Ry
     estimated scf accuracy    <       2.85267660 Ry

[...]

     c_bands:  1 eigenvalues not converged
     ethr =  1.71E-04,  avg # of iterations = 12.3

[...]

     c_bands:  1 eigenvalues not converged
     ethr =  4.13E-09,  avg # of iterations = 12.0

[...]

     total energy              =   -1446.53455046 Ry
     estimated scf accuracy    <       0.00000003 Ry

     iteration # 28     ecut=    50.00 Ry     beta= 0.30
     Davidson diagonalization with overlap

     ethr =  2.14E-11,  avg # of iterations =  8.2

     End of self-consistent calculation

          k = 0.0000 0.0000 0.0000 (  8323 PWs)   bands (ev):

   -11.3987 -11.1072 -11.1072 -10.8288 -10.8017 -10.7309 -10.7308 -10.6455
     0.4685   0.4685   0.5822   0.5982   0.5982   0.7197   0.7199   0.7536
     0.7817   0.7818   0.7819   0.7819   0.8300   0.8860   0.8862   0.9378
     1.0197   1.1387   1.1387   1.2367   1.2367   1.2775   1.3514   1.3955
     1.6666   1.6667   1.7109   1.7693   1.7693   1.7693   1.7693   1.8082
     1.8276   1.8276   1.8377   1.8377   1.8769   1.9062   1.9062   1.9400
     2.0979   2.4284   2.4565   2.4565   2.7708   3.4757   3.8586   3.8586
     4.0627   4.7197   4.7197   4.8173   4.8173   4.8937   5.3140   5.3476
     5.3480   5.7007   5.7008   5.7011   5.7012   5.9805   6.0450   6.0454

     occupation numbers
     1.0000   1.0000   1.0000   1.0000   1.0000   1.0000   1.0000   1.0000
     1.0000   1.0000   1.0000   1.0000   1.0000   1.0000   1.0000   1.0000
     1.0000   1.0000   1.0000   1.0000   1.0000   1.0000   1.0000   1.0000
     1.0000   1.0000   1.0000   1.0000   1.0000   1.0000   1.0000   1.0000
     1.0000   1.0000   1.0000   1.0000   1.0000   1.0000   1.0000   1.0000
     1.0000   1.0000   1.0000   1.0000   1.0000   1.0000   1.0000   1.0000
     1.0000   1.0000   1.0000   1.0000   1.0000   1.0000   1.0000   1.0000
     1.0000   1.0000   1.0000   1.0000   1.0000   1.0000   1.0000   1.0000
     1.0000   1.0000   1.0000   1.0000   1.0000   1.0000   1.0000   1.0000

[...]

          k =-0.5000-0.2887 0.0000 (  8316 PWs)   bands (ev):

[...]

          k = 0.3333 0.1925-0.2065 (  8346 PWs)   bands (ev):

[...]

          k =-0.6667 0.7698-0.2065 (  8382 PWs)   bands (ev):

   -10.8205 -10.8205 -10.7823 -10.7822 -10.6857 -10.6856 -10.6535 -10.6534
     0.5907   0.5907   0.6438   0.6438   0.6883   0.6883   0.8383   0.8383
     0.9665   0.9665   0.9760   0.9760   1.1294   1.1294   1.1624   1.1624
     1.2426   1.2426   1.2559   1.2559   1.3302   1.3302   1.3619   1.3619
     1.6642   1.6642   1.7307   1.7307   1.7659   1.7659   1.7892   1.7892
     1.8884   1.8884   1.8997   1.8997   2.0049   2.0049   2.0554   2.0554
     2.4238   2.4238   2.5333   2.5333   2.8438   2.8438   2.9557   2.9557
     3.5621   3.5622   3.8633   3.8634   3.9438   3.9438   4.3910   4.3910
     4.6489   4.6489   4.8586   4.8586   5.0431   5.0431   5.0961   5.0962

     occupation numbers
     1.0000   1.0000   1.0000   1.0000   1.0000   1.0000   1.0000   1.0000
     1.0000   1.0000   1.0000   1.0000   1.0000   1.0000   1.0000   1.0000
     1.0000   1.0000   1.0000   1.0000   1.0000   1.0000   1.0000   1.0000
     1.0000   1.0000   1.0000   1.0000   1.0000   1.0000   1.0000   1.0000
     1.0000   1.0000   1.0000   1.0000   1.0000   1.0000   1.0000   1.0000
     1.0000   1.0000   1.0000   1.0000   1.0000   1.0000   1.0000   1.0000
     1.0000   1.0000   1.0000   1.0000   1.0000   1.0000   1.0000   1.0000
     1.0000   1.0000   1.0000   1.0000   1.0000   1.0000   1.0000   1.0000
     1.0000   1.0000   1.0000   1.0000   1.0000   1.0000   1.0000   1.0000

     highest occupied level (ev):     6.0454

!    total energy              =   -1446.53455049 Ry
     estimated scf accuracy    <          4.1E-09 Ry

     The total energy is the sum of the following terms:
     one-electron contribution =    -645.15686570 Ry
     hartree contribution      =     482.81981397 Ry
     xc contribution           =    -437.71275422 Ry
     ewald contribution        =    -846.48474455 Ry

     convergence has been achieved in  28 iterations

     Forces acting on atoms (cartesian axes, Ry/au):

     atom    1 type  1   force =     0.00001063    0.00000613   -0.00003627
     atom    2 type  1   force =     0.00000027    0.00000015   -0.00004344
     atom    3 type  2   force =    -0.00000233   -0.00000135    0.00004594
     atom    4 type  2   force =     0.00000184    0.00000106    0.00004417
     atom    5 type  1   force =     0.00000386    0.00000223   -0.00005547
     atom    6 type  1   force =    -0.00000116   -0.00000067   -0.00004130
     atom    7 type  2   force =    -0.00000186   -0.00000108    0.00004183
     atom    8 type  2   force =     0.00000215    0.00000124    0.00004575
     atom    9 type  1   force =    -0.00000260   -0.00000150   -0.00004149
     atom   10 type  1   force =    -0.00000883   -0.00000510   -0.00003553
     atom   11 type  2   force =    -0.00000158   -0.00000091    0.00004648
     atom   12 type  2   force =     0.00000248    0.00000143    0.00004371
     atom   13 type  1   force =     0.00000507    0.00000293   -0.00005707
     atom   14 type  1   force =    -0.00000851   -0.00000491   -0.00004515
     atom   15 type  2   force =    -0.00000173   -0.00000100    0.00004205
     atom   16 type  2   force =     0.00000232    0.00000134    0.00004579
     The non-local contrib.  to forces
     atom    1 type  1   force =    -0.00000995   -0.00000575   -0.00461826
     atom    2 type  1   force =     0.00001560    0.00000901   -0.00461811
     atom    3 type  2   force =    -0.00018258   -0.00010541    0.00596690
     atom    4 type  2   force =     0.00018064    0.00010429    0.00596231
     atom    5 type  1   force =    -0.00001355   -0.00000783   -0.00462998
     atom    6 type  1   force =     0.00001554    0.00000897   -0.00462552
     atom    7 type  2   force =    -0.00018208   -0.00010513    0.00596448
     atom    8 type  2   force =     0.00018126    0.00010465    0.00597092
     atom    9 type  1   force =    -0.00001716   -0.00000990   -0.00461935
     atom   10 type  1   force =     0.00001147    0.00000662   -0.00461476
     atom   11 type  2   force =    -0.00018074   -0.00010435    0.00596922
     atom   12 type  2   force =     0.00018218    0.00010518    0.00596176
     atom   13 type  1   force =    -0.00001322   -0.00000763   -0.00463088
     atom   14 type  1   force =     0.00001123    0.00000648   -0.00462788
     atom   15 type  2   force =    -0.00018077   -0.00010437    0.00596389
     atom   16 type  2   force =     0.00018251    0.00010537    0.00597030
     The ionic contribution  to forces
     atom    1 type  1   force =     0.00000000    0.00000001    0.06028145
     atom    2 type  1   force =     0.00000001    0.00000000    0.06028145
     atom    3 type  2   force =     0.00000000    0.00000000   -0.06028145
     atom    4 type  2   force =     0.00000001    0.00000000   -0.06028145
     atom    5 type  1   force =     0.00000000    0.00000001    0.06028145
     atom    6 type  1   force =     0.00000001    0.00000000    0.06028145
     atom    7 type  2   force =     0.00000000    0.00000000   -0.06028145
     atom    8 type  2   force =     0.00000001    0.00000000   -0.06028145
     atom    9 type  1   force =    -0.00000002   -0.00000000    0.06028145
     atom   10 type  1   force =     0.00000000   -0.00000001    0.06028145
     atom   11 type  2   force =    -0.00000001    0.00000000   -0.06028145
     atom   12 type  2   force =     0.00000000   -0.00000001   -0.06028145
     atom   13 type  1   force =    -0.00000002   -0.00000000    0.06028145
     atom   14 type  1   force =     0.00000000   -0.00000001    0.06028145
     atom   15 type  2   force =    -0.00000001    0.00000000   -0.06028145
     atom   16 type  2   force =     0.00000000   -0.00000001   -0.06028145
     The local contribution  to forces
     atom    1 type  1   force =     0.00001092    0.00000631   -0.05611489
     atom    2 type  1   force =    -0.00002968   -0.00001724   -0.05611016
     atom    3 type  2   force =     0.00017644    0.00010187    0.05442328
     atom    4 type  2   force =    -0.00017909   -0.00010342    0.05442272
     atom    5 type  1   force =     0.00002401    0.00001386   -0.05609403
     atom    6 type  1   force =    -0.00002896   -0.00001682   -0.05610913
     atom    7 type  2   force =     0.00017751    0.00010248    0.05442225
     atom    8 type  2   force =    -0.00017801   -0.00010280    0.05442795
     atom    9 type  1   force =     0.00003476    0.00002017   -0.05610730
     atom   10 type  1   force =    -0.00001568   -0.00000916   -0.05612373
     atom   11 type  2   force =     0.00017923    0.00010350    0.05442147
     atom   12 type  2   force =    -0.00017697   -0.00010220    0.05442267
     atom   13 type  1   force =     0.00002135    0.00001243   -0.05609003
     atom   14 type  1   force =    -0.00001583   -0.00000924   -0.05610395
     atom   15 type  2   force =     0.00017774    0.00010264    0.05442334
     atom   16 type  2   force =    -0.00017895   -0.00010335    0.05442866
     The core correction contribution to forces
     atom    1 type  1   force =    -0.00000479   -0.00000268    0.00040351
     atom    2 type  1   force =     0.00000527    0.00000307    0.00040018
     atom    3 type  2   force =     0.00000208    0.00000120   -0.00006759
     atom    4 type  2   force =    -0.00000205   -0.00000118   -0.00006651
     atom    5 type  1   force =    -0.00000510   -0.00000286    0.00040144
     atom    6 type  1   force =     0.00000527    0.00000307    0.00040471
     atom    7 type  2   force =     0.00000207    0.00000120   -0.00006743
     atom    8 type  2   force =    -0.00000206   -0.00000118   -0.00006853
     atom    9 type  1   force =    -0.00000540   -0.00000314    0.00040322
     atom   10 type  1   force =     0.00000492    0.00000274    0.00040055
     atom   11 type  2   force =     0.00000205    0.00000118   -0.00006763
     atom   12 type  2   force =    -0.00000207   -0.00000120   -0.00006650
     atom   13 type  1   force =    -0.00000509   -0.00000297    0.00040127
     atom   14 type  1   force =     0.00000493    0.00000275    0.00040476
     atom   15 type  2   force =     0.00000205    0.00000118   -0.00006743
     atom   16 type  2   force =    -0.00000208   -0.00000121   -0.00006852
     The Hubbard contrib.    to forces
     atom    1 type  1   force =     0.00000000    0.00000000    0.00000000
     atom    2 type  1   force =     0.00000000    0.00000000    0.00000000
     atom    3 type  2   force =     0.00000000    0.00000000    0.00000000
     atom    4 type  2   force =     0.00000000    0.00000000    0.00000000
     atom    5 type  1   force =     0.00000000    0.00000000    0.00000000
     atom    6 type  1   force =     0.00000000    0.00000000    0.00000000
     atom    7 type  2   force =     0.00000000    0.00000000    0.00000000
     atom    8 type  2   force =     0.00000000    0.00000000    0.00000000
     atom    9 type  1   force =     0.00000000    0.00000000    0.00000000
     atom   10 type  1   force =     0.00000000    0.00000000    0.00000000
     atom   11 type  2   force =     0.00000000    0.00000000    0.00000000
     atom   12 type  2   force =     0.00000000    0.00000000    0.00000000
     atom   13 type  1   force =     0.00000000    0.00000000    0.00000000
     atom   14 type  1   force =     0.00000000    0.00000000    0.00000000
     atom   15 type  2   force =     0.00000000    0.00000000    0.00000000
     atom   16 type  2   force =     0.00000000    0.00000000    0.00000000
     The SCF correction term to forces
     atom    1 type  1   force =     0.00001430    0.00000826    0.00001239
     atom    2 type  1   force =     0.00000898    0.00000519    0.00000366
     atom    3 type  2   force =     0.00000162    0.00000094    0.00000527
     atom    4 type  2   force =     0.00000224    0.00000129    0.00000756
     atom    5 type  1   force =    -0.00000165   -0.00000095   -0.00001387
     atom    6 type  1   force =     0.00000689    0.00000398    0.00000764
     atom    7 type  2   force =     0.00000053    0.00000030    0.00000445
     atom    8 type  2   force =     0.00000085    0.00000049   -0.00000267
     atom    9 type  1   force =    -0.00001493   -0.00000862    0.00000096
     atom   10 type  1   force =    -0.00000955   -0.00000552    0.00002142
     atom   11 type  2   force =    -0.00000222   -0.00000128    0.00000534
     atom   12 type  2   force =    -0.00000076   -0.00000044    0.00000769
     atom   13 type  1   force =     0.00000191    0.00000110   -0.00001842
     atom   14 type  1   force =    -0.00000886   -0.00000512    0.00000095
     atom   15 type  2   force =    -0.00000085   -0.00000049    0.00000416
     atom   16 type  2   force =     0.00000074    0.00000043   -0.00000274

     Total force =     0.000180     Total SCF correction =     0.000049
     SCF correction compared to forces is large: reduce conv_thr to get better values

     General routines

     Parallel routines

   This run was terminated on:   7:19:14  29Aug2025

   JOB DONE.
Note: The following floating-point exceptions are signalling: IEEE_UNDERFLOW_FLAG IEEE_DENORMAL
Note: The following floating-point exceptions are signalling: IEEE_UNDERFLOW_FLAG IEEE_DENORMAL
Note: The following floating-point exceptions are signalling: IEEE_UNDERFLOW_FLAG IEEE_DENORMAL
Note: The following floating-point exceptions are signalling: IEEE_UNDERFLOW_FLAG IEEE_DENORMAL
Note: The following floating-point exceptions are signalling: IEEE_UNDERFLOW_FLAG IEEE_DENORMAL
Note: The following floating-point exceptions are signalling: IEEE_UNDERFLOW_FLAG IEEE_DENORMAL
Note: The following floating-point exceptions are signalling: IEEE_UNDERFLOW_FLAG IEEE_DENORMAL
Note: The following floating-point exceptions are signalling: IEEE_UNDERFLOW_FLAG IEEE_DENORMAL
Note: The following floating-point exceptions are signalling: IEEE_UNDERFLOW_FLAG IEEE_DENORMAL
Note: The following floating-point exceptions are signalling: IEEE_UNDERFLOW_FLAG IEEE_DENORMAL
Note: The following floating-point exceptions are signalling: IEEE_UNDERFLOW_FLAG IEEE_DENORMAL
Note: The following floating-point exceptions are signalling: IEEE_UNDERFLOW_FLAG IEEE_DENORMAL
Note: The following floating-point exceptions are signalling: IEEE_UNDERFLOW_FLAG IEEE_DENORMAL
Note: The following floating-point exceptions are signalling: IEEE_UNDERFLOW_FLAG IEEE_DENORMAL
Note: The following floating-point exceptions are signalling: IEEE_UNDERFLOW_FLAG IEEE_DENORMAL
Note: The following floating-point exceptions are signalling: IEEE_UNDERFLOW_FLAG IEEE_DENORMAL
Note: The following floating-point exceptions are signalling: IEEE_UNDERFLOW_FLAG IEEE_DENORMAL
Note: The following floating-point exceptions are signalling: IEEE_UNDERFLOW_FLAG IEEE_DENORMAL
Note: The following floating-point exceptions are signalling: IEEE_UNDERFLOW_FLAG IEEE_DENORMAL
Note: The following floating-point exceptions are signalling: IEEE_UNDERFLOW_FLAG IEEE_DENORMAL
Note: The following floating-point exceptions are signalling: IEEE_UNDERFLOW_FLAG IEEE_DENORMAL
Note: The following floating-point exceptions are signalling: IEEE_UNDERFLOW_FLAG IEEE_DENORMAL
Note: The following floating-point exceptions are signalling: IEEE_UNDERFLOW_FLAG IEEE_DENORMAL
Note: The following floating-point exceptions are signalling: IEEE_UNDERFLOW_FLAG IEEE_DENORMAL
Note: The following floating-point exceptions are signalling: IEEE_UNDERFLOW_FLAG IEEE_DENORMAL
Note: The following floating-point exceptions are signalling: IEEE_UNDERFLOW_FLAG IEEE_DENORMAL
Note: The following floating-point exceptions are signalling: IEEE_UNDERFLOW_FLAG IEEE_DENORMAL
Note: The following floating-point exceptions are signalling: IEEE_UNDERFLOW_FLAG IEEE_DENORMAL
Note: The following floating-point exceptions are signalling: IEEE_UNDERFLOW_FLAG IEEE_DENORMAL
Note: The following floating-point exceptions are signalling: IEEE_UNDERFLOW_FLAG IEEE_DENORMAL
Note: The following floating-point exceptions are signalling: IEEE_UNDERFLOW_FLAG IEEE_DENORMAL
Note: The following floating-point exceptions are signalling: IEEE_UNDERFLOW_FLAG IEEE_DENORMAL