     Program PWSCF v.7.0 starts on 28Aug2025 at 20:52:45

     K-points division:     npool     =       8
     R & G space division:  proc/nbgrp/npool/nimage =       4

     Reading input from /home/jvc/QEspresso7.2/ZnO_database/scripts/cell212.in/ZnO-3.01-1.68-212.in
Warning: card &CELL ignored
Warning: card / ignored
Warning: card &FCP ignored
Warning: card / ignored
Warning: card &RISM ignored
Warning: card / ignored

     Current dimensions of program PWSCF are:
     Max number of different atomic species (ntypx) = 10
     Max number of k-points (npk) =  40000
     Max angular momentum in pseudopotentials (lmaxx) =  4
     file Zn.upf: wavefunction(s)  3D renormalized
     Found identity + (  0.0000  0.0000  0.5000) symmetry
     This is a supercell, fractional translations are disabled
     Message from routine setup:
     using ibrav=0 with symmetry is DISCOURAGED, use correct ibrav instead

     Using Slab Decomposition

     bravais-lattice index     =            0
     lattice parameter (alat)  =      11.3691  a.u.
     unit-cell volume          =    1068.3442 (a.u.)^3
     number of atoms/cell      =           16
     number of atomic types    =            2
     number of electrons       =       144.00
     number of Kohn-Sham states=           72
     kinetic-energy cutoff     =      50.0000  Ry
     charge density cutoff     =     400.0000  Ry
     scf convergence threshold =      1.0E-08
     mixing beta               =       0.3000
     number of iterations used =            8  plain     mixing
     Exchange-correlation= PBE
                           (   1   4   3   4   0   0   0)

     celldm(1)=  11.369091  celldm(2)=   0.000000  celldm(3)=   0.000000
     celldm(4)=   0.000000  celldm(5)=   0.000000  celldm(6)=   0.000000

     crystal axes: (cart. coord. in units of alat)
               a(1) = (   1.000000   0.000000   0.000000 )
               a(2) = (  -0.250000   0.433013   0.000000 )
               a(3) = (   0.000000   0.000000   1.678933 )

     reciprocal axes: (cart. coord. in units 2 pi/alat)
               b(1) = (  1.000000  0.577350 -0.000000 )
               b(2) = (  0.000000  2.309401  0.000000 )
               b(3) = (  0.000000 -0.000000  0.595616 )

     PseudoPot. # 1 for Zn read from file:
     /home/jvc/QEspresso7.2/ZnO_database/pseudos/Zn.upf
     MD5 check sum: 7f56cabf9682ed8c977c2f7d0c5985c5
     Pseudo is Ultrasoft + core correction, Zval = 12.0
     Generated using &quot;atomic&quot; code by A. Dal Corso  v.6.2.2
     Using radial grid of 1201 points,  6 beta functions with:
                l(1) =   0
                l(2) =   0
                l(3) =   1
                l(4) =   1
                l(5) =   2
                l(6) =   2
     Q(r) pseudized with 0 coefficients

     PseudoPot. # 2 for O  read from file:
     /home/jvc/QEspresso7.2/ZnO_database/pseudos/O.upf
     MD5 check sum: 91400c9766925bcf19f520983a725ff0
     Pseudo is Ultrasoft + core correction, Zval =  6.0
     Generated using &quot;atomic&quot; code by A. Dal Corso  v.6.3MaX
     Using radial grid of 1095 points,  4 beta functions with:
                l(1) =   0
                l(2) =   0
                l(3) =   1
                l(4) =   1
     Q(r) pseudized with 0 coefficients

     atomic species   valence    mass     pseudopotential
        Zn            12.00    65.38000     Zn( 1.00)
        O              6.00    15.99900     O ( 1.00)

      2 Sym. Ops. (no inversion) found

                                    s                        frac. trans.

      isym =  1     identity

 cryst.   s( 1) = (     1          0          0      )
                  (     0          1          0      )
                  (     0          0          1      )

 cart.    s( 1) = (  1.0000000  0.0000000  0.0000000 )
                  (  0.0000000  1.0000000  0.0000000 )
                  (  0.0000000  0.0000000  1.0000000 )

      isym =  2     inv. 180 deg rotation - cryst. axis [0,1,0]

 cryst.   s( 2) = (     1          2          0      )
                  (     0         -1          0      )
                  (     0          0          1      )

 cart.    s( 2) = (  0.5000000  0.8660254  0.0000000 )
                  (  0.8660254 -0.5000000  0.0000000 )
                  (  0.0000000  0.0000000  1.0000000 )

   Cartesian axes

     site n.     atom                  positions (alat units)
         1           Zn  tau(   1) = (   0.2500000   0.1443376   0.4202650  )
         2           Zn  tau(   2) = (  -0.0000000   0.2886751   0.0005319  )
         3           O   tau(   3) = (   0.2500000   0.1443376   0.7384587  )
         4           O   tau(   4) = (  -0.0000000   0.2886751   0.3187256  )
         5           Zn  tau(   5) = (   0.2500000   0.1443376   1.2597314  )
         6           Zn  tau(   6) = (  -0.0000000   0.2886751   0.8399982  )
         7           O   tau(   7) = (   0.2500000   0.1443376   1.5779251  )
         8           O   tau(   8) = (  -0.0000000   0.2886751   1.1581919  )
         9           Zn  tau(   9) = (   0.7500000   0.1443376   0.4202650  )
        10           Zn  tau(  10) = (   0.5000000   0.2886751   0.0005319  )
        11           O   tau(  11) = (   0.7500000   0.1443376   0.7384587  )
        12           O   tau(  12) = (   0.5000000   0.2886751   0.3187256  )
        13           Zn  tau(  13) = (   0.7500000   0.1443376   1.2597314  )
        14           Zn  tau(  14) = (   0.5000000   0.2886751   0.8399982  )
        15           O   tau(  15) = (   0.7500000   0.1443376   1.5779251  )
        16           O   tau(  16) = (   0.5000000   0.2886751   1.1581919  )

   Crystallographic axes

     site n.     atom                  positions (cryst. coord.)
         1           Zn  tau(   1) = (  0.3333333  0.3333333  0.2503168  )
         2           Zn  tau(   2) = (  0.1666667  0.6666667  0.0003168  )
         3           O   tau(   3) = (  0.3333333  0.3333333  0.4398382  )
         4           O   tau(   4) = (  0.1666667  0.6666667  0.1898382  )
         5           Zn  tau(   5) = (  0.3333333  0.3333333  0.7503168  )
         6           Zn  tau(   6) = (  0.1666667  0.6666667  0.5003168  )
         7           O   tau(   7) = (  0.3333333  0.3333333  0.9398382  )
         8           O   tau(   8) = (  0.1666667  0.6666667  0.6898382  )
         9           Zn  tau(   9) = (  0.8333333  0.3333333  0.2503168  )
        10           Zn  tau(  10) = (  0.6666667  0.6666667  0.0003168  )
        11           O   tau(  11) = (  0.8333333  0.3333333  0.4398382  )
        12           O   tau(  12) = (  0.6666667  0.6666667  0.1898382  )
        13           Zn  tau(  13) = (  0.8333333  0.3333333  0.7503168  )
        14           Zn  tau(  14) = (  0.6666667  0.6666667  0.5003168  )
        15           O   tau(  15) = (  0.8333333  0.3333333  0.9398382  )
        16           O   tau(  16) = (  0.6666667  0.6666667  0.6898382  )

     number of k points=    80
                       cart. coord. in units 2pi/alat
        k(    1) = (   0.0000000   0.0000000   0.0000000), wk =   0.0092593
        k(    2) = (   0.0000000   0.0000000   0.0992694), wk =   0.0185185
        k(    3) = (   0.0000000   0.0000000   0.1985388), wk =   0.0185185
        k(    4) = (   0.0000000   0.0000000  -0.2978082), wk =   0.0092593
        k(    5) = (   0.0000000   0.3849002   0.0000000), wk =   0.0370370
        k(    6) = (   0.0000000   0.3849002   0.0992694), wk =   0.0370370
        k(    7) = (   0.0000000   0.3849002   0.1985388), wk =   0.0370370
        k(    8) = (   0.0000000   0.3849002  -0.2978082), wk =   0.0370370
        k(    9) = (   0.0000000   0.7698004   0.0000000), wk =   0.0370370
        k(   10) = (   0.0000000   0.7698004   0.0992694), wk =   0.0370370
        k(   11) = (   0.0000000   0.7698004   0.1985388), wk =   0.0370370
        k(   12) = (   0.0000000   0.7698004  -0.2978082), wk =   0.0370370
        k(   13) = (   0.0000000  -1.1547005   0.0000000), wk =   0.0092593
        k(   14) = (   0.0000000  -1.1547005   0.0992694), wk =   0.0185185
        k(   15) = (   0.0000000  -1.1547005   0.1985388), wk =   0.0185185
        k(   16) = (   0.0000000  -1.1547005  -0.2978082), wk =   0.0092593
        k(   17) = (   0.1666667   0.0962250   0.0000000), wk =   0.0185185
        k(   18) = (   0.1666667   0.0962250   0.0992694), wk =   0.0185185
        k(   19) = (   0.1666667   0.0962250   0.1985388), wk =   0.0185185
        k(   20) = (   0.1666667   0.0962250  -0.2978082), wk =   0.0185185
        k(   21) = (   0.1666667   0.4811252   0.0000000), wk =   0.0370370
        k(   22) = (   0.1666667   0.4811252   0.0992694), wk =   0.0370370
        k(   23) = (   0.1666667   0.4811252   0.1985388), wk =   0.0370370
        k(   24) = (   0.1666667   0.4811252  -0.2978082), wk =   0.0370370
        k(   25) = (   0.1666667   0.8660254   0.0000000), wk =   0.0185185
        k(   26) = (   0.1666667   0.8660254   0.0992694), wk =   0.0370370
        k(   27) = (   0.1666667   0.8660254   0.1985388), wk =   0.0370370
        k(   28) = (   0.1666667   0.8660254  -0.2978082), wk =   0.0185185
        k(   29) = (   0.1666667  -1.0584755   0.0000000), wk =   0.0185185
        k(   30) = (   0.1666667  -1.0584755   0.0992694), wk =   0.0185185
        k(   31) = (   0.1666667  -1.0584755   0.1985388), wk =   0.0185185
        k(   32) = (   0.1666667  -1.0584755  -0.2978082), wk =   0.0185185
        k(   33) = (   0.1666667  -0.6735753   0.0000000), wk =   0.0370370
        k(   34) = (   0.1666667  -0.6735753   0.0992694), wk =   0.0370370
        k(   35) = (   0.1666667  -0.6735753   0.1985388), wk =   0.0370370
        k(   36) = (   0.1666667  -0.6735753  -0.2978082), wk =   0.0370370
        k(   37) = (   0.1666667  -0.2886751   0.0000000), wk =   0.0185185
        k(   38) = (   0.1666667  -0.2886751   0.0992694), wk =   0.0370370
        k(   39) = (   0.1666667  -0.2886751   0.1985388), wk =   0.0370370
        k(   40) = (   0.1666667  -0.2886751  -0.2978082), wk =   0.0185185
        k(   41) = (   0.3333333   0.1924501   0.0000000), wk =   0.0185185
        k(   42) = (   0.3333333   0.1924501   0.0992694), wk =   0.0185185
        k(   43) = (   0.3333333   0.1924501   0.1985388), wk =   0.0185185
        k(   44) = (   0.3333333   0.1924501  -0.2978082), wk =   0.0185185
        k(   45) = (   0.3333333   0.5773503   0.0000000), wk =   0.0185185
        k(   46) = (   0.3333333   0.5773503   0.0992694), wk =   0.0370370
        k(   47) = (   0.3333333   0.5773503   0.1985388), wk =   0.0370370
        k(   48) = (   0.3333333   0.5773503  -0.2978082), wk =   0.0185185
        k(   49) = (   0.3333333  -0.9622504   0.0000000), wk =   0.0185185
        k(   50) = (   0.3333333  -0.9622504   0.0992694), wk =   0.0185185
        k(   51) = (   0.3333333  -0.9622504   0.1985388), wk =   0.0185185
        k(   52) = (   0.3333333  -0.9622504  -0.2978082), wk =   0.0185185
        k(   53) = (   0.3333333  -0.5773503   0.0000000), wk =   0.0185185
        k(   54) = (   0.3333333  -0.5773503   0.0992694), wk =   0.0370370
        k(   55) = (   0.3333333  -0.5773503   0.1985388), wk =   0.0370370
[...]
        k(   76) = (  -0.5000000   0.3333333  -0.3333333), wk =   0.0370370
        k(   77) = (   0.3333333   0.0000000  -0.1666667), wk =   0.0185185
        k(   78) = (   0.3333333   0.0000000  -0.3333333), wk =   0.0185185
        k(   79) = (  -0.6666667   0.5000000  -0.1666667), wk =   0.0185185
        k(   80) = (  -0.6666667   0.5000000  -0.3333333), wk =   0.0185185

     Check: negative core charge=   -0.000001

     Initial potential from superposition of free atoms

     starting charge     143.9702, renormalised to     144.0000
     Starting wfcs are  104 randomized atomic wfcs

     Self-consistent Calculation

     iteration #  1     ecut=    50.00 Ry     beta= 0.30
     Davidson diagonalization with overlap

     ethr =  1.00E-02,  avg # of iterations =  2.0

     total energy              =   -1445.64604439 Ry
     estimated scf accuracy    <       2.69494317 Ry

[...]

     total energy              =   -1446.18929820 Ry
     estimated scf accuracy    <       0.00000043 Ry

     iteration # 26     ecut=    50.00 Ry     beta= 0.30
     Davidson diagonalization with overlap

     ethr =  2.13E-10,  avg # of iterations =  5.1

     End of self-consistent calculation

          k = 0.0000 0.0000 0.0000 (  6369 PWs)   bands (ev):

    -9.4298  -8.9711  -8.9710  -8.4720  -8.4076  -8.2514  -8.2513  -8.1183
     2.7621   2.7621   3.0051   3.0412   3.0721   3.1279   3.1280   3.5174
     3.5176   3.5945   3.6086   3.6086   3.6088   3.6088   3.7476   3.7478
     3.8911   4.1717   4.1717   4.2276   4.2296   4.2296   4.4202   4.5465
     5.3852   5.3852   5.3907   5.5498   5.5498   5.5498   5.5498   5.6410
     5.6663   5.6663   5.6736   5.6736   5.7478   5.7500   5.7500   5.8551
     6.0710   6.0769   6.1527   6.1527   6.3253   7.0199   7.6556   7.8625
     7.8625   8.5031   8.5031   8.5204   8.5204   8.7326   9.2802   9.5273
     9.5276   9.9850   9.9850   9.9852   9.9853  10.1512  10.4423  10.4426

     occupation numbers
     1.0000   1.0000   1.0000   1.0000   1.0000   1.0000   1.0000   1.0000
     1.0000   1.0000   1.0000   1.0000   1.0000   1.0000   1.0000   1.0000
     1.0000   1.0000   1.0000   1.0000   1.0000   1.0000   1.0000   1.0000
     1.0000   1.0000   1.0000   1.0000   1.0000   1.0000   1.0000   1.0000
     1.0000   1.0000   1.0000   1.0000   1.0000   1.0000   1.0000   1.0000
     1.0000   1.0000   1.0000   1.0000   1.0000   1.0000   1.0000   1.0000
     1.0000   1.0000   1.0000   1.0000   1.0000   1.0000   1.0000   1.0000
     1.0000   1.0000   1.0000   1.0000   1.0000   1.0000   1.0000   1.0000
     1.0000   1.0000   1.0000   1.0000   1.0000   1.0000   1.0000   1.0000

[...]

          k =-0.5000-0.2887 0.0000 (  6450 PWs)   bands (ev):

[...]

          k = 0.3333 0.1925-0.1985 (  6420 PWs)   bands (ev):

[...]

          k =-0.6667 0.7698-0.1985 (  6358 PWs)   bands (ev):

    -8.3987  -8.3985  -8.3367  -8.3365  -8.1813  -8.1811  -8.1303  -8.1301
     3.0031   3.0032   3.0898   3.0898   3.1073   3.1073   3.2932   3.2932
     3.8252   3.8253   3.8426   3.8427   3.9878   3.9879   4.0602   4.0602
     4.3320   4.3320   4.3710   4.3710   4.4003   4.4003   4.4703   4.4704
     5.3010   5.3010   5.4336   5.4336   5.5286   5.5286   5.5880   5.5880
     5.7593   5.7593   5.7650   5.7650   5.9342   5.9342   5.9700   5.9700
     6.0700   6.0700   6.2252   6.2252   6.6566   6.6566   6.7440   6.7441
     7.0203   7.0203   7.4338   7.4339   7.5263   7.5264   7.9143   7.9144
     8.4513   8.4513   8.6439   8.6439   8.8805   8.8806   8.9350   8.9351

     occupation numbers
     1.0000   1.0000   1.0000   1.0000   1.0000   1.0000   1.0000   1.0000
     1.0000   1.0000   1.0000   1.0000   1.0000   1.0000   1.0000   1.0000
     1.0000   1.0000   1.0000   1.0000   1.0000   1.0000   1.0000   1.0000
     1.0000   1.0000   1.0000   1.0000   1.0000   1.0000   1.0000   1.0000
     1.0000   1.0000   1.0000   1.0000   1.0000   1.0000   1.0000   1.0000
     1.0000   1.0000   1.0000   1.0000   1.0000   1.0000   1.0000   1.0000
     1.0000   1.0000   1.0000   1.0000   1.0000   1.0000   1.0000   1.0000
     1.0000   1.0000   1.0000   1.0000   1.0000   1.0000   1.0000   1.0000
     1.0000   1.0000   1.0000   1.0000   1.0000   1.0000   1.0000   1.0000

     highest occupied level (ev):    10.4426

!    total energy              =   -1446.18929831 Ry
     estimated scf accuracy    <          4.8E-09 Ry

     The total energy is the sum of the following terms:
     one-electron contribution =    -518.54698743 Ry
     hartree contribution      =     438.67720659 Ry
     xc contribution           =    -440.14023486 Ry
     ewald contribution        =    -926.17928262 Ry

     convergence has been achieved in  26 iterations

     Forces acting on atoms (cartesian axes, Ry/au):

     atom    1 type  1   force =    -0.00000435   -0.00000251    0.03170025
     atom    2 type  1   force =    -0.00001829   -0.00001056    0.03172334
     atom    3 type  2   force =    -0.00000498   -0.00000288   -0.03168821
     atom    4 type  2   force =     0.00000051    0.00000029   -0.03169295
     atom    5 type  1   force =     0.00000394    0.00000227    0.03165102
     atom    6 type  1   force =    -0.00002901   -0.00001675    0.03168430
     atom    7 type  2   force =     0.00000243    0.00000140   -0.03168072
     atom    8 type  2   force =    -0.00000046   -0.00000026   -0.03169836
     atom    9 type  1   force =     0.00002907    0.00001678    0.03172205
     atom   10 type  1   force =    -0.00000612   -0.00000354    0.03171133
     atom   11 type  2   force =     0.00000240    0.00000139   -0.03168850
     atom   12 type  2   force =     0.00000066    0.00000038   -0.03169574
     atom   13 type  1   force =     0.00002205    0.00001273    0.03165869
     atom   14 type  1   force =     0.00000534    0.00000308    0.03167362
     atom   15 type  2   force =    -0.00000341   -0.00000197   -0.03168204
     atom   16 type  2   force =     0.00000022    0.00000013   -0.03169804
     The non-local contrib.  to forces
     atom    1 type  1   force =    -0.00003506   -0.00002024    0.11662802
     atom    2 type  1   force =     0.00002801    0.00001617    0.11661825
     atom    3 type  2   force =    -0.00016322   -0.00009423    0.08986900
     atom    4 type  2   force =     0.00016277    0.00009398    0.08985496
     atom    5 type  1   force =    -0.00003337   -0.00001927    0.11660537
     atom    6 type  1   force =     0.00002527    0.00001459    0.11661652
     atom    7 type  2   force =    -0.00015810   -0.00009128    0.08986713
     atom    8 type  2   force =     0.00016364    0.00009448    0.08987494
     atom    9 type  1   force =    -0.00002610   -0.00001507    0.11662998
     atom   10 type  1   force =     0.00003378    0.00001950    0.11661767
     atom   11 type  2   force =    -0.00016080   -0.00009284    0.08986799
     atom   12 type  2   force =     0.00015775    0.00009107    0.08985393
     atom   13 type  1   force =    -0.00002795   -0.00001614    0.11660546
     atom   14 type  1   force =     0.00003524    0.00002035    0.11661532
     atom   15 type  2   force =    -0.00016386   -0.00009461    0.08986847
     atom   16 type  2   force =     0.00016038    0.00009260    0.08987685
     The ionic contribution  to forces
     atom    1 type  1   force =     0.00000000    0.00000001    1.00434955
     atom    2 type  1   force =     0.00000001    0.00000000    1.00434955
     atom    3 type  2   force =     0.00000000    0.00000001   -1.00434955
     atom    4 type  2   force =     0.00000001   -0.00000000   -1.00434955
     atom    5 type  1   force =     0.00000000    0.00000001    1.00434955
     atom    6 type  1   force =     0.00000001    0.00000000    1.00434955
     atom    7 type  2   force =     0.00000000    0.00000001   -1.00434955
     atom    8 type  2   force =     0.00000001   -0.00000000   -1.00434955
     atom    9 type  1   force =    -0.00000000   -0.00000000    1.00434955
     atom   10 type  1   force =    -0.00000001   -0.00000001    1.00434955
     atom   11 type  2   force =    -0.00000000   -0.00000000   -1.00434955
     atom   12 type  2   force =    -0.00000001   -0.00000000   -1.00434955
     atom   13 type  1   force =    -0.00000000   -0.00000000    1.00434955
     atom   14 type  1   force =    -0.00000001   -0.00000001    1.00434955
     atom   15 type  2   force =    -0.00000000   -0.00000000   -1.00434955
     atom   16 type  2   force =    -0.00000001   -0.00000000   -1.00434955
     The local contribution  to forces
     atom    1 type  1   force =     0.00007260    0.00004192   -1.07937508
     atom    2 type  1   force =    -0.00003625   -0.00002102   -1.07941620
     atom    3 type  2   force =     0.00016480    0.00009515    0.88338229
     atom    4 type  2   force =    -0.00015764   -0.00009104    0.88336187
     atom    5 type  1   force =     0.00006284    0.00003628   -1.07931949
     atom    6 type  1   force =    -0.00001965   -0.00001143   -1.07935191
     atom    7 type  2   force =     0.00015730    0.00009082    0.88336984
     atom    8 type  2   force =    -0.00015855   -0.00009156    0.88339926
     atom    9 type  1   force =     0.00002296    0.00001326   -1.07940585
     atom   10 type  1   force =    -0.00006063   -0.00003501   -1.07939544
     atom   11 type  2   force =     0.00015549    0.00008977    0.88338755
     atom   12 type  2   force =    -0.00015798   -0.00009121    0.88336172
     atom   13 type  1   force =     0.00003257    0.00001881   -1.07933150
     atom   14 type  1   force =    -0.00007574   -0.00004373   -1.07933298
     atom   15 type  2   force =     0.00016263    0.00009390    0.88336881
     atom   16 type  2   force =    -0.00016071   -0.00009279    0.88339043
     The core correction contribution to forces
     atom    1 type  1   force =    -0.00000570   -0.00000327   -0.00990468
     atom    2 type  1   force =     0.00000493    0.00000284   -0.00989974
     atom    3 type  2   force =     0.00000187    0.00000108   -0.00059551
     atom    4 type  2   force =    -0.00000185   -0.00000107   -0.00059592
     atom    5 type  1   force =    -0.00000553   -0.00000318   -0.00990390
     atom    6 type  1   force =     0.00000457    0.00000263   -0.00990654
     atom    7 type  2   force =     0.00000178    0.00000103   -0.00059794
     atom    8 type  2   force =    -0.00000186   -0.00000107   -0.00059743
     atom    9 type  1   force =    -0.00000472   -0.00000273   -0.00990369
     atom   10 type  1   force =     0.00000544    0.00000313   -0.00990050
     atom   11 type  2   force =     0.00000182    0.00000105   -0.00059547
     atom   12 type  2   force =    -0.00000178   -0.00000103   -0.00059592
     atom   13 type  1   force =    -0.00000489   -0.00000282   -0.00990348
     atom   14 type  1   force =     0.00000583    0.00000335   -0.00990719
     atom   15 type  2   force =     0.00000188    0.00000108   -0.00059796
     atom   16 type  2   force =    -0.00000182   -0.00000105   -0.00059748
     The Hubbard contrib.    to forces
     atom    1 type  1   force =     0.00000000    0.00000000    0.00000000
     atom    2 type  1   force =     0.00000000    0.00000000    0.00000000
     atom    3 type  2   force =     0.00000000    0.00000000    0.00000000
     atom    4 type  2   force =     0.00000000    0.00000000    0.00000000
     atom    5 type  1   force =     0.00000000    0.00000000    0.00000000
     atom    6 type  1   force =     0.00000000    0.00000000    0.00000000
     atom    7 type  2   force =     0.00000000    0.00000000    0.00000000
     atom    8 type  2   force =     0.00000000    0.00000000    0.00000000
     atom    9 type  1   force =     0.00000000    0.00000000    0.00000000
     atom   10 type  1   force =     0.00000000    0.00000000    0.00000000
     atom   11 type  2   force =     0.00000000    0.00000000    0.00000000
     atom   12 type  2   force =     0.00000000    0.00000000    0.00000000
     atom   13 type  1   force =     0.00000000    0.00000000    0.00000000
     atom   14 type  1   force =     0.00000000    0.00000000    0.00000000
     atom   15 type  2   force =     0.00000000    0.00000000    0.00000000
     atom   16 type  2   force =     0.00000000    0.00000000    0.00000000
     The SCF correction term to forces
     atom    1 type  1   force =    -0.00003615   -0.00002087   -0.00000382
     atom    2 type  1   force =    -0.00001489   -0.00000859    0.00006523
     atom    3 type  2   force =    -0.00000838   -0.00000484   -0.00000071
     atom    4 type  2   force =    -0.00000271   -0.00000156    0.00002943
     atom    5 type  1   force =    -0.00001996   -0.00001152   -0.00008678
     atom    6 type  1   force =    -0.00003911   -0.00002258   -0.00002959
     atom    7 type  2   force =     0.00000149    0.00000086    0.00002354
     atom    8 type  2   force =    -0.00000362   -0.00000209   -0.00003185
     atom    9 type  1   force =     0.00003699    0.00002136    0.00004579
     atom   10 type  1   force =     0.00001536    0.00000887    0.00003378
     atom   11 type  2   force =     0.00000594    0.00000343   -0.00000528
     atom   12 type  2   force =     0.00000274    0.00000158    0.00002782
     atom   13 type  1   force =     0.00002238    0.00001292   -0.00006759
     atom   14 type  1   force =     0.00004009    0.00002314   -0.00005734
     atom   15 type  2   force =    -0.00000400   -0.00000231    0.00002193
     atom   16 type  2   force =     0.00000244    0.00000141   -0.00002455

     Total force =     0.126762     Total SCF correction =     0.000195

     General routines

     Parallel routines

   This run was terminated on:  21: 0:34  28Aug2025

   JOB DONE.
Note: The following floating-point exceptions are signalling: IEEE_UNDERFLOW_FLAG IEEE_DENORMAL
Note: The following floating-point exceptions are signalling: IEEE_UNDERFLOW_FLAG IEEE_DENORMAL
Note: The following floating-point exceptions are signalling: IEEE_UNDERFLOW_FLAG IEEE_DENORMAL
Note: The following floating-point exceptions are signalling: IEEE_UNDERFLOW_FLAG IEEE_DENORMAL
Note: The following floating-point exceptions are signalling: IEEE_UNDERFLOW_FLAG IEEE_DENORMAL
Note: The following floating-point exceptions are signalling: IEEE_UNDERFLOW_FLAG IEEE_DENORMAL
Note: The following floating-point exceptions are signalling: IEEE_UNDERFLOW_FLAG IEEE_DENORMAL
Note: The following floating-point exceptions are signalling: IEEE_UNDERFLOW_FLAG IEEE_DENORMAL
Note: The following floating-point exceptions are signalling: IEEE_UNDERFLOW_FLAG IEEE_DENORMAL
Note: The following floating-point exceptions are signalling: IEEE_UNDERFLOW_FLAG IEEE_DENORMAL
Note: The following floating-point exceptions are signalling: IEEE_UNDERFLOW_FLAG IEEE_DENORMAL
Note: The following floating-point exceptions are signalling: IEEE_UNDERFLOW_FLAG IEEE_DENORMAL
Note: The following floating-point exceptions are signalling: IEEE_UNDERFLOW_FLAG IEEE_DENORMAL
Note: The following floating-point exceptions are signalling: IEEE_UNDERFLOW_FLAG IEEE_DENORMAL
Note: The following floating-point exceptions are signalling: IEEE_UNDERFLOW_FLAG IEEE_DENORMAL
Note: The following floating-point exceptions are signalling: IEEE_UNDERFLOW_FLAG IEEE_DENORMAL
Note: The following floating-point exceptions are signalling: IEEE_UNDERFLOW_FLAG IEEE_DENORMAL
Note: The following floating-point exceptions are signalling: IEEE_UNDERFLOW_FLAG IEEE_DENORMAL
Note: The following floating-point exceptions are signalling: IEEE_UNDERFLOW_FLAG IEEE_DENORMAL
Note: The following floating-point exceptions are signalling: IEEE_UNDERFLOW_FLAG IEEE_DENORMAL
Note: The following floating-point exceptions are signalling: IEEE_UNDERFLOW_FLAG IEEE_DENORMAL
Note: The following floating-point exceptions are signalling: IEEE_UNDERFLOW_FLAG IEEE_DENORMAL
Note: The following floating-point exceptions are signalling: IEEE_UNDERFLOW_FLAG IEEE_DENORMAL
Note: The following floating-point exceptions are signalling: IEEE_UNDERFLOW_FLAG IEEE_DENORMAL
Note: The following floating-point exceptions are signalling: IEEE_UNDERFLOW_FLAG IEEE_DENORMAL
Note: The following floating-point exceptions are signalling: IEEE_UNDERFLOW_FLAG IEEE_DENORMAL
Note: The following floating-point exceptions are signalling: IEEE_UNDERFLOW_FLAG IEEE_DENORMAL
Note: The following floating-point exceptions are signalling: IEEE_UNDERFLOW_FLAG IEEE_DENORMAL
Note: The following floating-point exceptions are signalling: IEEE_UNDERFLOW_FLAG IEEE_DENORMAL
Note: The following floating-point exceptions are signalling: IEEE_UNDERFLOW_FLAG IEEE_DENORMAL
Note: The following floating-point exceptions are signalling: IEEE_UNDERFLOW_FLAG IEEE_DENORMAL
Note: The following floating-point exceptions are signalling: IEEE_UNDERFLOW_FLAG IEEE_DENORMAL